n_tasks = 92;
n_res = 4;
d = [0, 7, 1, 10, 5, 7, 2, 10, 9, 1, 9, 1, 10, 6, 2, 8, 6, 1, 6, 4, 6, 2, 9, 6, 10, 5, 1, 5, 2, 4, 7, 2, 4, 8, 4, 7, 3, 4, 1, 4, 4, 10, 6, 7, 2, 2, 6, 9, 10, 5, 4, 9, 9, 10, 9, 7, 10, 3, 8, 1, 4, 9, 1, 6, 7, 3, 2, 10, 9, 5, 1, 2, 7, 2, 7, 8, 3, 6, 3, 2, 3, 7, 4, 2, 3, 2, 1, 5, 4, 4, 4, 0];
rr = [|0, 0, 0, 9, 2, 0, 0, 1, 9, 0, 5, 0, 0, 0, 3, 0, 9, 0, 0, 0, 0, 10, 0, 0, 10, 0, 0, 8, 1, 0, 2, 7, 0, 0, 0, 0, 0, 7, 0, 7, 0, 3, 0, 4, 0, 0, 0, 0, 3, 0, 0, 0, 0, 0, 0, 7, 0, 0, 0, 0, 0, 0, 0, 6, 4, 0, 0, 0, 0, 0, 7, 0, 0, 10, 0, 0, 0, 10, 0, 0, 0, 0, 8, 0, 0, 0, 0, 0, 0, 0, 0, 0
      |0, 0, 0, 0, 0, 0, 0, 0, 0, 0, 0, 0, 1, 0, 0, 0, 0, 0, 0, 0, 3, 0, 0, 0, 0, 3, 0, 0, 0, 0, 0, 0, 10, 0, 3, 0, 0, 0, 0, 0, 0, 0, 0, 0, 0, 10, 0, 0, 0, 10, 0, 6, 0, 0, 7, 0, 0, 0, 0, 0, 0, 0, 0, 0, 0, 0, 0, 0, 0, 0, 0, 0, 0, 0, 0, 0, 0, 0, 0, 0, 4, 0, 0, 0, 0, 2, 0, 0, 0, 0, 7, 0
      |0, 4, 1, 0, 0, 5, 2, 0, 0, 3, 0, 4, 0, 0, 0, 0, 0, 6, 0, 9, 0, 0, 6, 9, 0, 0, 6, 0, 0, 0, 0, 0, 0, 2, 0, 0, 4, 0, 0, 0, 0, 0, 9, 0, 2, 0, 6, 0, 0, 0, 7, 0, 0, 0, 0, 0, 4, 0, 9, 9, 8, 0, 5, 0, 0, 0, 7, 0, 0, 7, 0, 2, 0, 0, 9, 7, 6, 0, 0, 2, 0, 0, 0, 3, 0, 0, 2, 0, 5, 0, 0, 0
      |0, 0, 0, 0, 0, 0, 0, 0, 0, 0, 0, 0, 0, 6, 0, 8, 0, 0, 8, 0, 0, 0, 0, 0, 0, 0, 0, 0, 0, 10, 0, 0, 0, 0, 0, 9, 0, 0, 9, 0, 3, 0, 0, 0, 0, 0, 0, 6, 0, 0, 0, 0, 9, 7, 0, 0, 0, 9, 0, 0, 0, 7, 0, 0, 0, 1, 0, 4, 10, 0, 0, 0, 7, 0, 0, 0, 0, 0, 10, 0, 0, 10, 0, 0, 5, 0, 0, 10, 0, 9, 0, 0|];
rc = [30, 20, 24, 26];
suc = [{2, 3, 4, 5, 6, 7, 8, 9, 10, 11, 12, 13, 14, 15, 16, 17, 18, 19, 20, 21, 22, 23, 24, 25, 26, 27, 28, 29, 30, 31, 32, 33, 34, 35, 36, 37, 38, 39, 40, 41, 42, 43, 44, 45, 46, 47, 48, 49, 50, 51, 52, 53, 54, 55, 56, 57, 58, 59, 60, 61, 62, 63, 64, 65, 66, 67, 68, 69, 70, 71, 72, 73, 74, 75, 76, 77, 78, 79, 80, 81, 82, 83, 84, 85, 86, 87, 88, 89, 90, 91, 92},
       {5, 6, 7, 11, 12, 13, 16, 17, 20, 21, 22, 27, 28, 29, 30, 32, 35, 36, 38, 40, 41, 43, 44, 47, 48, 49, 50, 51, 52, 53, 55, 56, 57, 58, 59, 60, 61, 62, 63, 64, 65, 66, 67, 68, 69, 70, 71, 73, 74, 75, 76, 77, 78, 79, 80, 81, 82, 83, 84, 85, 86, 87, 88, 89, 90, 91, 92},
       {8, 9, 10, 15, 23, 24, 25, 26, 27, 33, 36, 37, 39, 42, 45, 46, 47, 48, 51, 53, 54, 55, 56, 57, 58, 59, 60, 61, 62, 63, 64, 65, 66, 67, 68, 69, 70, 71, 72, 73, 74, 75, 76, 77, 78, 79, 80, 81, 82, 83, 84, 85, 86, 87, 88, 89, 90, 91, 92},
       {14, 18, 19, 27, 31, 34, 36, 38, 48, 59, 60, 63, 64, 65, 67, 69, 70, 71, 73, 76, 77, 78, 79, 80, 81, 82, 83, 84, 85, 86, 87, 88, 89, 90, 91, 92},
       {6, 7, 11, 12, 13, 16, 17, 20, 21, 22, 27, 28, 29, 30, 32, 35, 36, 38, 40, 41, 43, 47, 48, 51, 52, 55, 56, 57, 58, 59, 60, 61, 62, 63, 64, 65, 66, 67, 68, 69, 70, 71, 73, 74, 76, 77, 78, 79, 80, 81, 82, 83, 84, 85, 86, 87, 88, 89, 90, 91, 92},
       {7, 12, 13, 22, 27, 28, 36, 41, 48, 52, 55, 57, 59, 60, 62, 63, 64, 65, 67, 68, 69, 70, 71, 73, 76, 78, 80, 81, 82, 83, 84, 85, 86, 87, 88, 89, 90, 91, 92},
       {12, 13, 22, 27, 28, 36, 48, 52, 55, 57, 59, 60, 63, 64, 65, 67, 68, 69, 70, 71, 73, 76, 78, 80, 81, 82, 83, 84, 85, 86, 87, 88, 89, 90, 91, 92},
       {15, 23, 33, 39, 45, 46, 47, 51, 53, 55, 56, 57, 60, 62, 67, 68, 69, 71, 74, 75, 76, 77, 78, 81, 82, 83, 84, 85, 86, 88, 89, 90, 91, 92},
       {24, 27, 36, 37, 48, 54, 58, 59, 61, 63, 64, 65, 66, 67, 69, 70, 71, 73, 74, 76, 77, 78, 79, 80, 81, 82, 83, 84, 85, 86, 87, 88, 89, 90, 91, 92},
       {25, 26, 42, 56, 57, 69, 72, 75, 78, 80, 81, 84, 85, 86, 88, 90, 91, 92},
       {17, 21, 40, 41, 43, 55, 57, 60, 68, 69, 71, 73, 76, 78, 81, 82, 83, 84, 85, 86, 88, 89, 90, 91, 92},
       {22, 28, 52, 55, 57, 60, 68, 69, 70, 71, 76, 78, 81, 83, 84, 85, 86, 88, 89, 91, 92},
       {36, 80, 90, 92},
       {18, 27, 36, 48, 59, 63, 64, 65, 67, 69, 70, 71, 73, 76, 77, 78, 80, 81, 82, 83, 84, 85, 86, 87, 88, 89, 90, 91, 92},
       {53, 55, 57, 60, 62, 68, 69, 71, 74, 75, 76, 77, 78, 81, 83, 84, 85, 86, 88, 89, 91, 92},
       {20, 29, 30, 32, 35, 38, 47, 48, 51, 56, 57, 58, 61, 63, 64, 65, 66, 67, 69, 70, 71, 73, 74, 76, 77, 78, 79, 80, 81, 82, 83, 84, 85, 86, 87, 88, 89, 90, 91, 92},
       {41, 73, 82, 86, 88, 91, 92},
       {27, 48, 59, 63, 64, 65, 67, 69, 70, 71, 73, 76, 78, 81, 82, 83, 84, 85, 86, 87, 88, 89, 91, 92},
       {34, 38, 60, 63, 71, 73, 76, 78, 79, 81, 82, 83, 85, 86, 88, 89, 91, 92},
       {29, 38, 48, 65, 67, 69, 76, 79, 82, 83, 84, 86, 87, 88, 89, 91, 92},
       {84, 91, 92},
       {55, 57, 60, 69, 70, 71, 76, 78, 81, 83, 84, 85, 86, 88, 89, 91, 92},
       {33, 39, 46, 47, 51, 56, 67, 77, 78, 81, 82, 83, 85, 86, 88, 89, 90, 91, 92},
       {36, 37, 54, 58, 61, 63, 66, 70, 71, 73, 74, 77, 78, 79, 80, 81, 82, 83, 84, 85, 86, 87, 88, 89, 90, 91, 92},
       {42, 56, 57, 69, 72, 80, 84, 88, 90, 91, 92},
       {75, 78, 81, 85, 86, 88, 91, 92},
       {48, 59, 63, 64, 65, 67, 69, 70, 71, 73, 76, 78, 81, 82, 83, 84, 85, 86, 87, 88, 89, 91, 92},
       {68, 85, 86, 88, 91, 92},
       {48, 67, 69, 82, 84, 86, 87, 88, 89, 91, 92},
       {32, 35, 47, 51, 56, 57, 58, 61, 63, 66, 69, 70, 71, 73, 74, 77, 78, 79, 80, 81, 82, 83, 84, 85, 86, 87, 88, 89, 90, 91, 92},
       {87, 89, 92},
       {47, 51, 56, 77, 82, 83, 86, 88, 89, 90, 91, 92},
       {39, 46, 56, 67, 78, 81, 85, 86, 88, 89, 90, 91, 92},
       {38, 63, 71, 73, 76, 78, 79, 81, 82, 83, 85, 86, 88, 89, 91, 92},
       {47, 51, 56, 58, 61, 63, 66, 70, 71, 73, 74, 77, 78, 79, 80, 81, 82, 83, 84, 85, 86, 87, 88, 89, 90, 91, 92},
       {80, 90, 92},
       {54, 58, 61, 63, 66, 70, 71, 73, 74, 77, 78, 79, 80, 81, 82, 83, 84, 85, 86, 87, 88, 89, 90, 91, 92},
       {76, 79, 83, 86, 88, 89, 91, 92},
       {46, 56, 67, 78, 81, 85, 86, 88, 89, 90, 91, 92},
       {43, 55, 57, 60, 68, 69, 71, 76, 78, 81, 83, 84, 85, 86, 88, 89, 90, 91, 92},
       {73, 82, 86, 88, 91, 92},
       {57, 69, 72, 80, 84, 88, 90, 91, 92},
       {55, 57, 60, 68, 69, 71, 76, 78, 81, 83, 84, 85, 86, 88, 89, 90, 91, 92},
       {52, 60, 69, 71, 78, 81, 83, 84, 85, 86, 88, 89, 91, 92},
       {81, 85, 86, 88, 91, 92},
       {56, 67, 78, 81, 85, 86, 88, 90, 91, 92},
       {51, 56, 77, 82, 83, 86, 88, 89, 90, 91, 92},
       {67, 69, 84, 87, 88, 89, 91, 92},
       {50, 51, 53, 55, 57, 60, 61, 62, 63, 65, 67, 68, 69, 70, 71, 73, 75, 76, 78, 79, 81, 82, 83, 84, 85, 86, 87, 88, 89, 91, 92},
       {51, 53, 55, 57, 60, 62, 65, 67, 68, 69, 71, 75, 76, 78, 81, 82, 83, 84, 85, 86, 88, 89, 91, 92},
       {82, 86, 88, 91, 92},
       {60, 69, 71, 78, 81, 83, 84, 85, 86, 88, 89, 91, 92},
       {55, 57, 60, 62, 68, 69, 71, 75, 76, 78, 81, 83, 84, 85, 86, 88, 89, 91, 92},
       {58, 61, 63, 66, 70, 71, 73, 74, 77, 78, 79, 80, 81, 82, 83, 84, 85, 86, 87, 88, 89, 90, 91, 92},
       {57, 60, 69, 71, 76, 78, 81, 83, 84, 85, 86, 88, 89, 91, 92},
       {90, 92},
       {69, 84, 91, 92},
       {61, 63, 66, 70, 71, 73, 74, 77, 78, 79, 80, 81, 82, 83, 84, 85, 86, 87, 88, 89, 90, 91, 92},
       {64, 65, 67, 70, 73, 76, 82, 83, 84, 86, 88, 89, 91, 92},
       {71, 78, 81, 83, 85, 86, 88, 89, 91, 92},
       {63, 70, 71, 73, 78, 81, 82, 83, 84, 85, 86, 87, 88, 89, 91, 92},
       {68, 71, 78, 81, 83, 85, 86, 88, 89, 91, 92},
       {71, 73, 78, 81, 82, 83, 85, 86, 88, 89, 91, 92},
       {65, 67, 70, 76, 83, 84, 86, 88, 89, 91, 92},
       {67, 76, 83, 86, 88, 89, 91, 92},
       {74, 77, 79, 80, 83, 85, 86, 88, 89, 90, 91, 92},
       {88, 91, 92},
       {85, 86, 88, 91, 92},
       {84, 91, 92},
       {84, 91, 92},
       {78, 81, 83, 85, 86, 88, 89, 91, 92},
       {80, 88, 90, 91, 92},
       {82, 86, 88, 91, 92},
       {77, 83, 85, 86, 88, 89, 91, 92},
       {78, 81, 85, 86, 88, 91, 92},
       {83, 86, 88, 89, 91, 92},
       {83, 86, 88, 89, 91, 92},
       {81, 85, 86, 88, 91, 92},
       {91, 92},
       {90, 92},
       {85, 86, 88, 91, 92},
       {86, 88, 91, 92},
       {86, 88, 89, 91, 92},
       {91, 92},
       {86, 88, 91, 92},
       {88, 91, 92},
       {89, 92},
       {91, 92},
       {92},
       {92},
       {92},
       {}];
t_max = 79;
deadline = [|1, 5, 4
            |3, 2, 2
            |9, 4, 0
            |0, 5, 2
            |17, 0, 2
            |22, 1, 5
            |31, 0, 0
            |8, 5, 2
            |4, 2, 0
            |4, 2, 2
            |15, 1, 1
            |27, 1, 0
            |33, 3, 3
            |12, 5, 5
            |12, 1, 4
            |21, 5, 2
            |37, 4, 1
            |24, 5, 5
            |17, 3, 0
            |23, 4, 2
            |29, 3, 4
            |31, 2, 2
            |18, 4, 3
            |15, 2, 0
            |10, 4, 5
            |10, 2, 1
            |28, 5, 4
            |32, 5, 1
            |31, 5, 3
            |26, 1, 3
            |23, 0, 4
            |35, 5, 4
            |31, 3, 3
            |21, 0, 5
            |31, 1, 3
            |38, 2, 2
            |23, 3, 3
            |30, 0, 1
            |26, 3, 5
            |32, 4, 4
            |35, 5, 4
            |21, 0, 0
            |35, 1, 0
            |15, 2, 0
            |13, 3, 1
            |28, 4, 2
            |32, 2, 0
            |31, 2, 1
            |8, 5, 3
            |19, 3, 4
            |41, 0, 0
            |32, 0, 4
            |31, 3, 1
            |32, 4, 3
            |34, 3, 2
            |42, 1, 3
            |40, 1, 5
            |41, 1, 5
            |26, 5, 4
            |45, 1, 0
            |44, 0, 4
            |44, 3, 1
            |48, 5, 4
            |37, 2, 2
            |38, 4, 2
            |34, 0, 3
            |49, 2, 1
            |52, 5, 0
            |52, 1, 5
            |46, 2, 1
            |50, 5, 5
            |34, 5, 4
            |43, 5, 1
            |45, 0, 1
            |43, 1, 4
            |51, 5, 2
            |41, 1, 5
            |50, 5, 5
            |45, 3, 0
            |39, 0, 5
            |59, 4, 2
            |53, 4, 2
            |58, 1, 0
            |62, 5, 3
            |63, 2, 1
            |66, 4, 0
            |45, 0, 0
            |69, 0, 1
            |68, 2, 0
            |43, 1, 4
            |63, 5, 2
            |79, 5, 1|];
initial_solution = [0, 0, 0, 0, 7, 12, 19, 1, 1, 1, 12, 21, 22, 10, 11, 12, 26, 16, 10, 20, 27, 22, 11, 10, 10, 2, 21, 25, 24, 20, 10, 24, 20, 16, 24, 32, 16, 24, 24, 21, 32, 20, 25, 7, 11, 25, 28, 26, 7, 17, 41, 22, 22, 19, 31, 34, 40, 29, 22, 40, 32, 31, 36, 30, 36, 32, 45, 40, 50, 36, 41, 30, 37, 35, 31, 43, 37, 42, 44, 39, 48, 45, 51, 59, 51, 55, 36, 57, 55, 41, 62, 66];