n_tasks = 32;
n_res = 4;
d = [0, 8, 6, 6, 2, 3, 6, 10, 2, 3, 6, 1, 7, 1, 8, 9, 5, 8, 8, 8, 3, 8, 6, 3, 3, 9, 5, 7, 9, 10, 1, 0];
rr = [|0, 0, 1, 0, 0, 0, 1, 1, 0, 10, 0, 10, 0, 0, 7, 0, 0, 5, 0, 0, 7, 0, 0, 0, 7, 10, 4, 0, 9, 0, 0, 0
      |0, 6, 0, 0, 9, 0, 0, 0, 0, 0, 0, 0, 0, 5, 0, 0, 8, 0, 0, 10, 0, 0, 0, 0, 0, 0, 0, 0, 0, 0, 4, 0
      |0, 0, 0, 0, 0, 0, 0, 0, 0, 0, 7, 0, 3, 0, 0, 1, 0, 0, 0, 0, 0, 0, 0, 1, 0, 0, 0, 7, 0, 0, 0, 0
      |0, 0, 0, 7, 0, 6, 0, 0, 5, 0, 0, 0, 0, 0, 0, 0, 0, 0, 4, 0, 0, 2, 4, 0, 0, 0, 0, 0, 0, 9, 0, 0|];
rc = [28, 18, 11, 13];
suc = [{2, 3, 4, 5, 6, 7, 8, 9, 10, 11, 12, 13, 14, 15, 16, 17, 18, 19, 20, 21, 22, 23, 24, 25, 26, 27, 28, 29, 30, 31, 32},
       {5, 9, 10, 11, 12, 14, 16, 17, 18, 19, 20, 21, 22, 23, 24, 25, 26, 27, 28, 29, 30, 31, 32},
       {6, 7, 8, 9, 13, 14, 17, 18, 19, 21, 24, 25, 26, 27, 28, 29, 31, 32},
       {15, 30, 32},
       {12, 20, 23, 29, 30, 32},
       {7, 8, 9, 13, 14, 17, 18, 19, 21, 24, 25, 26, 27, 28, 29, 31, 32},
       {8, 13, 14, 19, 21, 24, 25, 26, 27, 28, 29, 31, 32},
       {14, 19, 21, 24, 25, 26, 27, 28, 29, 31, 32},
       {17, 18, 26, 27, 28, 29, 31, 32},
       {11, 14, 16, 18, 19, 21, 22, 24, 25, 27, 28, 29, 30, 31, 32},
       {14, 18, 19, 21, 24, 25, 27, 28, 29, 31, 32},
       {23, 29, 30, 32},
       {24, 29, 32},
       {19, 21, 24, 25, 27, 28, 29, 31, 32},
       {30, 32},
       {19, 21, 22, 24, 25, 27, 28, 29, 30, 31, 32},
       {26, 27, 28, 29, 31, 32},
       {31, 32},
       {21, 24, 27, 28, 29, 31, 32},
       {23, 29, 30, 32},
       {24, 29, 32},
       {30, 32},
       {29, 30, 32},
       {29, 32},
       {28, 29, 32},
       {27, 28, 29, 31, 32},
       {28, 29, 31, 32},
       {29, 32},
       {32},
       {32},
       {32},
       {}];
t_max = 66;
deadline = [|1, 5, 4
            |3, 2, 2
            |7, 4, 0
            |0, 5, 2
            |17, 0, 2
            |14, 1, 5
            |19, 0, 0
            |21, 5, 2
            |11, 2, 0
            |10, 2, 2
            |13, 1, 1
            |15, 1, 0
            |25, 3, 3
            |27, 5, 5
            |7, 1, 4
            |19, 5, 2
            |20, 4, 1
            |24, 5, 5
            |32, 3, 0
            |12, 4, 2
            |36, 3, 4
            |28, 2, 2
            |24, 4, 3
            |41, 2, 0
            |26, 4, 5
            |32, 2, 1
            |40, 5, 4
            |45, 5, 1
            |52, 5, 3
            |33, 1, 3
            |50, 0, 4
            |64, 5, 4|];
initial_solution = [0, 0, 0, 0, 8, 6, 9, 15, 9, 8, 11, 10, 15, 25, 6, 11, 11, 17, 26, 10, 34, 20, 18, 37, 26, 25, 34, 39, 46, 28, 39, 55];