numResources = 4;
numTasks = 60;
Duration = [8, 9, 2, 2, 5, 1, 7, 4, 3, 7, 7, 3, 2, 3, 6, 2, 9, 8, 1, 1, 10, 5, 6, 8, 2, 3, 3, 1, 7, 8, 9, 5, 6, 9, 7, 2, 3, 4, 9, 1, 7, 7, 1, 6, 7, 3, 5, 10, 7, 6, 3, 1, 2, 3, 2, 4, 5, 2, 8, 5];
ResourceCapability = [14, 16, 18, 14];
ResourceRequirement = [|0, 2, 0, 0, 0, 1, 7, 7, 0, 0, 0, 0, 4, 5, 0, 5, 0, 7, 0, 6, 0, 5, 2, 8, 2, 3, 0, 0, 0, 6, 0, 7, 0, 0, 0, 10, 0, 9, 0, 9, 0, 7, 4, 3, 0, 1, 8, 0, 9, 0, 0, 0, 0, 9, 0, 7, 10, 0, 5, 3
                       |5, 7, 0, 4, 3, 0, 0, 0, 1, 2, 1, 5, 8, 0, 1, 0, 4, 0, 0, 0, 3, 7, 0, 5, 0, 0, 10, 10, 0, 0, 9, 5, 0, 0, 6, 0, 4, 2, 7, 6, 0, 0, 0, 0, 0, 0, 1, 1, 2, 3, 7, 4, 8, 1, 10, 0, 0, 0, 2, 7
                       |0, 0, 7, 4, 0, 6, 0, 0, 1, 2, 10, 9, 0, 0, 0, 3, 8, 9, 0, 0, 9, 9, 0, 0, 0, 6, 9, 0, 8, 0, 7, 10, 0, 0, 0, 5, 0, 0, 0, 0, 2, 0, 0, 0, 0, 10, 6, 2, 0, 8, 0, 0, 0, 0, 0, 0, 0, 5, 0, 0
                       |6, 0, 7, 10, 3, 10, 0, 0, 7, 0, 0, 0, 0, 0, 0, 3, 0, 0, 9, 0, 4, 0, 0, 0, 6, 0, 3, 1, 4, 0, 1, 0, 6, 7, 0, 0, 9, 0, 5, 1, 3, 3, 2, 3, 6, 0, 10, 0, 1, 0, 0, 10, 4, 0, 2, 0, 9, 4, 8, 2|];
Successor = [{31, 41, 58, 60},
             {4, 5, 6, 7, 8, 9, 10, 11, 12, 13, 14, 15, 17, 18, 22, 23, 25, 26, 27, 28, 29, 30, 32, 33, 34, 35, 36, 37, 39, 40, 41, 42, 43, 44, 45, 46, 47, 48, 49, 50, 51, 52, 53, 54, 55, 56, 57, 58, 59, 60},
             {16, 19, 20, 21, 24, 37, 38, 47, 55, 57, 58, 60},
             {5, 6, 7, 8, 9, 10, 11, 15, 17, 18, 22, 23, 26, 27, 29, 30, 33, 34, 36, 39, 40, 44, 45, 46, 47, 48, 49, 50, 51, 52, 53, 54, 55, 56, 57, 58, 59, 60},
             {8, 9, 18, 22, 23, 34, 49, 55, 57, 58, 59, 60},
             {7, 10, 15, 17, 26, 29, 30, 33, 36, 39, 40, 44, 45, 47, 49, 50, 51, 52, 53, 54, 55, 56, 57, 58, 59, 60},
             {10, 29, 36, 39, 45, 50, 51, 52, 53, 54, 55, 56, 58, 60},
             {9, 18, 34, 55, 59, 60},
             {18, 34, 55, 59, 60},
             {39, 45, 52, 53, 54, 55, 56, 58, 60},
             {27, 40, 46, 47, 48, 49, 50, 53, 55, 56, 57, 58, 60},
             {35, 37, 43, 51, 54, 55, 56, 58, 60},
             {14, 23, 25, 28, 32, 41, 42, 44, 45, 49, 52, 54, 56, 57, 58, 59, 60},
             {23, 42, 44, 49, 52, 54, 56, 57, 58, 59},
             {17, 26, 30, 33, 40, 44, 47, 49, 54, 56, 57, 58, 59, 60},
             {19, 21, 24, 37, 38, 47, 55, 57, 58, 60},
             {26, 30, 33, 44, 49, 54, 56, 57, 58, 59},
             {55, 60},
             {38, 47, 57, 58, 60},
             {37, 55, 60},
             {37, 55, 60},
             {49, 57, 58},
             {59},
             {47, 57, 58, 60},
             {28, 41, 57, 58, 60},
             {30, 59},
             {40, 46, 47, 48, 50, 53, 55, 56, 57, 58, 60},
             {41, 60},
             {36, 50, 51, 54, 56, 58},
             {59},
             {41, 60},
             {45, 52, 54, 56, 58},
             {44, 49, 57, 58},
             {59},
             {37, 43, 51, 54, 55, 56, 58, 60},
             {50, 56, 58},
             {55, 60},
             {47, 57, 58, 60},
             {45, 52, 54, 56, 58},
             {47, 57, 58, 60},
             {60},
             {44, 49, 52, 54, 56, 57, 58},
             {51, 54, 56, 58},
             {49, 57, 58},
             {52, 54, 56, 58},
             {50, 53, 55, 56, 58, 60},
             {57, 58, 60},
             {53, 55, 56, 58, 60},
             {57, 58},
             {56, 58},
             {54, 56, 58},
             {54, 56, 58},
             {55, 60},
             {56, 58},
             {60},
             {58},
             {58},
             {},
             {},
             {}];
InitialSolution = [2, 4, 6, 13, 7, 15, 11, 3, 5, 27, 14, 16, 17, 10, 12, 35, 42, 8, 29, 46, 9, 19, 25, 32, 39, 48, 1, 24, 33, 38, 40, 43, 45, 20, 21, 22, 36, 44, 47, 51, 52, 18, 26, 28, 31, 37, 49, 50, 53, 54, 23, 30, 34, 41, 55, 56, 57, 58, 59, 60];