numResources = 4;
numTasks = 90;
Duration = [2, 9, 5, 5, 5, 10, 4, 1, 9, 4, 2, 3, 6, 6, 10, 2, 3, 7, 8, 7, 10, 9, 3, 4, 7, 9, 4, 2, 9, 2, 7, 1, 8, 9, 6, 5, 1, 6, 1, 2, 3, 10, 2, 9, 3, 7, 3, 4, 3, 8, 1, 9, 7, 9, 9, 6, 10, 9, 2, 10, 5, 5, 2, 6, 8, 4, 5, 1, 9, 7, 7, 1, 5, 1, 3, 8, 6, 8, 8, 3, 6, 9, 9, 8, 2, 8, 1, 1, 10, 9];
ResourceCapability = [15, 12, 12, 13];
ResourceRequirement = [|0, 0, 0, 0, 0, 6, 0, 0, 5, 0, 0, 0, 3, 0, 0, 0, 1, 5, 7, 5, 0, 0, 0, 0, 10, 9, 5, 0, 8, 0, 6, 0, 0, 0, 0, 0, 0, 0, 0, 6, 0, 0, 0, 0, 0, 0, 0, 0, 0, 0, 0, 0, 0, 0, 0, 0, 8, 0, 0, 0, 0, 8, 8, 0, 0, 0, 0, 9, 1, 5, 10, 0, 5, 0, 0, 0, 0, 0, 0, 0, 2, 0, 0, 0, 0, 0, 9, 2, 0, 0
                       |0, 0, 0, 0, 0, 0, 0, 0, 0, 4, 2, 4, 0, 8, 5, 0, 0, 0, 0, 0, 8, 0, 7, 4, 0, 0, 0, 0, 0, 0, 0, 9, 0, 5, 0, 0, 0, 0, 0, 0, 0, 0, 2, 6, 0, 3, 0, 0, 2, 0, 2, 6, 0, 0, 0, 0, 0, 0, 10, 0, 4, 0, 0, 0, 0, 0, 0, 0, 0, 0, 0, 0, 0, 0, 8, 0, 6, 1, 0, 0, 0, 0, 4, 3, 0, 0, 0, 0, 0, 0
                       |0, 0, 0, 0, 8, 0, 1, 0, 0, 0, 0, 0, 0, 0, 0, 8, 0, 0, 0, 0, 0, 4, 0, 0, 0, 0, 0, 8, 0, 1, 0, 0, 0, 0, 0, 0, 0, 1, 10, 0, 0, 10, 0, 0, 8, 0, 9, 9, 0, 0, 0, 0, 9, 10, 0, 2, 0, 4, 0, 0, 0, 0, 0, 3, 7, 0, 2, 0, 0, 0, 0, 5, 0, 4, 0, 10, 0, 0, 0, 9, 0, 0, 0, 0, 0, 5, 0, 0, 7, 0
                       |4, 10, 7, 6, 0, 0, 0, 2, 0, 0, 0, 0, 0, 0, 0, 0, 0, 0, 0, 0, 0, 0, 0, 0, 0, 0, 0, 0, 0, 0, 0, 0, 8, 0, 3, 9, 4, 0, 0, 0, 5, 0, 0, 0, 0, 0, 0, 0, 0, 10, 0, 0, 0, 0, 7, 0, 0, 0, 0, 1, 0, 0, 0, 0, 0, 3, 0, 0, 0, 0, 0, 0, 0, 0, 0, 0, 0, 0, 6, 0, 0, 7, 0, 0, 3, 0, 0, 0, 0, 9|];
Successor = [{4, 6, 8, 9, 11, 12, 14, 15, 16, 17, 20, 21, 22, 23, 25, 26, 27, 28, 29, 30, 31, 35, 36, 37, 38, 40, 41, 42, 43, 44, 45, 46, 48, 49, 50, 51, 52, 54, 55, 56, 57, 58, 59, 61, 62, 64, 65, 66, 67, 68, 69, 70, 71, 72, 73, 74, 75, 76, 77, 78, 79, 80, 81, 82, 83, 84, 85, 86, 87, 88, 89, 90},
             {7, 11, 23, 25, 33, 34, 42, 45, 48, 50, 51, 53, 54, 57, 58, 59, 60, 61, 62, 63, 65, 66, 67, 68, 69, 70, 71, 72, 73, 74, 75, 76, 77, 78, 80, 81, 82, 83, 84, 85, 86, 87, 88, 89, 90},
             {5, 10, 13, 16, 18, 19, 24, 32, 34, 39, 42, 47, 50, 51, 52, 54, 56, 58, 59, 60, 62, 64, 65, 66, 67, 68, 69, 70, 71, 72, 73, 74, 75, 76, 77, 78, 80, 81, 82, 83, 84, 86, 87, 88, 89, 90},
             {6, 15, 17, 21, 22, 23, 25, 26, 27, 28, 29, 30, 31, 35, 37, 38, 41, 42, 43, 44, 45, 46, 48, 50, 51, 52, 54, 55, 56, 57, 58, 59, 61, 62, 65, 66, 67, 68, 69, 70, 71, 72, 73, 74, 75, 76, 77, 78, 79, 80, 81, 82, 83, 84, 85, 86, 87, 88, 89, 90},
             {70, 83, 87, 88},
             {15, 17, 21, 22, 26, 27, 28, 29, 30, 31, 35, 37, 38, 41, 43, 44, 45, 46, 48, 50, 51, 52, 54, 55, 56, 58, 59, 61, 62, 65, 66, 67, 68, 69, 70, 71, 72, 73, 74, 75, 76, 77, 78, 79, 80, 81, 82, 83, 84, 85, 86, 87, 88, 89, 90},
             {11, 33, 48, 50, 51, 53, 54, 58, 59, 61, 62, 63, 65, 66, 67, 68, 69, 70, 71, 72, 73, 74, 75, 76, 77, 78, 80, 81, 83, 84, 85, 86, 87, 88, 89, 90},
             {9, 11, 12, 14, 16, 29, 37, 40, 43, 49, 55, 61, 62, 64, 67, 69, 72, 74, 75, 76, 77, 78, 79, 80, 81, 83, 84, 85, 86, 87, 88, 89, 90},
             {12, 14, 16, 29, 40, 43, 49, 55, 62, 64, 67, 69, 72, 74, 75, 76, 77, 78, 80, 81, 83, 84, 87, 88, 89, 90},
             {13, 16, 18, 19, 24, 32, 34, 42, 52, 54, 56, 59, 60, 62, 64, 67, 69, 70, 72, 73, 74, 76, 77, 78, 80, 81, 82, 83, 84, 86, 87, 88, 89, 90},
             {61, 74, 77, 89},
             {40, 55, 75, 76, 77, 78, 81, 83, 87, 88, 89},
             {16, 18, 19, 24, 32, 34, 42, 54, 59, 60, 62, 64, 67, 70, 72, 73, 76, 77, 78, 81, 82, 83, 84, 86, 87, 88, 89, 90},
             {29, 43, 49, 62, 69, 74, 77, 80, 84, 88, 89, 90},
             {17, 21, 30, 31, 35, 38, 41, 45, 46, 48, 50, 51, 52, 54, 55, 56, 58, 59, 61, 62, 65, 66, 67, 68, 69, 70, 71, 72, 73, 74, 75, 76, 77, 78, 80, 81, 82, 83, 84, 85, 86, 87, 88, 89, 90},
             {64, 67, 72, 78, 81, 83, 87, 88, 90},
             {31, 38, 41, 46, 48, 50, 51, 52, 54, 56, 58, 59, 62, 65, 66, 68, 69, 70, 71, 74, 75, 76, 77, 78, 80, 81, 82, 83, 84, 85, 86, 87, 88, 89, 90},
             {19, 59, 70, 73, 76, 77, 78, 81, 83, 86, 87, 88, 89, 90},
             {73, 86, 90},
             {30, 36, 44, 45, 46, 49, 50, 51, 52, 54, 56, 58, 59, 61, 62, 65, 66, 69, 70, 71, 73, 74, 75, 76, 77, 78, 80, 81, 82, 83, 84, 85, 86, 87, 88, 89, 90},
             {30, 50, 51, 54, 58, 59, 62, 65, 66, 67, 69, 70, 71, 72, 74, 75, 76, 77, 78, 80, 81, 82, 83, 84, 87, 88, 89, 90},
             {26, 28, 29, 37, 43, 62, 69, 72, 74, 77, 78, 79, 80, 81, 83, 84, 85, 86, 87, 88, 89, 90},
             {25, 42, 45, 57, 61, 72, 73, 74, 75, 76, 77, 78, 81, 83, 86, 87, 88, 89, 90},
             {32, 34, 42, 54, 60, 62, 70, 72, 78, 81, 82, 83, 84, 87, 88, 89, 90},
             {45, 61, 73, 74, 77, 86, 89, 90},
             {72, 74, 77, 78, 79, 80, 81, 83, 84, 85, 86, 87, 88, 89, 90},
             {43, 44, 45, 46, 52, 56, 61, 62, 71, 73, 74, 77, 80, 84, 85, 86, 87, 88, 89, 90},
             {37, 79, 80, 84, 85, 86, 87, 88, 90},
             {43, 62, 69, 74, 77, 80, 84, 89, 90},
             {50, 51, 54, 58, 59, 62, 65, 66, 69, 70, 71, 74, 75, 76, 77, 78, 80, 81, 82, 83, 84, 87, 88, 89, 90},
             {38, 41, 46, 48, 50, 51, 52, 54, 56, 58, 59, 62, 65, 66, 68, 69, 70, 71, 74, 75, 76, 77, 78, 80, 81, 82, 83, 84, 85, 86, 87, 88, 89, 90},
             {34, 42, 60, 72, 78, 81, 82, 83, 87, 88, 89, 90},
             {48, 50, 51, 54, 58, 59, 62, 63, 65, 66, 67, 68, 69, 70, 71, 72, 73, 74, 75, 76, 77, 78, 80, 81, 83, 84, 85, 86, 87, 88, 89, 90},
             {42, 60, 72, 78, 81, 82, 83, 87, 88, 89, 90},
             {45, 55, 61, 73, 74, 77, 86, 88, 89, 90},
             {44, 45, 46, 52, 56, 61, 62, 65, 69, 71, 73, 74, 77, 80, 81, 83, 84, 85, 86, 87, 88, 89, 90},
             {79, 80, 84, 85, 86, 90},
             {48, 50, 51, 54, 58, 59, 62, 65, 66, 68, 69, 70, 71, 74, 75, 76, 77, 78, 80, 81, 83, 84, 86, 87, 88, 89, 90},
             {42, 47, 50, 51, 54, 58, 59, 62, 65, 66, 68, 69, 70, 71, 72, 74, 75, 76, 77, 78, 80, 81, 83, 84, 87, 88, 89, 90},
             {55, 88},
             {76, 77, 78, 81, 82, 83, 87, 88, 89},
             {72, 78, 81, 83, 87, 88, 90},
             {62, 80, 84, 90},
             {45, 46, 52, 56, 61, 62, 71, 73, 74, 77, 84, 85, 86, 87, 88, 89, 90},
             {61, 73, 74, 77, 86, 89, 90},
             {52, 56, 62, 77, 84, 85, 86, 89, 90},
             {65, 68, 69, 74, 77, 78, 80, 81, 83, 84, 87, 88, 89, 90},
             {50, 51, 54, 58, 59, 62, 65, 66, 68, 69, 70, 71, 74, 75, 76, 77, 78, 80, 81, 83, 84, 86, 87, 88, 89, 90},
             {89},
             {51, 54, 58, 59, 62, 65, 66, 69, 70, 71, 74, 75, 76, 77, 78, 80, 81, 83, 84, 87, 88, 89, 90},
             {54, 62, 70, 75, 76, 77, 78, 81, 83, 84, 87, 88, 89, 90},
             {56, 62, 77, 84, 89, 90},
             {61, 74, 77, 81, 83, 87, 88, 89},
             {62, 70, 83, 84, 87, 88, 90},
             {88},
             {62, 77, 84, 89, 90},
             {75, 76, 77, 78, 81, 83, 87, 88, 89},
             {59, 65, 69, 70, 71, 74, 76, 77, 78, 80, 81, 83, 84, 87, 88, 89, 90},
             {70, 76, 77, 78, 81, 83, 87, 88, 89},
             {82, 89},
             {74, 77, 89},
             {84, 90},
             {73, 85, 86, 90},
             {67, 72, 78, 81, 83, 87, 88, 90},
             {69, 74, 77, 80, 84, 89, 90},
             {83, 87, 88},
             {72, 78, 81, 83, 87, 88, 90},
             {78, 81, 83, 87, 88},
             {74, 77, 80, 84, 89, 90},
             {83, 87, 88},
             {84, 87, 88, 90},
             {78, 81, 83, 87, 88, 90},
             {86, 90},
             {77, 89},
             {76, 77, 78, 81, 83, 87, 88, 89},
             {77, 78, 81, 83, 87, 88, 89},
             {89},
             {81, 83, 87, 88},
             {80, 84, 85, 86, 90},
             {84, 90},
             {83, 87, 88},
             {89},
             {87, 88},
             {90},
             {86, 90},
             {90},
             {88},
             {},
             {},
             {}];
InitialSolution = [1, 4, 6, 3, 2, 15, 20, 7, 17, 10, 31, 8, 33, 13, 21, 39, 38, 9, 48, 30, 36, 50, 22, 27, 23, 24, 44, 58, 26, 18, 47, 51, 14, 32, 12, 34, 35, 16, 28, 29, 41, 46, 57, 59, 25, 53, 64, 75, 42, 45, 54, 65, 67, 76, 37, 52, 69, 72, 56, 68, 79, 5, 11, 43, 63, 71, 78, 19, 61, 66, 70, 81, 40, 60, 62, 73, 74, 80, 83, 85, 49, 55, 77, 82, 84, 86, 87, 88, 89, 90];