numResources = 4;
numTasks = 90;
Duration = [10, 1, 10, 2, 8, 5, 8, 6, 5, 9, 3, 8, 1, 9, 2, 2, 5, 7, 5, 2, 8, 10, 10, 5, 2, 8, 7, 9, 9, 10, 6, 5, 4, 3, 8, 4, 6, 6, 4, 1, 3, 9, 5, 9, 10, 2, 5, 6, 3, 5, 6, 10, 7, 3, 3, 2, 4, 6, 4, 6, 10, 10, 6, 2, 3, 6, 7, 2, 5, 1, 1, 5, 2, 5, 5, 3, 4, 10, 9, 1, 10, 9, 3, 9, 5, 1, 2, 9, 1, 10];
ResourceCapability = [34, 21, 26, 33];
ResourceRequirement = [|7, 4, 10, 10, 1, 0, 9, 4, 0, 4, 5, 0, 0, 9, 0, 10, 0, 9, 0, 0, 0, 2, 1, 0, 9, 6, 0, 3, 0, 7, 5, 0, 7, 10, 7, 5, 0, 0, 0, 0, 9, 5, 2, 0, 8, 0, 0, 0, 1, 10, 5, 3, 0, 6, 0, 1, 0, 0, 0, 2, 1, 0, 1, 3, 0, 5, 0, 3, 10, 0, 0, 6, 6, 0, 0, 0, 0, 9, 0, 8, 0, 0, 7, 0, 1, 4, 1, 10, 8, 9
                       |0, 10, 0, 2, 3, 0, 9, 5, 0, 0, 7, 0, 0, 0, 0, 0, 0, 10, 8, 1, 0, 0, 0, 3, 5, 0, 2, 0, 1, 0, 0, 2, 0, 0, 1, 0, 0, 8, 6, 0, 0, 0, 5, 3, 1, 1, 0, 5, 0, 0, 7, 0, 0, 0, 1, 0, 7, 9, 4, 0, 2, 0, 7, 9, 7, 0, 9, 0, 4, 6, 0, 0, 0, 2, 0, 0, 0, 0, 0, 1, 0, 0, 0, 2, 0, 5, 0, 0, 6, 6
                       |0, 0, 0, 0, 0, 4, 0, 0, 5, 0, 5, 1, 10, 8, 7, 0, 0, 7, 9, 0, 0, 1, 0, 4, 5, 0, 0, 4, 0, 0, 0, 0, 4, 7, 7, 6, 2, 4, 0, 0, 0, 0, 0, 0, 0, 2, 1, 0, 7, 3, 0, 7, 5, 1, 0, 8, 6, 8, 3, 0, 0, 4, 3, 8, 10, 0, 0, 2, 6, 0, 6, 4, 2, 6, 0, 6, 6, 6, 3, 0, 10, 0, 10, 6, 10, 0, 0, 7, 0, 0
                       |6, 0, 0, 9, 0, 3, 0, 3, 0, 0, 0, 5, 0, 0, 10, 10, 2, 0, 6, 8, 1, 0, 7, 5, 0, 3, 9, 0, 9, 4, 9, 9, 0, 7, 0, 0, 10, 8, 1, 3, 0, 10, 4, 0, 0, 0, 0, 10, 0, 0, 7, 0, 0, 0, 0, 0, 2, 4, 4, 0, 0, 0, 0, 0, 0, 0, 0, 0, 0, 0, 0, 7, 0, 9, 5, 0, 8, 0, 0, 9, 8, 10, 0, 0, 9, 0, 0, 8, 7, 0|];
Successor = [{4, 5, 9, 12, 16, 17, 18, 20, 27, 28, 29, 30, 32, 34, 35, 37, 38, 39, 40, 42, 43, 44, 46, 47, 48, 49, 50, 51, 52, 53, 54, 55, 56, 57, 58, 59, 60, 61, 62, 63, 64, 65, 66, 67, 68, 69, 70, 71, 72, 73, 74, 75, 76, 77, 78, 79, 80, 81, 82, 83, 84, 85, 86, 87, 88, 89, 90},
             {6, 11, 13, 15, 19, 21, 22, 23, 24, 25, 26, 31, 33, 34, 35, 36, 37, 38, 39, 40, 41, 42, 44, 45, 46, 47, 48, 49, 50, 51, 52, 53, 54, 55, 56, 57, 58, 59, 60, 61, 62, 63, 64, 65, 66, 67, 68, 69, 70, 71, 72, 73, 74, 75, 76, 77, 78, 79, 80, 81, 82, 83, 84, 85, 86, 87, 88, 89, 90},
             {7, 8, 10, 11, 14, 26, 33, 34, 40, 44, 47, 48, 54, 55, 56, 57, 58, 60, 61, 62, 63, 64, 67, 68, 70, 71, 72, 73, 74, 75, 76, 77, 78, 79, 80, 81, 82, 83, 84, 85, 86, 87, 88, 89, 90},
             {9, 20, 27, 28, 35, 39, 40, 42, 43, 44, 47, 48, 49, 50, 52, 53, 54, 55, 56, 57, 58, 59, 60, 61, 62, 63, 64, 65, 66, 67, 68, 69, 70, 71, 72, 73, 74, 75, 76, 77, 78, 79, 80, 81, 82, 83, 84, 85, 86, 87, 88, 89, 90},
             {12, 16, 17, 18, 29, 32, 34, 40, 46, 47, 48, 50, 51, 53, 54, 55, 56, 57, 58, 59, 60, 61, 62, 63, 64, 65, 66, 67, 68, 69, 70, 71, 72, 73, 74, 75, 76, 77, 78, 79, 80, 81, 82, 83, 84, 85, 86, 87, 88, 89, 90},
             {13, 15, 19, 21, 22, 23, 24, 25, 26, 31, 33, 35, 36, 37, 38, 39, 41, 42, 44, 45, 46, 47, 48, 49, 50, 51, 52, 53, 54, 55, 56, 57, 58, 59, 60, 61, 62, 63, 64, 65, 66, 67, 68, 69, 70, 71, 72, 73, 74, 75, 76, 77, 78, 79, 80, 81, 82, 83, 84, 85, 86, 87, 88, 89, 90},
             {8, 10, 11, 14, 26, 47, 55, 56, 57, 58, 62, 63, 64, 67, 68, 70, 71, 73, 74, 76, 77, 78, 79, 80, 81, 82, 83, 84, 85, 86, 87, 88, 89, 90},
             {47, 55, 57, 58, 62, 63, 67, 71, 77, 78, 79, 81, 82, 83, 84, 86, 87, 89, 90},
             {20, 27, 28, 35, 40, 43, 44, 47, 48, 50, 52, 53, 54, 55, 56, 57, 58, 59, 60, 61, 62, 63, 64, 65, 66, 67, 68, 69, 70, 71, 72, 73, 74, 75, 76, 77, 78, 79, 80, 81, 82, 83, 84, 85, 86, 87, 88, 89, 90},
             {14, 26, 57, 58, 68, 70, 71, 73, 80, 81, 83, 84, 85, 86, 87, 88, 89, 90},
             {56, 58, 62, 63, 64, 71, 74, 76, 78, 83, 84, 85, 86, 87, 88, 89, 90},
             {51, 53, 57, 58, 60, 66, 68, 70, 73, 74, 75, 76, 78, 80, 81, 82, 83, 84, 85, 86, 87, 88, 89, 90},
             {15, 19, 21, 22, 23, 24, 25, 26, 31, 35, 36, 37, 38, 39, 41, 42, 45, 46, 49, 50, 51, 52, 53, 54, 55, 56, 57, 58, 59, 60, 61, 62, 63, 64, 65, 66, 67, 68, 69, 70, 71, 72, 73, 74, 75, 76, 77, 78, 79, 80, 81, 82, 83, 84, 85, 86, 87, 88, 89, 90},
             {57, 58, 71, 84, 89, 90},
             {21, 31, 37, 38, 41, 42, 45, 46, 50, 51, 55, 63, 64, 65, 66, 67, 68, 69, 70, 73, 74, 76, 77, 78, 79, 81, 82, 83, 85, 86, 87, 88, 89, 90},
             {32, 34, 40, 46, 48, 50, 55, 56, 58, 62, 63, 64, 67, 69, 70, 71, 73, 75, 77, 78, 79, 80, 81, 82, 83, 84, 85, 86, 87, 88, 89, 90},
             {18, 29, 47, 54, 59, 60, 61, 62, 63, 65, 67, 71, 72, 73, 74, 75, 76, 77, 78, 79, 80, 81, 82, 83, 84, 86, 87, 89, 90},
             {29, 54, 59, 60, 61, 62, 63, 71, 72, 73, 74, 75, 76, 77, 78, 79, 80, 81, 82, 83, 84, 86, 87, 89, 90},
             {22, 25, 26, 31, 36, 37, 38, 39, 41, 42, 46, 49, 50, 52, 54, 55, 56, 58, 59, 60, 61, 62, 63, 64, 65, 66, 67, 68, 69, 70, 71, 72, 73, 74, 75, 76, 77, 78, 79, 80, 81, 82, 83, 84, 85, 86, 87, 88, 89, 90},
             {28, 40, 43, 44, 47, 48, 50, 52, 54, 55, 56, 58, 59, 60, 61, 62, 63, 67, 69, 71, 72, 73, 74, 75, 76, 77, 78, 79, 80, 81, 82, 83, 84, 85, 86, 87, 88, 89, 90},
             {31, 37, 38, 41, 42, 45, 46, 50, 55, 63, 64, 65, 66, 67, 69, 73, 76, 77, 78, 79, 81, 82, 83, 85, 86, 87, 88, 89},
             {39, 41, 49, 52, 54, 56, 58, 59, 60, 61, 62, 63, 70, 71, 72, 73, 74, 75, 76, 77, 78, 79, 80, 81, 82, 83, 84, 86, 87, 89, 90},
             {24, 35, 45, 46, 49, 52, 53, 54, 55, 57, 58, 59, 60, 61, 62, 63, 64, 65, 66, 67, 68, 69, 70, 71, 72, 73, 74, 75, 76, 77, 78, 79, 80, 81, 82, 83, 84, 85, 86, 87, 88, 89, 90},
             {45, 49, 52, 54, 59, 60, 61, 62, 63, 67, 69, 71, 72, 73, 74, 75, 76, 77, 78, 79, 80, 81, 82, 83, 84, 86, 87, 88, 89, 90},
             {26, 36, 38, 42, 46, 49, 50, 52, 54, 55, 58, 59, 60, 61, 62, 63, 64, 67, 68, 69, 70, 71, 72, 73, 74, 75, 76, 77, 78, 79, 80, 81, 82, 83, 84, 85, 86, 87, 88, 89, 90},
             {68, 70, 73, 81, 83, 85, 86, 87, 88, 89},
             {35, 53, 57, 58, 64, 65, 66, 68, 70, 71, 73, 76, 78, 80, 81, 82, 83, 84, 85, 86, 87, 88, 89, 90},
             {40, 43, 44, 47, 48, 52, 54, 56, 58, 59, 60, 61, 62, 63, 67, 69, 71, 72, 73, 74, 75, 76, 77, 78, 79, 80, 81, 82, 83, 84, 86, 87, 88, 89, 90},
             {54, 59, 60, 61, 62, 63, 71, 72, 73, 74, 75, 76, 77, 78, 79, 80, 81, 82, 83, 84, 86, 87, 89, 90},
             {37, 38, 42, 46, 50, 55, 64, 65, 67, 69, 72, 73, 74, 75, 76, 77, 78, 79, 80, 81, 82, 83, 84, 85, 86, 87, 88, 89, 90},
             {37, 38, 42, 46, 50, 55, 64, 65, 66, 67, 69, 73, 76, 77, 78, 79, 81, 82, 83, 85, 86, 87, 88, 89},
             {34, 40, 46, 48, 55, 56, 58, 62, 63, 64, 67, 69, 71, 75, 77, 78, 79, 80, 81, 82, 83, 84, 85, 86, 87, 88, 89, 90},
             {44, 47, 48, 54, 56, 58, 60, 61, 62, 63, 67, 71, 72, 73, 74, 75, 76, 77, 78, 79, 80, 81, 82, 83, 84, 86, 87, 89, 90},
             {40, 63, 75, 78, 79, 80, 83, 84, 86, 87, 89, 90},
             {53, 57, 58, 65, 66, 68, 70, 73, 76, 78, 80, 81, 82, 83, 84, 85, 86, 87, 88, 89, 90},
             {38, 42, 46, 49, 50, 52, 54, 55, 59, 60, 61, 62, 63, 64, 67, 69, 71, 72, 73, 74, 75, 76, 77, 78, 79, 80, 81, 82, 83, 84, 85, 86, 87, 88, 89, 90},
             {38, 42, 46, 50, 55, 64, 65, 67, 69, 73, 76, 77, 78, 79, 81, 82, 83, 85, 86, 87, 88, 89},
             {46, 50, 55, 64, 67, 69, 77, 78, 79, 81, 82, 83, 85, 86, 87, 88, 89},
             {49, 52, 54, 56, 58, 59, 60, 61, 62, 63, 71, 72, 73, 74, 75, 76, 77, 78, 79, 80, 81, 82, 83, 84, 86, 87, 89, 90},
             {79, 83, 84, 86, 87, 89, 90},
             {63, 78, 87, 89},
             {76, 78, 87, 88, 89},
             {44, 47, 48, 52, 54, 56, 58, 60, 61, 62, 63, 67, 69, 71, 72, 73, 74, 75, 76, 77, 78, 79, 80, 81, 82, 83, 84, 86, 87, 88, 89, 90},
             {47, 48, 56, 58, 62, 63, 67, 71, 72, 73, 74, 76, 77, 78, 79, 81, 82, 83, 84, 86, 87, 89, 90},
             {67, 77, 79, 82, 86, 87, 89},
             {55, 64, 67, 69, 77, 79, 81, 82, 83, 85, 86, 87, 88, 89},
             {62, 63, 67, 71, 77, 78, 79, 82, 86, 87, 89, 90},
             {56, 58, 62, 63, 71, 78, 84, 87, 89, 90},
             {52, 54, 59, 60, 61, 62, 63, 71, 72, 73, 74, 75, 76, 77, 78, 79, 80, 81, 82, 83, 84, 86, 87, 89, 90},
             {55, 67, 77, 78, 79, 81, 82, 83, 86, 87, 89},
             {66, 68, 70, 73, 74, 76, 78, 81, 83, 85, 86, 87, 88, 89},
             {54, 60, 61, 62, 63, 71, 75, 77, 78, 79, 80, 82, 84, 86, 87, 89, 90},
             {57, 58, 68, 70, 73, 80, 81, 83, 84, 85, 86, 87, 88, 89, 90},
             {60, 61, 62, 63, 71, 75, 78, 79, 80, 82, 84, 86, 87, 89, 90},
             {67, 77, 79, 81, 82, 83, 86, 87, 89},
             {58, 62, 63, 71, 78, 84, 87, 89, 90},
             {58, 84, 89, 90},
             {84, 90},
             {60, 61, 62, 63, 71, 72, 73, 74, 75, 76, 78, 79, 80, 81, 82, 83, 84, 86, 87, 89, 90},
             {75, 80, 82, 84, 86, 87, 89, 90},
             {62, 63, 71, 78, 79, 87, 89, 90},
             {63, 71, 78, 87, 89, 90},
             {78, 87, 89},
             {83, 85, 86, 87, 88, 89},
             {73, 81, 82, 83, 86, 87, 89},
             {76, 78, 86, 87, 89},
             {77, 79, 82, 86, 87, 89},
             {70, 73, 81, 83, 85, 86, 87, 88, 89},
             {81, 83, 86, 87, 88, 89},
             {73, 81, 83, 86, 87, 89},
             {90},
             {73, 74, 76, 78, 81, 83, 86, 87, 89},
             {81, 83, 86, 87, 89},
             {76, 78, 87, 89},
             {80, 84, 89, 90},
             {78, 87, 89},
             {82, 86, 87, 89},
             {87, 89},
             {87, 89},
             {84, 90},
             {83, 86, 87, 89},
             {86, 87, 89},
             {86, 87, 89},
             {90},
             {88},
             {87, 89},
             {89},
             {},
             {},
             {}];
InitialSolution = [2, 1, 6, 13, 4, 5, 19, 9, 3, 23, 25, 20, 36, 28, 7, 15, 16, 43, 22, 24, 17, 30, 33, 21, 32, 39, 18, 49, 12, 27, 29, 31, 44, 37, 35, 59, 8, 10, 11, 38, 52, 53, 54, 46, 51, 34, 47, 50, 26, 48, 55, 56, 68, 72, 60, 61, 40, 45, 65, 14, 62, 64, 67, 69, 70, 42, 66, 73, 41, 57, 74, 75, 77, 81, 63, 76, 82, 83, 58, 78, 79, 80, 86, 71, 84, 85, 87, 88, 89, 90];