numResources = 6;
numTasks = 101;
Duration = [1, 9, 1, 1, 10, 4, 1, 4, 5, 4, 3, 5, 4, 8, 4, 3, 2, 1, 10, 3, 7, 1, 1, 1, 1, 6, 5, 3, 1, 1, 5, 4, 1, 1, 4, 1, 10, 1, 3, 3, 3, 1, 7, 4, 1, 5, 1, 3, 3, 5, 2, 5, 1, 10, 1, 1, 1, 8, 1, 4, 4, 2, 4, 1, 1, 3, 5, 4, 10, 1, 1, 4, 1, 7, 1, 4, 5, 2, 1, 3, 1, 6, 1, 3, 7, 1, 1, 1, 1, 1, 4, 1, 9, 1, 4, 1, 4, 10, 2, 1, 1];
ResourceCapability = [11, 12, 13, 12, 11, 11];
ResourceRequirement = [|6, 8, 2, 8, 5, 8, 5, 9, 4, 6, 9, 6, 8, 1, 9, 9, 2, 7, 2, 6, 10, 10, 3, 7, 4, 6, 1, 1, 4, 9, 5, 1, 5, 8, 2, 8, 6, 5, 3, 7, 10, 4, 8, 2, 5, 6, 5, 1, 6, 9, 2, 10, 3, 4, 9, 3, 3, 5, 10, 9, 10, 1, 3, 5, 8, 3, 1, 6, 4, 1, 5, 5, 3, 3, 6, 1, 1, 10, 2, 1, 8, 6, 7, 1, 7, 6, 4, 5, 8, 10, 2, 5, 5, 8, 6, 3, 6, 6, 8, 5, 9
                       |7, 5, 3, 1, 2, 3, 3, 4, 6, 10, 10, 1, 5, 9, 2, 6, 3, 4, 8, 5, 5, 10, 1, 7, 4, 8, 8, 3, 10, 8, 10, 7, 6, 9, 6, 6, 5, 8, 8, 1, 3, 4, 7, 8, 2, 2, 5, 7, 1, 5, 9, 3, 7, 6, 8, 7, 9, 5, 4, 7, 4, 4, 9, 6, 10, 1, 5, 7, 2, 1, 4, 8, 10, 2, 8, 6, 7, 3, 4, 5, 1, 1, 9, 1, 9, 5, 4, 7, 5, 3, 9, 8, 5, 3, 5, 6, 9, 8, 10, 9, 9
                       |6, 9, 10, 9, 5, 1, 4, 7, 10, 5, 5, 6, 10, 4, 4, 10, 6, 6, 6, 1, 9, 9, 8, 1, 5, 5, 4, 5, 1, 2, 9, 4, 8, 10, 8, 10, 10, 6, 1, 5, 10, 3, 9, 8, 10, 10, 7, 6, 2, 1, 10, 9, 2, 1, 1, 7, 8, 10, 7, 6, 6, 7, 2, 5, 2, 4, 6, 9, 9, 9, 3, 3, 10, 9, 7, 10, 7, 8, 2, 4, 5, 6, 9, 9, 3, 7, 1, 6, 5, 8, 5, 9, 10, 9, 7, 7, 4, 3, 10, 8, 6
                       |8, 8, 6, 7, 6, 9, 10, 3, 10, 5, 8, 9, 7, 6, 5, 4, 5, 5, 1, 2, 5, 8, 9, 4, 9, 8, 2, 3, 3, 2, 2, 10, 6, 10, 7, 5, 8, 9, 9, 1, 5, 3, 4, 4, 9, 5, 6, 10, 3, 7, 10, 3, 10, 7, 4, 8, 5, 4, 3, 7, 10, 7, 2, 2, 7, 8, 10, 8, 2, 2, 9, 9, 10, 2, 2, 2, 3, 8, 1, 10, 3, 1, 6, 9, 2, 1, 1, 7, 9, 2, 3, 6, 5, 4, 1, 7, 2, 1, 1, 1, 1
                       |6, 1, 8, 2, 5, 7, 9, 1, 2, 8, 1, 1, 7, 3, 4, 3, 10, 1, 3, 7, 9, 10, 2, 8, 4, 7, 6, 7, 9, 7, 4, 1, 10, 8, 7, 3, 1, 3, 6, 4, 2, 8, 1, 9, 1, 7, 2, 5, 6, 6, 6, 7, 7, 9, 6, 10, 5, 3, 9, 10, 8, 1, 10, 10, 6, 2, 3, 8, 8, 3, 5, 5, 10, 1, 5, 3, 1, 7, 2, 10, 5, 1, 1, 3, 5, 4, 7, 9, 3, 2, 1, 9, 10, 9, 9, 9, 10, 4, 1, 7, 9
                       |8, 6, 1, 2, 5, 7, 7, 5, 10, 7, 2, 6, 6, 6, 3, 2, 7, 2, 8, 1, 3, 7, 5, 9, 1, 3, 7, 4, 4, 8, 1, 7, 1, 10, 8, 5, 2, 3, 3, 4, 7, 3, 6, 5, 1, 3, 8, 3, 7, 9, 6, 1, 6, 5, 3, 3, 2, 9, 2, 10, 5, 5, 1, 8, 9, 7, 5, 3, 10, 3, 8, 6, 7, 1, 4, 4, 2, 7, 9, 3, 5, 5, 1, 10, 8, 10, 4, 10, 1, 5, 10, 2, 4, 5, 8, 10, 2, 3, 8, 10, 10|];
Successor = [{6},
             {4, 5, 8, 9, 10, 11, 12, 13, 14, 15, 16, 17, 18, 19, 20, 21, 22, 23, 24, 25, 26, 27, 28, 29, 30, 31, 32, 33, 34, 35, 36, 37, 38, 39, 40, 41, 42, 43, 44, 45, 46, 47, 48, 49, 50, 51, 52, 53, 54, 55, 56, 57, 58, 59, 60, 61, 62, 63, 64, 65, 66, 67, 68, 69, 70, 71, 72, 73, 74, 75, 76, 77, 78, 79, 80, 81, 82, 83, 84, 85, 86, 87, 88, 89, 90, 91, 92, 93, 94, 95, 96, 97, 98, 99, 100, 101},
             {7},
             {8, 9, 12, 13, 15, 16, 17, 18, 20, 23, 24, 25, 27, 29, 31, 33, 35, 36, 38, 39, 40, 41, 42, 45, 46, 48, 51, 52, 53, 57, 59, 60, 65, 66, 70},
             {10, 11, 14, 19, 21, 22, 26, 28, 30, 32, 34, 37, 43, 44, 47, 49, 50, 54, 55, 56, 58, 61, 62, 63, 64, 67, 68, 69, 71, 72, 73, 74, 75, 76, 77, 78, 79, 80, 81, 82, 83, 84, 85, 86, 87, 88, 89, 90, 91, 92, 93, 94, 95, 96, 97, 98, 99, 100, 101},
             {},
             {},
             {15, 17, 20, 25, 29, 33, 35, 36, 38, 39, 40, 41, 42, 45, 46, 48, 51, 52, 53, 57, 59, 60, 65, 66, 70},
             {12, 13, 16, 18, 23, 24, 27, 31},
             {},
             {14, 19, 21, 22, 26, 28, 30, 32, 34, 37, 43, 44, 47, 49, 50, 54, 55, 56, 58, 61, 62, 63, 64, 67, 68, 69, 71, 72, 73, 74, 75, 76, 77, 78, 79, 80, 81, 82, 83, 84, 85, 86, 87, 88, 89, 90, 91, 92, 93, 94, 95, 96, 97, 98, 99, 100, 101},
             {18},
             {16, 23, 24, 27, 31},
             {19, 21, 22, 26, 28, 30, 32, 34, 37, 43, 44, 47, 49, 50, 54, 55, 56, 58, 61, 62, 63, 64, 67, 68, 69, 71, 72, 73, 74, 75, 76, 77, 78, 79, 80, 81, 82, 83, 84, 85, 86, 87, 88, 89, 90, 91, 92, 93, 94, 95, 96, 97, 98, 99, 100, 101},
             {17, 20, 25, 29, 33, 35, 36, 38, 39, 40, 41, 42, 45, 46, 48, 51, 52, 53, 57, 59, 60, 65, 66, 70},
             {23, 24, 27, 31},
             {20, 25, 29, 33, 35, 36, 38, 39, 40, 41, 42, 45, 46, 48, 51, 52, 53, 57, 59, 60, 65, 66, 70},
             {},
             {21, 22, 26, 28, 30, 32, 34, 37, 43, 44, 47, 49, 50, 54, 55, 56, 58, 61, 62, 63, 64, 67, 68, 69, 71, 72, 73, 74, 75, 76, 77, 78, 79, 80, 81, 82, 83, 84, 85, 86, 87, 88, 89, 90, 91, 92, 93, 94, 95, 96, 97, 98, 99, 100, 101},
             {25, 29, 33, 35, 36, 38, 39, 40, 41, 42, 45, 46, 48, 51, 52, 53, 57, 59, 60, 65, 66, 70},
             {26, 28, 30, 32, 34, 37, 43, 44, 47, 49, 50, 54, 55, 56, 58, 61, 62, 63, 64, 67, 68, 69, 71, 72, 73, 74, 75, 76, 77, 78, 79, 80, 81, 82, 83, 84, 85, 86, 87, 88, 89, 90, 91, 92, 93, 94, 95, 96, 97, 98, 99, 100, 101},
             {},
             {24, 27, 31},
             {31},
             {29, 33, 35, 36, 38, 39, 40, 41, 42, 45, 46, 48, 51, 52, 53, 57, 59, 60, 65, 66, 70},
             {28, 30, 32, 34, 37, 43, 44, 47, 49, 50, 54, 55, 56, 58, 61, 62, 63, 64, 67, 68, 69, 71, 72, 73, 74, 75, 76, 77, 78, 79, 80, 81, 82, 83, 84, 85, 86, 87, 88, 89, 90, 91, 92, 93, 94, 95, 96, 97, 98, 99, 100, 101},
             {},
             {32, 34, 37, 43, 44, 47, 49, 50, 54, 55, 56, 58, 61, 62, 63, 64, 67, 68, 69, 71, 72, 73, 74, 75, 76, 77, 78, 79, 80, 81, 82, 83, 84, 85, 86, 87, 88, 89, 90, 91, 92, 93, 94, 95, 96, 97, 98, 99, 100, 101},
             {33, 35, 36, 38, 39, 40, 41, 42, 45, 46, 48, 51, 52, 53, 57, 59, 60, 65, 66, 70},
             {},
             {},
             {37, 43, 44, 47, 49, 50, 54, 55, 56, 58, 61, 62, 63, 64, 67, 68, 69, 71, 72, 73, 74, 75, 76, 77, 78, 79, 80, 81, 82, 83, 84, 85, 86, 87, 88, 89, 90, 91, 92, 93, 94, 95, 96, 97, 98, 99, 100, 101},
             {36, 39, 41, 42, 45},
             {},
             {38, 40, 46, 48, 51, 52, 53, 57, 59, 60, 65, 66, 70},
             {41, 45},
             {43, 44, 47, 49, 50, 54, 55, 56, 58, 61, 62, 63, 64, 67, 68, 69, 71, 72, 73, 74, 75, 76, 77, 78, 79, 80, 81, 82, 83, 84, 85, 86, 87, 88, 89, 90, 91, 92, 93, 94, 95, 96, 97, 98, 99, 100, 101},
             {40, 46, 48, 51, 52, 53, 57, 59, 60, 65, 66, 70},
             {42},
             {46, 48, 51, 52, 53, 57, 59, 60, 65, 66, 70},
             {45},
             {},
             {44, 47, 49, 50, 54, 55, 56, 58, 61, 62, 63, 64, 67, 68, 69, 71, 72, 73, 74, 75, 76, 77, 78, 79, 80, 81, 82, 83, 84, 85, 86, 87, 88, 89, 90, 91, 92, 93, 94, 95, 96, 97, 98, 99, 100, 101},
             {50, 54, 55, 56, 58, 61, 62, 63, 64, 67, 68, 69, 71, 72, 73, 74, 75, 76, 77, 78, 79, 80, 81, 82, 83, 84, 85, 86, 87, 88, 89, 90, 91, 92, 93, 94, 95, 96, 97, 98, 99, 100, 101},
             {},
             {48, 51, 52, 53, 57, 59, 60, 65, 66, 70},
             {49},
             {52, 57, 60, 65, 66, 70},
             {},
             {54, 55, 56, 58, 61, 62, 63, 64, 67, 68, 69, 71, 72, 73, 74, 75, 76, 77, 78, 79, 80, 81, 82, 83, 84, 85, 86, 87, 88, 89, 90, 91, 92, 93, 94, 95, 96, 97, 98, 99, 100, 101},
             {53, 59},
             {57, 60, 65, 66, 70},
             {59},
             {56, 58, 61, 62, 63, 64, 67, 68, 69, 71, 72, 73, 74, 75, 76, 77, 78, 79, 80, 81, 82, 83, 84, 85, 86, 87, 88, 89, 90, 91, 92, 93, 94, 95, 96, 97, 98, 99, 100, 101},
             {},
             {63},
             {60, 65, 66, 70},
             {61, 62, 64, 67, 68, 69, 71, 72, 73, 74, 75, 76, 77, 78, 79, 80, 81, 82, 83, 84, 85, 86, 87, 88, 89, 90, 91, 92, 93, 94, 95, 96, 97, 98, 99, 100, 101},
             {},
             {65, 66, 70},
             {64, 71},
             {67, 68, 69, 72, 73, 74, 75, 76, 77, 78, 79, 80, 81, 82, 83, 84, 85, 86, 87, 88, 89, 90, 91, 92, 93, 94, 95, 96, 97, 98, 99, 100, 101},
             {},
             {71},
             {70},
             {},
             {68, 69, 72, 73, 74, 75, 76, 77, 78, 79, 80, 81, 82, 83, 84, 85, 86, 87, 88, 89, 90, 91, 92, 93, 94, 95, 96, 97, 98, 99, 100, 101},
             {75, 79, 83, 86, 87, 89, 90, 91, 93, 94, 95, 96, 97, 98, 99, 100, 101},
             {72, 73, 74, 76, 77, 78, 80, 81, 82, 84, 85, 88, 90, 92, 93, 94, 95, 96, 97, 98, 99, 100, 101},
             {},
             {},
             {77, 78, 80, 85, 90, 93, 98, 101},
             {76, 81, 82, 84, 85, 88, 90, 92, 93, 94, 95, 96, 97, 98, 99, 100, 101},
             {},
             {79, 83, 86, 87, 89, 90, 91, 93, 94, 95, 96, 97, 98, 99, 100, 101},
             {81, 82, 84, 85, 88, 90, 92, 93, 94, 95, 96, 97, 98, 99, 100, 101},
             {},
             {80, 85, 90, 93, 98, 101},
             {83, 86, 87, 89, 90, 91, 93, 94, 95, 96, 97, 98, 99, 100, 101},
             {85, 90, 93, 98, 101},
             {84, 88, 92, 94, 95, 96, 97, 99, 100, 101},
             {85, 90, 93, 98, 101},
             {86, 87, 89, 90, 91, 93, 94, 95, 96, 97, 98, 99, 100, 101},
             {88, 92, 94, 95, 96, 97, 99, 100, 101},
             {90, 93, 98, 101},
             {89, 90, 93, 94, 97, 98, 99, 100, 101},
             {91, 95, 96, 100},
             {92, 94, 95, 96, 97, 99, 100, 101},
             {94, 97, 99, 100, 101},
             {93, 98, 101},
             {95, 96, 100},
             {99, 100},
             {98, 101},
             {97, 99, 100, 101},
             {96, 100},
             {100},
             {101},
             {101},
             {100},
             {},
             {}];
InitialSolution = [2, 5, 11, 14, 19, 21, 26, 28, 32, 37, 43, 44, 50, 54, 58, 4, 62, 67, 8, 15, 17, 69, 20, 25, 29, 68, 73, 75, 76, 79, 83, 35, 38, 40, 46, 81, 84, 86, 9, 72, 88, 48, 78, 13, 33, 52, 80, 82, 89, 16, 57, 85, 87, 94, 23, 60, 90, 91, 36, 51, 61, 92, 93, 95, 1, 3, 12, 24, 39, 41, 47, 53, 56, 64, 65, 96, 97, 98, 99, 6, 7, 10, 18, 22, 27, 30, 31, 34, 42, 45, 49, 55, 59, 63, 66, 70, 71, 74, 77, 100, 101];