numResources = 3;
numTasks = 20;
Duration = [4, 1, 5, 2, 1, 1, 2, 1, 2, 4, 1, 4, 4, 2, 2, 5, 5, 5, 2, 5];
ResourceCapability = [4, 3, 4];
ResourceRequirement = [|2, 0, 2, 1, 1, 2, 2, 1, 1, 1, 1, 0, 2, 2, 1, 1, 2, 0, 0, 0
                       |1, 0, 0, 1, 0, 0, 0, 0, 1, 1, 0, 0, 0, 1, 1, 1, 0, 0, 0, 0
                       |1, 1, 2, 0, 2, 1, 0, 1, 1, 0, 2, 0, 0, 2, 1, 2, 1, 0, 1, 0|];
Successor = [{20},
             {13, 14, 16},
             {4, 6, 13, 14, 18},
             {6, 18},
             {8},
             {},
             {},
             {},
             {13, 14},
             {14},
             {15, 20},
             {14, 20},
             {14},
             {},
             {20},
             {},
             {},
             {},
             {},
             {}];
InitialSolution = [3, 2, 4, 9, 11, 12, 1, 5, 10, 13, 15, 6, 7, 8, 14, 16, 17, 18, 19, 20];