numResources = 3;
numTasks = 20;
Duration = [4, 1, 1, 2, 2, 5, 1, 3, 3, 4, 1, 6, 3, 1, 1, 2, 3, 3, 5, 4];
ResourceCapability = [6, 6, 6];
ResourceRequirement = [|0, 0, 1, 3, 3, 3, 1, 1, 1, 2, 1, 1, 1, 0, 2, 2, 2, 3, 2, 2
                       |3, 1, 2, 3, 0, 2, 1, 2, 2, 0, 1, 0, 3, 0, 2, 3, 0, 4, 0, 2
                       |1, 3, 2, 0, 1, 1, 1, 0, 0, 0, 3, 1, 2, 2, 0, 0, 2, 2, 1, 1|];
Successor = [{3, 11, 13},
             {19},
             {11, 13},
             {7, 10},
             {15},
             {9, 11, 13},
             {},
             {18, 19},
             {11, 13},
             {},
             {13},
             {16},
             {},
             {},
             {},
             {},
             {18},
             {},
             {},
             {}];
InitialSolution = [1, 6, 3, 4, 8, 9, 2, 5, 11, 12, 17, 7, 10, 13, 14, 15, 16, 18, 19, 20];