numResources = 3;
numTasks = 20;
Duration = [5, 4, 5, 3, 4, 2, 5, 4, 3, 4, 3, 1, 5, 4, 3, 5, 2, 2, 4, 2];
ResourceCapability = [6, 6, 3];
ResourceRequirement = [|1, 3, 0, 3, 3, 1, 0, 1, 3, 2, 1, 2, 1, 2, 1, 3, 1, 0, 1, 0
                       |0, 3, 1, 0, 2, 3, 0, 2, 3, 1, 1, 2, 0, 2, 2, 1, 0, 1, 1, 3
                       |1, 0, 0, 0, 1, 0, 1, 1, 0, 1, 1, 1, 1, 0, 1, 0, 0, 0, 1, 0|];
Successor = [{6, 9, 12, 18, 19, 20},
             {},
             {5, 6, 9, 15, 18, 19, 20},
             {},
             {6, 9, 15, 18, 19, 20},
             {9, 18, 19, 20},
             {},
             {},
             {18, 20},
             {13, 20},
             {},
             {20},
             {},
             {17, 18, 20},
             {},
             {},
             {18, 20},
             {20},
             {},
             {}];
InitialSolution = [3, 1, 5, 6, 14, 9, 10, 17, 12, 18, 2, 4, 7, 8, 11, 13, 15, 16, 19, 20];