numResources = 3;
numTasks = 20;
Duration = [4, 1, 5, 4, 2, 4, 5, 4, 3, 1, 4, 3, 4, 4, 2, 4, 2, 1, 5, 2];
ResourceCapability = [3, 6, 3];
ResourceRequirement = [|1, 1, 0, 0, 0, 1, 0, 0, 0, 0, 1, 1, 0, 1, 0, 1, 1, 0, 1, 1
                       |2, 2, 2, 1, 3, 0, 2, 1, 0, 0, 2, 3, 1, 3, 0, 3, 0, 3, 3, 2
                       |0, 0, 1, 0, 0, 1, 1, 1, 0, 1, 0, 0, 1, 1, 0, 0, 1, 0, 1, 1|];
Successor = [{5, 6, 9, 10, 13, 14},
             {4, 5, 9, 10},
             {19, 20},
             {5, 9, 10},
             {9, 10},
             {13},
             {13},
             {},
             {10},
             {},
             {},
             {18},
             {},
             {},
             {19, 20},
             {},
             {},
             {},
             {20},
             {}];
InitialSolution = [1, 2, 4, 3, 5, 15, 6, 7, 9, 12, 19, 8, 10, 11, 13, 14, 16, 17, 18, 20];