numResources = 3;
numTasks = 20;
Duration = [1, 5, 2, 2, 4, 1, 2, 5, 2, 2, 5, 2, 3, 2, 1, 2, 3, 5, 2, 1];
ResourceCapability = [3, 3, 5];
ResourceRequirement = [|1, 1, 1, 0, 0, 0, 0, 0, 1, 1, 0, 0, 1, 1, 0, 0, 1, 0, 0, 0
                       |0, 0, 1, 1, 1, 1, 0, 1, 1, 1, 1, 0, 1, 1, 1, 1, 0, 1, 1, 1
                       |2, 2, 0, 2, 1, 2, 0, 1, 2, 0, 2, 1, 1, 0, 0, 1, 2, 2, 2, 1|];
Successor = [{},
             {3, 4, 6, 15},
             {4, 6, 15},
             {},
             {6},
             {},
             {8},
             {},
             {13, 15, 18},
             {11, 12},
             {12},
             {},
             {15},
             {20},
             {},
             {},
             {},
             {},
             {},
             {}];
InitialSolution = [2, 3, 9, 10, 5, 7, 11, 13, 14, 1, 4, 6, 8, 12, 15, 16, 17, 18, 19, 20];