numResources = 3;
numTasks = 20;
Duration = [3, 1, 1, 4, 1, 2, 3, 3, 2, 3, 1, 3, 3, 3, 4, 4, 5, 2, 1, 3];
ResourceCapability = [5, 4, 4];
ResourceRequirement = [|1, 0, 0, 1, 3, 2, 1, 2, 1, 2, 3, 2, 0, 0, 3, 3, 1, 3, 1, 1
                       |2, 2, 2, 2, 1, 0, 1, 2, 1, 0, 0, 1, 2, 2, 2, 0, 2, 2, 2, 1
                       |2, 0, 0, 2, 2, 0, 1, 0, 0, 2, 0, 2, 0, 2, 2, 2, 0, 0, 1, 0|];
Successor = [{},
             {15, 18},
             {},
             {},
             {15, 18, 20},
             {12, 13, 14, 18, 20},
             {},
             {},
             {},
             {15, 18},
             {},
             {13, 14, 18, 20},
             {14, 18, 20},
             {18},
             {18},
             {19},
             {},
             {},
             {},
             {}];
InitialSolution = [6, 12, 5, 13, 2, 10, 14, 15, 16, 1, 3, 4, 7, 8, 9, 11, 17, 18, 19, 20];