numResources = 3;
numTasks = 20;
Duration = [3, 3, 2, 3, 3, 1, 1, 3, 1, 1, 3, 2, 3, 3, 2, 5, 5, 3, 4, 2];
ResourceCapability = [6, 4, 5];
ResourceRequirement = [|1, 3, 3, 0, 3, 3, 1, 3, 0, 3, 1, 1, 1, 1, 3, 1, 2, 1, 3, 0
                       |0, 0, 2, 0, 2, 2, 0, 0, 1, 0, 2, 0, 1, 1, 0, 2, 1, 1, 1, 1
                       |2, 1, 0, 2, 0, 2, 0, 0, 1, 0, 0, 0, 0, 1, 0, 0, 0, 1, 2, 0|];
Successor = [{},
             {4, 14},
             {8, 11, 15, 18, 19, 20},
             {14},
             {},
             {9, 13, 17},
             {8, 11, 12, 18, 19},
             {11, 18},
             {13, 17},
             {},
             {},
             {},
             {},
             {},
             {19},
             {19},
             {},
             {},
             {},
             {}];
InitialSolution = [3, 7, 6, 2, 8, 9, 4, 15, 16, 1, 5, 10, 11, 12, 13, 14, 17, 18, 19, 20];