numResources = 3;
numTasks = 25;
Duration = [4, 5, 4, 4, 2, 3, 5, 2, 2, 1, 3, 3, 4, 3, 1, 4, 3, 1, 1, 3, 1, 1, 2, 2, 5];
ResourceCapability = [5, 3, 4];
ResourceRequirement = [|2, 2, 2, 1, 1, 0, 0, 2, 1, 0, 2, 2, 0, 0, 2, 2, 0, 1, 1, 0, 2, 2, 0, 0, 0
                       |1, 0, 0, 1, 1, 0, 0, 1, 0, 1, 1, 1, 1, 1, 1, 0, 1, 1, 1, 0, 0, 0, 0, 1, 1
                       |2, 0, 2, 2, 2, 1, 1, 2, 0, 1, 1, 1, 2, 1, 2, 0, 2, 1, 1, 1, 2, 1, 2, 2, 2|];
Successor = [{13, 19, 22, 23, 25},
             {14, 16, 17, 19, 20, 24, 25},
             {13, 21, 23, 24, 25},
             {12, 13, 16, 20, 24, 25},
             {18},
             {9, 10, 12, 13, 15, 16, 20, 24, 25},
             {14, 15, 17, 19, 20, 21, 23, 24, 25},
             {9, 15, 20, 22, 23, 24, 25},
             {15, 20},
             {12, 13, 15, 16, 20, 24, 25},
             {12, 13, 16, 24, 25},
             {13, 16, 24, 25},
             {25},
             {17, 19, 24, 25},
             {20},
             {24},
             {24, 25},
             {},
             {},
             {},
             {23, 24, 25},
             {23, 25},
             {25},
             {},
             {}];
InitialSolution = [6, 7, 2, 8, 10, 4, 1, 3, 11, 12, 14, 21, 9, 17, 22, 5, 13, 15, 16, 23, 18, 19, 20, 24, 25];