numResources = 3;
numTasks = 25;
Duration = [3, 2, 2, 4, 5, 5, 5, 5, 3, 3, 4, 3, 5, 1, 3, 4, 3, 1, 2, 5, 2, 5, 3, 5, 4];
ResourceCapability = [5, 5, 6];
ResourceRequirement = [|0, 1, 0, 2, 0, 2, 0, 2, 1, 0, 1, 2, 1, 0, 2, 2, 1, 2, 0, 0, 2, 0, 0, 2, 1
                       |0, 0, 0, 2, 2, 1, 1, 2, 1, 0, 0, 1, 2, 0, 0, 1, 1, 0, 2, 2, 2, 2, 0, 1, 0
                       |3, 3, 3, 3, 1, 3, 1, 3, 0, 1, 3, 3, 3, 2, 0, 1, 0, 2, 1, 2, 3, 1, 3, 2, 3|];
Successor = [{9, 10, 13, 14, 17, 18, 20, 21, 23, 24},
             {10, 21},
             {8, 11, 14, 17, 19, 20, 21, 23},
             {7, 12, 13, 15, 18, 20, 21, 22, 23, 24},
             {10, 12, 15, 16, 17, 18, 20, 21, 22, 24},
             {10, 13, 18, 23, 24},
             {12, 15, 21, 22},
             {11, 14, 17, 19, 20, 21, 23},
             {10, 18, 24},
             {},
             {14, 17, 19, 20, 21, 23},
             {15},
             {18, 23, 24},
             {17, 20, 21},
             {},
             {18, 24},
             {20, 21},
             {24},
             {23},
             {},
             {},
             {},
             {},
             {},
             {}];
InitialSolution = [1, 4, 5, 3, 8, 11, 6, 7, 9, 13, 14, 2, 16, 17, 12, 18, 19, 10, 15, 20, 21, 22, 23, 24, 25];