numResources = 3;
numTasks = 25;
Duration = [4, 2, 4, 1, 5, 2, 3, 4, 1, 5, 1, 4, 3, 5, 4, 4, 1, 3, 2, 5, 1, 2, 1, 2, 2];
ResourceCapability = [4, 3, 5];
ResourceRequirement = [|0, 2, 2, 0, 2, 0, 2, 0, 0, 1, 0, 2, 2, 0, 0, 1, 1, 2, 2, 0, 2, 0, 0, 0, 0
                       |1, 0, 1, 0, 1, 0, 0, 1, 1, 1, 0, 0, 0, 1, 1, 1, 0, 1, 1, 0, 1, 1, 1, 1, 0
                       |1, 0, 1, 2, 2, 1, 0, 0, 2, 0, 1, 0, 1, 1, 1, 1, 1, 0, 0, 0, 1, 1, 0, 0, 1|];
Successor = [{18},
             {9, 13, 15, 19, 20, 21, 22, 23, 24, 25},
             {17, 18, 19},
             {7, 8, 9, 11, 13, 14, 15, 19, 20, 21, 22, 23, 24, 25},
             {24},
             {8, 9, 13, 19, 20, 21, 22, 23, 24, 25},
             {8, 9, 11, 13, 15, 19, 20, 21, 22, 23, 24, 25},
             {9, 13, 19, 20, 21, 22, 23, 24, 25},
             {13, 19, 20, 21, 22, 23, 24, 25},
             {23},
             {22, 24, 25},
             {13, 19, 22, 25},
             {19, 25},
             {15, 19},
             {19},
             {22},
             {19},
             {},
             {},
             {23},
             {23, 24},
             {},
             {},
             {},
             {}];
InitialSolution = [4, 7, 2, 6, 8, 9, 12, 3, 11, 13, 14, 21, 1, 5, 10, 15, 16, 17, 20, 18, 19, 22, 23, 24, 25];