numResources = 3;
numTasks = 25;
Duration = [2, 4, 3, 4, 1, 2, 5, 4, 3, 3, 3, 2, 1, 3, 5, 2, 3, 2, 1, 1, 4, 1, 3, 4, 3];
ResourceCapability = [3, 4, 4];
ResourceRequirement = [|0, 1, 1, 0, 0, 1, 1, 0, 1, 1, 1, 0, 1, 1, 0, 1, 1, 1, 1, 0, 1, 0, 0, 1, 1
                       |0, 1, 2, 0, 0, 1, 0, 1, 0, 2, 1, 2, 2, 0, 2, 1, 2, 2, 2, 1, 0, 0, 2, 1, 0
                       |1, 0, 1, 1, 2, 1, 0, 2, 1, 1, 2, 0, 0, 1, 2, 1, 0, 0, 2, 0, 2, 2, 2, 1, 1|];
Successor = [{6, 8, 10, 11, 16, 17, 22, 24},
             {},
             {17, 22},
             {11, 17, 22, 23, 24},
             {8, 10, 11, 16, 17, 20, 22, 24},
             {8, 10, 11, 16, 17, 22, 24},
             {16, 17},
             {10, 11, 16, 17, 24},
             {14, 17, 21, 23, 24, 25},
             {11, 16, 17, 24},
             {24},
             {14, 17, 23, 24},
             {15, 18, 22, 25},
             {17, 23, 24},
             {18, 22, 25},
             {17},
             {},
             {25},
             {24},
             {22},
             {},
             {},
             {24},
             {},
             {}];
InitialSolution = [1, 5, 6, 9, 4, 8, 10, 12, 13, 14, 15, 3, 7, 11, 16, 18, 19, 20, 23, 2, 17, 21, 22, 24, 25];