numResources = 3;
numTasks = 25;
Duration = [5, 2, 4, 3, 4, 4, 2, 2, 5, 5, 5, 4, 4, 4, 5, 1, 4, 5, 5, 2, 3, 3, 2, 5, 5];
ResourceCapability = [3, 4, 4];
ResourceRequirement = [|1, 0, 0, 0, 0, 0, 1, 0, 0, 1, 1, 0, 1, 1, 1, 0, 0, 1, 0, 0, 0, 1, 1, 0, 1
                       |1, 1, 2, 1, 1, 2, 0, 2, 1, 0, 2, 1, 1, 1, 2, 0, 2, 0, 0, 1, 1, 2, 1, 0, 0
                       |1, 1, 2, 0, 2, 2, 1, 0, 0, 2, 1, 0, 0, 1, 2, 1, 2, 2, 2, 0, 1, 0, 2, 0, 2|];
Successor = [{9, 11, 13, 14, 16, 17, 18, 19, 20, 22, 25},
             {5, 7, 8, 11, 14, 15, 16, 17, 18, 19, 20, 21, 22, 23, 24, 25},
             {22},
             {13, 14, 15, 17, 19},
             {15, 18, 19},
             {},
             {8, 11, 14, 15, 16, 17, 19, 20, 22, 23, 24, 25},
             {14, 15, 16, 17, 19, 20, 22, 24, 25},
             {11, 13, 14, 16, 17, 19, 20, 22, 25},
             {12, 17, 19, 23, 24},
             {22, 25},
             {},
             {14, 17, 19},
             {17, 19},
             {},
             {17, 19, 20, 22},
             {19},
             {19},
             {},
             {},
             {},
             {},
             {24},
             {},
             {}];
InitialSolution = [2, 7, 1, 8, 9, 4, 10, 16, 5, 13, 11, 14, 3, 17, 18, 23, 6, 12, 15, 19, 20, 21, 22, 24, 25];