numResources = 3;
numTasks = 25;
Duration = [2, 1, 3, 3, 2, 4, 4, 1, 2, 5, 1, 3, 1, 5, 2, 4, 4, 4, 5, 1, 4, 2, 4, 4, 5];
ResourceCapability = [6, 5, 4];
ResourceRequirement = [|1, 2, 2, 3, 3, 3, 3, 2, 1, 2, 3, 2, 2, 0, 2, 2, 0, 2, 0, 0, 0, 1, 3, 3, 2
                       |2, 2, 1, 2, 1, 1, 0, 0, 1, 0, 1, 1, 1, 1, 2, 1, 1, 1, 1, 2, 1, 0, 2, 0, 0
                       |2, 1, 2, 2, 1, 1, 1, 2, 0, 0, 1, 2, 0, 2, 0, 2, 2, 2, 1, 2, 1, 0, 1, 0, 2|];
Successor = [{7, 14, 16, 17, 19, 20, 22, 23, 24, 25},
             {7, 8, 12, 14, 16, 17, 20, 22, 23, 24, 25},
             {12, 22},
             {17, 20},
             {7, 8, 14, 16, 17, 20, 22, 23, 24, 25},
             {8, 14, 16, 17, 20, 22, 23, 24, 25},
             {14, 16, 17, 20, 22, 23, 24, 25},
             {23, 25},
             {14, 16, 17, 20, 22, 23, 24, 25},
             {12, 13, 16, 17, 21, 22, 23, 24, 25},
             {12, 22, 23, 25},
             {22},
             {22},
             {16, 17, 20, 22, 23, 24, 25},
             {18, 19, 20, 25},
             {17, 23, 24, 25},
             {},
             {25},
             {20},
             {},
             {},
             {},
             {25},
             {},
             {}];
InitialSolution = [2, 1, 5, 6, 10, 7, 9, 14, 11, 15, 16, 3, 4, 8, 12, 13, 18, 19, 23, 17, 20, 21, 22, 24, 25];