numResources = 4;
numTasks = 15;
Duration = [2, 3, 10, 5, 200, 50, 75, 175, 75, 100, 250, 9, 3, 7, 2];
ResourceCapability = [13, 10, 9, 13];
ResourceRequirement = [|1, 0, 0, 0, 0, 5, 3, 0, 0, 8, 0, 7, 10, 0, 0
                       |0, 4, 0, 0, 0, 0, 0, 0, 0, 0, 0, 0, 0, 0, 0
                       |0, 0, 0, 0, 0, 0, 0, 0, 8, 0, 0, 0, 0, 9, 3
                       |0, 0, 8, 1, 6, 0, 0, 8, 0, 0, 5, 0, 0, 0, 0|];
Successor = [{4, 5, 6, 9, 10, 12, 13, 15},
             {6, 8, 10, 12, 13, 14},
             {5, 7, 9, 11, 12, 14},
             {5, 6, 12, 13, 15},
             {},
             {12, 13},
             {11, 12, 14},
             {14},
             {12},
             {},
             {12},
             {},
             {},
             {},
             {}];
InitialSolution = [1, 2, 3, 4, 7, 6, 8, 9, 11, 5, 10, 12, 13, 14, 15];