numResources = 4;
numTasks = 15;
Duration = [9, 10, 9, 10, 175, 25, 100, 100, 100, 200, 225, 3, 2, 1, 3];
ResourceCapability = [22, 34, 24, 27];
ResourceRequirement = [|7, 0, 10, 3, 5, 3, 4, 1, 0, 10, 1, 8, 8, 1, 10
                       |1, 0, 4, 0, 10, 2, 7, 9, 2, 0, 8, 5, 2, 0, 8
                       |6, 6, 1, 3, 8, 5, 0, 0, 6, 0, 9, 6, 4, 2, 8
                       |8, 6, 7, 8, 0, 3, 10, 8, 1, 2, 5, 0, 7, 2, 0|];
Successor = [{11, 12, 13, 14},
             {5, 6, 7, 9, 10, 15},
             {4, 8},
             {},
             {7, 9, 10, 15},
             {},
             {9, 10, 15},
             {},
             {10, 15},
             {15},
             {14},
             {13, 14},
             {14},
             {},
             {}];
InitialSolution = [2, 1, 5, 7, 3, 9, 12, 10, 11, 13, 4, 6, 8, 14, 15];