numResources = 4;
numTasks = 15;
Duration = [2, 10, 7, 1, 75, 150, 50, 250, 125, 225, 100, 4, 2, 4, 10];
ResourceCapability = [14, 10, 11, 14];
ResourceRequirement = [|0, 0, 0, 8, 0, 0, 0, 0, 1, 2, 0, 0, 0, 0, 10
                       |0, 8, 0, 0, 0, 0, 9, 0, 0, 0, 0, 5, 0, 0, 0
                       |2, 0, 7, 0, 0, 5, 0, 0, 0, 0, 6, 0, 10, 0, 0
                       |0, 0, 0, 0, 8, 0, 0, 2, 0, 0, 0, 0, 0, 10, 0|];
Successor = [{9, 11},
             {4, 5, 8, 12, 13, 14, 15},
             {6, 7, 10, 12},
             {5, 12, 15},
             {12, 15},
             {7, 10},
             {},
             {13},
             {11},
             {},
             {},
             {},
             {},
             {},
             {}];
InitialSolution = [2, 3, 4, 1, 5, 6, 8, 9, 7, 10, 11, 12, 13, 14, 15];