numResources = 4;
numTasks = 15;
Duration = [9, 10, 5, 1, 75, 125, 225, 125, 250, 200, 175, 2, 8, 3, 6];
ResourceCapability = [8, 11, 11, 9];
ResourceRequirement = [|0, 0, 0, 0, 0, 0, 0, 0, 0, 0, 0, 0, 4, 0, 0
                       |7, 0, 0, 2, 0, 0, 0, 3, 9, 0, 0, 9, 0, 0, 0
                       |0, 0, 5, 0, 5, 0, 9, 0, 0, 0, 4, 0, 0, 8, 0
                       |0, 5, 0, 0, 0, 4, 0, 0, 0, 5, 0, 0, 0, 0, 6|];
Successor = [{5, 6, 7, 8, 10, 13, 14},
             {4, 6, 8, 9, 10, 12, 15},
             {11, 15},
             {6, 8, 9, 10, 12},
             {6, 8, 10},
             {8, 10},
             {14},
             {},
             {},
             {},
             {},
             {},
             {},
             {},
             {}];
InitialSolution = [1, 2, 4, 5, 3, 6, 7, 8, 9, 10, 11, 12, 13, 14, 15];