numResources = 4;
numTasks = 15;
Duration = [1, 4, 5, 6, 50, 150, 25, 175, 250, 225, 225, 10, 8, 10, 7];
ResourceCapability = [19, 14, 16, 17];
ResourceRequirement = [|10, 1, 7, 10, 3, 7, 5, 6, 9, 2, 9, 2, 2, 9, 10
                       |1, 10, 7, 6, 10, 4, 8, 10, 1, 6, 8, 3, 4, 1, 7
                       |5, 2, 3, 9, 4, 6, 7, 4, 3, 4, 7, 5, 9, 5, 4
                       |8, 1, 4, 8, 3, 10, 7, 9, 10, 7, 6, 9, 5, 6, 5|];
Successor = [{5, 9, 10, 11, 14},
             {7, 8, 12, 13, 15},
             {4, 6, 8, 12, 13},
             {6, 8, 12, 13},
             {9, 10, 11},
             {8, 12, 13},
             {8, 12, 13, 15},
             {12, 13},
             {10},
             {},
             {},
             {},
             {},
             {},
             {}];
InitialSolution = [1, 2, 3, 4, 7, 5, 6, 8, 9, 10, 11, 12, 13, 14, 15];