numResources = 4;
numTasks = 15;
Duration = [6, 2, 9, 8, 25, 100, 50, 25, 75, 50, 150, 5, 3, 1, 7];
ResourceCapability = [20, 22, 24, 28];
ResourceRequirement = [|5, 1, 3, 2, 10, 9, 1, 1, 10, 1, 9, 7, 2, 8, 2
                       |3, 2, 4, 8, 5, 1, 2, 4, 2, 2, 1, 10, 3, 5, 1
                       |4, 10, 7, 3, 1, 1, 10, 6, 7, 2, 2, 4, 3, 2, 9
                       |7, 5, 7, 10, 7, 7, 7, 2, 5, 8, 9, 4, 4, 8, 4|];
Successor = [{},
             {4, 5, 6, 7, 8, 9, 10, 11, 12, 14, 15},
             {13},
             {10, 12, 14},
             {15},
             {7, 8, 9, 11, 14},
             {},
             {9, 14},
             {14},
             {12, 14},
             {},
             {14},
             {},
             {},
             {}];
InitialSolution = [2, 6, 4, 8, 10, 3, 5, 9, 12, 1, 7, 11, 13, 14, 15];