numResources = 4;
numTasks = 15;
Duration = [10, 6, 10, 9, 175, 75, 250, 200, 250, 175, 150, 10, 3, 7, 10];
ResourceCapability = [12, 8, 12, 11];
ResourceRequirement = [|9, 1, 2, 0, 0, 0, 9, 0, 0, 0, 0, 7, 0, 0, 0
                       |0, 0, 0, 8, 0, 0, 0, 0, 0, 0, 0, 0, 0, 0, 5
                       |0, 0, 0, 0, 0, 0, 0, 0, 3, 6, 0, 0, 7, 0, 0
                       |0, 0, 0, 0, 2, 4, 0, 10, 0, 0, 3, 0, 0, 10, 0|];
Successor = [{5, 7, 11, 13, 14},
             {4, 6, 8, 9, 10, 11, 12, 13, 14, 15},
             {},
             {10, 13},
             {14},
             {8, 9, 11, 12, 14, 15},
             {13},
             {9, 11, 12, 14, 15},
             {11, 12, 14, 15},
             {13},
             {},
             {14},
             {},
             {},
             {}];
InitialSolution = [2, 6, 1, 8, 9, 4, 5, 7, 10, 12, 3, 11, 13, 14, 15];