numResources = 4;
numTasks = 15;
Duration = [7, 3, 5, 4, 75, 100, 25, 50, 100, 175, 25, 5, 7, 3, 4];
ResourceCapability = [30, 28, 26, 33];
ResourceRequirement = [|2, 10, 3, 10, 5, 2, 6, 10, 6, 6, 9, 1, 9, 8, 6
                       |2, 2, 4, 5, 5, 1, 3, 10, 5, 8, 7, 4, 9, 5, 4
                       |6, 5, 4, 7, 8, 8, 6, 10, 6, 10, 1, 2, 6, 1, 6
                       |2, 9, 8, 7, 8, 9, 10, 6, 8, 1, 5, 3, 10, 2, 9|];
Successor = [{14},
             {5, 7, 8, 9, 11, 12, 13, 15},
             {4, 6, 10},
             {6, 10},
             {8, 11, 12, 15},
             {10},
             {13},
             {11},
             {15},
             {},
             {},
             {15},
             {},
             {},
             {}];
InitialSolution = [2, 5, 3, 4, 1, 6, 7, 8, 9, 12, 10, 11, 13, 14, 15];