numResources = 4;
numTasks = 15;
Duration = [1, 5, 7, 2, 200, 250, 75, 175, 50, 250, 175, 9, 5, 5, 6];
ResourceCapability = [17, 24, 26, 15];
ResourceRequirement = [|3, 2, 0, 4, 5, 2, 2, 3, 4, 9, 4, 0, 0, 0, 9
                       |1, 7, 5, 2, 4, 6, 3, 7, 3, 10, 0, 0, 0, 2, 0
                       |3, 6, 10, 3, 6, 0, 0, 7, 0, 3, 1, 3, 6, 6, 7
                       |2, 1, 2, 7, 7, 7, 2, 0, 7, 4, 0, 7, 0, 2, 2|];
Successor = [{4, 9, 10, 11, 12, 13, 14},
             {5, 6, 7, 8, 12, 14, 15},
             {},
             {11},
             {6, 7, 12, 15},
             {15},
             {},
             {15},
             {10, 13, 14},
             {14},
             {},
             {},
             {},
             {},
             {}];
InitialSolution = [1, 2, 5, 9, 4, 6, 8, 10, 3, 7, 11, 12, 13, 14, 15];