numResources = 4;
numTasks = 15;
Duration = [6, 3, 7, 8, 175, 125, 25, 250, 225, 150, 225, 4, 5, 10, 1];
ResourceCapability = [23, 23, 22, 20];
ResourceRequirement = [|6, 8, 4, 5, 3, 2, 5, 9, 10, 9, 3, 10, 7, 1, 2
                       |5, 5, 9, 9, 10, 7, 10, 7, 8, 3, 4, 2, 7, 1, 8
                       |7, 7, 2, 7, 1, 2, 3, 4, 8, 10, 1, 6, 5, 7, 4
                       |6, 3, 2, 6, 9, 8, 10, 9, 5, 2, 2, 2, 9, 3, 4|];
Successor = [{},
             {4, 5, 6, 9, 11, 12, 13, 14, 15},
             {7, 8, 10},
             {6, 9, 11, 12, 13, 15},
             {14},
             {11, 13, 15},
             {8, 10},
             {10},
             {},
             {},
             {13, 15},
             {},
             {},
             {},
             {}];
InitialSolution = [2, 4, 3, 6, 7, 11, 5, 8, 1, 9, 10, 12, 13, 14, 15];