numResources = 4;
numTasks = 15;
Duration = [5, 1, 1, 6, 175, 225, 125, 75, 175, 25, 225, 6, 5, 5, 7];
ResourceCapability = [21, 20, 18, 25];
ResourceRequirement = [|4, 4, 0, 3, 0, 0, 2, 4, 9, 8, 9, 10, 1, 8, 0
                       |9, 10, 1, 0, 1, 5, 2, 7, 0, 6, 0, 6, 9, 10, 8
                       |10, 9, 0, 5, 0, 0, 6, 3, 4, 4, 7, 3, 1, 2, 0
                       |4, 4, 1, 0, 8, 10, 0, 0, 1, 8, 0, 8, 5, 6, 0|];
Successor = [{8, 12, 15},
             {4, 9, 10, 12, 15},
             {5, 6, 7, 11, 13, 14},
             {10},
             {6, 7, 11, 13, 14},
             {7, 11, 13, 14},
             {14},
             {12, 15},
             {},
             {},
             {13},
             {15},
             {},
             {},
             {}];
InitialSolution = [3, 2, 5, 6, 1, 8, 4, 7, 11, 12, 9, 10, 13, 14, 15];