numResources = 4;
numTasks = 15;
Duration = [1, 5, 9, 6, 25, 200, 75, 225, 150, 175, 25, 8, 10, 2, 8];
ResourceCapability = [26, 26, 22, 27];
ResourceRequirement = [|2, 4, 5, 10, 6, 5, 9, 8, 7, 4, 7, 6, 7, 7, 10
                       |7, 2, 8, 8, 3, 10, 6, 10, 3, 3, 8, 3, 4, 2, 4
                       |9, 9, 1, 3, 1, 3, 3, 2, 10, 3, 2, 1, 5, 6, 1
                       |1, 1, 1, 10, 7, 1, 4, 9, 8, 4, 6, 4, 5, 8, 9|];
Successor = [{},
             {8, 13},
             {4, 5, 6, 7, 9, 10, 11, 12, 13, 14, 15},
             {5, 9, 10, 11, 12, 15},
             {},
             {13, 14},
             {},
             {13},
             {15},
             {11, 12},
             {},
             {},
             {},
             {},
             {}];
InitialSolution = [3, 4, 2, 6, 10, 8, 9, 1, 5, 7, 11, 12, 13, 14, 15];