numResources = 4;
numTasks = 15;
Duration = [7, 9, 7, 4, 225, 175, 125, 175, 125, 100, 225, 3, 2, 5, 8];
ResourceCapability = [27, 25, 31, 26];
ResourceRequirement = [|3, 10, 5, 5, 9, 1, 6, 8, 3, 4, 7, 10, 6, 6, 6
                       |9, 5, 5, 4, 8, 9, 8, 5, 7, 9, 9, 2, 2, 5, 8
                       |6, 8, 9, 8, 10, 5, 6, 7, 2, 8, 7, 5, 4, 5, 7
                       |5, 10, 2, 8, 4, 5, 8, 2, 6, 5, 4, 3, 9, 10, 4|];
Successor = [{6, 7, 11, 12, 13, 14},
             {4, 11, 13},
             {5, 8, 9, 10, 13, 15},
             {},
             {8, 9, 10, 13, 15},
             {},
             {12, 14},
             {9, 10},
             {},
             {},
             {13},
             {14},
             {},
             {},
             {}];
InitialSolution = [1, 3, 5, 2, 7, 8, 11, 12, 4, 6, 9, 10, 13, 14, 15];