numResources = 4;
numTasks = 15;
Duration = [3, 8, 7, 5, 225, 225, 150, 25, 75, 200, 175, 4, 9, 8, 6];
ResourceCapability = [13, 14, 13, 12];
ResourceRequirement = [|0, 0, 2, 0, 10, 0, 0, 0, 0, 0, 0, 0, 0, 0, 6
                       |10, 7, 0, 0, 0, 6, 3, 0, 0, 7, 0, 0, 0, 0, 0
                       |0, 0, 0, 0, 0, 0, 0, 1, 10, 0, 6, 1, 0, 0, 0
                       |0, 0, 0, 8, 0, 0, 0, 0, 0, 0, 0, 0, 3, 7, 0|];
Successor = [{5, 6, 7, 8, 9, 10, 11, 13, 15},
             {4, 5, 7, 8, 10, 11, 13},
             {4, 12, 14, 15},
             {},
             {7, 8, 10, 11, 13},
             {9, 15},
             {8, 11, 13},
             {13},
             {15},
             {},
             {},
             {14, 15},
             {},
             {},
             {}];
InitialSolution = [1, 2, 5, 3, 7, 6, 12, 8, 9, 4, 10, 11, 13, 14, 15];