numResources = 4;
numTasks = 15;
Duration = [3, 5, 9, 10, 25, 175, 50, 250, 225, 250, 125, 2, 5, 7, 7];
ResourceCapability = [28, 40, 43, 39];
ResourceRequirement = [|9, 0, 6, 0, 10, 0, 9, 6, 9, 0, 0, 0, 8, 0, 5
                       |0, 10, 2, 0, 1, 0, 8, 8, 3, 7, 5, 3, 10, 0, 6
                       |9, 3, 2, 10, 2, 0, 3, 2, 9, 5, 2, 0, 10, 5, 0
                       |0, 0, 0, 1, 0, 2, 10, 5, 9, 9, 6, 0, 8, 0, 10|];
Successor = [{},
             {8, 9, 10, 14, 15},
             {4, 5, 6, 7, 11, 12, 13, 15},
             {},
             {12, 13, 15},
             {7, 11},
             {11},
             {10, 14},
             {},
             {},
             {},
             {13},
             {},
             {},
             {}];
InitialSolution = [3, 2, 5, 6, 8, 7, 12, 1, 4, 9, 10, 11, 13, 14, 15];