numResources = 4;
numTasks = 15;
Duration = [7, 9, 8, 9, 125, 225, 75, 50, 150, 50, 175, 3, 7, 6, 4];
ResourceCapability = [23, 22, 22, 23];
ResourceRequirement = [|0, 10, 5, 0, 1, 8, 6, 10, 10, 0, 0, 1, 9, 5, 0
                       |10, 5, 5, 10, 0, 4, 0, 5, 6, 3, 7, 0, 4, 0, 8
                       |0, 5, 0, 4, 8, 10, 2, 6, 3, 2, 8, 0, 7, 0, 6
                       |5, 5, 1, 4, 7, 0, 2, 7, 0, 0, 2, 3, 5, 5, 3|];
Successor = [{4, 5, 6, 7, 8, 9, 10, 11, 12, 13, 14, 15},
             {},
             {},
             {6, 7, 8, 9, 10, 11, 12, 13, 14, 15},
             {},
             {7, 13},
             {13},
             {9, 10, 14},
             {14},
             {},
             {12, 15},
             {},
             {},
             {},
             {}];
InitialSolution = [1, 4, 8, 6, 11, 7, 9, 2, 3, 5, 10, 12, 13, 14, 15];