numResources = 4;
numTasks = 15;
Duration = [2, 1, 3, 10, 250, 50, 50, 75, 75, 75, 100, 8, 2, 2, 1];
ResourceCapability = [14, 12, 15, 18];
ResourceRequirement = [|7, 6, 0, 0, 0, 0, 0, 0, 0, 2, 0, 0, 0, 5, 0
                       |0, 0, 1, 0, 0, 0, 0, 3, 0, 0, 0, 8, 0, 0, 10
                       |0, 0, 0, 4, 0, 0, 8, 0, 0, 0, 0, 0, 0, 0, 0
                       |0, 0, 0, 0, 4, 3, 0, 0, 8, 0, 1, 0, 8, 0, 0|];
Successor = [{12},
             {9, 10, 14},
             {4, 5, 6, 7, 8, 9, 10, 11, 13, 14, 15},
             {5, 7, 8, 11, 13, 15},
             {7, 15},
             {8, 9, 10, 14, 15},
             {},
             {15},
             {10, 14},
             {14},
             {13},
             {},
             {},
             {},
             {}];
InitialSolution = [3, 4, 6, 2, 5, 9, 1, 8, 10, 11, 7, 12, 13, 14, 15];