numResources = 4;
numTasks = 15;
Duration = [8, 6, 10, 10, 150, 100, 50, 150, 125, 75, 175, 6, 4, 4, 2];
ResourceCapability = [16, 16, 17, 17];
ResourceRequirement = [|9, 10, 4, 6, 10, 2, 7, 2, 7, 6, 1, 6, 9, 4, 7
                       |9, 10, 3, 3, 9, 7, 5, 9, 4, 8, 3, 8, 6, 2, 7
                       |8, 6, 2, 3, 9, 9, 6, 1, 6, 9, 10, 8, 3, 10, 10
                       |1, 8, 6, 7, 8, 10, 5, 10, 4, 1, 8, 10, 2, 8, 1|];
Successor = [{4, 5, 11, 12},
             {6, 7, 8, 9, 10, 12, 14},
             {13, 15},
             {5, 11, 12},
             {11, 12},
             {14},
             {9, 12},
             {10},
             {},
             {},
             {},
             {},
             {15},
             {},
             {}];
InitialSolution = [2, 1, 4, 3, 5, 7, 6, 8, 13, 9, 10, 11, 12, 14, 15];