numResources = 4;
numTasks = 15;
Duration = [4, 3, 10, 10, 125, 25, 175, 100, 125, 175, 250, 2, 4, 5, 5];
ResourceCapability = [11, 12, 9, 9];
ResourceRequirement = [|1, 0, 0, 0, 0, 0, 3, 0, 0, 0, 0, 0, 0, 0, 0
                       |0, 0, 0, 0, 10, 3, 0, 0, 0, 0, 3, 7, 0, 5, 0
                       |0, 0, 0, 1, 0, 0, 0, 0, 0, 0, 0, 0, 2, 0, 0
                       |0, 2, 4, 0, 0, 0, 0, 1, 6, 6, 0, 0, 0, 0, 1|];
Successor = [{4, 5, 6, 7, 8, 9, 10, 11, 12, 13, 14, 15},
             {},
             {},
             {5, 8, 9, 12, 13, 14, 15},
             {},
             {7, 10, 11},
             {},
             {12, 13, 14, 15},
             {},
             {11},
             {},
             {},
             {14},
             {},
             {}];
InitialSolution = [1, 4, 8, 6, 10, 13, 2, 3, 5, 7, 9, 11, 12, 14, 15];