numResources = 4;
numTasks = 15;
Duration = [7, 10, 5, 7, 200, 25, 225, 150, 50, 150, 150, 8, 5, 4, 8];
ResourceCapability = [11, 10, 10, 10];
ResourceRequirement = [|0, 0, 0, 0, 0, 6, 1, 0, 0, 0, 10, 8, 0, 0, 1
                       |0, 0, 4, 3, 0, 0, 0, 0, 0, 7, 0, 0, 7, 9, 0
                       |0, 3, 0, 0, 10, 0, 0, 2, 2, 0, 0, 0, 0, 0, 0
                       |3, 0, 0, 0, 0, 0, 0, 0, 0, 0, 0, 0, 0, 0, 0|];
Successor = [{4, 5, 6, 7, 8, 9, 10, 12, 14, 15},
             {9, 11},
             {5, 7, 9, 10, 12, 13, 14, 15},
             {5, 6, 7, 9, 10, 12, 14, 15},
             {7, 9, 10, 12, 14, 15},
             {7, 9, 10},
             {9, 10},
             {9},
             {},
             {},
             {},
             {15},
             {},
             {15},
             {}];
InitialSolution = [1, 3, 4, 5, 6, 2, 7, 8, 12, 14, 9, 10, 11, 13, 15];