numResources = 4;
numTasks = 15;
Duration = [2, 2, 10, 6, 125, 125, 200, 125, 250, 75, 200, 3, 9, 1, 1];
ResourceCapability = [22, 24, 28, 29];
ResourceRequirement = [|0, 4, 0, 3, 8, 6, 4, 5, 8, 6, 1, 0, 4, 2, 6
                       |1, 0, 8, 0, 0, 6, 5, 0, 6, 0, 6, 10, 0, 9, 9
                       |8, 0, 0, 5, 6, 7, 5, 4, 6, 10, 8, 2, 3, 2, 1
                       |0, 4, 6, 10, 8, 0, 1, 0, 9, 0, 1, 9, 6, 2, 7|];
Successor = [{4, 8, 11, 12, 13, 14, 15},
             {5, 6, 7, 10},
             {9, 15},
             {13, 15},
             {},
             {10},
             {},
             {11, 12, 14},
             {15},
             {},
             {},
             {14},
             {},
             {},
             {}];
InitialSolution = [1, 2, 8, 3, 4, 6, 9, 12, 5, 7, 10, 11, 13, 14, 15];