numResources = 4;
numTasks = 15;
Duration = [10, 7, 7, 5, 175, 200, 75, 25, 250, 225, 225, 3, 4, 9, 5];
ResourceCapability = [31, 24, 20, 25];
ResourceRequirement = [|0, 7, 8, 2, 10, 9, 3, 1, 2, 0, 8, 9, 8, 1, 4
                       |5, 0, 10, 1, 1, 5, 8, 4, 7, 0, 0, 6, 10, 6, 0
                       |2, 2, 4, 0, 0, 1, 1, 8, 10, 7, 0, 3, 3, 5, 2
                       |3, 7, 4, 0, 0, 2, 6, 9, 4, 2, 9, 6, 8, 0, 9|];
Successor = [{14},
             {5, 7, 8, 9, 10, 11, 12, 13, 14, 15},
             {4, 6},
             {},
             {14},
             {},
             {8, 9, 10, 11, 12, 13, 15},
             {11, 13},
             {10, 15},
             {15},
             {},
             {15},
             {},
             {},
             {}];
InitialSolution = [2, 7, 3, 8, 9, 1, 5, 10, 12, 4, 6, 11, 13, 14, 15];