numResources = 4;
numTasks = 15;
Duration = [3, 8, 7, 9, 100, 225, 150, 200, 200, 250, 250, 5, 1, 2, 3];
ResourceCapability = [16, 17, 15, 16];
ResourceRequirement = [|1, 8, 0, 0, 0, 4, 0, 0, 10, 0, 0, 0, 0, 0, 0
                       |0, 0, 0, 0, 0, 0, 0, 0, 0, 0, 0, 0, 0, 4, 0
                       |0, 0, 0, 2, 7, 0, 9, 0, 0, 1, 0, 2, 0, 0, 9
                       |0, 0, 3, 0, 0, 0, 0, 5, 0, 0, 7, 0, 8, 0, 0|];
Successor = [{4, 5, 6, 7, 8, 11, 12, 13, 14, 15},
             {13, 15},
             {9, 10, 12},
             {5, 6, 7, 8, 12, 13, 14, 15},
             {6, 8, 12, 14, 15},
             {14, 15},
             {12, 13, 15},
             {12},
             {},
             {12},
             {},
             {},
             {15},
             {},
             {}];
InitialSolution = [1, 4, 5, 3, 7, 2, 6, 8, 10, 13, 9, 11, 12, 14, 15];