numResources = 4;
numTasks = 15;
Duration = [6, 8, 2, 6, 25, 175, 225, 25, 125, 75, 150, 1, 8, 5, 4];
ResourceCapability = [28, 29, 22, 28];
ResourceRequirement = [|4, 9, 7, 8, 5, 7, 7, 4, 3, 6, 8, 8, 6, 6, 9
                       |3, 7, 3, 10, 8, 10, 10, 6, 3, 1, 9, 3, 10, 6, 6
                       |7, 9, 7, 3, 10, 8, 1, 8, 2, 1, 1, 6, 10, 1, 4
                       |1, 4, 5, 6, 6, 9, 4, 3, 8, 7, 2, 3, 10, 10, 4|];
Successor = [{5, 8, 9, 12},
             {14, 15},
             {4, 6, 7, 10, 11, 12, 13, 15},
             {},
             {8},
             {7, 10, 12, 13, 15},
             {13},
             {},
             {12},
             {12},
             {},
             {},
             {},
             {},
             {}];
InitialSolution = [3, 6, 1, 2, 5, 7, 9, 10, 4, 8, 11, 12, 13, 14, 15];