numResources = 4;
numTasks = 15;
Duration = [2, 8, 1, 10, 250, 25, 100, 75, 200, 150, 200, 6, 7, 5, 4];
ResourceCapability = [34, 32, 27, 32];
ResourceRequirement = [|2, 4, 9, 1, 7, 5, 7, 8, 4, 3, 5, 10, 5, 9, 5
                       |5, 8, 9, 2, 10, 3, 10, 1, 7, 8, 3, 6, 9, 10, 1
                       |8, 1, 5, 5, 1, 8, 3, 6, 7, 6, 6, 1, 9, 1, 4
                       |7, 6, 9, 6, 7, 7, 4, 1, 8, 6, 9, 8, 7, 9, 9|];
Successor = [{5, 15},
             {4, 6, 7, 8, 9, 11, 13, 14},
             {10, 12, 15},
             {6, 7, 8, 9, 13, 14},
             {},
             {13, 14},
             {9},
             {14},
             {},
             {15},
             {},
             {},
             {14},
             {},
             {}];
InitialSolution = [2, 4, 3, 1, 6, 7, 8, 10, 13, 5, 9, 11, 12, 14, 15];