numResources = 4;
numTasks = 15;
Duration = [8, 4, 9, 9, 50, 125, 25, 50, 150, 225, 25, 10, 10, 5, 7];
ResourceCapability = [15, 15, 9, 11];
ResourceRequirement = [|0, 0, 0, 8, 0, 0, 0, 0, 0, 4, 0, 7, 0, 2, 0
                       |0, 1, 0, 0, 0, 0, 3, 0, 10, 0, 0, 0, 9, 0, 10
                       |0, 0, 0, 0, 0, 4, 0, 0, 0, 0, 9, 0, 0, 0, 0
                       |3, 0, 4, 0, 2, 0, 0, 5, 0, 0, 0, 0, 0, 0, 0|];
Successor = [{4, 5, 9, 10, 12, 15},
             {4, 5, 7, 8, 13, 14, 15},
             {6, 11, 13, 14, 15},
             {5, 15},
             {},
             {11, 13, 14, 15},
             {8, 13},
             {13},
             {12},
             {},
             {13, 15},
             {},
             {},
             {},
             {}];
InitialSolution = [2, 1, 3, 6, 4, 7, 11, 8, 9, 5, 10, 12, 13, 14, 15];