numResources = 4;
numTasks = 15;
Duration = [1, 6, 10, 10, 50, 225, 225, 175, 125, 125, 25, 9, 6, 7, 4];
ResourceCapability = [42, 39, 51, 44];
ResourceRequirement = [|1, 0, 1, 9, 0, 3, 5, 0, 0, 0, 0, 7, 8, 2, 0
                       |8, 0, 10, 5, 1, 2, 8, 6, 1, 3, 1, 0, 6, 6, 2
                       |7, 9, 0, 9, 1, 9, 10, 6, 10, 8, 0, 1, 2, 6, 0
                       |0, 9, 3, 8, 7, 7, 6, 9, 6, 8, 10, 0, 9, 0, 8|];
Successor = [{4, 5, 6, 7, 9, 10, 11, 12, 14, 15},
             {},
             {8, 13},
             {7},
             {6, 10, 14},
             {},
             {},
             {},
             {11, 12, 15},
             {},
             {},
             {},
             {},
             {},
             {}];
InitialSolution = [1, 5, 9, 3, 4, 2, 6, 7, 8, 10, 11, 12, 13, 14, 15];