numResources = 4;
numTasks = 15;
Duration = [3, 3, 9, 1, 175, 100, 100, 100, 75, 25, 150, 8, 5, 4, 9];
ResourceCapability = [13, 11, 11, 8];
ResourceRequirement = [|7, 0, 1, 0, 0, 0, 0, 8, 10, 5, 0, 0, 1, 6, 0
                       |0, 0, 0, 5, 6, 0, 0, 0, 0, 0, 9, 10, 0, 0, 0
                       |0, 0, 0, 0, 0, 0, 6, 0, 0, 0, 0, 0, 0, 0, 7
                       |0, 3, 0, 0, 0, 8, 0, 0, 0, 0, 0, 0, 0, 0, 0|];
Successor = [{6, 7, 8, 9, 10, 11, 12, 13, 14, 15},
             {4},
             {5, 9, 10, 11, 12, 13},
             {},
             {10, 13},
             {7, 8, 12, 13, 14, 15},
             {8, 12, 13, 14, 15},
             {12, 13},
             {11, 12, 13},
             {},
             {12, 13},
             {13},
             {},
             {15},
             {}];
InitialSolution = [1, 3, 6, 7, 9, 5, 8, 11, 2, 12, 14, 4, 10, 13, 15];