numResources = 4;
numTasks = 15;
Duration = [3, 10, 10, 7, 150, 225, 175, 225, 100, 100, 225, 7, 9, 5, 7];
ResourceCapability = [7, 11, 11, 15];
ResourceRequirement = [|7, 0, 0, 0, 0, 0, 0, 0, 0, 0, 0, 0, 0, 0, 0
                       |0, 8, 5, 0, 0, 0, 0, 0, 0, 0, 0, 9, 0, 5, 0
                       |0, 0, 0, 10, 0, 0, 4, 0, 0, 0, 3, 0, 0, 0, 0
                       |0, 0, 0, 0, 5, 4, 0, 10, 4, 9, 0, 0, 9, 0, 9|];
Successor = [{5, 6, 12, 13, 14, 15},
             {},
             {4, 7, 8, 9, 10, 11},
             {7, 8, 9, 10, 11},
             {6, 12, 14, 15},
             {12, 15},
             {8, 9, 10, 11},
             {},
             {10, 11},
             {},
             {},
             {15},
             {},
             {15},
             {}];
InitialSolution = [1, 3, 4, 5, 7, 6, 9, 12, 14, 2, 8, 10, 11, 13, 15];