numResources = 4;
numTasks = 15;
Duration = [9, 3, 2, 4, 250, 50, 175, 150, 225, 50, 125, 6, 5, 9, 9];
ResourceCapability = [13, 11, 11, 13];
ResourceRequirement = [|2, 0, 0, 10, 0, 0, 0, 0, 8, 8, 3, 0, 0, 0, 0
                       |0, 0, 0, 0, 0, 0, 9, 0, 0, 0, 0, 0, 0, 0, 0
                       |0, 2, 0, 0, 1, 4, 0, 4, 0, 0, 0, 5, 3, 6, 10
                       |0, 0, 4, 0, 0, 0, 0, 0, 0, 0, 0, 0, 0, 0, 0|];
Successor = [{5},
             {4, 5, 6, 7, 8, 9, 10, 11, 12, 13, 14, 15},
             {},
             {6, 7, 8, 9, 10, 11, 12, 13, 14, 15},
             {},
             {7, 9, 10, 11, 12, 15},
             {15},
             {10, 12, 15},
             {11},
             {12, 15},
             {},
             {15},
             {14, 15},
             {15},
             {}];
InitialSolution = [2, 4, 6, 8, 10, 13, 1, 7, 9, 12, 14, 3, 5, 11, 15];