numResources = 4;
numTasks = 15;
Duration = [8, 4, 2, 5, 225, 175, 175, 175, 150, 200, 250, 5, 3, 4, 10];
ResourceCapability = [13, 15, 15, 14];
ResourceRequirement = [|10, 7, 1, 5, 4, 4, 8, 0, 7, 1, 1, 7, 1, 0, 4
                       |3, 8, 8, 0, 8, 3, 10, 2, 0, 8, 7, 2, 7, 9, 2
                       |2, 0, 10, 3, 0, 0, 4, 0, 3, 0, 0, 0, 10, 3, 0
                       |10, 1, 0, 7, 2, 8, 8, 0, 0, 5, 8, 0, 3, 7, 3|];
Successor = [{4, 10, 12},
             {5, 6, 7, 8, 9, 10, 11, 12, 13, 14, 15},
             {4, 10, 14},
             {10},
             {9, 10, 14, 15},
             {9, 10, 11, 12, 15},
             {8, 13, 15},
             {13, 15},
             {10, 15},
             {},
             {12},
             {},
             {15},
             {},
             {}];
InitialSolution = [2, 6, 5, 1, 3, 7, 8, 9, 4, 11, 13, 10, 12, 14, 15];