numResources = 4;
numTasks = 15;
Duration = [4, 2, 8, 1, 200, 100, 250, 250, 200, 75, 250, 1, 3, 2, 5];
ResourceCapability = [15, 12, 12, 11];
ResourceRequirement = [|0, 5, 0, 3, 0, 0, 9, 8, 4, 0, 5, 8, 9, 2, 10
                       |5, 0, 0, 5, 0, 0, 0, 1, 0, 0, 8, 5, 0, 3, 0
                       |5, 2, 4, 10, 1, 0, 10, 0, 0, 0, 9, 0, 7, 2, 0
                       |4, 0, 0, 3, 2, 2, 5, 6, 0, 2, 0, 0, 5, 0, 0|];
Successor = [{5, 6, 7, 8, 9, 11, 12, 13, 14, 15},
             {10},
             {4, 8, 13, 15},
             {8, 13, 15},
             {6, 7, 8, 9, 11, 12, 13, 14, 15},
             {8, 9, 12, 13, 15},
             {14, 15},
             {13, 15},
             {},
             {},
             {},
             {13, 15},
             {15},
             {15},
             {}];
InitialSolution = [1, 5, 6, 3, 4, 7, 8, 12, 2, 13, 14, 9, 10, 11, 15];