numResources = 4;
numTasks = 15;
Duration = [2, 8, 7, 8, 75, 125, 225, 175, 200, 200, 100, 10, 5, 7, 10];
ResourceCapability = [18, 13, 16, 14];
ResourceRequirement = [|7, 0, 1, 8, 6, 3, 0, 7, 10, 6, 6, 8, 4, 4, 8
                       |3, 6, 4, 0, 2, 5, 0, 7, 10, 4, 6, 6, 0, 0, 8
                       |5, 0, 8, 10, 0, 0, 10, 10, 8, 0, 7, 6, 10, 2, 5
                       |0, 3, 5, 0, 7, 4, 3, 4, 0, 1, 4, 0, 7, 0, 2|];
Successor = [{5, 7, 8, 9, 10, 12, 14, 15},
             {4, 6, 11, 13},
             {10, 14, 15},
             {11},
             {},
             {},
             {8, 9, 12, 14, 15},
             {12},
             {14, 15},
             {14},
             {},
             {},
             {},
             {},
             {}];
InitialSolution = [1, 7, 2, 3, 9, 4, 8, 10, 5, 6, 11, 12, 13, 14, 15];