numResources = 4;
numTasks = 15;
Duration = [7, 5, 8, 1, 75, 75, 25, 150, 50, 200, 50, 5, 5, 7, 10];
ResourceCapability = [21, 33, 16, 29];
ResourceRequirement = [|0, 0, 10, 4, 0, 0, 2, 0, 0, 4, 0, 0, 5, 0, 10
                       |7, 0, 8, 0, 9, 10, 2, 8, 0, 0, 3, 8, 7, 0, 9
                       |0, 6, 5, 1, 0, 0, 9, 0, 10, 0, 2, 0, 0, 0, 4
                       |1, 6, 1, 0, 10, 4, 0, 6, 0, 3, 8, 0, 0, 1, 8|];
Successor = [{7, 15},
             {6, 8, 9, 10, 11, 12, 13, 14, 15},
             {4, 5, 9, 11},
             {11},
             {9},
             {9},
             {},
             {10, 11, 12, 13, 14, 15},
             {},
             {11, 12, 13},
             {},
             {13},
             {},
             {15},
             {}];
InitialSolution = [2, 8, 3, 10, 1, 4, 5, 6, 12, 14, 7, 9, 11, 13, 15];