numResources = 4;
numTasks = 15;
Duration = [7, 4, 4, 2, 75, 250, 75, 75, 75, 250, 75, 8, 5, 7, 5];
ResourceCapability = [15, 15, 18, 17];
ResourceRequirement = [|2, 5, 7, 4, 2, 8, 9, 3, 7, 3, 3, 7, 10, 5, 8
                       |1, 1, 6, 6, 3, 4, 9, 7, 2, 3, 4, 4, 6, 5, 2
                       |5, 4, 1, 5, 2, 2, 3, 5, 7, 10, 10, 3, 3, 4, 4
                       |5, 10, 4, 5, 5, 7, 1, 5, 2, 9, 5, 8, 8, 2, 7|];
Successor = [{5, 10, 11, 12},
             {4, 6, 12, 14},
             {7, 8, 9, 10, 11, 12, 13, 14, 15},
             {6, 12, 14},
             {11, 12},
             {14},
             {},
             {9, 10, 11, 12, 13, 14},
             {10, 11, 12, 13},
             {11, 12},
             {12},
             {},
             {},
             {},
             {}];
InitialSolution = [3, 8, 1, 2, 9, 4, 5, 10, 6, 11, 7, 12, 13, 14, 15];