numResources = 4;
numTasks = 15;
Duration = [9, 8, 10, 7, 100, 250, 100, 200, 225, 200, 75, 8, 4, 7, 1];
ResourceCapability = [27, 26, 25, 34];
ResourceRequirement = [|4, 0, 9, 0, 8, 0, 10, 5, 4, 2, 3, 3, 8, 2, 0
                       |8, 4, 2, 7, 9, 10, 10, 0, 0, 0, 7, 4, 0, 0, 8
                       |9, 1, 7, 3, 6, 0, 0, 7, 3, 7, 0, 4, 1, 2, 5
                       |0, 9, 0, 0, 6, 3, 9, 0, 0, 10, 10, 9, 2, 9, 2|];
Successor = [{4, 5, 6, 8, 9, 11, 12, 13, 15},
             {14},
             {7, 8, 9, 10, 13},
             {6, 11, 12},
             {15},
             {11, 12},
             {},
             {9, 13},
             {13},
             {},
             {12},
             {},
             {},
             {},
             {}];
InitialSolution = [1, 3, 4, 6, 8, 2, 5, 9, 11, 7, 10, 12, 13, 14, 15];