numResources = 4;
numTasks = 15;
Duration = [9, 3, 9, 3, 175, 250, 25, 125, 225, 75, 100, 8, 9, 9, 1];
ResourceCapability = [18, 14, 19, 14];
ResourceRequirement = [|9, 0, 8, 0, 0, 0, 0, 0, 0, 0, 5, 0, 1, 0, 0
                       |0, 0, 0, 0, 0, 8, 0, 0, 0, 6, 0, 0, 0, 0, 0
                       |0, 4, 0, 3, 5, 0, 5, 0, 2, 0, 0, 3, 0, 0, 0
                       |0, 0, 0, 0, 0, 0, 0, 10, 0, 0, 0, 0, 0, 4, 7|];
Successor = [{5, 9, 11},
             {4, 6, 7, 12, 13, 15},
             {8, 10, 13, 14, 15},
             {},
             {9},
             {7, 12, 13, 15},
             {15},
             {13, 14},
             {},
             {15},
             {},
             {},
             {},
             {},
             {}];
InitialSolution = [2, 3, 6, 1, 8, 5, 7, 10, 4, 9, 11, 12, 13, 14, 15];