numResources = 4;
numTasks = 15;
Duration = [7, 9, 7, 1, 25, 125, 250, 75, 250, 25, 100, 5, 7, 6, 6];
ResourceCapability = [22, 26, 23, 30];
ResourceRequirement = [|6, 2, 3, 3, 2, 7, 0, 10, 1, 10, 7, 0, 6, 2, 6
                       |3, 7, 0, 5, 1, 5, 5, 5, 5, 5, 1, 8, 5, 9, 9
                       |5, 7, 8, 6, 4, 0, 8, 7, 5, 0, 0, 5, 8, 2, 4
                       |0, 0, 6, 9, 6, 7, 0, 9, 4, 1, 0, 1, 10, 6, 0|];
Successor = [{14, 15},
             {4, 7, 11, 12, 13},
             {5, 6, 8, 9, 10, 12, 13, 14, 15},
             {7, 11, 13},
             {15},
             {8, 12, 13, 14},
             {11, 13},
             {12, 13},
             {10},
             {},
             {},
             {13},
             {},
             {},
             {}];
InitialSolution = [3, 2, 6, 4, 1, 7, 8, 5, 9, 12, 10, 11, 13, 14, 15];