numResources = 4;
numTasks = 15;
Duration = [6, 10, 10, 6, 150, 250, 175, 75, 225, 125, 25, 3, 4, 5, 4];
ResourceCapability = [15, 18, 15, 14];
ResourceRequirement = [|6, 0, 0, 1, 3, 0, 0, 7, 0, 5, 0, 6, 6, 0, 1
                       |7, 0, 0, 5, 0, 7, 0, 0, 9, 0, 9, 4, 0, 6, 8
                       |0, 6, 0, 8, 1, 0, 5, 8, 1, 6, 2, 2, 0, 0, 0
                       |0, 6, 3, 0, 0, 0, 0, 0, 0, 0, 10, 0, 0, 2, 2|];
Successor = [{8},
             {5, 6, 7, 8, 9, 10, 11, 14, 15},
             {4, 7, 8, 9, 11, 12, 13},
             {7, 8, 11, 12, 13},
             {6, 7, 8, 9, 10, 11, 14},
             {9, 10, 14},
             {8, 11},
             {},
             {},
             {},
             {},
             {},
             {},
             {},
             {}];
InitialSolution = [2, 3, 5, 4, 6, 7, 1, 8, 9, 10, 11, 12, 13, 14, 15];