numResources = 4;
numTasks = 15;
Duration = [1, 6, 8, 1, 75, 125, 150, 200, 175, 125, 150, 8, 5, 6, 5];
ResourceCapability = [14, 15, 9, 18];
ResourceRequirement = [|0, 0, 0, 0, 0, 0, 0, 0, 3, 8, 0, 0, 10, 0, 7
                       |0, 0, 0, 0, 0, 0, 0, 4, 0, 0, 0, 4, 0, 0, 0
                       |0, 0, 0, 0, 8, 0, 0, 0, 0, 0, 0, 0, 0, 8, 0
                       |10, 7, 4, 7, 0, 7, 5, 0, 0, 0, 10, 0, 0, 0, 0|];
Successor = [{6, 11, 14},
             {8},
             {4, 5, 7, 9, 10, 12, 13, 14, 15},
             {5, 7, 15},
             {},
             {11},
             {},
             {},
             {12, 13, 14, 15},
             {},
             {},
             {14},
             {15},
             {},
             {}];
InitialSolution = [3, 9, 1, 4, 2, 6, 12, 13, 5, 7, 8, 10, 11, 14, 15];