numResources = 4;
numTasks = 15;
Duration = [2, 4, 5, 6, 250, 225, 75, 25, 250, 100, 225, 8, 8, 8, 9];
ResourceCapability = [25, 19, 15, 23];
ResourceRequirement = [|0, 0, 4, 4, 0, 0, 1, 6, 0, 6, 10, 5, 10, 0, 10
                       |6, 2, 0, 0, 0, 7, 0, 9, 7, 9, 1, 0, 6, 7, 0
                       |8, 0, 0, 0, 0, 4, 9, 0, 7, 0, 0, 7, 0, 8, 5
                       |9, 0, 0, 0, 5, 0, 3, 5, 10, 0, 9, 0, 0, 10, 4|];
Successor = [{9, 10, 12, 14},
             {4, 8, 11},
             {5, 6, 7, 8, 13, 14, 15},
             {8, 11},
             {7, 8, 13, 14},
             {},
             {},
             {},
             {12, 14},
             {},
             {},
             {14},
             {14},
             {},
             {}];
InitialSolution = [3, 1, 5, 2, 4, 9, 12, 13, 6, 7, 8, 10, 11, 14, 15];