numResources = 4;
numTasks = 15;
Duration = [5, 8, 10, 10, 225, 175, 25, 125, 250, 250, 200, 4, 9, 8, 8];
ResourceCapability = [22, 25, 23, 23];
ResourceRequirement = [|0, 0, 5, 4, 2, 5, 5, 2, 9, 9, 3, 0, 9, 7, 2
                       |7, 7, 0, 7, 0, 8, 7, 6, 8, 0, 3, 0, 8, 5, 9
                       |1, 0, 0, 0, 0, 0, 10, 0, 0, 0, 4, 0, 3, 0, 0
                       |0, 5, 3, 0, 10, 0, 0, 0, 0, 8, 8, 8, 0, 0, 0|];
Successor = [{9, 11, 12, 13, 15},
             {7, 9, 15},
             {4, 5, 6, 8, 10, 14, 15},
             {5, 6, 8, 10, 14, 15},
             {6},
             {},
             {9, 15},
             {10},
             {15},
             {},
             {12, 13, 15},
             {15},
             {},
             {15},
             {}];
InitialSolution = [3, 4, 1, 2, 11, 7, 5, 8, 9, 12, 14, 6, 10, 13, 15];