numResources = 4;
numTasks = 15;
Duration = [9, 2, 2, 10, 250, 175, 150, 250, 150, 75, 250, 8, 3, 4, 7];
ResourceCapability = [16, 13, 17, 15];
ResourceRequirement = [|8, 3, 2, 4, 9, 9, 5, 7, 10, 7, 10, 1, 6, 9, 8
                       |3, 10, 8, 5, 4, 1, 3, 6, 9, 1, 10, 5, 2, 4, 6
                       |4, 7, 1, 9, 4, 5, 5, 9, 6, 9, 6, 6, 3, 6, 9
                       |7, 7, 8, 5, 7, 7, 1, 2, 5, 8, 8, 5, 1, 6, 5|];
Successor = [{},
             {5, 10, 12},
             {4, 6, 7, 8, 9, 11, 13, 14, 15},
             {7, 9, 14, 15},
             {10},
             {},
             {9},
             {11, 13, 15},
             {},
             {},
             {13, 15},
             {},
             {15},
             {15},
             {}];
InitialSolution = [3, 4, 2, 8, 11, 5, 7, 13, 14, 1, 6, 9, 10, 12, 15];