numResources = 4;
numTasks = 15;
Duration = [1, 9, 5, 2, 175, 225, 150, 175, 250, 150, 125, 10, 5, 6, 10];
ResourceCapability = [14, 17, 14, 16];
ResourceRequirement = [|0, 10, 5, 0, 4, 1, 4, 5, 10, 5, 0, 1, 6, 4, 9
                       |0, 0, 4, 0, 8, 9, 10, 6, 0, 8, 7, 0, 0, 3, 2
                       |0, 0, 7, 6, 0, 1, 2, 10, 9, 6, 10, 0, 2, 5, 8
                       |2, 3, 7, 2, 3, 10, 4, 7, 8, 9, 0, 3, 8, 0, 5|];
Successor = [{5, 6, 8, 11, 13, 14, 15},
             {9, 12, 13, 14},
             {4, 7, 10, 14, 15},
             {7, 15},
             {11, 13, 14, 15},
             {},
             {15},
             {},
             {},
             {},
             {14},
             {13, 14},
             {14},
             {},
             {}];
InitialSolution = [1, 3, 2, 5, 4, 12, 7, 11, 13, 6, 8, 9, 10, 14, 15];