numResources = 4;
numTasks = 15;
Duration = [7, 3, 3, 8, 75, 25, 225, 100, 75, 25, 200, 8, 10, 5, 6];
ResourceCapability = [14, 15, 11, 11];
ResourceRequirement = [|0, 0, 8, 8, 2, 0, 4, 8, 5, 7, 0, 0, 10, 0, 9
                       |4, 1, 1, 0, 0, 3, 7, 6, 0, 2, 0, 10, 3, 9, 0
                       |1, 0, 5, 0, 3, 8, 0, 0, 4, 7, 0, 0, 0, 4, 3
                       |6, 0, 0, 0, 0, 0, 0, 0, 5, 0, 8, 10, 0, 0, 2|];
Successor = [{6, 7, 8, 10, 11, 12, 14},
             {10, 14},
             {4, 5, 6, 7, 8, 9, 10, 11, 12, 13, 14, 15},
             {13},
             {6, 7, 8, 10, 11, 12, 13, 14, 15},
             {7, 8, 10, 11, 12, 14},
             {8, 11},
             {11},
             {},
             {14},
             {},
             {},
             {},
             {},
             {}];
InitialSolution = [3, 5, 1, 6, 2, 7, 4, 8, 10, 9, 11, 12, 13, 14, 15];