numResources = 4;
numTasks = 15;
Duration = [7, 2, 9, 1, 250, 175, 250, 150, 200, 150, 75, 4, 2, 10, 7];
ResourceCapability = [28, 30, 26, 22];
ResourceRequirement = [|5, 0, 6, 3, 6, 4, 4, 6, 0, 0, 7, 0, 3, 0, 5
                       |1, 5, 4, 0, 3, 9, 5, 0, 9, 3, 2, 1, 8, 10, 9
                       |0, 10, 5, 4, 2, 6, 8, 5, 2, 3, 0, 7, 0, 3, 4
                       |0, 10, 7, 2, 1, 0, 5, 0, 6, 2, 0, 9, 3, 0, 9|];
Successor = [{5, 15},
             {4, 7, 8, 9, 10, 11, 13, 14, 15},
             {5, 6, 8, 9, 12, 13, 14, 15},
             {7, 8, 9, 11, 13, 14, 15},
             {15},
             {8, 9, 12, 13, 14},
             {8, 9, 11, 13, 14, 15},
             {9, 13, 14},
             {13, 14},
             {},
             {},
             {},
             {14},
             {},
             {}];
InitialSolution = [2, 3, 4, 7, 6, 8, 1, 9, 5, 13, 10, 11, 12, 14, 15];