numResources = 4;
numTasks = 15;
Duration = [6, 6, 9, 7, 75, 50, 250, 100, 50, 200, 175, 8, 8, 1, 10];
ResourceCapability = [16, 10, 8, 18];
ResourceRequirement = [|0, 8, 8, 0, 9, 0, 0, 0, 8, 0, 0, 9, 0, 0, 0
                       |0, 0, 0, 0, 0, 0, 7, 0, 0, 0, 0, 0, 0, 0, 0
                       |8, 0, 0, 0, 0, 0, 0, 1, 0, 0, 0, 0, 1, 0, 0
                       |0, 0, 0, 5, 0, 2, 0, 0, 0, 6, 10, 0, 0, 9, 5|];
Successor = [{6},
             {4, 5},
             {7, 8, 9, 10, 11, 12, 13, 14, 15},
             {5},
             {},
             {},
             {10, 12, 13, 14, 15},
             {11},
             {},
             {12, 13, 14, 15},
             {},
             {13},
             {},
             {},
             {}];
InitialSolution = [3, 7, 10, 2, 1, 4, 8, 12, 5, 6, 9, 11, 13, 14, 15];