numResources = 4;
numTasks = 15;
Duration = [6, 4, 9, 5, 250, 250, 25, 25, 175, 50, 175, 6, 1, 10, 9];
ResourceCapability = [14, 13, 13, 12];
ResourceRequirement = [|0, 0, 0, 1, 0, 0, 6, 10, 9, 0, 0, 3, 8, 0, 0
                       |3, 3, 0, 0, 4, 3, 0, 0, 0, 0, 7, 0, 0, 0, 0
                       |0, 0, 7, 0, 0, 0, 0, 0, 0, 0, 0, 0, 0, 0, 0
                       |0, 0, 0, 0, 0, 0, 0, 0, 0, 2, 0, 0, 0, 3, 7|];
Successor = [{11},
             {5, 7, 9, 14},
             {4, 6, 8, 10, 12, 13, 15},
             {13, 15},
             {7},
             {8, 10, 12},
             {},
             {12},
             {14},
             {},
             {},
             {},
             {15},
             {},
             {}];
InitialSolution = [3, 2, 6, 4, 1, 5, 8, 9, 13, 7, 10, 11, 12, 14, 15];