numResources = 4;
numTasks = 15;
Duration = [9, 3, 3, 6, 150, 225, 175, 250, 25, 200, 175, 5, 4, 7, 9];
ResourceCapability = [12, 8, 13, 10];
ResourceRequirement = [|0, 1, 0, 0, 0, 0, 0, 0, 1, 0, 0, 9, 0, 0, 0
                       |0, 0, 0, 0, 0, 0, 0, 0, 0, 0, 0, 0, 0, 1, 4
                       |8, 0, 8, 0, 0, 0, 0, 0, 0, 0, 0, 0, 0, 0, 0
                       |0, 0, 0, 8, 2, 3, 8, 2, 0, 2, 8, 0, 1, 0, 0|];
Successor = [{12},
             {4, 5, 6, 7, 8, 9, 10, 11, 13, 15},
             {14},
             {},
             {6, 7, 8, 9, 11, 13, 15},
             {7, 8, 11, 15},
             {15},
             {11, 15},
             {13},
             {},
             {},
             {},
             {},
             {},
             {}];
InitialSolution = [2, 5, 6, 8, 1, 3, 7, 9, 4, 10, 11, 12, 13, 14, 15];