numResources = 4;
numTasks = 15;
Duration = [5, 6, 2, 8, 50, 100, 225, 25, 25, 150, 175, 3, 8, 7, 5];
ResourceCapability = [9, 11, 11, 16];
ResourceRequirement = [|0, 0, 0, 0, 8, 0, 1, 0, 0, 0, 0, 0, 0, 7, 0
                       |0, 10, 0, 0, 0, 0, 0, 0, 6, 0, 0, 0, 0, 0, 5
                       |5, 0, 0, 0, 0, 4, 0, 0, 0, 4, 0, 0, 9, 0, 0
                       |0, 0, 2, 5, 0, 0, 0, 10, 0, 0, 9, 9, 0, 0, 0|];
Successor = [{6, 14, 15},
             {4, 9, 11, 12, 13, 15},
             {5, 7, 8, 10},
             {11, 15},
             {},
             {14, 15},
             {10},
             {},
             {12, 13},
             {},
             {15},
             {},
             {},
             {},
             {}];
InitialSolution = [2, 3, 1, 4, 6, 9, 7, 11, 5, 8, 10, 12, 13, 14, 15];