numResources = 4;
numTasks = 15;
Duration = [10, 8, 5, 10, 100, 50, 75, 150, 50, 150, 175, 3, 6, 9, 4];
ResourceCapability = [20, 15, 18, 13];
ResourceRequirement = [|6, 10, 6, 0, 0, 5, 0, 0, 8, 0, 6, 6, 0, 0, 0
                       |0, 0, 0, 0, 4, 0, 0, 0, 0, 6, 0, 6, 6, 7, 0
                       |10, 0, 0, 6, 7, 8, 2, 0, 0, 2, 10, 9, 0, 0, 10
                       |0, 1, 2, 4, 7, 0, 0, 3, 6, 0, 0, 0, 0, 4, 1|];
Successor = [{4, 8, 9, 10, 11, 12, 13, 14, 15},
             {7, 12},
             {5, 6, 9, 10, 12, 14},
             {8, 10, 11, 13, 15},
             {},
             {10},
             {12},
             {10, 13},
             {12, 14},
             {},
             {15},
             {},
             {},
             {},
             {}];
InitialSolution = [1, 3, 4, 2, 8, 9, 6, 7, 11, 5, 10, 12, 13, 14, 15];