numResources = 4;
numTasks = 15;
Duration = [3, 8, 6, 5, 100, 25, 150, 250, 50, 125, 75, 8, 7, 1, 3];
ResourceCapability = [12, 22, 11, 16];
ResourceRequirement = [|0, 8, 0, 0, 0, 3, 0, 0, 0, 0, 6, 4, 0, 5, 0
                       |0, 0, 0, 6, 0, 0, 0, 5, 0, 0, 0, 0, 4, 0, 0
                       |1, 0, 0, 0, 0, 0, 0, 0, 0, 5, 0, 0, 0, 0, 0
                       |0, 0, 9, 0, 9, 0, 7, 0, 1, 0, 0, 0, 0, 0, 3|];
Successor = [{5, 7, 8, 9, 14, 15},
             {},
             {4, 5, 6, 8, 9, 10, 11, 12, 13, 15},
             {5, 6, 10, 11, 15},
             {15},
             {10, 11, 15},
             {8, 9, 14},
             {9},
             {},
             {11},
             {},
             {13},
             {},
             {},
             {}];
InitialSolution = [3, 1, 4, 6, 7, 5, 8, 10, 12, 2, 9, 11, 13, 14, 15];