numResources = 4;
numTasks = 15;
Duration = [4, 3, 7, 3, 225, 175, 175, 200, 225, 175, 75, 6, 2, 6, 4];
ResourceCapability = [24, 20, 24, 22];
ResourceRequirement = [|6, 5, 0, 0, 9, 7, 0, 8, 8, 6, 0, 7, 4, 9, 3
                       |0, 8, 10, 9, 3, 0, 2, 0, 1, 2, 3, 1, 0, 6, 0
                       |3, 5, 9, 0, 9, 9, 4, 1, 5, 10, 6, 0, 4, 6, 2
                       |0, 9, 1, 0, 7, 8, 7, 8, 7, 1, 0, 3, 0, 6, 0|];
Successor = [{4, 5, 7, 8, 12, 13, 14, 15},
             {6, 15},
             {6, 9, 10, 11},
             {5, 7, 8, 12, 13, 14, 15},
             {8, 13, 15},
             {},
             {14},
             {15},
             {},
             {11},
             {},
             {14},
             {},
             {},
             {}];
InitialSolution = [1, 4, 3, 5, 2, 7, 8, 10, 12, 6, 9, 11, 13, 14, 15];