numResources = 4;
numTasks = 15;
Duration = [7, 4, 4, 9, 175, 150, 25, 200, 75, 200, 25, 10, 6, 4, 9];
ResourceCapability = [15, 20, 16, 30];
ResourceRequirement = [|0, 5, 4, 8, 2, 3, 2, 0, 0, 0, 7, 0, 0, 0, 5
                       |0, 2, 3, 0, 10, 0, 0, 0, 8, 0, 6, 0, 0, 2, 0
                       |4, 0, 0, 0, 0, 2, 0, 2, 0, 8, 0, 1, 0, 9, 8
                       |4, 0, 0, 2, 9, 7, 4, 0, 2, 5, 9, 7, 5, 0, 8|];
Successor = [{5, 9, 11, 14},
             {7, 9, 13},
             {4, 6, 8, 10, 12, 15},
             {6, 8, 15},
             {14},
             {8},
             {9, 13},
             {},
             {},
             {},
             {14},
             {},
             {},
             {},
             {}];
InitialSolution = [3, 1, 2, 4, 7, 5, 6, 11, 8, 9, 10, 12, 13, 14, 15];