numResources = 4;
numTasks = 15;
Duration = [5, 1, 8, 4, 100, 25, 175, 250, 125, 150, 225, 7, 4, 6, 6];
ResourceCapability = [30, 20, 24, 34];
ResourceRequirement = [|0, 4, 2, 10, 0, 9, 0, 0, 0, 2, 9, 4, 7, 0, 0
                       |3, 0, 0, 0, 8, 2, 1, 5, 1, 0, 0, 1, 4, 0, 0
                       |0, 0, 8, 0, 7, 0, 5, 3, 2, 5, 0, 0, 4, 6, 0
                       |0, 0, 0, 10, 0, 2, 0, 0, 0, 0, 0, 5, 0, 4, 8|];
Successor = [{4, 8, 9, 10, 12, 14, 15},
             {5, 6, 7, 11, 13, 14},
             {9, 14},
             {9, 12, 15},
             {11, 14},
             {13},
             {},
             {9, 10, 12, 14, 15},
             {},
             {14},
             {14},
             {15},
             {},
             {},
             {}];
InitialSolution = [1, 2, 8, 4, 3, 5, 6, 10, 11, 12, 7, 9, 13, 14, 15];