numResources = 4;
numTasks = 15;
Duration = [7, 2, 4, 7, 225, 150, 75, 125, 225, 225, 150, 1, 1, 4, 3];
ResourceCapability = [21, 28, 17, 12];
ResourceRequirement = [|3, 4, 0, 4, 0, 2, 0, 4, 0, 8, 0, 0, 0, 0, 4
                       |10, 0, 0, 8, 8, 0, 9, 9, 0, 7, 9, 0, 0, 2, 0
                       |7, 0, 0, 0, 1, 7, 2, 0, 10, 0, 7, 1, 0, 3, 0
                       |0, 0, 4, 0, 3, 7, 2, 0, 1, 0, 0, 0, 1, 4, 0|];
Successor = [{10, 11, 12, 13, 14, 15},
             {7, 9, 11, 13, 15},
             {4, 5, 6, 8, 9, 12},
             {9},
             {},
             {8, 12},
             {},
             {12},
             {},
             {11, 12, 13, 15},
             {13, 15},
             {},
             {},
             {},
             {}];
InitialSolution = [1, 3, 2, 10, 6, 11, 4, 8, 5, 7, 9, 12, 13, 14, 15];