numResources = 4;
numTasks = 15;
Duration = [10, 6, 2, 9, 175, 175, 225, 100, 50, 75, 250, 7, 4, 6, 6];
ResourceCapability = [18, 25, 18, 12];
ResourceRequirement = [|0, 0, 6, 0, 0, 0, 0, 0, 0, 0, 0, 0, 0, 0, 9
                       |0, 4, 0, 0, 10, 9, 0, 0, 0, 0, 9, 0, 0, 4, 0
                       |0, 0, 0, 10, 0, 0, 3, 0, 5, 5, 0, 0, 3, 0, 0
                       |7, 0, 0, 0, 0, 0, 0, 3, 0, 0, 0, 2, 0, 0, 0|];
Successor = [{},
             {4, 9, 12},
             {5, 6, 7, 8, 9, 10, 11, 12, 13, 14, 15},
             {9, 12},
             {6, 8, 9, 12, 13, 14},
             {9, 12},
             {10, 11, 12, 15},
             {12, 13, 14},
             {12},
             {11, 12, 15},
             {12, 15},
             {},
             {14},
             {},
             {}];
InitialSolution = [3, 5, 7, 2, 8, 10, 4, 6, 11, 9, 13, 1, 12, 14, 15];