numResources = 4;
numTasks = 15;
Duration = [8, 6, 4, 4, 200, 75, 125, 75, 100, 25, 250, 2, 7, 5, 2];
ResourceCapability = [24, 23, 27, 21];
ResourceRequirement = [|5, 0, 7, 0, 0, 3, 10, 5, 4, 3, 0, 0, 1, 6, 0
                       |4, 5, 7, 3, 5, 4, 7, 0, 5, 7, 3, 5, 6, 3, 1
                       |10, 6, 8, 7, 5, 5, 7, 1, 0, 0, 8, 7, 8, 0, 4
                       |10, 0, 0, 5, 0, 10, 2, 0, 10, 10, 0, 0, 5, 9, 8|];
Successor = [{9},
             {4, 5, 6, 8, 11, 12, 13, 14, 15},
             {5, 7, 10},
             {5, 6, 8, 11, 12, 13, 14, 15},
             {},
             {8, 11, 12, 13, 14, 15},
             {10},
             {11, 12, 14},
             {},
             {},
             {12, 14},
             {14},
             {14, 15},
             {},
             {}];
InitialSolution = [2, 4, 6, 3, 8, 11, 13, 1, 7, 12, 5, 9, 10, 14, 15];