numResources = 4;
numTasks = 15;
Duration = [9, 4, 1, 8, 100, 100, 75, 225, 50, 100, 175, 2, 5, 8, 4];
ResourceCapability = [21, 24, 34, 27];
ResourceRequirement = [|1, 3, 6, 7, 8, 6, 4, 4, 1, 0, 10, 2, 3, 0, 4
                       |9, 7, 8, 5, 4, 0, 0, 4, 1, 2, 0, 2, 0, 6, 0
                       |6, 0, 2, 8, 0, 8, 7, 0, 3, 0, 9, 3, 6, 7, 8
                       |10, 7, 1, 2, 2, 9, 2, 4, 2, 10, 0, 0, 0, 1, 9|];
Successor = [{4, 5, 6, 7, 8, 10, 11, 12, 13, 14},
             {11, 15},
             {9},
             {6, 7, 8, 10, 12, 13, 14},
             {11},
             {8, 12, 13, 14},
             {10, 14},
             {13},
             {},
             {14},
             {},
             {14},
             {},
             {},
             {}];
InitialSolution = [1, 4, 6, 2, 7, 3, 5, 8, 10, 12, 9, 11, 13, 14, 15];