numResources = 4;
numTasks = 15;
Duration = [9, 7, 9, 3, 100, 225, 250, 75, 100, 175, 200, 6, 6, 10, 9];
ResourceCapability = [13, 13, 12, 14];
ResourceRequirement = [|6, 5, 9, 0, 6, 4, 7, 6, 6, 0, 3, 4, 1, 4, 2
                       |2, 0, 0, 2, 5, 0, 0, 9, 3, 3, 1, 0, 4, 5, 2
                       |1, 1, 0, 10, 0, 0, 0, 7, 0, 8, 2, 3, 4, 0, 7
                       |10, 7, 0, 3, 0, 7, 3, 0, 0, 0, 1, 8, 5, 3, 0|];
Successor = [{7, 8, 9, 12, 13, 14, 15},
             {4, 5, 10, 13, 15},
             {6, 11, 14},
             {10},
             {13},
             {},
             {8, 9, 12, 14, 15},
             {14},
             {15},
             {},
             {14},
             {14},
             {},
             {},
             {}];
InitialSolution = [1, 2, 7, 3, 4, 5, 8, 9, 11, 12, 6, 10, 13, 14, 15];