numResources = 4;
numTasks = 15;
Duration = [6, 10, 8, 3, 25, 200, 250, 25, 225, 100, 250, 4, 9, 5, 3];
ResourceCapability = [24, 10, 22, 15];
ResourceRequirement = [|0, 2, 0, 0, 10, 5, 2, 0, 4, 0, 0, 9, 3, 1, 9
                       |1, 0, 0, 3, 0, 0, 0, 2, 0, 1, 1, 0, 0, 0, 0
                       |9, 0, 5, 6, 0, 10, 3, 5, 0, 5, 10, 6, 0, 2, 2
                       |2, 0, 8, 8, 0, 1, 0, 8, 0, 0, 9, 0, 1, 7, 0|];
Successor = [{6, 8, 10},
             {4, 5, 7, 10, 11, 12, 13, 14, 15},
             {9, 11, 12, 14},
             {5, 7, 11, 12, 13, 14, 15},
             {15},
             {},
             {11, 12, 13, 14, 15},
             {10},
             {11, 12, 14},
             {},
             {12, 14},
             {},
             {},
             {},
             {}];
InitialSolution = [2, 4, 7, 3, 1, 9, 11, 5, 8, 6, 10, 12, 13, 14, 15];