numResources = 4;
numTasks = 15;
Duration = [5, 9, 2, 10, 250, 25, 225, 200, 175, 125, 50, 4, 4, 1, 7];
ResourceCapability = [11, 12, 12, 8];
ResourceRequirement = [|3, 0, 0, 2, 4, 0, 6, 2, 0, 9, 5, 1, 0, 9, 0
                       |0, 5, 0, 0, 6, 0, 0, 8, 0, 0, 8, 0, 4, 5, 9
                       |0, 3, 4, 1, 4, 0, 4, 5, 9, 3, 0, 5, 0, 0, 4
                       |0, 6, 0, 0, 0, 6, 0, 0, 7, 0, 3, 1, 0, 0, 1|];
Successor = [{4, 5, 6, 7, 8, 9, 10, 11, 12, 15},
             {14, 15},
             {9, 13, 14, 15},
             {5, 6, 8, 10, 11, 12, 15},
             {6, 8, 10, 11, 12},
             {8, 10, 11, 12},
             {},
             {},
             {},
             {12},
             {},
             {},
             {14, 15},
             {15},
             {}];
InitialSolution = [1, 4, 5, 3, 6, 2, 13, 10, 14, 7, 8, 9, 11, 12, 15];