numResources = 4;
numTasks = 15;
Duration = [8, 5, 9, 8, 50, 100, 25, 100, 150, 200, 25, 8, 1, 10, 4];
ResourceCapability = [23, 21, 18, 17];
ResourceRequirement = [|0, 6, 7, 10, 10, 3, 4, 1, 10, 10, 8, 2, 1, 7, 0
                       |7, 9, 10, 0, 4, 3, 5, 0, 8, 3, 0, 10, 5, 1, 9
                       |3, 7, 2, 0, 6, 3, 4, 8, 0, 7, 1, 7, 1, 6, 1
                       |0, 0, 0, 7, 6, 3, 8, 0, 4, 0, 4, 1, 0, 8, 4|];
Successor = [{},
             {4, 5, 6, 7, 8, 9, 10, 11, 12, 13, 14, 15},
             {6, 12},
             {5, 7, 8, 9, 10, 11, 12, 13, 14, 15},
             {7, 9, 10, 11, 12, 13, 14, 15},
             {},
             {9, 12, 13, 15},
             {},
             {12, 13, 15},
             {15},
             {14, 15},
             {},
             {},
             {15},
             {}];
InitialSolution = [2, 4, 5, 7, 9, 3, 11, 10, 14, 1, 6, 8, 12, 13, 15];