numResources = 4;
numTasks = 15;
Duration = [8, 9, 2, 5, 200, 50, 150, 25, 75, 150, 175, 8, 8, 7, 5];
ResourceCapability = [9, 16, 12, 12];
ResourceRequirement = [|0, 2, 0, 7, 4, 0, 0, 4, 0, 2, 0, 4, 0, 6, 0
                       |6, 4, 5, 0, 9, 6, 3, 0, 10, 0, 0, 8, 5, 8, 1
                       |0, 8, 0, 0, 0, 0, 5, 0, 0, 9, 6, 9, 2, 5, 5
                       |0, 0, 0, 0, 0, 1, 2, 9, 0, 10, 1, 6, 0, 0, 2|];
Successor = [{6, 13, 15},
             {4, 8, 9, 12, 13, 14, 15},
             {5, 7, 10, 11},
             {9, 14, 15},
             {11},
             {13, 15},
             {},
             {12},
             {},
             {},
             {},
             {},
             {15},
             {15},
             {}];
InitialSolution = [2, 3, 1, 4, 6, 5, 8, 13, 14, 7, 9, 10, 11, 12, 15];