numResources = 4;
numTasks = 15;
Duration = [5, 3, 6, 2, 50, 225, 200, 200, 250, 175, 100, 1, 5, 8, 5];
ResourceCapability = [36, 26, 28, 36];
ResourceRequirement = [|5, 7, 5, 3, 0, 4, 3, 8, 0, 4, 8, 10, 0, 7, 2
                       |0, 8, 3, 3, 4, 8, 0, 1, 6, 0, 0, 0, 10, 0, 0
                       |8, 0, 2, 0, 0, 8, 0, 3, 10, 6, 9, 7, 0, 8, 0
                       |6, 9, 1, 8, 3, 8, 8, 0, 3, 4, 10, 2, 6, 2, 0|];
Successor = [{4, 11},
             {5, 6, 7, 8, 9, 10, 13, 14, 15},
             {12, 14, 15},
             {},
             {6, 8, 9, 10, 13, 15},
             {9, 13, 15},
             {},
             {10},
             {13},
             {},
             {},
             {14, 15},
             {},
             {15},
             {}];
InitialSolution = [2, 5, 3, 6, 1, 12, 8, 9, 14, 4, 7, 10, 11, 13, 15];