numResources = 4;
numTasks = 15;
Duration = [6, 2, 6, 2, 25, 25, 100, 50, 250, 100, 250, 4, 8, 9, 1];
ResourceCapability = [13, 16, 11, 14];
ResourceRequirement = [|0, 8, 9, 8, 0, 3, 0, 4, 0, 0, 0, 0, 0, 0, 0
                       |0, 0, 0, 0, 0, 0, 7, 0, 0, 0, 0, 7, 0, 8, 0
                       |9, 0, 0, 0, 0, 0, 0, 0, 0, 1, 5, 0, 0, 0, 3
                       |0, 0, 0, 0, 2, 0, 0, 0, 4, 0, 0, 0, 8, 0, 0|];
Successor = [{},
             {4, 5, 7, 8, 10, 11, 13, 14, 15},
             {6, 9, 12, 14},
             {5, 7, 8, 11, 13},
             {7, 11, 13},
             {9, 12, 14},
             {11},
             {13},
             {},
             {14},
             {},
             {14},
             {},
             {},
             {}];
InitialSolution = [2, 4, 3, 5, 6, 7, 8, 10, 12, 1, 9, 11, 13, 14, 15];