numResources = 4;
numTasks = 15;
Duration = [2, 10, 4, 2, 25, 100, 25, 250, 250, 150, 150, 1, 3, 3, 7];
ResourceCapability = [16, 10, 16, 21];
ResourceRequirement = [|9, 10, 0, 3, 8, 0, 0, 0, 0, 0, 0, 0, 4, 6, 0
                       |4, 0, 0, 0, 0, 4, 4, 0, 0, 4, 0, 0, 7, 0, 0
                       |0, 0, 0, 9, 8, 7, 9, 8, 3, 0, 4, 3, 0, 9, 9
                       |0, 4, 7, 0, 1, 5, 0, 9, 0, 0, 1, 7, 8, 4, 0|];
Successor = [{4, 7, 11, 14, 15},
             {5, 6, 8, 9, 10, 11, 12, 13, 15},
             {},
             {7, 11, 14, 15},
             {6, 8, 9, 10, 11, 12, 13, 15},
             {9, 10, 11, 12, 13, 15},
             {14, 15},
             {10, 13, 15},
             {11},
             {13, 15},
             {},
             {},
             {},
             {15},
             {}];
InitialSolution = [2, 5, 6, 1, 4, 8, 7, 10, 9, 14, 3, 11, 12, 13, 15];