numResources = 4;
numTasks = 15;
Duration = [4, 9, 5, 9, 175, 200, 250, 200, 225, 50, 200, 6, 6, 1, 1];
ResourceCapability = [45, 32, 46, 34];
ResourceRequirement = [|4, 8, 2, 3, 8, 4, 4, 5, 8, 7, 6, 3, 10, 8, 9
                       |8, 3, 9, 3, 8, 8, 1, 7, 4, 3, 4, 6, 9, 9, 3
                       |7, 8, 1, 9, 5, 9, 10, 4, 8, 4, 8, 2, 8, 5, 5
                       |10, 10, 8, 3, 7, 1, 10, 10, 6, 5, 2, 6, 2, 10, 2|];
Successor = [{5, 6, 8, 10, 11, 13, 14, 15},
             {7, 9, 10, 11, 12, 15},
             {4, 5, 6, 8, 10, 11, 13, 14, 15},
             {6, 8, 10, 11, 13, 14, 15},
             {},
             {13, 14, 15},
             {},
             {10, 11, 15},
             {10, 11, 15},
             {15},
             {},
             {},
             {14, 15},
             {},
             {}];
InitialSolution = [3, 1, 4, 2, 6, 8, 9, 13, 10, 5, 7, 11, 12, 14, 15];