numResources = 4;
numTasks = 15;
Duration = [3, 4, 4, 9, 250, 250, 75, 125, 150, 125, 50, 3, 3, 1, 7];
ResourceCapability = [12, 11, 14, 10];
ResourceRequirement = [|0, 9, 0, 0, 0, 0, 0, 0, 0, 0, 0, 10, 0, 0, 0
                       |7, 0, 10, 0, 0, 0, 0, 0, 0, 0, 0, 0, 0, 0, 8
                       |0, 0, 0, 1, 10, 10, 0, 0, 8, 0, 0, 0, 0, 0, 0
                       |0, 0, 0, 0, 0, 0, 1, 6, 0, 1, 3, 0, 3, 7, 0|];
Successor = [{4, 5, 6, 7, 8, 9, 10, 11, 12, 13, 14, 15},
             {10, 13, 14, 15},
             {8, 13, 14},
             {6, 8, 9, 10, 11, 12, 13, 14, 15},
             {11, 12, 13, 14},
             {8, 11, 12, 13, 14, 15},
             {14},
             {14},
             {15},
             {13, 14},
             {12, 13, 14},
             {13, 14},
             {14},
             {},
             {}];
InitialSolution = [1, 4, 6, 2, 5, 3, 11, 10, 12, 7, 8, 9, 13, 14, 15];