numResources = 4;
numTasks = 15;
Duration = [6, 3, 5, 6, 250, 125, 50, 250, 250, 175, 250, 3, 6, 8, 10];
ResourceCapability = [21, 8, 10, 27];
ResourceRequirement = [|8, 0, 0, 7, 6, 6, 0, 0, 0, 0, 0, 4, 0, 5, 0
                       |0, 0, 0, 0, 0, 0, 0, 0, 0, 0, 0, 0, 0, 0, 0
                       |0, 0, 0, 0, 0, 0, 7, 0, 0, 10, 0, 0, 0, 0, 2
                       |0, 2, 1, 0, 0, 0, 0, 4, 10, 0, 8, 0, 9, 0, 0|];
Successor = [{8},
             {4, 5, 6, 7, 8, 9, 10, 11, 12, 13, 14, 15},
             {6, 9, 11, 13, 15},
             {10, 12, 13, 15},
             {6, 9, 13, 14, 15},
             {},
             {8, 11, 15},
             {},
             {13},
             {12, 13, 15},
             {15},
             {15},
             {},
             {15},
             {}];
InitialSolution = [2, 3, 5, 4, 7, 10, 1, 9, 11, 12, 14, 6, 8, 13, 15];