numResources = 4;
numTasks = 15;
Duration = [7, 4, 7, 3, 100, 75, 225, 50, 200, 250, 50, 9, 6, 1, 6];
ResourceCapability = [18, 7, 12, 16];
ResourceRequirement = [|1, 7, 10, 0, 0, 0, 0, 0, 3, 0, 0, 0, 0, 0, 0
                       |0, 0, 0, 0, 0, 0, 0, 0, 0, 0, 0, 0, 0, 0, 0
                       |0, 0, 0, 3, 7, 8, 0, 0, 0, 4, 10, 0, 0, 0, 6
                       |0, 0, 0, 0, 0, 0, 8, 7, 0, 0, 0, 1, 1, 2, 0|];
Successor = [{9, 11, 12, 13, 14, 15},
             {6, 7, 9, 11, 13, 14, 15},
             {4, 5, 6, 7, 8, 9, 10, 11, 12, 13, 14, 15},
             {5, 6, 8, 9, 10, 11, 12, 13, 14, 15},
             {6, 8, 9, 11, 13, 14, 15},
             {9, 11, 13, 15},
             {},
             {15},
             {11, 13},
             {},
             {},
             {13, 14, 15},
             {},
             {},
             {}];
InitialSolution = [3, 4, 2, 5, 1, 6, 12, 9, 8, 7, 10, 11, 13, 14, 15];