numResources = 4;
numTasks = 15;
Duration = [6, 6, 7, 6, 250, 175, 250, 100, 150, 200, 200, 8, 4, 2, 5];
ResourceCapability = [11, 10, 8, 10];
ResourceRequirement = [|0, 0, 0, 4, 0, 0, 0, 0, 2, 1, 0, 1, 0, 10, 2
                       |0, 0, 0, 0, 0, 6, 0, 7, 0, 0, 4, 0, 0, 0, 0
                       |0, 0, 0, 0, 8, 0, 0, 0, 0, 0, 0, 0, 0, 0, 0
                       |2, 8, 2, 0, 0, 0, 9, 0, 0, 0, 0, 0, 7, 0, 0|];
Successor = [{10},
             {5, 9, 10, 13, 14, 15},
             {4, 6, 7, 8, 9, 10, 11, 12, 13, 14, 15},
             {7, 8, 10, 12, 14, 15},
             {10},
             {11, 12, 13, 14, 15},
             {14, 15},
             {10, 12},
             {13, 14, 15},
             {},
             {13, 14, 15},
             {},
             {14, 15},
             {},
             {}];
InitialSolution = [3, 2, 4, 6, 9, 11, 7, 8, 13, 1, 5, 10, 12, 14, 15];