numResources = 4;
numTasks = 15;
Duration = [1, 6, 4, 8, 100, 25, 100, 75, 250, 75, 75, 1, 7, 4, 10];
ResourceCapability = [10, 13, 14, 21];
ResourceRequirement = [|0, 3, 6, 8, 0, 0, 0, 0, 0, 0, 9, 0, 0, 0, 0
                       |0, 0, 0, 0, 0, 0, 0, 9, 0, 0, 0, 8, 0, 0, 0
                       |0, 0, 0, 0, 0, 6, 0, 0, 7, 0, 0, 0, 0, 0, 0
                       |7, 0, 0, 0, 7, 0, 3, 0, 0, 8, 0, 0, 10, 1, 10|];
Successor = [{7, 8, 9, 11, 13, 14, 15},
             {10, 15},
             {4, 5, 6, 7, 8, 10, 11, 12, 13, 14, 15},
             {5, 6, 10, 11, 12, 13, 14, 15},
             {11, 14},
             {10, 12, 13, 15},
             {8, 11, 13},
             {13},
             {14},
             {15},
             {},
             {15},
             {},
             {},
             {}];
InitialSolution = [3, 4, 1, 6, 7, 2, 5, 8, 9, 10, 12, 11, 13, 14, 15];