numResources = 4;
numTasks = 15;
Duration = [2, 10, 5, 4, 75, 175, 25, 50, 150, 25, 250, 6, 4, 8, 8];
ResourceCapability = [25, 22, 23, 21];
ResourceRequirement = [|3, 8, 8, 4, 7, 4, 9, 7, 1, 1, 5, 5, 10, 9, 5
                       |9, 2, 6, 8, 2, 7, 3, 1, 5, 8, 3, 4, 5, 10, 10
                       |6, 8, 4, 1, 8, 4, 3, 8, 5, 3, 7, 10, 8, 3, 3
                       |8, 2, 3, 9, 2, 4, 3, 1, 10, 6, 5, 5, 2, 10, 7|];
Successor = [{6, 8, 10, 12, 15},
             {4, 5, 9, 11, 14},
             {7, 13},
             {5, 14},
             {},
             {8, 12},
             {13},
             {12},
             {},
             {},
             {},
             {},
             {},
             {},
             {}];
InitialSolution = [1, 2, 3, 4, 6, 7, 8, 5, 9, 10, 11, 12, 13, 14, 15];