numResources = 4;
numTasks = 15;
Duration = [7, 1, 7, 2, 200, 200, 100, 125, 75, 100, 25, 9, 9, 3, 4];
ResourceCapability = [16, 16, 16, 18];
ResourceRequirement = [|2, 10, 0, 0, 5, 0, 0, 0, 0, 0, 0, 0, 8, 3, 0
                       |0, 0, 8, 3, 0, 0, 0, 0, 9, 8, 0, 6, 0, 0, 3
                       |9, 6, 0, 0, 0, 6, 0, 0, 1, 0, 3, 5, 6, 0, 7
                       |0, 0, 9, 0, 7, 10, 7, 2, 4, 0, 0, 5, 0, 0, 0|];
Successor = [{4, 5, 6, 7, 8, 9, 10, 11, 12, 13, 14, 15},
             {13, 14},
             {4, 6, 7, 8, 9, 11, 12, 13, 14, 15},
             {6, 7, 8, 9, 11, 12, 13, 14},
             {6, 9, 11, 12, 14},
             {11, 14},
             {9, 12, 13, 14},
             {14},
             {},
             {15},
             {},
             {},
             {14},
             {},
             {}];
InitialSolution = [1, 3, 4, 5, 7, 2, 6, 8, 10, 13, 9, 11, 12, 14, 15];