numResources = 4;
numTasks = 15;
Duration = [10, 8, 10, 2, 225, 225, 50, 225, 250, 250, 200, 9, 9, 3, 6];
ResourceCapability = [12, 12, 12, 12];
ResourceRequirement = [|9, 9, 4, 4, 5, 0, 1, 0, 0, 3, 0, 0, 0, 0, 1
                       |0, 4, 6, 0, 0, 10, 0, 0, 5, 3, 9, 5, 0, 0, 0
                       |0, 10, 10, 0, 0, 6, 6, 4, 0, 0, 0, 6, 8, 8, 0
                       |0, 0, 0, 0, 5, 0, 0, 7, 0, 0, 1, 0, 0, 0, 1|];
Successor = [{4, 5, 7, 9, 10, 12, 14, 15},
             {6, 8, 10, 11, 12, 13, 14, 15},
             {13, 14, 15},
             {7, 10, 12},
             {9, 10, 12},
             {8, 10, 11, 13, 14, 15},
             {},
             {11, 14, 15},
             {12},
             {},
             {15},
             {},
             {},
             {15},
             {}];
InitialSolution = [1, 2, 6, 3, 4, 5, 8, 9, 11, 14, 7, 10, 12, 13, 15];