numResources = 4;
numTasks = 15;
Duration = [8, 8, 5, 2, 150, 250, 200, 150, 125, 75, 150, 7, 3, 10, 10];
ResourceCapability = [23, 25, 25, 20];
ResourceRequirement = [|10, 9, 8, 8, 10, 7, 1, 10, 2, 2, 6, 9, 5, 1, 10
                       |9, 5, 10, 5, 2, 1, 7, 3, 5, 10, 2, 2, 6, 1, 5
                       |4, 9, 8, 3, 8, 9, 6, 8, 10, 6, 2, 3, 3, 2, 6
                       |7, 9, 1, 10, 6, 5, 1, 7, 5, 7, 7, 3, 4, 10, 4|];
Successor = [{7, 11},
             {4, 5, 6, 9, 11, 12, 13, 14, 15},
             {7, 8, 10, 11},
             {6, 9, 11, 14, 15},
             {12, 13, 14},
             {9, 11, 14, 15},
             {11},
             {10},
             {11, 14},
             {},
             {},
             {14},
             {14},
             {},
             {}];
InitialSolution = [2, 4, 3, 6, 5, 1, 9, 7, 8, 12, 13, 10, 11, 14, 15];