numResources = 4;
numTasks = 15;
Duration = [3, 1, 7, 1, 225, 225, 150, 125, 200, 250, 225, 1, 10, 5, 10];
ResourceCapability = [14, 9, 10, 22];
ResourceRequirement = [|9, 0, 0, 0, 0, 0, 5, 0, 9, 0, 4, 0, 5, 5, 0
                       |0, 0, 0, 0, 0, 0, 0, 6, 0, 8, 0, 2, 0, 0, 5
                       |0, 0, 0, 0, 0, 0, 0, 0, 0, 0, 0, 0, 0, 0, 0
                       |0, 10, 7, 2, 2, 1, 0, 0, 0, 0, 0, 0, 0, 0, 0|];
Successor = [{5, 6, 7, 9, 10, 11, 12, 13, 14, 15},
             {6, 12, 14},
             {4, 5, 6, 8, 9, 10, 12, 14},
             {14},
             {6, 9, 10, 12, 14},
             {12, 14},
             {11, 12, 15},
             {10, 14},
             {10, 12},
             {},
             {},
             {},
             {15},
             {},
             {}];
InitialSolution = [1, 3, 5, 2, 7, 6, 8, 9, 4, 13, 10, 11, 12, 14, 15];