numResources = 4;
numTasks = 15;
Duration = [10, 10, 3, 2, 250, 225, 150, 150, 50, 25, 125, 3, 1, 3, 5];
ResourceCapability = [31, 24, 30, 29];
ResourceRequirement = [|5, 8, 8, 1, 7, 8, 4, 10, 5, 2, 5, 4, 9, 5, 9
                       |3, 2, 2, 1, 10, 1, 1, 5, 9, 4, 10, 7, 8, 2, 2
                       |8, 3, 1, 4, 3, 1, 3, 5, 5, 4, 5, 9, 10, 9, 9
                       |10, 8, 10, 4, 6, 4, 9, 3, 1, 3, 7, 8, 8, 4, 5|];
Successor = [{11, 15},
             {4, 5, 8, 13, 14, 15},
             {6, 7, 9, 10, 12, 13, 15},
             {8, 14},
             {15},
             {7, 9, 10, 15},
             {9, 10},
             {14},
             {},
             {},
             {15},
             {13},
             {},
             {},
             {}];
InitialSolution = [3, 2, 6, 1, 4, 7, 5, 8, 11, 12, 9, 10, 13, 14, 15];