numResources = 4;
numTasks = 15;
Duration = [10, 9, 7, 10, 100, 225, 175, 250, 150, 75, 250, 2, 2, 3, 9];
ResourceCapability = [28, 39, 31, 27];
ResourceRequirement = [|4, 9, 10, 5, 5, 2, 7, 8, 10, 3, 7, 1, 10, 5, 7
                       |8, 1, 9, 7, 9, 3, 1, 7, 1, 10, 6, 8, 8, 1, 4
                       |10, 1, 10, 3, 10, 7, 2, 4, 8, 9, 7, 10, 4, 8, 10
                       |10, 4, 9, 1, 2, 10, 8, 5, 1, 7, 1, 2, 10, 10, 1|];
Successor = [{4, 5, 6, 7, 8, 9, 10, 11, 12, 13, 14, 15},
             {},
             {},
             {5, 6, 7, 8, 9, 10, 12, 13},
             {},
             {7, 8, 9, 10, 12, 13},
             {8, 9, 10, 12, 13},
             {},
             {10, 12, 13},
             {},
             {13, 15},
             {13},
             {},
             {},
             {}];
InitialSolution = [1, 4, 6, 7, 9, 11, 12, 2, 3, 5, 8, 10, 13, 14, 15];