numResources = 4;
numTasks = 15;
Duration = [7, 6, 2, 1, 250, 100, 225, 250, 200, 100, 225, 1, 9, 10, 8];
ResourceCapability = [10, 13, 10, 10];
ResourceRequirement = [|0, 0, 10, 0, 2, 3, 0, 0, 0, 0, 0, 0, 0, 0, 0
                       |0, 0, 0, 0, 0, 0, 0, 2, 0, 10, 0, 0, 0, 4, 3
                       |0, 0, 0, 10, 0, 0, 0, 0, 0, 0, 2, 8, 0, 0, 0
                       |8, 8, 0, 0, 0, 0, 2, 0, 1, 0, 0, 0, 5, 0, 0|];
Successor = [{6, 8, 10, 13, 14, 15},
             {9, 12, 13, 15},
             {4, 5, 7, 9, 10, 11, 12, 13, 14},
             {5, 11, 12, 13},
             {13},
             {8, 14, 15},
             {10, 13, 14},
             {},
             {12, 13},
             {13, 14},
             {12},
             {},
             {},
             {},
             {}];
InitialSolution = [3, 1, 2, 4, 6, 7, 9, 10, 5, 11, 8, 12, 13, 14, 15];