numResources = 4;
numTasks = 15;
Duration = [2, 3, 2, 7, 150, 150, 100, 200, 50, 100, 175, 10, 8, 5, 1];
ResourceCapability = [35, 27, 32, 27];
ResourceRequirement = [|8, 3, 8, 10, 8, 2, 1, 10, 9, 5, 8, 10, 6, 7, 6
                       |10, 7, 8, 6, 2, 7, 5, 7, 4, 6, 1, 6, 8, 9, 5
                       |8, 7, 7, 1, 5, 1, 2, 5, 9, 8, 6, 4, 7, 2, 4
                       |7, 3, 7, 8, 1, 3, 1, 1, 7, 4, 7, 1, 3, 10, 8|];
Successor = [{6, 7, 8, 11, 14, 15},
             {5, 9, 13, 14, 15},
             {4, 8, 10, 11, 12, 14, 15},
             {10},
             {9, 13, 14, 15},
             {7, 15},
             {},
             {11, 14, 15},
             {15},
             {},
             {},
             {},
             {14, 15},
             {15},
             {}];
InitialSolution = [3, 1, 2, 5, 8, 6, 13, 4, 9, 14, 7, 10, 11, 12, 15];