numResources = 4;
numTasks = 15;
Duration = [9, 10, 6, 6, 200, 75, 250, 125, 200, 250, 125, 10, 5, 10, 6];
ResourceCapability = [29, 34, 33, 35];
ResourceRequirement = [|4, 2, 3, 5, 7, 10, 2, 8, 6, 2, 1, 4, 5, 10, 1
                       |6, 3, 7, 1, 10, 10, 4, 6, 10, 4, 6, 7, 1, 6, 4
                       |9, 6, 8, 7, 6, 9, 7, 3, 10, 2, 6, 10, 1, 1, 6
                       |8, 10, 8, 4, 7, 4, 3, 1, 4, 8, 7, 8, 9, 7, 6|];
Successor = [{15},
             {4, 6, 7, 8, 9, 10, 11, 12, 13, 15},
             {5, 14},
             {7, 11, 12},
             {14},
             {8, 10, 13, 15},
             {},
             {10, 13, 15},
             {15},
             {},
             {},
             {},
             {15},
             {},
             {}];
InitialSolution = [2, 6, 4, 8, 3, 1, 5, 9, 13, 7, 10, 11, 12, 14, 15];