numResources = 4;
numTasks = 15;
Duration = [3, 3, 5, 3, 175, 50, 75, 200, 225, 200, 200, 10, 4, 2, 6];
ResourceCapability = [25, 20, 18, 23];
ResourceRequirement = [|3, 0, 2, 0, 10, 0, 9, 2, 0, 0, 10, 0, 2, 0, 2
                       |0, 0, 1, 0, 6, 2, 0, 4, 2, 4, 9, 7, 4, 5, 0
                       |1, 0, 10, 0, 0, 0, 4, 7, 0, 0, 4, 5, 0, 0, 0
                       |0, 2, 0, 2, 4, 10, 4, 6, 9, 0, 0, 0, 0, 0, 7|];
Successor = [{4, 7, 8, 10, 11, 14, 15},
             {9, 10, 12, 14, 15},
             {5, 6, 8, 10, 12, 13, 14, 15},
             {},
             {8, 12, 14, 15},
             {8, 10, 12, 14, 15},
             {8, 10, 14, 15},
             {15},
             {14, 15},
             {14, 15},
             {},
             {14, 15},
             {15},
             {15},
             {}];
InitialSolution = [3, 1, 2, 6, 5, 7, 9, 10, 12, 8, 13, 14, 4, 11, 15];