numResources = 4;
numTasks = 15;
Duration = [8, 7, 3, 10, 125, 25, 125, 250, 200, 225, 175, 5, 9, 9, 9];
ResourceCapability = [11, 12, 8, 11];
ResourceRequirement = [|0, 0, 0, 7, 0, 0, 0, 0, 0, 0, 2, 0, 0, 7, 10
                       |0, 0, 3, 0, 8, 0, 0, 0, 0, 0, 0, 8, 0, 0, 0
                       |0, 3, 0, 0, 0, 0, 0, 0, 0, 8, 0, 0, 0, 0, 0
                       |1, 0, 0, 0, 0, 3, 3, 10, 10, 0, 0, 0, 2, 0, 0|];
Successor = [{},
             {6, 10, 11, 12, 15},
             {4, 5, 7, 8, 9, 10, 11, 12, 13, 14, 15},
             {5, 7, 8, 9, 10, 11, 12, 13, 14, 15},
             {8, 9, 10, 11, 12, 13, 14, 15},
             {10, 11, 15},
             {},
             {9, 10, 11, 12, 13, 14, 15},
             {10, 11, 12, 15},
             {11, 15},
             {15},
             {},
             {},
             {},
             {}];
InitialSolution = [3, 4, 5, 8, 2, 9, 6, 10, 11, 1, 7, 12, 13, 14, 15];