numResources = 4;
numTasks = 15;
Duration = [6, 1, 10, 7, 75, 225, 200, 50, 225, 200, 225, 5, 10, 8, 3];
ResourceCapability = [24, 21, 20, 21];
ResourceRequirement = [|4, 1, 3, 8, 10, 4, 1, 6, 10, 6, 1, 6, 3, 5, 10
                       |10, 9, 5, 4, 2, 4, 4, 1, 6, 5, 4, 1, 8, 10, 1
                       |2, 8, 6, 4, 7, 8, 6, 3, 10, 3, 1, 2, 4, 6, 3
                       |2, 1, 4, 6, 8, 1, 6, 4, 2, 2, 4, 2, 5, 10, 10|];
Successor = [{},
             {4, 6, 9, 10, 11, 15},
             {5, 7, 8, 12, 13, 14},
             {6, 10},
             {13, 14},
             {},
             {12},
             {},
             {10},
             {},
             {15},
             {},
             {},
             {},
             {}];
InitialSolution = [2, 3, 4, 5, 7, 9, 11, 1, 6, 8, 10, 12, 13, 14, 15];