numResources = 4;
numTasks = 15;
Duration = [10, 10, 9, 6, 225, 75, 100, 100, 175, 150, 250, 4, 3, 1, 7];
ResourceCapability = [45, 30, 37, 33];
ResourceRequirement = [|6, 1, 2, 7, 6, 9, 1, 8, 8, 8, 1, 10, 4, 1, 9
                       |2, 1, 9, 4, 9, 3, 4, 5, 4, 1, 5, 10, 4, 4, 10
                       |10, 3, 3, 3, 8, 2, 7, 2, 6, 4, 8, 1, 5, 7, 9
                       |9, 9, 5, 3, 9, 8, 2, 6, 6, 1, 9, 7, 3, 5, 9|];
Successor = [{4, 5, 10, 11, 12, 14, 15},
             {6, 7, 13},
             {6, 8, 9, 10, 11, 13, 15},
             {},
             {10, 11, 12, 15},
             {13},
             {},
             {9, 10, 11, 13, 15},
             {11, 15},
             {15},
             {15},
             {},
             {},
             {},
             {}];
InitialSolution = [1, 3, 8, 5, 2, 9, 6, 10, 11, 4, 7, 12, 13, 14, 15];