numResources = 4;
numTasks = 15;
Duration = [3, 10, 2, 5, 250, 25, 25, 250, 75, 225, 125, 10, 5, 4, 4];
ResourceCapability = [23, 6, 14, 15];
ResourceRequirement = [|8, 5, 0, 9, 2, 6, 0, 7, 0, 1, 0, 0, 0, 0, 0
                       |0, 0, 0, 0, 0, 0, 0, 0, 0, 0, 0, 0, 1, 1, 0
                       |0, 0, 5, 0, 0, 0, 4, 0, 0, 0, 0, 0, 0, 0, 0
                       |0, 0, 0, 0, 0, 0, 0, 0, 3, 0, 1, 8, 0, 0, 5|];
Successor = [{4, 5, 6, 7, 10, 11, 12, 13, 14},
             {},
             {8, 9, 11, 12, 13, 14, 15},
             {7, 10, 11, 12, 13, 14},
             {6, 11, 13},
             {11},
             {14},
             {9, 11, 13},
             {13},
             {11, 13, 14},
             {},
             {14},
             {},
             {},
             {}];
InitialSolution = [1, 3, 4, 5, 8, 10, 6, 7, 9, 12, 2, 11, 13, 14, 15];