numResources = 4;
numTasks = 15;
Duration = [1, 5, 1, 9, 100, 150, 75, 200, 250, 100, 150, 10, 9, 5, 1];
ResourceCapability = [22, 23, 21, 27];
ResourceRequirement = [|2, 7, 7, 4, 3, 3, 8, 3, 4, 2, 9, 2, 10, 4, 2
                       |1, 3, 6, 8, 9, 9, 9, 7, 3, 4, 6, 7, 5, 8, 1
                       |3, 4, 10, 4, 7, 10, 10, 4, 6, 2, 5, 9, 4, 6, 1
                       |7, 10, 1, 10, 10, 9, 9, 9, 4, 1, 10, 1, 10, 3, 6|];
Successor = [{7, 8, 9, 11, 13, 15},
             {4, 5, 10, 12, 14, 15},
             {6, 7, 8, 11, 13, 14, 15},
             {10, 12, 14},
             {10, 14, 15},
             {11, 15},
             {8, 13, 15},
             {13, 15},
             {},
             {14},
             {},
             {},
             {15},
             {},
             {}];
InitialSolution = [3, 1, 2, 4, 5, 7, 6, 8, 10, 13, 9, 11, 12, 14, 15];