numResources = 4;
numTasks = 15;
Duration = [4, 10, 1, 10, 200, 50, 50, 75, 100, 100, 25, 3, 10, 7, 9];
ResourceCapability = [17, 15, 16, 16];
ResourceRequirement = [|5, 8, 0, 9, 6, 8, 3, 0, 5, 0, 10, 3, 0, 0, 1
                       |10, 0, 9, 0, 0, 0, 10, 0, 0, 7, 0, 6, 0, 0, 0
                       |0, 0, 3, 5, 4, 0, 0, 0, 6, 0, 1, 0, 4, 0, 9
                       |0, 0, 6, 0, 7, 10, 5, 8, 0, 0, 0, 0, 2, 4, 0|];
Successor = [{5, 6, 9, 11, 12, 15},
             {4, 6, 9, 10, 12, 13, 15},
             {4, 6, 7, 8, 9, 10, 11, 12, 13, 14, 15},
             {6, 9, 10, 12, 13},
             {6, 9, 15},
             {9},
             {8, 12, 14, 15},
             {14, 15},
             {},
             {12, 13},
             {12},
             {},
             {},
             {15},
             {}];
InitialSolution = [3, 2, 1, 4, 7, 5, 8, 10, 6, 11, 14, 9, 12, 13, 15];