numResources = 4;
numTasks = 15;
Duration = [3, 4, 7, 1, 25, 50, 50, 250, 125, 250, 75, 6, 10, 8, 1];
ResourceCapability = [13, 17, 23, 17];
ResourceRequirement = [|0, 3, 2, 0, 0, 0, 0, 0, 0, 0, 2, 0, 4, 0, 5
                       |0, 2, 0, 0, 6, 9, 3, 3, 0, 0, 7, 0, 1, 6, 9
                       |0, 10, 6, 5, 0, 0, 3, 3, 8, 0, 9, 9, 6, 4, 2
                       |1, 0, 2, 3, 10, 8, 0, 0, 0, 5, 0, 0, 0, 9, 0|];
Successor = [{5, 6, 7, 8, 9, 10, 11, 12, 13, 14, 15},
             {4, 9, 11, 12, 13, 14, 15},
             {},
             {13, 14, 15},
             {6, 8, 9, 10, 12, 14, 15},
             {8, 10, 12, 14, 15},
             {11, 12, 14, 15},
             {14},
             {15},
             {},
             {12, 15},
             {15},
             {},
             {},
             {}];
InitialSolution = [1, 2, 5, 6, 7, 4, 11, 8, 9, 12, 3, 10, 13, 14, 15];