numResources = 4;
numTasks = 15;
Duration = [9, 7, 8, 9, 75, 150, 150, 175, 75, 150, 100, 10, 4, 9, 6];
ResourceCapability = [18, 23, 13, 12];
ResourceRequirement = [|8, 7, 0, 0, 3, 3, 6, 0, 0, 9, 0, 0, 3, 0, 8
                       |4, 4, 6, 0, 8, 0, 0, 1, 0, 6, 0, 10, 0, 0, 8
                       |0, 4, 0, 4, 0, 0, 0, 0, 8, 6, 0, 5, 0, 1, 0
                       |4, 0, 4, 0, 1, 0, 1, 0, 0, 0, 9, 9, 3, 0, 6|];
Successor = [{6, 9, 10, 11, 12, 13, 15},
             {4, 8, 9, 10, 11, 12, 13, 14, 15},
             {5, 7, 9, 13, 15},
             {10, 13, 14, 15},
             {9, 13, 15},
             {9, 10, 11, 12, 13, 15},
             {13},
             {9, 13},
             {13},
             {13},
             {12, 15},
             {15},
             {},
             {},
             {}];
InitialSolution = [2, 1, 6, 3, 4, 5, 8, 11, 7, 9, 10, 12, 13, 14, 15];