numResources = 4;
numTasks = 15;
Duration = [7, 7, 4, 8, 225, 75, 225, 250, 150, 50, 175, 9, 10, 9, 4];
ResourceCapability = [22, 32, 25, 26];
ResourceRequirement = [|3, 7, 9, 9, 7, 3, 1, 3, 2, 4, 8, 6, 8, 2, 6
                       |8, 8, 7, 9, 10, 3, 7, 9, 10, 7, 3, 5, 6, 9, 5
                       |1, 1, 8, 9, 2, 3, 7, 1, 8, 7, 2, 10, 3, 10, 10
                       |4, 2, 5, 2, 4, 4, 5, 2, 9, 4, 5, 4, 5, 5, 1|];
Successor = [{13, 14},
             {},
             {4, 5, 6, 7, 8, 9, 10, 11, 12, 13, 14, 15},
             {5, 6, 7, 9, 11, 12, 13, 14},
             {6, 7, 9, 11, 12, 13, 14},
             {7, 11, 12, 14},
             {12, 14},
             {14, 15},
             {13, 14},
             {},
             {},
             {},
             {14},
             {},
             {}];
InitialSolution = [3, 4, 5, 6, 1, 7, 8, 9, 13, 2, 10, 11, 12, 14, 15];