numResources = 4;
numTasks = 15;
Duration = [7, 1, 7, 8, 125, 75, 100, 100, 250, 175, 125, 5, 8, 6, 8];
ResourceCapability = [12, 14, 10, 12];
ResourceRequirement = [|4, 0, 0, 0, 0, 2, 7, 8, 0, 1, 0, 0, 0, 0, 4
                       |2, 0, 0, 0, 0, 0, 9, 0, 9, 0, 9, 0, 0, 8, 0
                       |0, 1, 7, 0, 9, 0, 0, 2, 0, 0, 5, 0, 0, 1, 0
                       |0, 0, 0, 10, 0, 0, 8, 8, 0, 3, 0, 1, 3, 8, 2|];
Successor = [{},
             {4, 5, 6, 7, 8, 9, 10, 11, 12, 13, 14, 15},
             {11, 13},
             {6, 7, 10, 11, 12, 14, 15},
             {8, 9, 12, 14, 15},
             {10, 11, 14, 15},
             {14, 15},
             {12},
             {12, 14, 15},
             {11, 15},
             {},
             {},
             {},
             {15},
             {}];
InitialSolution = [2, 4, 5, 6, 9, 3, 7, 10, 8, 14, 1, 11, 12, 13, 15];