numResources = 4;
numTasks = 15;
Duration = [9, 5, 8, 3, 225, 100, 100, 50, 225, 225, 225, 5, 2, 5, 8];
ResourceCapability = [25, 28, 32, 21];
ResourceRequirement = [|8, 10, 9, 6, 4, 3, 9, 8, 8, 4, 3, 6, 4, 7, 6
                       |7, 5, 8, 7, 10, 4, 4, 8, 3, 5, 4, 2, 7, 9, 5
                       |9, 6, 3, 9, 1, 5, 2, 1, 9, 3, 7, 3, 10, 10, 7
                       |4, 10, 2, 10, 1, 9, 1, 9, 4, 1, 2, 5, 6, 2, 4|];
Successor = [{10, 11, 12, 14},
             {7, 9, 10, 11, 12, 13},
             {4, 5, 6, 8, 11, 12, 13, 15},
             {},
             {6, 8, 11, 12, 13, 15},
             {8, 11, 12, 13, 15},
             {9, 10, 11, 12},
             {13, 15},
             {10, 11, 12},
             {11, 12},
             {12},
             {},
             {},
             {},
             {}];
InitialSolution = [3, 2, 5, 6, 1, 7, 9, 8, 10, 11, 4, 12, 13, 14, 15];