numResources = 4;
numTasks = 15;
Duration = [7, 10, 7, 1, 150, 200, 175, 250, 200, 25, 100, 3, 4, 6, 4];
ResourceCapability = [10, 13, 15, 11];
ResourceRequirement = [|0, 0, 0, 0, 0, 0, 0, 0, 0, 0, 5, 0, 0, 0, 1
                       |0, 0, 3, 0, 0, 6, 0, 0, 0, 2, 0, 0, 0, 8, 0
                       |4, 5, 0, 5, 9, 0, 5, 2, 0, 0, 0, 0, 7, 0, 0
                       |0, 0, 0, 0, 0, 0, 0, 0, 6, 0, 0, 7, 0, 0, 0|];
Successor = [{7, 9, 11, 12, 14, 15},
             {4, 5, 8, 9, 11, 12, 13, 14, 15},
             {5, 6, 8, 10, 11, 12, 13, 14, 15},
             {11, 12, 13, 15},
             {8, 14, 15},
             {10, 12, 13, 14},
             {11, 12, 15},
             {14, 15},
             {15},
             {12, 14},
             {15},
             {},
             {},
             {},
             {}];
InitialSolution = [2, 3, 1, 4, 6, 5, 7, 8, 10, 9, 11, 12, 13, 14, 15];