numResources = 4;
numTasks = 15;
Duration = [2, 5, 5, 1, 100, 50, 225, 125, 100, 225, 250, 9, 5, 5, 2];
ResourceCapability = [13, 11, 12, 11];
ResourceRequirement = [|0, 0, 8, 7, 10, 8, 0, 7, 0, 4, 0, 7, 0, 0, 0
                       |0, 0, 0, 0, 7, 2, 0, 0, 6, 0, 0, 8, 9, 8, 10
                       |3, 5, 0, 2, 6, 0, 2, 0, 6, 5, 9, 2, 0, 0, 0
                       |4, 0, 0, 8, 0, 0, 4, 6, 8, 4, 0, 7, 2, 2, 0|];
Successor = [{7, 9, 11, 12, 13, 14, 15},
             {4, 5, 6, 7, 8, 9, 10, 11, 13, 14, 15},
             {},
             {7, 8, 9, 11, 13, 14},
             {6, 8, 9, 10, 11, 13, 14, 15},
             {8, 10, 13, 14, 15},
             {9, 11, 13, 14},
             {13, 14},
             {11, 14},
             {},
             {14},
             {14, 15},
             {},
             {},
             {}];
InitialSolution = [2, 5, 1, 4, 6, 7, 8, 9, 12, 11, 3, 10, 13, 14, 15];