numResources = 4;
numTasks = 15;
Duration = [5, 1, 7, 6, 200, 150, 250, 50, 175, 150, 50, 3, 8, 4, 1];
ResourceCapability = [21, 14, 13, 20];
ResourceRequirement = [|0, 0, 0, 0, 0, 0, 0, 0, 8, 9, 0, 0, 0, 0, 0
                       |0, 0, 0, 0, 0, 7, 0, 0, 0, 0, 0, 0, 0, 5, 0
                       |9, 0, 0, 0, 0, 0, 0, 0, 0, 0, 6, 0, 2, 0, 0
                       |0, 4, 7, 10, 1, 0, 10, 8, 0, 0, 0, 5, 0, 0, 10|];
Successor = [{4, 5, 6, 8, 9, 11, 12, 14},
             {15},
             {5, 7, 8, 9, 10, 11, 13, 14, 15},
             {5, 6, 8, 11, 12, 14},
             {11, 14},
             {12},
             {9, 10, 13, 14, 15},
             {11},
             {14},
             {13, 14},
             {},
             {},
             {14},
             {},
             {}];
InitialSolution = [3, 1, 4, 7, 5, 10, 2, 6, 8, 9, 13, 11, 12, 14, 15];