numResources = 4;
numTasks = 15;
Duration = [10, 5, 9, 2, 75, 100, 250, 125, 125, 150, 75, 3, 10, 10, 9];
ResourceCapability = [21, 24, 17, 15];
ResourceRequirement = [|3, 2, 7, 3, 0, 7, 0, 0, 0, 10, 0, 8, 9, 0, 0
                       |1, 2, 7, 0, 6, 5, 7, 8, 8, 2, 0, 0, 6, 9, 2
                       |0, 0, 0, 5, 0, 3, 0, 0, 2, 0, 2, 0, 0, 10, 4
                       |0, 0, 4, 10, 0, 0, 0, 0, 2, 7, 0, 3, 0, 7, 0|];
Successor = [{4, 6, 7, 8, 10, 12, 14, 15},
             {5, 7, 9, 10, 11, 12, 13, 14, 15},
             {8, 13, 14, 15},
             {6, 7, 8, 12, 14, 15},
             {7, 13},
             {8, 14, 15},
             {},
             {15},
             {10, 12, 13, 14, 15},
             {12, 15},
             {15},
             {},
             {},
             {},
             {}];
InitialSolution = [2, 1, 4, 9, 3, 6, 5, 10, 8, 11, 7, 12, 13, 14, 15];