numResources = 4;
numTasks = 15;
Duration = [3, 5, 4, 10, 200, 25, 150, 250, 150, 150, 125, 3, 7, 7, 8];
ResourceCapability = [18, 13, 14, 21];
ResourceRequirement = [|7, 0, 0, 1, 0, 0, 6, 0, 0, 6, 0, 0, 0, 9, 0
                       |0, 1, 0, 0, 0, 0, 0, 0, 0, 0, 6, 4, 0, 0, 0
                       |0, 0, 0, 0, 0, 8, 0, 0, 6, 0, 0, 0, 6, 0, 2
                       |0, 0, 2, 0, 10, 0, 0, 5, 0, 0, 0, 0, 0, 0, 0|];
Successor = [{4, 6, 8, 12, 14, 15},
             {10, 11, 15},
             {5, 7, 9, 11, 13},
             {12},
             {7, 9, 11, 13},
             {},
             {9, 11, 13},
             {14, 15},
             {11},
             {15},
             {},
             {},
             {},
             {15},
             {}];
InitialSolution = [1, 3, 5, 2, 7, 8, 4, 9, 10, 14, 6, 11, 12, 13, 15];