numResources = 4;
numTasks = 15;
Duration = [1, 3, 4, 7, 100, 75, 25, 50, 250, 200, 100, 8, 1, 3, 1];
ResourceCapability = [14, 30, 13, 17];
ResourceRequirement = [|8, 0, 0, 4, 0, 2, 10, 0, 0, 0, 0, 0, 0, 0, 0
                       |0, 0, 10, 0, 0, 0, 0, 0, 3, 1, 9, 8, 5, 0, 0
                       |0, 0, 0, 0, 0, 0, 0, 0, 0, 0, 0, 0, 0, 0, 8
                       |0, 6, 0, 0, 8, 0, 0, 9, 0, 0, 0, 0, 0, 8, 0|];
Successor = [{4, 5, 6, 7, 9, 11, 14, 15},
             {12, 13},
             {8, 10, 11, 12, 13, 14},
             {9, 14},
             {7, 11, 15},
             {},
             {11, 15},
             {12, 13},
             {},
             {11, 14},
             {},
             {13},
             {},
             {},
             {}];
InitialSolution = [1, 3, 5, 2, 4, 7, 8, 10, 12, 6, 9, 11, 13, 14, 15];