numResources = 4;
numTasks = 15;
Duration = [4, 8, 10, 8, 100, 225, 50, 50, 50, 75, 100, 8, 1, 4, 1];
ResourceCapability = [24, 14, 17, 11];
ResourceRequirement = [|0, 0, 0, 0, 0, 9, 0, 2, 0, 0, 0, 6, 9, 10, 10
                       |10, 0, 4, 0, 0, 0, 0, 0, 0, 2, 7, 0, 0, 0, 0
                       |0, 0, 0, 3, 2, 0, 9, 0, 8, 0, 0, 0, 0, 0, 0
                       |0, 5, 0, 0, 0, 0, 0, 0, 0, 0, 0, 0, 0, 0, 0|];
Successor = [{4, 5, 7, 8, 10, 11, 12, 13, 15},
             {9, 14},
             {6},
             {10},
             {8, 10, 11, 12, 13},
             {},
             {15},
             {},
             {},
             {},
             {12, 13},
             {},
             {},
             {},
             {}];
InitialSolution = [1, 5, 2, 11, 3, 4, 7, 6, 8, 9, 10, 12, 13, 14, 15];