numResources = 4;
numTasks = 15;
Duration = [4, 4, 1, 3, 125, 75, 25, 125, 75, 25, 200, 6, 5, 8, 3];
ResourceCapability = [24, 32, 32, 23];
ResourceRequirement = [|9, 10, 8, 1, 2, 1, 4, 8, 2, 2, 3, 9, 2, 2, 5
                       |1, 4, 9, 2, 2, 1, 10, 10, 2, 3, 3, 8, 1, 3, 8
                       |3, 5, 9, 9, 8, 4, 9, 4, 3, 6, 1, 1, 7, 10, 3
                       |8, 10, 10, 8, 5, 5, 4, 4, 9, 4, 10, 1, 8, 4, 2|];
Successor = [{4, 6, 8, 10, 12, 13, 14, 15},
             {5, 7, 9, 10, 11, 12, 13, 14, 15},
             {8, 12, 14},
             {6, 8, 10, 12, 13, 14, 15},
             {7, 9, 10, 12, 13, 14, 15},
             {8, 10, 12, 14},
             {12, 14},
             {},
             {13, 14, 15},
             {12, 14},
             {14},
             {14},
             {14},
             {},
             {}];
InitialSolution = [2, 1, 4, 5, 6, 3, 9, 7, 10, 11, 12, 13, 8, 14, 15];