numResources = 4;
numTasks = 15;
Duration = [1, 2, 6, 3, 50, 250, 175, 75, 100, 125, 50, 2, 7, 1, 4];
ResourceCapability = [33, 34, 38, 34];
ResourceRequirement = [|6, 6, 4, 9, 3, 7, 9, 2, 4, 8, 3, 9, 2, 5, 3
                       |3, 5, 9, 2, 5, 7, 9, 8, 6, 5, 8, 4, 9, 8, 1
                       |1, 9, 5, 5, 6, 3, 9, 1, 9, 5, 6, 4, 4, 2, 9
                       |6, 6, 7, 10, 9, 1, 8, 5, 9, 9, 5, 8, 8, 1, 6|];
Successor = [{6, 10, 13, 14, 15},
             {5, 8},
             {4, 5, 7, 9, 11, 12, 13, 14, 15},
             {5, 7, 9, 11, 13, 14, 15},
             {},
             {10, 14, 15},
             {11, 14, 15},
             {},
             {13, 14},
             {14, 15},
             {},
             {15},
             {},
             {},
             {}];
InitialSolution = [3, 4, 1, 6, 7, 2, 9, 10, 12, 5, 8, 11, 13, 14, 15];