numResources = 4;
numTasks = 15;
Duration = [1, 8, 6, 6, 100, 200, 175, 225, 100, 25, 150, 5, 6, 10, 10];
ResourceCapability = [31, 34, 34, 31];
ResourceRequirement = [|4, 2, 6, 1, 7, 9, 7, 7, 5, 7, 4, 2, 4, 5, 6
                       |6, 6, 7, 9, 9, 6, 3, 5, 4, 7, 5, 5, 2, 7, 8
                       |3, 6, 7, 6, 5, 1, 8, 1, 7, 2, 9, 6, 2, 4, 2
                       |4, 2, 6, 2, 6, 6, 2, 7, 8, 5, 5, 3, 7, 10, 1|];
Successor = [{7, 8, 9, 10, 11, 12, 13, 15},
             {9, 14},
             {4, 5, 6, 7, 10, 11, 12, 13, 14, 15},
             {5, 6, 10, 11, 13, 15},
             {6, 11, 13, 15},
             {11, 13},
             {11, 12, 13},
             {9, 10},
             {},
             {},
             {13},
             {13},
             {},
             {},
             {}];
InitialSolution = [3, 1, 4, 5, 7, 2, 6, 8, 11, 12, 9, 10, 13, 14, 15];