numResources = 4;
numTasks = 15;
Duration = [8, 9, 7, 6, 225, 100, 250, 125, 50, 25, 200, 5, 1, 9, 10];
ResourceCapability = [23, 22, 25, 24];
ResourceRequirement = [|7, 3, 1, 1, 10, 6, 6, 3, 1, 6, 4, 7, 6, 10, 3
                       |9, 4, 3, 1, 6, 2, 1, 9, 2, 3, 2, 1, 7, 5, 8
                       |9, 8, 10, 10, 10, 1, 3, 2, 7, 1, 1, 2, 10, 2, 4
                       |5, 1, 3, 10, 1, 4, 5, 2, 9, 5, 8, 10, 2, 9, 1|];
Successor = [{4, 5, 6, 7, 8, 9, 10, 11, 13, 14, 15},
             {8},
             {4, 6, 7, 8, 9, 10, 11, 12, 13, 14, 15},
             {6, 7, 9, 10, 11, 13, 14, 15},
             {6, 7, 8, 10, 11, 13, 15},
             {7, 10, 11, 13, 15},
             {10, 13},
             {},
             {},
             {},
             {13},
             {13, 15},
             {},
             {15},
             {}];
InitialSolution = [1, 3, 4, 5, 6, 7, 12, 2, 11, 14, 8, 9, 10, 13, 15];