numResources = 4;
numTasks = 15;
Duration = [6, 4, 10, 9, 75, 100, 100, 75, 200, 125, 150, 2, 8, 4, 10];
ResourceCapability = [13, 10, 18, 22];
ResourceRequirement = [|0, 0, 7, 0, 0, 0, 5, 0, 4, 0, 0, 5, 0, 0, 0
                       |2, 0, 0, 5, 0, 0, 0, 9, 0, 0, 0, 0, 0, 0, 0
                       |0, 9, 0, 0, 7, 9, 0, 0, 0, 10, 2, 0, 8, 0, 0
                       |0, 0, 0, 0, 0, 0, 0, 0, 0, 0, 0, 0, 0, 7, 2|];
Successor = [{8, 9, 14, 15},
             {5, 11},
             {4, 6, 7, 10, 12, 13, 15},
             {7, 10, 12, 13, 15},
             {},
             {},
             {10, 12, 15},
             {9, 14, 15},
             {},
             {},
             {},
             {15},
             {},
             {15},
             {}];
InitialSolution = [3, 4, 1, 7, 8, 2, 12, 14, 5, 6, 9, 10, 11, 13, 15];