numResources = 4;
numTasks = 15;
Duration = [2, 4, 3, 9, 150, 150, 75, 125, 250, 150, 100, 4, 1, 2, 9];
ResourceCapability = [22, 27, 25, 28];
ResourceRequirement = [|6, 9, 9, 6, 4, 1, 5, 2, 8, 5, 4, 1, 3, 4, 3
                       |8, 9, 4, 7, 5, 8, 8, 8, 9, 10, 9, 6, 3, 2, 10
                       |6, 10, 8, 3, 7, 1, 2, 7, 10, 4, 4, 1, 4, 9, 8
                       |9, 8, 8, 8, 8, 2, 9, 5, 4, 5, 10, 9, 2, 1, 4|];
Successor = [{4, 5, 6, 7, 8, 9, 10, 11, 12, 14, 15},
             {13, 14},
             {12, 14, 15},
             {5, 10, 11, 12, 15},
             {11, 12, 15},
             {8, 10, 11, 14},
             {8, 9, 15},
             {},
             {15},
             {11},
             {},
             {15},
             {},
             {},
             {}];
InitialSolution = [1, 4, 6, 3, 5, 7, 2, 9, 10, 12, 8, 11, 13, 14, 15];