numResources = 4;
numTasks = 15;
Duration = [4, 5, 6, 3, 75, 75, 125, 175, 25, 250, 25, 8, 7, 9, 8];
ResourceCapability = [10, 14, 23, 11];
ResourceRequirement = [|0, 6, 0, 0, 0, 0, 3, 0, 0, 2, 0, 0, 0, 0, 0
                       |9, 0, 0, 0, 8, 0, 0, 0, 6, 0, 0, 0, 0, 0, 0
                       |0, 0, 4, 10, 0, 0, 0, 0, 0, 0, 7, 6, 6, 6, 10
                       |0, 0, 0, 0, 0, 8, 0, 2, 0, 0, 0, 0, 0, 0, 0|];
Successor = [{},
             {4, 5, 6, 7, 8, 9, 10, 12, 13, 15},
             {11, 14},
             {5, 7, 8, 12, 13, 15},
             {},
             {9},
             {8, 12, 13, 15},
             {},
             {},
             {},
             {},
             {13, 15},
             {15},
             {},
             {}];
InitialSolution = [2, 4, 7, 3, 12, 6, 13, 1, 5, 8, 9, 10, 11, 14, 15];