numResources = 4;
numTasks = 15;
Duration = [9, 5, 8, 1, 100, 250, 25, 25, 175, 75, 225, 3, 2, 7, 6];
ResourceCapability = [13, 16, 13, 13];
ResourceRequirement = [|8, 6, 9, 7, 7, 7, 0, 2, 4, 1, 0, 8, 9, 0, 7
                       |0, 10, 6, 3, 3, 6, 1, 0, 0, 2, 9, 6, 9, 0, 0
                       |3, 8, 1, 6, 3, 3, 0, 4, 8, 10, 8, 0, 4, 6, 7
                       |9, 0, 6, 7, 0, 6, 0, 0, 0, 9, 5, 2, 0, 4, 5|];
Successor = [{4, 6, 8, 9, 10, 11, 12, 13, 14, 15},
             {9, 14, 15},
             {5, 7, 12, 13, 14},
             {9, 11, 14, 15},
             {},
             {8, 9, 13, 14, 15},
             {14},
             {13},
             {14, 15},
             {11, 12, 13, 14, 15},
             {14, 15},
             {13},
             {},
             {},
             {}];
InitialSolution = [1, 3, 6, 10, 4, 2, 9, 11, 7, 8, 12, 5, 13, 14, 15];