numResources = 4;
numTasks = 15;
Duration = [7, 1, 10, 5, 175, 125, 150, 250, 125, 100, 25, 10, 7, 8, 10];
ResourceCapability = [15, 14, 27, 25];
ResourceRequirement = [|4, 0, 0, 9, 0, 0, 0, 2, 0, 0, 0, 3, 0, 0, 3
                       |0, 7, 2, 0, 10, 0, 0, 0, 0, 3, 4, 0, 0, 3, 3
                       |6, 8, 1, 10, 0, 7, 6, 0, 0, 0, 6, 7, 8, 2, 0
                       |0, 1, 0, 0, 5, 9, 0, 2, 9, 0, 0, 0, 0, 0, 0|];
Successor = [{4, 5, 6, 7, 8, 10, 11, 12, 13, 14, 15},
             {7, 15},
             {5, 6, 7, 9, 10, 11, 12, 13, 14, 15},
             {5, 6, 7, 12, 13, 14, 15},
             {7, 13, 14, 15},
             {},
             {},
             {10, 13, 14, 15},
             {10, 11, 12, 13, 14, 15},
             {13, 14, 15},
             {13, 15},
             {15},
             {15},
             {},
             {}];
InitialSolution = [1, 3, 4, 9, 5, 8, 10, 2, 11, 12, 13, 6, 7, 14, 15];