numResources = 4;
numTasks = 15;
Duration = [7, 10, 1, 10, 25, 100, 50, 125, 150, 100, 100, 6, 10, 2, 10];
ResourceCapability = [19, 20, 26, 18];
ResourceRequirement = [|6, 3, 3, 0, 4, 5, 3, 0, 2, 10, 2, 5, 8, 1, 5
                       |2, 0, 8, 0, 10, 2, 1, 8, 2, 6, 5, 0, 0, 9, 9
                       |0, 0, 0, 3, 8, 7, 7, 7, 0, 10, 5, 10, 9, 10, 5
                       |10, 8, 7, 7, 6, 0, 9, 0, 5, 0, 8, 2, 2, 4, 4|];
Successor = [{7, 15},
             {5, 8, 9, 10, 11, 12, 13, 14, 15},
             {4, 6, 7, 8, 10, 11, 12, 14, 15},
             {7, 8, 11, 12, 14, 15},
             {8, 11, 14, 15},
             {11, 12},
             {15},
             {11, 14},
             {10, 12, 13, 14, 15},
             {12, 15},
             {},
             {},
             {14},
             {},
             {}];
InitialSolution = [2, 3, 4, 9, 5, 1, 6, 8, 10, 7, 13, 11, 12, 14, 15];