numResources = 4;
numTasks = 15;
Duration = [9, 1, 3, 7, 100, 225, 75, 150, 25, 100, 150, 5, 7, 4, 1];
ResourceCapability = [12, 13, 11, 13];
ResourceRequirement = [|6, 0, 7, 2, 2, 6, 9, 3, 3, 0, 0, 6, 3, 6, 0
                       |1, 9, 0, 0, 9, 5, 0, 0, 5, 6, 10, 5, 0, 9, 6
                       |8, 5, 0, 7, 8, 9, 3, 0, 2, 4, 8, 3, 8, 0, 8
                       |6, 0, 1, 8, 9, 0, 2, 0, 8, 10, 9, 2, 8, 8, 10|];
Successor = [{4, 5, 6, 8, 9, 10, 11, 12, 13, 14, 15},
             {7, 9, 14},
             {12, 15},
             {5, 6, 9, 11, 12, 13, 15},
             {6, 11, 12, 13, 15},
             {11, 13, 15},
             {9},
             {12, 14, 15},
             {},
             {},
             {15},
             {15},
             {15},
             {},
             {}];
InitialSolution = [1, 4, 5, 2, 6, 8, 3, 7, 11, 12, 13, 9, 10, 14, 15];