numResources = 4;
numTasks = 15;
Duration = [10, 5, 2, 2, 100, 250, 75, 150, 250, 150, 100, 8, 4, 8, 10];
ResourceCapability = [28, 18, 23, 21];
ResourceRequirement = [|0, 4, 8, 6, 0, 0, 0, 9, 0, 6, 5, 0, 0, 1, 0
                       |9, 0, 0, 3, 0, 4, 5, 9, 9, 0, 0, 0, 8, 1, 0
                       |10, 0, 0, 5, 4, 7, 8, 0, 0, 6, 0, 0, 6, 2, 0
                       |0, 9, 0, 0, 0, 0, 10, 0, 5, 0, 7, 6, 7, 2, 3|];
Successor = [{4, 6, 8, 9, 10, 11, 13, 14, 15},
             {5, 7, 9, 11, 12, 14},
             {5, 6, 8, 10, 11, 13, 14},
             {11, 15},
             {11},
             {8, 10, 13},
             {9, 14},
             {},
             {14},
             {},
             {},
             {},
             {},
             {},
             {}];
InitialSolution = [1, 3, 2, 6, 4, 7, 5, 9, 8, 10, 11, 12, 13, 14, 15];