numResources = 4;
numTasks = 15;
Duration = [9, 9, 8, 1, 150, 150, 50, 150, 175, 25, 100, 5, 10, 10, 5];
ResourceCapability = [25, 21, 16, 15];
ResourceRequirement = [|0, 0, 0, 1, 0, 3, 0, 0, 0, 6, 3, 2, 10, 0, 8
                       |4, 7, 5, 0, 7, 3, 0, 6, 4, 3, 0, 3, 7, 0, 10
                       |0, 0, 0, 0, 0, 10, 0, 1, 0, 0, 3, 3, 6, 6, 0
                       |0, 9, 0, 5, 0, 0, 5, 3, 0, 0, 0, 2, 0, 1, 10|];
Successor = [{4, 7, 8, 9, 10, 12, 13, 14, 15},
             {9, 10, 11, 13, 14},
             {5, 6, 9, 11, 12, 13, 14, 15},
             {9, 10, 13, 14, 15},
             {12, 15},
             {9, 11, 13, 14, 15},
             {10},
             {12, 15},
             {13, 14},
             {},
             {},
             {15},
             {14},
             {},
             {}];
InitialSolution = [1, 3, 2, 4, 6, 5, 8, 9, 7, 12, 13, 10, 11, 14, 15];