numResources = 4;
numTasks = 15;
Duration = [3, 9, 3, 1, 225, 50, 175, 250, 250, 100, 125, 9, 2, 10, 6];
ResourceCapability = [19, 25, 21, 20];
ResourceRequirement = [|9, 7, 7, 10, 7, 2, 2, 6, 7, 1, 3, 6, 4, 3, 6
                       |2, 2, 1, 2, 1, 8, 5, 8, 7, 10, 6, 5, 4, 7, 2
                       |4, 6, 6, 2, 7, 2, 1, 2, 4, 4, 3, 3, 6, 6, 1
                       |2, 8, 9, 4, 6, 10, 5, 6, 7, 2, 1, 5, 10, 7, 8|];
Successor = [{4, 6, 7, 8, 9, 10, 11, 12, 13, 14, 15},
             {5, 11, 12, 15},
             {11, 12, 15},
             {7, 9, 13, 14, 15},
             {11, 15},
             {10, 12, 13, 15},
             {9, 13, 15},
             {10, 11, 12, 14, 15},
             {15},
             {12, 15},
             {},
             {15},
             {},
             {},
             {}];
InitialSolution = [1, 4, 8, 2, 6, 3, 7, 5, 10, 9, 12, 11, 13, 14, 15];