numResources = 4;
numTasks = 15;
Duration = [6, 7, 8, 6, 50, 50, 75, 200, 150, 150, 50, 7, 4, 6, 7];
ResourceCapability = [15, 15, 15, 17];
ResourceRequirement = [|7, 3, 8, 4, 4, 4, 1, 8, 7, 7, 2, 2, 2, 2, 4
                       |4, 4, 5, 4, 4, 10, 5, 10, 7, 2, 4, 4, 2, 8, 3
                       |8, 7, 10, 8, 4, 8, 10, 9, 1, 1, 5, 6, 4, 3, 1
                       |9, 5, 3, 5, 9, 7, 7, 9, 9, 6, 9, 5, 8, 1, 2|];
Successor = [{4, 5, 6, 7, 8, 9, 12, 13, 14, 15},
             {10, 11, 12, 13, 14, 15},
             {5, 8},
             {5, 7, 9, 12, 13, 14, 15},
             {},
             {9},
             {9, 14, 15},
             {},
             {},
             {11, 14, 15},
             {14},
             {13, 14, 15},
             {14},
             {},
             {}];
InitialSolution = [1, 4, 2, 7, 10, 12, 3, 6, 11, 13, 5, 8, 9, 14, 15];