numResources = 4;
numTasks = 15;
Duration = [7, 10, 1, 1, 175, 75, 50, 200, 100, 25, 100, 8, 2, 4, 10];
ResourceCapability = [16, 23, 17, 21];
ResourceRequirement = [|2, 0, 8, 6, 4, 10, 4, 5, 5, 0, 3, 0, 0, 2, 9
                       |0, 7, 1, 2, 3, 6, 8, 8, 6, 8, 5, 3, 6, 1, 7
                       |2, 0, 0, 4, 6, 0, 3, 6, 2, 9, 1, 1, 2, 9, 6
                       |1, 7, 10, 10, 1, 9, 1, 0, 0, 0, 4, 8, 4, 4, 10|];
Successor = [{8, 13, 14, 15},
             {4, 5, 7, 9, 10, 12, 13, 14, 15},
             {6, 9, 10, 11, 13, 14, 15},
             {10},
             {9, 12, 13, 14, 15},
             {9, 10, 13, 14},
             {10},
             {13, 14},
             {14},
             {},
             {14},
             {13, 14, 15},
             {14},
             {},
             {}];
InitialSolution = [2, 3, 5, 1, 6, 12, 8, 4, 7, 9, 11, 13, 10, 14, 15];