numResources = 4;
numTasks = 15;
Duration = [6, 1, 5, 6, 250, 250, 100, 225, 50, 100, 150, 7, 9, 9, 6];
ResourceCapability = [32, 20, 31, 23];
ResourceRequirement = [|0, 2, 0, 9, 6, 8, 0, 9, 0, 10, 1, 3, 10, 10, 0
                       |0, 7, 7, 0, 0, 0, 1, 2, 0, 5, 10, 0, 4, 0, 7
                       |2, 0, 0, 3, 0, 0, 0, 0, 0, 0, 0, 5, 0, 8, 1
                       |0, 7, 0, 10, 0, 5, 4, 0, 9, 2, 0, 9, 0, 3, 7|];
Successor = [{7, 9, 10, 12, 15},
             {5, 6, 7, 9, 10, 11, 12, 13, 15},
             {4, 8, 9, 12, 13, 14, 15},
             {9, 12, 14, 15},
             {10, 11, 12},
             {7, 9, 12, 15},
             {9, 12, 15},
             {9, 12, 13},
             {12},
             {},
             {},
             {},
             {},
             {15},
             {}];
InitialSolution = [2, 3, 1, 4, 6, 5, 7, 8, 9, 14, 10, 11, 12, 13, 15];