numResources = 4;
numTasks = 15;
Duration = [9, 10, 6, 9, 100, 200, 75, 100, 175, 125, 50, 1, 10, 9, 1];
ResourceCapability = [31, 34, 28, 26];
ResourceRequirement = [|3, 6, 3, 5, 3, 3, 2, 3, 6, 5, 9, 3, 6, 1, 0
                       |0, 8, 1, 5, 9, 1, 4, 0, 0, 0, 0, 3, 3, 0, 2
                       |0, 4, 1, 1, 1, 6, 10, 6, 7, 9, 9, 0, 8, 6, 5
                       |5, 3, 4, 4, 7, 1, 0, 0, 10, 5, 0, 0, 4, 0, 1|];
Successor = [{7, 8, 10, 11, 12, 13, 15},
             {4, 5, 6, 9, 10, 11, 12, 13, 14, 15},
             {8, 10, 11, 12, 13, 15},
             {13, 15},
             {6, 9, 11, 12, 14, 15},
             {9, 11, 12, 14, 15},
             {8, 10, 11, 12, 13, 15},
             {12, 15},
             {11, 15},
             {11},
             {},
             {},
             {},
             {},
             {}];
InitialSolution = [2, 1, 3, 5, 7, 6, 4, 8, 9, 10, 11, 12, 13, 14, 15];