numResources = 4;
numTasks = 15;
Duration = [5, 4, 6, 1, 100, 100, 200, 225, 125, 100, 75, 4, 2, 1, 10];
ResourceCapability = [34, 35, 35, 37];
ResourceRequirement = [|2, 3, 1, 2, 5, 9, 2, 8, 10, 6, 6, 6, 8, 9, 1
                       |4, 1, 3, 7, 8, 1, 9, 3, 5, 10, 7, 5, 2, 7, 5
                       |7, 7, 10, 7, 1, 9, 7, 1, 1, 9, 2, 10, 9, 9, 7
                       |9, 2, 2, 3, 5, 7, 3, 3, 2, 5, 5, 6, 1, 1, 9|];
Successor = [{4, 6, 8, 9, 10, 11, 12, 13, 14, 15},
             {},
             {5, 7, 8, 10, 12, 13, 15},
             {8, 10, 15},
             {7, 8, 10, 13, 15},
             {9, 11, 12, 13, 15},
             {8, 15},
             {15},
             {11, 12, 13},
             {15},
             {12, 13},
             {},
             {},
             {},
             {}];
InitialSolution = [1, 3, 5, 6, 4, 9, 7, 11, 8, 10, 2, 12, 13, 14, 15];