numResources = 4;
numTasks = 15;
Duration = [10, 8, 5, 2, 125, 250, 75, 150, 100, 100, 250, 2, 2, 1, 10];
ResourceCapability = [29, 24, 34, 23];
ResourceRequirement = [|0, 7, 3, 1, 5, 1, 4, 10, 1, 10, 2, 7, 2, 0, 3
                       |3, 0, 1, 5, 3, 3, 0, 9, 0, 0, 7, 1, 9, 9, 4
                       |0, 4, 7, 7, 9, 8, 1, 5, 0, 7, 10, 0, 7, 10, 9
                       |6, 7, 9, 8, 5, 7, 7, 10, 6, 4, 1, 0, 10, 10, 0|];
Successor = [{4, 6, 7, 10, 11, 13, 14, 15},
             {4, 5, 7, 8, 9, 10, 12, 13, 14, 15},
             {4, 5, 7, 8, 9, 10, 12, 14, 15},
             {},
             {7, 8, 9, 10, 12, 14, 15},
             {7, 10, 13, 14, 15},
             {10, 14},
             {9, 12, 15},
             {12, 15},
             {},
             {},
             {},
             {15},
             {},
             {}];
InitialSolution = [2, 3, 1, 5, 6, 8, 7, 9, 13, 4, 10, 11, 12, 14, 15];