numResources = 4;
numTasks = 15;
Duration = [5, 4, 10, 10, 50, 75, 225, 225, 75, 225, 50, 10, 2, 4, 1];
ResourceCapability = [25, 22, 23, 20];
ResourceRequirement = [|6, 0, 0, 0, 0, 9, 6, 5, 9, 2, 9, 10, 0, 3, 1
                       |0, 10, 0, 1, 3, 10, 10, 0, 1, 10, 0, 3, 6, 5, 2
                       |6, 0, 7, 6, 6, 1, 1, 7, 5, 0, 1, 0, 5, 0, 5
                       |3, 1, 1, 7, 6, 3, 0, 5, 4, 2, 9, 5, 9, 3, 5|];
Successor = [{5, 7, 9, 10, 11, 12, 13, 14, 15},
             {10, 13},
             {4, 6, 8, 10, 13, 14, 15},
             {10, 13},
             {},
             {14},
             {9, 10, 11, 12, 13, 14, 15},
             {15},
             {11, 12, 13, 15},
             {},
             {12, 15},
             {15},
             {},
             {},
             {}];
InitialSolution = [1, 3, 7, 9, 2, 4, 11, 6, 8, 12, 5, 10, 13, 14, 15];