numResources = 4;
numTasks = 15;
Duration = [1, 7, 6, 5, 200, 175, 125, 225, 225, 75, 150, 10, 7, 9, 6];
ResourceCapability = [21, 19, 26, 19];
ResourceRequirement = [|3, 10, 4, 5, 1, 4, 10, 5, 2, 8, 6, 2, 7, 8, 8
                       |7, 8, 3, 3, 2, 3, 8, 6, 8, 1, 6, 2, 1, 3, 9
                       |8, 8, 10, 3, 5, 5, 7, 10, 3, 8, 1, 7, 6, 2, 5
                       |2, 3, 8, 4, 2, 7, 6, 1, 7, 7, 4, 7, 3, 3, 6|];
Successor = [{6, 8, 9, 10, 11, 12, 13, 14, 15},
             {4, 5, 7, 11, 13, 14, 15},
             {13, 15},
             {},
             {11},
             {9, 11, 13, 14, 15},
             {13, 14, 15},
             {11},
             {11, 15},
             {12},
             {},
             {},
             {},
             {15},
             {}];
InitialSolution = [1, 2, 6, 7, 3, 9, 5, 8, 10, 14, 4, 11, 12, 13, 15];