numResources = 4;
numTasks = 15;
Duration = [10, 2, 10, 9, 225, 225, 225, 100, 150, 25, 25, 10, 5, 5, 1];
ResourceCapability = [17, 20, 23, 18];
ResourceRequirement = [|5, 0, 2, 6, 4, 3, 9, 0, 10, 5, 9, 1, 4, 6, 0
                       |3, 1, 0, 7, 0, 5, 8, 10, 10, 4, 0, 1, 5, 0, 4
                       |6, 0, 6, 6, 0, 10, 10, 8, 8, 6, 5, 3, 5, 1, 1
                       |9, 8, 6, 3, 0, 0, 7, 1, 8, 3, 9, 10, 0, 7, 5|];
Successor = [{11},
             {4, 6, 7, 8, 9, 12, 13, 14, 15},
             {5, 9, 10, 11, 15},
             {6, 9, 12, 13, 14, 15},
             {9, 11, 15},
             {9, 12, 14, 15},
             {15},
             {12, 13, 15},
             {15},
             {},
             {},
             {},
             {15},
             {},
             {}];
InitialSolution = [2, 4, 3, 6, 5, 8, 1, 7, 9, 13, 10, 11, 12, 14, 15];