numResources = 4;
numTasks = 15;
Duration = [5, 2, 9, 3, 50, 150, 125, 175, 25, 50, 175, 10, 7, 8, 1];
ResourceCapability = [27, 35, 25, 24];
ResourceRequirement = [|5, 7, 7, 6, 9, 4, 1, 5, 5, 6, 4, 2, 2, 10, 2
                       |4, 3, 1, 7, 2, 9, 3, 7, 1, 9, 9, 8, 8, 3, 2
                       |5, 3, 2, 4, 7, 7, 5, 3, 4, 2, 2, 10, 8, 2, 10
                       |2, 10, 5, 6, 2, 4, 2, 1, 2, 3, 1, 9, 1, 5, 9|];
Successor = [{5, 6, 7, 8, 9, 10, 12, 13, 14, 15},
             {11, 12, 13, 14},
             {4, 11, 13, 14, 15},
             {},
             {7, 9, 10, 13, 14, 15},
             {9, 10, 15},
             {13, 14},
             {12, 14, 15},
             {15},
             {},
             {13, 14},
             {},
             {},
             {},
             {}];
InitialSolution = [1, 5, 3, 2, 6, 8, 7, 11, 9, 4, 10, 12, 13, 14, 15];