numResources = 4;
numTasks = 15;
Duration = [2, 3, 3, 5, 150, 50, 200, 25, 250, 25, 200, 8, 9, 9, 8];
ResourceCapability = [14, 14, 16, 15];
ResourceRequirement = [|9, 1, 10, 6, 4, 2, 4, 6, 6, 9, 3, 2, 7, 9, 9
                       |8, 3, 6, 6, 1, 7, 10, 7, 6, 4, 8, 6, 3, 4, 9
                       |3, 3, 7, 9, 7, 4, 8, 10, 5, 4, 5, 9, 3, 8, 10
                       |9, 10, 9, 9, 1, 7, 8, 9, 8, 4, 5, 6, 7, 10, 5|];
Successor = [{4, 10, 11, 12, 13, 14, 15},
             {5, 6, 8, 9, 10, 11, 12, 13, 14, 15},
             {4, 7, 8, 11, 12, 13, 15},
             {},
             {6, 9, 10, 11, 12, 13, 15},
             {9, 12, 13},
             {8, 11, 12, 15},
             {12},
             {13},
             {11, 12, 13, 15},
             {12, 15},
             {},
             {},
             {},
             {}];
InitialSolution = [2, 1, 3, 5, 7, 10, 6, 11, 8, 9, 4, 12, 13, 14, 15];