numResources = 4;
numTasks = 15;
Duration = [1, 6, 9, 6, 50, 125, 175, 50, 175, 100, 125, 3, 7, 8, 7];
ResourceCapability = [32, 26, 31, 31];
ResourceRequirement = [|6, 2, 4, 7, 6, 7, 10, 3, 1, 7, 8, 10, 4, 4, 6
                       |5, 9, 5, 6, 7, 1, 5, 5, 6, 1, 4, 2, 3, 10, 7
                       |3, 9, 9, 8, 4, 4, 8, 4, 6, 5, 5, 9, 8, 2, 8
                       |5, 5, 8, 6, 5, 1, 5, 10, 8, 2, 4, 10, 10, 10, 8|];
Successor = [{7, 13, 14, 15},
             {4, 5, 6, 7, 8, 9, 10, 11, 13, 14, 15},
             {6, 10, 11, 12, 13, 14, 15},
             {8},
             {6, 7, 9, 15},
             {},
             {15},
             {},
             {15},
             {11, 13, 14, 15},
             {14, 15},
             {14},
             {},
             {},
             {}];
InitialSolution = [2, 3, 1, 5, 10, 11, 4, 7, 9, 12, 6, 8, 13, 14, 15];