numResources = 4;
numTasks = 15;
Duration = [10, 9, 4, 8, 25, 125, 200, 25, 175, 225, 150, 4, 10, 2, 9];
ResourceCapability = [20, 20, 21, 18];
ResourceRequirement = [|10, 10, 2, 4, 6, 10, 3, 6, 2, 0, 9, 6, 10, 4, 0
                       |10, 9, 9, 9, 9, 2, 3, 7, 1, 0, 9, 8, 3, 0, 3
                       |10, 2, 0, 7, 5, 9, 8, 5, 2, 9, 2, 2, 0, 2, 6
                       |0, 0, 0, 0, 1, 0, 0, 2, 7, 5, 4, 8, 9, 1, 1|];
Successor = [{10, 14},
             {4, 5, 6, 7, 8, 9, 10, 11, 12, 13, 14, 15},
             {9, 11, 12, 13, 14},
             {7, 8, 10, 11, 12, 14, 15},
             {9, 11, 13},
             {9, 11},
             {8, 10, 12, 14, 15},
             {12, 14, 15},
             {11},
             {},
             {},
             {14},
             {},
             {},
             {}];
InitialSolution = [2, 4, 3, 7, 5, 8, 1, 6, 9, 12, 10, 11, 13, 14, 15];