numResources = 4;
numTasks = 15;
Duration = [1, 9, 10, 4, 200, 50, 100, 175, 100, 250, 25, 7, 3, 6, 3];
ResourceCapability = [17, 16, 15, 17];
ResourceRequirement = [|1, 5, 3, 9, 10, 6, 3, 10, 6, 10, 10, 2, 4, 10, 8
                       |6, 5, 3, 1, 7, 10, 8, 6, 3, 9, 10, 4, 8, 6, 10
                       |4, 4, 4, 5, 2, 4, 10, 3, 6, 8, 8, 3, 10, 5, 1
                       |10, 5, 8, 3, 6, 2, 4, 2, 7, 10, 8, 8, 5, 10, 3|];
Successor = [{5, 9, 14},
             {5, 10, 14, 15},
             {4, 6, 7, 8, 10, 11, 12, 13, 14, 15},
             {12},
             {14},
             {10, 11, 13, 15},
             {8, 11, 12, 14, 15},
             {12, 15},
             {14},
             {15},
             {},
             {},
             {},
             {},
             {}];
InitialSolution = [3, 7, 2, 6, 1, 8, 4, 5, 9, 10, 11, 12, 13, 14, 15];