numResources = 4;
numTasks = 15;
Duration = [5, 4, 6, 4, 175, 150, 250, 75, 150, 175, 150, 7, 8, 4, 1];
ResourceCapability = [23, 20, 23, 21];
ResourceRequirement = [|7, 2, 3, 10, 0, 0, 0, 0, 4, 5, 8, 0, 0, 0, 8
                       |0, 0, 0, 2, 6, 0, 0, 10, 0, 0, 5, 1, 1, 0, 0
                       |6, 0, 0, 0, 0, 9, 2, 0, 9, 5, 5, 0, 0, 6, 0
                       |9, 0, 0, 10, 8, 9, 0, 0, 1, 0, 0, 0, 0, 0, 4|];
Successor = [{4, 5, 6, 7, 8, 10, 13, 14, 15},
             {5, 7, 8, 9, 11, 12, 13, 14, 15},
             {8},
             {5, 6, 7, 8, 14, 15},
             {8},
             {7, 15},
             {},
             {},
             {11, 12, 13, 14, 15},
             {14},
             {12, 15},
             {},
             {14},
             {},
             {}];
InitialSolution = [1, 2, 4, 9, 6, 11, 3, 5, 10, 13, 7, 8, 12, 14, 15];