numResources = 4;
numTasks = 15;
Duration = [9, 6, 10, 5, 150, 200, 75, 200, 175, 50, 100, 7, 10, 8, 6];
ResourceCapability = [14, 13, 12, 13];
ResourceRequirement = [|0, 7, 0, 5, 4, 9, 0, 0, 0, 5, 0, 4, 0, 0, 3
                       |6, 3, 0, 0, 7, 8, 0, 0, 0, 3, 0, 9, 4, 5, 0
                       |6, 1, 9, 0, 0, 8, 0, 0, 9, 5, 6, 0, 8, 6, 7
                       |0, 0, 1, 5, 8, 3, 9, 3, 3, 6, 0, 0, 0, 0, 6|];
Successor = [{4, 6, 8, 9, 10, 12, 13},
             {7, 14},
             {5, 11, 15},
             {8, 10, 12},
             {},
             {9, 13},
             {},
             {12},
             {13},
             {},
             {15},
             {},
             {},
             {},
             {}];
InitialSolution = [1, 3, 4, 2, 6, 8, 9, 11, 5, 7, 10, 12, 13, 14, 15];