numResources = 4;
numTasks = 15;
Duration = [1, 10, 4, 4, 75, 100, 225, 250, 50, 175, 25, 1, 2, 6, 10];
ResourceCapability = [13, 11, 17, 17];
ResourceRequirement = [|1, 0, 0, 0, 9, 0, 1, 3, 3, 0, 8, 0, 9, 0, 10
                       |0, 9, 0, 0, 0, 8, 0, 0, 4, 3, 0, 0, 0, 3, 0
                       |0, 4, 9, 0, 0, 5, 4, 0, 5, 1, 1, 3, 5, 0, 5
                       |0, 4, 9, 7, 0, 10, 0, 0, 0, 9, 7, 0, 0, 1, 9|];
Successor = [{4, 7, 8, 9, 10, 12},
             {5, 6, 11},
             {13, 14, 15},
             {7, 9, 10, 12},
             {},
             {},
             {12},
             {},
             {},
             {},
             {},
             {},
             {14, 15},
             {15},
             {}];
InitialSolution = [1, 4, 2, 3, 13, 7, 14, 5, 6, 8, 9, 10, 11, 12, 15];