numResources = 4;
numTasks = 15;
Duration = [3, 9, 4, 10, 225, 50, 100, 100, 250, 175, 175, 1, 6, 7, 1];
ResourceCapability = [15, 14, 12, 12];
ResourceRequirement = [|0, 0, 9, 10, 0, 2, 8, 0, 0, 10, 0, 3, 0, 0, 0
                       |0, 7, 0, 3, 0, 6, 0, 0, 0, 0, 2, 0, 10, 1, 1
                       |9, 0, 0, 3, 8, 1, 8, 4, 8, 0, 5, 0, 8, 5, 0
                       |0, 0, 2, 10, 4, 0, 4, 0, 0, 0, 6, 0, 0, 1, 5|];
Successor = [{9, 12},
             {4, 7, 10, 12, 13, 14, 15},
             {5, 6, 8, 11, 13},
             {7, 10, 12, 14, 15},
             {8, 11, 13},
             {},
             {10, 12, 15},
             {11, 13},
             {12},
             {12},
             {13},
             {},
             {},
             {},
             {}];
InitialSolution = [2, 3, 4, 5, 7, 1, 8, 9, 10, 11, 6, 12, 13, 14, 15];