numResources = 4;
numTasks = 15;
Duration = [4, 1, 1, 8, 100, 200, 175, 250, 225, 75, 250, 8, 5, 8, 1];
ResourceCapability = [14, 13, 14, 13];
ResourceRequirement = [|0, 8, 6, 0, 0, 0, 9, 2, 0, 0, 6, 0, 0, 10, 10
                       |0, 2, 2, 0, 4, 8, 0, 0, 9, 0, 0, 10, 0, 0, 7
                       |9, 0, 0, 4, 1, 3, 10, 2, 0, 6, 0, 0, 10, 4, 9
                       |0, 0, 0, 0, 0, 9, 0, 8, 0, 0, 8, 0, 0, 4, 5|];
Successor = [{},
             {6, 7, 9, 10, 12, 13, 14},
             {4, 5, 8, 11, 13, 15},
             {5, 11, 13, 15},
             {11, 15},
             {},
             {9, 10, 12, 14},
             {},
             {10, 12, 14},
             {},
             {15},
             {14},
             {},
             {},
             {}];
InitialSolution = [2, 3, 4, 7, 9, 5, 11, 12, 1, 6, 8, 10, 13, 14, 15];