numResources = 4;
numTasks = 15;
Duration = [1, 9, 4, 10, 250, 175, 50, 125, 175, 200, 225, 7, 3, 10, 3];
ResourceCapability = [21, 20, 15, 12];
ResourceRequirement = [|0, 9, 4, 0, 2, 10, 0, 4, 0, 8, 0, 0, 0, 2, 0
                       |6, 4, 1, 0, 8, 4, 0, 10, 0, 4, 0, 0, 7, 0, 6
                       |0, 9, 7, 7, 0, 2, 0, 0, 10, 0, 0, 0, 0, 2, 0
                       |0, 3, 9, 0, 4, 0, 5, 0, 0, 0, 2, 2, 0, 0, 0|];
Successor = [{8, 10, 13, 14},
             {4, 6, 7, 9, 15},
             {5, 11, 12, 13},
             {6, 9},
             {},
             {9},
             {15},
             {14},
             {},
             {13},
             {12, 13},
             {},
             {},
             {},
             {}];
InitialSolution = [2, 1, 3, 4, 11, 6, 7, 8, 10, 5, 9, 12, 13, 14, 15];