numResources = 4;
numTasks = 15;
Duration = [7, 1, 7, 7, 100, 250, 175, 225, 200, 225, 25, 3, 3, 10, 6];
ResourceCapability = [22, 20, 17, 25];
ResourceRequirement = [|3, 0, 0, 0, 9, 5, 0, 10, 6, 7, 0, 10, 0, 4, 0
                       |2, 0, 0, 0, 2, 10, 0, 0, 0, 0, 10, 0, 10, 0, 0
                       |0, 7, 4, 2, 10, 7, 8, 0, 0, 0, 8, 0, 0, 0, 7
                       |6, 5, 0, 10, 0, 2, 0, 4, 0, 0, 0, 10, 5, 5, 1|];
Successor = [{7, 15},
             {4, 5, 6, 7, 9, 10, 11, 12, 13, 14, 15},
             {8},
             {7, 15},
             {10, 14},
             {9, 11, 12, 13},
             {15},
             {},
             {11, 13},
             {14},
             {13},
             {},
             {},
             {},
             {}];
InitialSolution = [2, 6, 1, 4, 5, 9, 3, 7, 10, 11, 8, 12, 13, 14, 15];