numResources = 4;
numTasks = 15;
Duration = [5, 2, 7, 7, 175, 250, 25, 75, 50, 75, 150, 3, 10, 3, 10];
ResourceCapability = [24, 25, 19, 15];
ResourceRequirement = [|9, 7, 4, 8, 0, 6, 2, 0, 0, 6, 0, 0, 3, 8, 9
                       |0, 6, 0, 10, 1, 0, 10, 8, 0, 0, 3, 0, 0, 8, 0
                       |6, 0, 9, 10, 1, 5, 0, 0, 0, 1, 0, 1, 8, 0, 0
                       |0, 0, 0, 0, 2, 2, 9, 10, 9, 7, 0, 8, 0, 0, 0|];
Successor = [{4, 7, 8, 9, 10, 13, 15},
             {5, 8, 10, 11, 12},
             {6, 14},
             {7, 8, 10},
             {11},
             {},
             {8, 10},
             {10},
             {13, 15},
             {},
             {},
             {},
             {15},
             {},
             {}];
InitialSolution = [1, 2, 4, 3, 7, 9, 5, 8, 13, 6, 10, 11, 12, 14, 15];