numResources = 4;
numTasks = 15;
Duration = [1, 5, 4, 3, 100, 175, 100, 200, 200, 200, 50, 1, 3, 7, 7];
ResourceCapability = [22, 21, 16, 25];
ResourceRequirement = [|0, 7, 3, 0, 7, 5, 0, 5, 10, 0, 0, 1, 5, 0, 0
                       |8, 0, 10, 1, 0, 0, 4, 9, 7, 6, 4, 0, 0, 0, 7
                       |0, 6, 0, 0, 0, 0, 6, 0, 2, 0, 10, 0, 0, 0, 0
                       |2, 0, 5, 5, 7, 10, 0, 10, 0, 2, 0, 0, 10, 7, 0|];
Successor = [{4, 8, 9, 11, 12, 13, 14},
             {5, 7, 10, 11, 15},
             {6},
             {8, 11, 13, 14},
             {15},
             {},
             {11},
             {13, 14},
             {},
             {11},
             {},
             {14},
             {14},
             {},
             {}];
InitialSolution = [1, 2, 4, 8, 3, 5, 7, 10, 12, 13, 6, 9, 11, 14, 15];