numResources = 4;
numTasks = 15;
Duration = [9, 3, 6, 8, 200, 175, 75, 175, 25, 250, 25, 7, 7, 7, 6];
ResourceCapability = [17, 19, 23, 23];
ResourceRequirement = [|0, 5, 6, 7, 0, 0, 0, 0, 0, 8, 0, 0, 0, 0, 0
                       |0, 6, 9, 0, 5, 0, 0, 4, 0, 0, 0, 0, 6, 8, 3
                       |8, 0, 3, 10, 0, 0, 0, 0, 0, 9, 9, 8, 0, 0, 0
                       |7, 6, 9, 6, 0, 3, 2, 0, 5, 9, 9, 7, 2, 0, 8|];
Successor = [{},
             {5, 6, 7, 10, 11, 14, 15},
             {4, 7, 8, 9, 12, 13, 14, 15},
             {7, 8, 9, 13, 14, 15},
             {6, 7, 11, 14, 15},
             {11, 14, 15},
             {},
             {14, 15},
             {13},
             {15},
             {},
             {},
             {},
             {15},
             {}];
InitialSolution = [3, 2, 4, 5, 6, 8, 9, 10, 14, 1, 7, 11, 12, 13, 15];