numResources = 4;
numTasks = 15;
Duration = [4, 6, 5, 5, 125, 200, 200, 175, 25, 100, 125, 4, 6, 10, 2];
ResourceCapability = [22, 16, 18, 21];
ResourceRequirement = [|0, 6, 0, 0, 0, 0, 1, 7, 1, 7, 10, 7, 0, 0, 0
                       |0, 0, 2, 0, 0, 4, 1, 0, 0, 9, 7, 0, 0, 4, 10
                       |10, 0, 0, 0, 1, 0, 0, 0, 0, 10, 8, 0, 10, 7, 0
                       |6, 3, 0, 9, 9, 7, 8, 3, 0, 0, 7, 0, 5, 0, 8|];
Successor = [{6, 10, 13},
             {12, 14},
             {4, 5, 7, 8, 9, 11, 14, 15},
             {5, 7, 8, 9, 11, 14, 15},
             {8, 11, 14, 15},
             {13},
             {9},
             {},
             {},
             {},
             {15},
             {14},
             {},
             {},
             {}];
InitialSolution = [3, 4, 5, 1, 2, 6, 7, 11, 12, 8, 9, 10, 13, 14, 15];