numResources = 4;
numTasks = 15;
Duration = [5, 3, 1, 1, 125, 50, 50, 200, 225, 25, 100, 2, 4, 1, 1];
ResourceCapability = [27, 27, 29, 21];
ResourceRequirement = [|7, 4, 0, 6, 0, 3, 0, 3, 4, 0, 6, 10, 0, 5, 0
                       |0, 4, 2, 9, 0, 8, 8, 0, 3, 6, 0, 0, 1, 0, 0
                       |0, 0, 0, 0, 8, 0, 4, 0, 0, 9, 10, 0, 2, 0, 1
                       |3, 4, 1, 8, 0, 0, 0, 10, 9, 0, 9, 0, 0, 0, 0|];
Successor = [{4, 11, 15},
             {5, 6, 7, 8, 10, 12, 14},
             {9, 13},
             {11, 15},
             {6, 7, 8, 10, 12, 14},
             {8, 10, 12},
             {},
             {},
             {},
             {12},
             {},
             {},
             {},
             {},
             {}];
InitialSolution = [2, 5, 1, 6, 3, 4, 10, 7, 8, 9, 11, 12, 13, 14, 15];