numResources = 4;
numTasks = 15;
Duration = [3, 3, 8, 6, 200, 200, 125, 100, 200, 225, 75, 5, 10, 3, 4];
ResourceCapability = [13, 23, 13, 25];
ResourceRequirement = [|2, 0, 0, 0, 2, 0, 4, 0, 0, 0, 2, 10, 0, 8, 0
                       |0, 0, 7, 10, 0, 10, 10, 8, 0, 8, 0, 0, 1, 3, 2
                       |5, 2, 6, 0, 0, 3, 1, 0, 5, 4, 10, 8, 0, 2, 0
                       |5, 2, 4, 4, 7, 5, 0, 9, 0, 0, 0, 8, 0, 0, 0|];
Successor = [{8, 13},
             {5, 6, 12, 14, 15},
             {4, 7, 9, 10, 11, 15},
             {7, 9, 10, 15},
             {},
             {12, 15},
             {},
             {13},
             {10, 15},
             {15},
             {},
             {15},
             {},
             {},
             {}];
InitialSolution = [3, 2, 4, 1, 6, 9, 8, 10, 12, 5, 7, 11, 13, 14, 15];