numResources = 4;
numTasks = 15;
Duration = [4, 1, 8, 1, 250, 200, 100, 25, 250, 175, 225, 1, 4, 7, 10];
ResourceCapability = [23, 15, 22, 11];
ResourceRequirement = [|1, 1, 7, 3, 1, 0, 9, 0, 0, 8, 1, 0, 9, 0, 0
                       |3, 0, 4, 0, 0, 1, 5, 9, 4, 0, 2, 0, 3, 9, 6
                       |0, 0, 0, 0, 8, 10, 8, 10, 6, 2, 0, 4, 0, 6, 0
                       |1, 0, 0, 0, 0, 0, 0, 0, 7, 0, 4, 0, 0, 1, 0|];
Successor = [{5, 6, 9, 11, 12, 13, 15},
             {4, 7, 8, 10},
             {14},
             {10},
             {6, 9, 11, 12, 13, 15},
             {11, 12},
             {8},
             {},
             {15},
             {},
             {12},
             {},
             {},
             {},
             {}];
InitialSolution = [1, 5, 2, 6, 3, 4, 7, 9, 11, 8, 10, 12, 13, 14, 15];