numResources = 4;
numTasks = 15;
Duration = [9, 7, 5, 6, 100, 75, 125, 225, 150, 250, 175, 9, 9, 1, 4];
ResourceCapability = [17, 21, 30, 18];
ResourceRequirement = [|9, 2, 6, 1, 3, 0, 6, 0, 8, 0, 0, 0, 0, 6, 2
                       |4, 0, 2, 0, 0, 10, 0, 9, 1, 0, 6, 6, 0, 0, 0
                       |0, 2, 0, 7, 0, 10, 0, 9, 0, 7, 0, 7, 5, 0, 10
                       |0, 9, 4, 0, 0, 3, 0, 0, 4, 9, 3, 0, 5, 10, 0|];
Successor = [{5},
             {8, 9, 10, 13},
             {4, 6, 7, 11, 12, 14, 15},
             {6, 7, 12},
             {},
             {12},
             {},
             {9},
             {},
             {},
             {},
             {},
             {},
             {15},
             {}];
InitialSolution = [3, 2, 4, 1, 6, 8, 14, 5, 7, 9, 10, 11, 12, 13, 15];