numResources = 4;
numTasks = 15;
Duration = [9, 1, 1, 2, 225, 200, 125, 25, 200, 50, 250, 4, 4, 8, 7];
ResourceCapability = [21, 22, 27, 18];
ResourceRequirement = [|0, 0, 2, 0, 9, 4, 4, 0, 0, 3, 5, 3, 0, 0, 0
                       |0, 4, 0, 5, 0, 7, 7, 0, 7, 0, 0, 0, 3, 1, 0
                       |6, 4, 0, 0, 0, 5, 3, 9, 4, 5, 0, 0, 7, 0, 9
                       |0, 6, 0, 0, 8, 0, 2, 0, 0, 3, 0, 0, 0, 0, 0|];
Successor = [{5, 13},
             {4, 8, 11, 12, 15},
             {6, 7, 8, 9, 10, 14},
             {8, 11, 12, 15},
             {},
             {8, 10, 14},
             {},
             {},
             {14},
             {14},
             {12, 15},
             {},
             {},
             {},
             {}];
InitialSolution = [3, 2, 4, 6, 1, 11, 9, 10, 5, 7, 8, 12, 13, 14, 15];