numResources = 4;
numTasks = 15;
Duration = [6, 9, 7, 1, 50, 125, 175, 175, 175, 25, 75, 1, 8, 1, 7];
ResourceCapability = [32, 22, 26, 23];
ResourceRequirement = [|1, 7, 10, 1, 0, 5, 0, 0, 7, 8, 5, 0, 8, 9, 0
                       |0, 7, 0, 0, 0, 0, 0, 5, 2, 0, 6, 7, 0, 0, 0
                       |0, 3, 10, 8, 5, 10, 3, 1, 0, 3, 0, 0, 10, 0, 0
                       |2, 0, 3, 9, 9, 0, 9, 0, 0, 10, 0, 8, 4, 0, 9|];
Successor = [{6, 9},
             {7, 12, 13},
             {4, 5, 8, 10, 11, 12, 13, 14, 15},
             {10, 12, 13, 14},
             {8, 11, 15},
             {9},
             {},
             {15},
             {},
             {12, 13},
             {},
             {13},
             {},
             {},
             {}];
InitialSolution = [3, 4, 2, 5, 1, 10, 6, 8, 12, 7, 9, 11, 13, 14, 15];