numResources = 4;
numTasks = 15;
Duration = [6, 5, 3, 3, 200, 150, 200, 200, 150, 250, 200, 8, 6, 5, 2];
ResourceCapability = [40, 29, 22, 29];
ResourceRequirement = [|5, 5, 8, 3, 7, 1, 0, 0, 0, 9, 0, 5, 0, 10, 8
                       |0, 2, 0, 0, 6, 0, 7, 0, 8, 0, 0, 2, 0, 7, 3
                       |0, 8, 0, 5, 0, 1, 0, 9, 2, 0, 2, 2, 0, 2, 0
                       |0, 10, 0, 0, 0, 0, 9, 0, 0, 0, 7, 0, 5, 4, 1|];
Successor = [{4, 5, 6, 7, 13, 14},
             {8, 9, 10, 11, 12, 15},
             {8, 9, 11, 12, 15},
             {5, 6},
             {6},
             {},
             {13, 14},
             {9, 12, 15},
             {},
             {11},
             {},
             {15},
             {},
             {},
             {}];
InitialSolution = [1, 2, 3, 8, 4, 7, 5, 10, 12, 6, 9, 11, 13, 14, 15];