numResources = 4;
numTasks = 15;
Duration = [5, 4, 7, 3, 250, 100, 50, 175, 175, 75, 50, 4, 2, 2, 7];
ResourceCapability = [12, 15, 15, 16];
ResourceRequirement = [|5, 6, 8, 3, 5, 1, 5, 2, 1, 5, 2, 0, 3, 0, 3
                       |0, 7, 0, 9, 3, 8, 5, 3, 0, 9, 10, 4, 8, 1, 9
                       |8, 8, 4, 2, 6, 1, 0, 0, 0, 0, 4, 7, 2, 0, 5
                       |3, 0, 5, 8, 9, 8, 3, 0, 8, 6, 0, 4, 0, 2, 6|];
Successor = [{5, 8, 11, 12, 13, 14},
             {10, 15},
             {4, 6, 7, 9, 12, 13},
             {7, 12, 13},
             {11, 14},
             {9},
             {},
             {12, 13},
             {},
             {15},
             {14},
             {13},
             {},
             {},
             {}];
InitialSolution = [1, 3, 4, 2, 5, 8, 6, 10, 11, 12, 7, 9, 13, 14, 15];