numResources = 4;
numTasks = 15;
Duration = [10, 8, 8, 4, 75, 75, 50, 50, 100, 250, 225, 10, 9, 10, 5];
ResourceCapability = [13, 17, 19, 14];
ResourceRequirement = [|8, 6, 7, 7, 6, 0, 8, 8, 0, 0, 0, 3, 4, 0, 6
                       |0, 3, 3, 1, 2, 1, 3, 2, 8, 1, 4, 0, 6, 10, 0
                       |4, 0, 3, 6, 0, 0, 5, 1, 10, 10, 5, 4, 9, 7, 5
                       |4, 7, 8, 10, 10, 3, 8, 2, 0, 0, 0, 8, 3, 0, 0|];
Successor = [{4, 6, 12},
             {5, 7, 8, 9, 10, 11, 13, 14, 15},
             {},
             {6, 12},
             {7, 10, 14},
             {12},
             {},
             {},
             {11, 13, 15},
             {},
             {15},
             {},
             {},
             {},
             {}];
InitialSolution = [2, 1, 5, 9, 4, 6, 11, 3, 7, 8, 10, 12, 13, 14, 15];