numResources = 4;
numTasks = 15;
Duration = [9, 7, 3, 6, 175, 125, 225, 100, 250, 225, 150, 7, 8, 7, 8];
ResourceCapability = [13, 14, 14, 16];
ResourceRequirement = [|2, 10, 8, 0, 2, 5, 0, 4, 0, 4, 0, 0, 0, 10, 2
                       |0, 9, 8, 10, 0, 5, 6, 4, 7, 9, 3, 2, 9, 6, 4
                       |0, 9, 9, 4, 10, 3, 0, 3, 0, 9, 0, 7, 9, 0, 2
                       |10, 6, 0, 6, 8, 1, 6, 0, 4, 6, 6, 8, 8, 4, 0|];
Successor = [{8, 9, 10, 11, 12, 15},
             {4, 5, 6, 7, 9, 10, 13, 14, 15},
             {},
             {5, 7, 9, 10, 13, 14, 15},
             {9, 10, 15},
             {10, 15},
             {13},
             {9, 10, 15},
             {10, 15},
             {15},
             {},
             {},
             {},
             {},
             {}];
InitialSolution = [2, 4, 1, 5, 8, 6, 9, 7, 10, 3, 11, 12, 13, 14, 15];