numResources = 5;
numTasks = 200;
Duration = [23, 82, 84, 45, 38, 50, 41, 29, 18, 21, 16, 54, 52, 38, 52, 62, 57, 37, 74, 54, 68, 61, 30, 81, 57, 89, 89, 11, 79, 81, 66, 91, 33, 20, 20, 8, 24, 55, 32, 84, 7, 64, 39, 56, 54, 19, 40, 7, 8, 83, 63, 64, 91, 40, 6, 42, 61, 15, 98, 74, 80, 26, 75, 6, 87, 39, 22, 75, 24, 44, 15, 79, 8, 12, 20, 26, 43, 80, 22, 61, 62, 36, 63, 96, 40, 33, 18, 22, 5, 10, 64, 64, 89, 96, 95, 18, 23, 15, 38, 8, 23, 82, 84, 45, 38, 50, 41, 29, 18, 21, 16, 54, 52, 38, 52, 62, 57, 37, 74, 54, 68, 61, 30, 81, 57, 89, 89, 11, 79, 81, 66, 91, 33, 20, 20, 8, 24, 55, 32, 84, 7, 64, 39, 56, 54, 19, 40, 7, 8, 83, 63, 64, 91, 40, 6, 42, 61, 15, 98, 74, 80, 26, 75, 6, 87, 39, 22, 75, 24, 44, 15, 79, 8, 12, 20, 26, 43, 80, 22, 61, 62, 36, 63, 96, 40, 33, 18, 22, 5, 10, 64, 64, 89, 96, 95, 18, 23, 15, 38, 8];
ResourceCapability = [2, 2, 2, 2, 2];
ResourceRequirement = [|0, 1, 0, 0, 0, 0, 0, 0, 1, 0, 0, 0, 0, 0, 1, 0, 0, 0, 0, 1, 0, 0, 0, 1, 0, 0, 0, 0, 1, 0, 0, 1, 0, 0, 0, 0, 0, 0, 1, 0, 1, 0, 0, 0, 0, 1, 0, 0, 0, 0, 1, 0, 0, 0, 0, 0, 0, 0, 0, 1, 0, 1, 0, 0, 0, 0, 0, 1, 0, 0, 0, 0, 0, 1, 0, 0, 0, 1, 0, 0, 0, 0, 1, 0, 0, 0, 0, 1, 0, 0, 0, 0, 1, 0, 0, 0, 0, 0, 0, 1, 0, 1, 0, 0, 0, 0, 0, 0, 1, 0, 0, 0, 0, 0, 1, 0, 0, 0, 0, 1, 0, 0, 0, 1, 0, 0, 0, 0, 1, 0, 0, 1, 0, 0, 0, 0, 0, 0, 1, 0, 1, 0, 0, 0, 0, 1, 0, 0, 0, 0, 1, 0, 0, 0, 0, 0, 0, 0, 0, 1, 0, 1, 0, 0, 0, 0, 0, 1, 0, 0, 0, 0, 0, 1, 0, 0, 0, 1, 0, 0, 0, 0, 1, 0, 0, 0, 0, 1, 0, 0, 0, 0, 1, 0, 0, 0, 0, 0, 0, 1
                       |1, 0, 0, 0, 0, 0, 0, 1, 0, 0, 0, 0, 1, 0, 0, 1, 0, 0, 0, 0, 0, 1, 0, 0, 0, 1, 0, 0, 0, 0, 1, 0, 0, 0, 0, 0, 0, 0, 0, 1, 0, 0, 1, 0, 0, 0, 0, 0, 0, 1, 0, 0, 0, 0, 1, 1, 0, 0, 0, 0, 1, 0, 0, 0, 0, 0, 0, 0, 0, 1, 1, 0, 0, 0, 0, 0, 0, 0, 0, 1, 0, 1, 0, 0, 0, 1, 0, 0, 0, 0, 0, 0, 0, 1, 0, 0, 0, 0, 1, 0, 1, 0, 0, 0, 0, 0, 0, 1, 0, 0, 0, 0, 1, 0, 0, 1, 0, 0, 0, 0, 0, 1, 0, 0, 0, 1, 0, 0, 0, 0, 1, 0, 0, 0, 0, 0, 0, 0, 0, 1, 0, 0, 1, 0, 0, 0, 0, 0, 0, 1, 0, 0, 0, 0, 1, 1, 0, 0, 0, 0, 1, 0, 0, 0, 0, 0, 0, 0, 0, 1, 1, 0, 0, 0, 0, 0, 0, 0, 0, 1, 0, 1, 0, 0, 0, 1, 0, 0, 0, 0, 0, 0, 0, 1, 0, 0, 0, 0, 1, 0
                       |0, 0, 0, 1, 0, 0, 0, 0, 0, 1, 0, 0, 0, 1, 0, 0, 0, 0, 1, 0, 0, 0, 1, 0, 0, 0, 1, 0, 0, 0, 0, 0, 0, 0, 1, 0, 0, 1, 0, 0, 0, 1, 0, 0, 0, 0, 0, 0, 1, 0, 0, 1, 0, 0, 0, 0, 0, 0, 1, 0, 0, 0, 0, 0, 1, 1, 0, 0, 0, 0, 0, 0, 0, 0, 1, 0, 1, 0, 0, 0, 1, 0, 0, 0, 0, 0, 0, 0, 0, 1, 1, 0, 0, 0, 0, 1, 0, 0, 0, 0, 0, 0, 0, 1, 0, 0, 0, 0, 0, 1, 0, 0, 0, 1, 0, 0, 0, 0, 1, 0, 0, 0, 1, 0, 0, 0, 1, 0, 0, 0, 0, 0, 0, 0, 1, 0, 0, 1, 0, 0, 0, 1, 0, 0, 0, 0, 0, 0, 1, 0, 0, 1, 0, 0, 0, 0, 0, 0, 1, 0, 0, 0, 0, 0, 1, 1, 0, 0, 0, 0, 0, 0, 0, 0, 1, 0, 1, 0, 0, 0, 1, 0, 0, 0, 0, 0, 0, 0, 0, 1, 1, 0, 0, 0, 0, 1, 0, 0, 0, 0
                       |0, 0, 0, 0, 1, 1, 0, 0, 0, 0, 0, 1, 0, 0, 0, 0, 1, 0, 0, 0, 1, 0, 0, 0, 0, 0, 0, 1, 0, 0, 0, 0, 1, 0, 0, 1, 0, 0, 0, 0, 0, 0, 0, 0, 1, 0, 0, 1, 0, 0, 0, 0, 1, 0, 0, 0, 1, 0, 0, 0, 0, 0, 1, 0, 0, 0, 0, 0, 1, 0, 0, 1, 0, 0, 0, 1, 0, 0, 0, 0, 0, 0, 0, 1, 0, 0, 1, 0, 0, 0, 0, 0, 0, 0, 1, 0, 0, 1, 0, 0, 0, 0, 0, 0, 1, 1, 0, 0, 0, 0, 0, 1, 0, 0, 0, 0, 1, 0, 0, 0, 1, 0, 0, 0, 0, 0, 0, 1, 0, 0, 0, 0, 1, 0, 0, 1, 0, 0, 0, 0, 0, 0, 0, 0, 1, 0, 0, 1, 0, 0, 0, 0, 1, 0, 0, 0, 1, 0, 0, 0, 0, 0, 1, 0, 0, 0, 0, 0, 1, 0, 0, 1, 0, 0, 0, 1, 0, 0, 0, 0, 0, 0, 0, 1, 0, 0, 1, 0, 0, 0, 0, 0, 0, 0, 1, 0, 0, 1, 0, 0
                       |0, 0, 1, 0, 0, 0, 1, 0, 0, 0, 1, 0, 0, 0, 0, 0, 0, 1, 0, 0, 0, 0, 0, 0, 1, 0, 0, 0, 0, 1, 0, 0, 0, 1, 0, 0, 1, 0, 0, 0, 0, 0, 0, 1, 0, 0, 1, 0, 0, 0, 0, 0, 0, 1, 0, 0, 0, 1, 0, 0, 0, 0, 0, 1, 0, 0, 1, 0, 0, 0, 0, 0, 1, 0, 0, 0, 0, 0, 1, 0, 0, 0, 0, 0, 1, 0, 0, 0, 1, 0, 0, 1, 0, 0, 0, 0, 1, 0, 0, 0, 0, 0, 1, 0, 0, 0, 1, 0, 0, 0, 1, 0, 0, 0, 0, 0, 0, 1, 0, 0, 0, 0, 0, 0, 1, 0, 0, 0, 0, 1, 0, 0, 0, 1, 0, 0, 1, 0, 0, 0, 0, 0, 0, 1, 0, 0, 1, 0, 0, 0, 0, 0, 0, 1, 0, 0, 0, 1, 0, 0, 0, 0, 0, 1, 0, 0, 1, 0, 0, 0, 0, 0, 1, 0, 0, 0, 0, 0, 1, 0, 0, 0, 0, 0, 1, 0, 0, 0, 1, 0, 0, 1, 0, 0, 0, 0, 1, 0, 0, 0|];
Successor = [{2, 3, 4, 5},
             {3, 4, 5},
             {4, 5},
             {5},
             {},
             {7, 8, 9, 10},
             {8, 9, 10},
             {9, 10},
             {10},
             {},
             {12, 13, 14, 15},
             {13, 14, 15},
             {14, 15},
             {15},
             {},
             {17, 18, 19, 20},
             {18, 19, 20},
             {19, 20},
             {20},
             {},
             {22, 23, 24, 25},
             {23, 24, 25},
             {24, 25},
             {25},
             {},
             {27, 28, 29, 30},
             {28, 29, 30},
             {29, 30},
             {30},
             {},
             {32, 33, 34, 35},
             {33, 34, 35},
             {34, 35},
             {35},
             {},
             {37, 38, 39, 40},
             {38, 39, 40},
             {39, 40},
             {40},
             {},
             {42, 43, 44, 45},
             {43, 44, 45},
             {44, 45},
             {45},
             {},
             {47, 48, 49, 50},
             {48, 49, 50},
             {49, 50},
             {50},
             {},
             {52, 53, 54, 55},
             {53, 54, 55},
             {54, 55},
             {55},
             {},
             {57, 58, 59, 60},
             {58, 59, 60},
             {59, 60},
             {60},
             {},
             {62, 63, 64, 65},
             {63, 64, 65},
             {64, 65},
             {65},
             {},
             {67, 68, 69, 70},
             {68, 69, 70},
             {69, 70},
             {70},
             {},
             {72, 73, 74, 75},
             {73, 74, 75},
             {74, 75},
             {75},
             {},
             {77, 78, 79, 80},
             {78, 79, 80},
             {79, 80},
             {80},
             {},
             {82, 83, 84, 85},
             {83, 84, 85},
             {84, 85},
             {85},
             {},
             {87, 88, 89, 90},
             {88, 89, 90},
             {89, 90},
             {90},
             {},
             {92, 93, 94, 95},
             {93, 94, 95},
             {94, 95},
             {95},
             {},
             {97, 98, 99, 100},
             {98, 99, 100},
             {99, 100},
             {100},
             {},
             {102, 103, 104, 105},
             {103, 104, 105},
             {104, 105},
             {105},
             {},
             {107, 108, 109, 110},
             {108, 109, 110},
             {109, 110},
             {110},
             {},
             {112, 113, 114, 115},
             {113, 114, 115},
             {114, 115},
             {115},
             {},
             {117, 118, 119, 120},
             {118, 119, 120},
             {119, 120},
             {120},
             {},
             {122, 123, 124, 125},
             {123, 124, 125},
             {124, 125},
             {125},
             {},
             {127, 128, 129, 130},
             {128, 129, 130},
             {129, 130},
             {130},
             {},
             {132, 133, 134, 135},
             {133, 134, 135},
             {134, 135},
             {135},
             {},
             {137, 138, 139, 140},
             {138, 139, 140},
             {139, 140},
             {140},
             {},
             {142, 143, 144, 145},
             {143, 144, 145},
             {144, 145},
             {145},
             {},
             {147, 148, 149, 150},
             {148, 149, 150},
             {149, 150},
             {150},
             {},
             {152, 153, 154, 155},
             {153, 154, 155},
             {154, 155},
             {155},
             {},
             {157, 158, 159, 160},
             {158, 159, 160},
             {159, 160},
             {160},
             {},
             {162, 163, 164, 165},
             {163, 164, 165},
             {164, 165},
             {165},
             {},
             {167, 168, 169, 170},
             {168, 169, 170},
             {169, 170},
             {170},
             {},
             {172, 173, 174, 175},
             {173, 174, 175},
             {174, 175},
             {175},
             {},
             {177, 178, 179, 180},
             {178, 179, 180},
             {179, 180},
             {180},
             {},
             {182, 183, 184, 185},
             {183, 184, 185},
             {184, 185},
             {185},
             {},
             {187, 188, 189, 190},
             {188, 189, 190},
             {189, 190},
             {190},
             {},
             {192, 193, 194, 195},
             {193, 194, 195},
             {194, 195},
             {195},
             {},
             {197, 198, 199, 200},
             {198, 199, 200},
             {199, 200},
             {200},
             {}];
InitialSolution = [1, 6, 11, 16, 21, 26, 31, 36, 41, 46, 51, 56, 61, 66, 71, 76, 81, 86, 91, 96, 101, 106, 111, 116, 121, 126, 131, 136, 141, 146, 151, 156, 161, 166, 171, 176, 181, 186, 191, 196, 2, 7, 12, 17, 22, 27, 32, 37, 42, 47, 52, 57, 62, 67, 72, 77, 82, 87, 92, 97, 102, 107, 112, 117, 122, 127, 132, 137, 142, 147, 152, 157, 162, 167, 172, 177, 182, 187, 192, 197, 3, 8, 13, 18, 23, 28, 33, 38, 43, 48, 53, 58, 63, 68, 73, 78, 83, 88, 93, 98, 103, 108, 113, 118, 123, 128, 133, 138, 143, 148, 153, 158, 163, 168, 173, 178, 183, 188, 193, 198, 4, 9, 14, 19, 24, 29, 34, 39, 44, 49, 54, 59, 64, 69, 74, 79, 84, 89, 94, 99, 104, 109, 114, 119, 124, 129, 134, 139, 144, 149, 154, 159, 164, 169, 174, 179, 184, 189, 194, 199, 5, 10, 15, 20, 25, 30, 35, 40, 45, 50, 55, 60, 65, 70, 75, 80, 85, 90, 95, 100, 105, 110, 115, 120, 125, 130, 135, 140, 145, 150, 155, 160, 165, 170, 175, 180, 185, 190, 195, 200];