numResources = 3;
numTasks = 23;
Duration = [156, 166, 3, 1, 3, 4, 150, 169, 4, 2, 208, 346, 283, 2, 239, 3, 119, 166, 1, 3, 4, 5, 3];
ResourceCapability = [5, 7, 8];
ResourceRequirement = [|4, 2, 3, 1, 1, 2, 3, 1, 4, 2, 2, 3, 5, 3, 2, 3, 4, 2, 4, 3, 1, 4, 5
                       |2, 2, 2, 2, 1, 2, 1, 2, 1, 1, 2, 1, 2, 2, 1, 1, 1, 1, 2, 2, 2, 2, 2
                       |1, 2, 1, 3, 2, 1, 3, 3, 1, 1, 1, 3, 1, 1, 3, 2, 1, 1, 3, 3, 3, 3, 1|];
Successor = [{5},
             {7, 10, 12, 13, 19},
             {10},
             {},
             {},
             {},
             {12, 13, 19},
             {20},
             {},
             {},
             {19},
             {13, 19},
             {19},
             {},
             {},
             {},
             {19, 20, 21},
             {},
             {},
             {},
             {},
             {},
             {}];
InitialSolution = [2, 7, 17, 12, 1, 3, 8, 11, 13, 4, 5, 6, 9, 10, 14, 15, 16, 18, 19, 20, 21, 22, 23];