numResources = 3;
numTasks = 33;
Duration = [208, 333, 4, 213, 104, 3, 1, 283, 261, 113, 2, 250, 288, 6, 1, 153, 235, 5, 208, 6, 150, 3, 3, 115, 2, 3, 5, 173, 153, 3, 4, 2, 1];
ResourceCapability = [5, 9, 8];
ResourceRequirement = [|3, 1, 5, 4, 1, 1, 1, 2, 4, 2, 1, 2, 4, 5, 3, 2, 3, 3, 3, 2, 3, 3, 3, 2, 3, 2, 2, 1, 1, 5, 2, 2, 5
                       |1, 2, 1, 3, 1, 1, 2, 3, 3, 1, 3, 2, 2, 2, 3, 1, 3, 2, 2, 1, 3, 1, 3, 1, 2, 2, 3, 1, 1, 1, 1, 3, 1
                       |2, 2, 1, 3, 3, 2, 3, 3, 2, 1, 3, 3, 1, 3, 2, 3, 1, 1, 1, 1, 3, 3, 2, 1, 1, 2, 2, 2, 2, 3, 2, 3, 2|];
Successor = [{10, 11, 13, 15, 25},
             {7, 12, 14, 18, 23, 28},
             {4, 14, 17, 20, 21, 22, 23, 24, 25, 29, 31, 32},
             {17, 21, 22, 23, 24, 25, 29, 31, 32},
             {13, 14, 15, 23},
             {22, 24, 25, 29, 32},
             {18, 23, 28},
             {},
             {17, 21, 23, 31},
             {13, 15},
             {},
             {14},
             {15},
             {},
             {},
             {},
             {21, 23, 31},
             {23},
             {},
             {21, 23, 32},
             {23},
             {24, 25, 29, 32},
             {},
             {29, 32},
             {},
             {},
             {},
             {},
             {32},
             {},
             {},
             {},
             {}];
InitialSolution = [3, 4, 2, 1, 6, 5, 9, 22, 7, 17, 20, 10, 24, 12, 13, 18, 21, 29, 8, 11, 14, 15, 16, 19, 23, 25, 26, 27, 28, 30, 31, 32, 33];