numResources = 3;
numTasks = 29;
Duration = [2, 159, 222, 169, 3, 2, 104, 3, 4, 169, 117, 4, 119, 111, 1, 3, 102, 2, 111, 2, 2, 2, 179, 3, 1, 3, 3, 150, 230];
ResourceCapability = [7, 7, 9];
ResourceRequirement = [|2, 3, 2, 1, 3, 2, 2, 2, 2, 3, 4, 2, 2, 1, 2, 4, 5, 2, 3, 3, 3, 2, 3, 3, 3, 2, 2, 3, 5
                       |2, 2, 2, 2, 2, 1, 1, 1, 2, 2, 1, 1, 2, 1, 2, 2, 1, 1, 2, 1, 2, 2, 1, 1, 1, 2, 1, 1, 2
                       |3, 2, 2, 3, 3, 1, 1, 1, 3, 3, 3, 2, 2, 2, 1, 1, 2, 3, 3, 1, 1, 1, 2, 3, 3, 2, 3, 3, 2|];
Successor = [{5, 20},
             {4, 10},
             {},
             {10},
             {},
             {},
             {24},
             {17},
             {14, 18},
             {},
             {15},
             {19, 20},
             {17},
             {18},
             {},
             {27},
             {},
             {},
             {20},
             {},
             {},
             {},
             {},
             {},
             {},
             {},
             {},
             {},
             {}];
InitialSolution = [1, 2, 9, 12, 4, 7, 8, 11, 13, 14, 16, 19, 3, 5, 6, 10, 15, 17, 18, 20, 21, 22, 23, 24, 25, 26, 27, 28, 29];