numResources = 3;
numTasks = 21;
Duration = [104, 239, 1, 4, 2, 222, 106, 113, 2, 4, 113, 2, 3, 104, 169, 100, 213, 3, 3, 2, 2];
ResourceCapability = [7, 8, 7];
ResourceRequirement = [|1, 2, 1, 1, 2, 2, 3, 4, 3, 2, 3, 3, 2, 4, 3, 3, 3, 2, 4, 1, 5
                       |3, 2, 3, 2, 1, 2, 1, 2, 3, 3, 3, 2, 2, 1, 2, 3, 1, 3, 3, 2, 1
                       |1, 2, 1, 2, 2, 1, 2, 2, 2, 1, 1, 1, 2, 2, 2, 1, 2, 1, 1, 1, 1|];
Successor = [{},
             {7, 9, 10, 15, 18},
             {},
             {},
             {9, 11, 15, 16, 18},
             {},
             {9, 10, 15, 18},
             {},
             {15, 18},
             {},
             {16},
             {},
             {17, 18},
             {},
             {},
             {},
             {},
             {},
             {},
             {},
             {}];
InitialSolution = [2, 5, 7, 9, 13, 11, 1, 3, 4, 6, 8, 10, 12, 14, 15, 16, 17, 18, 19, 20, 21];