numResources = 2;
numTasks = 23;
Duration = [626, 832, 13, 17, 5, 18, 900, 283, 9, 6, 730, 461, 679, 15, 1078, 10, 598, 888, 19, 8, 12, 14, 15];
ResourceCapability = [9, 9];
ResourceRequirement = [|2, 2, 2, 3, 2, 3, 3, 2, 2, 2, 3, 3, 2, 2, 2, 3, 3, 2, 3, 3, 2, 2, 3
                       |3, 3, 3, 3, 2, 3, 3, 3, 3, 2, 3, 3, 2, 3, 2, 3, 2, 2, 2, 3, 2, 3, 3|];
Successor = [{21},
             {},
             {11, 12},
             {},
             {11, 13},
             {},
             {},
             {10, 17, 22},
             {11, 12},
             {17},
             {},
             {},
             {},
             {15, 17, 19, 21},
             {17, 21},
             {},
             {},
             {},
             {},
             {},
             {},
             {},
             {}];
InitialSolution = [14, 8, 3, 5, 9, 15, 1, 10, 2, 4, 6, 7, 11, 12, 13, 16, 17, 18, 19, 20, 21, 22, 23];