numResources = 3;
numTasks = 24;
Duration = [111, 2, 250, 4, 1, 3, 208, 115, 5, 104, 277, 208, 113, 50, 6, 300, 213, 5, 3, 2, 6, 6, 3, 51];
ResourceCapability = [5, 9, 7];
ResourceRequirement = [|1, 3, 1, 1, 1, 2, 2, 2, 5, 1, 2, 3, 3, 2, 3, 5, 3, 2, 4, 3, 5, 4, 4, 5
                       |2, 1, 3, 3, 2, 3, 1, 1, 2, 2, 3, 3, 2, 1, 2, 1, 3, 1, 1, 1, 3, 3, 3, 3
                       |1, 2, 1, 1, 1, 2, 1, 2, 2, 1, 2, 2, 1, 2, 2, 1, 2, 1, 1, 1, 1, 2, 1, 2|];
Successor = [{7, 8, 12, 18, 19},
             {9, 23},
             {16},
             {6, 10, 14, 16, 18},
             {22},
             {10, 14, 16, 18},
             {8, 12, 18},
             {12},
             {},
             {18},
             {18},
             {},
             {20, 23},
             {18},
             {},
             {},
             {},
             {},
             {},
             {},
             {},
             {},
             {},
             {}];
InitialSolution = [1, 4, 6, 7, 2, 13, 3, 5, 8, 10, 11, 14, 9, 12, 15, 16, 17, 18, 19, 20, 21, 22, 23, 24];