numResources = 3;
numTasks = 20;
Duration = [261, 2, 106, 150, 5, 359, 250, 3, 5, 104, 3, 6, 319, 1, 339, 5, 56, 5, 5, 3];
ResourceCapability = [5, 8, 7];
ResourceRequirement = [|4, 5, 1, 1, 2, 2, 1, 2, 2, 5, 1, 2, 5, 3, 1, 4, 4, 4, 4, 4
                       |1, 2, 3, 1, 3, 2, 1, 3, 2, 3, 2, 1, 3, 1, 3, 2, 2, 3, 2, 1
                       |2, 1, 1, 1, 1, 1, 1, 2, 1, 2, 2, 2, 2, 1, 1, 1, 2, 1, 1, 1|];
Successor = [{},
             {},
             {19},
             {},
             {12},
             {18},
             {15},
             {},
             {16},
             {},
             {16},
             {},
             {},
             {},
             {},
             {},
             {},
             {},
             {},
             {}];
InitialSolution = [3, 5, 6, 7, 9, 11, 1, 2, 4, 8, 10, 12, 13, 14, 15, 16, 17, 18, 19, 20];