numResources = 2;
numTasks = 23;
Duration = [469, 610, 12, 16, 8, 16, 950, 509, 12, 19, 783, 577, 283, 15, 419, 18, 718, 1054, 15, 18, 16, 19, 16];
ResourceCapability = [7, 8];
ResourceRequirement = [|2, 2, 2, 2, 2, 2, 2, 2, 2, 2, 2, 2, 2, 2, 2, 2, 2, 2, 2, 2, 2, 2, 2
                       |3, 3, 3, 2, 2, 3, 2, 3, 3, 3, 2, 3, 2, 2, 2, 3, 3, 3, 2, 2, 2, 3, 2|];
Successor = [{2, 14, 18},
             {18},
             {},
             {22},
             {},
             {19},
             {17, 20},
             {13, 14, 19},
             {},
             {14, 18},
             {15, 21},
             {},
             {},
             {},
             {21},
             {22},
             {},
             {},
             {},
             {},
             {},
             {},
             {}];
InitialSolution = [1, 8, 7, 10, 11, 2, 4, 6, 15, 16, 3, 5, 9, 12, 13, 14, 17, 18, 19, 20, 21, 22, 23];