numResources = 3;
numTasks = 25;
Duration = [2, 3, 2, 250, 2, 3, 213, 176, 5, 208, 6, 239, 4, 111, 5, 3, 200, 111, 283, 3, 5, 3, 2, 59, 113];
ResourceCapability = [5, 7, 7];
ResourceRequirement = [|1, 4, 3, 1, 3, 2, 2, 2, 1, 2, 2, 3, 3, 3, 3, 4, 3, 2, 2, 1, 5, 4, 3, 2, 5
                       |2, 2, 2, 2, 1, 1, 1, 1, 2, 2, 2, 2, 2, 2, 2, 2, 1, 2, 1, 2, 1, 1, 1, 1, 1
                       |1, 1, 2, 2, 1, 1, 1, 2, 2, 1, 1, 2, 1, 2, 2, 1, 2, 2, 2, 1, 1, 2, 1, 2, 1|];
Successor = [{},
             {19},
             {},
             {10},
             {},
             {13},
             {},
             {23},
             {},
             {},
             {},
             {},
             {},
             {15},
             {},
             {},
             {22},
             {},
             {},
             {21, 23},
             {23},
             {},
             {},
             {},
             {}];
InitialSolution = [20, 2, 4, 6, 8, 14, 17, 21, 1, 3, 5, 7, 9, 10, 11, 12, 13, 15, 16, 18, 19, 22, 23, 24, 25];