numResources = 3;
numTasks = 18;
Duration = [14, 634, 283, 11, 12, 626, 6, 12, 459, 419, 6, 679, 555, 11, 8, 5, 777, 12];
ResourceCapability = [7, 9, 8];
ResourceRequirement = [|4, 2, 2, 3, 3, 3, 4, 2, 2, 3, 2, 2, 4, 2, 2, 2, 3, 4
                       |2, 3, 3, 3, 5, 6, 2, 4, 4, 5, 4, 2, 2, 2, 4, 6, 2, 4
                       |5, 3, 3, 2, 5, 5, 4, 5, 2, 5, 4, 3, 5, 4, 2, 2, 5, 5|];
Successor = [{7, 9, 17},
             {3, 14, 17},
             {14},
             {7, 17},
             {},
             {},
             {},
             {13},
             {},
             {},
             {},
             {13},
             {},
             {},
             {},
             {},
             {},
             {}];
InitialSolution = [1, 2, 4, 3, 8, 12, 5, 6, 7, 9, 10, 11, 13, 14, 15, 16, 17, 18];