numResources = 2;
numTasks = 18;
Duration = [6, 288, 1075, 13, 7, 991, 5, 6, 255, 1138, 18, 339, 388, 8, 11, 6, 388, 8];
ResourceCapability = [10, 8];
ResourceRequirement = [|4, 4, 4, 4, 4, 4, 3, 4, 3, 3, 4, 4, 3, 3, 4, 3, 4, 3
                       |3, 2, 3, 2, 2, 3, 3, 3, 3, 3, 3, 2, 3, 3, 2, 3, 2, 3|];
Successor = [{2, 6, 8, 12, 15, 17},
             {12, 17},
             {6, 8, 15},
             {6, 8, 15},
             {7, 9, 12, 13, 14},
             {8, 15},
             {},
             {15},
             {12},
             {},
             {},
             {},
             {},
             {},
             {},
             {},
             {},
             {}];
InitialSolution = [1, 5, 3, 4, 2, 6, 8, 9, 7, 10, 11, 12, 13, 14, 15, 16, 17, 18];