numResources = 2;
numTasks = 18;
Duration = [7, 403, 1075, 19, 12, 678, 18, 14, 664, 658, 15, 566, 721, 13, 17, 5, 499, 14];
ResourceCapability = [7, 8];
ResourceRequirement = [|2, 2, 2, 2, 2, 2, 2, 2, 2, 2, 2, 2, 2, 2, 2, 2, 2, 2
                       |3, 3, 2, 2, 2, 3, 3, 2, 3, 2, 2, 2, 3, 3, 2, 2, 2, 3|];
Successor = [{8, 9, 12, 13},
             {4, 7, 14, 16, 17},
             {9, 12},
             {},
             {6, 15},
             {15},
             {16},
             {},
             {12},
             {15, 16, 17},
             {},
             {},
             {},
             {17},
             {},
             {},
             {},
             {}];
InitialSolution = [2, 1, 10, 3, 5, 6, 7, 9, 14, 4, 8, 11, 12, 13, 15, 16, 17, 18];