numResources = 3;
numTasks = 24;
Duration = [222, 5, 250, 1, 3, 2, 261, 173, 6, 104, 166, 208, 113, 200, 2, 200, 319, 1, 1, 2, 3, 3, 4, 102];
ResourceCapability = [5, 8, 8];
ResourceRequirement = [|2, 1, 3, 2, 3, 2, 2, 2, 1, 4, 2, 3, 3, 1, 3, 3, 5, 3, 4, 4, 3, 4, 5, 5
                       |1, 1, 2, 1, 3, 1, 3, 3, 3, 2, 1, 3, 1, 2, 1, 3, 1, 2, 3, 1, 1, 2, 1, 2
                       |3, 2, 2, 1, 3, 1, 2, 1, 2, 3, 2, 1, 2, 3, 3, 1, 1, 2, 1, 1, 2, 2, 2, 2|];
Successor = [{12, 15},
             {10},
             {12, 15},
             {11, 12, 15},
             {},
             {},
             {},
             {},
             {},
             {},
             {12, 15},
             {15},
             {},
             {},
             {},
             {},
             {21},
             {},
             {},
             {},
             {},
             {},
             {},
             {}];
InitialSolution = [4, 1, 3, 11, 2, 12, 17, 5, 6, 7, 8, 9, 10, 13, 14, 15, 16, 18, 19, 20, 21, 22, 23, 24];