numResources = 3;
numTasks = 18;
Duration = [18, 1038, 849, 10, 16, 626, 13, 11, 715, 838, 13, 849, 832, 18, 10, 13, 666, 19];
ResourceCapability = [7, 9, 5];
ResourceRequirement = [|3, 3, 1, 3, 2, 2, 3, 2, 2, 3, 1, 1, 2, 1, 2, 3, 3, 3
                       |2, 2, 2, 2, 2, 2, 2, 2, 2, 2, 2, 2, 2, 2, 2, 2, 2, 2
                       |2, 2, 2, 2, 2, 2, 2, 2, 2, 2, 2, 2, 2, 2, 2, 2, 2, 2|];
Successor = [{11},
             {16},
             {4, 7},
             {7},
             {},
             {10, 15, 16},
             {},
             {17},
             {12},
             {},
             {},
             {},
             {},
             {16},
             {},
             {},
             {},
             {}];
InitialSolution = [6, 3, 1, 2, 4, 8, 9, 14, 5, 7, 10, 11, 12, 13, 15, 16, 17, 18];