numResources = 3;
numTasks = 24;
Duration = [166, 6, 150, 2, 6, 5, 208, 115, 5, 208, 222, 52, 339, 200, 6, 100, 159, 6, 4, 4, 4, 4, 6, 51];
ResourceCapability = [5, 9, 9];
ResourceRequirement = [|2, 3, 3, 1, 2, 5, 1, 2, 4, 1, 2, 4, 3, 3, 2, 2, 1, 4, 5, 2, 5, 5, 1, 3
                       |1, 3, 2, 1, 1, 1, 2, 2, 2, 2, 2, 2, 3, 2, 3, 3, 1, 2, 3, 3, 1, 2, 1, 2
                       |3, 2, 3, 2, 2, 2, 1, 1, 3, 3, 3, 3, 3, 2, 1, 3, 1, 1, 2, 2, 3, 2, 1, 2|];
Successor = [{7},
             {},
             {5},
             {},
             {},
             {8, 10, 12, 14, 15, 17, 19, 22},
             {},
             {15, 17, 22},
             {},
             {12, 17, 19},
             {18},
             {17, 19},
             {},
             {17, 19},
             {22},
             {23},
             {},
             {},
             {},
             {},
             {},
             {},
             {},
             {}];
InitialSolution = [6, 8, 10, 12, 14, 1, 3, 11, 15, 16, 2, 4, 5, 7, 9, 13, 17, 18, 19, 20, 21, 22, 23, 24];