numResources = 3;
numTasks = 22;
Duration = [4, 2, 6, 169, 5, 5, 113, 346, 111, 156, 226, 113, 261, 4, 5, 2, 111, 3, 100, 2, 208, 5];
ResourceCapability = [5, 8, 8];
ResourceRequirement = [|3, 4, 1, 4, 4, 4, 3, 4, 3, 5, 3, 5, 3, 5, 4, 5, 4, 4, 4, 4, 4, 3
                       |3, 2, 3, 2, 3, 3, 3, 1, 3, 3, 3, 2, 1, 3, 2, 2, 3, 3, 2, 1, 1, 3
                       |2, 1, 1, 2, 1, 2, 2, 2, 3, 3, 1, 1, 3, 1, 3, 2, 3, 2, 3, 2, 2, 1|];
Successor = [{},
             {20},
             {},
             {7, 15, 20},
             {10},
             {},
             {15, 20},
             {},
             {},
             {},
             {},
             {},
             {},
             {},
             {20},
             {},
             {},
             {},
             {},
             {},
             {},
             {}];
InitialSolution = [4, 7, 2, 5, 15, 1, 3, 6, 8, 9, 10, 11, 12, 13, 14, 16, 17, 18, 19, 20, 21, 22];