numResources = 5;
numTasks = 18;
Duration = [17, 1096, 452, 11, 5, 991, 10, 6, 919, 479, 7, 283, 610, 11, 12, 9, 444, 16];
ResourceCapability = [10, 7, 7, 7, 5];
ResourceRequirement = [|3, 5, 6, 4, 4, 3, 3, 6, 6, 2, 3, 4, 5, 6, 4, 6, 4, 5
                       |2, 2, 2, 2, 2, 2, 2, 2, 2, 2, 2, 2, 2, 2, 2, 2, 2, 2
                       |2, 2, 2, 2, 2, 2, 2, 2, 2, 2, 2, 2, 2, 2, 2, 2, 2, 2
                       |2, 2, 2, 2, 2, 2, 2, 2, 2, 2, 2, 2, 2, 2, 2, 2, 2, 2
                       |2, 2, 2, 2, 2, 2, 2, 2, 2, 2, 2, 2, 2, 2, 2, 2, 2, 2|];
Successor = [{10},
             {4, 7, 9, 10, 17},
             {11},
             {9, 17},
             {14, 15, 17},
             {},
             {10},
             {},
             {},
             {},
             {},
             {},
             {},
             {},
             {},
             {},
             {},
             {}];
InitialSolution = [2, 5, 4, 1, 3, 7, 6, 8, 9, 10, 11, 12, 13, 14, 15, 16, 17, 18];