n = 10;
D = [91,203,83,145,291,137,274,186,156,117 ];
q = 0;
prec = array2d(1..0,1..2,[]);
steps = 64;
l = 360;
r = 0;
which = [];
interval = array2d(1..0,1..2,[]);
T = array3d(1..11,1..11,0..64,[0,0,0,0,0,0,0,0,0,0,0,0,0,0,0,0,0,0,0,0,0,0,0,0,0,0,0,0,0,0,0,0,0,0,0,0,0,0,0,0,0,0,0,0,0,0,0,0,0,0,0,0,0,0,0,0,0,0,0,0,0,0,0,0,0,974,956,940,984,1009,1204,1355,1471,1491,1498,1515,1496,1446,1450,1409,1394,1422,1393,1358,1280,1259,1280,1273,1204,1202,1165,1150,1107,1137,1059,1046,1037,1017,1047,987,954,936,953,970,983,991,991,1008,992,990,997,990,996,1008,1007,1014,1031,1021,1014,989,1004,1008,999,991,1009,1006,1001,996,1003,997,1028,1082,1035,1044,1163,1246,1430,1598,1720,1668,1656,1706,1663,1586,1601,1545,1529,1477,1518,1427,1448,1410,1380,1321,1368,1283,1241,1231,1227,1199,1175,1199,1082,1086,1044,1041,1047,1111,1069,1068,1072,1078,1080,1080,1089,1085,1089,1095,1087,1093,1120,1093,1095,1091,1103,1106,1105,1110,1111,1106,1123,1111,1106,1115,1110,1398,1384,1407,1506,1677,1950,2106,2238,2269,2321,2308,2326,2202,2219,2141,2110,2066,2026,1981,1944,1896,1889,1828,1787,1718,1696,1661,1649,1578,1565,1527,1445,1431,1412,1400,1400,1438,1421,1473,1478,1479,1513,1472,1518,1487,1513,1498,1512,1519,1499,1499,1495,1521,1526,1520,1529,1536,1518,1532,1518,1514,1531,1547,1551,1529,296,297,298,299,300,316,358,400,442,483,496,488,480,472,464,456,448,440,432,424,416,409,401,393,385,377,369,361,353,345,337,329,321,313,306,301,302,303,291,294,293,302,302,303,297,303,295,297,307,320,335,345,341,312,301,304,310,317,314,299,304,305,295,297,299,1334,1274,1355,1447,1541,1695,1904,2029,2056,2053,2074,2027,1970,1987,1986,1926,1858,1874,1857,1740,1716,1702,1744,1656,1624,1574,1553,1548,1531,1411,1434,1391,1358,1370,1314,1383,1327,1313,1357,1401,1368,1381,1404,1395,1381,1403,1396,1398,1410,1381,1391,1405,1405,1407,1418,1420,1419,1412,1432,1424,1429,1450,1460,1447,1440,1373,1314,1398,1497,1607,1797,1967,2090,2117,2112,2133,2085,2061,2043,2019,1981,1912,1944,1909,1790,1783,1780,1792,1703,1670,1627,1631,1617,1573,1466,1475,1431,1411,1410,1368,1347,1380,1353,1432,1406,1406,1413,1460,1476,1450,1442,1445,1459,1491,1478,1513,1476,1496,1489,1527,1468,1490,1519,1547,1531,1501,1514,1551,1608,1509,1025,1082,1036,1054,1127,1248,1414,1620,1705,1672,1674,1696,1669,1588,1606,1534,1539,1478,1524,1428,1448,1374,1345,1321,1319,1262,1241,1211,1187,1199,1174,1171,1081,1056,1043,1040,1046,1101,1127,1111,1088,1096,1091,1114,1104,1120,1118,1180,1112,1152,1147,1153,1122,1193,1159,1111,1108,1103,1138,1168,1150,1180,1164,1164,1138,889,950,902,902,954,1050,1190,1382,1482,1443,1448,1487,1457,1382,1401,1336,1309,1286,1318,1243,1278,1196,1173,1150,1151,1101,1080,1054,1034,1057,1027,1031,941,919,903,900,905,946,927,925,931,937,936,930,935,960,942,940,935,938,938,938,942,947,966,943,938,950,950,940,947,944,958,944,938,960,942,928,971,993,1148,1329,1445,1466,1470,1491,1470,1422,1428,1388,1372,1356,1375,1338,1262,1242,1264,1254,1186,1185,1147,1146,1093,1121,1043,1033,1040,1003,1033,973,940,924,956,974,966,969,981,974,980,977,978,989,974,985,970,988,978,982,982,976,986,976,990,974,980,983,996,977,983,973,0,0,0,0,0,0,0,0,0,0,0,0,0,0,0,0,0,0,0,0,0,0,0,0,0,0,0,0,0,0,0,0,0,0,0,0,0,0,0,0,0,0,0,0,0,0,0,0,0,0,0,0,0,0,0,0,0,0,0,0,0,0,0,0,0,726,728,730,732,758,839,950,1132,1199,1189,1189,1170,1151,1132,1113,1094,1106,1054,1120,1019,1000,981,962,943,924,905,1015,867,848,830,811,792,773,754,761,737,739,738,740,738,737,759,740,731,732,749,752,755,730,744,761,741,772,745,747,751,770,746,739,746,758,749,760,745,745,0,0,0,0,0,0,0,0,0,0,0,0,0,0,0,0,0,0,0,0,0,0,0,0,0,0,0,0,0,0,0,0,0,0,0,0,0,0,0,0,0,0,0,0,0,0,0,0,0,0,0,0,0,0,0,0,0,0,0,0,0,0,0,0,0,401,429,404,405,397,438,493,564,592,669,655,653,661,645,631,607,612,590,580,569,585,548,538,515,517,505,519,474,487,464,444,464,423,449,438,409,408,410,404,402,411,423,415,417,404,412,409,407,410,408,411,411,412,423,418,416,408,416,411,423,418,416,416,423,417,747,749,767,782,792,1001,1064,1331,1321,1383,1351,1326,1301,1276,1251,1268,1201,1176,1174,1158,1123,1098,1042,1063,1002,977,944,927,902,869,852,827,803,823,754,760,765,762,761,764,775,786,772,783,774,791,767,781,775,766,770,776,781,784,783,779,770,770,783,776,769,769,766,786,774,708,757,759,770,793,884,927,1035,1174,1160,1238,1222,1199,1185,1090,1142,1101,1102,1012,997,1040,1021,938,981,901,882,864,904,882,862,842,824,755,785,744,768,768,793,761,764,753,784,777,772,784,785,771,770,778,784,781,771,771,782,774,774,778,778,769,767,768,779,775,774,755,467,476,487,488,474,515,617,681,763,773,778,788,758,739,765,726,726,735,743,707,709,648,636,620,608,647,604,589,563,540,548,540,502,490,478,499,483,477,484,481,481,488,481,486,486,491,485,483,485,478,486,481,486,487,484,486,484,490,488,484,484,499,486,491,486,506,515,526,528,515,570,670,740,827,836,841,850,819,819,843,787,802,791,830,792,793,700,687,670,657,695,651,650,623,583,617,582,544,544,518,539,523,516,529,530,519,545,536,532,545,552,531,530,536,548,544,530,530,539,537,538,534,537,525,527,526,531,537,531,519,391,399,394,395,408,421,477,549,596,625,632,623,619,604,621,612,581,595,569,558,548,537,527,531,506,504,485,475,472,461,439,440,434,419,409,407,410,409,396,397,399,406,406,412,407,415,411,404,415,407,401,404,406,415,403,404,409,407,406,404,404,411,399,411,402,263,263,264,265,266,289,316,353,391,427,440,433,426,419,412,405,398,391,384,377,370,363,356,349,341,334,327,320,313,306,299,292,285,278,271,267,267,268,284,249,245,245,263,263,262,254,253,261,291,264,271,280,282,281,251,262,276,288,300,286,257,259,291,251,248,107,107,108,108,108,110,124,138,151,165,175,173,170,167,165,162,159,157,154,151,149,146,143,141,138,135,132,130,127,124,122,119,116,114,111,109,109,109,95,100,95,97,101,96,97,97,96,96,96,97,94,96,96,97,96,96,97,95,96,97,95,97,95,96,95,726,728,730,732,758,839,950,1132,1199,1189,1189,1170,1151,1132,1113,1094,1106,1054,1120,1019,1000,981,962,943,924,905,1015,867,848,830,811,792,773,754,761,737,739,738,740,738,737,759,740,731,732,749,752,755,730,744,761,741,772,745,747,751,770,746,739,746,758,749,760,745,745,914,899,860,865,910,1012,1240,1276,1360,1396,1393,1403,1349,1474,1502,1313,1260,1238,1216,1193,1283,1149,1127,1105,1082,1060,1093,1016,994,995,949,927,905,884,892,973,902,933,898,913,915,919,927,944,927,934,914,928,921,920,919,929,937,946,936,945,928,936,944,928,921,914,928,934,913,391,392,393,394,396,425,494,525,609,603,614,606,598,590,582,574,566,558,583,542,534,527,534,525,518,506,497,488,463,452,442,432,422,411,401,397,398,399,388,380,391,401,400,396,387,387,396,409,399,400,402,445,469,448,440,407,392,411,397,394,389,402,397,419,392,0,0,0,0,0,0,0,0,0,0,0,0,0,0,0,0,0,0,0,0,0,0,0,0,0,0,0,0,0,0,0,0,0,0,0,0,0,0,0,0,0,0,0,0,0,0,0,0,0,0,0,0,0,0,0,0,0,0,0,0,0,0,0,0,0,541,542,543,545,551,625,735,845,939,1006,1005,986,1038,949,930,911,892,873,854,835,816,797,778,780,740,722,703,675,665,646,619,608,589,570,552,549,553,556,554,555,556,562,565,560,564,565,557,563,560,564,563,569,570,570,568,561,573,567,572,575,569,577,562,567,567,837,858,842,896,949,990,1118,1329,1332,1446,1442,1379,1325,1373,1369,1289,1303,1212,1190,1249,1214,1128,1165,1084,1119,1040,1085,996,972,976,981,909,887,913,874,896,884,901,883,890,888,902,920,915,906,916,897,913,920,943,939,948,942,920,914,916,930,938,929,912,929,930,906,911,908,554,575,551,554,562,613,691,806,910,940,955,941,914,898,871,853,817,852,812,798,784,783,770,756,738,728,714,690,678,679,731,603,589,575,562,558,559,564,577,568,593,578,587,625,579,586,593,614,636,613,614,622,616,607,592,596,582,607,582,592,596,596,587,595,629,593,615,604,594,604,661,748,888,996,1003,1039,1002,974,957,949,930,873,926,876,851,837,853,820,805,803,775,776,751,723,723,773,645,630,614,601,597,599,603,603,602,613,614,596,615,607,609,610,623,637,621,622,618,616,624,621,619,607,619,641,623,625,613,614,638,633,84,84,84,84,85,86,98,109,121,132,141,139,137,135,132,130,128,126,123,121,119,116,114,112,110,107,105,103,101,98,96,94,91,89,87,85,85,85,63,63,64,64,64,64,64,64,64,65,65,65,65,65,65,65,66,66,66,66,66,66,66,67,67,67,67,209,210,210,211,211,218,244,269,294,320,333,328,323,318,313,308,303,298,294,289,284,279,274,269,264,259,254,250,245,240,235,230,225,220,215,212,212,213,196,205,198,218,197,211,200,216,203,209,204,198,208,204,210,208,207,205,209,205,215,205,203,208,204,210,210,330,312,332,332,333,332,376,418,445,472,486,481,476,471,465,460,455,450,467,439,434,429,417,409,401,393,385,377,369,361,352,344,354,346,339,334,335,336,320,319,322,322,323,323,324,323,322,327,322,323,325,328,331,330,335,327,330,325,327,325,327,332,325,331,325,914,899,860,865,910,1012,1240,1276,1360,1396,1393,1403,1349,1474,1502,1313,1260,1238,1216,1193,1283,1149,1127,1105,1082,1060,1093,1016,994,995,949,927,905,884,892,973,902,933,898,913,915,919,927,944,927,934,914,928,921,920,919,929,937,946,936,945,928,936,944,928,921,914,928,934,913,1310,1278,1304,1436,1505,1746,2056,2047,2180,2206,2180,2143,2125,2067,2001,2060,2002,1960,1943,1864,1803,1789,1747,1666,1629,1622,1560,1539,1499,1463,1475,1413,1377,1347,1309,1288,1314,1320,1391,1388,1391,1465,1447,1406,1410,1428,1418,1445,1482,1441,1440,1432,1434,1437,1447,1429,1421,1422,1410,1409,1398,1426,1430,1429,1380,964,912,969,934,977,1194,1327,1491,1564,1632,1597,1637,1541,1513,1558,1497,1429,1387,1382,1344,1316,1323,1260,1257,1204,1175,1148,1155,1116,1064,1035,1039,1025,953,936,974,973,969,970,966,984,1008,989,996,982,1012,989,1011,996,984,1004,1028,1055,1049,1026,1013,985,1006,993,983,985,1014,1009,1014,980,655,657,672,652,678,771,915,1031,1123,1204,1187,1166,1144,1122,1100,1078,1070,1035,1013,991,957,937,926,904,882,861,839,836,795,774,752,730,708,686,668,666,670,674,697,683,652,648,689,674,671,667,669,671,739,680,699,707,716,698,685,698,692,729,756,701,691,690,753,697,679,0,0,0,0,0,0,0,0,0,0,0,0,0,0,0,0,0,0,0,0,0,0,0,0,0,0,0,0,0,0,0,0,0,0,0,0,0,0,0,0,0,0,0,0,0,0,0,0,0,0,0,0,0,0,0,0,0,0,0,0,0,0,0,0,0,1292,1260,1261,1474,1480,1721,1980,2022,2155,2182,2156,2119,2102,2044,1978,1969,1979,1880,1863,1842,1782,1739,1726,1643,1609,1652,1541,1520,1480,1445,1456,1393,1357,1329,1289,1270,1296,1302,1342,1348,1359,1380,1367,1373,1360,1366,1355,1355,1371,1361,1392,1405,1394,1376,1369,1381,1379,1388,1387,1366,1389,1388,1358,1372,1371,940,943,946,957,1019,1133,1278,1409,1501,1525,1525,1506,1482,1453,1428,1399,1384,1357,1334,1315,1287,1262,1238,1210,1186,1163,1141,1113,1100,1065,1050,1017,990,983,960,954,974,971,974,970,973,993,990,990,994,990,988,998,1003,994,996,1029,1051,1036,1023,1000,993,1006,992,991,980,1007,994,1008,977,917,925,923,930,995,1114,1221,1349,1430,1468,1454,1439,1418,1396,1416,1348,1325,1307,1285,1256,1233,1211,1188,1166,1162,1120,1100,1078,1060,1034,1012,1017,973,947,933,930,955,928,937,976,939,946,976,960,953,960,959,968,970,950,960,963,973,975,971,977,973,966,978,971,985,994,1000,990,983,618,619,642,623,637,725,850,974,1079,1132,1132,1111,1090,1067,1048,1034,1006,982,962,943,920,901,880,859,844,815,801,792,754,733,710,691,670,649,630,628,632,635,636,645,636,651,640,634,652,659,648,653,642,641,636,638,648,646,653,659,640,652,657,651,654,655,646,641,639,706,759,711,686,716,806,953,1083,1190,1239,1238,1216,1195,1173,1151,1129,1107,1077,1064,1029,1010,998,984,938,916,893,870,905,833,802,789,757,744,737,694,691,695,699,701,694,709,729,717,716,713,714,721,728,724,718,752,752,772,752,744,729,708,730,718,715,712,732,718,738,709,905,876,946,895,932,1156,1230,1415,1503,1545,1538,1549,1484,1454,1471,1437,1376,1333,1320,1293,1265,1275,1211,1186,1159,1132,1129,1078,1040,1024,997,1002,1000,917,899,887,901,906,960,954,934,943,940,955,948,960,967,1031,965,1013,1007,1015,970,1038,1020,960,959,960,1004,1036,1005,1029,1023,1017,996,1310,1278,1304,1436,1505,1746,2056,2047,2180,2206,2180,2143,2125,2067,2001,2060,2002,1960,1943,1864,1803,1789,1747,1666,1629,1622,1560,1539,1499,1463,1475,1413,1377,1347,1309,1288,1314,1320,1391,1388,1391,1465,1447,1406,1410,1428,1418,1445,1482,1441,1440,1432,1434,1437,1447,1429,1421,1422,1410,1409,1398,1426,1430,1429,1380,355,356,357,358,359,381,431,481,531,576,589,579,570,561,552,542,533,524,514,505,496,486,477,468,458,449,440,430,421,412,402,393,384,375,365,360,361,362,365,350,350,351,349,354,354,354,354,351,355,349,351,351,350,351,355,354,351,353,354,355,350,360,353,357,355,805,822,824,828,904,1003,1155,1238,1303,1352,1339,1292,1347,1379,1254,1212,1211,1238,1180,1172,1125,1139,1083,1092,1040,1019,1039,1028,954,971,897,927,869,834,861,874,834,867,850,859,858,870,875,879,864,885,861,870,864,864,869,882,884,891,889,891,875,881,891,884,881,890,896,908,892,969,991,990,1002,1050,1150,1308,1487,1523,1554,1561,1568,1555,1561,1490,1423,1422,1436,1402,1373,1299,1275,1293,1224,1244,1176,1202,1124,1134,1153,1073,1019,994,1002,969,999,1046,994,1012,1008,1020,1011,1032,1037,1055,1053,1023,1044,1045,1043,1045,1040,1039,1072,1050,1043,1036,1034,1022,1046,1034,1039,1027,1050,1050,1316,1338,1346,1419,1555,1789,2052,2136,2164,2167,2164,2126,2175,2248,2058,2057,2002,1910,1971,1927,1811,1739,1702,1660,1635,1619,1609,1521,1484,1523,1427,1399,1351,1333,1305,1327,1368,1350,1360,1357,1358,1360,1368,1378,1374,1381,1389,1401,1395,1405,1406,1396,1420,1410,1447,1411,1417,1435,1420,1438,1428,1420,1444,1435,1447,0,0,0,0,0,0,0,0,0,0,0,0,0,0,0,0,0,0,0,0,0,0,0,0,0,0,0,0,0,0,0,0,0,0,0,0,0,0,0,0,0,0,0,0,0,0,0,0,0,0,0,0,0,0,0,0,0,0,0,0,0,0,0,0,0,1172,1222,1211,1240,1352,1507,1727,1836,1919,1909,1918,1828,1891,1811,1790,1734,1720,1726,1665,1635,1581,1648,1516,1516,1462,1433,1442,1433,1344,1319,1275,1302,1239,1190,1192,1211,1217,1223,1267,1275,1248,1264,1256,1302,1266,1285,1296,1356,1277,1311,1295,1307,1288,1346,1313,1275,1273,1268,1287,1306,1302,1327,1306,1315,1284,1219,1211,1253,1287,1405,1567,1790,1920,1980,1970,1977,1906,1981,1887,1865,1789,1774,1753,1717,1686,1631,1681,1564,1564,1524,1479,1487,1491,1387,1361,1329,1342,1278,1253,1245,1251,1257,1263,1307,1315,1306,1312,1384,1352,1348,1363,1322,1397,1359,1392,1375,1349,1340,1388,1356,1359,1374,1348,1335,1379,1368,1396,1372,1363,1386,981,990,989,1001,1015,1151,1312,1434,1530,1573,1567,1520,1560,1521,1492,1438,1441,1393,1364,1378,1300,1275,1248,1224,1198,1176,1183,1125,1097,1111,1074,1027,1004,1001,968,1001,1006,1003,1029,1007,1007,1004,1013,1029,1021,1031,1032,1060,1037,1054,1055,1060,1044,1068,1045,1030,1031,1028,1050,1069,1043,1066,1063,1057,1040,830,859,850,852,850,959,1095,1208,1294,1343,1337,1309,1347,1318,1289,1239,1241,1203,1175,1189,1118,1096,1075,1052,1032,1011,1022,966,979,962,924,883,870,861,828,866,867,862,867,836,832,868,830,858,928,953,939,859,847,831,845,862,877,876,938,876,877,883,875,879,886,855,832,844,829,793,810,812,814,889,985,1131,1213,1281,1328,1315,1266,1335,1355,1231,1193,1192,1220,1160,1154,1108,1120,1067,1076,1022,1004,1025,1012,941,958,884,915,857,838,823,860,822,853,848,843,850,850,848,878,858,854,855,860,867,862,851,855,863,866,859,879,874,890,870,859,870,850,873,861,846,355,356,357,358,359,381,431,481,531,576,589,579,570,561,552,542,533,524,514,505,496,486,477,468,458,449,440,430,421,412,402,393,384,375,365,360,361,362,365,350,350,351,349,354,354,354,354,351,355,349,351,351,350,351,355,354,351,353,354,355,350,360,353,357,355,1256,1273,1256,1345,1473,1712,1728,1935,1949,1971,1954,1960,1996,1867,1838,1916,1818,1783,1757,1673,1694,1611,1580,1587,1552,1674,1571,1444,1490,1421,1381,1333,1292,1274,1328,1268,1346,1283,1361,1332,1330,1348,1330,1364,1342,1345,1371,1427,1349,1365,1415,1367,1376,1432,1384,1367,1361,1360,1406,1467,1489,1516,1503,1398,1388,530,535,522,528,537,571,609,716,766,808,811,804,796,779,769,774,762,745,733,694,712,669,656,643,624,644,609,592,612,598,594,574,552,540,529,532,524,525,523,515,523,549,524,534,521,526,531,525,547,527,530,527,517,537,532,531,521,525,524,527,531,524,530,553,527,768,750,752,754,828,858,956,1098,1131,1162,1162,1145,1128,1111,1094,1077,1060,1115,1026,1009,992,970,985,941,924,1015,886,873,856,839,822,801,816,772,760,758,760,762,784,743,752,748,748,768,751,762,754,768,781,764,753,766,760,782,774,777,759,766,766,769,777,774,771,805,776,871,874,877,883,969,1031,1171,1299,1399,1423,1423,1401,1375,1419,1346,1307,1285,1262,1239,1217,1197,1172,1149,1126,1104,1081,1059,1036,1014,991,968,948,934,902,888,885,887,892,877,902,900,897,916,890,907,921,901,898,922,891,911,902,921,928,1075,1032,945,908,905,899,897,893,908,951,885,1222,1234,1238,1293,1421,1532,1703,1849,1907,2035,1932,1927,1938,1843,1815,1795,1811,1749,1735,1652,1630,1608,1559,1525,1489,1487,1495,1406,1397,1357,1341,1329,1274,1264,1258,1238,1248,1265,1294,1290,1300,1337,1303,1334,1310,1309,1306,1302,1337,1303,1311,1321,1318,1333,1329,1329,1305,1310,1317,1319,1309,1318,1309,1348,1312,0,0,0,0,0,0,0,0,0,0,0,0,0,0,0,0,0,0,0,0,0,0,0,0,0,0,0,0,0,0,0,0,0,0,0,0,0,0,0,0,0,0,0,0,0,0,0,0,0,0,0,0,0,0,0,0,0,0,0,0,0,0,0,0,0,55,55,55,55,55,56,63,70,76,83,89,88,87,85,84,83,81,80,79,77,76,74,73,72,70,69,68,66,65,64,62,61,60,58,57,56,56,56,26,26,26,27,27,27,27,29,26,27,28,36,27,27,27,27,27,27,27,31,27,27,27,27,27,27,27,739,721,723,725,795,822,916,1054,1088,1119,1120,1103,1087,1070,1054,1038,1021,1076,988,972,955,934,950,906,890,981,852,840,824,808,791,771,786,742,731,728,730,732,717,759,716,715,735,718,728,736,732,738,755,726,730,737,743,741,739,755,748,745,762,732,751,755,775,737,735,790,815,784,854,830,905,984,1153,1256,1236,1288,1271,1203,1201,1183,1161,1142,1156,1099,1054,1064,1015,1005,975,950,963,921,967,910,918,925,852,823,804,793,796,789,791,798,801,797,814,806,805,804,822,802,802,810,805,805,806,802,806,806,810,807,814,808,810,804,817,805,812,802,593,580,581,583,599,638,687,812,853,902,897,884,860,848,838,823,810,797,785,772,760,751,737,724,696,715,659,659,660,649,637,642,612,599,586,585,583,576,590,577,575,584,592,609,588,587,598,599,591,588,590,591,593,572,580,594,590,599,578,578,595,591,580,582,571,1256,1273,1256,1345,1473,1712,1728,1935,1949,1971,1954,1960,1996,1867,1838,1916,1818,1783,1757,1673,1694,1611,1580,1587,1552,1674,1571,1444,1490,1421,1381,1333,1292,1274,1328,1268,1346,1283,1361,1332,1330,1348,1330,1364,1342,1345,1371,1427,1349,1365,1415,1367,1376,1432,1384,1367,1361,1360,1406,1467,1489,1516,1503,1398,1388,1304,1237,1222,1311,1532,1583,1774,1898,1945,1967,1988,1928,1998,1837,1832,1818,1806,1756,1752,1693,1724,1661,1573,1539,1622,1510,1449,1521,1449,1385,1396,1343,1380,1342,1250,1338,1266,1314,1327,1360,1363,1360,1404,1373,1378,1407,1366,1395,1403,1404,1384,1371,1402,1424,1398,1399,1425,1394,1379,1381,1372,1384,1384,1402,1352,522,488,490,527,533,573,644,686,745,776,819,803,796,747,735,771,743,711,757,686,710,698,648,635,623,642,597,626,637,590,587,567,595,543,498,526,527,496,514,516,517,518,531,515,527,533,519,532,523,521,530,529,525,530,537,530,541,532,529,525,526,533,537,533,538,721,723,729,731,757,830,920,1022,1155,1131,1131,1114,1230,1081,1065,1049,1032,1016,999,977,966,950,949,916,899,927,866,849,832,816,799,782,800,745,738,735,737,734,744,733,733,739,733,735,797,795,749,771,751,733,738,772,785,795,798,799,783,801,791,777,766,752,737,741,733,821,823,865,830,868,961,1105,1214,1299,1342,1340,1319,1298,1292,1255,1283,1212,1191,1170,1148,1141,1106,1084,1063,1042,1023,999,978,956,935,914,904,871,851,837,833,835,838,837,850,841,858,858,861,852,874,854,860,854,856,850,864,854,866,869,869,866,859,855,868,859,886,856,873,862,1236,1196,1202,1291,1376,1559,1749,1873,1920,1925,1959,1904,1856,1814,1809,1796,1783,1734,1706,1623,1630,1621,1564,1519,1522,1490,1433,1412,1415,1367,1356,1325,1313,1249,1232,1211,1234,1232,1272,1265,1273,1317,1295,1305,1305,1282,1285,1306,1290,1294,1288,1294,1299,1305,1302,1302,1310,1305,1300,1292,1317,1303,1297,1313,1297,106,106,106,107,107,109,123,137,152,166,176,174,171,168,165,162,160,157,154,151,149,146,143,140,137,135,132,129,126,124,121,118,115,112,110,107,108,108,93,93,93,93,94,94,94,94,94,94,94,94,94,95,94,94,93,93,95,94,93,92,94,94,94,94,93,0,0,0,0,0,0,0,0,0,0,0,0,0,0,0,0,0,0,0,0,0,0,0,0,0,0,0,0,0,0,0,0,0,0,0,0,0,0,0,0,0,0,0,0,0,0,0,0,0,0,0,0,0,0,0,0,0,0,0,0,0,0,0,0,0,692,694,700,702,725,794,880,978,1056,1088,1089,1073,1189,1041,1025,1009,993,977,961,940,929,913,914,880,864,893,832,816,800,784,768,752,735,715,708,705,707,705,692,706,692,707,716,713,718,717,709,712,706,709,709,703,703,710,714,710,715,705,706,715,712,736,725,735,716,817,749,752,790,825,907,1055,1149,1225,1229,1257,1241,1237,1209,1129,1151,1123,1085,1082,1046,1049,1063,987,968,948,960,909,961,944,890,871,888,825,807,788,826,835,762,810,782,784,787,820,817,829,824,809,837,815,801,816,791,792,808,808,799,817,792,789,810,809,828,816,820,814,553,552,558,560,568,614,681,749,816,852,857,845,833,835,811,796,784,772,760,748,736,722,722,715,694,672,662,650,635,625,659,599,588,576,548,562,564,563,555,552,555,575,562,556,588,563,559,571,577,569,567,569,562,564,563,570,563,559,560,561,562,561,567,569,556,1304,1237,1222,1311,1532,1583,1774,1898,1945,1967,1988,1928,1998,1837,1832,1818,1806,1756,1752,1693,1724,1661,1573,1539,1622,1510,1449,1521,1449,1385,1396,1343,1380,1342,1250,1338,1266,1314,1327,1360,1363,1360,1404,1373,1378,1407,1366,1395,1403,1404,1384,1371,1402,1424,1398,1399,1425,1394,1379,1381,1372,1384,1384,1402,1352,918,921,945,993,1013,1098,1234,1408,1486,1485,1467,1445,1464,1409,1385,1359,1329,1315,1294,1272,1251,1345,1203,1208,1202,1167,1216,1087,1114,1033,1033,988,987,945,933,990,1056,975,958,970,983,1001,980,988,978,997,977,997,977,973,974,986,993,1006,998,998,984,976,994,996,990,993,975,986,976,454,455,457,458,460,515,567,609,656,694,690,683,685,719,667,654,638,638,632,624,617,610,614,606,588,595,570,561,534,544,506,495,484,499,463,460,461,462,445,448,454,472,446,455,447,452,448,444,452,448,444,447,448,453,450,455,449,452,450,449,448,458,445,454,453,62,62,63,63,63,63,71,78,86,93,100,98,97,96,94,93,91,90,88,87,85,84,82,81,79,78,76,75,73,72,70,69,67,66,64,63,63,63,40,39,37,37,36,43,39,39,40,40,39,42,43,39,42,43,57,39,39,46,39,43,39,37,43,39,39,516,546,535,520,525,593,699,805,908,966,966,948,919,911,893,875,857,838,810,802,806,756,747,719,710,692,665,655,637,611,600,582,564,562,528,524,528,548,523,530,537,547,541,545,532,544,530,563,539,539,546,541,562,582,555,547,556,546,553,552,559,568,541,548,541,900,903,927,976,1025,1141,1210,1382,1461,1460,1439,1493,1441,1455,1433,1336,1373,1289,1272,1313,1229,1254,1241,1224,1182,1147,1146,1067,1029,1014,1014,970,994,925,915,962,956,957,936,942,965,977,997,996,1005,961,966,993,952,945,957,958,953,954,982,971,946,948,950,948,952,960,982,984,951,607,606,608,610,630,682,820,908,987,1025,1073,1011,995,1013,965,910,950,932,903,878,872,857,839,814,837,812,789,770,736,744,678,662,646,647,622,618,615,631,621,621,624,637,624,629,628,636,628,628,630,621,634,632,639,638,632,630,626,639,633,629,629,651,633,640,632,659,645,647,673,673,731,876,970,1051,1087,1156,1071,1055,1072,1022,987,1006,997,957,931,955,925,906,892,885,859,835,816,796,802,728,704,687,710,661,671,655,685,671,680,671,684,687,684,680,698,672,682,678,677,676,687,687,686,683,684,685,679,694,695,676,687,676,685,680,0,0,0,0,0,0,0,0,0,0,0,0,0,0,0,0,0,0,0,0,0,0,0,0,0,0,0,0,0,0,0,0,0,0,0,0,0,0,0,0,0,0,0,0,0,0,0,0,0,0,0,0,0,0,0,0,0,0,0,0,0,0,0,0,0,125,125,126,126,126,128,142,155,169,182,192,189,186,184,181,179,176,173,171,168,165,163,160,158,155,152,150,147,144,142,139,137,134,131,129,126,127,127,118,110,111,110,117,119,111,118,112,111,116,119,115,116,120,126,121,125,113,119,118,119,126,121,126,129,124,393,395,395,396,397,403,448,499,531,565,563,559,564,593,551,541,528,531,527,522,518,513,497,490,499,479,459,451,425,425,416,408,399,391,401,398,380,399,379,379,380,383,380,380,384,384,381,379,383,381,381,385,385,384,380,381,385,385,387,384,383,387,380,383,385,918,921,945,993,1013,1098,1234,1408,1486,1485,1467,1445,1464,1409,1385,1359,1329,1315,1294,1272,1251,1345,1203,1208,1202,1167,1216,1087,1114,1033,1033,988,987,945,933,990,1056,975,958,970,983,1001,980,988,978,997,977,997,977,973,974,986,993,1006,998,998,984,976,994,996,990,993,975,986,976,898,839,841,846,963,986,1114,1245,1327,1364,1364,1339,1408,1299,1277,1256,1234,1212,1191,1169,1147,1125,1143,1108,1060,1038,1017,1055,973,952,930,968,884,865,889,849,851,853,855,856,902,1160,915,843,896,986,925,881,967,938,892,894,969,948,940,859,883,886,925,931,870,907,885,886,896,396,397,399,400,401,431,508,545,601,648,632,624,616,607,599,604,595,584,558,564,553,543,549,520,530,520,511,501,469,459,448,438,427,417,407,402,403,404,395,401,402,412,408,403,402,407,400,414,409,414,416,415,431,442,411,404,411,403,408,403,407,412,402,410,403,174,174,175,175,176,181,204,224,244,264,271,266,278,258,260,257,253,249,245,241,237,233,229,226,222,220,216,211,207,202,198,193,189,184,180,176,177,177,173,162,162,163,165,164,164,166,162,165,164,163,164,164,164,164,167,166,165,165,164,165,164,166,166,166,167,537,555,540,541,546,621,776,850,959,1016,1018,999,979,959,940,920,901,881,885,865,822,803,783,764,744,724,705,685,666,638,626,625,587,568,549,545,549,553,549,550,554,569,554,559,553,565,556,554,562,550,553,559,555,559,557,561,557,562,562,561,556,568,554,564,556,867,821,879,876,868,965,1166,1298,1381,1335,1340,1394,1384,1345,1254,1233,1208,1255,1235,1147,1199,1104,1122,1087,1097,1076,1062,1036,954,933,911,949,866,848,872,878,880,892,892,867,867,875,861,873,869,873,886,947,877,892,901,900,891,906,920,891,882,886,894,905,889,894,901,908,897,648,651,652,654,673,788,875,944,1036,1051,1124,1125,1069,1016,1052,1037,1001,974,969,922,928,929,864,879,797,811,815,797,760,743,702,710,704,694,647,660,662,653,663,655,663,663,668,666,674,668,668,669,672,668,676,684,687,682,686,689,666,675,676,667,666,677,675,678,664,687,704,691,707,725,848,966,1029,1111,1125,1185,1222,1129,1075,1109,1094,1076,1029,1023,975,998,979,944,957,862,866,888,843,820,787,745,752,744,733,687,700,701,693,691,690,695,702,702,712,713,721,713,714,718,725,703,706,707,713,705,703,713,712,712,701,706,715,705,717,712,135,135,135,136,136,140,158,177,196,214,227,223,220,216,212,209,205,201,198,194,191,187,183,180,176,172,169,165,161,158,154,151,147,143,140,137,137,137,139,123,124,124,127,127,125,128,124,125,125,125,126,126,126,128,129,129,127,127,127,128,127,127,128,128,128,0,0,0,0,0,0,0,0,0,0,0,0,0,0,0,0,0,0,0,0,0,0,0,0,0,0,0,0,0,0,0,0,0,0,0,0,0,0,0,0,0,0,0,0,0,0,0,0,0,0,0,0,0,0,0,0,0,0,0,0,0,0,0,0,0,341,342,343,344,345,345,390,434,453,522,505,499,494,488,483,477,472,466,452,455,450,477,432,433,415,407,399,390,382,406,365,357,366,358,350,346,346,347,325,326,335,347,333,339,326,340,328,332,332,327,330,335,334,333,333,333,333,333,339,338,331,333,330,333,332,898,839,841,846,963,986,1114,1245,1327,1364,1364,1339,1408,1299,1277,1256,1234,1212,1191,1169,1147,1125,1143,1108,1060,1038,1017,1055,973,952,930,968,884,865,889,849,851,853,855,856,902,1160,915,843,896,986,925,881,967,938,892,894,969,948,940,859,883,886,925,931,870,907,885,886,896,798,802,814,807,869,935,1047,1175,1323,1282,1275,1426,1303,1218,1199,1180,1157,1141,1122,1103,1084,1065,1046,1027,1083,986,967,938,919,900,881,862,841,824,810,811,834,815,820,820,818,825,812,810,838,861,815,830,878,830,862,841,845,859,860,875,850,844,860,848,843,828,813,852,809,138,138,131,131,131,135,150,176,174,196,187,186,184,197,194,179,177,176,174,172,171,183,180,178,175,173,170,167,152,158,155,143,140,137,134,132,132,132,124,120,123,124,124,123,124,123,121,125,125,123,124,124,123,120,121,124,124,125,121,121,125,123,123,121,121,346,344,348,346,347,373,419,465,511,553,563,554,545,531,522,551,511,497,494,485,476,468,459,445,437,433,420,416,407,437,410,401,369,364,411,351,352,349,351,353,355,372,363,354,358,366,357,361,373,380,488,470,492,400,357,356,366,364,362,355,361,364,360,361,362,750,776,761,763,824,921,1068,1202,1314,1372,1364,1314,1290,1255,1242,1248,1194,1211,1146,1122,1089,1065,1071,1047,1002,998,954,941,957,874,877,870,810,786,834,770,774,778,802,791,786,786,822,852,805,814,812,847,823,854,844,848,824,850,824,822,833,815,829,888,858,875,856,848,858,780,784,797,846,849,910,1020,1150,1227,1342,1250,1332,1213,1194,1175,1156,1190,1190,1100,1081,1062,1044,1025,1070,1046,1029,947,918,952,944,862,843,822,806,792,793,816,797,814,781,789,797,785,805,801,810,805,799,822,797,798,800,793,812,801,804,801,800,797,794,804,805,802,829,809,376,380,378,415,456,407,459,510,606,607,642,618,608,586,577,579,569,564,550,540,528,510,524,491,481,472,462,452,443,433,424,470,422,413,421,440,438,448,422,419,420,508,441,423,430,429,426,430,437,440,442,432,423,433,429,437,424,424,419,422,424,420,431,427,424,438,419,418,454,497,452,510,567,691,709,705,701,669,657,635,637,626,619,624,594,599,562,575,571,530,520,509,499,488,493,467,512,464,467,474,479,477,488,455,452,460,478,469,461,458,462,465,471,480,478,484,525,538,521,490,475,463,476,464,461,457,473,470,478,464,317,314,319,316,317,340,383,426,469,510,520,511,503,489,481,511,471,457,455,447,439,431,423,410,402,398,386,382,374,366,378,370,338,334,381,322,323,319,317,314,316,317,318,314,315,315,314,316,315,315,316,324,318,316,322,317,316,316,316,324,316,316,318,317,316,336,337,350,339,347,360,398,450,489,524,529,522,527,508,500,493,486,479,471,475,457,450,442,447,428,421,413,393,395,379,372,373,357,350,343,340,341,342,335,330,335,331,339,343,333,338,340,337,340,334,340,340,339,348,342,339,333,345,338,349,341,338,335,343,350,0,0,0,0,0,0,0,0,0,0,0,0,0,0,0,0,0,0,0,0,0,0,0,0,0,0,0,0,0,0,0,0,0,0,0,0,0,0,0,0,0,0,0,0,0,0,0,0,0,0,0,0,0,0,0,0,0,0,0,0,0,0,0,0,0,798,802,814,807,869,935,1047,1175,1323,1282,1275,1426,1303,1218,1199,1180,1157,1141,1122,1103,1084,1065,1046,1027,1083,986,967,938,919,900,881,862,841,824,810,811,834,815,820,820,818,825,812,810,838,861,815,830,878,830,862,841,845,859,860,875,850,844,860,848,843,828,813,852,809,0,0,0,0,0,0,0,0,0,0,0,0,0,0,0,0,0,0,0,0,0,0,0,0,0,0,0,0,0,0,0,0,0,0,0,0,0,0,0,0,0,0,0,0,0,0,0,0,0,0,0,0,0,0,0,0,0,0,0,0,0,0,0,0,0,974,956,940,984,1009,1204,1355,1471,1491,1498,1515,1496,1446,1450,1409,1394,1422,1393,1358,1280,1259,1280,1273,1204,1202,1165,1150,1107,1137,1059,1046,1037,1017,1047,987,954,936,953,970,983,991,991,1008,992,990,997,990,996,1008,1007,1014,1031,1021,1014,989,1004,1008,999,991,1009,1006,1001,996,1003,997,1028,1082,1035,1044,1163,1246,1430,1598,1720,1668,1656,1706,1663,1586,1601,1545,1529,1477,1518,1427,1448,1410,1380,1321,1368,1283,1241,1231,1227,1199,1175,1199,1082,1086,1044,1041,1047,1111,1069,1068,1072,1078,1080,1080,1089,1085,1089,1095,1087,1093,1120,1093,1095,1091,1103,1106,1105,1110,1111,1106,1123,1111,1106,1115,1110,1398,1384,1407,1506,1677,1950,2106,2238,2269,2321,2308,2326,2202,2219,2141,2110,2066,2026,1981,1944,1896,1889,1828,1787,1718,1696,1661,1649,1578,1565,1527,1445,1431,1412,1400,1400,1438,1421,1473,1478,1479,1513,1472,1518,1487,1513,1498,1512,1519,1499,1499,1495,1521,1526,1520,1529,1536,1518,1532,1518,1514,1531,1547,1551,1529,296,297,298,299,300,316,358,400,442,483,496,488,480,472,464,456,448,440,432,424,416,409,401,393,385,377,369,361,353,345,337,329,321,313,306,301,302,303,291,294,293,302,302,303,297,303,295,297,307,320,335,345,341,312,301,304,310,317,314,299,304,305,295,297,299,1334,1274,1355,1447,1541,1695,1904,2029,2056,2053,2074,2027,1970,1987,1986,1926,1858,1874,1857,1740,1716,1702,1744,1656,1624,1574,1553,1548,1531,1411,1434,1391,1358,1370,1314,1383,1327,1313,1357,1401,1368,1381,1404,1395,1381,1403,1396,1398,1410,1381,1391,1405,1405,1407,1418,1420,1419,1412,1432,1424,1429,1450,1460,1447,1440,1373,1314,1398,1497,1607,1797,1967,2090,2117,2112,2133,2085,2061,2043,2019,1981,1912,1944,1909,1790,1783,1780,1792,1703,1670,1627,1631,1617,1573,1466,1475,1431,1411,1410,1368,1347,1380,1353,1432,1406,1406,1413,1460,1476,1450,1442,1445,1459,1491,1478,1513,1476,1496,1489,1527,1468,1490,1519,1547,1531,1501,1514,1551,1608,1509,1025,1082,1036,1054,1127,1248,1414,1620,1705,1672,1674,1696,1669,1588,1606,1534,1539,1478,1524,1428,1448,1374,1345,1321,1319,1262,1241,1211,1187,1199,1174,1171,1081,1056,1043,1040,1046,1101,1127,1111,1088,1096,1091,1114,1104,1120,1118,1180,1112,1152,1147,1153,1122,1193,1159,1111,1108,1103,1138,1168,1150,1180,1164,1164,1138,889,950,902,902,954,1050,1190,1382,1482,1443,1448,1487,1457,1382,1401,1336,1309,1286,1318,1243,1278,1196,1173,1150,1151,1101,1080,1054,1034,1057,1027,1031,941,919,903,900,905,946,927,925,931,937,936,930,935,960,942,940,935,938,938,938,942,947,966,943,938,950,950,940,947,944,958,944,938,960,942,928,971,993,1148,1329,1445,1466,1470,1491,1470,1422,1428,1388,1372,1356,1375,1338,1262,1242,1264,1254,1186,1185,1147,1146,1093,1121,1043,1033,1040,1003,1033,973,940,924,956,974,966,969,981,974,980,977,978,989,974,985,970,988,978,982,982,976,986,976,990,974,980,983,996,977,983,973,0,0,0,0,0,0,0,0,0,0,0,0,0,0,0,0,0,0,0,0,0,0,0,0,0,0,0,0,0,0,0,0,0,0,0,0,0,0,0,0,0,0,0,0,0,0,0,0,0,0,0,0,0,0,0,0,0,0,0,0,0,0,0,0,0 ]);
