n = 30;
D = [119,95,287,72,271,137,175,237,288,179,88,285,147,164,228,295,245,260,253,65,206,223,64,257,225,296,65,93,291,127 ];
q = 0;
prec = array2d(1..0,1..2,[]);
steps = 64;
l = 360;
r = 0;
which = [];
interval = array2d(1..0,1..2,[]);
T = array3d(1..31,1..31,0..64,[0,0,0,0,0,0,0,0,0,0,0,0,0,0,0,0,0,0,0,0,0,0,0,0,0,0,0,0,0,0,0,0,0,0,0,0,0,0,0,0,0,0,0,0,0,0,0,0,0,0,0,0,0,0,0,0,0,0,0,0,0,0,0,0,0,1077,1088,1148,1078,1220,1342,1472,1675,1765,1764,1818,1763,1717,1708,1642,1608,1591,1564,1542,1532,1473,1481,1419,1426,1340,1362,1323,1322,1265,1297,1214,1199,1176,1116,1105,1102,1104,1099,1160,1126,1123,1139,1122,1156,1136,1139,1165,1212,1142,1158,1204,1157,1159,1206,1167,1154,1146,1151,1191,1251,1273,1297,1291,1183,1175,321,322,323,324,325,386,423,423,497,500,509,529,523,518,512,507,462,455,448,441,432,427,417,413,402,394,429,422,414,407,400,387,388,369,359,326,347,368,341,342,343,342,346,342,349,349,347,350,348,348,350,351,348,351,350,348,354,351,348,346,351,354,355,354,354,353,354,355,339,340,386,448,493,538,594,579,572,564,556,551,517,534,526,517,509,500,492,484,475,467,458,450,442,433,425,398,391,381,355,362,358,342,370,350,347,350,351,350,348,356,355,350,354,350,351,358,357,356,355,365,357,356,358,358,362,360,363,357,357,358,815,797,799,823,901,971,1129,1283,1387,1419,1401,1387,1441,1360,1310,1348,1259,1247,1221,1182,1203,1158,1106,1101,1055,1051,1025,981,953,927,902,955,880,825,819,808,850,817,836,832,844,876,861,848,858,859,851,862,862,856,862,890,898,889,905,866,859,864,863,860,851,876,859,877,858,493,494,496,467,470,552,638,693,762,812,810,799,787,775,754,709,742,687,718,695,683,641,669,657,645,633,621,609,590,584,541,534,523,486,496,494,471,502,479,481,478,483,506,527,492,487,488,490,488,488,490,490,487,490,487,490,488,487,488,496,500,507,511,493,493,849,835,833,862,868,1011,1238,1328,1431,1463,1444,1430,1454,1402,1352,1326,1360,1306,1315,1236,1208,1241,1185,1139,1093,1101,1060,1050,989,963,937,942,909,848,854,843,847,851,879,853,862,875,867,874,878,890,874,875,888,875,904,898,901,889,870,868,878,876,881,863,871,883,869,882,877,901,904,949,885,995,1077,1185,1370,1479,1471,1590,1496,1417,1409,1373,1354,1331,1309,1286,1263,1241,1218,1196,1208,1117,1128,1103,1117,1061,1101,1013,998,974,931,927,924,917,920,935,922,915,923,957,984,944,959,957,985,977,975,984,967,958,993,993,954,983,969,968,1021,988,1004,1003,1037,997,740,729,731,740,795,834,985,1092,1185,1230,1182,1170,1143,1125,1111,1097,1083,1088,1037,1046,1028,994,977,948,947,911,894,903,862,884,851,779,791,755,735,734,757,792,776,753,777,759,759,767,813,775,753,763,786,781,772,769,770,782,764,781,768,771,767,762,761,766,770,790,772,497,487,511,472,475,533,600,662,724,765,764,753,743,732,724,713,701,689,679,708,696,645,634,622,611,600,588,599,566,555,543,515,534,490,479,504,476,477,462,472,475,494,472,469,468,471,470,467,469,471,470,472,470,471,473,476,475,475,473,477,476,494,492,494,491,571,589,610,627,625,664,795,855,934,968,965,943,928,948,911,897,874,870,847,818,824,874,794,782,768,743,741,740,725,693,673,665,647,630,595,614,615,592,610,617,611,618,622,622,619,626,616,618,618,616,614,623,625,630,624,619,625,616,628,634,619,631,614,623,623,946,968,951,963,1023,1122,1315,1445,1621,1546,1532,1487,1486,1463,1505,1418,1405,1381,1389,1350,1300,1331,1253,1253,1231,1219,1207,1118,1095,1084,1063,1030,998,962,963,946,962,951,988,954,960,960,983,996,971,977,977,991,1020,1007,1014,1020,1028,1015,1015,1012,1009,1034,1036,1039,1019,1020,1045,1073,1030,396,378,379,380,381,409,506,558,579,620,621,612,640,625,625,580,571,562,553,570,535,525,541,507,498,489,503,471,484,453,443,442,427,417,406,382,407,384,388,397,394,397,401,403,400,407,394,399,395,394,396,410,404,406,407,404,402,403,417,415,401,406,397,403,401,1093,1167,1085,1135,1207,1424,1655,1802,1958,1957,1939,1903,1891,1817,1794,1758,1722,1665,1686,1614,1545,1593,1505,1506,1424,1397,1369,1335,1304,1225,1249,1194,1119,1132,1108,1100,1137,1086,1122,1160,1121,1126,1151,1135,1136,1158,1145,1142,1173,1138,1142,1161,1156,1161,1146,1172,1167,1158,1187,1142,1158,1174,1195,1156,1149,1417,1437,1447,1511,1723,1873,2093,2210,2428,2287,2262,2228,2135,2196,2248,2095,2208,2094,2050,1993,1933,1973,1895,1822,1813,1790,1744,1703,1651,1641,1668,1576,1512,1437,1469,1522,1490,1435,1555,1573,1587,1616,1625,1608,1606,1612,1597,1612,1583,1573,1595,1596,1594,1593,1623,1609,1587,1585,1595,1581,1587,1601,1624,1627,1595,113,113,113,113,114,115,142,149,155,162,162,162,161,160,162,161,160,158,157,156,155,153,152,151,149,148,147,146,144,143,142,123,121,118,116,114,114,114,100,101,101,102,101,102,103,102,102,102,102,102,101,105,102,103,102,102,102,102,102,102,102,102,101,101,102,477,479,482,484,488,533,660,680,747,838,783,772,761,750,741,733,718,710,698,683,671,663,648,636,666,613,602,590,581,567,560,526,516,503,489,487,488,520,483,487,483,498,484,492,488,494,491,495,491,490,493,491,494,493,494,496,499,495,494,487,499,501,496,499,498,250,250,251,252,253,288,311,362,400,406,417,411,405,399,393,387,381,375,368,362,356,372,365,357,350,343,336,314,322,315,308,301,294,287,271,253,254,277,258,263,258,262,263,266,263,270,268,262,268,262,262,261,261,265,261,261,261,263,259,261,259,263,259,265,261,557,539,562,543,568,594,692,733,839,813,845,834,831,802,802,791,805,789,738,761,710,753,688,687,692,685,649,639,624,611,607,586,615,597,550,567,551,538,545,548,559,573,561,567,554,567,554,580,559,554,571,568,588,600,576,568,572,571,571,568,578,594,564,572,562,716,718,720,723,747,826,937,1033,1110,1184,1140,1124,1107,1091,1074,1057,1065,1024,1008,991,975,958,942,925,908,892,875,858,839,819,800,782,763,744,735,727,729,731,739,748,752,771,830,809,769,813,768,860,798,830,802,769,798,835,797,774,832,792,776,812,805,847,798,790,777,722,685,696,698,703,731,844,1006,1011,1159,1115,1027,1082,1127,1033,970,955,1001,1016,908,893,920,903,899,921,865,800,822,769,797,780,746,723,706,692,656,695,697,680,680,691,709,703,700,687,695,695,721,701,701,716,759,792,770,752,714,699,718,709,701,698,717,705,732,698,445,447,448,449,452,510,573,632,691,733,732,722,731,701,693,683,672,661,650,639,628,617,607,596,585,574,563,552,556,544,520,491,480,481,456,452,453,455,447,452,452,454,452,447,456,454,457,456,450,454,449,456,454,457,460,467,454,453,455,460,463,463,457,456,455,441,443,462,445,447,483,563,621,678,736,736,725,699,705,682,687,661,666,655,644,619,609,598,588,577,580,556,559,548,525,514,486,475,463,452,448,449,450,446,434,441,448,434,458,445,448,449,445,469,446,444,445,442,461,456,447,441,448,444,447,450,446,446,476,454,530,532,535,536,522,594,682,742,792,843,927,851,839,883,815,808,792,807,786,723,765,717,729,691,658,686,650,687,627,613,577,583,587,555,546,580,524,559,537,538,541,539,552,539,552,555,546,554,548,548,554,554,550,556,559,553,563,557,552,548,554,561,562,560,561,1240,1217,1188,1272,1385,1544,1755,1885,1950,1930,1950,1867,1885,1809,1795,1783,1736,1740,1769,1634,1684,1587,1601,1516,1517,1555,1427,1427,1368,1375,1336,1299,1307,1221,1230,1232,1200,1274,1319,1294,1305,1300,1309,1296,1330,1304,1299,1291,1309,1302,1309,1306,1307,1300,1294,1313,1303,1311,1302,1310,1303,1313,1302,1299,1294,657,629,645,644,665,743,841,961,1034,1047,1041,1048,1033,1017,1004,975,972,963,940,896,880,879,857,837,843,827,817,795,762,752,724,718,681,665,665,662,649,651,659,653,659,669,705,689,664,669,664,677,653,671,670,680,683,689,667,672,670,659,672,691,679,674,669,700,670,696,698,700,702,725,801,927,1027,1179,1144,1137,1120,1103,1086,1072,1055,1037,1020,1045,985,968,951,933,916,899,919,914,847,829,812,795,760,742,724,710,707,708,710,710,705,713,724,717,723,729,738,725,724,736,725,743,740,741,740,718,716,726,726,730,715,722,731,717,730,724,1144,1134,1153,1158,1293,1429,1774,1945,1817,1855,1837,1793,1779,1738,1727,1741,1668,1639,1654,1585,1558,1529,1500,1457,1467,1452,1486,1331,1315,1287,1273,1223,1197,1172,1150,1148,1163,1142,1200,1214,1216,1211,1204,1218,1234,1228,1219,1221,1268,1212,1230,1220,1231,1233,1245,1256,1243,1234,1252,1233,1222,1220,1215,1258,1196,716,718,720,723,747,826,937,1033,1110,1184,1140,1124,1107,1091,1074,1057,1065,1024,1008,991,975,958,942,925,908,892,875,858,839,819,800,782,763,744,735,727,729,731,736,732,737,745,746,745,748,744,747,758,751,752,758,766,766,763,775,767,759,775,763,758,770,766,766,774,762,1253,1377,1265,1317,1496,1614,1836,1951,1981,2100,1982,1982,1950,1891,1861,1942,1824,1782,1759,1710,1680,1650,1620,1607,1621,1529,1499,1484,1451,1403,1470,1338,1360,1300,1278,1271,1329,1303,1371,1373,1366,1380,1388,1379,1386,1406,1383,1392,1396,1407,1425,1413,1391,1403,1404,1426,1430,1405,1420,1405,1415,1411,1430,1407,1398,0,0,0,0,0,0,0,0,0,0,0,0,0,0,0,0,0,0,0,0,0,0,0,0,0,0,0,0,0,0,0,0,0,0,0,0,0,0,0,0,0,0,0,0,0,0,0,0,0,0,0,0,0,0,0,0,0,0,0,0,0,0,0,0,0,993,991,993,1021,1074,1213,1341,1494,1563,1654,1601,1576,1564,1645,1501,1468,1442,1410,1399,1400,1358,1336,1296,1273,1255,1198,1235,1133,1109,1121,1096,1070,1040,1013,1016,1002,1005,1036,1011,1053,1011,1019,1035,1020,1029,1036,1035,1034,1047,1029,1046,1034,1040,1045,1047,1051,1052,1052,1078,1034,1057,1062,1081,1055,1050,0,0,0,0,0,0,0,0,0,0,0,0,0,0,0,0,0,0,0,0,0,0,0,0,0,0,0,0,0,0,0,0,0,0,0,0,0,0,0,0,0,0,0,0,0,0,0,0,0,0,0,0,0,0,0,0,0,0,0,0,0,0,0,0,0,1074,1078,1076,1121,1177,1302,1485,1582,1719,1757,1727,1703,1693,1674,1654,1580,1559,1595,1512,1506,1473,1451,1413,1373,1407,1315,1261,1237,1208,1210,1183,1217,1163,1188,1111,1083,1108,1130,1124,1164,1123,1120,1138,1123,1134,1143,1138,1139,1166,1141,1144,1152,1154,1159,1158,1174,1160,1161,1176,1145,1167,1175,1189,1158,1158,840,844,846,842,891,982,1165,1264,1330,1362,1381,1349,1318,1301,1274,1314,1231,1210,1196,1181,1210,1124,1100,1095,1075,1070,1039,1014,998,961,930,905,889,866,860,849,848,851,866,863,860,868,875,879,921,906,871,893,896,888,962,990,1012,954,908,932,931,944,923,897,909,871,882,881,867,1658,1643,1728,1875,2096,2309,2571,2616,2724,2709,2687,2597,2556,2580,2541,2423,2497,2376,2404,2303,2248,2171,2155,2075,2105,1979,1926,1895,1816,1839,1814,1780,1712,1765,1657,1732,1683,1699,1927,1908,1879,1904,1904,1947,1968,1975,1950,2045,1948,1981,1973,2024,1987,2048,2027,1992,1971,1998,2009,2027,2003,2012,1985,1981,1941,718,720,660,662,753,748,942,967,1035,1078,1100,1166,1047,1030,1013,1133,978,961,1030,942,971,891,874,909,854,845,827,809,865,829,736,718,768,684,681,666,668,669,674,680,680,708,687,695,686,685,679,678,691,685,694,701,699,692,697,703,690,686,700,687,683,693,679,690,684,1710,1654,1767,1966,2141,2353,2588,2659,2767,2752,2729,2703,2659,2641,2582,2463,2500,2462,2403,2347,2286,2209,2190,2140,2165,2037,1981,1926,1851,1874,1784,1799,1767,1739,1691,1691,1680,1734,1871,1930,1881,1912,1926,1916,1918,1940,1915,1932,1935,1905,1928,1935,1942,1942,1979,1961,1946,1937,1966,1945,1950,1976,1989,1980,1969,169,170,170,171,171,175,196,216,236,257,270,266,262,258,254,250,246,242,238,234,230,226,222,218,214,210,206,202,198,194,191,187,183,179,175,171,172,172,158,161,161,165,164,166,162,172,161,169,167,185,162,165,169,171,165,166,169,174,169,166,165,169,162,163,162,1077,1053,1084,1077,1167,1237,1515,1572,1673,1693,1690,1618,1597,1642,1600,1541,1547,1508,1507,1480,1427,1414,1394,1342,1426,1292,1213,1239,1154,1194,1155,1156,1112,1098,1094,1074,1058,1080,1090,1099,1103,1127,1118,1123,1118,1142,1115,1129,1113,1123,1104,1113,1126,1131,1133,1127,1118,1135,1138,1121,1116,1111,1115,1122,1105,702,699,706,729,726,804,905,1019,1105,1147,1151,1133,1147,1094,1076,1085,1034,1016,1005,986,968,948,930,913,903,882,906,845,827,803,784,767,770,725,717,707,713,715,732,700,703,706,736,732,729,737,723,752,731,715,731,707,712,723,728,715,731,709,707,726,722,741,731,738,730,837,836,842,848,891,989,1119,1250,1334,1372,1364,1345,1327,1305,1277,1219,1239,1217,1195,1217,1194,1129,1102,1085,1063,992,1042,950,929,954,932,949,888,867,853,850,852,917,876,885,840,838,879,860,864,871,868,883,922,874,881,898,897,890,878,900,899,909,940,897,886,896,937,879,873,393,395,396,397,398,414,390,524,589,617,623,613,594,593,583,573,563,553,543,525,523,513,496,494,484,466,464,454,444,434,424,414,404,394,384,393,395,402,377,378,383,393,387,385,388,394,381,388,386,391,385,383,388,392,383,384,388,391,389,381,387,392,383,386,384,808,806,865,835,848,944,1098,1190,1314,1313,1313,1293,1300,1314,1292,1202,1182,1196,1148,1127,1155,1114,1136,1044,1031,978,1033,957,936,920,899,878,919,857,824,815,817,825,844,843,861,904,881,827,879,861,870,862,890,866,873,877,924,906,905,838,862,864,866,864,847,881,860,861,853,1813,1815,1933,2165,2409,2652,3014,2956,2961,2945,2969,2911,2841,2784,2815,2688,2657,2615,2569,2503,2520,2400,2360,2290,2240,2252,2136,2086,2026,1970,1915,1864,1844,1918,1837,1835,1847,1862,2155,2202,2169,2188,2211,2188,2199,2210,2210,2206,2231,2199,2209,2214,2234,2246,2278,2268,2251,2241,2260,2236,2254,2271,2284,2269,2260,719,721,736,738,701,746,907,1004,1033,1115,1156,1183,1100,1104,1067,1050,1033,1008,1005,1029,965,948,971,937,868,976,1011,943,919,885,867,848,779,760,746,742,687,717,767,747,744,753,756,756,813,804,761,792,774,755,764,800,808,814,805,807,807,830,805,789,787,772,759,756,746,1019,994,992,1003,1068,1177,1435,1485,1547,1582,1595,1602,1529,1542,1479,1484,1430,1406,1388,1372,1375,1308,1284,1299,1248,1218,1194,1187,1229,1124,1088,1062,1038,1016,1015,1000,1003,1006,1013,1026,1026,1029,1051,1016,1034,1053,1037,1034,1065,1043,1130,1121,1145,1074,1199,1159,1085,1058,1036,1035,1050,1023,1035,1072,1020,710,713,715,712,741,811,963,1100,1115,1157,1217,1148,1122,1103,1085,1120,1103,1057,1018,1008,1037,956,962,933,914,905,886,867,853,821,789,771,757,734,732,716,718,720,738,705,713,715,705,730,720,730,725,724,744,716,716,720,715,730,723,725,721,721,720,717,723,723,721,752,729,1186,1193,1190,1236,1332,1455,1666,1747,1891,1919,1905,1875,1848,1835,1785,1724,1704,1695,1652,1649,1620,1591,1544,1508,1538,1429,1388,1353,1321,1320,1303,1273,1239,1212,1234,1196,1242,1258,1262,1268,1275,1283,1284,1315,1285,1298,1276,1297,1292,1291,1274,1289,1302,1311,1298,1312,1299,1311,1307,1295,1283,1275,1295,1295,1269,1474,1474,1503,1549,1700,1938,2273,2314,2248,2316,2365,2255,2259,2194,2122,2171,2142,2105,2009,1978,2000,1942,1844,1850,1882,1757,1763,1705,1731,1636,1585,1582,1526,1495,1465,1530,1456,1464,1579,1566,1585,1598,1623,1663,1600,1629,1629,1652,1658,1651,1644,1690,1692,1687,1660,1627,1635,1640,1627,1659,1632,1662,1634,1663,1637,1679,1691,1733,1827,2067,2367,2473,2548,2632,2608,2604,2586,2561,2513,2428,2430,2348,2323,2277,2244,2220,2179,2111,2103,2093,1989,1959,1899,1878,1826,1805,1774,1736,1686,1718,1671,1704,1702,1877,1878,1835,1830,1876,1858,1868,1876,1873,1881,1937,1892,1899,1914,1912,1919,1899,1930,1928,1937,1972,1933,1920,1925,1977,1915,1923,569,570,572,574,583,637,673,805,887,933,939,924,909,926,879,821,849,834,819,804,789,774,759,744,729,664,650,636,622,655,640,625,610,595,582,577,579,580,567,563,572,565,573,570,593,578,577,598,618,578,580,585,596,601,583,593,582,580,592,586,583,593,580,636,587,1025,1029,1030,1048,1147,1275,1433,1592,1631,1651,1674,1634,1604,1571,1551,1577,1496,1524,1452,1430,1469,1365,1337,1320,1384,1344,1288,1220,1193,1195,1128,1098,1078,1087,1057,1069,1039,1035,1060,1073,1065,1093,1067,1085,1078,1091,1084,1084,1085,1074,1091,1081,1099,1107,1101,1107,1101,1095,1108,1090,1096,1112,1112,1123,1113,919,898,906,930,966,1053,1196,1294,1438,1481,1459,1413,1395,1430,1407,1327,1349,1301,1270,1276,1255,1227,1197,1163,1160,1112,1062,1034,1018,1020,1025,995,992,946,903,908,936,952,922,939,938,947,970,943,946,977,942,961,957,961,948,953,980,989,1128,1070,984,969,959,950,947,946,957,971,936,1461,1457,1507,1508,1658,1857,2027,2182,2304,2316,2372,2324,2169,2280,2179,2150,2092,2004,1980,1970,1944,1887,1815,1851,1788,1700,1733,1651,1596,1607,1586,1543,1486,1499,1468,1434,1465,1456,1521,1503,1514,1528,1528,1529,1519,1534,1535,1548,1579,1544,1544,1670,1547,1556,1682,1556,1549,1559,1557,1555,1562,1557,1574,1604,1587,755,751,753,763,754,819,961,1037,1182,1166,1209,1135,1170,1098,1121,1083,1093,1024,1044,987,969,996,968,913,895,919,858,840,821,841,814,795,783,729,750,731,733,771,767,745,743,747,754,755,817,808,758,790,775,754,759,807,810,816,807,827,814,831,809,790,789,772,759,753,745,1077,1073,1081,1128,1161,1272,1484,1542,1704,1709,1719,1650,1660,1704,1640,1546,1565,1517,1509,1537,1483,1408,1418,1342,1360,1321,1236,1194,1183,1243,1200,1197,1123,1126,1080,1071,1067,1120,1096,1128,1126,1118,1139,1116,1136,1157,1123,1121,1146,1112,1131,1130,1147,1154,1226,1235,1172,1133,1136,1124,1116,1113,1133,1175,1106,756,735,751,753,762,847,870,1033,1183,1149,1148,1131,1105,1097,1080,1069,1046,1088,1012,986,978,1017,985,926,917,865,862,844,827,832,833,790,766,747,729,746,746,762,732,736,736,736,737,738,738,741,739,743,745,746,747,748,749,753,754,755,752,758,756,759,758,761,762,764,762,604,606,608,610,622,669,759,847,932,977,1020,952,936,971,905,890,874,859,843,828,812,797,811,766,750,775,759,743,726,796,694,677,627,645,598,614,615,617,618,621,616,623,639,641,666,676,639,647,651,652,663,649,653,670,651,634,647,638,629,644,637,647,641,652,633,1679,1691,1733,1827,2067,2367,2473,2548,2632,2608,2604,2586,2561,2513,2428,2430,2348,2323,2277,2244,2220,2179,2111,2103,2093,1989,1959,1899,1878,1826,1805,1774,1736,1686,1718,1671,1704,1702,1861,1909,1872,1892,1907,1878,1900,1905,1904,1897,1924,1903,1910,1901,1922,1930,1939,1934,1925,1925,1958,1896,1920,1928,1948,1927,1912,1679,1684,1781,1954,2264,2454,2823,2768,2886,2763,2776,2730,2668,2614,2635,2523,2495,2456,2400,2349,2299,2251,2214,2146,2096,2111,2000,1953,1897,1843,1791,1740,1709,1791,1709,1706,1717,1779,1917,1908,1931,1955,1917,1981,1930,1949,1932,1953,1977,1949,1928,1941,1960,1980,1984,1971,1962,1971,1963,1963,1943,1928,1968,2052,1969,993,991,993,1021,1074,1213,1341,1494,1563,1654,1601,1576,1564,1645,1501,1468,1442,1410,1399,1400,1358,1336,1296,1273,1255,1198,1235,1133,1109,1121,1096,1070,1040,1013,1016,1002,1005,1036,1011,1053,1011,1019,1035,1020,1029,1036,1035,1034,1047,1029,1046,1034,1040,1045,1047,1051,1052,1052,1078,1034,1057,1062,1081,1055,1050,215,215,216,217,217,226,255,285,306,345,359,353,347,342,336,330,324,319,304,307,302,296,290,285,279,273,267,262,256,250,245,239,233,228,222,218,218,219,208,208,207,208,208,209,209,211,211,211,207,210,208,210,211,209,207,212,208,209,209,211,209,209,205,209,207,1136,1134,1137,1187,1236,1367,1548,1686,1763,1803,1816,1801,1736,1785,1667,1666,1673,1592,1563,1557,1517,1468,1460,1447,1389,1378,1348,1324,1278,1240,1229,1195,1146,1160,1082,1117,1117,1155,1143,1160,1161,1152,1275,1153,1159,1164,1160,1188,1243,1267,1198,1180,1184,1172,1323,1218,1183,1191,1299,1214,1207,1180,1222,1198,1220,0,0,0,0,0,0,0,0,0,0,0,0,0,0,0,0,0,0,0,0,0,0,0,0,0,0,0,0,0,0,0,0,0,0,0,0,0,0,0,0,0,0,0,0,0,0,0,0,0,0,0,0,0,0,0,0,0,0,0,0,0,0,0,0,0,524,528,529,529,535,586,661,742,815,837,870,853,843,803,790,775,787,773,735,722,709,715,701,689,655,642,646,632,618,588,590,561,547,534,536,517,536,535,508,510,519,542,513,518,509,516,515,509,514,515,510,517,517,522,519,527,519,523,522,525,526,546,534,541,537,615,659,637,619,632,720,891,979,1093,1147,1147,1126,1104,1082,1060,1039,1017,995,1021,1039,930,993,886,865,843,821,799,778,756,726,712,736,669,647,628,624,696,633,645,653,645,657,660,657,654,669,646,655,653,653,649,662,661,660,657,657,660,655,669,670,652,662,651,660,655,566,553,555,556,585,610,692,804,894,908,913,898,884,869,854,861,861,811,787,781,800,774,738,816,700,698,714,664,650,633,621,599,585,570,564,567,561,595,567,568,569,565,564,562,577,575,562,568,573,567,568,568,570,568,572,567,571,570,568,563,572,569,572,573,575,649,655,656,654,673,758,903,1023,1138,1192,1191,1169,1147,1125,1131,1081,1121,1096,1070,1045,1019,948,968,956,881,859,866,815,816,762,748,754,704,691,639,664,642,647,655,655,659,661,668,662,661,683,667,664,663,664,663,663,669,676,732,712,678,669,668,662,669,667,671,669,661,1060,936,936,980,996,1109,1257,1394,1476,1510,1505,1513,1457,1433,1409,1385,1393,1337,1313,1289,1276,1241,1214,1230,1169,1169,1131,1190,1083,1049,1022,1008,962,975,904,938,938,952,970,971,963,1050,1015,1012,997,985,1007,1039,1001,1045,1042,1035,976,985,1014,1024,1021,991,1031,1087,1037,1024,1043,1013,1015,492,494,495,532,501,545,618,722,764,811,817,804,791,870,765,752,739,726,713,700,686,726,660,672,634,645,632,595,582,569,577,543,550,536,524,500,501,522,517,499,501,504,500,506,503,503,509,504,504,500,503,504,500,502,508,508,506,503,506,507,506,516,513,519,514,490,492,493,495,499,542,613,684,755,802,809,841,783,771,758,787,732,719,706,694,681,668,655,642,630,617,604,591,578,565,553,540,527,514,502,517,499,500,493,494,493,494,495,502,532,503,498,501,501,504,499,513,499,508,501,502,503,501,500,503,502,501,500,499,499,491,492,494,499,500,544,617,689,762,809,815,801,788,802,762,749,791,723,710,697,684,683,658,682,632,619,606,593,580,567,554,541,528,529,502,498,499,501,496,500,498,516,542,517,514,545,517,539,542,550,595,573,579,550,519,504,539,516,509,516,521,533,521,519,519,1030,972,975,973,1131,1154,1305,1469,1546,1579,1554,1526,1611,1500,1454,1430,1425,1399,1374,1330,1324,1299,1313,1274,1223,1181,1156,1278,1122,1097,1072,1106,1050,999,1024,983,972,989,1005,991,993,997,1003,1030,1023,1015,1014,1031,1040,1021,1030,1020,1020,1046,1052,1026,1034,1040,1038,1054,1042,1039,1059,1096,1062,400,401,402,403,405,435,493,582,610,657,666,655,645,697,623,613,602,591,581,570,559,549,538,564,517,506,495,485,474,463,453,442,431,421,410,406,407,408,393,389,396,406,400,402,392,402,399,393,399,403,399,402,407,417,410,415,400,410,406,410,419,423,427,434,426,914,916,904,885,964,1094,1303,1554,1652,1714,1682,1650,1618,1662,1553,1484,1488,1480,1389,1408,1358,1325,1293,1229,1210,1195,1163,1131,1113,1088,1033,1001,943,955,915,914,920,927,942,931,927,946,937,935,939,951,937,945,937,935,944,943,952,945,955,948,961,951,948,937,952,958,953,955,958,1366,1352,1370,1503,1587,1896,1987,2145,2236,2205,2247,2183,2118,2140,2161,2011,2090,1943,1981,1873,1815,1850,1746,1841,1778,1661,1627,1632,1557,1522,1527,1511,1495,1382,1387,1472,1453,1394,1484,1489,1490,1526,1486,1529,1499,1527,1510,1524,1532,1512,1513,1507,1534,1539,1535,1543,1551,1532,1544,1531,1527,1544,1560,1564,1543,325,326,327,328,329,345,400,418,437,512,489,483,478,472,467,461,456,450,436,439,434,473,439,417,425,418,411,404,399,390,366,358,350,342,334,330,330,331,332,325,317,319,338,345,331,343,348,350,341,355,345,346,338,347,341,348,373,340,345,386,348,354,350,348,348,584,570,572,574,577,631,753,845,879,934,938,923,909,894,916,901,901,834,810,804,789,795,759,764,721,719,734,684,669,652,639,618,603,588,581,585,579,588,571,579,582,600,592,584,585,596,582,596,594,602,623,618,640,636,594,588,598,592,598,585,594,601,588,598,590,195,196,196,197,192,198,237,257,275,300,324,318,313,308,339,290,285,280,275,270,265,268,263,258,252,247,242,237,232,227,222,217,212,201,196,192,193,193,194,189,181,182,197,207,192,201,198,211,194,211,204,207,196,211,200,200,213,193,202,232,209,217,208,208,208,723,753,786,759,818,867,963,1150,1174,1187,1255,1237,1201,1202,1127,1139,1139,1166,1054,1089,1108,1056,982,984,948,926,894,876,869,851,792,815,829,767,770,762,798,729,762,755,764,781,769,794,777,808,793,778,813,786,806,807,804,814,777,774,792,795,790,777,785,797,779,795,778,858,860,884,867,907,1054,1220,1376,1453,1429,1434,1412,1390,1368,1414,1280,1294,1236,1304,1291,1169,1234,1132,1167,1139,1138,1087,1060,1029,994,991,957,921,895,886,871,877,880,905,884,893,900,900,907,915,902,902,915,917,922,902,920,921,905,916,907,900,911,909,921,905,908,914,907,907,706,672,674,676,763,801,922,1030,1042,1084,1159,1177,1053,1085,1085,1066,1031,1030,1011,1024,960,956,937,907,929,871,874,845,827,765,789,803,762,729,683,717,759,730,707,709,701,705,717,723,716,730,728,752,726,740,723,730,725,740,725,728,745,731,730,748,738,746,736,740,737,620,622,636,625,639,703,796,890,975,1018,1021,1006,988,972,956,938,923,907,907,874,858,842,841,808,808,776,760,833,727,711,695,692,662,646,632,628,630,632,614,619,625,651,624,624,618,624,623,617,622,623,619,626,624,629,630,636,633,633,632,634,634,667,654,661,656,476,477,446,442,444,485,548,611,704,722,730,718,707,744,684,672,661,649,638,626,615,603,620,580,609,558,546,534,523,511,495,488,472,460,454,471,451,452,455,438,442,452,438,456,445,449,449,450,470,452,448,452,447,461,461,450,449,453,450,456,456,455,453,477,454,742,746,747,751,780,912,1015,1103,1193,1205,1274,1273,1215,1160,1193,1176,1137,1108,1100,1051,1054,1053,986,998,915,928,927,907,867,893,805,810,801,789,742,755,757,749,754,756,760,771,764,767,792,790,776,772,783,784,823,837,841,840,775,776,778,782,785,779,772,784,775,838,778,1026,1062,1032,1138,1120,1317,1461,1598,1707,1670,1662,1657,1628,1641,1554,1543,1513,1479,1451,1424,1414,1418,1341,1317,1291,1265,1245,1208,1182,1208,1175,1184,1095,1056,1054,1041,1057,1047,1063,1101,1067,1070,1105,1084,1083,1089,1085,1096,1100,1081,1091,1096,1103,1107,1103,1107,1105,1099,1111,1104,1118,1126,1134,1122,1116,374,389,390,392,379,421,477,532,588,634,628,618,623,591,602,579,569,572,542,539,541,512,521,511,500,490,480,470,449,449,439,429,404,399,398,394,395,396,383,386,389,397,394,393,391,395,387,403,391,389,397,406,417,418,411,397,395,397,399,392,395,404,393,404,389,719,721,723,726,751,831,1023,1052,1212,1180,1181,1220,1231,1124,1105,1087,1068,1049,1030,1011,992,973,995,936,917,898,879,897,841,823,804,845,804,747,771,730,732,734,740,739,737,743,743,752,740,743,753,779,739,744,740,751,747,736,751,748,743,747,739,751,747,747,751,746,743,982,985,988,1042,1068,1193,1352,1491,1572,1606,1598,1606,1547,1581,1671,1471,1557,1419,1493,1368,1343,1531,1291,1311,1336,1215,1189,1205,1138,1112,1129,1219,1109,1013,1000,1023,1081,1003,1040,1034,1050,1055,1054,1057,1047,1067,1059,1068,1058,1060,1067,1065,1066,1063,1070,1081,1061,1068,1065,1060,1055,1075,1062,1077,1051,858,860,884,867,907,1054,1220,1376,1453,1429,1434,1412,1390,1368,1414,1280,1294,1236,1304,1291,1169,1234,1132,1167,1139,1138,1087,1060,1029,994,991,957,921,895,886,871,877,880,905,884,893,900,900,907,915,902,902,915,917,922,902,920,921,905,916,907,900,911,909,921,905,908,914,907,907,1189,1192,1197,1297,1385,1552,1767,1928,2022,2059,2151,2038,2039,2005,1912,1892,1829,1911,1768,1721,1699,1673,1613,1621,1620,1516,1472,1443,1397,1354,1335,1335,1281,1229,1211,1252,1223,1240,1290,1298,1289,1295,1358,1330,1329,1337,1303,1368,1336,1365,1352,1332,1321,1367,1336,1342,1349,1325,1318,1356,1346,1369,1348,1341,1365,215,215,216,217,217,226,255,285,306,345,359,353,347,342,336,330,324,319,304,307,302,296,290,285,279,273,267,262,256,250,245,239,233,228,222,218,218,219,208,208,207,208,208,209,209,211,211,211,207,210,208,210,211,209,207,212,208,209,209,211,209,209,205,209,207,369,370,371,372,373,399,452,510,558,594,605,597,594,584,574,565,557,545,535,525,515,506,496,486,476,465,457,447,437,427,418,408,398,388,379,374,375,376,372,377,374,387,387,389,380,389,376,385,391,411,386,396,399,401,387,389,395,403,397,385,388,393,377,383,381,814,778,781,824,903,912,1084,1263,1349,1274,1280,1253,1326,1266,1282,1260,1180,1142,1202,1096,1118,1129,1099,1008,988,977,947,927,984,925,906,845,829,874,838,799,856,851,828,816,831,883,856,862,845,823,841,863,841,844,839,888,923,912,882,850,837,844,835,832,827,843,836,867,825,463,464,466,467,471,511,579,647,728,763,770,757,745,733,720,708,696,683,671,659,646,634,622,609,597,585,572,560,548,535,523,511,499,486,474,470,471,473,471,469,463,468,460,461,463,471,467,550,464,461,465,467,483,461,472,468,465,471,463,465,470,471,463,472,470,0,0,0,0,0,0,0,0,0,0,0,0,0,0,0,0,0,0,0,0,0,0,0,0,0,0,0,0,0,0,0,0,0,0,0,0,0,0,0,0,0,0,0,0,0,0,0,0,0,0,0,0,0,0,0,0,0,0,0,0,0,0,0,0,0,1046,1029,1032,1051,1155,1318,1538,1700,1778,1802,1788,1792,1724,1692,1660,1628,1684,1564,1593,1500,1459,1427,1477,1425,1332,1300,1276,1244,1252,1204,1148,1116,1077,1094,1045,1045,1050,1056,1069,1063,1077,1105,1083,1090,1078,1108,1088,1095,1092,1080,1096,1121,1143,1128,1114,1108,1077,1104,1088,1077,1075,1106,1106,1111,1077,132,132,132,133,133,137,155,173,192,210,222,219,215,211,208,204,201,197,194,190,187,183,179,176,172,169,165,162,158,154,151,147,144,140,137,134,134,134,128,121,121,121,127,124,126,124,125,123,127,131,142,127,129,133,129,126,127,133,148,143,144,147,148,138,133,1037,1063,1066,1065,1240,1360,1584,1745,1822,1846,1832,1835,1767,1734,1726,1669,1637,1605,1633,1587,1498,1516,1471,1445,1409,1337,1338,1302,1237,1240,1183,1132,1111,1091,1058,1089,1065,1090,1097,1095,1107,1127,1122,1120,1113,1133,1119,1130,1126,1120,1126,1156,1177,1162,1146,1135,1119,1127,1123,1118,1111,1136,1121,1139,1111,631,630,666,626,698,715,883,968,1057,1038,1095,1019,1054,989,1019,1001,924,919,949,890,913,897,880,824,845,790,759,754,785,724,741,690,668,697,675,641,677,644,678,662,657,664,668,669,725,716,676,702,685,668,677,712,721,729,718,735,718,740,718,703,699,685,672,670,661,619,577,579,628,591,638,734,816,890,948,952,923,908,902,891,871,848,871,830,830,788,868,809,813,756,747,708,693,690,659,692,680,628,601,599,584,583,604,593,582,595,609,606,615,584,609,588,591,599,607,594,603,617,639,621,629,598,610,610,616,632,623,629,644,622,136,136,137,137,137,140,158,176,194,211,224,220,217,213,210,206,203,199,196,192,189,185,182,179,175,172,168,165,161,158,154,151,147,144,141,138,138,138,125,127,126,127,128,129,128,133,127,129,128,127,128,131,131,131,131,131,128,128,133,133,128,131,129,132,129,423,401,401,402,404,436,494,551,655,656,664,654,687,676,622,653,602,592,579,569,560,584,537,528,534,506,494,484,473,464,476,510,432,420,409,406,434,435,408,407,410,411,434,411,412,420,416,414,412,414,411,426,440,440,552,502,445,432,417,412,420,414,425,417,411,803,793,761,764,814,939,998,1187,1265,1288,1297,1302,1256,1182,1211,1190,1189,1149,1082,1068,1043,1023,1048,983,1004,941,974,904,884,864,903,864,805,785,771,785,778,782,785,786,801,883,815,785,810,838,808,798,804,806,804,802,814,810,807,792,807,798,816,824,800,818,794,801,809,277,274,275,276,277,291,330,369,408,446,458,450,443,436,428,421,414,406,399,392,384,377,370,362,355,348,340,333,326,318,311,306,296,289,282,277,278,279,257,257,258,258,259,261,261,262,262,263,264,264,265,265,266,266,268,269,269,270,270,271,272,272,273,273,274,1287,1333,1343,1385,1618,1835,2062,2146,2238,2267,2299,2277,2178,2149,2129,2075,2039,1986,1964,1922,1847,1854,1822,1722,1710,1688,1645,1582,1540,1494,1429,1444,1373,1344,1335,1374,1363,1384,1409,1407,1414,1415,1413,1410,1427,1436,1419,1420,1430,1434,1504,1510,1458,1435,1444,1465,1476,1542,1536,1430,1476,1551,1558,1525,1470,1309,1294,1316,1335,1448,1642,1758,2022,2111,2036,2049,2016,1962,1829,1845,1965,1921,1944,1676,1729,1728,1614,1651,1566,1593,1483,1561,1559,1392,1396,1393,1376,1282,1259,1212,1249,1297,1277,1348,1341,1360,1382,1361,1349,1386,1372,1361,1391,1421,1392,1369,1406,1428,1412,1422,1402,1399,1384,1390,1396,1375,1381,1369,1355,1345,340,341,342,343,343,360,402,444,485,526,537,529,522,514,506,498,490,482,474,504,459,451,443,435,427,453,412,404,396,388,380,372,365,357,349,344,345,346,334,337,335,341,342,338,349,342,335,343,339,338,345,345,341,340,368,350,335,334,338,337,334,342,343,345,339,149,149,150,150,151,155,175,195,215,235,248,244,241,237,233,229,225,221,217,213,209,205,201,197,194,190,186,182,178,174,170,166,162,158,154,151,152,152,139,136,141,147,142,141,141,144,142,143,142,142,148,154,157,151,150,144,140,150,144,140,141,149,146,149,142,574,588,578,570,579,600,679,758,897,941,945,909,858,900,830,870,855,788,827,797,795,780,755,760,689,675,661,690,675,619,605,591,577,563,587,573,547,549,557,564,567,607,572,552,582,584,573,567,601,590,557,569,601,596,601,560,563,578,613,569,555,572,569,556,556,687,735,704,693,715,851,915,1029,1132,1142,1143,1127,1188,1091,1073,1056,1038,1021,1010,986,969,951,933,992,902,871,885,846,843,810,793,847,793,740,701,697,726,727,749,732,731,737,740,739,795,787,747,777,758,739,749,783,793,801,791,808,790,814,791,777,771,758,744,743,733,919,962,942,932,989,1077,1218,1352,1453,1500,1495,1534,1448,1424,1400,1450,1353,1330,1306,1282,1259,1235,1211,1188,1164,1140,1117,1093,1069,1046,1022,998,1035,952,936,933,935,938,948,959,960,982,968,976,971,989,971,974,965,960,958,969,977,978,985,982,968,984,993,975,969,962,971,977,960,401,402,403,407,406,436,494,551,609,660,664,654,643,635,622,650,601,590,580,571,561,548,538,531,517,506,495,485,474,463,452,469,459,423,411,408,410,411,419,411,410,431,415,424,456,484,414,445,442,418,410,461,472,488,476,442,456,468,480,460,434,426,414,411,408,269,270,271,272,273,287,325,363,401,438,450,443,436,428,421,414,407,400,393,385,378,371,364,357,350,342,335,328,321,314,306,299,292,285,278,273,274,275,261,261,262,262,263,261,264,264,264,264,264,264,265,265,265,266,266,269,266,266,266,269,271,270,269,268,269,381,383,384,385,385,412,466,519,573,619,628,619,609,599,589,579,569,559,549,540,530,520,510,500,490,480,470,461,451,450,431,438,411,401,392,387,388,389,378,381,381,388,427,412,402,423,401,429,412,419,407,393,397,416,402,389,419,400,393,409,406,424,406,404,397,709,708,748,763,711,814,926,1032,1203,1166,1185,1129,1142,1094,1128,1092,1043,989,1027,1017,999,981,962,953,917,906,864,845,798,808,838,819,810,734,761,695,754,721,725,729,728,738,822,798,779,805,764,841,795,815,795,753,768,800,776,759,817,777,761,798,789,827,804,812,784,1099,993,1044,1043,1079,1206,1440,1597,1660,1666,1610,1627,1606,1579,1553,1526,1504,1474,1451,1437,1394,1371,1301,1329,1300,1234,1230,1206,1156,1184,1117,1135,1078,1056,1008,1005,1043,1010,1036,1047,1038,1054,1052,1065,1055,1066,1057,1067,1055,1061,1055,1050,1044,1047,1057,1062,1047,1051,1045,1049,1049,1063,1065,1063,1043,555,557,558,560,567,621,703,785,865,950,915,900,886,871,857,842,828,813,799,784,769,755,740,726,711,697,682,668,653,710,624,626,595,580,567,563,565,566,565,567,568,573,575,570,576,577,569,573,570,572,573,580,582,580,579,572,583,578,584,585,579,587,573,578,578,533,535,510,512,517,595,638,713,832,881,881,921,854,800,825,811,797,783,733,744,706,692,712,666,685,693,656,612,599,585,599,588,545,532,519,532,516,518,513,516,514,527,519,531,517,519,530,521,517,521,515,521,519,517,523,527,523,519,521,523,527,540,531,540,529,1017,1024,935,959,1047,1135,1303,1440,1507,1599,1534,1509,1545,1460,1659,1411,1387,1421,1321,1351,1288,1264,1268,1229,1215,1224,1188,1131,1102,1067,1066,1085,1006,1052,946,986,958,961,963,957,969,983,998,974,959,976,966,1013,994,986,989,1116,1008,1009,1122,999,999,993,1008,1009,1003,1005,1001,1007,1008,919,962,942,932,989,1077,1218,1352,1453,1500,1495,1534,1448,1424,1400,1450,1353,1330,1306,1282,1259,1235,1211,1188,1164,1140,1117,1093,1069,1046,1022,998,1035,952,936,933,935,938,940,951,948,966,968,966,961,973,954,963,953,953,959,976,968,976,1016,1007,970,969,978,967,962,980,996,996,980,1417,1468,1510,1504,1665,1847,2203,2150,2233,2287,2269,2272,2228,2132,2177,2068,2062,2049,2051,1942,1881,1935,1850,1774,1830,1769,1689,1695,1601,1565,1558,1531,1529,1440,1419,1478,1482,1426,1534,1537,1494,1490,1535,1518,1529,1536,1533,1539,1590,1541,1550,1565,1563,1570,1542,1570,1582,1583,1616,1573,1563,1570,1625,1555,1559,369,370,371,372,373,399,452,510,558,594,605,597,594,584,574,565,557,545,535,525,515,506,496,486,476,465,457,447,437,427,418,408,398,388,379,374,375,376,372,377,374,387,387,389,380,389,376,385,391,411,386,396,399,401,387,389,395,403,397,385,388,393,377,383,381,835,888,839,847,883,1158,1211,1370,1473,1497,1474,1480,1454,1427,1400,1373,1346,1319,1292,1265,1259,1211,1184,1131,1130,1079,1052,1057,1023,973,946,920,893,889,850,848,853,884,861,881,876,891,912,902,892,922,886,932,899,928,894,896,913,936,916,909,915,906,906,916,913,934,899,904,890,1642,1720,1734,1845,2087,2318,2535,2684,2755,2701,2790,2712,2642,2640,2607,2568,2449,2385,2433,2281,2284,2237,2169,2200,2117,2016,1975,1972,1889,1883,1804,1745,1727,1751,1712,1675,1709,1681,1941,1928,1895,1920,1918,1965,1985,1996,1964,2058,1956,1981,1976,2022,2001,2075,2027,2002,1985,2002,2006,2019,2009,2024,1986,1987,1943,703,726,707,709,772,876,978,1123,1252,1271,1268,1245,1229,1207,1175,1162,1140,1132,1082,1059,1050,1028,995,966,943,920,897,912,850,827,887,781,758,750,717,714,718,723,721,733,725,760,720,753,732,761,745,749,749,731,747,736,748,751,746,746,751,746,758,740,744,754,746,763,761,1043,1063,1049,1093,1203,1282,1492,1668,1686,1725,1716,1724,1662,1669,1652,1614,1552,1502,1475,1447,1420,1456,1417,1394,1312,1307,1278,1250,1223,1227,1187,1141,1113,1109,1061,1075,1074,1104,1091,1110,1105,1121,1166,1130,1124,1173,1119,1157,1144,1157,1133,1129,1158,1173,1310,1248,1176,1158,1137,1139,1130,1147,1144,1157,1118,0,0,0,0,0,0,0,0,0,0,0,0,0,0,0,0,0,0,0,0,0,0,0,0,0,0,0,0,0,0,0,0,0,0,0,0,0,0,0,0,0,0,0,0,0,0,0,0,0,0,0,0,0,0,0,0,0,0,0,0,0,0,0,0,0,1103,1107,1104,1141,1218,1407,1637,1832,1891,1932,1899,1894,1843,1847,1845,1777,1691,1679,1651,1591,1566,1533,1498,1500,1468,1392,1422,1368,1300,1266,1249,1200,1160,1140,1138,1160,1127,1126,1162,1176,1175,1187,1216,1181,1193,1231,1198,1205,1234,1212,1302,1292,1315,1249,1365,1306,1256,1215,1196,1190,1204,1195,1202,1230,1183,261,262,263,263,264,274,308,342,376,410,425,418,412,405,399,393,386,380,373,367,360,354,347,341,334,328,321,315,308,302,295,289,282,276,269,265,266,266,255,258,254,261,259,263,258,270,256,261,261,257,257,263,263,261,262,264,261,262,268,264,258,265,258,264,259,1479,1513,1515,1603,1789,2044,2237,2382,2465,2432,2499,2453,2421,2354,2369,2311,2211,2151,2180,2085,2036,2000,1994,1963,1913,1831,1771,1781,1702,1692,1614,1644,1544,1576,1516,1495,1508,1603,1658,1643,1648,1665,1652,1678,1662,1673,1662,1671,1673,1663,1662,1660,1682,1682,1687,1690,1697,1692,1681,1667,1675,1679,1687,1686,1674,929,912,949,922,977,1121,1304,1526,1602,1610,1600,1602,1573,1514,1573,1485,1428,1465,1441,1389,1314,1310,1256,1252,1223,1170,1142,1135,1084,1056,1027,998,970,943,945,924,928,953,938,943,947,970,963,961,950,977,952,955,954,959,950,965,958,977,980,978,968,967,960,975,971,1003,980,993,982,1043,1046,1049,1101,1144,1311,1549,1680,1807,1813,1801,1769,1737,1753,1772,1689,1611,1579,1590,1516,1484,1453,1421,1431,1420,1326,1295,1319,1231,1200,1201,1136,1105,1078,1112,1090,1064,1069,1092,1101,1092,1138,1113,1111,1107,1122,1118,1127,1124,1119,1115,1110,1098,1101,1113,1122,1105,1105,1097,1103,1104,1118,1120,1124,1097,908,910,950,921,976,1119,1302,1527,1622,1660,1598,1569,1541,1567,1496,1457,1488,1397,1403,1346,1312,1283,1254,1272,1197,1168,1140,1111,1083,1064,1025,999,968,941,941,922,968,932,930,958,955,954,973,947,961,977,955,958,977,946,966,959,980,991,1142,1089,1003,963,962,955,954,952,962,1007,939,1445,1509,1477,1541,1716,1992,2163,2374,2468,2475,2481,2487,2313,2272,2228,2215,2218,2114,2089,2084,2088,1960,1915,1883,1842,1777,1713,1733,1717,1588,1587,1547,1494,1532,1532,1536,1459,1479,1602,1594,1588,1619,1609,1604,1681,1687,1604,1658,1646,1625,1617,1662,1664,1686,1679,1682,1667,1680,1678,1654,1632,1635,1611,1609,1591,952,954,957,969,1030,1181,1371,1535,1636,1703,1664,1634,1605,1623,1657,1546,1486,1457,1470,1398,1368,1338,1309,1321,1287,1220,1190,1196,1131,1102,1072,1042,1013,986,968,998,972,977,989,993,989,1042,988,1028,994,1024,1015,1016,1035,1000,1017,1005,1006,1024,1016,1015,1013,1009,1021,1007,1014,1016,1015,1051,1026,626,660,662,664,641,690,845,846,921,965,972,1086,944,977,964,902,888,874,860,846,832,892,859,790,776,762,806,817,772,706,692,720,703,707,672,634,670,671,667,672,671,676,679,680,674,685,674,678,675,680,695,718,710,695,683,692,684,682,685,692,677,692,670,683,679,1833,1793,1988,2032,2245,2570,2728,3005,2994,2953,3114,2927,2828,2877,2859,2749,2622,2551,2590,2518,2485,2355,2353,2275,2207,2177,2154,2077,2052,1961,1937,1907,1846,1847,1812,1876,1856,1826,2149,2129,2108,2165,2198,2190,2150,2187,2239,2207,2259,2220,2262,2315,2278,2312,2264,2278,2317,2300,2353,2306,2318,2366,2347,2341,2303,921,904,907,913,990,1064,1201,1385,1410,1453,1449,1424,1403,1381,1360,1333,1314,1325,1273,1252,1222,1208,1208,1153,1133,1110,1088,1065,1043,1038,997,993,950,930,917,933,917,938,927,931,927,966,916,967,935,962,948,951,970,935,947,939,948,966,958,948,950,950,959,945,950,955,947,989,967,1120,1125,1122,1160,1240,1432,1731,1873,1916,1973,1924,1881,1867,1870,1833,1800,1713,1699,1668,1613,1587,1554,1518,1520,1488,1412,1422,1387,1318,1285,1307,1217,1178,1157,1155,1203,1144,1143,1199,1184,1184,1188,1188,1220,1219,1227,1207,1218,1234,1216,1219,1220,1218,1253,1250,1215,1221,1233,1229,1248,1230,1222,1244,1281,1244,725,727,732,730,751,846,976,1106,1211,1258,1257,1235,1256,1191,1170,1148,1126,1104,1114,1061,1039,1043,995,973,952,930,908,886,865,843,821,799,777,756,738,736,739,743,732,743,738,754,747,756,744,751,746,747,744,743,741,756,748,755,755,760,758,755,762,755,756,778,759,770,759,712,711,716,719,739,811,915,1018,1103,1144,1146,1128,1110,1092,1074,1089,1039,1021,1003,985,977,956,932,914,896,904,860,851,825,807,789,771,754,736,723,724,735,723,729,723,717,722,743,747,737,749,751,783,756,785,782,783,761,774,771,753,766,770,787,814,795,814,808,814,784,362,363,364,366,367,390,441,489,539,584,594,585,575,566,557,548,538,529,520,511,501,492,483,474,465,455,446,437,428,418,420,400,391,381,372,368,369,370,361,364,361,371,369,373,365,384,362,372,369,363,365,373,372,369,370,372,370,370,380,371,365,368,365,371,365,1171,1195,1179,1239,1377,1589,1721,1930,1972,2040,1971,1955,1983,1886,1842,1883,1805,1813,1734,1664,1646,1638,1639,1542,1536,1474,1460,1452,1394,1356,1289,1321,1221,1258,1236,1189,1210,1243,1269,1259,1252,1257,1271,1314,1295,1313,1296,1311,1312,1320,1320,1318,1304,1342,1340,1302,1314,1311,1319,1363,1329,1340,1340,1397,1337,903,906,921,917,953,1116,1201,1335,1440,1484,1479,1455,1432,1408,1384,1361,1337,1314,1290,1283,1243,1219,1195,1172,1148,1124,1101,1077,1054,1030,1006,995,959,937,920,917,920,922,921,923,931,935,960,934,939,945,936,935,934,939,946,946,938,951,1039,1008,948,948,940,934,943,940,961,945,934,860,895,897,878,915,1047,1218,1379,1495,1524,1509,1501,1462,1435,1408,1381,1378,1326,1345,1266,1245,1227,1191,1173,1136,1109,1082,1093,1028,1001,968,941,914,888,875,881,878,883,905,889,901,980,906,889,911,938,914,898,908,901,905,897,911,905,913,900,898,894,909,917,893,921,899,909,914,939,924,945,940,1013,1088,1326,1387,1456,1476,1488,1505,1445,1411,1388,1397,1359,1338,1295,1295,1297,1233,1230,1209,1189,1174,1101,1147,1126,1041,1040,1016,971,994,985,1007,984,987,988,971,975,976,976,1007,1006,1003,991,1001,1022,1001,1004,998,1000,1023,1032,1003,1007,1017,1017,1026,1015,1008,1030,1067,1030,1455,1460,1516,1568,1699,1965,2229,2405,2470,2449,2554,2384,2332,2393,2305,2268,2166,2134,2205,2141,2017,1959,1925,1876,1834,1789,1766,1710,1669,1633,1602,1545,1505,1482,1466,1482,1486,1479,1571,1563,1568,1597,1568,1578,1577,1587,1601,1664,1598,1611,1687,1685,1696,1652,1636,1604,1590,1614,1610,1609,1598,1621,1614,1636,1608,805,807,809,812,850,1189,1135,1291,1396,1439,1433,1385,1381,1355,1308,1303,1277,1252,1226,1200,1174,1148,1122,1096,1070,1050,995,998,966,941,899,874,853,837,819,818,822,812,823,817,831,855,843,841,841,855,847,851,866,856,930,966,1035,909,854,838,841,853,847,829,833,853,837,860,840,1194,1283,1217,1246,1346,1546,1775,1974,2076,2090,2038,2027,2093,1931,1893,1866,1942,1796,1777,1704,1682,1647,1717,1599,1523,1505,1430,1434,1425,1337,1328,1294,1343,1316,1218,1239,1183,1224,1277,1256,1269,1261,1399,1283,1279,1274,1277,1292,1383,1391,1310,1319,1322,1320,1435,1344,1309,1322,1361,1325,1322,1311,1341,1335,1349,1495,1405,1467,1502,1639,1883,2115,2354,2407,2375,2493,2372,2304,2341,2278,2201,2110,2069,2096,2033,1947,1907,1915,1826,1785,1744,1731,1663,1665,1582,1567,1501,1466,1439,1423,1504,1466,1435,1525,1524,1533,1556,1533,1581,1588,1589,1536,1567,1572,1540,1541,1579,1593,1628,1623,1611,1585,1613,1598,1581,1560,1537,1556,1582,1537,362,363,364,366,367,390,441,489,539,584,594,585,575,566,557,548,538,529,520,511,501,492,483,474,465,455,446,437,428,418,420,400,391,381,372,368,369,370,354,350,353,355,356,355,356,357,355,361,361,360,360,362,361,358,361,364,365,368,363,363,368,366,366,366,366,711,723,716,698,719,794,929,1085,1096,1137,1138,1120,1123,1113,1077,1047,1029,1031,1020,986,956,949,920,902,884,889,847,829,811,793,806,756,738,720,721,702,756,706,708,725,721,708,709,715,718,721,716,744,737,733,748,728,730,724,747,735,726,746,816,766,753,730,761,746,756,835,888,839,847,883,1158,1211,1370,1473,1497,1474,1480,1454,1427,1400,1373,1346,1319,1292,1265,1259,1211,1184,1131,1130,1079,1052,1057,1023,973,946,920,893,889,850,848,853,884,861,881,876,891,912,902,892,922,886,932,899,928,894,896,913,936,916,909,915,906,906,916,913,934,899,904,890,329,330,331,332,333,354,400,447,494,537,586,539,531,522,513,504,496,487,478,470,461,452,443,435,426,417,408,400,391,382,374,365,356,347,339,334,335,336,324,328,330,335,334,333,338,333,326,341,333,330,337,337,337,342,357,341,334,330,333,332,332,338,332,337,330,737,756,735,739,743,848,969,1054,1131,1204,1229,1192,1184,1121,1098,1144,1071,1041,1033,1034,1015,996,969,938,939,891,901,864,863,824,803,831,788,762,735,731,750,741,736,741,733,751,738,754,737,766,747,754,754,751,760,753,764,770,769,768,766,768,768,763,772,777,779,778,779,433,434,435,437,439,475,538,601,665,712,720,708,697,685,674,662,651,666,639,616,605,593,592,570,559,547,570,524,522,501,489,478,466,455,444,439,440,450,435,427,429,434,463,462,452,465,455,472,462,442,460,435,440,456,449,440,457,440,433,452,452,469,458,464,450,175,176,177,177,178,183,207,232,256,280,293,289,284,279,275,270,265,261,256,251,247,242,238,233,228,224,219,214,210,205,200,196,191,186,182,178,179,179,167,165,166,165,175,175,167,175,167,167,172,175,172,173,178,187,181,184,171,178,175,179,185,181,186,190,184,996,998,1001,1009,1145,1280,1541,1676,1730,1743,1733,1779,1679,1637,1616,1641,1594,1566,1546,1460,1425,1420,1420,1357,1304,1350,1238,1236,1204,1152,1140,1123,1047,1031,1011,1014,1019,1024,1049,1045,1044,1156,1091,1066,1068,1083,1070,1080,1080,1087,1089,1112,1121,1116,1106,1078,1068,1078,1065,1062,1052,1078,1073,1085,1040,0,0,0,0,0,0,0,0,0,0,0,0,0,0,0,0,0,0,0,0,0,0,0,0,0,0,0,0,0,0,0,0,0,0,0,0,0,0,0,0,0,0,0,0,0,0,0,0,0,0,0,0,0,0,0,0,0,0,0,0,0,0,0,0,0,1030,1009,1035,1063,1215,1378,1530,1737,1774,1787,1777,1843,1721,1679,1658,1690,1635,1628,1614,1511,1509,1478,1405,1375,1340,1310,1300,1263,1259,1203,1159,1120,1081,1042,1045,1027,1054,1059,1052,1095,1054,1051,1074,1055,1070,1078,1075,1074,1099,1072,1076,1083,1084,1091,1088,1099,1098,1092,1107,1075,1098,1107,1127,1090,1092,537,559,559,542,549,599,678,758,836,884,933,874,892,842,832,817,803,789,775,757,747,733,718,704,693,676,662,658,633,619,605,594,580,584,550,546,547,551,545,552,556,575,565,557,559,570,553,571,568,576,598,587,613,607,567,561,571,565,569,556,567,575,561,568,560,506,507,518,510,604,562,732,712,787,833,871,846,812,799,785,801,758,745,732,745,789,691,693,664,651,627,614,611,588,605,570,557,535,542,529,513,515,516,522,523,531,524,526,532,536,527,523,546,542,540,534,534,532,540,534,542,524,531,524,524,526,525,526,531,536,66,67,67,67,67,68,76,84,92,100,107,105,104,102,101,99,97,96,94,93,91,89,88,86,85,83,81,80,78,77,75,74,72,70,69,67,67,68,46,46,46,46,44,44,46,46,46,44,46,46,44,44,44,44,44,46,46,46,46,44,46,46,44,46,46,329,331,342,332,333,354,401,449,496,540,550,541,533,524,517,506,497,488,480,471,464,453,446,436,427,418,409,400,392,417,374,365,356,348,339,334,335,336,330,333,323,326,332,332,340,347,330,333,333,342,338,330,330,333,334,333,332,333,326,328,325,330,332,328,320,718,702,722,715,751,809,910,1016,1141,1164,1131,1135,1130,1116,1058,1074,1053,1024,1001,997,992,974,904,914,920,877,856,864,821,811,813,787,768,745,701,709,685,725,718,723,713,730,732,732,745,744,729,729,736,743,737,729,731,740,731,731,737,736,728,725,725,737,730,732,714,203,203,204,205,205,213,242,270,298,327,341,335,330,324,319,313,308,302,297,292,286,276,275,270,264,259,253,248,242,237,231,226,221,215,210,206,206,207,203,198,193,194,209,217,203,211,210,218,211,226,225,225,216,223,216,209,222,212,222,247,220,232,227,234,220,1295,1285,1268,1353,1566,1787,2042,2213,2269,2282,2223,2179,2138,2133,2091,2096,2026,1986,1955,1883,1805,1887,1796,1686,1674,1633,1587,1574,1531,1444,1454,1396,1343,1293,1275,1320,1288,1320,1346,1383,1352,1364,1386,1366,1367,1383,1376,1379,1388,1374,1395,1384,1382,1390,1397,1396,1392,1394,1435,1399,1417,1432,1448,1413,1402,1168,1177,1244,1316,1392,1502,1651,1897,1973,1938,2003,1865,1915,1824,1757,1753,1785,1732,1611,1691,1598,1634,1556,1538,1530,1494,1459,1424,1334,1372,1380,1318,1321,1177,1206,1209,1141,1235,1252,1295,1252,1268,1276,1265,1272,1283,1277,1281,1292,1273,1292,1279,1287,1289,1292,1297,1302,1299,1325,1275,1303,1310,1326,1302,1297,328,329,330,331,332,347,387,427,467,506,518,510,503,495,488,480,473,465,458,450,443,476,427,420,412,405,397,390,382,375,367,360,352,345,337,332,333,334,319,323,327,334,334,335,325,341,322,349,333,356,330,331,345,358,339,333,340,339,337,335,337,340,324,326,324,68,69,69,69,69,70,79,88,97,106,113,111,110,108,106,104,103,101,99,97,96,94,92,90,89,87,85,83,82,80,78,76,75,73,71,69,70,70,48,49,49,49,49,49,49,49,48,51,48,48,49,49,50,52,50,49,49,48,49,49,49,50,48,49,48,525,527,529,530,536,585,688,739,846,861,896,882,839,853,839,798,784,771,782,743,729,740,725,704,674,660,659,654,619,626,605,597,564,550,537,552,535,536,542,549,546,552,554,553,553,565,544,556,548,547,552,562,560,555,560,555,553,553,568,564,549,554,550,555,552,826,833,805,845,823,900,1008,1215,1221,1253,1317,1327,1217,1199,1186,1185,1139,1120,1178,1131,1076,1106,1059,1061,980,1023,1004,958,913,884,901,871,854,849,835,791,796,788,814,814,817,830,823,816,830,824,825,821,836,830,822,828,838,832,835,832,825,837,844,825,827,832,831,821,818,991,1004,992,998,1083,1209,1370,1478,1549,1581,1576,1614,1570,1546,1497,1458,1434,1411,1433,1363,1340,1316,1284,1270,1276,1250,1224,1160,1151,1117,1092,1081,1067,1045,1039,1005,1030,1032,1042,1049,1049,1075,1076,1072,1072,1088,1063,1089,1092,1097,1162,1193,1259,1136,1081,1073,1066,1080,1069,1052,1054,1075,1066,1075,1045,343,319,322,323,324,343,388,467,479,521,532,523,515,507,533,490,481,473,464,456,447,440,431,422,417,405,397,388,380,372,363,358,349,338,353,325,326,329,323,317,318,364,327,328,311,319,323,355,378,330,341,326,330,327,363,328,319,333,316,326,319,311,334,325,314,361,363,364,366,366,391,445,495,549,593,602,593,583,573,564,555,546,535,526,516,506,496,487,478,468,458,448,439,429,421,410,400,391,381,371,367,368,369,361,361,360,372,370,362,360,365,365,371,378,386,458,467,481,416,374,365,372,373,365,374,366,365,366,373,365,312,313,314,315,316,333,376,419,461,528,539,506,498,490,482,474,466,458,450,442,434,426,417,409,401,393,385,377,369,361,353,345,337,329,321,317,317,318,305,303,309,316,311,309,309,315,310,311,312,314,332,342,346,327,318,314,314,324,318,311,315,320,312,317,312,780,819,838,780,844,903,1060,1137,1242,1261,1294,1326,1219,1244,1181,1229,1204,1186,1100,1107,1074,1053,1024,1036,990,984,971,926,919,890,857,887,868,810,795,810,789,791,786,785,789,797,818,793,797,804,805,806,800,801,802,813,828,833,876,874,839,830,815,810,820,810,822,818,812,973,957,1005,974,1050,1159,1301,1446,1543,1546,1549,1600,1452,1498,1456,1431,1472,1470,1308,1328,1260,1278,1254,1187,1207,1140,1155,1130,1107,1044,1020,1026,1000,985,1021,969,936,939,973,967,976,990,984,989,994,1007,990,997,1003,991,1015,1015,1015,1005,989,988,999,994,997,983,989,999,986,1000,996,485,487,488,490,494,536,607,678,789,832,841,789,777,764,751,738,726,806,700,687,675,662,649,636,624,611,598,585,573,560,547,534,522,509,497,493,494,495,488,493,493,513,527,506,501,530,504,529,524,537,616,586,624,557,513,498,523,504,501,504,507,522,508,511,507,452,452,455,457,459,498,551,672,696,744,750,739,730,700,680,734,679,667,655,643,631,607,607,595,574,571,600,547,569,562,511,491,490,477,449,450,446,464,453,455,458,486,476,483,483,453,465,477,471,461,484,456,456,456,462,468,461,453,457,462,462,455,455,485,449,906,900,913,883,971,1049,1199,1308,1614,1445,1487,1449,1433,1409,1333,1310,1332,1323,1292,1219,1300,1174,1313,1160,1201,1115,1106,1064,1044,1035,995,988,1004,901,901,885,887,928,924,919,907,935,976,1015,935,939,946,962,952,953,952,952,942,950,948,955,969,940,943,989,963,974,986,957,950,991,1004,992,998,1083,1209,1370,1478,1549,1581,1576,1614,1570,1546,1497,1458,1434,1411,1433,1363,1340,1316,1284,1270,1276,1250,1224,1160,1151,1117,1092,1081,1067,1045,1039,1005,1030,1032,1021,1057,1059,1038,1065,1042,1065,1075,1054,1047,1077,1038,1062,1053,1069,1075,1237,1190,1105,1061,1059,1053,1050,1046,1061,1114,1035,1578,1511,1599,1641,1758,2092,2201,2451,2448,2408,2400,2370,2366,2308,2254,2227,2171,2233,2138,2048,2034,1960,2084,1905,1857,1841,1792,1759,1715,1678,1624,1568,1619,1533,1529,1504,1541,1524,1612,1634,1634,1646,1663,1670,1663,1683,1655,1694,1671,1651,1669,1664,1685,1692,1685,1683,1674,1655,1675,1680,1673,1686,1662,1696,1665,329,330,331,332,333,354,400,447,494,537,586,539,531,522,513,504,496,487,478,470,461,452,443,435,426,417,408,400,391,382,374,365,356,347,339,334,335,336,324,328,330,335,334,333,338,333,326,341,333,330,337,337,337,342,357,341,334,330,333,332,332,338,332,337,330,997,960,957,1031,1071,1225,1419,1630,1647,1711,1697,1643,1638,1607,1577,1547,1543,1453,1442,1404,1398,1367,1338,1308,1252,1224,1218,1195,1151,1101,1075,1049,1038,1011,977,1025,978,983,1003,1008,1022,1030,1055,1028,1035,1023,1024,1028,1017,1012,1022,1023,1028,1031,1047,1035,1011,1009,1015,1015,1015,1023,1031,1037,1015,1821,1767,1902,2032,2223,2571,2790,2843,2929,3026,2953,2936,2849,2790,2758,2677,2617,2562,2563,2522,2467,2346,2348,2304,2272,2280,2093,2096,2005,2024,1965,1878,1837,1827,1791,1791,1817,1867,2079,2088,2095,2124,2170,2176,2142,2169,2167,2187,2216,2225,2233,2277,2245,2266,2269,2286,2308,2325,2351,2312,2337,2374,2384,2379,2370,825,827,830,849,884,1025,1183,1362,1435,1497,1491,1441,1441,1390,1365,1339,1329,1279,1263,1228,1212,1186,1150,1178,1092,1085,1047,1101,995,979,935,932,892,867,841,854,844,848,845,838,851,866,859,866,858,868,852,881,871,858,861,854,864,874,864,864,868,854,856,863,864,871,862,884,864,1199,1182,1230,1252,1369,1560,1690,1840,1922,2068,1991,1896,1865,1810,1779,1772,1776,1745,1692,1649,1673,1567,1554,1538,1476,1511,1473,1438,1354,1352,1311,1275,1250,1226,1219,1232,1224,1236,1275,1267,1268,1282,1265,1288,1335,1343,1284,1303,1294,1273,1277,1318,1326,1344,1335,1314,1325,1343,1345,1326,1302,1310,1282,1289,1282,182,182,183,183,184,189,214,239,264,289,305,300,295,290,286,281,276,271,266,261,256,252,247,242,237,232,227,222,218,213,208,203,198,193,188,184,185,185,172,177,174,175,177,178,175,179,173,178,173,174,175,180,180,182,180,178,178,175,184,186,177,179,175,178,177,1227,1255,1295,1286,1424,1682,1947,2002,2087,2099,2141,2040,2034,1998,1967,1951,1889,1913,1795,1824,1742,1728,1701,1614,1597,1623,1523,1494,1425,1432,1397,1323,1289,1262,1266,1247,1246,1313,1299,1298,1304,1315,1317,1342,1313,1344,1333,1337,1322,1323,1326,1329,1334,1321,1336,1348,1332,1343,1334,1330,1336,1346,1336,1349,1321,0,0,0,0,0,0,0,0,0,0,0,0,0,0,0,0,0,0,0,0,0,0,0,0,0,0,0,0,0,0,0,0,0,0,0,0,0,0,0,0,0,0,0,0,0,0,0,0,0,0,0,0,0,0,0,0,0,0,0,0,0,0,0,0,0,1622,1619,1710,1769,1934,2435,2508,2583,2658,2713,2644,2631,2612,2511,2522,2454,2418,2330,2311,2291,2223,2250,2132,2165,2060,2018,1961,1901,1871,1929,1780,1700,1757,1640,1681,1590,1672,1820,1866,1888,1869,1892,1909,1874,1897,1925,1892,1903,1901,1917,1905,1914,1923,1939,1962,1963,1943,1922,1925,1908,1927,1933,1933,1928,1946,1051,1054,1037,1126,1167,1309,1517,1765,1772,1831,1789,1758,1863,1694,1749,1631,1627,1594,1634,1504,1472,1441,1459,1401,1346,1377,1282,1251,1241,1208,1156,1124,1092,1065,1050,1049,1074,1059,1078,1073,1096,1099,1108,1144,1101,1118,1115,1120,1144,1118,1120,1136,1136,1139,1115,1110,1112,1127,1112,1112,1118,1135,1113,1129,1128,1165,1169,1218,1211,1388,1557,1819,1887,1977,2027,2044,1953,1919,1884,1913,1862,1824,1746,1711,1729,1642,1661,1572,1538,1572,1551,1466,1399,1365,1367,1333,1261,1246,1200,1226,1184,1190,1237,1275,1281,1251,1267,1271,1312,1273,1296,1307,1369,1288,1334,1317,1328,1300,1361,1333,1287,1288,1279,1309,1340,1320,1350,1330,1342,1302,1030,1033,1036,1076,1139,1307,1514,1681,1769,1798,1787,1758,1749,1692,1709,1628,1597,1662,1539,1502,1470,1439,1457,1375,1344,1316,1310,1286,1217,1185,1164,1122,1090,1063,1048,1047,1052,1092,1076,1081,1077,1090,1110,1077,1089,1123,1100,1095,1112,1104,1187,1183,1207,1151,1258,1204,1136,1123,1098,1099,1111,1087,1103,1114,1087,1582,1554,1646,1738,1905,2266,2470,2539,2577,2623,2548,2543,2514,2417,2544,2391,2412,2287,2310,2184,2152,2092,2185,2073,1999,1978,1863,1832,1855,1775,1706,1718,1688,1636,1592,1572,1630,1675,1787,1778,1781,1803,1784,1800,1799,1802,1812,1866,1807,1811,1832,1835,1828,1849,1842,1843,1823,1832,1834,1836,1836,1853,1841,1861,1848,1074,1077,1119,1106,1196,1420,1707,1790,1837,1864,1909,1820,1787,1754,1771,1737,1657,1624,1591,1698,1526,1577,1461,1428,1396,1408,1331,1298,1265,1270,1238,1167,1135,1108,1093,1092,1097,1102,1113,1120,1128,1154,1138,1144,1131,1131,1127,1126,1141,1130,1160,1174,1162,1141,1137,1146,1147,1156,1154,1134,1153,1154,1126,1139,1134,588,590,591,593,600,643,715,787,857,901,910,897,931,918,906,845,832,870,806,793,780,767,754,741,754,715,702,689,676,663,650,637,625,612,600,596,618,598,587,594,599,613,632,629,609,637,601,653,621,633,621,610,630,649,626,615,636,618,618,632,624,641,613,619,609,1829,1815,1961,2223,2500,2779,2973,3273,3185,3160,3155,3052,3182,3061,2943,2813,2761,2731,2802,2697,2581,2545,2528,2437,2364,2365,2267,2188,2151,2088,1971,1944,1860,1871,1855,1868,1888,1890,2172,2186,2234,2257,2247,2259,2283,2305,2298,2317,2344,2340,2374,2361,2368,2396,2427,2442,2422,2463,2482,2489,2485,2514,2507,2540,2565,1058,1040,1065,1098,1147,1261,1418,1533,1615,1649,1659,1636,1610,1585,1558,1534,1506,1495,1459,1428,1432,1376,1367,1357,1296,1272,1246,1218,1194,1168,1142,1116,1090,1082,1069,1052,1078,1083,1075,1069,1084,1108,1096,1096,1090,1113,1096,1103,1101,1095,1101,1128,1152,1137,1120,1114,1089,1107,1096,1090,1087,1115,1100,1119,1088,1244,1248,1314,1306,1463,1716,1932,2028,2112,2124,2166,2101,2074,2038,1990,1974,1911,1902,1817,1813,1763,1749,1691,1634,1617,1642,1543,1486,1444,1451,1415,1341,1306,1279,1258,1264,1264,1305,1346,1357,1304,1317,1348,1342,1338,1359,1359,1357,1402,1353,1357,1367,1371,1372,1346,1388,1415,1384,1413,1388,1364,1374,1413,1348,1351,850,849,851,856,899,1015,1168,1354,1453,1453,1450,1425,1400,1410,1350,1348,1300,1425,1281,1226,1201,1176,1151,1126,1101,1076,1052,1027,1002,977,952,927,902,878,862,864,864,869,889,893,845,841,876,866,867,870,875,899,931,879,883,898,907,897,871,900,902,913,947,904,891,892,940,873,871,782,785,787,842,821,910,1032,1153,1242,1403,1296,1340,1243,1223,1202,1182,1161,1170,1120,1100,1079,1076,1038,1034,997,976,964,935,923,917,873,853,832,812,805,794,796,798,793,808,806,821,832,822,818,832,805,829,820,847,810,829,838,839,837,841,837,838,829,816,815,823,827,821,805,432,434,435,436,438,470,530,591,651,699,709,698,687,676,665,654,642,631,620,609,598,587,576,565,554,543,532,521,510,498,487,476,465,454,443,439,440,441,439,446,440,445,452,449,447,454,444,445,446,446,444,447,448,448,449,446,449,446,452,456,446,461,446,452,447,1313,1285,1307,1362,1546,1771,2002,2134,2252,2273,2209,2190,2167,2118,2151,2033,1978,1942,1999,1938,1802,1826,1753,1789,1652,1689,1617,1592,1558,1515,1427,1433,1356,1372,1314,1344,1363,1362,1440,1414,1418,1426,1434,1458,1475,1479,1452,1482,1457,1432,1425,1489,1494,1481,1483,1498,1486,1503,1482,1476,1478,1461,1434,1440,1428,974,977,980,991,1055,1158,1313,1453,1556,1594,1589,1583,1539,1513,1488,1462,1437,1412,1386,1361,1335,1326,1285,1259,1234,1208,1183,1158,1132,1107,1081,1056,1030,1007,991,988,991,994,1021,986,984,1031,986,1007,1058,1103,1076,1017,1009,991,1020,1009,1051,1037,1107,1038,1028,1019,1029,1045,1039,1015,989,1009,989,982,980,987,1001,1075,1231,1482,1600,1677,1715,1706,1676,1646,1616,1596,1603,1525,1495,1465,1428,1404,1374,1352,1354,1284,1248,1223,1193,1163,1141,1138,1072,1042,1010,999,998,1003,1008,1027,1030,1028,1036,1042,1050,1044,1051,1044,1043,1054,1059,1133,1131,1146,1093,1045,1057,1060,1072,1055,1049,1065,1035,1051,1050,1037,995,998,1001,1068,1172,1206,1378,1498,1567,1602,1599,1576,1566,1553,1502,1483,1544,1423,1413,1390,1354,1343,1320,1297,1245,1230,1227,1203,1160,1157,1091,1066,1088,1026,1087,1078,1012,1007,1052,1075,1026,1027,1062,1045,1054,1063,1057,1055,1099,1058,1062,1078,1080,1085,1055,1084,1091,1084,1111,1062,1070,1080,1116,1055,1053,1601,1617,1635,1792,2025,2164,2389,2739,2607,2640,2699,2563,2682,2474,2472,2384,2351,2324,2361,2233,2196,2108,2112,2020,1987,2027,1883,1842,1886,1782,1709,1672,1630,1642,1724,1602,1604,1606,1774,1795,1790,1818,1790,1811,1797,1816,1808,1832,1807,1795,1800,1795,1868,1819,1834,1823,1838,1835,1826,1800,1825,1831,1822,1833,1813,927,929,932,968,1007,1154,1339,1502,1599,1631,1623,1594,1601,1537,1494,1479,1450,1401,1392,1348,1334,1293,1258,1225,1201,1172,1160,1115,1108,1073,1044,1015,986,945,929,942,947,952,968,959,973,1004,998,974,975,975,970,1012,1044,991,1007,993,983,990,988,998,975,978,970,988,977,971,981,985,992,1331,1300,1333,1400,1528,1754,2125,2142,2209,2241,2193,2174,2150,2079,2134,2065,1992,1953,1986,1881,1854,1799,1803,1825,1684,1660,1598,1662,1530,1491,1464,1414,1406,1352,1466,1318,1344,1390,1409,1451,1414,1417,1471,1420,1436,1442,1440,1441,1466,1458,1453,1445,1451,1452,1486,1467,1465,1463,1496,1440,1463,1467,1490,1465,1460,1524,1571,1569,1718,1899,2099,2393,2609,2606,2559,2535,2524,2643,2528,2417,2318,2274,2231,2407,2173,2129,2085,2090,2012,1926,1989,1866,1796,1919,1709,1703,1623,1625,1562,1638,1586,1581,1561,1750,1735,1739,1776,1800,1795,1767,1762,1786,1830,1807,1828,1835,1863,1827,1813,1832,1817,1807,1800,1835,1864,1811,1823,1840,1813,1795,432,434,435,436,438,470,530,591,651,699,709,698,687,676,665,654,642,631,620,609,598,587,576,565,554,543,532,521,510,498,487,476,465,454,443,439,440,441,430,444,440,464,427,433,427,441,442,427,533,517,442,465,536,523,517,425,447,458,477,442,441,449,454,432,429,704,706,709,711,779,807,914,1021,1110,1194,1155,1166,1147,1100,1082,1063,1045,1026,1008,1044,971,953,935,916,947,880,861,863,885,827,808,769,751,733,719,715,717,719,715,720,724,726,737,730,737,725,723,735,728,724,733,736,729,732,749,737,732,733,737,731,740,738,730,736,731,997,960,957,1031,1071,1225,1419,1630,1647,1711,1697,1643,1638,1607,1577,1547,1543,1453,1442,1404,1398,1367,1338,1308,1252,1224,1218,1195,1151,1101,1075,1049,1038,1011,977,1025,978,983,1003,1008,1022,1030,1055,1028,1035,1023,1024,1028,1017,1012,1022,1023,1028,1031,1047,1035,1011,1009,1015,1015,1015,1023,1031,1037,1015,897,887,902,911,963,1054,1213,1347,1455,1445,1432,1468,1397,1374,1351,1349,1322,1282,1281,1233,1232,1190,1211,1164,1120,1112,1089,1065,1028,1005,998,972,967,927,908,910,913,903,912,897,899,902,897,927,916,912,916,920,938,923,928,923,922,942,951,927,927,945,938,951,942,930,957,978,962,199,199,200,201,201,208,235,263,291,319,335,329,324,319,313,308,303,297,292,286,281,276,270,265,260,254,249,244,238,233,227,222,217,211,206,202,202,203,186,192,188,190,193,192,192,196,189,195,190,189,192,195,197,200,197,195,193,192,200,196,194,194,194,197,194,957,977,977,993,1068,1183,1342,1482,1567,1593,1531,1570,1535,1637,1477,1433,1433,1408,1514,1334,1358,1300,1294,1216,1194,1202,1186,1170,1131,1103,1075,1053,995,1003,999,989,1024,992,999,997,1014,1013,1026,1063,1020,1035,1035,1036,1062,1037,1035,1045,1040,1050,1028,1029,1032,1042,1027,1032,1039,1050,1034,1045,1049,813,816,803,823,839,924,1054,1209,1268,1295,1305,1281,1259,1244,1248,1191,1190,1182,1163,1143,1087,1097,1055,1037,1041,984,963,948,922,903,926,860,844,821,816,826,804,834,832,827,825,825,836,832,836,833,836,832,831,836,840,840,847,843,836,845,836,841,844,848,840,851,835,837,833,1563,1595,1623,1732,1907,2206,2408,2577,2687,2560,2507,2483,2425,2466,2374,2313,2323,2221,2244,2138,2089,2076,2016,1945,1903,1871,1828,1802,1783,1716,1662,1638,1584,1576,1592,1637,1546,1621,1675,1685,1685,1694,1711,1694,1716,1725,1731,1739,1738,1743,1756,1763,1776,1788,1794,1799,1805,1812,1809,1831,1825,1838,1838,1889,1892,620,622,618,620,634,725,788,883,1069,1010,1053,999,983,966,986,930,1011,986,918,902,853,836,828,834,817,771,755,739,750,706,760,699,661,641,634,625,625,674,646,642,637,646,645,669,644,653,657,718,648,647,640,648,652,630,646,651,647,654,637,639,653,651,640,647,639,1565,1565,1693,1772,1951,2251,2536,2627,2686,2603,2549,2525,2466,2507,2433,2407,2376,2261,2301,2176,2128,2138,2085,2011,1934,1908,1884,1836,1834,1764,1696,1683,1576,1589,1626,1616,1581,1622,1724,1772,1733,1749,1763,1739,1761,1767,1765,1757,1786,1756,1770,1761,1780,1792,1820,1812,1793,1788,1819,1758,1785,1794,1812,1789,1778,0,0,0,0,0,0,0,0,0,0,0,0,0,0,0,0,0,0,0,0,0,0,0,0,0,0,0,0,0,0,0,0,0,0,0,0,0,0,0,0,0,0,0,0,0,0,0,0,0,0,0,0,0,0,0,0,0,0,0,0,0,0,0,0,0,945,956,943,950,1009,1168,1299,1433,1540,1512,1491,1485,1563,1449,1425,1389,1376,1348,1416,1299,1299,1254,1244,1162,1139,1157,1177,1153,1092,1091,1109,1039,997,993,978,968,999,950,977,980,989,1007,1014,1017,994,1022,983,994,998,1000,1001,1013,1020,1040,1051,1038,990,1005,1015,1020,1022,1020,1030,1050,1019,635,637,686,641,656,720,900,909,995,1039,1078,1065,1010,994,977,961,944,928,911,894,878,861,873,855,838,795,778,762,745,729,712,695,711,662,649,645,646,670,657,661,655,660,668,659,663,662,659,659,657,662,659,664,666,669,664,662,664,660,666,676,666,674,659,663,666,724,759,729,731,758,837,949,1061,1149,1189,1204,1172,1153,1183,1115,1096,1077,1058,1039,1019,995,976,962,943,919,905,881,862,848,829,810,791,772,753,739,735,737,739,741,746,740,745,753,745,751,748,747,746,745,749,747,753,754,756,753,753,754,749,754,764,755,763,747,752,752,362,364,365,366,367,391,442,494,546,592,604,595,585,575,566,556,546,537,527,518,508,498,489,479,469,460,450,440,431,421,411,402,392,382,373,368,369,370,356,363,368,376,370,373,364,374,361,386,365,362,374,370,387,400,380,373,378,371,378,374,380,386,368,373,365,712,715,717,719,745,845,932,1041,1204,1198,1189,1182,1162,1173,1124,1124,1060,1066,1080,1086,1009,966,1015,969,931,891,872,853,855,834,832,778,779,741,727,723,725,745,729,725,746,752,743,763,748,769,764,752,784,755,761,770,774,784,756,749,756,770,759,748,754,767,746,769,761,1781,1797,1917,2070,2352,2675,2803,3010,3019,2970,2938,2942,2900,2783,2727,2717,2618,2567,2542,2465,2414,2363,2318,2289,2216,2159,2108,2078,2056,1966,1935,1869,1849,1813,1816,1825,1818,1838,2125,2176,2119,2126,2183,2145,2159,2194,2154,2150,2215,2144,2191,2184,2207,2206,2355,2318,2232,2205,2253,2168,2162,2176,2249,2244,2145,893,839,880,906,889,958,1086,1268,1423,1356,1392,1371,1292,1271,1365,1287,1337,1245,1216,1191,1200,1219,1178,1150,1148,1108,1052,1033,1002,929,1006,982,915,934,830,906,854,897,900,906,901,985,946,936,931,916,927,951,931,934,942,925,902,908,917,938,935,913,930,945,924,913,939,909,908,921,924,985,962,983,1088,1227,1359,1506,1514,1525,1481,1505,1487,1443,1361,1370,1316,1429,1325,1311,1263,1272,1256,1176,1158,1110,1087,1094,1129,1038,1019,1028,951,965,935,959,994,988,971,975,969,1007,1039,985,998,1008,1035,1014,1054,1043,1052,1013,1031,1030,1015,1017,1016,1028,1100,1058,1065,1051,1046,1072,689,680,668,670,689,788,858,961,1055,1088,1100,1075,1058,1059,1087,1001,991,971,974,968,918,917,916,921,878,831,814,796,834,761,749,752,712,692,684,675,696,704,686,682,690,703,699,693,689,691,699,703,721,703,705,720,717,706,712,709,693,706,693,695,689,705,701,707,693,1060,1089,1089,1126,1215,1344,1523,1699,1742,1753,1701,1724,1699,1665,1637,1592,1589,1559,1547,1496,1442,1442,1437,1358,1327,1339,1317,1303,1254,1232,1202,1167,1118,1126,1122,1102,1093,1104,1145,1135,1137,1144,1137,1143,1168,1157,1154,1173,1164,1143,1152,1175,1179,1176,1172,1166,1172,1190,1176,1174,1175,1169,1151,1157,1143,1395,1383,1507,1507,1592,1876,1974,2112,2279,2339,2236,2215,2201,2140,2101,2071,2008,2072,2070,1917,1865,1835,1884,1811,1785,1702,1643,1609,1621,1572,1553,1477,1515,1428,1424,1423,1424,1428,1498,1491,1527,1603,1543,1556,1535,1578,1554,1542,1574,1548,1550,1554,1560,1564,1543,1531,1541,1547,1548,1563,1545,1571,1540,1554,1568,1621,1584,1646,1753,1917,2242,2310,2468,2547,2549,2521,2543,2455,2484,2355,2299,2291,2221,2252,2152,2120,2075,2097,2013,1953,1916,1870,1860,1782,1760,1763,1676,1675,1613,1619,1605,1653,1620,1725,1773,1734,1755,1774,1767,1754,1772,1769,1767,1784,1759,1763,1781,1782,1790,1800,1808,1802,1797,1818,1808,1816,1848,1843,1836,1826,456,457,459,460,463,499,565,631,697,746,755,743,731,719,707,695,683,671,659,647,635,623,611,599,587,575,563,551,539,527,515,503,491,479,467,463,464,465,461,463,461,468,468,467,465,481,458,468,463,462,465,472,472,470,470,469,465,464,478,476,461,464,464,469,465,984,1005,983,1001,1067,1255,1412,1556,1704,1596,1599,1567,1641,1515,1540,1461,1535,1430,1439,1394,1386,1320,1293,1262,1294,1210,1185,1159,1231,1162,1095,1049,1033,1004,1003,995,988,1022,1024,1029,1030,1039,1070,1045,1046,1063,1046,1072,1060,1059,1075,1080,1070,1081,1055,1045,1066,1050,1042,1059,1061,1066,1052,1057,1051,788,804,804,811,847,942,1054,1159,1284,1308,1258,1302,1266,1246,1217,1183,1184,1162,1172,1102,1081,1074,1076,999,984,997,976,975,918,917,893,876,822,842,817,824,815,823,804,815,816,837,829,821,833,851,821,829,823,825,824,822,821,837,839,827,831,822,818,831,828,852,840,850,838,1378,1387,1415,1499,1599,1840,2009,2114,2201,2310,2250,2219,2177,2115,2143,2060,2024,1970,2007,1953,1857,1881,1882,1764,1734,1701,1641,1601,1635,1595,1562,1515,1451,1457,1432,1457,1418,1447,1541,1535,1510,1532,1531,1572,1537,1548,1574,1639,1554,1603,1597,1605,1560,1608,1597,1555,1548,1556,1571,1611,1604,1620,1601,1600,1567,796,839,806,841,884,934,1100,1182,1268,1305,1361,1365,1264,1295,1300,1201,1230,1159,1138,1124,1096,1076,1061,1034,1056,1034,997,956,975,947,925,872,882,866,834,849,839,818,836,832,850,876,860,856,841,858,851,882,864,863,920,940,982,942,898,869,867,882,868,861,867,890,863,885,856,945,948,959,970,1036,1159,1366,1437,1575,1534,1527,1549,1472,1474,1449,1449,1379,1381,1411,1380,1301,1310,1271,1217,1155,1177,1145,1111,1108,1091,1054,1066,990,1018,998,988,1026,1003,998,1006,1034,1062,1063,1072,1069,1030,1030,1060,1020,1006,1019,1027,1024,1021,1050,1035,1011,1009,1021,1020,1009,1020,1027,1049,1012,622,635,647,626,654,718,814,909,996,1039,1023,1007,1012,995,977,960,925,927,910,894,884,846,844,811,817,780,783,756,744,707,712,680,677,661,647,643,645,633,637,640,638,653,651,645,648,661,645,656,647,644,654,651,651,653,659,654,666,656,652,641,651,660,657,657,661,769,712,714,716,741,818,927,1036,1125,1165,1168,1151,1165,1112,1093,1074,1089,1121,1018,1000,981,962,1020,925,906,888,869,851,899,840,795,802,757,738,724,720,722,805,726,735,739,756,820,809,761,809,762,846,794,805,808,758,786,818,792,764,828,779,766,814,802,838,806,799,777,1621,1584,1646,1753,1917,2242,2310,2468,2547,2549,2521,2543,2455,2484,2355,2299,2291,2221,2252,2152,2120,2075,2097,2013,1953,1916,1870,1860,1782,1760,1763,1676,1675,1613,1619,1605,1653,1620,1763,1761,1828,2076,1843,1810,1820,1926,1862,1811,1933,1880,1827,1843,1916,1904,1866,1781,1812,1823,1854,1864,1802,1856,1812,1818,1836,1657,1666,1816,2001,2154,2433,2725,2774,2786,2773,2744,2766,2657,2714,2559,2552,2455,2407,2385,2310,2262,2214,2172,2134,2075,2021,1970,1963,1924,1828,1827,1735,1714,1686,1688,1693,1689,1697,1866,1923,1873,1901,1934,1895,1908,1934,1904,1912,1915,1902,1928,1923,1930,1945,2070,2016,1947,1934,1976,1918,1939,1950,1988,1947,1926,897,887,902,911,963,1054,1213,1347,1455,1445,1432,1468,1397,1374,1351,1349,1322,1282,1281,1233,1232,1190,1211,1164,1120,1112,1089,1065,1028,1005,998,972,967,927,908,910,913,903,912,897,899,902,897,927,916,912,916,920,938,923,928,923,922,942,951,927,927,945,938,951,942,930,957,978,962,620,622,599,626,639,671,795,889,934,1018,1022,1006,989,935,957,940,924,872,892,841,859,843,826,778,763,777,761,716,734,712,696,653,663,677,633,604,631,633,628,624,624,629,633,645,666,660,636,646,656,644,640,634,636,667,657,642,641,637,632,641,640,646,641,667,641,1074,1077,1028,1080,1125,1204,1373,1535,1693,1673,1788,1646,1687,1540,1506,1575,1547,1436,1513,1377,1445,1427,1346,1281,1326,1246,1197,1175,1151,1167,1113,1068,1063,1057,1030,1073,1025,1075,1043,1057,1065,1066,1081,1066,1063,1077,1065,1070,1083,1081,1090,1107,1096,1090,1067,1083,1083,1077,1069,1084,1083,1078,1089,1081,1076,543,545,522,549,556,577,689,770,808,894,901,886,872,819,843,829,814,764,785,737,756,742,728,681,668,684,670,626,613,627,612,571,583,569,556,527,553,555,539,545,544,544,552,552,553,549,550,555,550,552,560,561,561,552,552,565,559,561,562,554,563,557,556,555,549,596,598,600,602,614,673,762,852,936,979,984,968,953,937,957,906,890,874,900,843,827,843,796,780,764,749,733,717,701,719,670,654,639,623,632,605,607,609,618,609,608,615,610,628,672,674,614,644,629,615,614,656,663,677,667,647,664,675,680,655,640,631,618,617,614,996,999,1039,1092,1199,1267,1560,1644,1725,1744,1738,1804,1676,1645,1610,1583,1552,1521,1490,1459,1429,1396,1448,1334,1297,1266,1293,1210,1179,1168,1111,1078,1120,1027,1016,1007,1087,1025,1035,1045,1051,1070,1129,1107,1068,1118,1074,1160,1098,1128,1105,1074,1104,1150,1103,1078,1134,1098,1084,1120,1114,1154,1106,1100,1089,543,544,546,555,578,638,688,790,846,883,899,885,871,856,842,827,813,799,784,761,755,741,727,725,698,683,669,655,640,635,611,597,583,568,555,551,553,561,552,577,542,545,553,544,548,556,561,559,583,556,562,562,579,568,556,570,560,568,591,560,576,570,586,557,560,1038,1021,1036,1060,1153,1335,1553,1689,1770,1788,1782,1824,1719,1687,1651,1646,1650,1561,1581,1546,1468,1477,1443,1374,1366,1303,1303,1269,1234,1183,1175,1130,1109,1038,1067,1042,1062,1059,1112,1100,1093,1184,1164,1147,1129,1123,1147,1195,1141,1200,1244,1188,1115,1161,1162,1160,1162,1135,1220,1321,1272,1272,1279,1195,1192,898,901,905,901,959,1021,1185,1321,1406,1441,1499,1448,1419,1417,1343,1320,1297,1274,1277,1211,1205,1183,1187,1122,1103,1094,1048,1045,1022,1046,997,954,952,911,916,895,895,935,909,897,909,908,950,945,935,944,934,959,962,931,944,924,923,946,928,921,939,925,913,935,936,957,937,954,942,0,0,0,0,0,0,0,0,0,0,0,0,0,0,0,0,0,0,0,0,0,0,0,0,0,0,0,0,0,0,0,0,0,0,0,0,0,0,0,0,0,0,0,0,0,0,0,0,0,0,0,0,0,0,0,0,0,0,0,0,0,0,0,0,0,482,483,485,486,510,531,601,671,740,787,796,783,770,758,745,760,747,707,695,682,669,657,669,632,619,606,594,581,569,565,543,531,518,506,493,489,490,492,471,470,486,501,475,484,476,484,475,481,481,478,477,477,481,490,481,481,479,478,478,478,478,480,472,479,479,279,280,280,281,282,296,336,375,415,454,467,460,452,445,437,430,422,415,407,400,392,385,377,370,362,355,347,340,333,325,318,310,303,295,288,283,284,285,273,273,277,280,278,278,280,279,278,277,281,280,286,294,288,286,277,278,280,280,280,278,279,279,276,278,280,873,850,816,799,845,929,1039,1208,1271,1332,1385,1320,1355,1224,1216,1203,1182,1161,1178,1093,1099,1078,1075,1036,1016,995,967,936,916,934,888,848,863,828,814,825,827,860,822,843,829,820,833,852,836,852,844,879,856,881,893,871,860,866,881,856,862,868,948,930,894,889,901,904,892,502,522,505,506,511,578,655,705,779,825,861,847,833,793,822,792,778,739,726,737,699,712,673,682,646,633,619,627,593,579,566,553,539,526,513,509,511,512,513,510,507,548,533,511,522,531,517,540,575,531,536,521,513,518,519,530,513,511,504,508,508,509,522,518,498,1282,1285,1295,1377,1530,1806,1997,2198,2226,2293,2251,2223,2172,2130,2085,2091,2006,1964,1923,1881,1809,1798,1758,1715,1667,1626,1591,1546,1515,1439,1452,1383,1319,1299,1306,1320,1314,1334,1361,1358,1348,1383,1334,1414,1360,1392,1383,1391,1406,1388,1403,1369,1404,1424,1457,1380,1388,1422,1396,1406,1391,1386,1411,1429,1405,1151,1149,1195,1197,1336,1444,1633,1767,1897,1872,1862,1963,1777,1804,1792,1713,1711,1763,1624,1620,1608,1534,1505,1475,1424,1415,1424,1356,1326,1296,1266,1236,1207,1219,1172,1204,1228,1176,1206,1252,1208,1221,1231,1223,1222,1236,1233,1227,1252,1222,1226,1239,1237,1244,1243,1262,1253,1248,1267,1236,1256,1281,1285,1259,1252,738,740,719,740,762,811,930,1019,1064,1148,1153,1181,1120,1066,1094,1096,1056,1066,1025,1019,997,971,961,907,932,904,888,858,857,834,816,774,780,783,752,725,746,748,746,749,739,756,760,760,770,769,755,756,761,769,763,756,759,768,759,758,764,762,755,756,752,764,756,759,741,560,562,564,573,597,628,711,831,872,909,925,910,895,881,866,851,836,822,807,784,777,763,748,746,719,704,689,674,660,654,630,615,601,586,573,569,570,579,568,561,575,591,579,578,572,578,579,587,591,578,587,618,640,618,611,594,575,598,580,577,572,599,588,599,576,655,667,634,661,678,720,846,943,986,1072,1075,1058,1029,986,1007,991,974,920,939,890,904,891,874,822,810,825,808,763,739,758,742,699,699,682,668,639,666,668,670,666,674,668,664,662,668,676,669,686,712,672,670,672,676,684,678,692,677,690,705,678,689,680,670,677,662,1191,1162,1141,1229,1262,1424,1634,1800,1774,1875,1927,1853,1883,1751,1795,1681,1771,1697,1606,1627,1515,1561,1539,1459,1440,1456,1368,1297,1319,1296,1230,1214,1212,1234,1178,1146,1178,1152,1203,1208,1208,1244,1196,1238,1214,1241,1221,1237,1256,1223,1222,1218,1244,1249,1241,1246,1256,1236,1256,1245,1235,1239,1277,1248,1230,1240,1244,1247,1299,1437,1635,1876,2030,2104,2156,2153,2068,2050,1995,1954,1921,1915,1862,1810,1778,1740,1701,1666,1643,1588,1549,1518,1487,1445,1408,1366,1330,1300,1293,1274,1262,1269,1273,1333,1315,1306,1325,1379,1420,1348,1349,1360,1374,1345,1381,1392,1375,1352,1381,1361,1364,1386,1360,1390,1470,1445,1467,1470,1401,1401,613,615,606,588,597,640,733,816,896,975,1011,949,942,919,883,876,860,845,847,807,799,784,770,754,741,726,702,693,677,649,661,626,623,608,588,591,593,582,599,572,598,582,583,577,614,584,577,599,633,591,592,594,602,593,583,603,587,593,596,590,585,595,592,618,587,777,779,782,785,820,908,1029,1150,1385,1273,1274,1253,1233,1212,1225,1172,1151,1183,1215,1090,1070,1050,1029,1009,989,968,948,928,907,896,866,846,826,806,815,789,791,844,798,807,804,816,837,814,820,837,807,815,807,808,808,827,825,831,954,905,835,823,824,808,804,806,827,822,807,350,351,353,354,355,376,424,473,522,566,578,569,560,551,542,533,523,514,505,496,487,478,469,460,451,442,433,424,415,406,397,388,379,369,360,356,357,358,349,351,347,347,355,356,379,378,353,360,358,362,358,351,355,362,361,356,361,354,355,356,355,361,358,370,353,1151,1155,1134,1196,1264,1429,1664,1829,1796,1933,1955,1854,1882,1762,1806,1730,1716,1622,1650,1628,1555,1527,1505,1509,1441,1410,1380,1298,1321,1293,1236,1250,1208,1194,1171,1167,1172,1172,1213,1207,1198,1213,1204,1241,1210,1221,1242,1298,1221,1252,1253,1254,1237,1260,1264,1228,1220,1231,1246,1261,1258,1273,1264,1268,1243,809,816,818,821,875,951,1096,1201,1288,1328,1348,1307,1306,1264,1243,1222,1201,1180,1156,1138,1117,1095,1074,1053,1032,1011,1038,969,948,927,933,927,863,843,829,825,827,843,850,852,847,860,862,862,859,878,850,860,860,854,852,867,866,866,864,863,867,859,870,871,856,870,853,862,859,260,261,262,262,263,274,308,343,378,412,427,421,414,407,401,394,388,381,374,368,361,354,348,341,335,328,321,315,308,302,295,288,282,275,268,264,265,265,247,248,247,254,248,251,249,253,250,254,253,251,253,253,254,254,254,255,257,256,256,254,257,258,257,258,258,594,595,579,561,577,607,695,799,881,925,975,916,871,864,842,835,821,806,830,770,763,748,753,719,723,708,670,661,647,632,632,598,604,589,561,572,574,605,564,556,557,560,586,584,596,588,577,600,582,572,584,564,565,578,575,569,583,563,561,578,578,591,582,585,578,769,772,774,777,810,896,1015,1135,1223,1263,1264,1243,1223,1235,1183,1163,1142,1122,1102,1082,1061,1041,1021,1001,981,960,940,920,900,879,859,839,819,799,785,781,783,785,774,785,785,782,804,777,794,808,794,787,813,785,816,806,823,807,961,913,837,815,798,789,806,783,797,828,778,1240,1244,1247,1299,1437,1635,1876,2030,2104,2156,2153,2068,2050,1995,1954,1921,1915,1862,1810,1778,1740,1701,1666,1643,1588,1549,1518,1487,1445,1408,1366,1330,1300,1293,1274,1262,1269,1273,1335,1317,1320,1314,1351,1387,1337,1355,1360,1386,1371,1401,1407,1399,1367,1407,1371,1364,1373,1372,1392,1471,1448,1470,1449,1412,1432,1586,1579,1653,1764,1935,2192,2425,2566,2628,2661,2695,2617,2521,2533,2438,2424,2389,2296,2278,2209,2163,2117,2073,2063,2060,2039,1949,1871,1802,1757,1735,1704,1706,1621,1636,1601,1627,1637,1758,1761,1784,1811,1778,1803,1785,1805,1788,1804,1807,1793,1785,1801,1810,1822,1820,1819,1792,1822,1828,1810,1811,1795,1801,1832,1813,620,622,599,626,639,671,795,889,934,1018,1022,1006,989,935,957,940,924,872,892,841,859,843,826,778,763,777,761,716,734,712,696,653,663,677,633,604,631,633,628,624,624,629,633,645,666,660,636,646,656,644,640,634,636,667,657,642,641,637,632,641,640,646,641,667,641,345,346,347,348,349,365,421,470,519,564,574,565,556,546,537,528,519,510,501,492,482,473,464,455,446,430,428,418,409,394,391,382,373,364,354,350,351,352,342,335,345,353,349,348,339,340,348,356,358,348,351,383,400,383,379,358,343,356,343,349,338,354,350,361,343,676,693,682,699,695,777,881,970,1069,1044,1141,1087,1099,1063,1101,1058,1034,1011,979,972,961,937,924,875,885,849,855,804,827,777,751,754,736,698,684,726,702,692,697,691,692,698,707,723,717,723,714,713,723,707,709,721,706,723,712,707,714,707,702,717,718,714,707,718,709,424,425,426,428,430,467,530,588,650,745,706,752,695,667,691,653,638,626,611,615,593,585,576,559,550,542,522,513,499,491,480,474,457,443,435,430,431,433,418,430,429,433,434,435,430,435,426,446,429,427,433,437,447,460,447,441,439,430,444,442,442,445,432,440,432,225,226,226,227,228,237,269,300,331,363,376,370,404,358,352,346,340,334,328,322,316,310,338,298,292,318,280,305,298,262,256,300,244,239,233,228,229,230,220,227,225,233,230,234,224,234,223,232,226,226,224,230,234,240,232,232,231,227,235,234,228,235,223,230,224,987,979,992,1007,1180,1275,1473,1634,1817,1736,1757,1692,1655,1631,1622,1577,1542,1511,1476,1449,1418,1386,1361,1324,1296,1286,1255,1192,1239,1209,1107,1081,1112,1015,1005,1005,1010,1015,1040,1031,1049,1103,1074,1078,1067,1045,1055,1076,1068,1060,1059,1096,1126,1119,1088,1067,1059,1065,1059,1054,1050,1070,1055,1080,1046,123,124,124,125,125,128,145,184,201,218,208,205,202,219,216,213,209,206,182,178,196,193,190,186,162,158,177,151,148,145,163,138,135,131,128,125,126,126,115,118,119,121,121,123,117,123,116,127,118,116,119,120,126,132,125,120,121,117,124,123,121,123,116,119,116,998,1036,1046,1049,1163,1372,1518,1784,1800,1779,1848,1735,1698,1673,1727,1618,1583,1551,1567,1536,1501,1425,1417,1362,1365,1328,1291,1259,1221,1190,1142,1097,1089,1049,1040,1046,1053,1062,1076,1070,1075,1078,1072,1074,1090,1088,1082,1089,1090,1083,1084,1093,1099,1108,1106,1106,1090,1103,1116,1099,1098,1118,1088,1092,1089,495,497,498,500,504,547,620,692,761,753,820,807,794,780,767,785,741,728,715,702,689,703,663,650,637,624,635,598,617,572,558,545,532,519,507,503,504,505,494,496,507,516,508,518,501,516,501,524,509,510,507,509,517,523,516,513,519,509,516,515,515,523,500,509,502,447,468,449,470,474,491,608,618,687,736,775,762,719,703,715,683,671,659,648,681,668,612,600,613,576,564,553,541,526,539,517,493,481,489,457,473,455,456,450,456,462,473,477,480,461,485,457,496,472,481,470,468,484,500,479,470,483,471,475,479,475,484,460,467,460,0,0,0,0,0,0,0,0,0,0,0,0,0,0,0,0,0,0,0,0,0,0,0,0,0,0,0,0,0,0,0,0,0,0,0,0,0,0,0,0,0,0,0,0,0,0,0,0,0,0,0,0,0,0,0,0,0,0,0,0,0,0,0,0,0,270,271,273,274,273,288,326,364,403,441,507,445,440,431,424,416,409,402,396,387,425,374,367,358,351,344,337,329,322,316,308,300,293,287,280,274,275,276,266,265,265,270,269,268,268,274,264,269,269,266,268,271,270,269,269,271,270,270,273,269,268,269,269,270,269,687,630,660,672,686,713,808,972,989,1032,1035,996,1046,985,969,949,977,919,903,867,870,853,818,820,804,787,829,738,721,721,702,729,671,655,641,676,639,641,628,629,633,649,633,653,634,644,659,639,644,636,637,640,636,639,641,644,641,641,638,639,646,656,651,662,648,161,162,162,163,163,168,191,213,236,258,272,267,263,259,254,250,246,241,237,233,228,224,219,215,211,206,202,198,193,217,185,180,176,172,167,164,164,165,156,161,158,161,162,162,162,162,157,162,158,158,159,164,163,165,166,164,162,161,166,162,161,163,158,162,159,1247,1273,1258,1372,1534,1769,2027,2188,2256,2264,2207,2198,2162,2080,2096,2066,1975,1973,1909,1895,1830,1826,1770,1675,1667,1625,1619,1512,1510,1430,1415,1379,1335,1302,1295,1297,1297,1311,1348,1348,1351,1361,1367,1358,1388,1381,1374,1382,1399,1387,1464,1465,1484,1437,1383,1386,1386,1386,1388,1390,1389,1389,1379,1434,1384,1130,1090,1175,1201,1296,1422,1584,1750,1834,1862,1780,1807,1762,1694,1719,1616,1693,1691,1570,1507,1508,1419,1453,1426,1435,1406,1389,1281,1226,1236,1191,1258,1200,1177,1146,1187,1227,1117,1210,1206,1202,1206,1236,1287,1221,1251,1249,1264,1269,1272,1266,1269,1245,1281,1242,1242,1254,1243,1249,1306,1274,1305,1271,1276,1277,378,379,380,381,382,403,451,498,546,589,600,591,582,574,564,556,547,538,530,520,511,502,494,485,476,467,458,450,441,432,423,414,405,396,387,383,411,385,379,381,381,384,410,400,403,424,394,417,399,402,397,397,391,409,412,397,408,393,386,404,397,416,395,401,394,141,141,142,142,142,146,165,223,241,259,234,231,227,260,256,253,249,246,205,201,235,232,229,225,183,179,215,172,168,164,182,157,153,149,146,143,143,144,131,132,133,135,134,134,135,136,133,134,135,134,136,135,136,138,134,134,138,138,142,133,138,139,134,135,135,545,536,538,550,556,606,679,754,828,864,882,878,854,849,845,804,799,785,766,764,745,735,724,704,688,683,661,651,634,624,610,593,574,557,553,535,555,556,536,546,537,549,546,548,541,545,548,541,541,545,542,545,542,542,547,550,547,545,546,549,549,564,560,564,555,850,823,861,864,922,1020,1150,1219,1300,1332,1336,1397,1285,1324,1259,1235,1189,1194,1164,1145,1156,1113,1101,1066,1061,1018,1043,988,1002,939,970,946,920,884,865,850,852,849,866,869,869,879,885,874,878,890,882,884,891,893,902,916,907,914,883,879,890,890,881,889,891,884,883,886,884,1033,1031,1040,1057,1133,1280,1443,1559,1624,1678,1654,1645,1604,1596,1554,1530,1505,1480,1467,1439,1407,1448,1355,1327,1394,1277,1337,1236,1208,1161,1145,1114,1087,1064,1051,1049,1053,1051,1108,1095,1089,1177,1146,1138,1130,1115,1141,1177,1135,1197,1221,1185,1110,1142,1158,1157,1151,1130,1207,1298,1250,1249,1264,1176,1181,278,279,279,280,281,296,364,373,412,450,462,455,447,440,433,425,418,411,403,396,421,382,405,367,389,352,345,338,330,323,316,308,301,294,286,282,283,284,273,271,273,276,272,284,276,284,284,277,286,273,277,276,276,281,279,277,277,279,277,277,276,279,277,284,279,435,435,472,435,410,478,541,605,666,665,674,663,691,641,631,620,704,652,629,577,566,595,583,571,560,548,583,521,509,469,491,479,437,488,445,441,442,443,431,435,433,441,444,442,446,454,441,439,446,447,442,442,444,448,439,439,446,446,444,440,441,450,439,444,435,253,254,254,255,256,267,301,335,369,403,416,410,403,397,414,383,377,371,364,358,352,345,359,332,326,319,313,306,300,293,287,297,274,267,261,257,257,258,245,246,243,254,243,247,245,249,245,247,247,245,248,246,249,248,247,249,250,248,250,245,247,249,249,250,251,854,843,834,877,917,1010,1132,1310,1319,1344,1445,1354,1340,1332,1343,1309,1238,1224,1209,1222,1119,1118,1116,1093,1119,1033,1058,992,997,990,947,941,893,932,886,865,850,883,878,876,875,886,888,897,915,916,890,905,912,905,920,920,919,940,916,900,898,894,884,905,896,900,896,923,894,882,863,900,912,919,1065,1214,1325,1419,1411,1456,1374,1398,1382,1331,1295,1322,1250,1275,1234,1228,1205,1181,1155,1132,1109,1072,1064,1054,1016,1004,961,912,952,911,883,912,872,914,920,919,913,915,908,920,921,907,928,942,916,915,923,929,921,920,921,920,922,920,911,922,919,914,922,927,426,427,429,430,432,466,527,588,650,698,706,694,683,672,684,649,638,627,616,605,594,582,603,560,549,538,526,515,504,493,506,489,459,448,437,433,434,435,430,432,430,426,430,442,452,440,432,447,442,440,435,437,437,446,439,442,444,435,437,437,434,437,439,461,434,401,380,381,414,418,410,465,519,573,620,630,620,610,600,590,645,570,560,550,540,530,519,509,499,489,479,508,459,449,439,490,453,409,399,389,416,385,387,376,377,378,379,379,380,381,383,383,384,385,386,386,386,387,388,389,391,391,392,394,395,394,396,397,396,397,812,867,852,874,860,971,1116,1225,1311,1333,1331,1325,1271,1248,1227,1224,1316,1197,1178,1139,1131,1096,1075,1054,1114,1025,990,969,962,926,916,883,862,856,828,874,841,829,836,836,836,850,874,836,845,860,850,850,858,864,936,937,959,896,932,929,891,879,856,847,866,843,862,852,845,1033,1031,1040,1057,1133,1280,1443,1559,1624,1678,1654,1645,1604,1596,1554,1530,1505,1480,1467,1439,1407,1448,1355,1327,1394,1277,1337,1236,1208,1161,1145,1114,1087,1064,1051,1049,1053,1051,1073,1055,1057,1062,1156,1134,1098,1099,1092,1145,1150,1122,1142,1107,1121,1130,1176,1106,1142,1134,1138,1153,1124,1158,1170,1213,1138,1563,1615,1642,1730,1847,2144,2308,2527,2509,2475,2475,2508,2419,2335,2288,2384,2309,2227,2182,2190,2054,2058,2018,1993,1998,1947,1886,1845,1773,1702,1762,1665,1600,1596,1574,1589,1671,1612,1733,1738,1695,1690,1739,1719,1732,1740,1738,1743,1796,1748,1757,1771,1767,1776,1754,1779,1792,1793,1826,1784,1774,1780,1838,1771,1778,345,346,347,348,349,365,421,470,519,564,574,565,556,546,537,528,519,510,501,492,482,473,464,455,446,430,428,418,409,394,391,382,373,364,354,350,351,352,342,335,345,353,349,348,339,340,348,356,358,348,351,383,400,383,379,358,343,356,343,349,338,354,350,361,343,465,466,468,469,472,548,580,648,716,764,786,774,722,748,722,709,697,685,672,660,648,636,623,611,599,586,596,562,550,537,525,513,500,488,476,472,473,505,467,468,464,469,471,485,471,472,486,478,469,473,469,473,472,467,476,478,475,473,471,472,479,487,487,488,481,824,778,780,846,817,915,1067,1168,1227,1266,1273,1328,1232,1237,1205,1192,1171,1130,1110,1105,1066,1068,1145,1109,981,1025,941,957,923,902,881,867,846,784,791,805,804,804,791,800,806,823,883,859,820,870,825,911,848,878,853,822,852,897,850,825,881,844,830,861,858,898,850,843,831,389,390,399,392,394,423,479,536,592,639,663,653,603,631,606,608,597,575,565,555,544,534,523,513,503,492,504,472,461,451,440,430,420,409,399,395,396,397,389,385,391,396,397,400,387,397,397,391,394,391,394,395,395,407,401,400,391,403,395,408,402,399,399,407,403,500,499,503,502,507,552,638,720,787,833,823,749,724,712,793,761,766,731,732,718,703,679,658,665,652,638,613,600,598,574,560,558,537,507,511,519,508,517,493,491,492,496,496,501,498,501,500,504,503,503,501,506,506,502,507,509,510,513,509,509,514,514,513,514,514,850,889,855,860,917,1046,1256,1391,1564,1548,1569,1485,1458,1430,1403,1375,1348,1320,1293,1344,1238,1210,1174,1155,1128,1100,1073,1119,1018,1009,963,953,908,929,866,885,870,891,899,899,896,909,930,900,907,924,915,914,917,927,999,1003,1012,968,1055,1004,945,942,916,917,931,905,925,914,908,372,374,375,376,377,404,480,534,587,612,621,632,641,592,603,572,562,552,563,553,522,533,587,514,482,472,462,452,442,432,444,434,402,404,383,378,379,380,378,373,374,374,376,371,376,374,378,374,373,376,378,379,379,379,383,379,379,379,381,386,381,385,380,380,383,862,864,889,911,975,1103,1361,1436,1522,1604,1635,1528,1531,1472,1445,1417,1389,1361,1386,1355,1277,1257,1262,1194,1166,1138,1150,1075,1054,1044,999,988,953,947,908,889,904,918,923,923,974,1223,978,908,961,1054,989,937,1031,1007,952,963,1038,1017,1004,917,945,946,991,997,928,973,943,940,953,648,650,652,654,670,731,877,926,1013,1062,1098,1050,1033,1058,988,1004,1005,987,931,951,894,916,898,867,822,806,789,810,782,760,798,739,715,656,662,658,688,682,662,676,678,672,692,664,680,699,683,670,703,667,687,674,692,693,718,728,722,686,678,676,679,670,675,718,663,277,277,278,279,280,294,271,326,326,354,366,361,355,350,345,339,334,329,352,318,313,308,303,297,292,287,281,276,271,266,260,255,250,293,285,281,282,282,261,248,250,251,255,261,251,258,254,253,262,261,255,258,262,271,264,266,257,262,262,264,271,268,270,281,269,329,330,331,332,333,353,399,445,491,534,544,536,539,531,510,502,493,484,476,467,459,450,506,433,424,416,407,398,390,381,373,364,355,347,338,334,335,336,345,317,322,319,347,351,324,348,327,323,337,351,334,340,357,384,365,374,331,354,347,353,378,364,379,395,370,0,0,0,0,0,0,0,0,0,0,0,0,0,0,0,0,0,0,0,0,0,0,0,0,0,0,0,0,0,0,0,0,0,0,0,0,0,0,0,0,0,0,0,0,0,0,0,0,0,0,0,0,0,0,0,0,0,0,0,0,0,0,0,0,0,580,582,583,585,595,646,760,818,877,922,958,920,927,890,889,903,887,879,836,820,805,809,820,778,720,722,707,715,699,683,668,659,643,586,593,574,605,607,591,580,582,582,601,606,592,594,598,602,610,608,623,619,625,606,623,611,621,632,633,638,619,625,648,669,636,387,388,390,391,392,442,504,533,617,664,595,613,576,566,604,619,584,598,590,576,564,555,544,536,523,512,505,470,512,474,460,448,437,446,417,393,413,395,401,400,402,404,404,406,404,404,402,414,404,404,407,411,416,417,420,410,416,409,411,409,414,418,407,414,407,1111,1224,1142,1183,1265,1573,1775,1950,2033,2056,1998,1998,1933,1922,1923,1846,1826,1760,1732,1694,1656,1635,1602,1542,1512,1437,1428,1393,1344,1287,1283,1256,1200,1144,1155,1170,1177,1170,1213,1199,1218,1269,1237,1245,1231,1212,1222,1241,1234,1227,1223,1264,1320,1337,1256,1234,1228,1229,1220,1222,1215,1237,1221,1246,1211,1022,1025,1020,1058,1097,1250,1417,1527,1615,1743,1736,1607,1607,1628,1589,1645,1499,1502,1448,1428,1413,1376,1320,1315,1331,1262,1235,1231,1163,1180,1129,1102,1089,1091,1040,1037,1047,1076,1068,1073,1077,1092,1095,1087,1113,1111,1099,1106,1121,1104,1113,1113,1123,1129,1101,1103,1110,1107,1107,1106,1106,1111,1099,1143,1107,584,586,588,589,595,647,741,779,846,907,916,904,853,879,853,906,893,820,853,821,825,781,753,752,738,723,730,695,680,666,652,638,624,608,596,591,594,614,580,586,582,598,588,595,587,595,599,587,586,592,590,588,586,586,592,592,591,591,586,592,593,605,601,606,595,390,391,392,393,395,424,519,574,629,638,647,673,666,653,643,633,585,575,603,592,544,572,610,552,503,493,482,472,502,452,463,453,421,422,400,396,397,398,393,389,400,425,410,397,400,414,404,409,419,423,506,541,611,473,416,406,403,424,410,395,401,418,410,420,406,500,501,513,504,509,561,626,700,772,819,840,827,774,799,772,760,747,722,720,709,697,681,668,659,647,628,643,596,583,584,563,550,546,524,511,507,500,510,493,499,502,523,502,514,500,510,500,500,504,500,495,508,504,510,507,511,508,510,516,509,504,516,496,507,501,1019,1056,1029,1024,1064,1315,1329,1505,1659,1565,1656,1625,1665,1596,1584,1461,1448,1517,1430,1415,1405,1348,1298,1263,1250,1197,1235,1197,1205,1157,1151,1107,1044,1063,1087,1017,1053,1042,1054,1052,1066,1091,1069,1090,1060,1066,1060,1057,1084,1072,1106,1118,1113,1099,1080,1087,1077,1089,1089,1088,1083,1093,1065,1091,1091,1104,1097,1100,1127,1235,1409,1639,1786,1905,1905,1920,1857,1816,1787,1761,1717,1684,1669,1618,1598,1552,1519,1477,1452,1419,1389,1378,1320,1287,1251,1229,1196,1155,1159,1113,1112,1118,1127,1160,1167,1158,1204,1179,1165,1173,1195,1165,1190,1195,1181,1180,1175,1164,1169,1175,1188,1169,1176,1169,1170,1162,1177,1172,1175,1154,357,358,359,360,361,422,440,481,532,577,567,587,550,541,550,546,537,529,520,510,515,506,483,474,456,429,437,438,429,420,410,396,386,356,399,363,378,372,361,357,362,364,360,377,365,379,378,366,380,363,368,365,364,373,369,366,365,370,365,365,364,370,366,376,369,684,686,688,690,712,788,891,996,1083,1124,1125,1037,1007,991,1053,1035,1017,999,981,963,941,927,894,891,873,855,830,819,802,783,765,747,729,691,694,695,734,699,698,706,703,720,716,721,712,728,707,712,715,708,722,746,739,729,722,724,723,736,746,730,720,733,714,723,718,220,221,222,222,223,231,261,290,319,349,337,332,327,321,340,334,329,323,317,312,306,301,295,289,284,278,295,267,261,256,250,244,239,233,228,224,224,225,212,213,209,210,217,217,235,223,212,217,218,222,219,213,215,222,217,217,218,216,212,216,213,218,218,220,212,1036,999,1002,1017,1097,1361,1386,1524,1720,1582,1675,1639,1658,1600,1628,1510,1522,1478,1465,1415,1369,1351,1302,1372,1300,1197,1250,1187,1206,1127,1110,1108,1065,999,1005,1010,1012,1049,1069,1062,1042,1051,1049,1066,1058,1068,1077,1149,1075,1122,1118,1127,1080,1147,1129,1072,1068,1069,1113,1147,1116,1145,1138,1135,1111,683,685,687,690,709,836,883,1008,1097,1139,1134,1123,1097,1070,1049,1084,1033,996,1037,960,943,942,907,889,888,873,843,818,800,828,765,753,743,751,711,694,695,738,702,714,713,722,745,724,724,741,714,723,713,713,715,733,733,745,862,809,741,728,732,722,712,716,731,728,713,264,265,266,267,268,280,326,358,391,423,471,427,421,415,409,403,397,391,384,378,372,366,360,354,348,342,335,356,323,317,311,305,299,280,273,268,269,270,259,263,265,268,270,274,274,270,266,270,270,273,268,281,271,285,272,268,271,268,271,273,271,269,264,263,266,331,332,333,334,335,349,421,442,488,532,551,543,534,525,508,529,520,490,481,472,464,474,465,456,422,413,404,419,410,401,392,367,358,329,341,336,352,353,333,327,327,333,342,342,342,342,335,349,345,337,342,332,333,346,340,339,341,331,330,338,340,345,343,357,342,640,642,644,671,662,728,825,922,1010,1053,1056,1039,1022,1081,989,1030,955,938,921,934,887,870,853,836,819,803,786,811,752,779,718,701,774,667,654,650,651,703,664,663,672,691,687,676,670,675,679,683,716,697,709,723,730,724,728,714,685,694,678,675,670,691,693,689,674,1104,1097,1100,1127,1235,1409,1639,1786,1905,1905,1920,1857,1816,1787,1761,1717,1684,1669,1618,1598,1552,1519,1477,1452,1419,1389,1378,1320,1287,1251,1229,1196,1155,1159,1113,1112,1118,1127,1153,1145,1176,1183,1173,1191,1170,1190,1196,1193,1228,1188,1193,1230,1249,1244,1215,1193,1183,1205,1187,1179,1176,1202,1176,1210,1192,1460,1443,1523,1534,1754,1947,2263,2327,2407,2567,2478,2353,2340,2273,2229,2187,2287,2181,2110,2032,2073,2008,1932,1856,1896,1840,1747,1711,1648,1607,1565,1557,1520,1475,1498,1449,1480,1464,1542,1543,1566,1583,1562,1583,1559,1579,1560,1593,1591,1575,1580,1591,1600,1616,1600,1600,1583,1591,1603,1604,1604,1598,1582,1614,1606,465,466,468,469,472,548,580,648,716,764,786,774,722,748,722,709,697,685,672,660,648,636,623,611,599,586,596,562,550,537,525,513,500,488,476,472,473,505,467,468,464,469,471,485,471,472,486,478,469,473,469,473,472,467,476,478,475,473,471,472,479,487,487,488,481,771,774,752,754,784,901,1004,1064,1172,1214,1238,1258,1231,1134,1180,1097,1078,1079,1041,1066,1022,1003,984,989,946,927,908,907,870,865,847,810,820,800,787,783,785,763,759,763,770,778,778,777,766,774,768,799,778,776,784,789,800,817,805,791,798,786,797,798,802,809,790,797,792,408,426,411,412,413,445,589,564,623,670,680,669,685,647,693,626,615,604,645,634,571,560,549,538,528,517,506,495,530,473,481,451,440,430,419,479,415,417,418,429,417,431,435,434,429,446,425,429,431,433,423,424,425,433,439,430,433,432,429,434,425,450,425,432,426,801,813,821,848,885,952,1132,1243,1269,1376,1363,1303,1270,1273,1272,1229,1209,1165,1174,1188,1079,1081,1108,1039,1023,999,971,989,937,910,892,871,850,829,816,813,810,852,817,825,847,870,882,886,888,846,847,877,836,822,836,843,840,837,866,850,827,825,837,837,824,836,841,863,825,688,690,693,695,700,786,889,940,1082,1120,1105,1072,1077,1060,1037,986,1002,999,970,952,951,917,936,890,879,848,831,824,790,788,762,735,734,716,702,675,701,703,683,720,675,671,699,677,690,698,693,695,723,692,691,703,707,706,693,717,712,706,730,686,705,708,731,689,689,1347,1350,1429,1533,1733,1959,2183,2226,2274,2436,2373,2229,2220,2327,2204,2096,2056,1992,1987,1996,1876,1833,1888,1782,1738,1750,1723,1631,1556,1534,1501,1459,1402,1420,1372,1408,1409,1407,1464,1467,1461,1496,1474,1470,1472,1484,1474,1497,1489,1494,1487,1481,1475,1478,1486,1491,1480,1484,1471,1476,1478,1510,1519,1514,1501,497,498,500,501,506,551,625,698,772,831,825,811,798,785,772,759,745,732,719,706,693,679,712,653,640,627,613,600,587,574,561,547,534,521,509,504,506,507,500,500,501,510,603,564,532,565,539,614,556,548,561,513,522,550,533,514,576,524,511,556,542,595,557,550,534,1385,1385,1466,1572,1809,1993,2227,2270,2318,2497,2461,2271,2287,2299,2197,2192,2149,2059,2026,2078,1915,1872,1891,1877,1811,1736,1710,1685,1592,1552,1516,1478,1440,1440,1386,1451,1432,1442,1489,1491,1512,1525,1504,1536,1507,1524,1504,1527,1529,1518,1497,1517,1532,1533,1527,1545,1540,1531,1539,1526,1512,1504,1533,1597,1539,333,334,335,336,337,355,400,444,489,531,543,535,526,518,510,501,493,485,476,468,460,451,443,435,426,418,410,401,393,385,376,368,360,351,343,338,339,340,322,320,322,323,324,324,328,327,325,328,327,327,331,331,330,328,337,333,333,335,334,332,338,335,334,337,335,843,764,766,759,793,901,1016,1165,1218,1257,1256,1231,1195,1198,1178,1159,1139,1120,1127,1081,1061,1054,1017,1003,1025,938,944,924,905,907,866,851,827,798,777,773,858,774,778,792,783,815,778,804,787,808,797,805,800,789,805,795,807,805,807,805,812,806,817,805,806,820,812,823,825,515,504,518,520,520,572,640,693,798,825,850,802,823,780,776,754,750,755,715,721,715,701,688,675,661,648,634,625,592,594,580,544,548,540,522,523,511,521,507,511,514,510,509,516,515,515,515,514,516,517,514,516,534,536,522,521,534,522,524,525,529,529,525,529,524,542,581,545,547,554,652,687,768,847,892,897,883,869,854,840,826,811,797,782,768,754,793,725,711,696,682,667,653,639,624,610,596,620,567,554,550,551,553,546,559,555,564,575,565,567,569,553,570,555,560,561,572,572,586,617,605,569,567,571,562,561,562,573,570,556,0,0,0,0,0,0,0,0,0,0,0,0,0,0,0,0,0,0,0,0,0,0,0,0,0,0,0,0,0,0,0,0,0,0,0,0,0,0,0,0,0,0,0,0,0,0,0,0,0,0,0,0,0,0,0,0,0,0,0,0,0,0,0,0,0,587,589,597,599,610,663,778,815,918,965,945,930,940,900,906,870,886,861,826,854,815,800,806,795,754,738,725,775,695,676,680,646,629,614,600,596,598,605,602,600,601,601,624,624,634,631,614,624,619,618,622,608,613,634,624,614,618,618,607,624,616,628,618,629,623,1647,1650,1775,1968,2184,2382,2759,2926,2758,2850,2865,2718,2698,2702,2613,2568,2484,2387,2413,2402,2274,2243,2229,2148,2119,2054,1958,1976,1887,1840,1797,1702,1708,1665,1682,1702,1712,1680,1863,1854,1856,1873,1928,1903,1901,1911,1908,1907,1933,1909,1915,1924,1922,1926,1956,1950,1941,1938,1963,1925,1942,1965,1966,1954,1940,789,762,783,732,752,856,951,1044,1230,1346,1271,1175,1208,1081,1139,1148,1026,1126,1108,1136,1065,1090,1028,930,881,953,973,923,872,815,827,777,811,783,704,731,786,853,758,753,772,807,784,760,783,793,783,775,790,775,789,791,797,784,807,781,771,768,777,789,763,783,772,781,776,796,798,828,803,874,919,1104,1173,1292,1268,1251,1232,1279,1226,1198,1189,1139,1171,1100,1157,1127,1107,1075,1080,1002,1055,962,942,966,903,973,876,844,824,811,807,810,839,814,813,824,839,838,846,831,850,822,858,838,823,835,828,837,855,840,836,839,821,832,838,833,841,828,851,829,546,548,550,551,586,611,692,773,852,910,903,888,874,859,845,831,816,802,788,773,759,777,776,716,701,687,672,681,672,629,615,601,586,572,559,555,581,558,550,552,562,579,567,570,560,571,561,584,567,563,592,592,615,609,584,572,576,580,575,568,582,595,569,579,564,912,925,933,968,1026,1095,1280,1411,1446,1537,1534,1460,1436,1424,1434,1389,1364,1318,1313,1331,1224,1228,1242,1182,1158,1163,1143,1116,1052,1032,1020,987,964,942,929,926,915,975,952,955,943,1012,981,955,958,983,962,981,1011,975,983,965,954,960,976,976,957,963,952,961,950,961,970,966,937,1276,1262,1306,1394,1485,1623,1847,1930,2060,2033,2030,1944,1967,1935,1940,1867,1787,1849,1819,1753,1720,1671,1663,1662,1582,1585,1503,1507,1462,1432,1447,1373,1297,1316,1311,1319,1262,1277,1320,1371,1327,1353,1359,1356,1343,1366,1358,1366,1373,1343,1360,1361,1373,1375,1381,1381,1387,1375,1395,1376,1391,1410,1415,1403,1401,1460,1453,1470,1565,1694,1929,2127,2221,2308,2308,2317,2241,2250,2171,2160,2080,2075,2081,2103,1980,1973,1884,1861,1835,1776,1802,1703,1757,1643,1608,1574,1520,1507,1514,1486,1484,1474,1467,1573,1580,1551,1567,1572,1618,1575,1600,1612,1678,1595,1642,1625,1636,1610,1671,1646,1598,1601,1594,1623,1656,1637,1669,1648,1659,1621,239,240,241,242,242,253,287,321,354,388,402,396,389,383,376,370,363,357,350,344,338,331,325,318,312,305,299,292,286,280,273,267,260,254,247,243,244,244,230,234,231,235,303,270,254,264,250,304,258,254,270,240,243,262,253,239,281,241,238,270,259,296,270,262,250,896,860,871,883,920,1037,1176,1292,1390,1422,1474,1365,1355,1389,1306,1294,1271,1249,1229,1204,1181,1154,1141,1126,1103,1067,1044,1025,994,990,957,934,916,901,877,884,876,883,881,879,907,920,937,936,944,900,908,932,894,886,898,900,893,892,922,913,890,894,890,890,897,902,924,924,893,614,643,651,667,687,712,866,942,985,1095,1097,1015,976,1010,1026,976,960,920,926,927,848,855,877,828,812,792,769,791,744,721,713,691,672,659,642,648,638,675,649,657,649,661,664,660,656,671,648,656,654,654,652,664,664,662,657,661,661,656,671,671,653,662,652,660,656,1307,1259,1276,1316,1459,1698,1846,2003,2179,2036,1987,1974,2026,1978,1959,1880,1852,1911,1838,1770,1710,1709,1736,1663,1601,1554,1559,1488,1459,1445,1382,1346,1300,1309,1363,1292,1303,1271,1335,1375,1372,1360,1382,1366,1383,1407,1375,1368,1397,1355,1382,1375,1389,1390,1475,1488,1424,1379,1383,1369,1365,1361,1382,1436,1353,582,591,593,594,606,665,761,830,914,912,974,937,922,927,911,896,880,815,800,785,771,802,741,762,712,731,724,700,693,678,624,609,631,615,602,603,600,566,587,590,588,596,599,601,602,611,599,598,603,605,600,601,603,609,599,594,608,603,605,608,601,611,596,601,596,779,785,806,807,846,909,1080,1163,1236,1323,1322,1296,1259,1240,1231,1199,1169,1132,1137,1139,1071,1050,1073,1043,1012,969,949,966,901,906,894,848,827,823,794,820,792,844,799,798,799,801,802,801,802,805,801,809,810,809,810,812,812,813,815,818,816,823,816,817,821,823,823,823,821,356,357,358,359,360,378,417,455,493,530,539,532,525,517,510,503,495,488,481,474,466,459,452,444,437,430,422,415,408,401,393,386,379,371,364,361,361,362,351,354,351,355,357,357,357,368,356,355,361,364,351,355,356,361,360,355,361,358,356,356,356,362,353,357,357,468,469,471,472,475,515,584,653,722,770,778,765,753,740,728,715,703,690,678,666,653,641,628,616,603,591,578,566,553,541,529,516,504,491,479,475,476,477,460,465,468,490,468,479,465,476,467,463,471,467,461,475,468,472,471,478,475,478,483,473,471,484,463,473,468,1460,1453,1470,1565,1694,1929,2127,2221,2308,2308,2317,2241,2250,2171,2160,2080,2075,2081,2103,1980,1973,1884,1861,1835,1776,1802,1703,1757,1643,1608,1574,1520,1507,1514,1486,1484,1474,1467,1562,1556,1572,1591,1581,1609,1590,1610,1574,1612,1620,1587,1578,1583,1600,1616,1601,1612,1609,1593,1605,1603,1587,1582,1635,1616,1571,1639,1658,1776,1916,2143,2408,2611,2786,2825,2753,2745,2728,2781,2598,2606,2505,2456,2406,2357,2309,2265,2209,2163,2116,2072,2049,1972,1914,1875,1813,1783,1720,1704,1675,1676,1678,1744,1724,1856,1911,1882,1919,1940,1933,1946,1912,1912,1941,1911,1880,1914,1903,1911,1908,1942,1931,1909,1905,1945,1893,1909,1927,1954,1952,1908,771,774,752,754,784,901,1004,1064,1172,1214,1238,1258,1231,1134,1180,1097,1078,1079,1041,1066,1022,1003,984,989,946,927,908,907,870,865,847,810,820,800,787,783,785,763,759,763,770,778,778,777,766,774,768,799,778,776,784,789,800,817,805,791,798,786,797,798,802,809,790,797,792,208,209,209,210,210,218,244,270,295,321,333,328,323,318,313,308,304,299,294,289,284,279,274,269,264,259,254,249,244,239,234,229,224,219,214,211,211,212,196,197,200,205,211,198,200,203,202,197,210,208,196,204,213,217,279,239,212,205,203,200,197,202,209,197,195,904,891,934,917,974,1075,1196,1394,1404,1436,1448,1405,1372,1333,1347,1336,1294,1290,1250,1243,1202,1170,1151,1129,1117,1108,1067,1070,1042,1005,973,962,896,917,958,919,960,923,922,925,927,945,954,937,951,959,947,943,954,963,1017,953,978,1008,943,937,948,950,942,943,946,945,939,966,945,311,312,321,314,315,334,375,416,458,497,507,499,491,483,476,468,460,464,445,437,429,421,413,406,398,400,382,374,367,368,360,343,335,328,320,316,317,318,307,305,307,312,312,309,316,311,309,314,315,312,331,332,331,314,326,317,316,319,314,310,320,314,312,314,310,227,228,229,229,230,239,268,296,325,319,330,325,320,316,311,338,333,327,322,316,311,305,300,294,289,283,278,272,267,261,256,250,245,240,234,230,231,232,212,209,215,220,210,215,212,217,215,211,217,212,213,211,212,216,213,213,211,212,210,210,212,212,212,217,215,943,896,879,877,948,1184,1267,1429,1522,1578,1578,1502,1510,1457,1430,1494,1407,1346,1397,1291,1263,1235,1212,1224,1178,1125,1097,1061,1033,1088,986,958,968,904,909,889,894,943,913,925,931,952,952,940,935,950,928,934,931,929,928,948,945,957,1038,1003,946,943,947,937,929,930,948,945,930,270,271,272,273,273,273,319,351,383,392,402,396,390,384,379,394,388,382,397,369,363,357,351,345,339,333,326,350,314,308,331,296,290,270,264,274,275,275,278,280,265,266,286,296,285,300,280,303,287,324,316,324,292,347,300,274,287,284,311,340,328,357,332,342,314,908,928,889,912,1007,1212,1311,1474,1566,1596,1621,1545,1528,1500,1471,1506,1448,1405,1359,1380,1303,1321,1250,1218,1227,1192,1134,1129,1098,1066,1006,993,965,942,929,924,929,958,937,935,940,990,946,967,938,947,947,937,973,951,982,993,977,968,954,963,954,959,962,954,958,965,945,978,950,705,710,712,734,746,826,914,1015,1100,1138,1134,1117,1100,1058,1068,1048,1030,1041,995,977,960,939,925,908,891,873,852,871,820,803,783,769,715,720,708,718,738,722,713,725,714,729,731,736,723,738,724,726,720,721,718,731,731,728,726,729,729,722,737,739,723,732,720,731,723,541,536,538,542,546,650,673,755,864,874,914,890,849,829,857,927,790,781,768,754,767,732,713,724,686,720,658,645,618,613,599,590,572,581,562,543,537,545,541,537,548,562,552,546,544,550,555,557,573,556,583,607,632,594,576,565,550,567,554,550,546,565,560,568,553,221,222,222,223,223,218,255,279,303,327,338,333,328,324,319,315,310,305,301,296,291,287,282,278,273,268,264,259,255,250,245,241,236,218,214,224,224,225,207,203,208,212,211,209,207,207,210,213,211,210,212,226,231,224,226,212,209,213,210,212,205,213,210,217,209,419,404,406,422,407,438,515,573,630,676,683,644,662,624,608,689,619,609,598,587,558,550,558,545,537,486,513,505,497,481,448,460,424,422,394,425,426,411,404,406,409,418,417,411,414,416,410,415,412,415,416,426,430,427,420,412,417,420,423,416,414,425,414,420,414,788,761,764,766,822,884,977,1108,1266,1211,1209,1190,1225,1152,1154,1135,1115,1096,1077,1086,1038,1019,1081,962,961,1016,905,902,883,864,844,810,806,772,773,792,779,774,779,782,782,782,825,838,821,801,792,830,806,802,806,794,787,800,794,795,802,785,782,804,802,817,813,798,794,0,0,0,0,0,0,0,0,0,0,0,0,0,0,0,0,0,0,0,0,0,0,0,0,0,0,0,0,0,0,0,0,0,0,0,0,0,0,0,0,0,0,0,0,0,0,0,0,0,0,0,0,0,0,0,0,0,0,0,0,0,0,0,0,0,1160,1169,1187,1203,1335,1566,1786,1976,2039,2106,2120,2021,1976,1948,1929,1872,1856,1844,1757,1694,1657,1642,1577,1587,1531,1460,1451,1385,1374,1309,1272,1278,1222,1191,1178,1180,1187,1194,1210,1262,1222,1233,1245,1238,1234,1258,1241,1246,1257,1227,1237,1251,1251,1256,1260,1268,1257,1250,1277,1249,1260,1279,1289,1269,1260,1237,1257,1246,1303,1493,1572,1757,1967,2026,2022,1970,1982,2006,1931,1910,1855,1821,1741,1738,1817,1686,1684,1702,1622,1488,1604,1486,1425,1458,1337,1371,1361,1283,1339,1300,1308,1273,1218,1288,1285,1285,1288,1292,1305,1302,1309,1315,1327,1320,1329,1332,1322,1346,1337,1368,1335,1342,1360,1344,1361,1351,1345,1366,1356,1365,318,326,320,328,322,337,334,413,409,432,427,440,435,435,428,422,416,410,404,398,391,385,413,405,398,391,390,383,369,362,362,348,341,334,326,322,323,324,301,300,302,303,303,303,304,305,304,308,308,308,309,310,309,309,310,312,314,315,314,314,316,316,316,316,317,288,289,289,290,291,292,340,374,408,418,428,422,415,409,403,418,412,405,436,392,386,379,373,366,399,353,347,340,374,327,323,314,308,288,282,291,292,293,282,278,269,273,269,299,272,278,280,288,284,295,301,276,296,300,371,276,278,312,279,299,280,269,301,279,273,404,405,406,408,409,439,507,563,602,647,655,665,635,625,615,604,594,584,574,564,554,544,548,541,514,504,494,526,474,464,454,464,434,424,443,410,446,412,410,408,411,417,427,412,414,424,417,420,415,414,415,412,417,427,460,455,434,424,422,422,417,415,418,418,414,755,776,749,752,777,892,994,1112,1154,1128,1186,1187,1125,1160,1184,1184,1137,1177,1145,1024,1069,998,959,929,950,909,873,895,869,840,792,795,795,764,779,745,795,810,767,764,775,792,794,785,778,783,782,798,797,789,790,823,845,827,816,794,787,798,787,786,778,806,790,802,779,906,898,901,909,960,1083,1224,1365,1434,1451,1445,1423,1415,1393,1351,1351,1310,1308,1287,1241,1219,1195,1225,1163,1127,1105,1082,1059,1048,1014,991,968,946,924,911,909,911,914,924,938,909,909,942,931,924,938,931,942,959,927,938,939,946,953,955,961,940,950,961,950,960,963,977,954,951,471,494,495,497,523,554,603,623,683,728,734,774,712,747,707,727,715,657,646,680,668,652,602,658,621,609,597,605,548,558,572,560,526,522,511,497,501,502,500,493,500,509,500,500,498,502,503,523,516,503,510,498,510,507,516,514,511,529,511,519,514,509,510,516,508,534,498,495,501,506,546,615,684,759,771,772,759,749,737,726,745,723,722,702,696,678,671,653,646,633,621,602,592,583,564,551,542,530,514,503,504,501,506,496,486,494,506,488,516,498,508,509,500,530,501,500,501,498,518,513,502,498,507,500,503,507,503,503,534,508,256,256,257,258,292,270,315,347,380,412,407,417,411,405,383,392,371,380,374,368,361,341,349,343,337,331,324,318,299,293,300,293,275,269,263,259,260,260,249,251,250,256,254,256,250,256,249,257,251,254,251,251,258,263,254,254,256,255,256,255,255,259,249,253,249,787,749,742,744,772,852,1016,1066,1230,1224,1202,1190,1223,1188,1203,1152,1097,1141,1097,1068,1063,1036,966,932,983,914,874,886,838,837,821,804,818,737,751,765,767,786,751,744,758,789,770,761,768,770,763,774,775,767,777,802,810,800,817,779,770,778,777,772,763,789,772,789,771,992,1030,1033,1056,1081,1267,1424,1499,1613,1608,1600,1623,1597,1537,1637,1519,1470,1486,1436,1372,1339,1364,1404,1312,1246,1221,1221,1200,1182,1156,1195,1068,1072,1057,1024,1007,1045,1047,1057,1053,1049,1058,1046,1059,1057,1062,1075,1142,1068,1096,1106,1101,1083,1120,1113,1075,1067,1080,1100,1115,1104,1120,1118,1119,1101,466,472,459,470,473,496,558,641,714,736,757,753,733,721,710,698,666,682,643,632,646,628,598,586,575,564,569,541,503,534,507,511,499,473,476,473,465,461,453,452,457,453,522,460,460,460,458,458,508,524,468,475,483,467,537,500,476,462,509,462,468,467,479,461,472,510,511,513,514,520,566,638,777,852,826,830,817,804,791,779,766,753,740,727,714,701,688,773,662,649,636,623,611,598,585,572,559,546,533,521,517,519,520,506,506,514,524,511,516,511,519,530,518,518,513,516,521,514,521,519,522,522,526,518,523,526,550,549,555,549,957,961,962,949,1062,1156,1286,1419,1499,1531,1525,1501,1491,1465,1428,1404,1394,1411,1349,1321,1300,1273,1246,1227,1203,1163,1167,1128,1104,1066,1114,1032,1009,1057,1048,958,969,976,1047,1006,1015,1008,1040,1075,1031,1034,1038,1049,1091,1053,1061,1074,1070,1078,1030,1043,1052,1077,1074,1078,1047,1054,1076,1040,1055,906,898,901,909,960,1083,1224,1365,1434,1451,1445,1423,1415,1393,1351,1351,1310,1308,1287,1241,1219,1195,1225,1163,1127,1105,1082,1059,1048,1014,991,968,946,924,911,909,911,914,909,904,911,906,938,924,913,912,916,937,957,955,962,953,961,934,978,948,943,969,1003,970,955,950,981,991,978,1463,1466,1522,1581,1686,1916,2220,2253,2314,2295,2275,2251,2300,2182,2158,2113,2137,2043,2009,1950,1986,1902,1892,1819,1786,1734,1714,1721,1637,1590,1583,1570,1545,1498,1526,1491,1549,1510,1623,1624,1614,1641,1671,1666,1650,1650,1660,1695,1660,1698,1713,1688,1643,1672,1665,1681,1685,1657,1710,1767,1736,1742,1749,1689,1687,208,209,209,210,210,218,244,270,295,321,333,328,323,318,313,308,304,299,294,289,284,279,274,269,264,259,254,249,244,239,234,229,224,219,214,211,211,212,196,197,200,205,211,198,200,203,202,197,210,208,196,204,213,217,279,239,212,205,203,200,197,202,209,197,195,1075,1057,1060,1122,1187,1420,1647,1837,1934,1922,1888,1871,1846,1821,1761,1730,1716,1679,1643,1605,1571,1535,1473,1438,1428,1426,1333,1295,1260,1224,1183,1147,1139,1081,1075,1094,1116,1089,1099,1090,1096,1104,1115,1092,1096,1107,1107,1124,1131,1120,1122,1246,1126,1116,1249,1130,1128,1133,1134,1128,1131,1131,1149,1149,1156,1800,1819,1887,2082,2414,2773,3026,3075,3136,3147,3055,3015,3058,3001,2917,2798,2802,2747,2668,2641,2523,2486,2428,2382,2306,2246,2242,2126,2066,2074,1979,1900,1855,1823,1878,1825,1887,1853,2160,2208,2174,2188,2209,2211,2203,2213,2211,2214,2232,2200,2214,2217,2232,2244,2248,2259,2251,2244,2260,2241,2259,2274,2287,2275,2263,933,925,927,952,1019,1207,1414,1620,1691,1716,1671,1672,1632,1713,1553,1522,1514,1483,1442,1430,1400,1346,1308,1276,1262,1211,1199,1146,1114,1082,1049,1017,1000,954,964,939,961,988,976,986,977,991,991,1001,986,1012,992,993,984,985,983,1000,998,998,996,998,997,986,1000,1005,991,1004,983,999,990,1314,1318,1312,1408,1518,1840,2047,2141,2370,2252,2221,2176,2188,2119,2075,2041,2075,1982,1940,1914,1916,1825,1790,1728,1706,1680,1605,1567,1562,1499,1459,1408,1412,1323,1359,1319,1368,1346,1419,1420,1409,1422,1427,1425,1435,1436,1428,1437,1433,1433,1443,1426,1427,1426,1430,1442,1425,1438,1413,1426,1424,1438,1427,1424,1406,608,609,611,612,624,675,797,825,897,1024,938,925,998,898,885,871,858,844,831,894,809,883,777,764,750,737,724,710,697,683,670,656,643,630,619,615,617,618,595,593,609,697,621,595,615,642,623,608,617,615,616,613,622,622,639,623,619,615,625,632,616,628,622,625,631,1324,1343,1359,1405,1559,1879,2066,2275,2396,2345,2290,2271,2241,2203,2237,2103,2099,2029,1978,1978,1885,1891,1817,1766,1746,1704,1682,1590,1555,1529,1496,1453,1448,1378,1372,1366,1353,1378,1425,1425,1465,1731,1491,1440,1468,1568,1511,1496,1541,1514,1461,1471,1547,1512,1520,1441,1464,1468,1497,1506,1451,1489,1463,1468,1473,482,483,485,486,489,526,624,661,729,780,789,776,764,752,774,727,715,703,690,678,666,653,641,629,616,604,592,580,567,555,543,554,518,506,494,512,490,492,478,483,490,500,492,495,486,495,485,510,491,487,499,494,513,529,507,500,506,499,504,502,510,521,498,503,496,1809,1740,1800,1963,2136,2464,2672,2830,2995,2945,2845,2761,2781,2745,2665,2592,2568,2566,2469,2461,2367,2393,2313,2234,2157,2170,2093,2039,2021,1920,1882,1814,1755,1856,1825,1756,1764,1784,2042,2033,2054,2093,2106,2153,2090,2094,2104,2136,2148,2122,2138,2153,2157,2150,2130,2110,2109,2104,2093,2133,2107,2131,2104,2154,2099,1129,1132,1155,1168,1287,1540,1792,1933,2023,2041,1997,1959,1947,2057,1847,1882,1823,1759,1721,1683,1671,1608,1570,1532,1495,1480,1534,1381,1365,1306,1268,1231,1193,1210,1200,1149,1208,1162,1229,1226,1231,1233,1264,1307,1251,1277,1273,1284,1297,1292,1280,1290,1274,1302,1265,1262,1282,1269,1266,1303,1284,1305,1275,1291,1291,1263,1307,1334,1326,1468,1802,2002,2140,2296,2241,2193,2202,2138,2097,2033,2031,2022,1935,1894,1896,1813,1813,1732,1691,1651,1610,1612,1529,1488,1491,1439,1366,1398,1298,1316,1285,1292,1327,1350,1346,1356,1357,1359,1348,1366,1382,1358,1364,1369,1373,1452,1445,1392,1373,1395,1420,1413,1480,1475,1376,1418,1496,1501,1466,1405,1168,1130,1133,1167,1332,1506,1757,1931,2020,2039,1994,1957,1959,1907,1845,1841,1794,1756,1777,1718,1690,1605,1570,1576,1492,1455,1510,1379,1342,1304,1266,1229,1192,1161,1148,1147,1180,1202,1188,1203,1213,1231,1235,1215,1213,1249,1212,1220,1223,1203,1213,1222,1239,1242,1394,1338,1245,1229,1228,1219,1208,1207,1222,1243,1206,1699,1672,1715,1838,2127,2362,2580,2748,2851,2834,2798,2778,2794,2750,2579,2572,2547,2501,2483,2359,2361,2339,2204,2204,2168,2076,2092,1953,1910,1882,1824,1751,1779,1704,1687,1693,1758,1736,1962,1949,1916,1939,1946,2008,2007,2025,1988,2083,1983,2010,2000,2050,2026,2094,2057,2029,2017,2026,2034,2050,2027,2041,2008,2015,1965,1172,1175,1179,1218,1344,1627,1855,2028,2087,2105,2088,2021,2008,1969,1906,1868,1900,1814,1776,1737,1699,1701,1621,1583,1544,1506,1510,1428,1390,1351,1455,1274,1236,1205,1224,1192,1199,1206,1258,1254,1267,1288,1283,1289,1280,1307,1287,1294,1297,1288,1291,1319,1341,1332,1310,1298,1283,1294,1285,1280,1272,1300,1284,1305,1269,0,0,0,0,0,0,0,0,0,0,0,0,0,0,0,0,0,0,0,0,0,0,0,0,0,0,0,0,0,0,0,0,0,0,0,0,0,0,0,0,0,0,0,0,0,0,0,0,0,0,0,0,0,0,0,0,0,0,0,0,0,0,0,0,0,1761,1782,1909,2247,2556,3007,3134,3366,3429,3385,3362,3264,3188,3164,3055,3091,2926,2841,2761,2718,2627,2564,2487,2465,2364,2317,2247,2163,2093,2045,1930,1902,1872,1884,1825,1868,1892,1882,2183,2221,2230,2263,2260,2284,2225,2257,2251,2256,2279,2276,2308,2337,2291,2321,2302,2337,2332,2351,2374,2337,2355,2400,2387,2376,2369,1154,1159,1162,1194,1305,1507,1736,1886,1966,1984,1960,1958,1902,1874,1843,1828,1784,1763,1722,1693,1658,1632,1602,1549,1516,1483,1448,1403,1389,1327,1292,1246,1251,1178,1187,1194,1212,1188,1252,1231,1222,1241,1249,1275,1302,1299,1267,1294,1264,1250,1249,1291,1300,1294,1297,1319,1303,1325,1291,1276,1285,1273,1253,1254,1236,1342,1360,1377,1425,1582,1905,2092,2316,2421,2369,2314,2295,2265,2226,2306,2126,2122,2051,2038,2017,1906,1911,1838,1786,1766,1723,1741,1609,1573,1547,1514,1446,1466,1371,1389,1358,1370,1396,1471,1453,1474,1473,1467,1491,1544,1558,1493,1518,1533,1490,1489,1544,1549,1575,1545,1548,1544,1563,1559,1533,1518,1520,1480,1497,1499,944,950,942,957,1031,1195,1398,1574,1673,1699,1705,1630,1625,1594,1564,1508,1501,1491,1469,1408,1377,1346,1315,1284,1253,1222,1191,1160,1129,1098,1067,1036,1005,976,960,960,966,972,977,971,990,1021,1000,1011,1000,991,1000,1008,1009,993,1021,1028,1053,1031,1023,1006,982,1011,992,989,986,1015,1000,1019,984,1049,1025,1078,1116,1115,1236,1440,1511,1586,1686,1604,1579,1636,1591,1611,1586,1496,1453,1409,1385,1361,1371,1375,1288,1264,1239,1215,1191,1167,1195,1118,1094,1097,1099,1038,1036,1039,1094,1051,1044,1066,1076,1053,1072,1055,1063,1060,1074,1088,1076,1072,1078,1081,1090,1081,1085,1072,1083,1084,1084,1088,1083,1076,1101,1100,671,673,685,677,694,767,887,923,998,1032,1037,1022,1023,992,977,977,947,933,918,903,888,873,858,843,828,813,799,784,769,754,739,724,709,694,683,690,692,683,668,674,685,706,691,691,683,702,677,708,694,702,724,713,741,744,698,694,708,705,703,692,709,724,692,698,691,1423,1419,1449,1537,1693,1964,2216,2398,2452,2429,2442,2398,2307,2275,2231,2181,2187,2101,2071,2075,2012,1981,1921,1867,1831,1840,1866,1715,1668,1603,1567,1525,1508,1457,1467,1414,1457,1477,1524,1550,1555,1554,1574,1562,1560,1596,1557,1552,1581,1549,1566,1568,1593,1611,1754,1709,1611,1577,1581,1574,1572,1572,1593,1644,1565,1214,1217,1224,1255,1353,1523,1738,1824,1896,1914,1904,1875,1926,1835,1805,1759,1729,1700,1688,1659,1613,1584,1570,1526,1497,1482,1439,1410,1394,1365,1323,1293,1266,1255,1232,1231,1234,1237,1289,1280,1297,1299,1290,1306,1296,1306,1318,1298,1330,1299,1320,1310,1312,1317,1303,1313,1298,1321,1294,1303,1309,1319,1297,1312,1314,1080,1082,1085,1104,1218,1477,1661,1846,1938,2009,1914,1871,1868,1843,1771,1746,1770,1697,1650,1614,1578,1542,1506,1469,1433,1397,1454,1324,1288,1247,1251,1179,1176,1112,1098,1098,1139,1112,1142,1137,1159,1165,1172,1207,1165,1184,1181,1184,1211,1185,1190,1202,1202,1208,1179,1174,1176,1192,1179,1180,1183,1203,1180,1195,1193,1262,1230,1290,1352,1398,1558,1883,1891,1928,1924,1966,1889,1862,1946,1808,1781,1801,1727,1700,1673,1636,1619,1650,1574,1509,1520,1517,1457,1430,1403,1332,1349,1325,1321,1322,1327,1299,1303,1343,1348,1388,1662,1409,1336,1391,1483,1414,1358,1452,1434,1376,1387,1465,1447,1433,1340,1383,1371,1422,1422,1361,1404,1363,1367,1382,1743,1692,1737,1872,2098,2380,2636,2941,2849,2852,2815,2854,2739,2729,2655,2663,2575,2478,2428,2385,2362,2319,2263,2186,2125,2114,2108,2037,1918,1868,1817,1792,1760,1737,1743,1727,1767,1715,1992,2000,1955,1961,1999,1984,2000,2000,2001,2004,2058,2001,2016,2025,2033,2046,2016,2054,2053,2052,2086,2034,2030,2037,2092,2027,2022,1029,1027,1029,1032,1148,1324,1581,1737,1853,1875,1811,1798,1788,1724,1678,1659,1629,1613,1585,1543,1490,1455,1420,1403,1368,1333,1392,1263,1228,1193,1158,1128,1088,1045,1042,1043,1040,1055,1066,1068,1061,1080,1076,1078,1067,1074,1072,1069,1067,1070,1066,1075,1070,1065,1072,1078,1074,1072,1069,1077,1073,1088,1080,1085,1074,1441,1413,1419,1499,1731,1948,2200,2355,2436,2477,2426,2382,2357,2368,2250,2230,2300,2114,2142,2058,2041,1963,1903,1901,1812,1785,1832,1696,1636,1622,1548,1499,1526,1430,1447,1438,1438,1458,1521,1521,1539,1578,1534,1566,1544,1565,1548,1552,1563,1537,1531,1544,1550,1571,1575,1560,1542,1564,1567,1554,1551,1539,1547,1580,1542,1659,1631,1684,1796,2046,2349,2558,2858,2936,2941,2735,2744,2662,2682,2540,2560,2464,2445,2366,2316,2267,2266,2212,2119,2116,2148,2104,2104,1872,1864,1941,1727,1715,1736,1699,1649,1747,1665,1940,1928,1902,1923,1918,1962,1984,1994,1963,2055,1956,1971,1964,2010,2000,2067,2023,1995,1983,2002,1995,2000,1992,2002,1966,1975,1933,671,673,685,677,694,767,887,923,998,1032,1037,1022,1023,992,977,977,947,933,918,903,888,873,858,843,828,813,799,784,769,754,739,724,709,694,683,690,692,683,676,680,670,680,675,697,675,686,693,772,677,677,671,678,697,663,680,680,676,684,670,671,685,684,671,683,672,743,745,747,753,833,848,951,1042,1131,1163,1167,1142,1137,1169,1091,1074,1057,1040,1023,1006,1006,1018,955,938,921,904,902,870,853,840,819,806,789,768,756,753,755,757,763,762,761,772,771,770,767,783,760,769,764,764,767,777,776,774,770,774,771,769,782,791,766,774,769,772,770,1075,1057,1060,1122,1187,1420,1647,1837,1934,1922,1888,1871,1846,1821,1761,1730,1716,1679,1643,1605,1571,1535,1473,1438,1428,1426,1333,1295,1260,1224,1183,1147,1139,1081,1075,1094,1116,1089,1099,1090,1096,1104,1115,1092,1096,1107,1107,1124,1131,1120,1122,1246,1126,1116,1249,1130,1128,1133,1134,1128,1131,1131,1149,1149,1156,1222,1202,1205,1348,1351,1501,1698,1841,1902,1908,1918,1887,1857,1838,1818,1851,1762,1747,1675,1666,1597,1584,1554,1580,1494,1496,1489,1419,1357,1425,1317,1295,1277,1305,1187,1253,1209,1222,1267,1265,1275,1287,1279,1283,1292,1303,1289,1291,1305,1298,1325,1320,1326,1315,1294,1297,1302,1304,1309,1289,1302,1312,1294,1310,1306,509,510,512,514,519,565,641,716,843,838,844,831,817,804,790,777,763,750,736,723,709,696,682,709,655,642,628,615,601,588,574,560,547,533,521,517,518,519,516,523,511,517,525,525,549,555,519,526,527,536,531,518,523,531,530,524,529,524,521,524,521,530,527,536,516,1252,1200,1266,1358,1351,1515,1708,1949,1910,1941,1926,1899,1910,1858,2056,1848,1761,1788,1758,1719,1659,1692,1559,1746,1497,1483,1436,1405,1398,1407,1327,1345,1251,1227,1217,1307,1317,1277,1332,1319,1327,1328,1319,1321,1396,1394,1327,1360,1350,1327,1325,1381,1388,1405,1396,1409,1388,1418,1409,1381,1359,1361,1332,1334,1333,1135,1130,1143,1171,1224,1405,1655,1752,1799,1830,1903,1786,1777,1728,1664,1744,1657,1633,1591,1556,1497,1504,1525,1457,1411,1398,1398,1326,1295,1456,1267,1222,1193,1264,1142,1184,1150,1149,1197,1208,1226,1239,1212,1234,1215,1230,1211,1239,1242,1225,1227,1236,1236,1243,1239,1236,1220,1236,1266,1239,1236,1220,1218,1253,1238,1623,1679,1736,1850,2173,2654,2882,2854,2894,2964,2879,2836,2878,2878,2655,2610,2589,2642,2534,2421,2383,2400,2289,2288,2169,2160,2122,2046,1995,1903,1890,1777,1772,1673,1670,1711,1685,1704,1905,1939,1912,1958,1968,1956,1966,1972,1932,1977,1940,1955,1964,1963,1956,1958,1993,1980,1961,1945,1963,1949,1958,1972,1976,1977,1983,947,950,953,965,1025,1144,1296,1486,1514,1548,1542,1572,1493,1501,1444,1491,1394,1370,1345,1320,1295,1271,1246,1221,1197,1172,1189,1123,1098,1142,1049,1024,999,1082,1012,1002,1012,966,1008,997,1027,1037,1027,1046,1022,1044,1046,1049,1075,1044,1049,1089,1103,1099,1072,1039,1035,1058,1039,1034,1028,1054,1027,1067,1043,1578,1631,1651,1784,2130,2606,2870,2897,2937,2956,2893,2940,2828,2827,2750,2664,2628,2597,2579,2459,2456,2423,2323,2325,2222,2148,2088,1998,1930,1881,1806,1788,1682,1696,1626,1620,1639,1659,1834,1869,1828,1853,1892,1865,1873,1891,1863,1870,1887,1870,1893,1891,1899,1923,1968,1922,1907,1902,1945,1882,1878,1894,1963,1894,1863,656,658,697,662,678,744,840,936,1088,1066,1069,1052,1035,1018,1002,985,968,951,935,918,901,884,955,900,834,817,801,784,767,750,734,717,700,683,670,666,668,707,679,670,697,683,697,736,687,698,702,723,747,723,720,728,723,718,698,702,691,714,686,698,703,705,692,703,733,1139,1105,1127,1244,1242,1384,1590,1751,1754,1806,1794,1856,1741,1778,1681,1656,1640,1620,1588,1544,1539,1487,1447,1462,1426,1392,1332,1336,1314,1279,1259,1203,1223,1155,1125,1120,1159,1139,1184,1180,1173,1184,1174,1198,1183,1189,1211,1265,1189,1222,1227,1225,1206,1237,1235,1199,1189,1200,1218,1234,1225,1242,1239,1237,1218,965,968,963,985,1022,1139,1287,1471,1539,1542,1567,1534,1517,1496,1435,1509,1417,1385,1360,1317,1345,1286,1295,1226,1201,1186,1187,1143,1103,1214,1047,1043,1018,1087,968,999,967,985,1001,1008,1007,1023,1027,1024,1032,1031,1008,1028,1024,1009,1021,1029,1029,1020,1054,1044,1017,1016,1022,1021,1012,1027,1031,1032,1019,905,888,905,947,948,1054,1195,1356,1409,1449,1443,1423,1400,1399,1350,1381,1325,1304,1278,1238,1244,1192,1169,1184,1122,1116,1076,1053,1054,1041,999,1023,937,913,902,899,899,903,939,921,916,921,928,929,982,978,937,967,952,930,935,969,990,993,989,1000,988,1008,989,969,970,953,932,934,929,449,451,452,454,456,493,559,625,690,739,746,735,723,711,699,687,675,663,651,639,627,615,603,591,580,568,556,544,532,520,508,496,484,472,461,456,458,459,454,454,456,456,456,457,457,465,458,458,455,457,456,469,463,463,458,465,462,463,464,464,461,465,453,460,458,1038,1047,1047,1119,1146,1283,1419,1657,1661,1666,1680,1654,1627,1612,1553,1612,1547,1495,1468,1423,1397,1388,1362,1356,1309,1280,1278,1246,1187,1258,1130,1136,1091,1162,1030,1105,1052,1065,1120,1085,1087,1093,1078,1092,1089,1093,1106,1167,1098,1111,1121,1120,1110,1126,1143,1112,1103,1106,1116,1128,1108,1120,1126,1135,1122,1551,1544,1596,1721,2039,2466,2826,3077,3135,3117,3074,3003,2957,2871,2805,2884,2673,2634,2568,2475,2462,2372,2277,2252,2216,2095,2024,2067,1907,1815,1749,1738,1674,1590,1597,1581,1600,1619,1757,1747,1759,1850,1772,1786,1772,1803,1808,1858,1781,1794,1794,1796,1810,1804,1828,1807,1796,1797,1802,1819,1808,1816,1803,1823,1819,0,0,0,0,0,0,0,0,0,0,0,0,0,0,0,0,0,0,0,0,0,0,0,0,0,0,0,0,0,0,0,0,0,0,0,0,0,0,0,0,0,0,0,0,0,0,0,0,0,0,0,0,0,0,0,0,0,0,0,0,0,0,0,0,0,1247,1313,1254,1303,1476,1617,1791,1934,1995,2000,2010,1980,1969,1972,1834,1888,1821,1765,1782,1720,1654,1641,1664,1579,1584,1517,1543,1509,1467,1478,1407,1331,1301,1425,1299,1349,1259,1271,1342,1340,1345,1344,1343,1338,1356,1365,1350,1350,1358,1361,1429,1432,1383,1359,1374,1395,1405,1470,1463,1360,1405,1479,1487,1455,1398,996,999,1003,1020,1087,1214,1375,1575,1632,1625,1665,1630,1566,1573,1514,1561,1463,1471,1411,1385,1359,1334,1372,1282,1256,1230,1246,1179,1153,1227,1101,1075,1050,1132,1030,1072,1030,1051,1067,1069,1068,1076,1078,1074,1075,1089,1063,1076,1069,1068,1075,1089,1084,1078,1083,1080,1076,1075,1091,1093,1070,1076,1074,1077,1074,1404,1304,1387,1503,1507,1675,1888,2124,2082,2110,2093,2051,2018,2018,2098,2001,1912,1936,1904,1862,1795,1823,1701,1718,1628,1602,1562,1519,1527,1486,1452,1449,1364,1332,1330,1421,1424,1391,1419,1467,1424,1441,1455,1445,1442,1452,1449,1445,1460,1441,1453,1458,1457,1466,1470,1480,1473,1473,1509,1461,1479,1503,1502,1487,1471,1735,1809,1823,1913,2164,2410,2526,2740,2769,2683,2755,2705,2656,2618,2483,2507,2442,2419,2436,2285,2233,2208,2215,2119,2171,2044,2084,2042,1983,2027,1859,1798,1771,1919,1759,1792,1721,1808,2029,2031,2049,2072,2055,2072,2049,2063,2048,2058,2086,2072,2099,2121,2107,2096,2084,2099,2084,2109,2108,2085,2113,2106,2090,2109,2106,1687,1749,1798,1939,2275,2661,2842,2949,2971,3017,2985,2938,2873,2843,2785,2797,2694,2694,2576,2553,2506,2436,2402,2493,2334,2268,2181,2125,2043,1968,1908,1885,1843,1737,1746,1730,1750,1769,2032,2040,2034,2056,2084,2083,2076,2106,2072,2091,2129,2086,2110,2088,2117,2139,2277,2209,2125,2121,2110,2121,2103,2091,2124,2160,2114,688,690,693,695,717,791,897,1002,1091,1133,1134,1115,1097,1112,1061,1131,1025,1007,988,970,952,934,916,898,880,861,886,825,807,859,771,753,734,821,702,699,701,703,724,701,703,703,703,706,712,713,709,710,712,709,714,715,712,715,718,713,720,716,714,710,716,724,724,725,724,1322,1316,1331,1435,1516,1702,1900,2055,2097,2122,2105,2128,2052,2036,1967,1998,1917,1876,1834,1804,1770,1740,1700,1668,1635,1600,1608,1532,1499,1542,1433,1409,1377,1451,1330,1372,1324,1338,1384,1394,1399,1422,1413,1418,1405,1420,1402,1402,1417,1407,1440,1455,1441,1422,1419,1430,1429,1441,1438,1417,1438,1440,1425,1424,1419,1078,1030,1090,1104,1123,1252,1417,1667,1632,1668,1658,1635,1609,1604,1632,1603,1520,1497,1527,1492,1426,1441,1345,1382,1292,1283,1239,1213,1211,1194,1149,1172,1081,1056,1045,1095,1092,1048,1104,1096,1096,1106,1093,1098,1167,1164,1103,1129,1116,1099,1100,1149,1157,1170,1166,1174,1156,1172,1172,1149,1129,1135,1108,1110,1106,1736,1825,1816,1916,2128,2406,2586,2689,2726,2705,2756,2721,2666,2671,2492,2551,2453,2424,2446,2342,2288,2259,2209,2124,2188,2046,2081,1990,1947,2031,1929,1836,1804,1809,1719,1792,1766,1780,2038,2096,2070,2102,2126,2118,2130,2103,2095,2126,2098,2064,2094,2088,2094,2092,2126,2119,2094,2090,2131,2073,2095,2111,2137,2133,2094,394,395,396,397,399,427,533,541,598,646,657,646,636,681,615,604,725,635,623,562,551,541,530,520,509,499,488,478,467,457,446,436,425,415,404,400,401,402,392,401,402,409,410,412,404,422,397,415,403,407,401,409,415,419,411,407,406,403,417,412,401,403,396,406,399,1191,1146,1167,1256,1307,1448,1625,1796,1820,1864,1858,1834,1804,1796,1733,1717,1699,1678,1637,1592,1595,1543,1502,1523,1456,1427,1383,1365,1364,1328,1277,1251,1204,1182,1177,1167,1170,1159,1214,1216,1267,1518,1273,1203,1264,1350,1282,1230,1327,1302,1248,1259,1335,1315,1295,1211,1244,1242,1290,1292,1223,1269,1236,1233,1250,740,720,739,771,750,828,938,1076,1137,1178,1180,1161,1142,1145,1105,1086,1088,1068,1049,1010,1021,973,954,1073,916,915,878,860,866,856,819,800,765,747,733,729,731,733,740,745,738,743,751,743,748,748,745,745,743,746,746,751,753,754,752,752,752,747,752,764,753,762,747,751,751,319,309,310,311,312,329,373,417,513,503,516,508,512,559,483,475,479,522,513,442,433,425,417,409,412,392,395,376,379,359,351,354,334,326,318,313,314,315,311,303,309,309,307,305,304,305,309,312,317,314,304,308,309,309,307,312,316,337,309,311,310,308,310,309,309,1687,1749,1798,1939,2275,2661,2842,2949,2971,3017,2985,2938,2873,2843,2785,2797,2694,2694,2576,2553,2506,2436,2402,2493,2334,2268,2181,2125,2043,1968,1908,1885,1843,1737,1746,1730,1750,1769,2077,2064,2072,2148,2152,2150,2117,2091,2123,2175,2136,2165,2162,2192,2167,2165,2164,2152,2142,2122,2160,2205,2144,2154,2164,2154,2123,1417,1492,1498,1551,1804,2385,2633,2905,2952,2936,2955,2828,2785,2701,2637,2817,2511,2475,2411,2321,2299,2211,2131,2109,2004,1957,1877,1818,1754,1723,1624,1611,1519,1464,1460,1453,1471,1488,1562,1565,1581,1605,1587,1600,1581,1594,1577,1579,1602,1587,1617,1633,1619,1608,1598,1610,1603,1618,1614,1594,1619,1617,1600,1610,1604,1222,1202,1205,1348,1351,1501,1698,1841,1902,1908,1918,1887,1857,1838,1818,1851,1762,1747,1675,1666,1597,1584,1554,1580,1494,1496,1489,1419,1357,1425,1317,1295,1277,1305,1187,1253,1209,1222,1267,1265,1275,1287,1279,1283,1292,1303,1289,1291,1305,1298,1325,1320,1326,1315,1294,1297,1302,1304,1309,1289,1302,1312,1294,1310,1306,143,144,144,144,144,144,149,153,157,162,165,165,164,163,162,161,160,159,158,158,157,156,155,154,153,152,152,151,150,149,148,147,146,146,145,144,144,144,127,127,128,127,127,128,129,138,136,128,128,127,127,128,129,138,128,127,127,128,128,127,129,129,129,129,129,979,1019,1013,1040,1099,1246,1420,1548,1645,1683,1631,1616,1590,1499,1575,1536,1436,1464,1451,1416,1371,1345,1338,1330,1287,1266,1228,1198,1164,1138,1117,1117,1083,1035,1025,1046,1046,1062,1052,1073,1061,1087,1088,1078,1081,1097,1073,1084,1073,1072,1078,1090,1090,1098,1183,1144,1096,1085,1091,1068,1070,1078,1099,1095,1080,280,281,282,283,284,298,337,375,426,451,463,455,448,441,434,438,419,412,405,397,401,383,386,368,361,354,356,339,332,334,318,310,303,296,289,284,285,286,276,282,277,286,285,292,280,286,278,280,281,279,277,289,285,289,287,291,288,289,297,289,286,295,278,286,281,283,294,285,286,287,302,340,379,417,455,466,459,451,444,437,430,422,415,408,401,393,386,379,372,364,357,350,342,335,328,321,313,306,299,292,288,288,289,268,273,274,293,271,274,269,271,269,266,270,270,265,270,270,270,270,276,272,273,273,274,271,281,269,273,271,843,874,840,852,907,1045,1217,1378,1477,1497,1490,1459,1444,1406,1382,1356,1378,1304,1314,1244,1227,1199,1172,1145,1196,1090,1063,1036,1009,982,1023,977,937,873,858,857,884,896,898,896,890,898,884,897,894,901,913,994,902,930,940,936,923,951,946,906,898,912,929,944,934,950,944,946,927,417,424,418,419,421,464,524,584,631,672,698,674,663,653,658,631,623,606,610,588,580,566,566,544,534,523,512,501,500,480,469,460,443,436,434,422,431,424,417,414,424,449,434,425,422,437,427,438,445,455,527,560,585,502,445,433,431,453,437,423,427,444,432,442,429,884,883,858,862,968,1086,1260,1423,1521,1541,1621,1502,1487,1449,1465,1397,1430,1344,1321,1284,1266,1238,1230,1220,1176,1158,1140,1073,1066,1035,975,944,942,885,897,892,876,910,886,897,902,921,975,954,917,965,920,998,946,977,951,923,951,993,950,927,980,945,934,962,959,997,950,944,934,804,843,837,841,882,981,1105,1235,1317,1401,1352,1331,1310,1233,1280,1245,1184,1199,1181,1171,1138,1117,1104,1082,1063,1056,1007,988,967,945,924,934,881,858,847,852,867,848,860,851,862,909,882,892,876,852,867,884,878,871,863,892,945,969,890,875,871,868,861,863,862,870,863,883,853,667,675,658,677,714,747,904,944,1031,1082,1067,1086,1038,1027,1029,997,990,980,931,915,898,881,869,846,821,830,821,791,803,774,753,712,687,700,700,674,691,659,669,668,662,671,677,705,671,679,694,685,675,680,671,680,680,669,683,686,684,683,678,683,693,714,708,717,705,398,399,400,402,403,454,487,542,598,643,651,641,631,621,611,629,591,580,597,560,550,540,565,520,509,499,489,511,469,459,448,438,428,418,408,423,405,406,403,403,394,403,406,406,420,422,403,404,406,419,412,403,404,410,408,410,408,408,400,401,399,404,408,404,393,520,519,505,524,532,598,634,762,800,874,857,866,829,815,798,811,775,757,736,735,698,706,733,678,665,627,644,605,629,588,601,587,548,559,531,519,528,510,523,518,525,522,537,556,526,523,525,542,541,542,541,544,540,539,533,536,529,534,529,542,541,546,542,540,550,897,921,881,873,920,1127,1180,1288,1394,1428,1424,1401,1375,1387,1333,1311,1268,1325,1243,1220,1179,1263,1152,1130,1188,1085,1112,1039,1001,994,972,934,912,905,892,947,891,894,914,904,913,938,923,907,912,932,915,976,1020,927,936,932,924,921,920,942,905,913,904,907,906,911,907,927,904,307,308,309,310,330,329,372,442,456,497,507,499,491,513,505,468,460,479,444,468,428,446,412,434,396,388,380,400,364,356,348,340,332,344,348,331,313,314,324,314,304,308,327,338,322,335,341,349,328,354,346,343,326,343,335,342,368,328,343,403,357,366,356,349,350,1128,1131,1134,1166,1287,1472,1762,2035,2012,2032,2021,1992,1947,1954,1827,1852,1791,1754,1711,1663,1645,1630,1570,1553,1494,1456,1418,1353,1343,1278,1267,1230,1174,1161,1160,1146,1169,1225,1200,1238,1199,1199,1219,1202,1213,1219,1216,1218,1235,1220,1235,1225,1231,1236,1239,1246,1236,1243,1269,1227,1249,1252,1266,1244,1238,1379,1424,1438,1496,1547,1861,1954,2106,2208,2114,2156,2189,2087,2123,2024,1966,2017,2056,1920,1905,1870,1897,1759,1753,1800,1597,1675,1590,1613,1528,1430,1441,1442,1432,1384,1457,1454,1390,1464,1507,1467,1479,1524,1480,1489,1498,1496,1498,1521,1512,1509,1498,1507,1506,1541,1524,1521,1518,1552,1493,1519,1524,1544,1521,1516,0,0,0,0,0,0,0,0,0,0,0,0,0,0,0,0,0,0,0,0,0,0,0,0,0,0,0,0,0,0,0,0,0,0,0,0,0,0,0,0,0,0,0,0,0,0,0,0,0,0,0,0,0,0,0,0,0,0,0,0,0,0,0,0,0,410,441,411,412,413,445,502,620,617,698,724,660,649,639,628,618,647,629,586,576,568,555,547,534,523,513,502,492,481,471,460,452,462,429,418,414,415,416,419,415,410,464,441,416,418,430,424,446,471,434,442,426,417,419,434,433,417,418,410,416,415,411,430,422,401,339,331,332,341,336,360,391,444,454,483,491,484,477,471,464,459,453,447,441,435,429,423,440,432,423,415,406,398,390,359,352,369,361,331,324,321,338,337,318,320,320,327,363,362,340,371,349,364,356,363,361,332,338,362,345,328,369,343,331,360,353,370,363,350,347,560,561,585,598,543,606,686,759,789,839,844,831,851,827,793,853,760,749,737,743,715,707,712,714,682,651,661,648,635,633,621,580,595,552,607,587,568,570,550,554,564,571,568,576,557,572,559,587,568,564,570,572,585,600,582,575,584,572,582,586,583,590,568,576,571,737,739,741,743,762,853,966,1118,1146,1176,1174,1157,1140,1165,1106,1089,1113,1055,1038,1021,1004,987,971,953,934,919,902,879,861,871,821,804,783,764,779,748,750,751,752,756,746,852,778,756,763,781,766,760,763,778,778,762,754,766,768,774,764,766,755,763,763,776,790,782,761,622,579,581,619,591,683,725,876,960,979,1004,1024,972,956,922,925,892,877,817,846,845,830,823,849,793,716,750,725,710,695,687,671,655,640,621,623,587,650,608,608,601,608,616,645,610,617,634,622,613,617,610,618,618,609,623,623,619,618,616,623,630,652,646,655,642,377,378,391,379,393,408,461,514,566,632,619,609,601,590,599,571,561,569,541,549,522,512,502,493,483,473,464,454,458,435,425,428,405,395,386,382,383,384,370,368,378,419,388,370,389,401,385,380,388,379,385,384,383,383,417,394,380,376,381,387,376,388,386,386,386,372,373,374,375,376,401,466,518,569,614,606,613,604,578,585,560,550,541,546,537,513,503,508,499,475,466,457,447,451,428,419,410,400,391,382,377,378,379,368,368,366,378,368,370,369,374,369,372,372,371,374,372,376,374,373,376,379,377,378,372,377,379,378,379,380,552,553,558,557,535,637,693,771,918,902,862,848,908,857,820,809,811,802,785,752,813,721,752,719,685,686,742,683,645,631,618,576,590,574,566,560,561,563,542,548,556,583,553,563,547,557,549,548,552,549,544,559,555,563,559,563,559,563,568,563,559,569,548,559,555,1132,1157,1152,1186,1281,1465,1622,1697,1829,1895,1836,1814,1722,1755,1721,1696,1668,1634,1561,1533,1504,1467,1491,1473,1463,1436,1374,1344,1305,1288,1276,1213,1163,1169,1150,1126,1165,1177,1181,1183,1179,1196,1191,1199,1197,1211,1193,1210,1198,1204,1193,1192,1184,1184,1196,1205,1193,1197,1183,1184,1188,1204,1202,1203,1182,568,573,572,574,598,655,720,825,883,950,953,938,901,894,893,885,863,848,813,818,784,769,754,758,725,728,719,698,683,673,653,638,608,593,595,591,578,580,588,583,586,599,587,591,592,599,592,590,593,585,598,600,606,600,598,594,587,605,595,587,590,610,595,605,593,626,671,630,632,646,711,804,897,982,1024,1026,1010,993,977,961,945,929,912,896,880,864,847,831,815,799,783,766,750,734,718,701,685,669,653,639,636,638,639,633,636,626,657,631,656,629,657,639,646,645,641,651,644,660,666,659,660,654,656,663,653,663,667,666,678,674,1096,1073,1067,1092,1185,1324,1695,1617,1695,1829,1713,1687,1671,1632,1587,1578,1550,1523,1496,1482,1441,1414,1512,1374,1345,1318,1277,1250,1236,1210,1182,1141,1139,1172,1079,1077,1093,1092,1104,1099,1103,1108,1099,1111,1105,1104,1121,1172,1112,1124,1134,1134,1145,1149,1161,1145,1135,1137,1139,1146,1146,1145,1144,1157,1153,737,739,741,743,762,853,966,1118,1146,1176,1174,1157,1140,1165,1106,1089,1113,1055,1038,1021,1004,987,971,953,934,919,902,879,861,871,821,804,783,764,779,748,750,751,775,752,751,758,763,767,821,812,768,797,782,763,768,812,815,818,812,830,818,835,813,793,795,781,767,762,753,1274,1277,1302,1415,1444,1806,1930,2159,2016,2031,2014,2083,1986,1963,2011,1862,1870,1800,1770,1739,1709,1802,1829,1729,1716,1572,1525,1489,1472,1467,1390,1374,1327,1326,1322,1361,1296,1368,1410,1397,1395,1489,1455,1448,1436,1426,1448,1486,1448,1510,1541,1514,1433,1461,1465,1465,1463,1441,1518,1608,1559,1558,1570,1484,1490,143,144,144,144,144,144,149,153,157,162,165,165,164,163,162,161,160,159,158,158,157,156,155,154,153,152,152,151,150,149,148,147,146,146,145,144,144,144,127,127,128,127,127,128,129,138,136,128,128,127,127,128,129,138,128,127,127,128,128,127,129,129,129,129,129,408,409,410,412,413,445,504,566,622,669,678,667,654,643,634,624,613,602,597,580,579,557,547,537,525,516,505,494,483,472,462,450,440,429,419,414,415,416,407,403,396,402,407,432,403,408,423,412,403,409,401,407,409,399,409,410,409,407,404,408,415,422,417,423,414,655,668,674,673,676,733,847,952,1022,1075,1068,1051,1046,1028,1034,1013,996,978,932,945,979,890,890,872,864,812,804,851,761,771,738,731,713,698,669,678,665,682,663,670,675,689,684,692,672,690,670,710,684,701,683,685,707,728,700,692,702,694,695,695,700,709,679,687,679,502,504,505,507,512,558,633,869,781,828,834,820,807,794,780,779,754,740,727,714,711,697,684,660,647,633,620,607,593,580,567,553,540,527,514,510,519,513,513,507,519,555,527,510,527,537,524,522,527,522,526,532,539,533,547,529,517,522,525,526,515,529,521,525,521,228,228,229,230,230,240,272,303,335,367,380,374,368,362,356,350,344,338,332,326,320,314,308,302,296,293,284,277,271,265,259,253,247,241,235,231,232,232,218,219,219,224,219,228,223,234,231,220,234,224,226,223,222,228,222,222,223,228,220,222,220,224,222,225,220,1066,1069,1109,1089,1201,1392,1608,1766,1878,1878,1849,1816,1834,1750,1717,1684,1651,1618,1585,1583,1564,1516,1453,1420,1387,1354,1345,1288,1255,1267,1189,1156,1123,1097,1152,1161,1091,1096,1124,1123,1142,1161,1133,1153,1133,1146,1135,1151,1164,1156,1146,1159,1162,1176,1161,1166,1150,1162,1169,1166,1166,1167,1152,1182,1177,107,108,108,108,109,111,126,140,155,170,181,178,176,173,170,167,164,161,158,155,152,149,146,144,141,138,135,132,129,126,123,120,117,114,112,109,109,110,96,94,95,96,96,95,95,96,94,95,96,96,95,96,95,95,95,96,96,96,95,94,95,95,96,95,95,1100,1103,1106,1126,1248,1454,1653,1811,1961,1943,1892,1931,1825,1792,1782,1746,1692,1712,1638,1622,1602,1560,1491,1492,1423,1419,1377,1315,1291,1297,1239,1200,1158,1138,1188,1175,1125,1140,1205,1208,1203,1292,1256,1253,1236,1229,1248,1280,1245,1288,1284,1283,1222,1235,1256,1264,1264,1235,1276,1327,1279,1267,1282,1251,1258,472,474,473,477,477,517,588,657,726,772,782,770,757,745,733,716,708,692,683,670,658,645,633,647,634,595,583,571,558,546,533,521,508,496,484,479,481,490,477,476,475,475,479,476,481,476,481,478,476,479,481,483,483,483,486,488,484,491,484,481,492,484,484,485,481,661,641,619,623,634,698,827,918,992,1014,1017,1001,1027,969,941,937,937,905,917,869,854,841,825,809,793,775,809,737,729,710,729,690,665,677,651,638,649,638,638,638,637,641,640,646,642,647,641,646,645,639,641,641,646,651,649,648,648,646,648,648,645,656,645,651,647,178,178,179,179,180,185,209,233,256,280,294,289,285,280,276,271,266,262,257,278,248,244,239,234,230,225,221,216,211,228,202,198,193,189,184,180,181,181,169,171,169,172,219,196,184,196,182,219,190,190,196,174,179,190,185,174,204,179,174,196,189,213,196,192,184,469,496,472,445,447,484,552,656,677,723,731,721,754,698,729,674,704,651,640,667,654,605,594,583,571,557,564,540,527,548,514,509,479,463,452,448,449,451,447,447,450,456,456,454,458,453,453,458,464,458,483,483,484,463,471,461,458,456,455,458,456,457,457,461,455,648,672,652,659,665,756,858,944,996,1079,1076,1085,1019,1033,949,975,973,941,944,907,890,860,838,851,814,806,777,801,743,749,732,717,698,680,640,663,634,670,668,657,656,659,664,666,671,666,668,672,674,667,674,677,680,677,674,684,675,684,672,666,679,680,664,663,656,314,315,316,317,322,337,379,422,469,512,526,517,494,498,489,473,473,464,462,447,439,431,412,414,389,397,389,380,372,364,357,349,339,330,322,319,320,319,305,308,310,316,317,318,318,322,316,316,320,318,314,316,317,324,315,312,322,317,322,314,318,322,311,318,314,1365,1355,1379,1416,1663,1874,2167,2338,2384,2408,2324,2395,2275,2257,2153,2144,2102,2025,2015,2001,1928,1913,1842,1768,1746,1744,1640,1597,1601,1649,1513,1426,1387,1385,1422,1433,1385,1407,1506,1505,1479,1498,1495,1537,1504,1517,1534,1595,1514,1543,1537,1545,1526,1577,1543,1516,1507,1510,1513,1534,1539,1560,1536,1542,1506,1165,1142,1084,1126,1243,1503,1485,1705,1758,1847,1842,1885,1738,1745,1815,1666,1638,1611,1610,1661,1533,1524,1474,1482,1347,1430,1339,1370,1225,1312,1213,1183,1220,1193,1146,1162,1090,1154,1156,1200,1164,1169,1185,1176,1174,1195,1184,1185,1205,1174,1182,1195,1191,1196,1192,1210,1204,1197,1219,1189,1205,1221,1237,1204,1195,379,380,381,382,383,404,452,500,548,636,646,593,584,576,567,558,549,540,531,522,513,504,496,487,478,469,460,451,442,433,424,415,407,398,389,384,385,386,374,376,369,379,376,374,383,395,379,372,376,386,381,373,374,379,378,377,376,384,371,378,371,377,377,373,369,0,0,0,0,0,0,0,0,0,0,0,0,0,0,0,0,0,0,0,0,0,0,0,0,0,0,0,0,0,0,0,0,0,0,0,0,0,0,0,0,0,0,0,0,0,0,0,0,0,0,0,0,0,0,0,0,0,0,0,0,0,0,0,0,0,613,617,617,610,632,694,795,876,962,1006,1002,935,977,944,945,929,914,897,829,866,799,784,807,800,739,724,709,736,678,663,648,633,656,603,627,623,587,626,622,603,610,603,608,607,654,633,599,601,619,623,616,603,606,610,606,614,610,611,606,605,598,610,616,617,593,842,853,898,835,879,990,1092,1285,1355,1364,1392,1375,1284,1294,1265,1275,1191,1242,1270,1171,1119,1099,1175,1178,1047,1063,1069,983,1037,969,947,912,900,888,866,879,866,868,860,856,854,863,946,930,894,911,897,970,927,904,923,878,886,928,923,888,948,899,885,944,917,963,937,962,914,1052,1035,1038,1067,1127,1285,1449,1579,1700,1707,1698,1657,1667,1582,1597,1573,1547,1489,1457,1432,1410,1421,1394,1333,1298,1283,1252,1251,1189,1203,1144,1120,1120,1097,1060,1127,1060,1052,1076,1115,1078,1082,1116,1103,1091,1107,1104,1119,1122,1097,1104,1112,1121,1127,1131,1136,1121,1127,1138,1139,1146,1159,1172,1160,1152,255,256,280,280,281,270,306,341,376,412,424,417,411,404,397,391,384,377,370,364,357,350,344,337,330,323,317,310,303,297,290,283,276,270,263,282,283,260,254,258,256,264,263,266,258,270,255,268,264,281,258,265,269,276,266,266,269,273,272,265,265,270,257,262,258,413,415,416,418,419,452,512,572,632,679,687,667,665,656,643,633,621,611,600,589,578,567,556,545,534,523,512,494,483,479,468,457,446,435,424,420,421,422,401,404,410,435,404,414,401,409,406,400,406,403,399,406,406,410,407,414,408,412,410,415,409,422,404,414,409,423,465,426,427,429,461,524,583,641,687,695,684,693,663,652,640,631,621,610,599,589,595,567,557,546,533,522,511,504,493,492,489,455,445,434,430,430,432,424,431,431,444,444,445,435,460,429,456,447,479,442,444,457,465,445,441,452,458,453,442,445,450,434,437,433,850,858,828,832,894,1020,1100,1253,1308,1391,1343,1371,1317,1361,1285,1237,1277,1186,1186,1153,1167,1145,1140,1094,1050,1094,1027,1021,992,942,935,942,900,871,866,839,838,840,855,861,858,898,873,861,867,884,866,884,886,882,878,869,863,871,875,883,866,870,862,867,866,877,885,884,864,907,931,943,992,1019,1096,1199,1359,1489,1531,1527,1477,1468,1467,1429,1354,1361,1307,1358,1333,1236,1244,1234,1209,1176,1142,1082,1115,1069,1063,1038,1021,999,932,930,988,947,938,961,946,948,953,988,983,994,992,974,1011,982,967,984,959,960,975,978,968,989,961,958,981,977,997,988,990,985,596,639,618,603,614,673,765,853,935,977,981,965,969,935,919,903,889,873,858,867,851,835,844,782,766,749,733,794,705,690,685,676,638,623,634,606,607,609,606,617,616,617,624,621,623,619,616,628,615,618,618,623,634,644,636,636,626,629,631,621,628,622,625,633,616,378,415,390,391,427,410,464,532,573,635,644,618,623,616,655,593,582,572,562,552,541,518,521,511,500,490,468,458,448,449,439,431,408,408,388,393,394,395,379,384,383,394,456,430,404,442,403,467,429,462,430,397,408,429,411,397,448,422,399,431,419,456,430,415,409,923,844,898,852,893,970,1186,1250,1309,1454,1369,1289,1282,1328,1282,1343,1207,1221,1186,1145,1152,1110,1108,1058,1058,1043,1065,979,933,929,935,915,896,870,814,828,849,850,846,840,854,873,867,864,860,858,864,875,870,867,896,899,921,901,890,874,861,871,870,866,860,877,860,883,855,1052,1035,1038,1067,1127,1285,1449,1579,1700,1707,1698,1657,1667,1582,1597,1573,1547,1489,1457,1432,1410,1421,1394,1333,1298,1283,1252,1251,1189,1203,1144,1120,1120,1097,1060,1127,1060,1052,1101,1099,1093,1156,1137,1111,1118,1134,1115,1139,1167,1134,1139,1126,1118,1124,1135,1124,1122,1118,1113,1120,1112,1120,1122,1120,1092,1434,1489,1438,1560,1759,2053,2271,2381,2416,2426,2402,2359,2316,2295,2308,2192,2156,2134,2109,2047,1971,1899,1888,1846,1831,1749,1718,1733,1674,1604,1521,1553,1467,1436,1454,1456,1448,1471,1498,1542,1507,1511,1542,1525,1529,1539,1539,1540,1557,1533,1542,1550,1554,1559,1567,1567,1572,1567,1579,1570,1583,1597,1612,1594,1594,408,409,410,412,413,445,504,566,622,669,678,667,654,643,634,624,613,602,597,580,579,557,547,537,525,516,505,494,483,472,462,450,440,429,419,414,415,416,407,403,396,402,407,432,403,408,423,412,403,409,401,407,409,399,409,410,409,407,404,408,415,422,417,423,414,153,153,154,154,155,159,180,201,221,242,255,251,247,243,239,235,231,227,223,219,215,211,207,203,199,195,191,187,183,178,174,170,166,162,158,155,155,156,157,141,141,141,141,143,142,143,141,144,142,141,142,142,142,141,144,143,142,142,142,143,142,143,143,144,144,1075,1078,1079,1107,1188,1318,1493,1632,1728,1740,1674,1647,1688,1658,1682,1627,1598,1575,1506,1432,1450,1487,1411,1325,1362,1324,1317,1265,1279,1234,1182,1146,1146,1120,1122,1124,1093,1052,1128,1135,1141,1159,1288,1221,1174,1219,1168,1307,1204,1226,1221,1162,1193,1246,1202,1172,1256,1189,1175,1231,1216,1292,1222,1216,1190,213,214,215,215,216,225,255,263,286,343,327,348,345,342,339,336,332,290,285,281,276,272,267,263,258,248,243,281,276,271,266,261,232,251,247,217,217,218,215,218,216,220,222,227,217,228,217,218,219,216,217,226,222,222,220,223,223,224,232,233,219,226,217,222,220,491,495,480,496,485,547,616,689,761,807,794,761,750,752,729,749,736,698,713,697,684,671,661,645,632,619,606,593,580,567,556,541,528,515,503,511,502,501,498,484,495,506,504,513,487,507,492,488,501,510,496,503,516,534,521,529,496,513,509,514,533,522,532,545,525,805,741,743,745,856,892,1040,1186,1294,1358,1371,1301,1277,1253,1227,1203,1180,1156,1132,1129,1084,1060,1080,1033,987,955,931,915,883,867,865,818,787,787,753,752,756,760,758,751,746,747,764,776,763,770,776,786,772,787,786,785,777,789,782,791,807,782,792,829,800,802,804,805,810,518,514,522,523,530,570,655,732,809,854,860,846,832,809,826,791,777,763,771,736,722,708,686,681,667,646,661,618,634,609,578,564,567,537,546,549,521,529,540,536,537,542,542,536,547,539,539,541,545,537,547,548,545,546,571,550,538,540,538,541,539,547,544,545,542,778,780,777,767,827,931,1082,1231,1339,1403,1414,1344,1394,1366,1269,1244,1283,1197,1173,1198,1171,1163,1116,1109,1060,1000,968,977,949,903,893,837,822,838,787,786,769,805,814,799,802,806,801,802,874,871,807,837,822,807,809,859,864,877,870,876,864,881,882,855,839,837,816,810,812,891,894,897,904,955,1063,1205,1339,1423,1458,1396,1373,1420,1384,1391,1337,1314,1330,1264,1195,1218,1234,1157,1106,1139,1105,1082,1056,1059,1037,989,964,943,929,936,995,914,873,936,935,932,940,944,955,939,940,955,948,937,944,940,947,944,938,948,951,946,945,940,955,952,962,966,962,954,711,713,738,710,797,836,942,1017,1142,1215,1174,1151,1162,1101,1095,1103,1031,1014,996,978,987,943,926,908,890,879,850,853,837,818,809,797,778,761,732,742,725,726,739,720,725,730,721,741,733,749,745,762,752,730,736,735,736,741,740,740,736,740,733,732,739,740,738,759,746,458,459,460,462,465,503,569,635,701,748,756,744,732,763,708,696,684,672,660,648,636,624,612,600,588,576,587,552,540,528,516,504,492,480,469,464,466,467,455,469,457,487,458,478,461,485,467,476,469,461,475,470,478,475,475,473,478,473,486,471,472,488,483,493,491,595,575,598,600,612,656,762,855,936,941,1027,967,917,959,897,879,867,873,834,841,826,791,748,760,763,746,734,682,750,689,668,638,637,623,619,588,593,594,617,607,608,603,608,602,638,625,595,593,613,615,607,600,601,602,599,608,603,607,602,600,591,603,607,609,590,922,925,928,938,1011,1127,1278,1415,1497,1530,1521,1500,1475,1451,1427,1464,1378,1354,1329,1305,1290,1238,1307,1306,1192,1142,1134,1110,1086,1061,1022,1057,995,952,939,950,953,955,944,942,946,951,950,948,959,959,960,963,960,961,966,966,968,965,976,978,978,982,981,974,989,982,978,984,981,367,368,369,370,371,397,450,504,557,603,612,603,593,583,573,563,553,544,534,524,514,504,495,485,475,465,455,446,436,426,448,406,397,387,377,373,374,375,369,362,371,380,377,374,368,368,374,383,386,374,379,410,426,409,409,386,370,384,371,376,365,381,378,387,370,1024,1027,1004,1048,1102,1331,1565,1744,1947,1859,1882,1820,1785,1739,1714,1643,1646,1577,1604,1507,1507,1489,1437,1445,1338,1333,1269,1299,1201,1178,1159,1124,1064,1076,1041,1042,1066,1068,1053,1046,1059,1075,1090,1065,1050,1069,1055,1105,1087,1083,1077,1206,1099,1103,1213,1090,1091,1085,1099,1100,1093,1096,1090,1098,1098,1422,1459,1525,1536,1642,1854,2055,2378,2272,2251,2192,2215,2157,2214,2110,2203,2098,2061,2024,1941,1976,1809,1979,1836,1771,1669,1693,1716,1656,1585,1582,1567,1545,1542,1415,1444,1461,1466,1572,1540,1540,1549,1585,1609,1589,1597,1580,1588,1627,1614,1651,1624,1634,1650,1659,1597,1617,1643,1666,1689,1656,1670,1701,1740,1636,263,264,264,265,266,276,323,377,353,373,385,382,378,374,370,366,362,359,355,351,347,343,356,350,345,340,321,329,324,318,296,290,283,277,271,267,267,268,258,258,262,263,259,262,263,259,263,262,264,261,259,259,262,264,263,263,262,266,276,259,259,261,265,262,259,536,531,539,541,548,591,678,757,835,880,885,871,857,833,850,815,801,787,810,758,744,730,708,702,688,666,681,638,653,628,596,582,585,554,563,566,539,547,547,537,545,549,538,564,549,554,555,550,577,549,548,549,546,567,561,553,546,554,549,553,555,553,552,584,560,0,0,0,0,0,0,0,0,0,0,0,0,0,0,0,0,0,0,0,0,0,0,0,0,0,0,0,0,0,0,0,0,0,0,0,0,0,0,0,0,0,0,0,0,0,0,0,0,0,0,0,0,0,0,0,0,0,0,0,0,0,0,0,0,0,586,575,576,578,587,636,712,789,868,909,914,901,888,891,877,848,830,816,802,789,775,761,748,748,720,707,693,679,666,652,650,625,622,597,585,581,583,584,577,570,564,573,577,606,573,580,593,587,576,582,570,579,579,565,580,584,582,580,575,577,588,594,587,594,584,668,671,672,672,693,764,864,966,1054,1097,1098,1081,1059,1062,1044,1011,993,976,958,941,923,906,888,884,853,836,818,801,783,766,760,728,713,696,682,678,680,682,672,682,684,709,685,694,679,692,687,684,684,679,679,697,692,700,699,700,697,702,707,706,698,728,714,728,724,673,698,641,680,700,772,857,954,1064,1105,1106,1018,1051,1053,1017,1001,1034,983,965,933,873,943,841,877,899,870,776,797,789,728,754,730,713,701,687,707,648,682,676,679,677,690,702,679,689,689,689,685,702,712,779,783,794,730,741,738,714,714,698,687,706,683,701,692,686,586,588,590,592,603,678,750,838,921,946,972,936,922,923,896,891,875,856,844,829,816,798,782,767,752,736,721,705,690,674,659,643,628,612,600,595,597,598,587,586,588,593,594,594,599,595,600,602,594,600,624,596,599,594,599,605,605,609,608,603,621,603,598,607,600,432,433,434,436,437,471,547,594,672,719,727,700,688,693,666,670,644,648,636,610,613,602,577,579,568,543,532,534,522,511,487,476,477,453,442,438,439,440,434,438,437,447,507,478,454,490,453,517,475,506,476,448,461,479,462,450,492,471,453,477,468,503,476,465,458,614,594,596,598,609,667,755,842,992,984,973,957,956,943,927,896,880,865,850,838,819,807,796,860,757,742,726,711,696,680,676,649,656,619,605,601,603,605,602,592,605,617,610,607,601,603,609,617,614,609,616,654,671,652,645,616,603,622,610,609,598,621,609,628,606,1169,1223,1178,1257,1315,1530,1715,1849,1863,1954,1902,1914,1879,1844,1767,1785,1780,1759,1683,1616,1586,1583,1557,1532,1503,1473,1404,1413,1381,1344,1283,1288,1259,1202,1298,1180,1222,1228,1284,1269,1268,1268,1282,1284,1271,1279,1271,1325,1277,1276,1283,1285,1283,1289,1290,1288,1280,1289,1277,1292,1284,1288,1290,1295,1294,608,610,598,600,627,688,800,831,915,1003,1001,955,958,938,929,929,877,842,847,833,818,803,766,780,759,732,724,730,759,708,700,693,636,653,641,617,605,626,615,623,623,639,644,641,640,670,639,649,648,661,668,640,657,691,642,639,652,655,645,645,651,659,644,646,641,686,688,690,693,714,788,893,998,1087,1127,1128,1110,1092,1074,1056,1038,1020,1002,984,966,948,930,912,894,876,858,840,822,804,786,768,750,732,714,700,697,699,700,683,709,716,694,702,692,713,726,712,697,761,708,717,703,739,732,827,776,749,709,712,708,700,705,705,759,687,1173,1139,1211,1161,1249,1381,1645,1720,1796,1824,1825,1798,1755,1741,1697,1667,1653,1733,1596,1536,1523,1494,1478,1451,1418,1378,1496,1406,1330,1262,1221,1218,1201,1153,1140,1152,1154,1157,1202,1204,1205,1216,1229,1212,1227,1231,1223,1221,1230,1231,1238,1253,1246,1265,1222,1220,1228,1229,1223,1229,1229,1226,1221,1245,1225,668,671,672,672,693,764,864,966,1054,1097,1098,1081,1059,1062,1044,1011,993,976,958,941,923,906,888,884,853,836,818,801,783,766,760,728,713,696,682,678,680,682,670,669,672,699,672,685,671,679,670,669,682,675,674,683,683,691,680,689,682,682,687,678,683,693,669,690,679,1233,1219,1214,1256,1360,1548,1722,1867,1927,1954,1953,1910,1876,1864,1844,1862,1774,1743,1719,1673,1631,1600,1700,1551,1507,1564,1445,1414,1383,1352,1387,1301,1279,1237,1225,1237,1226,1229,1289,1291,1248,1242,1291,1269,1281,1285,1282,1287,1343,1291,1299,1314,1312,1318,1290,1317,1328,1330,1363,1317,1305,1312,1367,1294,1295,153,153,154,154,155,159,180,201,221,242,255,251,247,243,239,235,231,227,223,219,215,211,207,203,199,195,191,187,183,178,174,170,166,162,158,155,155,156,157,141,141,141,141,143,142,143,141,144,142,141,142,142,142,141,144,143,142,142,142,143,142,143,143,144,144,749,698,700,721,717,788,888,974,1040,1061,1080,1049,1047,1039,1025,989,997,992,969,966,914,899,884,868,885,858,823,808,796,777,770,747,775,716,750,705,709,710,707,707,710,732,730,722,722,735,723,726,738,743,798,807,830,772,735,721,731,737,730,720,721,735,720,735,717,1532,1541,1635,1640,1962,2024,2267,2254,2488,2326,2476,2379,2386,2282,2272,2251,2202,2127,2131,2118,2080,1960,1891,1934,1883,1825,1762,1736,1671,1704,1682,1599,1563,1534,1544,1525,1537,1570,1633,1678,1636,1646,1655,1656,1704,1702,1662,1683,1694,1649,1659,1692,1708,1729,1719,1743,1726,1724,1729,1681,1701,1701,1713,1686,1675,863,852,894,853,952,991,1078,1251,1327,1316,1344,1317,1290,1296,1287,1254,1209,1174,1213,1163,1111,1090,1069,1047,1026,1036,1010,963,983,950,951,911,890,838,870,873,847,849,847,852,854,869,855,859,891,861,855,884,879,867,863,882,859,868,869,874,863,862,861,863,862,860,863,868,858,738,757,774,740,842,843,927,1020,1147,1138,1144,1160,1177,1130,1094,1094,1066,1020,1037,1015,965,947,907,902,903,905,887,848,829,830,816,797,768,738,760,763,737,738,739,741,741,758,767,760,789,799,761,772,777,783,823,816,824,815,776,760,774,771,758,766,763,778,769,782,763,767,769,771,773,803,880,1007,1101,1184,1226,1223,1204,1185,1166,1147,1128,1109,1130,1086,1053,1077,1058,996,991,971,939,920,914,883,864,845,848,807,788,795,865,795,797,814,810,798,807,789,802,799,802,821,875,808,820,827,822,816,845,846,815,807,804,817,828,810,820,824,820,813,868,890,915,887,972,1035,1125,1206,1364,1367,1347,1359,1409,1359,1304,1289,1279,1229,1221,1214,1163,1121,1071,1066,1064,1075,1053,1000,978,986,959,945,881,870,902,898,872,868,866,861,869,907,864,896,867,873,870,861,898,876,901,916,908,899,884,886,879,890,889,882,884,892,868,905,881,969,963,975,1010,1059,1159,1325,1431,1513,1549,1542,1474,1480,1472,1473,1449,1424,1439,1381,1349,1339,1317,1262,1279,1243,1218,1194,1183,1101,1150,1075,1091,1051,1014,1036,1047,1022,980,1034,1060,1024,1029,1067,1055,1035,1045,1039,1066,1058,1034,1047,1050,1062,1068,1063,1066,1050,1054,1066,1073,1074,1077,1082,1080,1067,1334,1359,1435,1412,1629,1720,1977,2023,2211,2092,2161,2108,2099,2088,1995,2005,1942,1885,1885,1885,1856,1730,1651,1723,1704,1614,1581,1610,1547,1493,1501,1452,1378,1351,1428,1370,1357,1381,1432,1422,1437,1461,1443,1452,1444,1474,1452,1459,1458,1443,1461,1486,1506,1494,1483,1475,1444,1471,1455,1443,1441,1476,1475,1482,1449,1236,1267,1266,1289,1435,1599,1706,1831,1934,1905,1914,1877,1890,1858,1853,1820,1757,1707,1722,1690,1624,1581,1571,1508,1520,1486,1470,1404,1414,1359,1470,1313,1275,1214,1247,1258,1226,1229,1289,1271,1275,1276,1317,1326,1311,1317,1304,1311,1351,1333,1333,1326,1336,1336,1386,1327,1327,1346,1353,1346,1327,1328,1359,1414,1343,872,902,919,890,976,1033,1127,1234,1365,1369,1349,1361,1374,1340,1306,1287,1267,1217,1242,1209,1177,1141,1074,1064,1063,1074,1057,1003,981,989,960,948,885,871,906,926,873,872,889,874,878,874,890,909,890,892,896,920,928,937,938,942,927,938,922,914,919,927,939,965,936,944,940,962,954,1121,1099,1141,1113,1238,1309,1465,1604,1700,1723,1745,1686,1683,1643,1663,1601,1555,1487,1583,1506,1447,1403,1366,1366,1310,1349,1333,1217,1246,1250,1170,1177,1156,1081,1107,1135,1090,1088,1115,1123,1126,1128,1120,1131,1141,1143,1129,1127,1172,1129,1152,1134,1150,1161,1162,1172,1153,1143,1156,1146,1139,1136,1135,1172,1124,1462,1466,1498,1556,1744,1883,2234,2179,2278,2234,2267,2224,2222,2197,2145,2174,2054,1994,2090,1978,1940,1926,1824,1779,1811,1790,1745,1620,1619,1661,1560,1640,1501,1463,1505,1466,1534,1445,1558,1554,1558,1620,1604,1583,1582,1616,1589,1611,1632,1601,1609,1623,1636,1629,1613,1610,1582,1589,1578,1575,1567,1595,1593,1605,1554,798,804,817,785,894,902,979,1094,1204,1210,1241,1214,1230,1197,1159,1165,1129,1082,1098,1075,1024,1004,985,970,951,958,939,887,868,878,863,842,812,772,803,807,781,799,772,782,793,805,791,800,790,805,783,795,789,784,786,795,798,802,799,800,789,792,800,792,784,784,785,798,789,1098,1086,1089,1125,1187,1299,1495,1618,1618,1682,1641,1639,1641,1577,1555,1506,1529,1491,1469,1461,1398,1405,1439,1398,1346,1311,1287,1248,1238,1212,1190,1187,1138,1107,1115,1155,1151,1135,1124,1123,1142,1161,1133,1153,1133,1146,1135,1151,1164,1156,1146,1159,1162,1176,1161,1166,1150,1162,1169,1166,1166,1167,1152,1182,1177,1954,2006,2226,2255,2502,2741,2929,2992,3046,3038,3059,2986,2908,2866,2897,2956,2639,2631,2731,2610,2572,2549,2423,2377,2405,2396,2289,2140,2105,2133,2023,2045,2042,1936,1986,1949,2001,1906,2343,2362,2348,2368,2382,2374,2375,2391,2382,2394,2442,2393,2389,2382,2407,2413,2432,2432,2432,2415,2450,2400,2415,2419,2482,2420,2398,698,654,655,653,667,720,807,880,958,979,989,972,963,948,934,921,909,896,883,866,873,845,833,833,806,782,780,754,740,726,733,699,690,671,700,656,692,686,674,678,671,675,683,674,678,679,674,674,672,675,676,679,680,684,680,678,679,675,682,693,680,690,675,679,682,885,883,900,870,993,1015,1150,1233,1390,1397,1372,1384,1396,1399,1327,1276,1267,1217,1209,1203,1152,1110,1092,1087,1084,1058,1037,1019,991,971,951,930,899,888,919,890,864,886,886,884,898,932,898,884,902,919,904,891,898,898,902,894,905,902,906,900,893,898,905,912,893,917,899,905,906,810,759,761,760,790,865,966,1067,1145,1176,1240,1160,1144,1126,1108,1091,1074,1056,1039,1128,1099,988,970,952,980,917,900,882,906,888,830,813,831,778,812,764,771,773,767,807,768,767,789,778,776,790,783,798,806,779,784,787,797,804,804,815,793,799,809,792,814,816,833,810,805,0,0,0,0,0,0,0,0,0,0,0,0,0,0,0,0,0,0,0,0,0,0,0,0,0,0,0,0,0,0,0,0,0,0,0,0,0,0,0,0,0,0,0,0,0,0,0,0,0,0,0,0,0,0,0,0,0,0,0,0,0,0,0,0,0,526,527,529,530,534,572,641,709,778,828,831,819,806,794,781,769,756,784,731,719,750,737,681,669,656,644,631,619,606,594,581,591,556,543,552,620,550,551,547,555,547,554,557,560,557,568,554,553,556,554,549,559,560,562,560,559,561,555,565,568,556,567,552,562,560,1139,1137,1156,1152,1306,1374,1560,1692,1793,1786,1769,1769,1767,1744,1679,1642,1660,1594,1589,1540,1485,1469,1413,1435,1389,1386,1331,1305,1273,1273,1220,1237,1157,1171,1171,1148,1148,1171,1199,1179,1197,1213,1199,1196,1223,1205,1203,1204,1222,1205,1210,1223,1230,1200,1226,1220,1198,1215,1204,1198,1185,1215,1207,1220,1193,591,608,596,575,646,589,656,723,789,846,837,866,867,840,808,819,806,753,762,737,717,705,693,681,704,679,644,632,620,622,597,598,621,575,595,586,547,548,552,552,576,641,582,547,570,605,586,560,599,588,565,569,603,596,592,564,571,565,585,586,559,576,569,564,568,955,958,976,986,1043,1115,1244,1412,1454,1473,1483,1453,1480,1443,1427,1397,1364,1313,1348,1298,1229,1228,1183,1173,1136,1158,1142,1067,1063,1099,1031,1025,1003,931,975,967,941,943,961,955,966,1017,990,994,982,960,976,993,996,986,1006,1016,1028,1023,990,985,973,973,967,974,966,975,973,989,962,210,211,212,212,213,221,250,280,309,338,352,347,341,336,330,324,319,313,307,302,296,291,285,279,274,268,263,257,251,246,240,235,229,223,218,214,214,215,198,195,201,204,196,203,198,204,203,198,205,200,200,200,200,204,202,202,198,202,198,200,202,201,200,207,204,1725,1754,1829,1907,2162,2351,2464,2605,2674,2612,2687,2570,2611,2636,2517,2472,2433,2338,2427,2252,2222,2242,2132,2096,2082,2068,2020,1891,1868,1850,1875,1811,1737,1714,1747,1712,1730,1727,1881,1866,1889,1916,1927,1924,1932,1952,1924,1942,1971,1964,2062,2067,2058,2007,2002,1993,1970,1995,2002,1999,1998,2007,2002,2010,2021,1158,1156,1175,1190,1320,1414,1596,1683,1776,1803,1784,1766,1786,1723,1723,1674,1649,1593,1622,1548,1508,1476,1433,1405,1382,1395,1377,1308,1298,1258,1234,1229,1184,1144,1162,1181,1138,1144,1181,1189,1193,1202,1200,1230,1203,1213,1193,1221,1214,1228,1196,1205,1226,1239,1220,1233,1222,1238,1223,1210,1208,1200,1216,1213,1189,1326,1215,1237,1242,1382,1498,1672,1775,1871,1866,1885,1849,1853,1855,1788,1818,1712,1655,1737,1626,1621,1558,1506,1477,1516,1448,1438,1358,1347,1388,1301,1288,1249,1189,1222,1226,1257,1204,1257,1259,1269,1281,1274,1303,1277,1295,1271,1296,1296,1290,1267,1283,1300,1306,1294,1307,1303,1298,1305,1294,1281,1273,1303,1302,1268,1661,1674,1837,1839,2034,2214,2386,2537,2607,2539,2529,2499,2492,2495,2516,2443,2321,2241,2323,2220,2120,2115,2052,2141,2040,1989,1928,1838,1803,1832,1763,1748,1688,1666,1744,1682,1645,1730,1850,1858,1812,1818,1858,1841,1856,1856,1856,1858,1917,1858,1871,1880,1891,1901,1871,1907,1905,1905,1940,1885,1880,1888,1942,1874,1866,526,527,529,530,534,572,641,709,778,828,831,819,806,794,781,769,756,784,731,719,750,737,681,669,656,644,631,619,606,594,581,591,556,543,552,620,550,551,536,548,547,557,557,560,549,567,544,575,555,573,555,559,576,591,571,563,567,563,571,567,565,571,554,562,554,1050,1067,1051,1072,1145,1271,1393,1506,1565,1627,1586,1536,1542,1520,1593,1459,1453,1431,1409,1456,1337,1342,1320,1367,1276,1273,1247,1182,1195,1169,1143,1138,1124,1128,1124,1084,1078,1081,1105,1103,1104,1137,1119,1099,1105,1130,1105,1156,1165,1120,1130,1128,1120,1112,1114,1141,1100,1106,1104,1106,1099,1115,1104,1126,1096,749,698,700,721,717,788,888,974,1040,1061,1080,1049,1047,1039,1025,989,997,992,969,966,914,899,884,868,885,858,823,808,796,777,770,747,775,716,750,705,709,710,707,707,710,732,730,722,722,735,723,726,738,743,798,807,830,772,735,721,731,737,730,720,721,735,720,735,717,742,761,747,749,775,851,982,1074,1157,1197,1216,1198,1181,1163,1125,1128,1093,1073,1142,1032,1064,1023,976,957,967,920,901,913,864,883,891,831,834,770,757,761,772,757,758,760,772,786,770,782,768,789,762,786,774,762,769,774,783,793,784,778,774,766,782,778,774,775,764,783,770,1638,1632,1722,1785,2022,2396,2490,2529,2638,2618,2609,2593,2476,2467,2515,2348,2371,2349,2390,2184,2215,2180,2062,2073,2006,1943,1925,1951,1817,1796,1780,1697,1725,1675,1647,1697,1701,1674,1888,1874,1846,1869,1864,1925,1932,1946,1914,2007,1905,1943,1933,1986,1946,2009,1988,1954,1934,1953,1969,1989,1966,1973,1941,1941,1904,947,935,947,948,985,1073,1211,1370,1470,1464,1501,1436,1451,1453,1368,1345,1322,1298,1434,1272,1231,1241,1186,1193,1177,1118,1110,1116,1122,1017,1014,1018,999,944,931,928,911,926,931,938,925,1032,959,940,945,960,953,943,944,958,960,944,931,940,948,954,946,944,935,943,944,957,968,961,937,855,858,844,867,913,1052,1167,1279,1378,1398,1390,1375,1327,1331,1284,1262,1264,1241,1320,1197,1152,1130,1130,1087,1085,1063,1062,1029,996,973,966,929,935,885,884,868,868,875,873,885,876,892,896,900,888,908,894,896,888,893,884,899,888,900,908,908,901,894,891,905,900,928,900,915,901,344,345,346,347,348,370,418,466,514,558,569,560,551,542,533,524,515,506,497,488,479,470,461,452,443,434,426,417,408,399,390,381,372,363,354,349,350,351,338,332,339,343,333,347,339,342,342,339,355,340,338,340,338,350,342,343,338,341,340,341,346,343,341,361,348,988,969,972,1013,1089,1247,1397,1501,1592,1612,1596,1576,1522,1530,1472,1451,1464,1427,1468,1386,1321,1299,1309,1249,1247,1221,1191,1178,1153,1121,1116,1075,1066,1019,1026,1011,1000,1029,1054,1065,1045,1134,1110,1098,1073,1083,1084,1115,1089,1113,1108,1092,1063,1076,1084,1098,1103,1072,1093,1126,1088,1085,1104,1080,1069,546,548,549,551,533,657,672,795,840,890,926,912,852,839,825,811,797,825,810,756,742,743,753,738,724,672,658,664,678,627,636,636,622,603,549,545,546,534,560,559,556,576,585,579,593,580,571,588,591,579,584,569,563,592,580,578,578,567,564,576,575,582,583,600,569,1513,1528,1488,1571,1738,2041,2191,2314,2352,2322,2405,2313,2243,2207,2261,2186,2133,2115,2151,2036,1952,1954,1923,1980,1799,1735,1806,1754,1676,1630,1594,1545,1539,1489,1518,1546,1537,1493,1577,1617,1581,1585,1611,1596,1596,1608,1606,1611,1628,1608,1613,1624,1629,1633,1642,1648,1639,1640,1654,1647,1658,1671,1679,1665,1665,1173,1142,1145,1180,1319,1528,1785,1988,1977,2059,1940,1978,1914,1888,1850,1769,1735,1712,1716,1669,1599,1565,1546,1578,1582,1448,1403,1360,1344,1300,1363,1232,1218,1215,1150,1158,1163,1210,1245,1256,1238,1262,1297,1291,1269,1268,1279,1312,1275,1307,1304,1296,1257,1276,1276,1296,1299,1262,1300,1345,1303,1302,1307,1283,1280,1006,973,976,1007,1092,1213,1424,1498,1588,1603,1597,1578,1520,1528,1474,1453,1462,1436,1471,1389,1324,1298,1308,1252,1256,1218,1213,1181,1153,1118,1120,1079,1070,1020,1030,1015,1004,1011,1034,1032,1036,1034,1057,1099,1047,1076,1073,1088,1095,1085,1074,1080,1069,1093,1057,1060,1074,1067,1054,1087,1075,1091,1072,1078,1083,1154,1140,1144,1179,1404,1479,1750,1895,1938,1968,1911,1929,1834,1872,1827,1773,1742,1710,1716,1661,1599,1605,1520,1540,1465,1452,1407,1358,1343,1299,1267,1264,1196,1187,1148,1159,1162,1185,1219,1227,1183,1177,1216,1199,1206,1212,1208,1213,1266,1222,1228,1246,1244,1239,1227,1251,1244,1258,1289,1243,1236,1244,1283,1229,1221,1584,1556,1638,1828,1863,2121,2394,2539,2535,2501,2482,2573,2365,2458,2308,2404,2244,2205,2283,2125,2068,2138,2010,2038,1931,1871,1827,1837,1768,1824,1688,1711,1693,1673,1609,1640,1623,1596,1736,1797,1747,1777,1795,1782,1780,1802,1779,1792,1794,1769,1785,1800,1803,1807,1841,1839,1810,1805,1828,1801,1810,1827,1855,1838,1823,899,901,904,913,967,1114,1238,1360,1441,1469,1492,1444,1420,1397,1373,1350,1326,1303,1380,1256,1232,1214,1185,1162,1138,1115,1113,1098,1044,1021,1012,974,969,929,932,912,929,936,924,925,928,930,925,931,931,935,931,936,937,935,937,938,942,946,946,950,942,944,947,948,944,955,940,952,950,675,677,678,680,694,747,828,959,1018,1050,1039,1024,1055,994,978,963,948,933,918,903,897,882,866,843,828,813,798,794,771,756,742,727,713,699,687,683,705,686,689,674,678,678,675,694,679,687,685,693,710,693,683,693,690,710,700,700,687,694,693,699,706,699,701,731,702,1920,1952,2071,2394,2649,2889,3144,3224,3319,3232,3182,3259,3066,3121,3014,3064,2906,2873,2906,2776,2716,2617,2597,2550,2524,2373,2359,2297,2177,2118,2061,1966,1945,1980,1958,1976,1985,2002,2330,2349,2353,2374,2409,2435,2400,2430,2427,2454,2469,2476,2490,2530,2498,2527,2513,2542,2576,2567,2606,2574,2593,2641,2629,2618,2584,696,699,702,704,723,791,894,992,1073,1116,1121,1105,1091,1091,1056,1039,1028,1011,1082,974,951,941,925,899,881,864,847,874,812,795,792,760,743,725,712,708,723,711,728,733,726,812,767,755,732,740,748,767,753,759,766,748,729,730,741,762,753,738,755,763,743,730,759,731,725,981,986,989,1032,1068,1234,1369,1486,1617,1598,1620,1601,1546,1517,1495,1474,1498,1415,1489,1367,1342,1320,1288,1269,1267,1212,1211,1197,1136,1112,1099,1061,1084,1012,1011,998,1018,1022,1035,1034,1031,1047,1057,1040,1057,1061,1051,1047,1062,1060,1136,1136,1145,1100,1060,1054,1054,1058,1047,1053,1057,1051,1050,1069,1046,803,862,808,811,849,940,1064,1188,1274,1311,1312,1291,1270,1249,1228,1207,1186,1166,1235,1124,1103,1082,1061,1040,1019,999,978,1033,936,915,894,935,890,832,818,815,857,819,840,836,838,867,859,837,845,862,841,909,970,861,864,862,855,851,846,870,838,837,835,833,835,841,835,855,825,465,466,468,503,473,508,576,696,765,886,817,805,792,780,767,755,742,729,717,663,737,679,673,654,700,629,616,604,551,539,526,550,502,489,477,506,473,475,473,471,479,494,483,469,490,490,484,480,484,485,487,483,488,487,504,491,486,480,493,492,480,492,483,487,492,0,0,0,0,0,0,0,0,0,0,0,0,0,0,0,0,0,0,0,0,0,0,0,0,0,0,0,0,0,0,0,0,0,0,0,0,0,0,0,0,0,0,0,0,0,0,0,0,0,0,0,0,0,0,0,0,0,0,0,0,0,0,0,0,0,1235,1241,1247,1348,1403,1626,1828,1900,2021,1994,2015,2025,1959,1923,1918,1939,1836,1798,1843,1703,1673,1674,1603,1579,1543,1539,1501,1478,1417,1445,1367,1322,1343,1268,1269,1278,1275,1289,1357,1359,1349,1374,1404,1399,1381,1380,1390,1425,1387,1424,1432,1412,1371,1395,1388,1404,1410,1378,1425,1478,1436,1437,1443,1402,1399,666,668,670,673,685,742,841,940,1028,1091,1103,1105,1068,1050,1051,1015,997,980,962,945,927,926,892,874,856,839,821,804,786,768,751,733,715,698,683,676,678,680,664,677,669,702,664,691,674,695,684,691,686,675,690,680,692,691,689,689,697,691,701,687,690,700,692,703,706,1068,1100,1095,1121,1159,1302,1469,1622,1685,1717,1707,1706,1634,1651,1597,1571,1559,1531,1584,1463,1435,1445,1417,1389,1361,1300,1280,1320,1255,1191,1197,1155,1110,1105,1107,1090,1131,1078,1118,1121,1169,1426,1174,1106,1160,1257,1190,1129,1228,1202,1151,1156,1234,1212,1200,1116,1138,1141,1182,1189,1119,1174,1142,1144,1151,677,738,740,742,693,761,932,1118,1117,1220,1158,1140,1122,1150,1074,1111,1119,1032,1069,955,1038,1033,1016,998,970,917,870,852,794,777,821,802,740,705,750,761,746,691,708,712,728,741,725,738,716,737,720,746,730,720,728,730,741,755,739,733,740,729,738,740,737,745,723,733,726,1726,1734,1748,1881,2097,2415,2594,2724,2875,2933,2795,2763,2722,2650,2609,2610,2461,2425,2456,2331,2274,2228,2197,2141,2156,2108,2033,2079,1924,1894,1846,1786,1737,1757,1698,1743,1722,1762,1976,1973,1949,1975,1978,2016,1981,2010,2023,2093,2003,2029,2029,2027,2004,2047,2030,2015,2004,1998,1993,2031,2017,2044,2016,2023,1979,1034,1022,1039,1060,1152,1283,1537,1682,1775,1778,1783,1734,1726,1681,1619,1618,1567,1566,1547,1503,1435,1408,1390,1367,1311,1324,1266,1241,1229,1187,1125,1129,1078,1057,1049,1052,1036,1047,1075,1080,1070,1077,1057,1075,1074,1075,1098,1153,1084,1093,1099,1093,1088,1120,1118,1089,1078,1077,1092,1103,1084,1097,1098,1097,1089,1312,1316,1349,1414,1510,1704,2011,2115,2148,2106,2105,2194,2020,2084,2117,2190,1903,1869,1928,1802,1768,1757,1723,1689,1654,1600,1561,1562,1499,1466,1446,1456,1368,1393,1334,1390,1368,1340,1392,1376,1381,1387,1410,1429,1406,1412,1415,1438,1444,1420,1437,1418,1419,1448,1460,1427,1444,1447,1440,1467,1457,1457,1479,1503,1484,1784,1642,1697,1811,2017,2395,2509,2661,2768,2809,2772,2736,2654,2592,2580,2554,2405,2370,2535,2307,2222,2176,2166,2085,2196,2053,2000,1997,1899,1904,1797,1766,1694,1712,1648,1658,1691,1753,1866,1914,1874,1888,1902,1900,1904,1910,1904,1905,1919,1896,1916,1902,1918,1928,1928,1940,1932,1930,1961,1904,1928,1932,1952,1935,1917,0,0,0,0,0,0,0,0,0,0,0,0,0,0,0,0,0,0,0,0,0,0,0,0,0,0,0,0,0,0,0,0,0,0,0,0,0,0,0,0,0,0,0,0,0,0,0,0,0,0,0,0,0,0,0,0,0,0,0,0,0,0,0,0,0,631,633,625,627,640,703,797,902,978,1042,1037,1009,992,976,959,943,927,929,894,878,861,845,828,823,813,779,763,747,741,714,697,681,665,648,635,631,632,634,625,630,626,639,633,634,636,647,634,670,637,633,642,639,639,640,644,641,651,644,638,630,639,647,644,647,647,742,761,747,749,775,851,982,1074,1157,1197,1216,1198,1181,1163,1125,1128,1093,1073,1142,1032,1064,1023,976,957,967,920,901,913,864,883,891,831,834,770,757,761,772,757,758,760,772,786,770,782,768,789,762,786,774,762,769,774,783,793,784,778,774,766,782,778,774,775,764,783,770,547,548,550,552,559,625,687,764,840,883,889,908,912,878,882,820,834,837,759,745,732,718,705,691,678,664,651,637,624,611,612,599,599,584,601,555,556,558,552,559,563,577,586,587,565,594,561,607,578,590,578,572,591,608,586,576,591,578,582,588,583,594,569,576,568,625,640,629,631,645,679,747,842,945,1031,983,978,962,963,906,879,898,882,849,829,835,803,782,757,771,749,739,709,707,674,668,634,637,628,602,586,637,651,609,616,645,791,645,601,629,692,656,611,728,700,624,646,731,713,715,606,634,632,670,652,614,642,629,617,622,632,619,621,640,637,679,812,870,946,982,1063,975,959,943,939,910,899,891,899,882,854,846,818,805,808,772,753,740,725,710,717,676,646,627,613,643,628,630,629,623,634,633,616,645,630,641,634,639,662,636,629,626,638,638,641,645,655,640,656,648,633,631,634,646,619,473,474,476,477,481,540,611,683,755,797,792,779,766,758,756,743,730,717,652,640,660,647,635,622,580,568,611,544,571,521,545,537,499,497,481,480,481,498,484,483,485,487,488,491,488,496,490,495,483,493,485,503,496,494,488,500,492,494,494,503,494,495,481,492,486,1218,1184,1232,1262,1377,1593,1789,1962,2075,2012,2124,1930,1896,1846,1845,1791,1757,1753,1784,1715,1718,1652,1586,1654,1540,1466,1447,1395,1400,1345,1371,1272,1202,1212,1214,1220,1232,1244,1261,1268,1269,1280,1279,1289,1289,1295,1282,1315,1288,1279,1289,1284,1291,1303,1302,1307,1304,1298,1295,1284,1292,1297,1298,1304,1294,296,297,298,299,300,317,359,402,444,484,590,488,480,472,464,445,448,440,433,425,417,409,401,393,385,377,369,361,353,345,337,329,313,313,355,301,302,303,295,285,288,292,285,293,291,300,300,291,299,288,292,289,289,295,293,293,287,294,288,291,294,291,291,304,299,1252,1195,1233,1299,1417,1637,1834,2021,2086,2055,2140,1973,1938,1913,1887,1891,1853,1808,1835,1754,1706,1695,1624,1613,1574,1510,1476,1452,1444,1394,1369,1307,1236,1254,1198,1255,1278,1231,1319,1305,1313,1312,1315,1311,1388,1387,1311,1355,1340,1319,1315,1376,1382,1399,1384,1392,1388,1409,1407,1376,1356,1351,1319,1319,1321,450,452,453,455,457,447,506,624,624,739,778,670,659,649,638,687,616,605,594,584,573,562,551,540,529,518,508,497,486,475,509,497,443,432,421,476,458,460,448,455,440,455,449,444,465,463,452,464,450,446,444,440,454,447,453,453,444,462,470,450,450,454,448,446,442,609,548,550,614,559,627,704,816,861,906,911,880,883,854,855,841,827,813,821,785,771,757,731,729,694,725,673,651,655,645,652,593,651,562,555,555,556,578,567,572,571,580,579,584,571,584,573,575,577,580,591,615,606,594,579,595,588,585,583,591,583,594,567,584,576,302,303,303,304,305,337,364,406,448,510,513,513,505,497,522,472,504,495,428,420,413,405,397,390,382,374,390,382,373,365,357,349,326,327,311,306,307,308,307,295,299,300,297,305,302,309,307,302,309,301,302,301,302,307,304,305,302,304,303,301,304,305,305,311,308,327,328,329,330,331,416,399,446,493,536,547,538,529,608,512,503,550,485,477,520,459,450,442,433,424,415,407,398,389,380,413,363,354,403,337,332,333,334,327,330,330,333,383,360,349,353,342,386,349,342,360,353,340,355,346,337,368,339,338,362,354,381,360,351,347,441,443,444,445,448,484,548,612,677,725,733,721,710,698,686,659,648,665,639,628,616,604,579,581,569,558,546,534,522,511,499,487,476,464,452,448,459,450,445,448,449,450,447,449,450,449,447,450,453,452,450,448,448,452,452,452,448,454,454,456,453,456,456,453,450,405,406,395,409,411,421,479,532,586,630,645,663,624,668,604,590,609,573,541,531,522,512,503,493,484,473,485,455,446,436,438,432,437,426,415,411,412,400,399,396,394,396,394,400,399,400,400,396,401,395,396,396,397,399,400,402,399,399,401,403,396,410,399,407,402,1504,1468,1564,1658,1837,2098,2307,2440,2594,2641,2531,2429,2403,2289,2348,2249,2204,2189,2139,2097,2033,2045,1940,1957,1923,1835,1762,1748,1716,1671,1639,1565,1490,1521,1530,1513,1541,1512,1581,1624,1590,1593,1625,1608,1612,1623,1621,1624,1641,1617,1626,1635,1639,1644,1652,1652,1657,1652,1665,1656,1670,1685,1700,1680,1680,952,951,966,915,1031,1091,1225,1381,1516,1452,1471,1429,1406,1404,1382,1421,1350,1290,1282,1279,1255,1260,1174,1182,1159,1174,1052,1114,1103,1078,975,1004,916,946,953,940,981,968,960,980,959,982,983,963,1022,971,975,993,1016,999,955,976,1016,1009,1030,968,977,1003,1046,971,974,982,983,962,957,657,655,657,641,678,662,744,826,934,977,1000,1001,982,971,897,922,868,853,819,856,791,776,762,748,734,720,767,691,677,663,695,650,713,639,607,666,664,607,609,611,622,637,625,628,619,631,619,644,625,622,638,640,660,669,648,638,638,642,640,636,645,662,637,646,633,346,347,348,349,350,407,454,471,560,565,563,566,557,548,539,518,520,511,502,493,484,475,465,456,447,438,429,420,410,401,392,383,366,390,348,351,352,353,332,333,333,334,335,335,337,338,338,339,340,340,341,341,342,343,343,345,346,346,347,348,348,349,350,350,351,754,745,725,744,752,819,973,1047,1123,1159,1216,1145,1128,1101,1091,1071,1049,1037,1033,1014,1001,991,960,934,965,912,878,869,858,833,838,803,771,739,719,754,756,758,729,737,743,754,751,758,739,756,738,778,753,770,754,755,778,800,771,763,775,767,769,770,775,784,755,763,756,1101,1061,1081,1109,1204,1361,1565,1575,1686,1697,1696,1719,1662,1661,1558,1575,1590,1512,1441,1505,1461,1363,1338,1402,1302,1330,1264,1266,1246,1152,1150,1142,1125,1106,1095,1094,1085,1099,1106,1151,1107,1122,1128,1118,1124,1136,1130,1133,1147,1123,1138,1129,1137,1138,1144,1149,1151,1147,1174,1121,1149,1156,1172,1147,1144,1237,1240,1248,1339,1404,1597,1814,1911,1975,2003,1988,1989,1984,1928,1923,1888,1845,1840,1729,1675,1644,1642,1612,1578,1558,1490,1519,1428,1398,1437,1374,1348,1361,1282,1275,1254,1258,1261,1329,1335,1285,1296,1328,1317,1319,1330,1323,1333,1383,1329,1341,1351,1355,1356,1330,1358,1371,1369,1404,1352,1344,1353,1404,1334,1335,0,0,0,0,0,0,0,0,0,0,0,0,0,0,0,0,0,0,0,0,0,0,0,0,0,0,0,0,0,0,0,0,0,0,0,0,0,0,0,0,0,0,0,0,0,0,0,0,0,0,0,0,0,0,0,0,0,0,0,0,0,0,0,0,0,657,662,702,666,685,792,855,945,1095,1130,1084,1113,1049,1074,1006,989,979,1018,907,890,907,931,913,895,875,790,841,757,806,724,770,750,696,687,701,663,672,668,667,663,672,666,671,670,694,689,683,697,717,678,680,689,698,709,683,694,680,682,692,686,683,692,680,736,687,464,450,451,475,455,470,582,602,655,696,771,706,682,672,661,652,639,627,656,644,618,618,596,589,576,562,561,539,525,515,530,494,469,454,439,466,456,458,453,456,453,462,457,449,471,458,457,461,465,461,449,454,465,464,464,454,453,468,494,454,452,460,457,450,449,1101,1054,1104,1134,1221,1376,1459,1667,1758,1755,1726,1731,1671,1696,1608,1596,1570,1520,1534,1430,1409,1432,1435,1412,1359,1325,1268,1271,1283,1178,1174,1174,1155,1129,1067,1066,1135,1072,1114,1131,1120,1147,1146,1136,1150,1167,1129,1157,1135,1128,1151,1150,1149,1149,1185,1159,1153,1141,1153,1137,1134,1151,1154,1161,1154,695,727,694,731,718,800,899,1062,1138,1191,1136,1161,1153,1081,1115,1096,1077,1058,1046,1002,1001,943,962,943,931,863,845,827,854,821,778,754,813,723,704,735,737,704,723,726,730,738,746,731,737,733,733,739,749,748,760,768,762,753,736,737,746,743,738,737,747,739,738,740,740,606,595,597,595,609,682,736,850,893,973,977,935,948,918,891,903,888,846,853,844,820,814,788,784,756,739,726,703,706,701,681,642,631,609,602,602,597,605,622,602,600,605,610,613,668,657,615,640,628,608,615,656,661,667,656,675,662,677,657,640,639,624,610,606,599,176,177,177,178,178,184,208,232,256,280,294,290,285,280,276,271,266,262,257,252,248,243,238,234,229,224,220,215,210,206,201,196,192,187,182,179,179,180,167,165,166,167,167,167,169,167,167,169,167,167,169,172,171,169,174,170,171,170,171,169,170,171,169,172,169,629,605,634,634,648,683,805,898,983,1028,1031,1016,965,1069,965,949,933,885,869,962,837,854,836,790,774,786,770,753,710,721,705,689,713,656,642,638,640,642,634,617,619,618,636,629,631,626,629,634,655,645,652,647,652,652,649,646,648,662,671,662,651,651,678,662,663,1237,1240,1248,1339,1404,1597,1814,1911,1975,2003,1988,1989,1984,1928,1923,1888,1845,1840,1729,1675,1644,1642,1612,1578,1558,1490,1519,1428,1398,1437,1374,1348,1361,1282,1275,1254,1258,1261,1322,1307,1296,1310,1363,1414,1333,1336,1346,1368,1346,1372,1387,1367,1346,1374,1374,1359,1376,1355,1376,1460,1432,1451,1460,1388,1388,1581,1575,1646,1801,2094,2315,2523,2617,2644,2670,2686,2656,2550,2506,2524,2410,2364,2313,2308,2276,2179,2149,2067,2055,1991,1958,1898,1851,1803,1754,1712,1665,1662,1745,1611,1616,1624,1631,1767,1822,1769,1799,1794,1779,1802,1822,1805,1813,1817,1792,1801,1794,1812,1811,1824,1834,1819,1827,1859,1799,1830,1839,1846,1818,1811,547,548,550,552,559,625,687,764,840,883,889,908,912,878,882,820,834,837,759,745,732,718,705,691,678,664,651,637,624,611,612,599,599,584,601,555,556,558,552,559,563,577,586,587,565,594,561,607,578,590,578,572,591,608,586,576,591,578,582,588,583,594,569,576,568,471,472,482,474,487,529,589,660,727,774,760,774,756,715,731,720,706,694,681,669,655,644,632,619,607,593,580,569,557,544,531,519,515,494,483,478,480,481,469,473,478,478,480,469,476,481,479,488,492,471,488,471,484,477,488,487,480,483,481,484,484,479,471,495,473,1124,1009,1031,1065,1130,1310,1396,1580,1613,1650,1654,1730,1693,1587,1527,1539,1535,1549,1455,1479,1495,1346,1319,1319,1350,1241,1242,1220,1198,1261,1137,1102,1088,1065,1064,1066,1059,1070,1116,1078,1087,1084,1118,1158,1110,1120,1120,1127,1183,1134,1138,1151,1147,1161,1106,1118,1134,1152,1150,1151,1122,1135,1151,1122,1122,598,653,577,580,588,646,721,806,888,932,936,933,906,905,876,861,846,831,816,801,786,771,756,741,726,711,696,681,666,651,636,621,614,591,578,574,576,577,564,571,568,571,562,564,569,575,573,661,571,568,572,573,590,569,578,575,572,580,572,573,580,580,572,582,579,325,326,327,328,329,349,395,442,488,531,559,533,525,516,507,499,490,481,473,464,456,447,438,415,421,412,404,395,386,378,357,361,352,343,335,330,331,332,319,312,319,319,318,331,320,326,325,320,333,325,323,324,325,337,328,330,320,327,324,325,332,328,327,343,337,865,868,871,877,917,1005,1138,1267,1352,1404,1415,1392,1422,1347,1325,1352,1280,1257,1235,1212,1190,1167,1145,1123,1168,1078,1055,1033,1010,988,965,943,920,899,884,878,881,883,898,904,890,899,881,901,892,896,921,967,901,915,919,915,909,937,937,908,898,896,908,920,906,915,920,915,905,391,360,362,363,388,389,473,493,545,590,600,590,580,609,561,599,542,532,523,513,504,494,484,475,465,456,446,436,427,417,408,398,388,379,369,365,366,367,374,346,348,348,356,360,351,361,351,351,356,360,355,358,363,368,369,370,358,364,363,364,368,369,371,371,372,1089,1095,1075,1088,1195,1298,1493,1599,1679,1725,1759,1697,1730,1645,1677,1590,1592,1536,1537,1489,1492,1429,1428,1409,1335,1342,1295,1286,1242,1239,1172,1185,1139,1126,1085,1084,1102,1113,1113,1124,1115,1133,1130,1146,1133,1144,1137,1146,1134,1139,1133,1128,1121,1123,1135,1141,1126,1128,1122,1126,1127,1142,1142,1142,1120,900,825,854,870,901,1045,1207,1268,1425,1465,1403,1458,1358,1414,1357,1284,1277,1304,1214,1243,1251,1156,1173,1058,1130,1104,1033,1010,993,1011,944,983,915,887,864,880,872,882,898,885,888,883,917,955,902,920,917,946,935,954,947,950,927,954,923,921,932,919,928,984,958,975,954,950,962,822,822,809,872,879,935,1098,1198,1283,1392,1317,1295,1275,1254,1228,1279,1190,1197,1190,1127,1106,1121,1060,1039,1012,1024,997,959,937,916,892,874,850,840,816,871,818,854,824,821,828,847,830,850,831,850,853,838,852,835,835,839,832,835,836,840,841,847,833,831,840,853,845,856,841,363,364,366,367,368,393,440,495,547,592,601,592,582,573,563,554,544,535,525,516,506,493,487,478,468,459,449,440,430,421,411,402,392,383,373,369,370,371,377,364,360,368,363,369,427,423,377,395,378,363,358,406,410,423,423,422,414,422,418,401,393,378,366,365,361,655,644,632,633,674,714,806,906,990,1082,1036,1018,1003,1032,1010,952,983,965,902,885,910,903,872,857,803,786,769,753,738,754,734,687,699,669,668,681,638,640,678,642,645,652,659,652,668,663,668,675,669,720,798,718,677,748,695,666,667,692,799,862,859,882,884,771,758,1033,1021,991,1030,1101,1256,1331,1568,1577,1642,1579,1576,1547,1573,1499,1453,1492,1403,1439,1427,1345,1374,1315,1316,1276,1269,1226,1209,1164,1115,1124,1049,1076,1060,1030,1038,1003,1006,1050,1043,1044,1065,1046,1044,1059,1069,1058,1077,1081,1059,1050,1052,1068,1055,1065,1078,1062,1081,1088,1063,1072,1067,1069,1055,1044,368,369,370,376,373,399,453,506,559,605,614,605,595,585,575,565,555,546,536,526,516,506,496,486,517,467,462,447,437,427,418,408,398,388,378,374,375,376,368,365,381,373,368,389,374,389,391,381,409,384,388,387,386,394,380,381,378,389,377,376,380,380,374,387,395,1197,1186,1190,1237,1309,1611,1716,1759,1870,1858,1921,1883,1807,1780,1752,1724,1696,1662,1633,1613,1586,1558,1530,1504,1485,1447,1419,1402,1364,1502,1302,1281,1250,1218,1204,1209,1202,1205,1282,1262,1273,1267,1267,1266,1342,1338,1272,1309,1296,1274,1273,1334,1338,1352,1338,1350,1340,1365,1359,1333,1309,1305,1276,1273,1280,1534,1525,1557,1558,1734,2038,2188,2322,2328,2379,2329,2344,2316,2327,2181,2191,2208,2089,2091,2103,1969,2020,1955,1935,1899,1803,1764,1796,1693,1667,1665,1532,1511,1541,1554,1565,1502,1535,1647,1636,1629,1649,1648,1689,1654,1660,1679,1671,1673,1669,1688,1683,1683,1682,1667,1681,1665,1679,1660,1677,1683,1693,1678,1682,1659,417,410,409,421,422,447,491,532,605,643,660,643,633,618,621,599,602,592,582,561,563,542,544,534,524,514,495,475,485,484,466,484,478,426,408,414,424,416,415,409,424,419,412,427,412,425,434,418,435,419,423,426,424,434,423,422,417,435,419,427,426,426,422,434,448,376,378,378,380,381,408,462,516,570,616,626,616,606,595,586,575,566,555,545,536,525,516,506,496,486,476,466,456,446,436,426,418,407,397,387,382,383,386,383,376,377,378,392,384,383,388,377,394,384,378,387,386,384,389,393,389,388,388,386,394,386,388,388,392,391,668,654,652,684,701,767,880,921,1063,1110,1052,1047,1061,1002,985,985,1012,978,918,917,885,906,851,835,869,846,808,812,751,734,718,740,720,695,654,650,688,654,648,693,649,648,657,649,655,661,666,683,685,656,657,666,676,669,667,680,670,672,689,659,682,684,698,667,666,520,535,536,534,599,611,678,765,812,843,849,834,851,811,827,795,770,770,758,763,734,722,709,683,671,673,661,620,636,624,622,613,588,556,531,527,588,530,544,544,545,554,554,552,554,552,552,555,564,563,613,611,617,567,557,556,560,553,554,562,554,554,553,560,552,667,669,671,673,684,739,836,932,1020,1078,1095,1078,1060,1043,1026,1009,991,974,957,940,922,905,888,871,853,836,819,802,784,767,750,732,715,698,683,677,679,680,683,677,682,680,680,677,682,687,685,686,677,684,687,697,693,693,689,692,687,687,687,702,692,697,683,686,690,629,656,638,660,650,714,812,904,995,1037,1075,1056,1009,1048,969,954,933,921,910,921,907,853,837,822,835,788,773,754,743,723,705,694,680,656,642,638,640,649,631,633,630,647,637,645,637,646,646,639,637,641,638,638,634,631,639,641,640,642,633,638,641,653,648,652,641,0,0,0,0,0,0,0,0,0,0,0,0,0,0,0,0,0,0,0,0,0,0,0,0,0,0,0,0,0,0,0,0,0,0,0,0,0,0,0,0,0,0,0,0,0,0,0,0,0,0,0,0,0,0,0,0,0,0,0,0,0,0,0,0,0,543,544,592,548,554,605,684,763,841,886,891,877,879,865,835,836,807,808,845,779,765,751,736,708,694,680,666,652,638,637,622,643,582,568,555,551,552,554,559,564,557,588,575,563,570,578,565,588,588,576,575,568,561,565,569,576,563,562,559,560,557,561,565,565,548,550,552,548,550,599,598,693,703,802,846,875,843,842,877,774,829,773,731,719,742,696,685,674,662,704,685,628,616,605,652,613,597,559,548,537,525,554,556,537,538,538,538,541,538,547,541,550,547,541,545,545,548,548,546,548,561,547,553,546,548,562,554,546,545,540,1230,1266,1230,1312,1414,1556,1801,2009,2002,2026,1964,2013,1901,1920,1888,1797,1823,1787,1754,1738,1650,1672,1627,1581,1523,1492,1500,1445,1429,1437,1345,1339,1288,1267,1239,1296,1286,1243,1298,1322,1329,1299,1340,1319,1306,1350,1336,1338,1343,1348,1349,1372,1369,1387,1341,1345,1356,1348,1341,1359,1356,1353,1348,1352,1348,739,742,763,743,791,857,992,1093,1196,1194,1233,1214,1194,1174,1155,1114,1115,1067,1076,1057,1002,999,998,978,964,939,902,876,846,866,831,821,787,782,768,765,767,774,760,767,762,774,839,818,808,828,784,861,820,846,809,784,793,822,800,791,836,807,789,816,805,846,815,828,797,762,763,740,742,790,909,962,1109,1169,1208,1207,1188,1168,1188,1130,1111,1126,1072,1096,1091,1014,1016,997,991,972,950,934,898,884,841,850,802,817,781,776,764,749,751,763,770,766,783,784,783,808,807,792,787,806,810,873,836,840,840,787,790,799,792,795,794,789,795,789,836,795,1181,1195,1192,1258,1323,1547,1697,1877,1876,1948,1889,1873,1829,1799,1768,1721,1707,1678,1646,1628,1742,1567,1560,1495,1465,1436,1495,1374,1382,1302,1332,1283,1224,1255,1190,1214,1204,1313,1254,1279,1283,1256,1295,1273,1261,1312,1291,1295,1298,1303,1306,1329,1318,1326,1298,1303,1307,1305,1297,1313,1310,1307,1318,1307,1304,667,669,671,673,684,739,836,932,1020,1078,1095,1078,1060,1043,1026,1009,991,974,957,940,922,905,888,871,853,836,819,802,784,767,750,732,715,698,683,677,679,680,698,671,676,679,679,690,689,695,687,687,693,682,677,680,678,686,685,683,685,682,683,680,679,689,677,691,685,1163,1167,1171,1209,1271,1418,1628,1740,1816,1939,1862,1910,1794,1773,1735,1786,1755,1673,1642,1587,1683,1552,1498,1538,1445,1432,1417,1425,1384,1399,1271,1231,1237,1180,1186,1161,1179,1173,1229,1220,1235,1294,1256,1267,1254,1238,1248,1260,1257,1241,1248,1277,1309,1302,1275,1257,1238,1256,1241,1235,1231,1265,1248,1273,1234,471,472,482,474,487,529,589,660,727,774,760,774,756,715,731,720,706,694,681,669,655,644,632,619,607,593,580,569,557,544,531,519,515,494,483,478,480,481,469,473,478,478,480,469,476,481,479,488,492,471,488,471,484,477,488,487,480,483,481,484,484,479,471,495,473,370,371,372,373,374,400,492,506,559,605,616,606,596,586,576,566,557,547,579,527,558,508,498,488,478,468,459,449,439,429,419,442,431,390,380,376,377,378,372,383,392,374,373,383,386,384,384,378,383,379,378,376,386,395,386,386,401,381,385,383,388,386,383,389,380,970,925,982,1004,1039,1133,1378,1491,1575,1509,1559,1538,1536,1488,1479,1384,1384,1359,1407,1378,1237,1239,1262,1237,1188,1140,1210,1122,1071,1104,1062,1054,1023,952,960,973,1006,941,981,992,982,978,985,1016,993,1006,1003,1030,1020,1040,1047,1029,1017,1035,1052,1014,1020,1031,1096,1089,1053,1047,1060,1077,1054,294,295,295,296,297,314,355,397,439,479,492,484,476,468,460,452,445,437,429,421,413,405,397,389,382,374,366,358,350,342,334,326,319,311,303,298,299,300,289,293,289,308,319,308,304,299,299,295,315,318,315,335,332,305,302,315,318,302,285,337,302,303,301,324,300,481,485,484,494,499,476,538,670,663,710,797,707,696,684,743,730,718,705,695,683,605,593,582,642,629,608,596,525,567,502,491,480,468,485,446,488,492,490,458,455,461,467,462,460,461,471,464,467,463,467,485,495,501,483,469,468,464,472,467,465,465,472,462,470,463,746,748,750,781,785,950,1055,1255,1419,1355,1349,1324,1289,1275,1250,1250,1200,1175,1198,1126,1101,1076,1051,1051,1001,976,952,927,902,877,852,827,802,778,760,758,763,767,769,772,785,845,787,768,792,812,795,782,832,809,778,797,830,839,845,800,791,802,825,795,783,809,785,783,777,427,436,437,425,427,468,553,593,656,703,709,700,689,677,666,655,643,653,631,609,598,596,606,574,562,541,529,526,506,504,484,472,461,449,437,434,429,436,427,432,433,445,440,445,437,441,437,434,441,437,448,467,460,452,444,448,448,462,462,441,447,457,440,447,442,784,782,784,773,822,979,1098,1300,1448,1400,1393,1368,1332,1317,1292,1331,1302,1216,1245,1217,1140,1124,1096,1065,1040,1045,989,957,960,931,888,886,857,812,794,809,797,802,831,799,810,831,815,818,812,821,818,824,824,813,825,858,876,859,855,828,809,837,820,812,806,839,821,843,814,772,776,805,808,826,956,1062,1159,1274,1285,1267,1263,1242,1222,1226,1205,1131,1111,1119,1125,1079,1079,1038,1017,1007,996,975,935,933,894,861,870,821,829,799,812,822,800,820,814,828,835,829,829,827,828,825,848,847,836,840,838,830,844,836,841,820,835,821,833,828,821,822,833,843,283,283,284,285,286,301,341,381,421,461,473,466,458,451,515,506,497,489,413,405,398,390,382,375,392,384,376,345,337,329,344,336,307,299,291,287,288,288,284,277,273,273,285,288,282,287,287,291,291,294,293,295,292,296,288,291,302,294,299,312,294,299,302,297,295,367,368,369,370,371,396,448,499,551,597,607,597,587,578,568,559,549,540,557,547,537,526,516,517,482,463,476,444,434,433,415,405,416,386,377,372,373,374,364,368,370,377,387,383,385,384,373,384,383,388,387,395,389,395,378,374,387,378,380,381,383,385,374,377,376,207,207,208,209,209,217,247,276,305,334,348,342,336,331,325,320,314,309,303,297,292,286,281,275,270,264,258,253,247,242,236,231,225,219,214,210,211,211,198,201,197,204,203,207,201,204,200,200,202,202,197,202,203,204,202,205,204,204,208,207,203,211,198,204,201,726,728,716,719,743,840,983,1041,1226,1193,1230,1207,1191,1150,1116,1097,1058,1039,1073,1013,975,983,1011,957,926,907,888,965,834,857,851,815,773,740,762,737,739,727,747,745,746,753,740,746,760,789,749,767,766,746,746,760,802,807,789,752,764,763,778,778,759,767,752,760,752,311,340,341,342,343,332,376,460,463,504,545,508,500,492,527,518,509,500,481,473,434,426,418,447,433,429,420,377,402,361,353,344,336,328,320,344,345,346,318,315,325,356,330,314,328,341,328,320,325,325,326,324,328,327,331,326,320,322,328,330,319,327,324,323,325,1031,1034,1011,1071,1144,1344,1583,1816,1897,1894,1878,1804,1807,1772,1736,1690,1665,1701,1560,1577,1523,1488,1452,1417,1418,1367,1310,1295,1239,1211,1201,1107,1097,1066,1023,1067,1030,1080,1075,1067,1093,1106,1095,1112,1091,1113,1118,1111,1146,1106,1112,1147,1166,1162,1134,1112,1105,1124,1107,1099,1096,1122,1097,1130,1107,1151,1172,1169,1217,1333,1484,1662,1881,1871,1872,1969,1857,1876,1797,1755,1725,1686,1717,1646,1701,1642,1576,1536,1583,1517,1425,1395,1374,1342,1361,1319,1253,1215,1201,1223,1185,1172,1228,1238,1237,1230,1245,1235,1269,1237,1249,1269,1335,1250,1281,1288,1285,1277,1312,1303,1261,1257,1261,1282,1302,1296,1314,1297,1304,1279,489,491,492,493,496,532,597,693,689,735,746,736,755,717,765,753,742,730,689,677,665,653,672,630,618,606,585,583,571,558,546,559,547,512,500,496,497,490,481,480,491,510,483,483,481,484,486,483,484,487,484,487,485,486,488,492,491,491,490,492,494,516,514,517,515,445,453,455,443,445,488,592,617,682,765,735,725,714,702,690,679,667,693,654,632,620,618,645,595,583,561,549,546,526,523,502,491,479,467,454,451,446,454,447,448,449,462,455,454,455,476,455,460,462,475,498,500,503,492,456,453,463,470,463,460,462,465,458,458,457,405,406,407,408,410,448,487,557,613,657,670,659,649,638,627,617,607,597,585,566,553,556,546,532,526,516,493,489,469,476,449,438,436,435,415,421,412,413,406,407,410,425,416,410,418,430,414,414,422,426,461,457,460,439,411,412,420,430,425,416,423,429,423,422,422,927,883,914,914,1012,1055,1234,1318,1515,1487,1471,1460,1399,1399,1386,1354,1332,1281,1380,1348,1282,1188,1238,1192,1123,1140,1071,1084,1017,1050,998,1011,982,937,913,921,895,968,917,912,929,946,915,936,919,924,923,929,947,937,930,937,939,950,939,948,929,944,944,946,948,950,936,963,962,989,992,994,1009,1078,1238,1436,1601,1718,1734,1722,1692,1654,1631,1600,1605,1553,1515,1484,1447,1417,1399,1360,1328,1295,1264,1234,1201,1173,1142,1114,1081,1050,1025,1006,1005,1032,1015,1032,1024,1036,1075,1044,1021,1030,1054,1039,1097,1156,1049,1059,1058,1047,1042,1042,1068,1032,1044,1031,1039,1036,1068,1062,1082,1061,496,498,454,455,504,492,554,615,730,815,785,772,760,748,756,744,731,719,688,631,654,677,664,627,575,563,552,579,586,573,535,547,532,519,508,458,459,506,496,485,485,486,493,501,487,494,493,490,493,491,494,495,496,506,508,501,494,500,499,507,504,514,515,523,516,661,726,665,668,687,757,912,959,1046,1087,1089,1135,1054,1037,1094,1056,984,967,950,932,915,897,880,873,855,874,810,793,776,767,741,763,706,767,675,671,673,675,684,683,682,687,694,709,689,695,708,695,691,697,692,698,698,700,707,709,699,702,698,706,714,735,737,744,731,0,0,0,0,0,0,0,0,0,0,0,0,0,0,0,0,0,0,0,0,0,0,0,0,0,0,0,0,0,0,0,0,0,0,0,0,0,0,0,0,0,0,0,0,0,0,0,0,0,0,0,0,0,0,0,0,0,0,0,0,0,0,0,0,0,900,876,886,885,977,1097,1290,1358,1470,1504,1486,1467,1474,1520,1457,1403,1380,1308,1372,1311,1325,1280,1232,1158,1157,1137,1071,1038,1019,1020,997,1006,955,930,933,914,889,928,905,904,907,913,914,914,923,919,922,927,919,925,952,924,925,922,934,936,935,938,939,935,952,938,934,943,936,829,837,835,835,879,966,1104,1231,1317,1356,1374,1332,1310,1343,1246,1225,1204,1193,1181,1160,1156,1134,1089,1074,1081,1042,1009,1003,966,945,923,902,865,859,846,842,844,888,846,853,854,846,851,863,893,860,853,879,866,864,858,879,858,868,864,871,862,861,862,863,862,861,861,866,859,184,185,185,186,187,192,217,242,267,292,306,301,297,292,287,282,277,273,268,263,258,253,249,244,239,234,229,224,220,215,210,205,200,196,191,187,188,188,173,170,173,175,171,177,173,179,178,173,180,173,174,173,173,178,175,175,173,174,173,173,175,175,175,182,177,477,478,480,481,485,526,596,666,775,784,829,805,802,789,740,727,715,702,723,688,637,652,687,657,614,601,589,604,563,577,579,544,513,500,488,484,485,487,498,476,479,484,484,478,491,487,490,487,486,501,548,498,494,530,493,487,491,500,554,579,591,606,609,527,525,786,789,791,794,830,954,1042,1164,1252,1291,1290,1269,1304,1228,1186,1166,1145,1125,1125,1104,1083,1063,1053,1112,1001,980,959,939,918,897,877,856,847,815,802,798,800,802,791,791,799,830,795,817,795,801,797,790,818,801,829,845,837,821,804,815,809,814,817,807,810,822,794,823,808,989,992,994,1009,1078,1238,1436,1601,1718,1734,1722,1692,1654,1631,1600,1605,1553,1515,1484,1447,1417,1399,1360,1328,1295,1264,1234,1201,1173,1142,1114,1081,1050,1025,1006,1005,1032,1015,1026,1034,1029,1050,1077,1068,1082,1095,1057,1088,1088,1092,1118,1099,1097,1090,1077,1065,1090,1078,1067,1077,1085,1085,1076,1089,1070,1350,1324,1337,1400,1539,1893,2027,2203,2236,2259,2238,2199,2181,2140,2110,2055,2004,1965,1960,1971,1873,1810,1781,1758,1693,1654,1637,1654,1537,1498,1459,1420,1384,1360,1395,1372,1367,1354,1432,1420,1436,1496,1456,1470,1455,1437,1445,1459,1458,1443,1447,1479,1537,1557,1478,1456,1445,1457,1442,1438,1435,1468,1447,1475,1434,370,371,372,373,374,400,492,506,559,605,616,606,596,586,576,566,557,547,579,527,558,508,498,488,478,468,459,449,439,429,419,442,431,390,380,376,377,378,372,383,392,374,373,383,386,384,384,378,383,379,378,376,386,395,386,386,401,381,385,383,388,386,383,389,380,627,596,598,600,610,668,757,849,911,932,930,916,893,888,850,874,858,850,867,851,812,798,787,774,762,742,727,711,696,678,663,648,633,619,606,601,621,604,594,592,599,602,630,596,602,617,608,607,603,600,599,602,618,625,783,707,641,618,608,605,607,605,608,608,602,1367,1405,1388,1439,1589,1765,1932,2110,2277,2193,2185,2113,2088,2019,1998,1979,1920,1972,1922,1979,1880,1861,1785,1771,1765,1668,1635,1552,1569,1547,1501,1415,1406,1435,1419,1372,1425,1446,1465,1476,1493,1507,1491,1505,1512,1510,1501,1509,1487,1480,1493,1501,1495,1489,1524,1514,1484,1486,1495,1489,1489,1497,1507,1522,1489,758,691,693,695,717,789,895,1024,1165,1084,1084,1080,1051,1047,1018,1015,998,1015,1011,993,966,949,932,916,876,858,840,822,804,784,767,749,732,715,702,697,736,709,707,705,705,709,706,710,710,712,709,708,709,703,709,712,713,712,718,712,714,714,715,718,710,725,712,720,714,614,592,584,586,596,663,737,861,907,920,907,894,880,867,853,854,839,883,846,845,831,817,791,805,740,725,722,695,680,662,658,634,629,605,576,587,600,600,625,571,579,585,573,608,582,607,600,587,613,586,591,591,591,599,594,587,593,598,590,586,588,594,586,599,591,895,938,956,908,956,1064,1204,1337,1425,1476,1457,1434,1432,1410,1364,1341,1354,1326,1271,1248,1225,1202,1179,1156,1132,1109,1086,1063,1040,1017,994,970,947,926,912,999,911,958,948,952,907,906,960,939,936,942,939,955,1001,952,968,982,985,962,963,975,976,998,1031,976,962,976,1029,978,950,755,719,725,716,754,831,943,1077,1125,1136,1122,1105,1088,1083,1066,1062,1036,1068,1032,1025,1008,985,974,935,916,897,876,852,849,807,801,775,765,746,707,712,731,733,721,730,731,753,743,735,735,751,732,749,748,758,790,790,807,800,747,739,752,746,751,743,748,754,741,751,743,1090,1102,1134,1174,1179,1361,1565,1687,1682,1725,1722,1694,1610,1674,1559,1606,1618,1490,1466,1475,1451,1432,1458,1377,1421,1298,1310,1295,1287,1224,1179,1172,1131,1122,1147,1098,1139,1103,1136,1147,1138,1154,1153,1167,1156,1166,1160,1168,1156,1162,1156,1151,1144,1147,1158,1165,1149,1151,1145,1149,1151,1165,1167,1167,1144,1252,1222,1186,1213,1329,1544,1694,1871,1997,1902,1911,1820,1826,1814,1734,1737,1710,1718,1664,1750,1644,1630,1558,1616,1536,1442,1434,1424,1377,1352,1310,1271,1223,1238,1241,1176,1238,1266,1246,1242,1244,1241,1376,1265,1259,1265,1271,1280,1336,1373,1289,1281,1306,1291,1456,1319,1299,1309,1322,1309,1299,1290,1322,1299,1317,1115,1073,1070,1093,1184,1332,1488,1671,1763,1681,1676,1682,1624,1653,1572,1559,1528,1526,1519,1514,1486,1441,1433,1408,1331,1307,1299,1249,1243,1199,1170,1131,1137,1097,1082,1111,1097,1081,1119,1116,1124,1119,1138,1142,1160,1158,1128,1151,1154,1153,1176,1172,1173,1192,1159,1147,1143,1142,1130,1158,1141,1146,1135,1157,1157,759,723,729,728,758,834,940,1079,1126,1137,1114,1119,1086,1085,1068,1064,1030,1070,1046,1027,1011,1001,976,938,919,900,879,859,831,810,805,793,769,750,707,716,735,737,737,723,745,741,745,728,735,735,730,804,809,749,761,762,755,748,741,770,728,732,730,728,735,732,729,753,744,979,923,950,975,1023,1094,1263,1452,1575,1496,1466,1460,1427,1448,1445,1388,1341,1342,1323,1297,1308,1298,1223,1218,1163,1168,1118,1117,1074,1068,1027,1004,1006,951,943,956,954,931,953,966,955,951,957,985,966,977,974,999,990,1006,1011,993,985,1001,1019,985,991,1000,1060,1051,1017,1008,1022,1037,1021,1338,1291,1302,1360,1457,1656,1833,2012,2130,2011,2018,2013,1934,1993,1892,1874,1842,1928,1792,1780,1730,1725,1668,1636,1623,1616,1570,1501,1468,1433,1487,1355,1339,1362,1293,1304,1327,1400,1378,1350,1358,1357,1366,1371,1372,1368,1372,1390,1412,1398,1403,1407,1405,1409,1406,1407,1405,1424,1434,1430,1421,1415,1438,1443,1449,658,626,627,629,644,706,800,917,1020,977,985,964,956,935,926,919,909,984,913,893,878,868,848,860,795,779,762,746,730,711,695,684,664,649,636,648,634,638,629,637,625,657,630,656,629,660,638,646,645,640,651,644,661,667,659,660,654,655,666,653,663,667,666,679,674,1236,1241,1197,1271,1298,1497,1666,1767,1746,1780,1853,1798,1805,1701,1645,1652,1675,1603,1578,1554,1529,1543,1480,1456,1443,1406,1382,1357,1437,1308,1284,1259,1235,1217,1206,1203,1206,1208,1251,1246,1253,1257,1285,1329,1274,1303,1295,1306,1320,1315,1304,1312,1297,1323,1287,1285,1304,1295,1290,1323,1307,1330,1299,1315,1314,1877,1837,1894,2068,2146,2433,2563,2725,2937,2754,2748,2716,2589,2698,2536,2589,2463,2505,2475,2407,2388,2359,2316,2219,2107,2175,2186,2068,2021,1949,1981,1892,1863,1824,1749,1843,1906,1875,2138,2137,2176,2194,2211,2199,2229,2243,2236,2267,2290,2309,2367,2308,2297,2341,2381,2360,2331,2381,2455,2467,2482,2521,2522,2465,2474,602,534,536,537,541,580,685,743,812,804,790,787,768,765,754,757,745,760,775,750,739,765,717,706,667,654,642,619,617,602,590,578,566,555,543,567,541,540,540,555,537,547,550,548,560,572,542,544,548,553,547,541,546,549,552,547,549,546,546,548,541,555,546,557,540,739,736,710,733,738,853,918,1104,1151,1161,1108,1091,1075,1108,1041,1038,1023,1104,1020,1047,1030,1006,953,956,896,878,892,843,823,825,814,767,783,764,724,730,749,750,715,725,720,728,725,720,723,730,729,740,726,729,732,732,751,735,743,738,741,741,744,740,752,747,744,748,759,740,718,746,728,754,825,936,1059,1059,1082,1117,1101,1057,1068,1052,1005,996,975,965,988,972,954,942,923,907,893,874,858,856,839,821,782,767,768,736,734,725,738,754,735,732,738,744,746,802,793,749,777,763,745,751,793,798,802,794,813,801,817,797,778,778,764,751,746,739,254,243,244,244,245,256,291,325,359,393,406,400,393,387,380,374,405,361,354,348,341,335,328,322,315,309,302,296,289,283,276,270,263,257,250,246,247,247,236,236,234,239,236,238,235,238,235,235,234,234,236,236,239,239,235,238,238,240,239,245,239,245,238,238,239,654,696,713,660,673,739,836,932,1024,1067,1069,1053,1036,1019,1002,985,1005,952,935,918,901,884,867,850,834,817,800,783,766,749,733,716,699,682,668,686,666,712,662,677,664,699,664,686,670,691,678,687,680,671,689,679,691,687,686,689,693,689,697,684,690,695,689,697,697,992,991,993,1007,1042,1233,1312,1531,1566,1607,1548,1488,1466,1510,1415,1409,1421,1415,1403,1368,1398,1335,1278,1270,1235,1212,1181,1135,1134,1104,1079,1034,1044,1041,978,991,1004,1015,1009,1000,1014,1012,1005,1030,1015,1016,1020,1026,1040,1029,1009,1015,1030,1035,1030,1045,1046,1030,1031,1034,1027,1023,1043,1101,1052,387,388,394,395,396,413,456,499,542,609,611,603,595,590,579,576,568,532,524,516,508,567,492,483,475,467,459,451,443,435,427,419,411,412,402,406,392,399,384,383,386,401,393,386,387,396,392,394,402,404,458,463,475,426,396,394,395,403,394,395,394,400,396,402,395,832,783,786,801,822,907,1043,1199,1317,1226,1240,1248,1202,1210,1150,1145,1141,1141,1137,1118,1085,1066,1047,1043,1001,967,960,940,920,885,878,846,827,808,795,790,812,807,792,806,802,806,831,802,814,836,809,810,816,802,812,817,832,831,916,922,839,824,820,810,805,801,824,837,804,0,0,0,0,0,0,0,0,0,0,0,0,0,0,0,0,0,0,0,0,0,0,0,0,0,0,0,0,0,0,0,0,0,0,0,0,0,0,0,0,0,0,0,0,0,0,0,0,0,0,0,0,0,0,0,0,0,0,0,0,0,0,0,0,0,1566,1562,1567,1705,1857,2068,2281,2409,2553,2407,2425,2362,2349,2336,2225,2244,2162,2259,2156,2124,2084,2048,1971,1973,1921,1875,1870,1751,1767,1728,1737,1607,1597,1554,1582,1576,1600,1550,1671,1715,1678,1681,1712,1685,1703,1705,1709,1710,1719,1708,1719,1713,1719,1720,1732,1734,1732,1734,1757,1715,1738,1741,1762,1738,1732,1034,975,987,999,1081,1183,1349,1531,1633,1568,1560,1563,1491,1493,1444,1454,1429,1425,1414,1371,1347,1342,1286,1293,1247,1221,1196,1170,1134,1101,1092,1053,1028,1012,995,1005,1027,996,1014,1023,1036,1046,1072,1045,1049,1040,1037,1046,1031,1024,1036,1038,1045,1051,1063,1050,1027,1023,1032,1032,1030,1039,1044,1052,1028,1088,1040,1043,1064,1138,1269,1439,1628,1721,1640,1631,1633,1581,1582,1531,1519,1493,1587,1475,1450,1424,1399,1374,1349,1301,1324,1284,1221,1194,1165,1220,1113,1087,1066,1054,1050,1072,1132,1101,1093,1088,1103,1090,1126,1095,1103,1128,1179,1104,1123,1122,1126,1120,1123,1142,1118,1107,1113,1116,1126,1118,1122,1124,1135,1114,1524,1490,1509,1597,1748,1962,2174,2390,2457,2339,2332,2404,2210,2217,2156,2164,2080,2149,2056,2020,1996,1989,1912,1922,1818,1825,1765,1719,1682,1670,1705,1543,1539,1520,1507,1492,1516,1500,1633,1618,1639,1618,1647,1667,1623,1620,1627,1711,1663,1660,1664,1677,1670,1655,1648,1652,1629,1663,1628,1656,1650,1649,1644,1649,1697,654,696,713,660,673,739,836,932,1024,1067,1069,1053,1036,1019,1002,985,1005,952,935,918,901,884,867,850,834,817,800,783,766,749,733,716,699,682,668,686,666,712,660,656,661,668,670,669,671,667,670,680,672,675,679,687,687,685,697,689,679,695,684,678,691,685,686,693,682,1133,1131,1135,1222,1230,1475,1578,1714,1693,1726,1720,1694,1669,1644,1587,1593,1616,1543,1536,1633,1467,1480,1417,1392,1366,1341,1326,1291,1308,1240,1215,1278,1165,1146,1135,1132,1135,1138,1197,1197,1185,1205,1243,1239,1215,1210,1230,1262,1233,1271,1265,1261,1207,1214,1241,1249,1250,1222,1268,1318,1260,1253,1269,1242,1241,627,596,598,600,610,668,757,849,911,932,930,916,893,888,850,874,858,850,867,851,812,798,787,774,762,742,727,711,696,678,663,648,633,619,606,601,621,604,594,592,599,602,630,596,602,617,608,607,603,600,599,602,618,625,783,707,641,618,608,605,607,605,608,608,602,1026,1029,1033,1053,1125,1257,1425,1677,1641,1672,1664,1637,1655,1661,1557,1531,1600,1478,1451,1425,1398,1371,1430,1318,1292,1300,1238,1212,1261,1159,1132,1106,1113,1057,1139,1042,1044,1047,1066,1085,1077,1106,1077,1112,1089,1104,1095,1098,1097,1084,1101,1091,1110,1116,1112,1118,1112,1106,1121,1104,1105,1121,1120,1133,1122,728,730,700,702,725,855,854,1013,1102,1086,1192,1071,1053,1036,1082,1064,1045,966,1008,990,914,953,879,862,844,827,809,792,775,757,786,722,705,687,717,706,708,710,703,698,721,737,749,749,761,701,726,744,709,700,710,710,706,705,736,722,701,702,699,705,705,713,720,733,705,950,953,955,968,1029,1159,1301,1553,1519,1552,1558,1521,1496,1472,1458,1433,1494,1373,1348,1334,1298,1274,1335,1224,1234,1175,1150,1125,1176,1076,1051,1026,1036,979,1061,964,967,969,977,989,993,1020,1006,1001,996,1017,1001,1007,1000,1007,1016,1036,1022,1020,1017,1019,1016,1008,1000,1014,1011,1051,1027,1040,1030,1020,1040,1018,1048,1110,1241,1376,1604,1688,1650,1641,1606,1650,1563,1613,1514,1580,1458,1431,1457,1361,1371,1392,1342,1321,1312,1274,1240,1214,1158,1111,1093,1133,1076,1029,1038,1091,1042,1101,1057,1060,1067,1080,1057,1062,1074,1060,1075,1077,1077,1077,1137,1091,1080,1153,1095,1087,1090,1091,1087,1091,1091,1097,1103,1105,1489,1561,1554,1694,1940,2151,2414,2588,2562,2547,2521,2480,2413,2393,2426,2302,2410,2185,2158,2153,2156,2062,2077,1937,1913,1891,1816,1802,1800,1728,1646,1603,1590,1527,1541,1519,1538,1550,1629,1636,1656,1672,1666,1671,1656,1671,1652,1670,1682,1674,1664,1689,1690,1711,1744,1738,1679,1693,1697,1683,1679,1672,1689,1706,1693,886,870,892,906,958,1059,1200,1313,1386,1452,1456,1424,1382,1359,1337,1340,1317,1268,1262,1222,1199,1168,1154,1123,1108,1085,1055,1078,1017,1019,964,967,926,940,902,881,965,905,927,934,914,928,911,951,919,927,958,999,929,945,942,942,939,959,965,936,925,923,934,945,935,943,942,942,928,1500,1531,1584,1734,1984,2196,2497,2632,2605,2590,2563,2522,2455,2434,2378,2359,2377,2272,2242,2232,2160,2113,2115,1980,1991,1927,1872,1838,1836,1735,1681,1638,1581,1550,1583,1554,1555,1599,1683,1720,1677,1689,1711,1686,1710,1718,1711,1701,1757,1715,1712,1727,1741,1754,1731,1750,1743,1739,1770,1704,1726,1739,1769,1718,1708,818,820,823,827,864,955,1063,1167,1291,1311,1319,1289,1269,1246,1237,1211,1201,1166,1160,1139,1104,1093,1063,1042,1021,1001,990,960,949,918,897,877,870,850,815,812,814,838,831,828,827,835,837,859,869,870,845,859,862,859,854,846,850,886,886,854,850,855,835,859,848,850,852,876,845,874,774,776,778,807,959,1006,1128,1296,1336,1335,1314,1293,1272,1158,1230,1186,1188,1167,1146,1125,1104,1128,1063,1042,1021,1000,979,938,937,848,895,874,853,840,783,785,787,804,821,816,835,825,815,810,817,818,848,846,841,863,835,835,818,860,840,829,851,927,869,853,829,871,861,850,843,870,848,853,896,995,1127,1325,1411,1377,1373,1351,1377,1308,1415,1264,1303,1220,1198,1209,1155,1133,1175,1120,1113,1105,1075,1082,1012,958,963,914,945,896,858,899,899,860,882,882,879,888,890,904,888,890,902,902,885,891,889,892,891,884,894,896,891,892,885,900,896,904,904,899,892,639,641,643,645,661,727,824,1036,1009,1052,1053,1037,1020,1003,986,969,1051,935,919,902,885,868,939,834,817,801,784,767,828,733,716,699,718,666,652,649,650,652,659,656,655,664,649,659,655,657,675,700,661,678,686,683,683,693,703,672,668,670,683,689,675,680,685,693,679,485,486,488,489,493,535,604,674,743,789,796,783,771,758,746,733,721,708,696,683,671,658,646,633,621,608,596,583,571,558,545,533,520,508,496,492,493,495,483,484,487,496,531,523,508,534,513,536,525,524,514,499,502,524,508,495,525,507,498,514,511,530,510,514,503,919,914,956,936,1001,1106,1223,1454,1491,1506,1496,1476,1438,1454,1489,1380,1439,1332,1308,1323,1260,1211,1266,1177,1195,1154,1130,1127,1140,1034,1029,1021,1006,962,937,925,928,939,947,945,961,965,963,1000,958,974,978,973,1000,976,981,982,975,984,967,970,965,980,963,977,975,989,975,983,990,1750,1806,1863,2147,2482,2710,2938,3112,3112,3049,3031,2962,2896,2854,2789,2744,2777,2630,2587,2610,2497,2469,2446,2278,2284,2223,2166,2096,2083,1965,1938,1905,1809,1914,1808,1822,1835,1849,2155,2148,2109,2110,2175,2125,2142,2150,2153,2176,2232,2179,2184,2325,2201,2195,2301,2215,2217,2228,2264,2221,2207,2209,2283,2211,2224,495,497,498,500,504,606,607,799,767,798,823,792,779,856,792,827,751,731,717,704,691,678,738,652,677,643,669,678,586,560,611,534,533,520,507,503,493,495,506,509,501,533,517,506,515,526,508,531,532,524,522,513,506,509,514,522,507,508,502,503,501,504,511,508,492,1174,1148,1153,1176,1255,1412,1624,1840,1818,1848,1795,1768,1748,1738,1711,1713,1814,1656,1616,1555,1539,1500,1516,1453,1434,1426,1363,1340,1380,1283,1276,1239,1246,1176,1214,1162,1165,1152,1207,1227,1202,1229,1229,1212,1219,1246,1215,1239,1225,1246,1234,1241,1234,1242,1245,1246,1254,1239,1242,1230,1250,1254,1251,1243,1272,904,920,909,918,994,1082,1262,1393,1464,1477,1472,1448,1472,1401,1408,1354,1385,1307,1284,1293,1264,1213,1272,1208,1168,1143,1112,1134,1094,1048,1017,978,977,958,920,931,979,922,957,947,935,947,999,1052,966,970,978,999,976,994,996,989,975,992,998,986,1005,977,982,1049,1014,1026,1035,996,994,1061,1056,1068,1086,1175,1309,1481,1731,1694,1712,1716,1688,1661,1634,1606,1579,1649,1524,1486,1473,1446,1415,1463,1360,1323,1305,1285,1244,1299,1205,1178,1141,1159,1092,1174,1077,1121,1083,1105,1101,1130,1145,1119,1143,1112,1129,1115,1152,1146,1130,1133,1141,1152,1174,1150,1145,1137,1139,1147,1151,1152,1150,1127,1158,1152,1639,1569,1581,1745,1822,2183,2395,2463,2432,2522,2546,2434,2433,2385,2260,2339,2394,2229,2172,2143,2125,2031,2095,1938,1931,1938,1842,1786,1800,1751,1716,1615,1702,1608,1665,1612,1566,1568,1712,1736,1754,1764,1756,1750,1748,1779,1744,1764,1793,1746,1765,1764,1778,1788,1942,1889,1786,1771,1795,1769,1758,1743,1757,1818,1757,1719,1749,1828,1977,2167,2550,2565,2967,2759,2768,2710,2685,2700,2686,2669,2517,2644,2455,2404,2320,2378,2263,2313,2225,2191,2091,2083,1974,2067,1941,1863,1816,1792,1775,1785,1767,1797,1781,2102,2067,2078,2098,2083,2109,2130,2137,2124,2209,2118,2104,2110,2172,2171,2184,2177,2164,2142,2167,2153,2176,2142,2127,2103,2121,2107,616,611,638,640,655,721,782,885,960,1014,1046,1001,984,968,952,962,946,903,887,870,854,830,822,797,789,772,749,733,724,708,684,694,660,644,629,619,627,652,616,613,623,645,623,626,615,626,619,614,621,623,618,625,626,636,633,641,629,633,632,637,639,662,652,660,653,1237,1207,1206,1255,1358,1581,1679,2016,1977,1946,1931,1967,1930,1838,1876,1777,1827,1715,1684,1685,1597,1592,1659,1571,1540,1516,1477,1417,1420,1356,1302,1283,1305,1256,1219,1221,1280,1224,1304,1314,1287,1300,1296,1341,1305,1325,1335,1404,1318,1361,1351,1358,1335,1412,1366,1318,1319,1310,1344,1378,1366,1397,1371,1375,1343,781,783,785,788,822,909,1029,1265,1235,1274,1272,1252,1232,1212,1192,1172,1249,1131,1111,1091,1071,1051,1118,1010,990,970,950,930,986,889,869,849,864,809,795,792,794,797,789,791,789,807,795,806,795,808,807,798,800,801,798,799,795,794,800,804,802,805,795,798,801,815,810,815,802,1653,1566,1609,1786,1918,2117,2323,2521,2493,2520,2505,2485,2502,2433,2307,2360,2357,2321,2227,2149,2075,2114,2083,1974,1899,2046,1843,1812,1868,1722,1688,1636,1675,1658,1685,1585,1559,1589,1742,1738,1755,1767,1763,1800,1770,1789,1759,1800,1794,1771,1762,1767,1785,1797,1786,1801,1796,1781,1788,1784,1772,1769,1799,1817,1765,0,0,0,0,0,0,0,0,0,0,0,0,0,0,0,0,0,0,0,0,0,0,0,0,0,0,0,0,0,0,0,0,0,0,0,0,0,0,0,0,0,0,0,0,0,0,0,0,0,0,0,0,0,0,0,0,0,0,0,0,0,0,0,0,0,911,908,912,916,995,1087,1227,1358,1438,1476,1475,1456,1439,1399,1384,1361,1426,1301,1288,1258,1247,1219,1285,1166,1156,1113,1111,1093,1085,1031,1016,996,991,936,922,914,922,929,931,947,946,953,962,977,961,969,945,969,960,984,953,962,978,993,974,984,969,984,980,961,962,959,963,969,947,542,544,545,547,554,606,686,766,815,891,896,882,868,853,839,825,810,796,782,742,753,739,725,710,696,659,645,632,639,625,610,596,562,549,554,550,552,553,541,548,549,562,568,561,564,590,567,569,573,587,593,565,580,611,563,561,572,577,569,565,571,578,570,571,568,235,236,237,238,238,248,279,311,343,375,401,394,388,382,376,369,363,357,351,344,338,332,325,319,313,307,300,294,288,282,275,269,263,256,250,239,240,240,224,226,225,231,225,230,226,231,228,231,230,228,232,230,233,232,232,233,234,234,235,234,234,236,235,238,239,1719,1749,1828,1977,2167,2550,2565,2967,2759,2768,2710,2685,2700,2686,2669,2517,2644,2455,2404,2320,2378,2263,2313,2225,2191,2091,2083,1974,2067,1941,1863,1816,1792,1775,1785,1767,1797,1781,2067,2039,2061,2070,2078,2073,2087,2098,2079,2098,2109,2100,2130,2134,2101,2098,2127,2144,2127,2152,2163,2109,2132,2174,2178,2150,2134,1749,1768,1795,2001,2433,2843,3089,3464,3441,3267,3250,3143,3355,3146,2979,2930,2823,2781,2715,2735,2559,2490,2466,2352,2283,2214,2145,2075,2057,1913,1920,1780,1770,1904,1715,1730,1721,1740,2016,2000,2035,2087,2068,2114,2055,2047,2060,2081,2101,2068,2062,2109,2161,2190,2087,2065,2065,2075,2054,2057,2060,2088,2060,2095,2064,1026,1029,1033,1053,1125,1257,1425,1677,1641,1672,1664,1637,1655,1661,1557,1531,1600,1478,1451,1425,1398,1371,1430,1318,1292,1300,1238,1212,1261,1159,1132,1106,1113,1057,1139,1042,1044,1047,1066,1085,1077,1106,1077,1112,1089,1104,1095,1098,1097,1084,1101,1091,1110,1116,1112,1118,1112,1106,1121,1104,1105,1121,1120,1133,1122,530,532,533,535,542,617,699,748,875,945,877,863,849,835,821,807,793,779,765,751,806,723,709,695,681,667,653,639,625,645,597,583,569,555,542,538,540,541,541,534,547,563,553,549,546,552,552,557,563,552,561,592,611,592,584,564,547,571,555,550,546,572,561,573,552,1070,1071,1075,1100,1233,1432,1494,1794,1839,1711,1756,1733,1646,1740,1734,1664,1647,1541,1570,1551,1457,1473,1423,1462,1417,1368,1348,1321,1291,1278,1221,1195,1151,1123,1138,1152,1069,1146,1196,1188,1174,1202,1238,1228,1211,1213,1228,1266,1222,1290,1326,1269,1199,1244,1246,1244,1241,1219,1302,1401,1348,1348,1357,1275,1268,454,455,457,458,461,494,560,632,699,739,748,743,731,719,700,694,682,670,658,646,634,622,610,592,586,568,556,549,537,520,513,501,489,477,465,461,462,463,452,463,462,469,471,475,465,478,460,472,461,460,462,473,475,478,473,473,465,467,478,471,461,462,463,471,461,629,612,621,623,612,710,793,874,971,1014,1030,1002,985,932,917,937,952,904,888,862,823,839,834,798,790,784,758,715,717,709,668,685,660,621,608,627,621,630,617,616,624,639,648,651,660,623,628,644,631,623,640,632,623,622,660,648,622,624,619,622,625,631,641,638,619,818,813,823,826,877,1008,1175,1322,1528,1572,1463,1436,1410,1383,1356,1330,1303,1266,1273,1223,1196,1170,1187,1139,1090,1063,1036,1010,1004,956,929,972,905,879,834,825,837,834,851,866,864,867,877,893,877,883,866,875,870,864,869,879,886,894,885,897,877,885,894,878,870,866,879,885,863,587,566,567,563,587,652,718,818,884,928,946,918,914,915,927,859,883,850,812,799,795,769,765,758,724,719,694,679,673,649,634,622,605,598,594,572,581,576,576,580,577,583,585,583,584,599,576,586,579,579,584,591,593,587,590,587,584,583,598,595,579,585,584,588,585,830,848,857,861,899,1048,1286,1367,1470,1586,1507,1480,1453,1425,1398,1395,1404,1307,1343,1313,1283,1231,1225,1158,1161,1100,1073,1070,1040,1010,965,949,930,862,845,845,862,869,878,878,875,890,909,881,890,909,892,891,897,906,978,984,992,944,1021,969,924,914,892,892,905,885,901,892,886,926,936,999,914,1007,1150,1277,1415,1542,1534,1480,1449,1522,1477,1469,1400,1375,1303,1330,1306,1277,1257,1243,1204,1164,1140,1131,1121,1095,1087,1034,1016,973,938,971,951,937,956,968,960,961,973,968,968,973,965,977,968,974,962,980,970,973,967,968,978,970,980,963,971,975,984,969,970,966,280,281,282,282,283,297,337,377,416,455,469,462,454,447,439,432,424,417,409,402,394,387,379,371,364,356,349,341,334,326,319,311,304,296,289,284,285,286,277,277,274,277,277,278,278,293,286,281,278,280,282,288,284,300,281,277,279,281,277,287,280,280,280,280,279,526,523,506,507,521,566,630,703,776,823,842,816,803,817,820,764,776,737,724,711,709,710,682,703,645,642,619,606,602,601,566,562,560,535,532,510,512,513,521,514,529,565,537,519,534,544,533,532,538,531,538,549,560,549,562,539,524,530,533,536,519,538,530,537,529,339,340,341,343,344,365,414,462,566,555,567,558,549,593,583,522,552,504,495,486,477,467,458,449,440,431,422,413,404,395,386,377,368,358,349,345,346,347,335,326,340,355,347,342,334,340,345,354,348,348,361,400,424,395,381,350,335,364,343,339,334,354,346,365,338,879,860,863,869,934,1039,1146,1343,1405,1398,1382,1382,1351,1389,1317,1313,1328,1267,1244,1222,1199,1139,1153,1181,1104,1100,1119,1047,1000,992,955,959,925,889,890,887,855,878,885,889,891,901,881,899,897,901,888,891,936,901,911,897,921,946,915,915,913,901,924,911,900,891,886,923,876,504,487,489,490,479,537,640,681,753,800,807,794,781,742,729,742,746,692,703,691,655,665,652,639,662,613,600,568,574,561,531,536,523,494,482,493,495,480,473,477,479,493,477,490,479,493,488,479,492,478,480,484,481,487,484,486,484,490,487,487,481,494,481,493,484,1118,1099,1123,1138,1269,1428,1746,1893,2014,2007,1988,1940,1934,1896,1859,1766,1730,1728,1690,1650,1624,1596,1580,1504,1504,1466,1363,1398,1337,1300,1217,1206,1169,1138,1122,1108,1105,1111,1160,1158,1167,1181,1202,1207,1166,1204,1161,1172,1180,1185,1182,1197,1210,1221,1219,1219,1177,1199,1207,1203,1214,1207,1208,1234,1211,1196,1217,1206,1249,1373,1669,1842,1922,1971,2004,2031,1976,1894,1862,1806,1921,1815,1737,1706,1674,1700,1590,1580,1573,1569,1513,1481,1424,1430,1398,1351,1324,1269,1247,1269,1271,1270,1299,1283,1314,1313,1320,1332,1313,1321,1350,1319,1315,1340,1302,1327,1326,1338,1343,1503,1452,1364,1328,1335,1325,1313,1318,1334,1380,1313,649,650,653,655,667,756,882,879,986,1116,1007,994,980,966,1008,1003,977,961,897,899,882,868,852,836,820,804,788,764,756,739,724,707,691,676,663,659,660,662,654,654,657,657,709,687,693,700,685,722,705,690,695,676,690,715,689,682,705,682,685,702,691,726,700,741,692,605,583,585,580,606,673,741,843,910,954,971,943,939,939,951,882,906,873,834,821,817,791,786,817,745,739,714,699,693,668,653,640,622,615,611,590,599,593,594,588,593,599,599,606,608,618,606,607,616,619,600,601,602,609,600,598,607,607,606,595,599,605,594,607,601,557,577,568,570,570,666,750,787,910,911,931,903,931,874,885,852,837,816,801,787,771,792,749,728,719,715,700,675,661,646,626,616,632,582,569,565,567,568,561,554,569,584,557,575,565,569,569,565,582,562,561,564,562,573,567,568,563,564,564,564,568,567,562,584,572,1039,1042,1091,1065,1259,1315,1596,1662,1788,1731,1806,1767,1706,1660,1612,1626,1616,1526,1553,1449,1554,1372,1381,1395,1378,1292,1320,1234,1196,1253,1170,1164,1121,1100,1067,1073,1087,1124,1111,1104,1101,1104,1105,1141,1135,1146,1129,1136,1144,1134,1131,1130,1129,1162,1161,1137,1141,1139,1136,1157,1146,1143,1149,1197,1157,1063,1068,1078,1091,1178,1353,1566,1714,1809,1847,1834,1825,1769,1737,1705,1672,1671,1598,1575,1543,1514,1479,1444,1414,1442,1349,1317,1287,1252,1220,1190,1155,1123,1096,1080,1072,1085,1083,1089,1085,1090,1098,1099,1100,1107,1105,1107,1113,1105,1112,1137,1111,1112,1107,1119,1124,1122,1127,1127,1121,1139,1127,1121,1131,1123,629,589,591,593,602,657,791,824,905,1008,954,940,1008,954,981,880,932,851,836,821,806,791,776,762,787,793,717,702,687,726,658,677,628,613,664,596,635,599,611,628,610,625,623,622,624,631,618,617,619,624,623,617,619,622,623,624,624,623,622,624,617,636,630,636,624,844,823,803,807,854,1000,1062,1185,1271,1308,1319,1286,1265,1270,1314,1202,1206,1213,1140,1119,1109,1077,1067,1055,1014,1003,973,952,1042,910,889,877,885,922,853,849,835,815,845,847,845,855,856,852,850,866,841,854,847,846,851,868,861,858,862,858,853,851,868,873,847,853,852,855,851,286,286,287,288,289,303,342,380,419,457,471,463,456,449,441,434,427,419,412,405,397,390,382,375,368,360,353,346,338,331,324,316,309,302,294,290,291,291,276,274,279,285,284,284,281,291,279,289,285,296,280,278,282,286,281,280,285,285,280,281,280,284,278,280,280,1059,1061,1084,1089,1190,1363,1550,1685,1833,1790,1763,1811,1700,1672,1701,1577,1668,1535,1506,1466,1502,1391,1388,1361,1331,1303,1289,1278,1253,1293,1141,1159,1114,1073,1060,1110,1080,1083,1108,1112,1100,1172,1141,1123,1116,1136,1135,1144,1166,1137,1143,1124,1112,1114,1137,1137,1118,1119,1106,1116,1118,1127,1143,1139,1105,901,882,920,885,941,1034,1241,1364,1459,1426,1493,1468,1444,1420,1345,1372,1299,1324,1301,1277,1197,1229,1196,1126,1115,1100,1110,1054,1045,1022,971,983,966,917,918,892,895,897,931,912,907,929,920,921,974,970,934,960,943,922,931,961,982,986,986,991,978,1000,980,961,963,944,925,928,922,0,0,0,0,0,0,0,0,0,0,0,0,0,0,0,0,0,0,0,0,0,0,0,0,0,0,0,0,0,0,0,0,0,0,0,0,0,0,0,0,0,0,0,0,0,0,0,0,0,0,0,0,0,0,0,0,0,0,0,0,0,0,0,0,0,610,624,626,628,644,708,773,896,1017,992,1006,1013,966,1011,965,947,969,914,898,881,865,829,832,840,813,798,868,733,717,731,685,696,668,637,638,634,615,637,630,625,631,640,675,660,634,640,636,648,624,641,639,652,654,660,638,645,640,628,638,661,651,646,640,669,641,830,833,836,840,882,978,1109,1237,1357,1362,1360,1339,1317,1295,1273,1251,1230,1208,1186,1164,1143,1121,1099,1077,1055,1082,1059,990,968,947,925,929,881,860,883,884,845,848,866,863,867,866,879,888,902,913,884,889,884,888,884,882,881,906,897,888,882,884,870,891,882,888,877,897,888,1063,1068,1078,1091,1178,1353,1566,1714,1809,1847,1834,1825,1769,1737,1705,1672,1671,1598,1575,1543,1514,1479,1444,1414,1442,1349,1317,1287,1252,1220,1190,1155,1123,1096,1080,1072,1085,1083,1123,1096,1099,1103,1096,1107,1103,1101,1114,1188,1107,1118,1128,1129,1131,1139,1154,1141,1127,1129,1128,1138,1134,1131,1134,1145,1143,1407,1427,1508,1525,1641,1888,2307,2258,2341,2426,2471,2326,2294,2253,2339,2290,2103,2052,2021,1981,1943,1924,1859,1818,1849,1778,1706,1655,1697,1574,1536,1502,1457,1461,1430,1455,1482,1421,1504,1535,1499,1502,1543,1493,1511,1522,1521,1539,1567,1534,1535,1667,1548,1541,1666,1565,1555,1557,1574,1540,1562,1565,1603,1562,1565,530,532,533,535,542,617,699,748,875,945,877,863,849,835,821,807,793,779,765,751,806,723,709,695,681,667,653,639,625,645,597,583,569,555,542,538,540,541,541,534,547,563,553,549,546,552,552,557,563,552,561,592,611,592,584,564,547,571,555,550,546,572,561,573,552,689,691,694,679,699,805,873,969,1052,1091,1138,1064,1104,1030,1013,996,992,989,972,928,912,895,878,883,880,862,844,809,776,795,743,810,735,701,708,683,673,704,707,702,710,793,733,717,716,712,710,720,729,729,739,725,716,729,722,726,713,717,709,722,715,709,718,718,725,484,485,470,471,475,514,583,652,720,769,776,782,751,739,744,714,702,689,677,664,652,655,627,615,602,590,598,585,552,540,540,515,521,502,490,474,475,526,479,483,485,498,483,496,485,500,496,485,499,484,486,488,488,495,491,493,488,494,494,494,487,501,488,500,491,718,716,720,760,798,842,935,1069,1154,1230,1222,1209,1144,1155,1163,1086,1135,1049,1030,1011,992,993,954,940,966,944,891,860,841,817,803,784,761,780,728,775,793,733,745,737,754,746,758,790,749,758,764,767,782,768,770,774,769,774,759,761,754,770,754,769,769,772,766,769,786,583,608,610,572,581,693,795,885,961,1009,992,984,945,970,936,885,890,888,872,836,805,818,834,775,776,760,744,685,707,692,683,665,633,616,609,601,601,619,602,608,607,622,684,657,628,672,633,693,652,667,651,622,637,667,638,623,671,639,625,654,647,684,652,640,633,1279,1268,1293,1384,1591,1730,2070,2126,2192,2243,2215,2243,2044,2124,2082,1985,1990,1941,1948,1807,1790,1795,1694,1674,1684,1674,1568,1506,1541,1469,1393,1394,1320,1330,1288,1419,1362,1326,1392,1382,1374,1389,1387,1415,1398,1399,1411,1476,1410,1396,1396,1407,1418,1401,1407,1425,1402,1425,1396,1388,1417,1424,1388,1401,1379,415,416,417,419,421,501,531,590,688,735,691,680,669,708,742,684,672,614,691,591,580,569,600,547,536,525,514,503,492,481,470,459,448,478,455,421,422,424,427,430,416,427,431,430,440,450,426,429,430,445,439,426,427,432,433,432,432,432,423,425,422,429,433,427,415,1314,1279,1333,1460,1633,1775,2011,2228,2235,2286,2257,2267,2086,2166,2123,2026,2030,2031,1988,1846,1849,1834,1732,1744,1721,1735,1604,1561,1545,1517,1410,1418,1354,1342,1329,1386,1386,1324,1412,1392,1399,1396,1429,1473,1418,1440,1444,1466,1459,1481,1490,1480,1449,1491,1451,1444,1455,1453,1473,1549,1527,1551,1529,1495,1511,340,341,342,343,344,387,413,461,509,554,621,611,601,591,582,572,562,552,542,532,522,512,521,493,483,473,463,453,443,433,423,414,404,394,384,345,346,347,356,356,358,360,357,357,358,358,357,357,357,356,358,363,364,362,357,360,361,361,364,361,360,364,357,358,361,679,701,703,706,724,794,890,1009,1081,1123,1119,1102,1162,1073,1055,1056,1012,1003,986,963,946,929,904,899,905,850,846,815,808,794,779,759,742,703,693,769,692,714,721,706,708,718,715,715,778,769,715,747,735,715,717,772,778,787,795,787,764,781,777,751,736,736,722,722,712,433,435,431,416,417,474,535,614,675,721,716,705,741,682,671,659,640,637,625,644,573,591,580,569,541,557,535,549,512,501,468,472,467,494,444,418,419,437,435,431,432,432,433,430,433,432,434,431,431,433,435,439,438,438,441,437,439,439,441,447,441,446,438,439,442,460,461,462,464,467,506,574,642,709,757,764,752,740,727,715,759,691,678,666,654,642,630,617,605,593,581,568,556,544,532,599,507,495,522,471,467,468,469,471,468,475,480,476,473,473,485,478,483,476,481,498,513,516,496,483,484,478,486,479,481,479,485,473,484,476,291,292,293,294,295,273,309,345,382,418,454,447,439,432,425,418,410,403,396,389,381,374,367,360,353,345,338,331,324,316,309,302,295,287,280,296,296,297,279,278,278,320,295,285,276,278,282,291,295,282,292,286,280,280,286,287,279,279,277,278,282,278,289,282,274,505,507,509,494,498,569,654,726,797,840,834,850,866,795,843,798,785,745,756,747,728,712,678,687,651,637,624,594,600,613,574,557,543,513,552,497,498,516,506,513,510,522,508,510,515,517,517,519,511,514,511,515,516,517,521,527,517,515,518,517,525,526,518,518,518,1565,1530,1588,1813,2089,2285,2521,2600,2716,2717,2742,2673,2538,2559,2542,2437,2463,2394,2289,2218,2193,2181,2167,2015,2042,2068,1927,1851,1780,1778,1685,1664,1592,1620,1638,1646,1639,1571,1754,1774,1731,1736,1778,1757,1769,1767,1765,1762,1804,1767,1790,1788,1802,1809,1793,1813,1808,1813,1857,1779,1788,1803,1861,1808,1770,805,825,846,831,861,876,957,1069,1255,1158,1240,1271,1180,1150,1209,1174,1100,1030,1071,1062,1035,1016,998,1023,962,911,925,844,920,888,878,858,840,816,803,816,752,776,800,782,784,792,769,827,790,798,802,802,821,813,813,789,810,832,868,791,791,830,793,818,799,785,816,823,798,760,716,745,704,721,858,932,1033,1145,1200,1179,1156,1156,1144,1116,1088,1102,1061,1005,1020,1003,1013,969,973,900,882,865,831,892,871,853,777,806,725,764,735,709,728,728,738,737,743,770,739,745,756,741,748,738,741,739,752,763,778,935,868,776,762,754,744,744,741,761,754,739,464,466,467,469,472,570,596,663,780,824,769,757,745,816,777,753,743,684,724,659,658,635,664,610,629,586,573,561,549,537,536,512,520,496,510,471,493,474,475,472,478,483,477,477,481,480,480,479,480,478,483,494,496,491,486,480,479,486,483,483,478,488,480,484,481,830,822,832,876,929,993,1100,1251,1333,1405,1394,1424,1311,1319,1313,1247,1280,1245,1170,1160,1173,1140,1095,1073,1121,1077,1011,987,966,930,922,942,876,903,841,880,869,847,890,868,877,874,878,875,924,922,884,916,904,875,879,935,939,943,930,939,928,945,934,928,914,894,873,874,874,1175,1204,1184,1227,1276,1543,1667,1835,1906,1876,1946,1866,1851,1884,1745,1767,1752,1642,1649,1687,1638,1538,1582,1503,1449,1511,1433,1355,1368,1333,1340,1261,1254,1228,1263,1216,1188,1181,1266,1276,1249,1264,1256,1302,1266,1285,1296,1357,1277,1311,1295,1307,1288,1348,1314,1275,1274,1268,1288,1307,1303,1327,1307,1317,1285,1376,1402,1397,1479,1568,1826,2037,2118,2175,2183,2210,2162,2168,2161,2048,1985,1978,1943,1908,1901,1815,1838,1773,1746,1717,1695,1657,1617,1640,1567,1537,1499,1435,1434,1452,1385,1375,1465,1559,1475,1480,1491,1474,1482,1501,1495,1512,1572,1506,1521,1618,1520,1524,1612,1535,1516,1512,1522,1612,1686,1706,1748,1747,1578,1575,158,158,159,159,160,164,186,208,230,252,266,261,257,253,249,244,240,236,232,227,223,219,215,210,206,202,198,193,189,185,180,176,172,168,163,160,161,161,144,144,144,146,146,146,147,147,147,148,148,148,149,149,149,149,150,150,150,151,151,151,152,152,152,154,154,826,819,788,754,785,917,1052,1221,1261,1305,1291,1257,1237,1230,1211,1186,1160,1133,1126,1092,1057,1065,1072,1011,991,970,961,929,920,889,869,853,820,795,792,791,831,800,790,797,794,813,810,810,802,815,805,809,804,802,805,812,809,815,821,823,824,818,821,818,817,852,837,846,839,552,557,550,584,594,617,687,788,866,909,934,936,869,891,904,831,885,799,785,770,760,766,728,714,744,736,671,657,646,629,617,602,585,606,567,597,599,558,561,570,569,585,579,578,572,592,570,578,571,576,565,579,569,580,586,583,580,575,570,580,573,590,565,575,570,1269,1192,1176,1194,1334,1478,1751,1864,1991,1987,1929,1899,1890,1838,1756,1777,1811,1686,1655,1716,1602,1576,1557,1520,1490,1489,1432,1351,1405,1343,1322,1256,1312,1188,1272,1188,1211,1202,1234,1230,1259,1274,1248,1273,1242,1260,1245,1283,1277,1261,1265,1273,1284,1306,1282,1279,1271,1273,1282,1287,1287,1285,1262,1295,1289,564,566,568,570,541,634,669,748,826,929,934,919,913,889,882,808,794,780,822,800,737,777,755,695,725,674,686,639,665,650,635,620,611,590,577,538,575,541,560,562,563,575,568,576,563,580,568,571,568,563,569,577,573,575,576,576,576,573,584,580,575,594,590,596,591,726,684,730,726,775,808,952,1033,1149,1154,1192,1167,1090,1136,1118,1042,1073,1015,997,979,952,993,960,906,935,909,883,866,837,797,789,777,747,749,704,730,739,700,720,705,703,714,691,744,707,716,720,721,738,733,733,710,732,753,789,712,712,752,714,741,722,706,739,744,718,0,0,0,0,0,0,0,0,0,0,0,0,0,0,0,0,0,0,0,0,0,0,0,0,0,0,0,0,0,0,0,0,0,0,0,0,0,0,0,0,0,0,0,0,0,0,0,0,0,0,0,0,0,0,0,0,0,0,0,0,0,0,0,0,0,469,470,472,447,450,514,581,650,715,763,772,759,716,702,690,711,667,686,674,741,653,641,596,613,601,589,549,537,554,540,528,516,504,492,480,475,476,478,469,477,472,480,483,478,488,494,470,485,476,473,481,487,485,481,504,487,473,472,486,480,470,478,478,485,475,1376,1402,1397,1479,1568,1826,2037,2118,2175,2183,2210,2162,2168,2161,2048,1985,1978,1943,1908,1901,1815,1838,1773,1746,1717,1695,1657,1617,1640,1567,1537,1499,1435,1434,1452,1385,1375,1465,1493,1484,1479,1495,1494,1524,1520,1537,1514,1527,1545,1540,1611,1605,1612,1586,1557,1519,1537,1531,1524,1557,1537,1532,1540,1588,1545,1695,1582,1619,1770,1992,2266,2481,2586,2635,2708,2618,2571,2524,2480,2504,2385,2421,2312,2274,2203,2145,2225,2325,2007,1965,1929,1876,1833,1817,1739,1681,1663,1778,1594,1581,1578,1601,1627,1769,1780,1749,1767,1766,1811,1773,1804,1822,1892,1797,1834,1807,1822,1805,1855,1830,1799,1811,1793,1805,1840,1818,1846,1827,1841,1805,689,691,694,679,699,805,873,969,1052,1091,1138,1064,1104,1030,1013,996,992,989,972,928,912,895,878,883,880,862,844,809,776,795,743,810,735,701,708,683,673,704,707,702,710,793,733,717,716,712,710,720,729,729,739,725,716,729,722,726,713,717,709,722,715,709,718,718,725,1051,1004,1039,1069,1092,1251,1382,1520,1642,1629,1653,1600,1575,1550,1598,1498,1470,1444,1418,1392,1366,1378,1316,1335,1264,1249,1268,1184,1158,1132,1106,1078,1082,1032,1017,1016,1019,1051,1040,1035,1053,1108,1074,1082,1068,1055,1059,1081,1069,1058,1065,1097,1129,1123,1093,1074,1059,1072,1060,1053,1053,1078,1065,1087,1047,468,469,471,472,475,515,584,652,721,769,778,765,753,740,728,715,703,691,678,666,653,641,669,656,603,591,579,566,554,541,529,516,504,491,479,475,476,477,471,475,467,472,514,499,511,529,487,518,499,508,503,478,484,504,502,481,508,487,478,498,490,517,502,502,485,1026,927,982,1034,1007,1210,1259,1395,1649,1509,1508,1484,1513,1447,1411,1387,1363,1339,1315,1290,1266,1242,1254,1247,1170,1260,1234,1097,1073,1049,1065,1001,977,955,939,938,941,944,947,948,954,1000,974,980,969,950,970,975,1001,973,1044,1052,1120,1008,993,982,971,962,961,966,967,965,959,997,957,956,941,984,950,1022,1173,1352,1464,1499,1569,1574,1548,1462,1469,1461,1431,1423,1436,1373,1338,1306,1295,1279,1232,1225,1177,1172,1126,1125,1059,1059,1008,1052,1001,987,959,973,986,1004,1015,971,967,1022,1003,994,1005,994,1009,1037,1008,1022,1026,1037,1039,1022,1039,1026,1045,1087,1027,1026,1035,1092,1042,1006,1494,1494,1534,1636,1957,2106,2314,2449,2466,2578,2485,2432,2392,2355,2326,2295,2226,2221,2139,2072,2079,1999,1963,1944,1904,1838,1798,1751,1708,1665,1611,1562,1546,1527,1515,1548,1525,1523,1620,1629,1626,1629,1635,1624,1639,1650,1631,1633,1639,1646,1711,1719,1672,1648,1659,1681,1692,1751,1754,1660,1688,1772,1770,1743,1685,779,838,784,787,822,911,1060,1153,1253,1328,1278,1259,1227,1207,1196,1176,1203,1279,1114,1094,1073,1053,1032,1013,992,993,951,923,956,889,869,876,846,808,794,877,845,795,809,818,814,824,820,821,825,838,820,833,825,835,828,822,818,827,830,833,822,828,817,822,820,837,840,838,824,1528,1528,1571,1676,1926,2151,2358,2547,2509,2555,2527,2500,2433,2396,2386,2329,2266,2262,2188,2153,2116,2072,2001,1985,1902,1880,1857,1816,1743,1700,1646,1597,1581,1540,1540,1553,1560,1548,1672,1665,1670,1681,1689,1704,1694,1700,1694,1692,1710,1710,1770,1772,1794,1754,1689,1706,1712,1731,1705,1700,1710,1682,1703,1715,1680,615,617,619,621,632,691,780,869,953,997,1003,1042,971,956,940,924,909,893,877,861,846,830,865,861,844,767,752,736,720,704,727,673,657,642,628,624,626,627,646,631,642,637,636,630,660,639,626,622,641,636,628,631,631,630,623,637,633,636,634,630,625,636,632,633,628,834,837,835,844,961,1011,1155,1277,1335,1354,1366,1350,1329,1308,1336,1288,1243,1222,1201,1179,1184,1157,1135,1118,1068,1073,1016,1031,1005,986,964,942,902,863,865,843,849,871,855,881,871,885,874,858,871,885,881,899,864,863,875,874,940,878,900,870,893,890,889,868,897,904,883,898,892,797,771,789,859,842,933,1085,1179,1242,1280,1303,1284,1222,1211,1188,1167,1185,1185,1126,1116,1085,1075,1054,1008,986,990,971,921,906,888,865,831,843,853,813,809,868,814,824,818,829,830,833,837,838,831,823,835,845,846,851,843,844,853,844,843,835,844,832,844,837,835,835,839,854,614,616,618,655,632,695,787,880,966,1007,1014,998,1036,966,949,933,917,901,884,868,852,836,820,848,787,771,755,738,722,706,690,673,657,641,625,623,625,627,614,607,609,609,614,613,617,618,621,625,623,633,647,632,628,640,632,629,631,637,653,666,666,668,677,659,662,327,328,329,330,331,351,398,444,491,534,546,537,528,520,511,502,493,485,476,467,459,450,441,433,424,415,406,398,389,380,372,363,354,345,337,332,333,334,317,319,322,331,318,324,320,331,331,318,330,320,324,322,319,325,320,320,322,327,319,323,319,325,322,326,322,867,886,883,867,958,1031,1153,1300,1394,1470,1413,1426,1342,1321,1352,1276,1280,1246,1236,1209,1190,1168,1121,1107,1133,1066,1054,1011,1012,974,949,917,926,899,908,880,874,893,891,894,905,932,912,902,906,913,913,908,981,951,937,965,1006,988,989,925,914,929,937,916,898,920,925,907,894,1726,1754,1821,2008,2417,2665,2886,3042,3030,2985,2941,2915,2929,2818,2779,2714,2634,2565,2636,2444,2418,2372,2306,2286,2194,2180,2130,2073,2000,1967,1886,1843,1835,1775,1809,1804,1807,1830,2075,2123,2088,2103,2124,2126,2117,2126,2125,2127,2145,2114,2126,2130,2145,2156,2160,2170,2163,2155,2171,2152,2170,2184,2199,2185,2174,434,435,437,438,440,475,539,657,693,740,745,733,721,709,701,665,668,665,653,641,629,617,584,620,607,570,599,542,514,518,506,494,485,473,455,441,442,459,450,454,453,456,457,462,454,463,455,457,453,456,452,469,462,464,460,469,463,461,462,465,462,469,449,460,455,1076,1123,1119,1091,1228,1310,1494,1650,1684,1714,1718,1731,1667,1608,1657,1609,1557,1568,1572,1535,1492,1424,1403,1355,1354,1375,1290,1243,1285,1250,1227,1165,1171,1110,1129,1119,1121,1142,1156,1127,1124,1127,1164,1164,1150,1154,1164,1172,1183,1213,1256,1191,1210,1216,1265,1176,1185,1229,1261,1292,1275,1290,1325,1259,1228,829,831,834,838,938,977,1190,1234,1332,1417,1354,1381,1301,1280,1268,1246,1272,1301,1181,1160,1138,1117,1095,1085,1099,1081,1066,980,975,968,949,895,897,878,844,895,843,885,847,853,859,888,868,862,860,870,861,866,859,859,860,868,864,869,877,883,883,876,875,878,876,916,901,909,906,1130,1039,1088,1168,1142,1372,1437,1565,1822,1681,1678,1650,1677,1598,1559,1533,1519,1480,1467,1437,1414,1384,1398,1373,1309,1397,1369,1231,1205,1161,1174,1126,1089,1108,1044,1051,1064,1057,1098,1107,1080,1093,1088,1131,1096,1112,1134,1192,1108,1165,1149,1161,1116,1176,1164,1108,1103,1103,1141,1179,1158,1181,1162,1167,1139,1565,1529,1668,1695,1930,2177,2292,2409,2456,2481,2432,2373,2365,2400,2317,2288,2194,2168,2098,2058,2094,1983,1983,1993,1874,1888,1843,1746,1721,1738,1681,1699,1589,1664,1563,1609,1569,1615,1743,1742,1742,1778,1801,1794,1767,1771,1788,1828,1795,1815,1820,1842,1823,1823,1817,1815,1805,1782,1812,1853,1802,1820,1818,1807,1784,1746,1756,1831,1989,2109,2513,2695,2640,2722,2848,2710,2780,2589,2625,2568,2462,2471,2374,2358,2302,2280,2293,2163,2239,2185,2091,2066,2037,1965,1919,1855,1810,1808,1774,1763,1758,1784,1772,2049,2030,2056,2050,2064,2100,2132,2144,2075,2116,2129,2081,2078,2146,2146,2171,2138,2149,2140,2176,2157,2134,2119,2122,2081,2090,2098,521,522,524,526,532,580,682,734,811,858,864,852,826,813,809,795,783,769,753,739,726,712,698,686,670,679,643,621,608,601,587,567,579,546,533,529,530,532,524,524,526,536,536,541,527,540,532,532,536,538,537,539,545,554,549,553,540,545,546,548,555,561,561,570,560,1144,1128,1144,1259,1256,1452,1671,1771,1791,1850,1917,1825,1783,1746,1729,1699,1645,1664,1612,1583,1554,1526,1502,1465,1487,1426,1374,1331,1301,1288,1257,1195,1216,1176,1173,1195,1163,1177,1196,1196,1200,1199,1199,1192,1207,1216,1204,1204,1212,1215,1284,1285,1237,1213,1228,1250,1259,1323,1317,1215,1259,1333,1342,1311,1252,755,758,812,849,792,967,990,1105,1294,1230,1234,1214,1249,1175,1156,1136,1116,1097,1077,1058,1038,1019,999,1024,960,1015,921,901,882,862,843,823,804,784,768,767,769,771,763,760,771,800,774,775,770,786,783,775,791,782,851,851,870,813,785,778,775,795,777,768,774,793,777,794,775,1558,1550,1619,1731,1943,2090,2338,2455,2434,2439,2489,2599,2406,2361,2356,2273,2206,2175,2102,2117,2044,2019,2030,1961,1877,1917,1812,1795,1746,1697,1631,1637,1609,1637,1556,1618,1541,1650,1697,1680,1687,1748,1718,1708,1689,1710,1716,1733,1758,1731,1739,1849,1723,1733,1884,1738,1725,1742,1741,1739,1741,1727,1764,1781,1757,242,243,244,244,245,248,290,324,358,393,406,400,393,387,380,374,367,361,354,348,341,335,328,322,315,309,302,296,289,283,276,270,263,257,250,246,247,247,236,236,235,239,238,238,238,251,243,240,241,245,256,263,259,263,239,235,240,241,238,245,240,239,240,240,240,881,883,882,892,937,1047,1190,1312,1402,1420,1421,1415,1393,1370,1374,1321,1304,1282,1259,1237,1215,1194,1172,1140,1114,1104,1068,1043,1023,1040,989,972,949,910,912,890,896,898,894,908,911,929,919,908,917,927,915,927,921,934,950,951,970,965,931,932,929,922,931,922,935,942,923,931,922,447,449,450,451,454,490,555,620,685,734,742,817,804,707,695,683,671,659,648,636,624,612,600,588,577,565,553,541,529,517,506,494,482,470,458,454,455,457,452,456,446,449,458,460,485,488,454,461,462,470,464,454,457,465,465,458,464,457,456,458,455,464,463,470,450,0,0,0,0,0,0,0,0,0,0,0,0,0,0,0,0,0,0,0,0,0,0,0,0,0,0,0,0,0,0,0,0,0,0,0,0,0,0,0,0,0,0,0,0,0,0,0,0,0,0,0,0,0,0,0,0,0,0,0,0,0,0,0,0,0,1746,1756,1831,1989,2109,2513,2695,2640,2722,2848,2710,2780,2589,2625,2568,2462,2471,2374,2358,2302,2280,2293,2163,2239,2185,2091,2066,2037,1965,1919,1855,1810,1808,1774,1763,1758,1784,1772,2062,2003,2017,2123,2032,2038,2047,2075,2084,2119,2057,2077,2163,2067,2083,2159,2101,2071,2063,2071,2165,2244,2261,2306,2294,2130,2126,1602,1624,1763,1838,2218,2714,3163,3157,3202,3230,3146,3079,3031,2944,2892,2809,2741,2693,2625,2539,2538,2404,2337,2326,2202,2232,2084,2000,1947,1865,1797,1730,1681,1646,1642,1708,1777,1682,1853,1903,1863,1884,1896,1884,1888,1902,1901,1905,1911,1888,1894,1905,1912,1916,1927,1937,1928,1919,1935,1924,1946,1961,1965,1948,1946,1051,1004,1039,1069,1092,1251,1382,1520,1642,1629,1653,1600,1575,1550,1598,1498,1470,1444,1418,1392,1366,1378,1316,1335,1264,1249,1268,1184,1158,1132,1106,1078,1082,1032,1017,1016,1019,1051,1040,1035,1053,1108,1074,1082,1068,1055,1059,1081,1069,1058,1065,1097,1129,1123,1093,1074,1059,1072,1060,1053,1053,1078,1065,1087,1047,742,761,747,749,775,851,982,1074,1157,1197,1216,1198,1181,1163,1125,1128,1093,1073,1142,1032,1064,1023,976,957,967,920,901,913,864,883,891,831,834,770,757,761,772,757,756,798,756,755,775,758,767,776,772,785,795,766,771,777,782,782,783,795,789,786,801,774,791,799,816,782,784,1638,1632,1722,1785,2022,2396,2490,2529,2638,2618,2609,2593,2476,2467,2515,2348,2371,2349,2390,2184,2215,2180,2062,2073,2006,1943,1925,1951,1817,1796,1780,1697,1725,1675,1647,1697,1701,1674,1888,1874,1846,1869,1864,1925,1932,1946,1914,2007,1905,1943,1933,1986,1946,2009,1988,1954,1934,1953,1969,1989,1966,1973,1941,1941,1904,947,935,947,948,985,1073,1211,1370,1470,1464,1501,1436,1451,1453,1368,1345,1322,1298,1434,1272,1231,1241,1186,1193,1177,1118,1110,1116,1122,1017,1014,1018,999,944,931,928,911,926,938,945,948,983,963,971,971,942,958,966,991,957,992,963,968,957,969,969,965,947,952,963,958,954,953,974,944,855,858,844,867,913,1052,1167,1279,1378,1398,1390,1375,1327,1331,1284,1262,1264,1241,1320,1197,1152,1130,1130,1087,1085,1063,1062,1029,996,973,966,929,935,885,884,868,868,875,879,862,863,870,891,911,885,889,891,912,921,892,907,890,891,916,924,891,908,911,902,925,913,915,932,951,925,344,345,346,347,348,370,418,466,514,558,569,560,551,542,533,524,515,506,497,488,479,470,461,452,443,434,426,417,408,399,390,381,372,363,354,349,350,351,346,345,334,343,340,342,356,354,358,347,342,339,334,341,343,343,361,345,348,343,349,347,365,349,338,340,338,988,969,972,1013,1089,1247,1397,1501,1592,1612,1596,1576,1522,1530,1472,1451,1464,1427,1468,1386,1321,1299,1309,1249,1247,1221,1191,1178,1153,1121,1116,1075,1066,1019,1026,1011,1000,1029,1035,1038,1036,1044,1050,1058,1052,1059,1052,1051,1062,1067,1141,1139,1154,1101,1053,1065,1068,1080,1063,1057,1073,1043,1059,1058,1045,546,548,549,551,533,657,672,795,840,890,926,912,852,839,825,811,797,825,810,756,742,743,753,738,724,672,658,664,678,627,636,636,622,603,549,545,546,534,541,531,534,541,559,526,531,533,537,555,559,555,550,676,555,541,674,557,549,556,561,559,556,552,570,568,575,1513,1528,1488,1571,1738,2041,2191,2314,2352,2322,2405,2313,2243,2207,2261,2186,2133,2115,2151,2036,1952,1954,1923,1980,1799,1735,1806,1754,1676,1630,1594,1545,1539,1489,1518,1546,1537,1493,1600,1595,1600,1610,1597,1614,1608,1610,1619,1702,1614,1624,1634,1631,1641,1657,1658,1648,1634,1640,1640,1646,1643,1651,1637,1656,1648,1173,1142,1145,1180,1319,1528,1785,1988,1977,2059,1940,1978,1914,1888,1850,1769,1735,1712,1716,1669,1599,1565,1546,1578,1582,1448,1403,1360,1344,1300,1363,1232,1218,1215,1150,1158,1163,1210,1210,1218,1218,1230,1248,1244,1231,1245,1225,1236,1245,1262,1267,1280,1276,1262,1243,1250,1260,1274,1264,1242,1266,1264,1235,1243,1241,1006,973,976,1007,1092,1213,1424,1498,1588,1603,1597,1578,1520,1528,1474,1453,1462,1436,1471,1389,1324,1298,1308,1252,1256,1218,1213,1181,1153,1118,1120,1079,1070,1020,1030,1015,1004,1011,1034,1032,1036,1034,1057,1099,1047,1076,1073,1088,1095,1085,1074,1080,1069,1093,1057,1060,1074,1067,1054,1087,1075,1091,1072,1078,1083,1154,1140,1144,1179,1404,1479,1750,1895,1938,1968,1911,1929,1834,1872,1827,1773,1742,1710,1716,1661,1599,1605,1520,1540,1465,1452,1407,1358,1343,1299,1267,1264,1196,1187,1148,1159,1162,1185,1192,1197,1198,1211,1204,1225,1221,1230,1220,1242,1231,1212,1226,1210,1219,1230,1226,1223,1234,1216,1221,1216,1227,1238,1233,1260,1243,1584,1556,1638,1828,1863,2121,2394,2539,2535,2501,2482,2573,2365,2458,2308,2404,2244,2205,2283,2125,2068,2138,2010,2038,1931,1871,1827,1837,1768,1824,1688,1711,1693,1673,1609,1640,1623,1596,1721,1772,1734,1754,1774,1765,1753,1773,1766,1770,1781,1758,1763,1780,1785,1792,1800,1804,1800,1793,1816,1807,1813,1843,1842,1834,1824,899,901,904,913,967,1114,1238,1360,1441,1469,1492,1444,1420,1397,1373,1350,1326,1303,1380,1256,1232,1214,1185,1162,1138,1115,1113,1098,1044,1021,1012,974,969,929,932,912,929,936,924,919,923,960,919,959,922,930,928,920,955,938,966,971,971,962,960,942,937,958,946,946,942,946,931,961,936,675,677,678,680,694,747,828,959,1018,1050,1039,1024,1055,994,978,963,948,933,918,903,897,882,866,843,828,813,798,794,771,756,742,727,713,699,687,683,705,686,692,677,670,675,694,703,691,705,713,722,702,735,741,725,702,730,715,718,743,710,741,817,779,795,785,745,747,1920,1952,2071,2394,2649,2889,3144,3224,3319,3232,3182,3259,3066,3121,3014,3064,2906,2873,2906,2776,2716,2617,2597,2550,2524,2373,2359,2297,2177,2118,2061,1966,1945,1980,1958,1976,1985,2002,2325,2337,2368,2387,2551,2385,2399,2438,2438,2453,2565,2569,2496,2493,2486,2491,2711,2583,2534,2516,2608,2535,2560,2573,2584,2576,2580,696,699,702,704,723,791,894,992,1073,1116,1121,1105,1091,1091,1056,1039,1028,1011,1082,974,951,941,925,899,881,864,847,874,812,795,792,760,743,725,712,708,723,711,717,699,705,713,697,733,709,717,720,721,745,721,722,713,718,738,743,716,710,731,714,724,720,713,724,747,722,981,986,989,1032,1068,1234,1369,1486,1617,1598,1620,1601,1546,1517,1495,1474,1498,1415,1489,1367,1342,1320,1288,1269,1267,1212,1211,1197,1136,1112,1099,1061,1084,1012,1011,998,1018,1022,1035,1034,1031,1047,1057,1040,1057,1061,1051,1047,1062,1060,1136,1136,1145,1100,1060,1054,1054,1058,1047,1053,1057,1051,1050,1069,1046,803,862,808,811,849,940,1064,1188,1274,1311,1312,1291,1270,1249,1228,1207,1186,1166,1235,1124,1103,1082,1061,1040,1019,999,978,1033,936,915,894,935,890,832,818,815,857,819,825,866,828,828,850,839,833,848,840,855,864,838,844,846,855,864,862,874,850,858,868,855,874,875,891,869,861,465,466,468,503,473,508,576,696,765,886,817,805,792,780,767,755,742,729,717,663,737,679,673,654,700,629,616,604,551,539,526,550,502,489,477,506,473,475,475,479,480,500,491,480,484,496,483,491,496,507,537,532,546,532,485,484,493,493,491,483,488,493,486,492,487,0,0,0,0,0,0,0,0,0,0,0,0,0,0,0,0,0,0,0,0,0,0,0,0,0,0,0,0,0,0,0,0,0,0,0,0,0,0,0,0,0,0,0,0,0,0,0,0,0,0,0,0,0,0,0,0,0,0,0,0,0,0,0,0,0,1235,1241,1247,1348,1403,1626,1828,1900,2021,1994,2015,2025,1959,1923,1918,1939,1836,1798,1843,1703,1673,1674,1603,1579,1543,1539,1501,1478,1417,1445,1367,1322,1343,1268,1269,1278,1275,1289,1319,1330,1352,1380,1395,1399,1398,1361,1365,1391,1346,1335,1351,1360,1355,1353,1388,1372,1351,1344,1356,1355,1349,1382,1389,1412,1372,666,668,670,673,685,742,841,940,1028,1091,1103,1105,1068,1050,1051,1015,997,980,962,945,927,926,892,874,856,839,821,804,786,768,751,733,715,698,683,676,678,680,669,671,674,674,690,672,686,692,679,691,683,682,690,690,686,692,699,692,703,695,691,689,691,698,701,699,702,1068,1100,1095,1121,1159,1302,1469,1622,1685,1717,1707,1706,1634,1651,1597,1571,1559,1531,1584,1463,1435,1445,1417,1389,1361,1300,1280,1320,1255,1191,1197,1155,1110,1105,1107,1090,1131,1078,1091,1134,1098,1101,1130,1113,1114,1124,1122,1124,1138,1114,1122,1129,1133,1136,1144,1144,1145,1141,1152,1143,1154,1167,1180,1161,1160,677,738,740,742,693,761,932,1118,1117,1220,1158,1140,1122,1150,1074,1111,1119,1032,1069,955,1038,1033,1016,998,970,917,870,852,794,777,821,802,740,705,750,761,746,691,723,722,739,739,748,768,751,774,762,767,786,762,762,758,758,775,759,745,759,754,746,756,761,764,749,770,763,1726,1734,1748,1881,2097,2415,2594,2724,2875,2933,2795,2763,2722,2650,2609,2610,2461,2425,2456,2331,2274,2228,2197,2141,2156,2108,2033,2079,1924,1894,1846,1786,1737,1757,1698,1743,1722,1762,2009,1984,1963,1973,1978,2022,2033,2042,2017,2114,2032,2026,2018,2084,2071,2119,2085,2061,2052,2077,2067,2069,2049,2052,2026,2022,1985,1034,1022,1039,1060,1152,1283,1537,1682,1775,1778,1783,1734,1726,1681,1619,1618,1567,1566,1547,1503,1435,1408,1390,1367,1311,1324,1266,1241,1229,1187,1125,1129,1078,1057,1049,1052,1036,1047,1050,1039,1066,1100,1083,1083,1054,1070,1075,1119,1084,1084,1107,1164,1177,1162,1167,1104,1080,1119,1091,1085,1083,1120,1090,1129,1077,1312,1316,1349,1414,1510,1704,2011,2115,2148,2106,2105,2194,2020,2084,2117,2190,1903,1869,1928,1802,1768,1757,1723,1689,1654,1600,1561,1562,1499,1466,1446,1456,1368,1393,1334,1390,1368,1340,1410,1402,1437,1513,1452,1466,1444,1487,1463,1451,1483,1456,1458,1460,1467,1471,1450,1437,1447,1452,1453,1468,1451,1476,1444,1458,1472,1784,1642,1697,1811,2017,2395,2509,2661,2768,2809,2772,2736,2654,2592,2580,2554,2405,2370,2535,2307,2222,2176,2166,2085,2196,2053,2000,1997,1899,1904,1797,1766,1694,1712,1648,1658,1691,1753,1879,1874,1872,1885,1895,1919,1916,1928,1908,1923,1938,1931,1938,1947,1937,1971,1945,1914,1935,1930,1922,1953,1940,1931,1937,1985,1942,0,0,0,0,0,0,0,0,0,0,0,0,0,0,0,0,0,0,0,0,0,0,0,0,0,0,0,0,0,0,0,0,0,0,0,0,0,0,0,0,0,0,0,0,0,0,0,0,0,0,0,0,0,0,0,0,0,0,0,0,0,0,0,0,0,631,633,625,627,640,703,797,902,978,1042,1037,1009,992,976,959,943,927,929,894,878,861,845,828,823,813,779,763,747,741,714,697,681,665,648,635,631,632,634,621,624,622,640,618,624,617,628,637,616,644,626,639,618,638,636,656,634,646,630,640,637,651,636,619,652,642,742,761,747,749,775,851,982,1074,1157,1197,1216,1198,1181,1163,1125,1128,1093,1073,1142,1032,1064,1023,976,957,967,920,901,913,864,883,891,831,834,770,757,761,772,757,756,798,756,755,775,758,767,776,772,785,795,766,771,777,782,782,783,795,789,786,801,774,791,799,816,782,784,1281,1357,1344,1347,1468,1630,1840,1971,2045,2171,2054,2010,2081,1968,1980,1881,1881,1804,1813,1753,1725,1689,1645,1713,1600,1560,1528,1607,1502,1431,1402,1367,1341,1315,1303,1300,1428,1307,1368,1345,1363,1353,1488,1373,1371,1361,1367,1387,1479,1483,1403,1412,1414,1411,1527,1434,1402,1414,1453,1415,1412,1402,1430,1425,1445,1603,1624,1674,1797,2056,2421,2678,2868,2905,2922,2815,2887,2717,2732,2622,2579,2533,2511,2452,2361,2385,2281,2242,2175,2120,2096,1999,1957,1894,1881,1822,1754,1680,1649,1683,1682,1647,1666,1845,1834,1849,1879,1856,1877,1866,1857,1882,1956,1879,1881,1915,1923,1923,1923,1937,1893,1859,1894,1885,1891,1872,1907,1901,1925,1879,1253,1279,1292,1358,1436,1706,1937,2061,2121,2090,2075,2096,2087,2099,1979,1963,1928,1879,1861,1808,1768,1708,1698,1651,1628,1578,1534,1518,1478,1405,1396,1365,1312,1340,1288,1301,1282,1293,1350,1352,1357,1375,1380,1381,1376,1387,1373,1401,1398,1389,1384,1413,1430,1421,1411,1392,1374,1387,1376,1369,1359,1390,1375,1389,1351,1435,1424,1450,1537,1638,1861,2033,2157,2251,2237,2238,2225,2152,2124,2151,2060,2041,1968,1991,1956,1931,1839,1771,1836,1738,1696,1664,1692,1587,1536,1533,1516,1452,1429,1418,1416,1529,1424,1493,1495,1509,1536,1517,1531,1511,1517,1507,1505,1533,1512,1541,1558,1543,1534,1522,1534,1531,1541,1540,1521,1545,1543,1511,1541,1526,669,671,673,675,674,740,863,963,1051,1064,1069,1080,1062,1045,1028,1010,1091,975,958,941,923,906,888,871,854,836,900,874,784,809,749,732,714,766,683,679,681,683,684,693,693,705,703,707,698,717,697,705,698,694,702,710,710,714,714,710,708,705,720,714,706,725,723,733,724,1511,1535,1531,1618,1762,1941,2261,2273,2385,2437,2304,2330,2320,2318,2218,2275,2151,2099,2123,2103,1990,1948,1930,1875,1902,1796,1757,1726,1724,1676,1664,1597,1531,1534,1519,1515,1568,1530,1648,1657,1660,1679,1650,1680,1710,1721,1735,1692,1678,1659,1674,1679,1715,1724,1781,1712,1718,1724,1713,1719,1729,1695,1667,1687,1664,791,774,756,799,831,947,978,1158,1180,1275,1222,1229,1245,1165,1145,1150,1163,1088,1068,1049,1030,1038,1061,1043,1029,977,914,895,876,857,837,818,860,780,784,762,764,766,770,767,778,814,798,802,794,769,787,807,806,785,812,816,832,815,820,804,781,786,777,787,776,787,782,820,769,1513,1628,1598,1697,1870,2165,2382,2594,2713,2713,2634,2625,2551,2518,2382,2437,2416,2327,2327,2259,2155,2171,2106,2048,1974,1889,1931,1849,1790,1782,1761,1727,1617,1605,1574,1573,1620,1589,1744,1719,1744,1758,1774,1811,1759,1777,1784,1796,1831,1789,1796,1834,1850,1843,1799,1787,1786,1803,1789,1797,1773,1810,1790,1804,1784,1460,1461,1494,1631,1822,2082,2282,2393,2531,2415,2393,2400,2358,2391,2274,2232,2190,2147,2131,2053,2011,1969,1951,1936,1900,1810,1807,1791,1722,1608,1600,1669,1521,1496,1488,1486,1483,1546,1613,1623,1575,1587,1623,1602,1611,1616,1609,1612,1679,1617,1633,1650,1663,1646,1633,1652,1648,1672,1704,1629,1635,1650,1705,1641,1612,1594,1561,1533,1745,1764,1942,2265,2275,2485,2438,2405,2426,2301,2313,2220,2239,2153,2186,2094,2141,1993,2013,1933,1878,1893,1800,1810,1729,1728,1676,1667,1601,1599,1565,1520,1512,1619,1560,1656,1635,1647,1660,1655,1677,1663,1666,1665,1685,1708,1680,1692,1675,1683,1712,1698,1690,1695,1705,1697,1723,1716,1709,1724,1739,1741,1459,1460,1493,1634,1776,2047,2279,2391,2451,2412,2391,2403,2356,2388,2324,2278,2216,2167,2103,2051,2009,1967,1925,1937,1880,1879,1770,1763,1735,1608,1608,1582,1519,1494,1539,1506,1481,1541,1596,1603,1614,1701,1631,1657,1621,1636,1620,1633,1646,1624,1632,1633,1629,1657,1662,1655,1624,1641,1651,1639,1628,1610,1639,1662,1613,1707,1806,1796,1924,2183,2431,2641,2846,2908,2888,2853,2860,2757,2745,2650,2607,2592,2539,2485,2409,2356,2307,2303,2235,2160,2071,2108,2056,1964,1911,1887,1890,1784,1772,1742,1736,1785,1754,2004,2053,2015,2026,2075,2027,2046,2047,2049,2047,2077,2061,2062,2048,2067,2073,2103,2095,2080,2076,2113,2047,2077,2081,2104,2085,2070,1479,1485,1501,1582,1735,1910,2105,2235,2295,2305,2362,2291,2217,2193,2194,2121,2101,2027,2049,2013,1980,1893,1845,1888,1808,1746,1736,1739,1656,1599,1597,1560,1495,1539,1466,1460,1526,1468,1547,1590,1554,1556,1610,1560,1577,1582,1581,1582,1609,1601,1596,1588,1595,1596,1629,1611,1610,1608,1642,1586,1609,1614,1637,1612,1609,755,757,756,761,783,849,931,1029,1117,1157,1160,1143,1127,1110,1093,1077,1071,1043,1027,1010,994,977,957,944,927,910,894,886,860,844,827,811,794,803,769,761,767,765,749,756,768,789,775,775,767,787,762,793,778,787,809,799,827,830,784,782,794,791,791,779,797,812,781,786,779,1610,1676,1700,1886,2173,2657,3139,3045,3151,3098,3104,2998,2984,2854,2804,2774,2702,2641,2602,2487,2453,2406,2297,2253,2217,2114,2082,1992,1955,1834,1868,1769,1691,1707,1618,1668,1657,1680,1835,1843,1863,1879,1881,1873,1863,1899,1863,1882,1899,1871,1878,1893,1910,1919,2062,2010,1907,1903,1903,1893,1886,1878,1893,1933,1897,1235,1304,1247,1291,1407,1554,1764,1876,1951,2078,2002,1939,2001,1879,1885,1819,1785,1747,1721,1690,1661,1631,1588,1669,1564,1520,1476,1556,1414,1400,1352,1321,1291,1268,1276,1254,1354,1259,1333,1300,1303,1306,1341,1364,1346,1349,1338,1342,1382,1365,1404,1365,1384,1390,1412,1352,1367,1398,1426,1429,1411,1425,1457,1491,1394,1503,1527,1519,1607,1786,1969,2247,2298,2372,2412,2328,2354,2344,2306,2240,2263,2173,2088,2112,2093,2011,1938,1909,1895,1893,1783,1748,1744,1728,1669,1681,1585,1524,1524,1506,1505,1586,1520,1647,1641,1600,1596,1646,1613,1624,1631,1629,1646,1701,1650,1656,1727,1671,1669,1704,1683,1678,1690,1726,1685,1669,1670,1729,1663,1669,1275,1275,1309,1352,1439,1690,1922,2041,2111,2125,2108,2106,2045,2103,1974,1977,1903,1896,1874,1786,1750,1715,1680,1654,1619,1583,1548,1534,1494,1432,1412,1370,1334,1308,1299,1297,1292,1318,1371,1366,1345,1361,1355,1399,1360,1375,1403,1403,1382,1402,1395,1399,1391,1413,1406,1389,1390,1381,1394,1415,1391,1404,1405,1401,1383,945,939,1057,963,1011,1183,1276,1511,1506,1542,1524,1499,1487,1536,1500,1414,1396,1389,1464,1316,1287,1267,1242,1218,1193,1168,1144,1110,1095,1145,1067,1021,1093,1075,959,959,987,964,996,998,997,1012,1013,1006,1014,1023,994,1013,1008,1000,1012,1021,1020,1014,1038,1021,1003,1001,1014,1014,994,1007,1008,1016,1003,671,673,676,688,696,763,863,963,1050,1093,1097,1079,1062,1045,1028,1010,993,976,958,941,924,907,902,885,855,837,820,919,786,768,751,744,727,699,685,681,693,685,700,686,690,694,697,690,698,694,701,694,695,692,710,702,705,698,698,705,698,710,697,703,708,710,700,695,695,1612,1682,1678,1794,1999,2264,2498,2666,2729,2789,2658,2696,2617,2574,2516,2518,2463,2453,2363,2322,2232,2226,2165,2123,2052,2010,1992,1912,1874,1811,1797,1729,1682,1658,1646,1645,1667,1657,1811,1802,1804,1822,1891,1851,1848,1858,1854,1853,1879,1868,1861,1870,1868,1872,1910,1895,1887,1882,1908,1870,1887,1910,1910,1897,1884,1214,1200,1189,1256,1354,1468,1715,1778,1882,1938,1876,1875,1846,1787,1854,1804,1728,1689,1656,1628,1627,1567,1546,1505,1512,1441,1414,1385,1354,1377,1315,1266,1195,1258,1207,1196,1286,1239,1294,1297,1269,1287,1282,1327,1290,1311,1319,1387,1303,1344,1330,1341,1311,1378,1340,1298,1297,1292,1319,1348,1342,1369,1345,1348,1314,1411,1412,1436,1546,1659,1972,2194,2320,2378,2326,2313,2314,2281,2315,2199,2204,2163,2086,2037,1980,1945,1905,1864,1873,1793,1752,1711,1692,1647,1555,1549,1516,1470,1445,1432,1431,1432,1454,1510,1522,1511,1540,1542,1526,1521,1555,1529,1545,1526,1565,1547,1563,1543,1563,1563,1594,1572,1560,1568,1577,1590,1600,1596,1594,1614,837,872,842,847,929,1032,1169,1246,1330,1369,1418,1344,1323,1301,1327,1257,1243,1214,1192,1170,1155,1127,1179,1083,1062,1040,1018,1034,974,989,931,909,921,866,917,877,879,913,876,890,881,898,911,900,899,909,892,896,889,891,889,907,902,908,997,962,905,899,904,889,886,886,908,904,885,1665,1713,1746,2079,2417,2914,3123,3319,3337,3223,3238,3170,3115,3046,3074,2965,2898,2871,2704,2633,2563,2499,2487,2359,2384,2215,2139,2075,2005,1955,1883,1805,1771,1724,1712,1717,1740,1759,2008,1994,1998,2009,2050,2050,2042,2047,2030,2045,2088,2065,2083,2085,2088,2091,2109,2049,2064,2083,2080,2083,2069,2061,2091,2133,2076,1360,1342,1356,1466,1581,1880,2085,2224,2285,2230,2206,2242,2186,2239,2124,2084,2045,1986,1951,1898,1883,1816,1798,1751,1729,1689,1650,1632,1594,1482,1497,1441,1420,1380,1367,1380,1355,1383,1442,1436,1441,1460,1435,1449,1450,1457,1470,1531,1460,1471,1504,1502,1502,1501,1501,1473,1459,1482,1480,1480,1472,1491,1484,1501,1478,1784,1769,1841,1972,2246,2530,2755,2837,2867,2851,2940,2833,2765,2761,2657,2637,2544,2533,2428,2521,2365,2353,2369,2234,2241,2161,2088,2045,2006,1982,1896,1865,1808,1827,1809,1758,1751,1828,2107,2103,2111,2178,2186,2187,2156,2131,2164,2217,2169,2202,2202,2231,2198,2191,2203,2195,2180,2161,2195,2246,2188,2200,2207,2201,2171,1649,1741,1758,1956,2350,2845,3062,3157,3310,3205,3118,3111,3058,3043,2981,2861,2800,2797,2681,2628,2520,2559,2458,2322,2353,2185,2111,2082,1980,1907,1857,1800,1798,1699,1690,1695,1713,1731,1958,2014,1963,1994,1998,1973,1998,2016,2001,2010,2006,1991,1998,1988,2008,2004,2022,2027,2012,2022,2053,1993,2022,2030,2037,2012,2003,671,673,676,688,696,763,863,963,1050,1093,1097,1079,1062,1045,1028,1010,993,976,958,941,924,907,902,885,855,837,820,919,786,768,751,744,727,699,685,681,693,685,684,693,686,695,697,703,695,709,694,700,689,691,694,705,703,698,702,699,697,693,709,707,694,698,694,702,694,0,0,0,0,0,0,0,0,0,0,0,0,0,0,0,0,0,0,0,0,0,0,0,0,0,0,0,0,0,0,0,0,0,0,0,0,0,0,0,0,0,0,0,0,0,0,0,0,0,0,0,0,0,0,0,0,0,0,0,0,0,0,0,0,0,1281,1357,1344,1347,1468,1630,1840,1971,2045,2171,2054,2010,2081,1968,1980,1881,1881,1804,1813,1753,1725,1689,1645,1713,1600,1560,1528,1607,1502,1431,1402,1367,1341,1315,1303,1300,1428,1307,1368,1345,1363,1353,1488,1373,1371,1361,1367,1387,1479,1483,1403,1412,1414,1411,1527,1434,1402,1414,1453,1415,1412,1402,1430,1425,1445,0,0,0,0,0,0,0,0,0,0,0,0,0,0,0,0,0,0,0,0,0,0,0,0,0,0,0,0,0,0,0,0,0,0,0,0,0,0,0,0,0,0,0,0,0,0,0,0,0,0,0,0,0,0,0,0,0,0,0,0,0,0,0,0,0,1077,1088,1148,1078,1220,1342,1472,1675,1765,1764,1818,1763,1717,1708,1642,1608,1591,1564,1542,1532,1473,1481,1419,1426,1340,1362,1323,1322,1265,1297,1214,1199,1176,1116,1105,1102,1104,1099,1160,1126,1123,1139,1122,1156,1136,1139,1165,1212,1142,1158,1204,1157,1159,1206,1167,1154,1146,1151,1191,1251,1273,1297,1291,1183,1175,321,322,323,324,325,386,423,423,497,500,509,529,523,518,512,507,462,455,448,441,432,427,417,413,402,394,429,422,414,407,400,387,388,369,359,326,347,368,341,342,343,342,346,342,349,349,347,350,348,348,350,351,348,351,350,348,354,351,348,346,351,354,355,354,354,353,354,355,339,340,386,448,493,538,594,579,572,564,556,551,517,534,526,517,509,500,492,484,475,467,458,450,442,433,425,398,391,381,355,362,358,342,370,350,347,350,351,350,348,356,355,350,354,350,351,358,357,356,355,365,357,356,358,358,362,360,363,357,357,358,815,797,799,823,901,971,1129,1283,1387,1419,1401,1387,1441,1360,1310,1348,1259,1247,1221,1182,1203,1158,1106,1101,1055,1051,1025,981,953,927,902,955,880,825,819,808,850,817,836,832,844,876,861,848,858,859,851,862,862,856,862,890,898,889,905,866,859,864,863,860,851,876,859,877,858,493,494,496,467,470,552,638,693,762,812,810,799,787,775,754,709,742,687,718,695,683,641,669,657,645,633,621,609,590,584,541,534,523,486,496,494,471,502,479,481,478,483,506,527,492,487,488,490,488,488,490,490,487,490,487,490,488,487,488,496,500,507,511,493,493,849,835,833,862,868,1011,1238,1328,1431,1463,1444,1430,1454,1402,1352,1326,1360,1306,1315,1236,1208,1241,1185,1139,1093,1101,1060,1050,989,963,937,942,909,848,854,843,847,851,879,853,862,875,867,874,878,890,874,875,888,875,904,898,901,889,870,868,878,876,881,863,871,883,869,882,877,901,904,949,885,995,1077,1185,1370,1479,1471,1590,1496,1417,1409,1373,1354,1331,1309,1286,1263,1241,1218,1196,1208,1117,1128,1103,1117,1061,1101,1013,998,974,931,927,924,917,920,935,922,915,923,957,984,944,959,957,985,977,975,984,967,958,993,993,954,983,969,968,1021,988,1004,1003,1037,997,740,729,731,740,795,834,985,1092,1185,1230,1182,1170,1143,1125,1111,1097,1083,1088,1037,1046,1028,994,977,948,947,911,894,903,862,884,851,779,791,755,735,734,757,792,776,753,777,759,759,767,813,775,753,763,786,781,772,769,770,782,764,781,768,771,767,762,761,766,770,790,772,497,487,511,472,475,533,600,662,724,765,764,753,743,732,724,713,701,689,679,708,696,645,634,622,611,600,588,599,566,555,543,515,534,490,479,504,476,477,462,472,475,494,472,469,468,471,470,467,469,471,470,472,470,471,473,476,475,475,473,477,476,494,492,494,491,571,589,610,627,625,664,795,855,934,968,965,943,928,948,911,897,874,870,847,818,824,874,794,782,768,743,741,740,725,693,673,665,647,630,595,614,615,592,610,617,611,618,622,622,619,626,616,618,618,616,614,623,625,630,624,619,625,616,628,634,619,631,614,623,623,946,968,951,963,1023,1122,1315,1445,1621,1546,1532,1487,1486,1463,1505,1418,1405,1381,1389,1350,1300,1331,1253,1253,1231,1219,1207,1118,1095,1084,1063,1030,998,962,963,946,962,951,988,954,960,960,983,996,971,977,977,991,1020,1007,1014,1020,1028,1015,1015,1012,1009,1034,1036,1039,1019,1020,1045,1073,1030,396,378,379,380,381,409,506,558,579,620,621,612,640,625,625,580,571,562,553,570,535,525,541,507,498,489,503,471,484,453,443,442,427,417,406,382,407,384,388,397,394,397,401,403,400,407,394,399,395,394,396,410,404,406,407,404,402,403,417,415,401,406,397,403,401,1093,1167,1085,1135,1207,1424,1655,1802,1958,1957,1939,1903,1891,1817,1794,1758,1722,1665,1686,1614,1545,1593,1505,1506,1424,1397,1369,1335,1304,1225,1249,1194,1119,1132,1108,1100,1137,1086,1122,1160,1121,1126,1151,1135,1136,1158,1145,1142,1173,1138,1142,1161,1156,1161,1146,1172,1167,1158,1187,1142,1158,1174,1195,1156,1149,1417,1437,1447,1511,1723,1873,2093,2210,2428,2287,2262,2228,2135,2196,2248,2095,2208,2094,2050,1993,1933,1973,1895,1822,1813,1790,1744,1703,1651,1641,1668,1576,1512,1437,1469,1522,1490,1435,1555,1573,1587,1616,1625,1608,1606,1612,1597,1612,1583,1573,1595,1596,1594,1593,1623,1609,1587,1585,1595,1581,1587,1601,1624,1627,1595,113,113,113,113,114,115,142,149,155,162,162,162,161,160,162,161,160,158,157,156,155,153,152,151,149,148,147,146,144,143,142,123,121,118,116,114,114,114,100,101,101,102,101,102,103,102,102,102,102,102,101,105,102,103,102,102,102,102,102,102,102,102,101,101,102,477,479,482,484,488,533,660,680,747,838,783,772,761,750,741,733,718,710,698,683,671,663,648,636,666,613,602,590,581,567,560,526,516,503,489,487,488,520,483,487,483,498,484,492,488,494,491,495,491,490,493,491,494,493,494,496,499,495,494,487,499,501,496,499,498,250,250,251,252,253,288,311,362,400,406,417,411,405,399,393,387,381,375,368,362,356,372,365,357,350,343,336,314,322,315,308,301,294,287,271,253,254,277,258,263,258,262,263,266,263,270,268,262,268,262,262,261,261,265,261,261,261,263,259,261,259,263,259,265,261,557,539,562,543,568,594,692,733,839,813,845,834,831,802,802,791,805,789,738,761,710,753,688,687,692,685,649,639,624,611,607,586,615,597,550,567,551,538,545,548,559,573,561,567,554,567,554,580,559,554,571,568,588,600,576,568,572,571,571,568,578,594,564,572,562,716,718,720,723,747,826,937,1033,1110,1184,1140,1124,1107,1091,1074,1057,1065,1024,1008,991,975,958,942,925,908,892,875,858,839,819,800,782,763,744,735,727,729,731,739,748,752,771,830,809,769,813,768,860,798,830,802,769,798,835,797,774,832,792,776,812,805,847,798,790,777,722,685,696,698,703,731,844,1006,1011,1159,1115,1027,1082,1127,1033,970,955,1001,1016,908,893,920,903,899,921,865,800,822,769,797,780,746,723,706,692,656,695,697,680,680,691,709,703,700,687,695,695,721,701,701,716,759,792,770,752,714,699,718,709,701,698,717,705,732,698,445,447,448,449,452,510,573,632,691,733,732,722,731,701,693,683,672,661,650,639,628,617,607,596,585,574,563,552,556,544,520,491,480,481,456,452,453,455,447,452,452,454,452,447,456,454,457,456,450,454,449,456,454,457,460,467,454,453,455,460,463,463,457,456,455,441,443,462,445,447,483,563,621,678,736,736,725,699,705,682,687,661,666,655,644,619,609,598,588,577,580,556,559,548,525,514,486,475,463,452,448,449,450,446,434,441,448,434,458,445,448,449,445,469,446,444,445,442,461,456,447,441,448,444,447,450,446,446,476,454,530,532,535,536,522,594,682,742,792,843,927,851,839,883,815,808,792,807,786,723,765,717,729,691,658,686,650,687,627,613,577,583,587,555,546,580,524,559,537,538,541,539,552,539,552,555,546,554,548,548,554,554,550,556,559,553,563,557,552,548,554,561,562,560,561,1240,1217,1188,1272,1385,1544,1755,1885,1950,1930,1950,1867,1885,1809,1795,1783,1736,1740,1769,1634,1684,1587,1601,1516,1517,1555,1427,1427,1368,1375,1336,1299,1307,1221,1230,1232,1200,1274,1319,1294,1305,1300,1309,1296,1330,1304,1299,1291,1309,1302,1309,1306,1307,1300,1294,1313,1303,1311,1302,1310,1303,1313,1302,1299,1294,657,629,645,644,665,743,841,961,1034,1047,1041,1048,1033,1017,1004,975,972,963,940,896,880,879,857,837,843,827,817,795,762,752,724,718,681,665,665,662,649,651,659,653,659,669,705,689,664,669,664,677,653,671,670,680,683,689,667,672,670,659,672,691,679,674,669,700,670,696,698,700,702,725,801,927,1027,1179,1144,1137,1120,1103,1086,1072,1055,1037,1020,1045,985,968,951,933,916,899,919,914,847,829,812,795,760,742,724,710,707,708,710,710,705,713,724,717,723,729,738,725,724,736,725,743,740,741,740,718,716,726,726,730,715,722,731,717,730,724,1144,1134,1153,1158,1293,1429,1774,1945,1817,1855,1837,1793,1779,1738,1727,1741,1668,1639,1654,1585,1558,1529,1500,1457,1467,1452,1486,1331,1315,1287,1273,1223,1197,1172,1150,1148,1163,1142,1200,1214,1216,1211,1204,1218,1234,1228,1219,1221,1268,1212,1230,1220,1231,1233,1245,1256,1243,1234,1252,1233,1222,1220,1215,1258,1196,716,718,720,723,747,826,937,1033,1110,1184,1140,1124,1107,1091,1074,1057,1065,1024,1008,991,975,958,942,925,908,892,875,858,839,819,800,782,763,744,735,727,729,731,736,732,737,745,746,745,748,744,747,758,751,752,758,766,766,763,775,767,759,775,763,758,770,766,766,774,762,1253,1377,1265,1317,1496,1614,1836,1951,1981,2100,1982,1982,1950,1891,1861,1942,1824,1782,1759,1710,1680,1650,1620,1607,1621,1529,1499,1484,1451,1403,1470,1338,1360,1300,1278,1271,1329,1303,1371,1373,1366,1380,1388,1379,1386,1406,1383,1392,1396,1407,1425,1413,1391,1403,1404,1426,1430,1405,1420,1405,1415,1411,1430,1407,1398,0,0,0,0,0,0,0,0,0,0,0,0,0,0,0,0,0,0,0,0,0,0,0,0,0,0,0,0,0,0,0,0,0,0,0,0,0,0,0,0,0,0,0,0,0,0,0,0,0,0,0,0,0,0,0,0,0,0,0,0,0,0,0,0,0 ]);
