n = 10;
D = [215,65,256,143,267,83,216,288,255,238 ];
q = 0;
prec = array2d(1..0,1..2,[]);
steps = 64;
l = 360;
r = 0;
which = [];
interval = array2d(1..0,1..2,[]);
T = array3d(1..11,1..11,0..64,[0,0,0,0,0,0,0,0,0,0,0,0,0,0,0,0,0,0,0,0,0,0,0,0,0,0,0,0,0,0,0,0,0,0,0,0,0,0,0,0,0,0,0,0,0,0,0,0,0,0,0,0,0,0,0,0,0,0,0,0,0,0,0,0,0,723,750,729,735,774,848,948,1059,1145,1198,1170,1153,1159,1129,1129,1102,1083,1054,1035,1030,1015,986,927,936,940,902,883,878,857,829,812,792,747,729,743,738,737,737,737,738,733,748,752,739,748,758,748,749,754,764,838,840,844,790,770,768,761,767,749,751,764,744,755,748,744,542,539,541,542,548,602,680,758,836,882,817,874,795,780,832,756,743,790,719,762,694,682,720,706,692,634,620,608,637,623,609,595,581,534,550,545,547,523,531,530,524,532,537,563,532,539,552,546,536,540,530,538,539,526,539,542,541,540,536,537,548,554,548,554,544,812,845,776,778,881,979,1063,1120,1184,1224,1260,1276,1187,1168,1150,1128,1091,1055,1075,1034,1043,1026,1053,1033,972,924,972,952,866,916,841,848,851,834,827,794,844,821,810,812,810,810,812,813,809,808,810,818,812,816,816,814,817,815,813,814,816,818,813,814,816,821,821,817,820,547,550,551,552,562,611,629,698,768,810,814,802,790,777,765,752,740,728,715,832,692,678,666,653,641,657,616,605,593,579,568,554,542,530,560,556,636,559,538,540,541,540,544,546,568,552,550,549,554,552,550,553,559,573,557,560,557,555,565,561,557,565,559,607,562,1515,1544,1581,1736,1937,2292,2363,2596,2578,2663,2599,2602,2488,2519,2366,2402,2261,2329,2250,2108,2101,2088,2059,1990,2047,1863,1859,1782,1792,1695,1643,1638,1607,1591,1567,1566,1576,1615,1696,1689,1706,1720,1738,1778,1720,1753,1751,1772,1787,1764,1755,1799,1807,1803,1767,1747,1754,1758,1738,1765,1747,1776,1749,1771,1748,223,224,224,225,226,235,266,297,329,360,375,369,363,357,351,345,339,333,327,321,315,309,303,297,291,285,279,273,267,261,255,249,243,237,231,226,227,228,215,210,211,215,215,215,213,216,212,216,215,215,212,215,213,211,212,216,216,216,213,211,213,215,213,213,212,327,328,329,330,365,350,396,465,504,541,550,543,535,516,520,513,506,498,491,484,476,469,423,454,407,414,463,396,388,379,371,362,354,345,337,332,333,334,318,318,320,322,320,327,322,339,319,323,319,323,323,322,332,346,320,327,324,322,322,322,325,325,327,326,322,1229,1307,1353,1457,1380,1609,1823,1933,2004,2068,1957,1998,1985,1997,1875,1859,1791,1829,1729,1755,1790,1665,1611,1565,1617,1543,1505,1464,1460,1433,1358,1355,1292,1254,1335,1302,1273,1358,1359,1372,1341,1357,1352,1401,1361,1389,1405,1465,1380,1413,1390,1404,1387,1436,1410,1378,1388,1368,1383,1418,1396,1422,1403,1417,1380,1271,1298,1307,1411,1543,1835,1979,2140,2266,2244,2217,2200,2122,2134,2014,1976,1924,1967,1905,1828,1812,1792,1799,1685,1763,1597,1582,1545,1538,1442,1433,1444,1368,1350,1325,1322,1330,1369,1369,1375,1386,1411,1396,1403,1388,1395,1383,1382,1399,1390,1420,1434,1429,1417,1399,1410,1410,1418,1418,1397,1420,1420,1389,1404,1399,0,0,0,0,0,0,0,0,0,0,0,0,0,0,0,0,0,0,0,0,0,0,0,0,0,0,0,0,0,0,0,0,0,0,0,0,0,0,0,0,0,0,0,0,0,0,0,0,0,0,0,0,0,0,0,0,0,0,0,0,0,0,0,0,0,876,856,870,879,900,953,1122,1275,1293,1331,1422,1307,1318,1376,1243,1284,1284,1180,1251,1168,1188,1153,1075,1127,1146,1075,990,1002,1042,950,933,947,923,881,829,826,828,892,840,836,841,850,852,851,854,851,853,864,858,859,864,873,873,870,883,876,868,884,873,867,881,876,876,884,873,0,0,0,0,0,0,0,0,0,0,0,0,0,0,0,0,0,0,0,0,0,0,0,0,0,0,0,0,0,0,0,0,0,0,0,0,0,0,0,0,0,0,0,0,0,0,0,0,0,0,0,0,0,0,0,0,0,0,0,0,0,0,0,0,0,1157,1112,1127,1161,1297,1391,1562,1778,1733,1762,1797,1725,1729,1757,1641,1674,1714,1558,1576,1532,1519,1447,1419,1431,1412,1369,1351,1353,1304,1283,1281,1188,1175,1158,1106,1104,1107,1143,1152,1141,1141,1150,1238,1223,1188,1202,1184,1269,1223,1199,1226,1175,1182,1228,1223,1182,1242,1204,1192,1249,1222,1266,1256,1279,1236,1433,1406,1433,1525,1570,1772,2056,2072,2115,2157,2204,2109,2138,2129,1984,2092,2123,1963,1923,1945,1933,1748,1786,1789,1786,1760,1612,1575,1643,1560,1529,1464,1511,1417,1385,1342,1343,1425,1449,1457,1473,1494,1511,1493,1483,1490,1478,1486,1473,1463,1478,1486,1489,1497,1510,1498,1473,1471,1484,1483,1480,1495,1499,1513,1484,1103,1093,1062,1135,1216,1312,1469,1618,1700,1736,1707,1694,1698,1626,1597,1584,1646,1516,1553,1505,1489,1408,1381,1409,1361,1323,1285,1290,1232,1227,1204,1153,1109,1123,1087,1071,1074,1124,1106,1151,1107,1122,1128,1118,1124,1136,1130,1133,1147,1123,1138,1129,1137,1138,1144,1149,1151,1147,1174,1121,1149,1156,1172,1147,1144,1108,1105,1094,1210,1196,1326,1495,1630,1721,1792,1761,1734,1706,1679,1651,1647,1590,1569,1542,1558,1478,1496,1433,1405,1378,1351,1335,1312,1268,1241,1214,1186,1159,1145,1122,1118,1121,1110,1147,1124,1136,1153,1139,1154,1144,1142,1143,1157,1185,1165,1165,1154,1161,1182,1168,1164,1160,1177,1168,1183,1179,1169,1185,1195,1196,529,510,510,511,515,561,668,718,786,846,840,825,817,796,786,769,794,750,732,714,707,690,677,663,650,665,651,611,623,583,570,560,542,531,544,514,517,517,509,516,516,537,518,529,514,522,515,510,518,514,509,525,518,522,521,530,524,527,534,526,523,536,516,525,521,594,568,643,648,608,632,754,798,882,927,977,917,902,887,871,857,881,828,852,829,822,769,754,772,745,743,695,714,666,704,664,642,632,610,579,575,576,604,591,599,580,596,601,601,608,621,596,595,601,611,603,593,594,602,599,600,600,599,590,593,587,598,596,596,579,650,659,613,682,651,737,859,862,1033,1032,1065,1036,993,970,929,949,941,948,921,888,836,882,837,849,774,807,774,810,741,775,725,691,675,658,644,641,661,644,647,645,654,671,669,661,656,660,659,671,667,667,668,707,724,709,699,667,662,675,669,663,653,677,660,682,656,994,997,1021,1017,1069,1187,1345,1482,1574,1626,1618,1592,1567,1541,1515,1489,1463,1438,1412,1438,1360,1334,1309,1325,1257,1231,1231,1180,1154,1128,1102,1077,1051,1029,1013,1009,1009,1014,1014,1037,1043,1022,1047,1026,1050,1059,1045,1034,1070,1029,1069,1053,1069,1054,1215,1169,1099,1061,1045,1040,1054,1034,1045,1093,1022,876,856,870,879,900,953,1122,1275,1293,1331,1422,1307,1318,1376,1243,1284,1284,1180,1251,1168,1188,1153,1075,1127,1146,1075,990,1002,1042,950,933,947,923,881,829,826,828,892,840,836,841,850,852,851,854,851,853,864,858,859,864,873,873,870,883,876,868,884,873,867,881,876,876,884,873,454,455,457,458,461,527,562,655,693,741,822,738,726,715,728,691,679,667,655,643,631,646,635,623,611,572,560,576,536,524,513,501,489,477,465,461,462,463,454,444,453,461,444,468,453,456,458,454,477,455,453,455,452,471,465,457,452,458,454,458,461,457,456,485,463,1138,1090,1115,1154,1237,1388,1701,1653,1781,1841,1753,1865,1738,1708,1681,1654,1617,1651,1562,1539,1495,1508,1479,1429,1404,1372,1346,1307,1279,1258,1224,1195,1163,1179,1129,1128,1140,1157,1144,1154,1161,1179,1212,1202,1175,1216,1173,1246,1203,1237,1203,1185,1213,1249,1214,1195,1233,1213,1204,1223,1222,1250,1211,1210,1202,0,0,0,0,0,0,0,0,0,0,0,0,0,0,0,0,0,0,0,0,0,0,0,0,0,0,0,0,0,0,0,0,0,0,0,0,0,0,0,0,0,0,0,0,0,0,0,0,0,0,0,0,0,0,0,0,0,0,0,0,0,0,0,0,0,501,490,491,493,510,555,572,703,745,695,704,693,739,726,848,702,690,677,674,663,652,641,630,619,608,597,586,555,565,531,519,506,494,482,470,495,496,497,475,472,476,479,508,473,479,496,484,481,481,478,477,483,495,503,668,593,521,500,486,480,485,478,488,483,478,385,386,388,389,390,416,471,525,580,628,638,628,618,608,598,588,577,567,557,547,537,527,517,507,497,487,477,466,456,446,436,426,416,406,396,391,392,393,380,373,385,374,377,379,374,378,378,430,467,388,397,393,409,392,412,397,380,396,392,392,387,384,391,391,387,1817,1865,1976,2245,2663,2802,3069,3181,3174,3170,3186,3172,3023,3010,2958,2874,2768,2796,2694,2685,2584,2560,2476,2472,2384,2393,2334,2225,2148,2121,2035,1993,1930,1904,1982,1878,1902,1934,2233,2248,2294,2312,2307,2318,2344,2362,2355,2371,2402,2398,2437,2423,2425,2455,2491,2505,2485,2534,2544,2548,2548,2575,2575,2593,2621,607,609,611,613,625,687,778,870,955,999,1003,1087,971,955,939,923,907,891,875,859,843,827,810,794,778,762,746,730,714,698,682,666,650,695,620,616,618,620,617,623,626,648,638,628,629,641,626,641,644,652,697,689,712,689,637,631,645,638,641,628,639,646,632,641,634,725,702,716,731,751,819,948,1008,1103,1164,1137,1170,1128,1110,1091,1053,1054,1019,1017,983,969,962,936,919,902,885,869,837,835,818,802,777,795,728,726,735,736,738,735,723,725,730,782,759,762,761,747,781,755,743,759,729,735,752,746,737,758,733,729,751,749,771,758,759,751,1705,1612,1752,1874,2016,2286,2422,2623,2594,2634,2607,2651,2561,2556,2445,2430,2435,2403,2278,2224,2312,2126,2170,2091,2003,2012,1887,1923,1856,1822,1812,1772,1683,1758,1712,1670,1657,1732,1856,1877,1897,1905,1903,1899,1894,1925,1892,1902,1940,1893,1910,1915,1930,1942,2093,2045,1941,1920,1924,1916,1909,1899,1910,1979,1912,1719,1736,1794,1974,2189,2420,2633,2787,2759,2783,2793,2770,2634,2627,2594,2502,2476,2638,2417,2314,2267,2275,2166,2180,2099,2109,2029,1964,1909,1885,1816,1774,1749,1769,1757,1724,1698,1715,1889,1900,1907,1935,1964,1986,1954,1983,1978,1999,2022,2025,2047,2090,2053,2075,2067,2100,2121,2139,2160,2126,2150,2190,2198,2205,2191,454,455,457,458,461,527,562,655,693,741,822,738,726,715,728,691,679,667,655,643,631,646,635,623,611,572,560,576,536,524,513,501,489,477,465,461,462,463,454,444,453,461,444,468,453,456,458,454,477,455,453,455,452,471,465,457,452,458,454,458,461,457,456,485,463,535,537,538,540,546,625,702,752,830,877,882,868,854,840,826,812,798,784,770,756,769,728,741,700,714,672,686,673,681,616,602,588,574,597,547,543,545,546,548,541,550,569,557,556,550,557,556,562,568,554,565,594,616,596,590,570,550,577,559,552,549,577,564,577,554,1200,1198,1199,1248,1312,1504,1702,1861,1906,1933,1919,1886,1872,1825,1759,1836,1748,1713,1678,1655,1582,1588,1551,1520,1490,1463,1474,1401,1366,1413,1309,1285,1270,1330,1210,1251,1206,1218,1282,1275,1266,1282,1274,1310,1280,1291,1311,1368,1291,1322,1322,1325,1307,1329,1333,1298,1290,1303,1317,1332,1329,1343,1334,1338,1314,338,339,340,341,342,362,408,454,501,544,555,546,538,529,520,512,503,494,486,477,469,460,451,443,434,425,417,408,400,391,382,374,365,356,348,343,344,345,334,335,335,337,337,337,338,339,337,334,337,335,335,340,340,339,335,338,340,339,342,339,338,342,334,338,339,0,0,0,0,0,0,0,0,0,0,0,0,0,0,0,0,0,0,0,0,0,0,0,0,0,0,0,0,0,0,0,0,0,0,0,0,0,0,0,0,0,0,0,0,0,0,0,0,0,0,0,0,0,0,0,0,0,0,0,0,0,0,0,0,0,312,317,318,319,320,337,381,425,521,511,524,513,505,552,491,480,472,515,506,450,438,433,425,417,405,400,388,384,372,367,359,347,342,334,326,321,322,323,307,310,309,320,379,347,328,365,327,387,350,384,349,322,331,346,333,322,364,347,324,349,340,376,350,339,333,1459,1536,1544,1660,1947,2429,2788,2949,3096,3076,2993,2961,2876,2828,2762,2840,2629,2589,2522,2429,2403,2313,2229,2171,2064,2046,1963,1901,1834,1764,1697,1685,1591,1536,1534,1528,1519,1537,1657,1718,1665,1688,1709,1686,1695,1719,1692,1700,1716,1686,1696,1713,1717,1728,1808,1787,1729,1717,1741,1688,1708,1720,1759,1718,1700,688,690,693,695,717,791,897,1002,1091,1133,1134,1115,1097,1112,1061,1131,1025,1007,988,970,952,934,916,898,880,861,886,825,807,859,771,753,734,821,702,699,701,703,724,701,703,703,703,706,712,713,709,710,712,709,714,715,712,715,718,713,720,716,714,710,716,724,724,725,724,741,721,740,799,750,827,936,1073,1134,1176,1178,1159,1140,1143,1103,1084,1086,1067,1048,1009,1020,972,953,1012,916,914,878,860,866,857,819,800,766,747,734,730,732,734,735,735,726,745,738,741,746,761,743,735,740,752,747,737,739,749,746,744,741,751,735,741,737,741,745,741,733,1736,1825,1816,1916,2128,2406,2586,2689,2726,2705,2756,2721,2666,2671,2492,2551,2453,2424,2446,2342,2288,2259,2209,2124,2188,2046,2081,1990,1947,2031,1929,1836,1804,1809,1719,1792,1766,1780,2038,2096,2070,2102,2126,2118,2130,2103,2095,2126,2098,2064,2094,2088,2094,2092,2126,2119,2094,2090,2131,2073,2095,2111,2137,2133,2094,1573,1627,1648,1783,2094,2478,2700,2887,2816,2837,2779,2765,2714,2719,2685,2540,2520,2491,2468,2356,2320,2303,2227,2228,2110,2103,2034,1994,1923,1853,1784,1772,1682,1623,1621,1660,1635,1654,1790,1816,1810,1825,1857,1840,1827,1856,1841,1845,1856,1836,1832,1865,1850,1864,1877,1882,1878,1863,1868,1884,1881,1925,1918,1918,1903,535,537,538,540,546,625,702,752,830,877,882,868,854,840,826,812,798,784,770,756,769,728,741,700,714,672,686,673,681,616,602,588,574,597,547,543,545,546,548,541,550,569,557,556,550,557,556,562,568,554,565,594,616,596,590,570,550,577,559,552,549,577,564,577,554,417,404,419,420,422,437,513,567,632,657,701,656,645,668,645,629,623,593,582,601,590,579,558,547,536,521,510,504,493,466,456,460,449,438,423,423,410,425,410,412,417,423,422,434,425,440,437,424,445,426,424,429,426,439,423,422,431,431,427,423,425,433,419,433,422,1023,1008,1029,1024,1105,1282,1453,1571,1605,1656,1690,1649,1561,1567,1557,1525,1483,1504,1449,1426,1391,1380,1356,1324,1303,1254,1259,1201,1173,1130,1129,1077,1095,1054,1054,1060,1041,1054,1081,1072,1068,1072,1069,1075,1145,1139,1077,1107,1095,1076,1077,1123,1134,1146,1142,1150,1131,1145,1149,1122,1104,1110,1083,1085,1081,376,377,378,379,380,404,456,508,559,605,617,607,598,588,578,569,559,549,540,530,521,511,501,492,482,472,463,453,444,434,424,415,405,395,386,381,382,383,373,364,371,377,364,386,372,373,376,372,395,374,372,373,371,389,384,376,371,377,373,378,380,376,374,402,381,434,435,437,438,440,475,539,657,693,740,745,733,721,709,701,665,668,665,653,641,629,617,584,620,607,570,599,542,514,518,506,494,485,473,455,441,442,459,441,441,446,449,455,454,460,447,449,456,452,448,456,452,448,448,463,456,453,454,453,452,460,455,454,458,453,0,0,0,0,0,0,0,0,0,0,0,0,0,0,0,0,0,0,0,0,0,0,0,0,0,0,0,0,0,0,0,0,0,0,0,0,0,0,0,0,0,0,0,0,0,0,0,0,0,0,0,0,0,0,0,0,0,0,0,0,0,0,0,0,0,1673,1700,1736,1963,2205,2409,2609,2776,2773,2788,2844,2725,2717,2671,2624,2566,2513,2455,2413,2340,2292,2252,2209,2186,2103,2043,1995,1975,1913,1843,1810,1769,1690,1696,1716,1703,1676,1735,1895,1886,1887,1907,1962,1935,1933,1943,1940,1939,1968,1945,1963,1971,1971,1963,1987,1981,1976,1972,1995,1957,1978,1998,1998,1986,1972,521,522,524,526,532,580,682,734,811,858,864,852,826,813,809,795,783,769,753,739,726,712,698,686,670,679,643,621,608,601,587,567,579,546,533,529,530,532,532,534,531,538,537,538,537,545,533,537,541,533,534,538,536,537,538,541,537,540,542,541,536,547,534,544,537,448,449,451,452,454,490,554,619,683,731,740,815,801,705,693,681,670,658,646,635,623,611,599,588,576,564,553,541,529,518,506,494,482,471,459,455,456,457,442,447,447,440,444,442,447,448,445,441,446,442,454,444,453,441,447,447,445,446,447,444,440,446,439,447,442,1558,1550,1619,1731,1943,2090,2338,2455,2434,2439,2489,2599,2406,2361,2356,2273,2206,2175,2102,2117,2044,2019,2030,1961,1877,1917,1812,1795,1746,1697,1631,1637,1609,1637,1556,1618,1541,1650,1695,1688,1694,1771,1708,1720,1701,1720,1724,1726,1751,1727,1739,1734,1719,1743,1766,1738,1732,1742,1740,1739,1746,1738,1757,1778,1750,1442,1442,1478,1568,1778,2021,2231,2342,2387,2403,2408,2356,2321,2282,2255,2201,2156,2106,2072,2006,2083,1935,1901,1841,1810,1758,1741,1695,1653,1613,1561,1513,1494,1475,1463,1458,1473,1470,1549,1510,1520,1517,1539,1548,1534,1542,1536,1552,1582,1575,1571,1579,1583,1600,1588,1594,1571,1601,1609,1608,1611,1597,1628,1641,1634,417,404,419,420,422,437,513,567,632,657,701,656,645,668,645,629,623,593,582,601,590,579,558,547,536,521,510,504,493,466,456,460,449,438,423,423,410,425,410,412,417,423,422,434,425,440,437,424,445,426,424,429,426,439,423,422,431,431,427,423,425,433,419,433,422,1650,1645,1625,1808,2004,2274,2384,2706,2572,2657,2596,2532,2500,2485,2419,2359,2342,2272,2227,2245,2174,2100,2083,2034,2000,1930,1915,1939,1767,1718,1685,1651,1698,1553,1546,1562,1587,1586,1696,1687,1688,1697,1693,1712,1695,1694,1719,1787,1701,1718,1723,1733,1731,1734,1757,1742,1724,1729,1724,1746,1738,1736,1742,1748,1741,1045,1035,1038,1058,1112,1262,1406,1597,1643,1684,1761,1650,1623,1617,1613,1543,1516,1489,1463,1508,1427,1383,1356,1388,1360,1276,1249,1222,1211,1184,1192,1130,1103,1066,1064,1047,1064,1067,1059,1104,1066,1065,1082,1067,1080,1089,1085,1085,1105,1078,1085,1089,1091,1097,1099,1106,1105,1100,1111,1083,1108,1118,1135,1103,1105,1786,1786,1919,2026,2339,2622,2816,3001,2986,3083,2996,2926,2887,2865,2849,2934,2704,2784,2621,2588,2583,2432,2421,2301,2312,2237,2246,2154,2056,2000,1954,1897,1843,1811,1799,1834,1824,1841,2141,2140,2150,2198,2163,2167,2163,2174,2180,2282,2167,2163,2207,2201,2254,2192,2206,2190,2183,2193,2160,2167,2178,2200,2190,2201,2163,1645,1632,1663,1868,2190,2567,2911,3040,3136,3116,3133,3007,2942,2923,2814,2789,2717,2651,2608,2495,2455,2407,2316,2279,2199,2107,2030,1971,1939,1843,1818,1709,1701,1637,1625,1664,1649,1665,1827,1816,1828,1857,1826,1840,1835,1842,1865,1931,1859,1858,1881,1903,1907,1907,1916,1877,1845,1874,1869,1871,1850,1888,1877,1905,1863,1608,1634,1623,1724,2002,2138,2611,2541,2648,2640,2771,2556,2636,2611,2422,2458,2529,2289,2245,2328,2165,2117,2069,2021,2062,2063,1962,1868,1780,1815,1779,1637,1598,1567,1595,1596,1602,1684,1795,1755,1759,1790,1795,1805,1795,1831,1813,1834,1808,1789,1824,1781,1822,1808,1807,1792,1839,1795,1776,1803,1818,1830,1820,1818,1802,0,0,0,0,0,0,0,0,0,0,0,0,0,0,0,0,0,0,0,0,0,0,0,0,0,0,0,0,0,0,0,0,0,0,0,0,0,0,0,0,0,0,0,0,0,0,0,0,0,0,0,0,0,0,0,0,0,0,0,0,0,0,0,0,0,1374,1386,1371,1463,1633,1733,2039,2177,2278,2292,2313,2263,2146,2136,2177,2041,2026,2041,1982,2008,1930,1880,1835,1760,1741,1732,1664,1637,1592,1481,1474,1413,1380,1369,1385,1376,1408,1347,1411,1464,1418,1433,1445,1438,1434,1449,1440,1441,1461,1432,1435,1456,1452,1464,1464,1476,1467,1460,1487,1450,1467,1488,1494,1473,1461,1301,1312,1340,1384,1522,1704,1945,2193,2185,2278,2223,2165,2139,2130,2070,2016,2005,1977,1901,1957,1834,1792,1782,1685,1710,1646,1646,1587,1529,1457,1430,1338,1369,1302,1294,1309,1333,1332,1361,1358,1364,1388,1381,1387,1389,1401,1384,1395,1392,1388,1391,1419,1443,1430,1411,1402,1384,1395,1386,1381,1372,1401,1388,1405,1366,993,920,915,932,1060,1096,1242,1377,1443,1493,1487,1455,1434,1451,1391,1434,1404,1384,1306,1295,1274,1242,1209,1185,1161,1157,1135,1160,1056,1109,1050,1026,1008,989,974,971,985,936,983,975,981,988,980,988,986,990,997,983,993,984,996,988,994,993,988,1000,985,998,992,991,991,1007,989,997,986,243,244,244,245,246,256,289,323,356,389,403,397,390,384,378,371,365,359,352,346,340,333,327,320,314,308,301,295,289,286,276,270,267,257,251,246,247,248,236,243,239,245,246,249,243,245,239,245,241,240,240,249,247,253,253,250,247,246,254,247,246,250,240,247,241,1650,1645,1625,1808,2004,2274,2384,2706,2572,2657,2596,2532,2500,2485,2419,2359,2342,2272,2227,2245,2174,2100,2083,2034,2000,1930,1915,1939,1767,1718,1685,1651,1698,1553,1546,1562,1587,1586,1696,1687,1688,1697,1693,1712,1695,1694,1719,1787,1701,1718,1723,1733,1731,1734,1757,1742,1724,1729,1724,1746,1738,1736,1742,1748,1741,410,412,413,414,416,414,502,559,616,664,664,662,643,632,631,620,573,599,589,578,568,557,547,527,526,515,505,494,484,473,463,452,442,431,421,416,418,419,417,410,408,410,408,409,410,415,411,471,411,409,412,414,417,409,417,416,414,416,410,414,416,420,418,423,420,539,541,543,544,552,613,679,761,841,905,898,883,869,858,832,804,802,790,745,731,762,747,733,718,663,650,674,623,647,596,618,604,570,564,549,548,549,551,546,550,546,550,559,561,570,568,554,560,560,565,556,557,556,567,560,556,560,555,554,556,555,556,550,552,546,656,658,660,662,678,744,842,939,1026,1069,1072,1055,1038,1021,1004,987,970,953,936,920,903,886,869,852,835,818,801,784,767,751,734,717,700,683,704,665,702,669,694,675,684,676,680,684,733,710,676,675,699,698,691,678,680,690,679,690,686,689,680,678,672,685,690,694,668,952,951,966,915,1031,1091,1225,1381,1516,1452,1471,1429,1406,1404,1382,1421,1350,1290,1282,1279,1255,1260,1174,1182,1159,1174,1052,1114,1103,1078,975,1004,916,946,953,940,981,968,960,980,959,982,983,963,1022,971,975,993,1016,999,955,976,1016,1009,1030,968,977,1003,1046,971,974,982,983,962,957,637,613,642,642,656,691,813,906,991,1036,1039,1024,973,1077,973,957,941,893,877,970,845,862,844,798,782,794,778,761,718,729,713,697,721,664,650,646,648,650,640,653,640,670,644,662,647,672,651,662,653,646,660,657,668,666,664,662,664,659,676,660,660,676,672,684,679,1404,1370,1391,1599,1725,1951,2115,2363,2316,2359,2362,2199,2193,2165,2167,2069,1996,1986,2029,1979,1874,1912,1840,1831,1756,1662,1673,1615,1556,1550,1521,1431,1389,1399,1331,1368,1405,1409,1455,1518,1448,1464,1488,1487,1507,1505,1559,1539,1559,1488,1476,1489,1520,1468,1536,1589,1478,1528,1497,1525,1496,1491,1566,1525,1512,0,0,0,0,0,0,0,0,0,0,0,0,0,0,0,0,0,0,0,0,0,0,0,0,0,0,0,0,0,0,0,0,0,0,0,0,0,0,0,0,0,0,0,0,0,0,0,0,0,0,0,0,0,0,0,0,0,0,0,0,0,0,0,0,0,129,130,130,131,131,134,150,167,184,200,212,209,206,203,199,196,193,190,186,183,180,176,173,170,167,163,160,157,154,150,147,144,141,137,134,131,132,132,120,118,121,125,124,123,120,120,123,126,124,123,125,136,141,135,135,125,120,126,121,121,118,125,123,128,120,1101,1054,1104,1134,1221,1376,1459,1667,1758,1755,1726,1731,1671,1696,1608,1596,1570,1520,1534,1430,1409,1432,1435,1412,1359,1325,1268,1271,1283,1178,1174,1174,1155,1129,1067,1066,1135,1072,1114,1131,1120,1147,1146,1136,1150,1167,1129,1157,1135,1128,1151,1150,1149,1149,1185,1159,1153,1141,1153,1137,1134,1151,1154,1161,1154,1167,1135,1141,1204,1307,1513,1708,1853,1879,1932,1949,1853,1819,1771,1772,1722,1685,1686,1669,1647,1593,1590,1522,1513,1478,1408,1388,1337,1323,1290,1272,1220,1150,1162,1133,1168,1180,1162,1190,1179,1188,1195,1181,1208,1196,1204,1203,1199,1228,1205,1204,1206,1206,1227,1222,1218,1205,1216,1213,1214,1220,1220,1214,1252,1228,410,412,413,414,416,414,502,559,616,664,664,662,643,632,631,620,573,599,589,578,568,557,547,527,526,515,505,494,484,473,463,452,442,431,421,416,418,419,417,410,408,410,408,409,410,415,411,471,411,409,412,414,417,409,417,416,414,416,410,414,416,420,418,423,420,255,256,256,257,258,269,304,339,374,409,422,416,409,402,396,389,382,376,369,362,356,349,343,336,329,323,316,309,303,296,289,283,276,270,263,259,259,260,251,249,247,268,253,253,245,249,251,258,257,257,262,253,257,256,282,253,250,262,249,255,251,245,261,250,247,688,682,697,720,745,790,910,1019,1088,1143,1129,1115,1110,1091,1073,1005,1025,1013,1017,974,959,965,947,866,878,868,872,838,808,791,761,762,741,721,705,711,694,708,700,713,712,710,720,732,724,715,712,720,715,714,716,720,730,740,730,740,723,730,731,716,721,713,728,731,710,527,529,531,532,538,584,660,736,811,858,865,851,837,824,810,797,783,769,756,742,729,715,702,688,674,661,647,634,620,606,593,579,566,552,539,535,537,538,533,542,541,552,554,553,555,557,538,556,545,541,549,556,555,557,579,559,544,540,554,550,538,548,544,550,540,787,739,824,819,800,970,968,1140,1227,1344,1268,1321,1285,1206,1191,1114,1153,1166,1115,1096,1077,997,1039,959,1015,982,943,981,955,898,823,891,875,855,835,799,834,813,828,801,810,823,815,821,827,837,823,822,836,825,855,851,854,839,816,815,827,825,828,810,820,830,815,828,823,508,510,511,513,518,561,633,671,778,825,831,818,807,761,784,766,753,740,727,714,705,690,675,665,652,636,595,612,597,584,571,560,519,533,520,516,517,493,501,507,507,499,508,513,529,509,506,532,517,514,509,513,508,514,515,519,511,509,510,510,509,513,513,518,508,1497,1455,1533,1630,1830,2211,2381,2470,2659,2567,2544,2483,2519,2402,2361,2382,2327,2235,2249,2155,2061,2040,2051,1934,1923,1870,1859,1745,1732,1666,1699,1593,1556,1518,1543,1534,1546,1503,1605,1602,1600,1624,1643,1604,1609,1643,1674,1680,1706,1685,1698,1842,1721,1716,1859,1743,1753,1734,1766,1759,1774,1767,1796,1830,1808,189,190,190,191,192,198,225,251,278,304,319,313,308,303,298,293,288,283,278,273,268,262,257,252,247,242,237,232,227,222,216,211,206,201,196,192,193,193,185,187,181,181,186,181,196,184,186,192,181,182,181,181,185,182,182,185,180,186,192,184,182,186,182,182,181,0,0,0,0,0,0,0,0,0,0,0,0,0,0,0,0,0,0,0,0,0,0,0,0,0,0,0,0,0,0,0,0,0,0,0,0,0,0,0,0,0,0,0,0,0,0,0,0,0,0,0,0,0,0,0,0,0,0,0,0,0,0,0,0,0,1266,1196,1204,1248,1359,1527,1723,1949,1912,1986,1934,1960,1901,1849,1810,1800,1783,1862,1764,1670,1652,1624,1634,1561,1507,1537,1486,1462,1429,1384,1356,1260,1305,1227,1241,1240,1216,1245,1313,1276,1281,1309,1277,1292,1277,1313,1307,1307,1296,1292,1312,1292,1332,1299,1305,1300,1323,1303,1291,1296,1312,1306,1309,1307,1300,1260,1240,1316,1405,1506,1759,1959,2035,2214,2146,2119,2078,2125,2043,2009,2013,1956,1880,1889,1803,1785,1763,1729,1651,1626,1580,1581,1511,1467,1409,1391,1353,1311,1278,1301,1290,1300,1299,1334,1337,1383,1659,1387,1333,1374,1476,1418,1344,1455,1417,1368,1371,1451,1434,1426,1337,1365,1361,1405,1405,1348,1396,1356,1367,1375,255,256,256,257,258,269,304,339,374,409,422,416,409,402,396,389,382,376,369,362,356,349,343,336,329,323,316,309,303,296,289,283,276,270,263,259,259,260,251,249,247,268,253,253,245,249,251,258,257,257,262,253,257,256,282,253,250,262,249,255,251,245,261,250,247,1289,1242,1249,1299,1406,1575,1771,1953,2072,1954,1940,1936,1880,1940,1820,1803,1772,1860,1744,1812,1684,1680,1623,1593,1541,1558,1514,1446,1415,1381,1437,1319,1290,1312,1258,1254,1277,1364,1359,1355,1334,1350,1343,1387,1348,1363,1390,1437,1367,1388,1381,1386,1379,1401,1398,1375,1375,1365,1380,1403,1374,1388,1391,1386,1368,507,475,476,477,481,518,587,677,736,724,731,720,709,699,688,691,680,703,714,682,671,660,649,639,604,592,580,568,555,541,529,518,506,495,484,478,481,481,463,470,472,494,472,484,469,480,470,471,475,470,467,476,475,481,477,481,478,478,484,478,475,486,467,477,470,1599,1518,1655,1646,1802,2020,2216,2386,2549,2373,2352,2342,2279,2317,2206,2183,2145,2224,2104,2067,2030,2020,1999,1920,1862,1872,1926,1748,1710,1670,1718,1596,1566,1590,1536,1533,1556,1632,1688,1671,1670,1686,1717,1723,1716,1724,1703,1717,1763,1747,1825,1815,1832,1774,1793,1726,1736,1757,1753,1753,1740,1728,1763,1813,1744,1877,1837,1894,2068,2146,2433,2563,2725,2937,2754,2748,2716,2589,2698,2536,2589,2463,2505,2475,2407,2388,2359,2316,2219,2107,2175,2186,2068,2021,1949,1981,1892,1863,1824,1749,1843,1906,1875,2138,2137,2176,2194,2211,2199,2229,2243,2236,2267,2290,2309,2367,2308,2297,2341,2381,2360,2331,2381,2455,2467,2482,2521,2522,2465,2474,1532,1498,1517,1605,1756,1970,2182,2398,2465,2347,2340,2412,2218,2225,2164,2172,2088,2157,2064,2028,2004,1997,1920,1930,1826,1833,1773,1727,1690,1678,1713,1551,1547,1528,1515,1500,1524,1508,1603,1664,1611,1636,1650,1634,1643,1662,1639,1648,1652,1631,1651,1654,1657,1663,1710,1705,1667,1665,1702,1635,1655,1664,1701,1674,1658,954,948,937,970,988,1131,1247,1407,1378,1417,1416,1396,1376,1356,1326,1337,1345,1276,1256,1256,1216,1235,1176,1174,1136,1116,1096,1076,1101,1051,1015,995,975,957,971,942,944,946,942,962,958,975,1031,1001,981,1020,976,1057,994,1031,996,978,999,1030,1006,993,1021,993,989,1015,1006,1046,1000,998,981,992,991,993,1007,1042,1233,1312,1531,1566,1607,1548,1488,1466,1510,1415,1409,1421,1415,1403,1368,1398,1335,1278,1270,1235,1212,1181,1135,1134,1104,1079,1034,1044,1041,978,991,1004,1015,1009,1000,1014,1012,1005,1030,1015,1016,1020,1026,1040,1029,1009,1015,1030,1035,1030,1045,1046,1030,1031,1034,1027,1023,1043,1101,1052,1041,993,995,1011,1077,1198,1358,1548,1642,1562,1555,1558,1507,1509,1459,1449,1424,1520,1409,1385,1361,1337,1313,1289,1243,1268,1229,1167,1141,1114,1170,1064,1040,1018,1006,1002,1024,1084,1050,1050,1047,1058,1067,1050,1049,1066,1042,1060,1054,1051,1054,1111,1067,1060,1104,1063,1055,1057,1073,1076,1050,1054,1059,1063,1059,0,0,0,0,0,0,0,0,0,0,0,0,0,0,0,0,0,0,0,0,0,0,0,0,0,0,0,0,0,0,0,0,0,0,0,0,0,0,0,0,0,0,0,0,0,0,0,0,0,0,0,0,0,0,0,0,0,0,0,0,0,0,0,0,0,846,889,907,857,897,997,1129,1258,1347,1399,1381,1359,1359,1339,1293,1271,1286,1259,1205,1183,1161,1139,1117,1095,1073,1051,1029,1007,985,963,941,919,897,876,862,892,861,908,875,874,886,907,911,909,902,888,894,912,907,904,919,934,958,938,927,902,891,905,899,897,890,911,897,914,884,1289,1242,1249,1299,1406,1575,1771,1953,2072,1954,1940,1936,1880,1940,1820,1803,1772,1860,1744,1812,1684,1680,1623,1593,1541,1558,1514,1446,1415,1381,1437,1319,1290,1312,1258,1254,1277,1364,1359,1355,1334,1350,1343,1387,1348,1363,1390,1437,1367,1388,1381,1386,1379,1401,1398,1375,1375,1365,1380,1403,1374,1388,1391,1386,1368,1365,1469,1373,1422,1517,1838,2068,2153,2245,2275,2257,2305,2166,2208,2056,2125,2088,1983,1996,1957,1893,1845,1788,1749,1710,1736,1620,1594,1636,1516,1574,1438,1392,1426,1339,1380,1399,1398,1432,1430,1436,1444,1447,1447,1450,1449,1449,1464,1458,1460,1466,1476,1478,1479,1490,1484,1473,1495,1481,1478,1489,1488,1489,1498,1484,967,970,973,1008,1038,1152,1305,1406,1491,1577,1528,1555,1520,1464,1443,1454,1401,1380,1370,1345,1320,1321,1270,1253,1231,1195,1189,1152,1120,1095,1105,1045,1026,998,985,982,984,990,1035,1024,1012,1065,1075,1067,1039,1046,1058,1092,1067,1106,1106,1090,1039,1046,1073,1078,1077,1059,1098,1146,1085,1077,1110,1067,1062,1640,1674,1761,1832,1924,2287,2537,2582,2665,2688,2663,2673,2560,2580,2486,2439,2445,2425,2392,2306,2235,2181,2119,2074,2073,2027,1926,1893,1891,1802,1878,1753,1728,1691,1617,1694,1692,1760,1868,1870,1871,1915,1876,1866,1872,1903,1899,1989,1885,1893,1979,1962,2026,1920,1907,1901,1914,1915,1885,1885,1904,1915,1904,1912,1892,1765,1853,1855,1948,2147,2503,2640,2806,2849,2998,2888,2860,2823,2693,2744,2696,2605,2581,2520,2404,2400,2417,2306,2190,2142,2174,2143,2017,2005,1956,1907,1830,1915,1810,1754,1791,1805,1760,2078,2090,2042,2054,2083,2070,2084,2094,2092,2100,2142,2094,2103,2121,2121,2127,2104,2141,2142,2141,2178,2133,2132,2139,2185,2118,2122,1389,1429,1410,1437,1562,1908,2059,2212,2266,2430,2276,2237,2283,2158,2221,2182,2041,2031,2055,1923,1934,1957,1854,1766,1727,1687,1748,1609,1570,1530,1571,1452,1426,1431,1373,1408,1387,1393,1455,1456,1465,1487,1475,1482,1472,1478,1464,1465,1482,1471,1502,1513,1510,1498,1481,1493,1489,1497,1497,1476,1503,1499,1471,1491,1483,392,393,395,396,397,332,374,416,458,498,642,567,507,612,602,592,582,572,562,552,534,532,515,512,502,492,482,472,378,452,442,433,423,413,403,398,399,400,391,392,396,395,396,395,395,402,396,401,393,400,399,414,404,403,399,407,401,400,397,406,400,401,392,400,395,1203,1181,1107,1197,1259,1477,1621,1782,1879,2001,1937,1936,1888,1785,1787,1736,1777,1655,1677,1605,1614,1559,1568,1525,1426,1447,1410,1400,1336,1321,1242,1253,1219,1206,1155,1118,1213,1155,1249,1210,1215,1239,1208,1235,1207,1244,1246,1236,1228,1222,1239,1226,1259,1237,1238,1233,1248,1237,1223,1228,1242,1234,1233,1234,1234,1116,1152,1110,1123,1178,1439,1624,1751,1852,1890,1845,1821,1799,1830,1700,1715,1679,1646,1666,1669,1547,1532,1481,1448,1416,1359,1337,1317,1327,1251,1248,1185,1142,1163,1088,1155,1146,1145,1190,1150,1149,1153,1138,1197,1162,1176,1175,1176,1197,1187,1190,1167,1187,1212,1246,1168,1174,1211,1172,1193,1180,1168,1202,1208,1182,895,875,878,888,971,1007,1122,1277,1331,1380,1391,1371,1337,1320,1300,1328,1235,1225,1204,1201,1150,1129,1118,1122,1075,1092,1091,1055,1032,959,937,924,903,874,870,886,874,876,874,889,890,892,902,919,901,908,889,902,896,892,893,904,912,921,911,921,902,911,919,902,896,890,902,908,888,0,0,0,0,0,0,0,0,0,0,0,0,0,0,0,0,0,0,0,0,0,0,0,0,0,0,0,0,0,0,0,0,0,0,0,0,0,0,0,0,0,0,0,0,0,0,0,0,0,0,0,0,0,0,0,0,0,0,0,0,0,0,0,0,0,1365,1469,1373,1422,1517,1838,2068,2153,2245,2275,2257,2305,2166,2208,2056,2125,2088,1983,1996,1957,1893,1845,1788,1749,1710,1736,1620,1594,1636,1516,1574,1438,1392,1426,1339,1380,1399,1398,1432,1430,1436,1444,1447,1447,1450,1449,1449,1464,1458,1460,1466,1476,1478,1479,1490,1484,1473,1495,1481,1478,1489,1488,1489,1498,1484,0,0,0,0,0,0,0,0,0,0,0,0,0,0,0,0,0,0,0,0,0,0,0,0,0,0,0,0,0,0,0,0,0,0,0,0,0,0,0,0,0,0,0,0,0,0,0,0,0,0,0,0,0,0,0,0,0,0,0,0,0,0,0,0,0,723,750,729,735,774,848,948,1059,1145,1198,1170,1153,1159,1129,1129,1102,1083,1054,1035,1030,1015,986,927,936,940,902,883,878,857,829,812,792,747,729,743,738,737,737,737,738,733,748,752,739,748,758,748,749,754,764,838,840,844,790,770,768,761,767,749,751,764,744,755,748,744,542,539,541,542,548,602,680,758,836,882,817,874,795,780,832,756,743,790,719,762,694,682,720,706,692,634,620,608,637,623,609,595,581,534,550,545,547,523,531,530,524,532,537,563,532,539,552,546,536,540,530,538,539,526,539,542,541,540,536,537,548,554,548,554,544,812,845,776,778,881,979,1063,1120,1184,1224,1260,1276,1187,1168,1150,1128,1091,1055,1075,1034,1043,1026,1053,1033,972,924,972,952,866,916,841,848,851,834,827,794,844,821,810,812,810,810,812,813,809,808,810,818,812,816,816,814,817,815,813,814,816,818,813,814,816,821,821,817,820,547,550,551,552,562,611,629,698,768,810,814,802,790,777,765,752,740,728,715,832,692,678,666,653,641,657,616,605,593,579,568,554,542,530,560,556,636,559,538,540,541,540,544,546,568,552,550,549,554,552,550,553,559,573,557,560,557,555,565,561,557,565,559,607,562,1515,1544,1581,1736,1937,2292,2363,2596,2578,2663,2599,2602,2488,2519,2366,2402,2261,2329,2250,2108,2101,2088,2059,1990,2047,1863,1859,1782,1792,1695,1643,1638,1607,1591,1567,1566,1576,1615,1696,1689,1706,1720,1738,1778,1720,1753,1751,1772,1787,1764,1755,1799,1807,1803,1767,1747,1754,1758,1738,1765,1747,1776,1749,1771,1748,223,224,224,225,226,235,266,297,329,360,375,369,363,357,351,345,339,333,327,321,315,309,303,297,291,285,279,273,267,261,255,249,243,237,231,226,227,228,215,210,211,215,215,215,213,216,212,216,215,215,212,215,213,211,212,216,216,216,213,211,213,215,213,213,212,327,328,329,330,365,350,396,465,504,541,550,543,535,516,520,513,506,498,491,484,476,469,423,454,407,414,463,396,388,379,371,362,354,345,337,332,333,334,318,318,320,322,320,327,322,339,319,323,319,323,323,322,332,346,320,327,324,322,322,322,325,325,327,326,322,1229,1307,1353,1457,1380,1609,1823,1933,2004,2068,1957,1998,1985,1997,1875,1859,1791,1829,1729,1755,1790,1665,1611,1565,1617,1543,1505,1464,1460,1433,1358,1355,1292,1254,1335,1302,1273,1358,1359,1372,1341,1357,1352,1401,1361,1389,1405,1465,1380,1413,1390,1404,1387,1436,1410,1378,1388,1368,1383,1418,1396,1422,1403,1417,1380,1271,1298,1307,1411,1543,1835,1979,2140,2266,2244,2217,2200,2122,2134,2014,1976,1924,1967,1905,1828,1812,1792,1799,1685,1763,1597,1582,1545,1538,1442,1433,1444,1368,1350,1325,1322,1330,1369,1369,1375,1386,1411,1396,1403,1388,1395,1383,1382,1399,1390,1420,1434,1429,1417,1399,1410,1410,1418,1418,1397,1420,1420,1389,1404,1399,0,0,0,0,0,0,0,0,0,0,0,0,0,0,0,0,0,0,0,0,0,0,0,0,0,0,0,0,0,0,0,0,0,0,0,0,0,0,0,0,0,0,0,0,0,0,0,0,0,0,0,0,0,0,0,0,0,0,0,0,0,0,0,0,0 ]);
