n = 10;
D = [103,208,188,81,181,143,75,139,79,124 ];
q = 0;
prec = array2d(1..0,1..2,[]);
steps = 64;
l = 360;
r = 0;
which = [];
interval = array2d(1..0,1..2,[]);
T = array3d(1..11,1..11,0..64,[0,0,0,0,0,0,0,0,0,0,0,0,0,0,0,0,0,0,0,0,0,0,0,0,0,0,0,0,0,0,0,0,0,0,0,0,0,0,0,0,0,0,0,0,0,0,0,0,0,0,0,0,0,0,0,0,0,0,0,0,0,0,0,0,0,377,390,379,380,381,441,463,536,572,639,627,617,626,597,587,577,567,575,564,537,527,517,523,513,487,477,467,472,447,437,427,417,407,397,399,395,383,384,372,373,377,387,372,379,373,378,380,372,379,371,373,373,374,379,374,377,376,378,376,380,374,384,373,379,376,766,805,808,820,846,975,1201,1181,1284,1307,1305,1319,1264,1244,1223,1179,1178,1315,1102,1132,1051,1079,1058,1038,972,993,973,979,935,914,893,902,852,860,818,812,817,842,818,818,822,831,831,838,840,851,838,835,846,837,839,840,839,847,845,835,846,844,845,844,841,853,833,843,835,853,856,857,863,905,1005,1135,1265,1410,1387,1384,1362,1340,1332,1297,1274,1304,1231,1209,1188,1166,1144,1122,1112,1126,1099,1035,1038,991,969,946,925,903,882,869,866,868,869,869,879,873,884,952,935,920,939,894,974,930,955,919,900,905,936,914,906,950,922,907,930,917,960,925,939,907,221,223,222,223,224,233,264,309,334,362,376,369,364,376,354,348,342,336,330,325,319,318,313,308,303,290,275,270,265,258,252,246,240,234,228,226,226,226,212,215,215,211,220,231,217,213,215,223,217,216,216,216,216,217,223,218,213,217,216,217,218,218,223,216,213,515,516,518,551,521,601,650,761,884,930,890,876,861,847,793,784,804,790,788,774,745,733,690,705,661,676,646,620,633,619,582,568,553,562,526,542,521,571,526,527,529,529,537,531,538,542,534,536,537,537,541,541,539,545,545,540,549,544,540,536,544,548,550,549,549,810,812,815,818,856,950,1076,1323,1336,1439,1322,1301,1280,1259,1238,1217,1225,1171,1253,1132,1111,1090,1069,1048,1027,1006,1072,964,943,922,901,880,859,838,891,822,824,869,825,847,844,840,864,838,852,869,848,847,864,837,855,851,868,871,1029,976,885,859,854,847,844,839,856,891,835,348,372,350,351,353,376,424,486,523,574,585,569,573,559,551,542,534,514,505,496,486,477,468,459,450,451,449,422,425,404,396,406,376,389,381,355,355,355,351,355,355,365,353,355,353,356,357,351,355,353,354,354,355,356,356,360,355,360,357,363,356,368,356,363,360,364,375,339,377,378,362,409,510,504,582,590,550,541,564,557,515,546,550,540,512,521,462,453,491,481,426,462,452,400,425,382,407,403,390,347,342,343,372,341,347,349,365,346,346,345,350,346,342,347,343,343,342,342,343,343,345,343,343,342,342,341,345,342,346,343,747,749,767,782,792,1001,1064,1331,1321,1383,1351,1326,1301,1276,1251,1268,1201,1176,1174,1158,1123,1098,1042,1063,1002,977,944,927,902,869,852,827,803,823,754,760,765,762,761,764,775,786,772,783,774,791,767,781,775,766,770,776,781,784,783,779,770,770,783,776,769,769,766,786,774,0,0,0,0,0,0,0,0,0,0,0,0,0,0,0,0,0,0,0,0,0,0,0,0,0,0,0,0,0,0,0,0,0,0,0,0,0,0,0,0,0,0,0,0,0,0,0,0,0,0,0,0,0,0,0,0,0,0,0,0,0,0,0,0,0,313,314,315,316,317,336,380,425,469,511,522,513,505,509,488,480,472,464,455,447,439,430,422,414,406,397,389,381,372,373,356,348,339,331,323,326,319,320,302,302,303,304,304,304,305,307,307,308,309,309,310,310,310,311,312,314,314,315,315,315,317,317,317,317,318,0,0,0,0,0,0,0,0,0,0,0,0,0,0,0,0,0,0,0,0,0,0,0,0,0,0,0,0,0,0,0,0,0,0,0,0,0,0,0,0,0,0,0,0,0,0,0,0,0,0,0,0,0,0,0,0,0,0,0,0,0,0,0,0,0,889,814,843,858,885,1025,1182,1241,1398,1439,1377,1434,1334,1391,1334,1262,1255,1283,1193,1223,1232,1138,1156,1041,1114,1088,1018,996,979,998,931,971,903,876,852,869,861,871,863,876,868,883,904,886,886,904,879,883,873,875,875,893,892,898,1022,973,901,888,891,875,873,874,894,892,874,991,998,986,999,1090,1196,1334,1563,1558,1591,1584,1658,1534,1509,1484,1459,1432,1409,1382,1370,1333,1318,1283,1257,1232,1208,1182,1157,1133,1151,1093,1067,1032,1026,997,1019,1007,999,1042,1053,1032,1091,1093,1083,1059,1068,1070,1098,1073,1097,1092,1080,1050,1061,1069,1084,1085,1057,1081,1111,1073,1068,1089,1065,1054,374,375,376,377,378,401,454,516,569,607,616,601,613,599,576,567,563,544,537,536,517,506,509,488,491,468,458,449,449,429,419,409,399,390,384,379,380,377,365,364,364,363,365,372,368,369,369,377,374,377,379,373,396,380,396,376,377,389,377,383,378,373,385,371,374,480,483,576,486,490,533,604,675,747,804,799,805,774,785,746,744,735,710,705,684,671,659,646,633,620,607,595,582,569,556,543,540,524,504,492,489,490,497,484,487,487,492,496,501,506,502,492,496,495,501,493,513,498,515,499,492,500,494,498,503,500,496,491,492,492,988,990,942,976,1032,1212,1272,1507,1566,1561,1522,1498,1582,1534,1425,1401,1447,1352,1370,1382,1279,1330,1252,1281,1257,1229,1169,1177,1157,1061,1072,1013,1045,1028,979,989,953,956,978,973,969,967,970,997,981,990,996,1015,1016,1012,1016,996,1021,1017,1080,1005,1011,1042,1011,1036,1016,1006,1037,1022,1027,684,654,686,659,735,753,842,954,1033,1076,1079,1080,1052,1026,1003,997,976,953,935,918,924,893,882,866,832,844,798,800,777,747,780,713,718,679,665,662,663,665,659,674,669,687,754,728,697,744,695,772,718,751,722,691,716,754,720,694,743,710,699,729,721,756,720,714,701,668,654,652,684,701,767,880,921,1063,1110,1052,1047,1061,1002,985,985,1012,978,918,917,885,906,851,835,869,846,808,812,751,734,718,740,720,695,654,650,688,654,648,693,649,648,657,649,655,661,666,683,685,656,657,666,676,669,667,680,670,672,689,659,682,684,698,667,666,932,937,937,950,998,1097,1242,1378,1461,1511,1519,1495,1523,1447,1423,1447,1374,1350,1326,1302,1278,1256,1232,1205,1212,1157,1133,1108,1084,1060,1036,1012,988,965,951,946,948,951,968,938,944,943,966,978,954,960,960,974,1004,991,998,1003,1011,998,998,994,992,1016,1020,1022,1003,1003,1029,1055,1013,313,314,315,316,317,336,380,425,469,511,522,513,505,509,488,480,472,464,455,447,439,430,422,414,406,397,389,381,372,373,356,348,339,331,323,326,319,320,302,302,303,304,304,304,305,307,307,308,309,309,310,310,310,311,312,314,314,315,315,315,317,317,317,317,318,910,918,921,978,985,1090,1234,1371,1452,1485,1465,1442,1418,1395,1395,1372,1377,1301,1278,1386,1231,1260,1184,1193,1138,1129,1115,1067,1108,1045,997,994,950,950,916,912,969,959,958,939,966,957,965,953,951,958,957,1023,1032,970,983,986,978,976,967,992,944,961,951,954,959,953,947,976,977,934,936,978,943,1031,1119,1274,1398,1489,1524,1526,1612,1498,1448,1424,1463,1413,1358,1333,1303,1278,1311,1331,1205,1220,1156,1132,1194,1085,1067,1068,1048,1030,963,963,959,951,987,962,967,958,969,962,990,965,977,985,1067,971,973,967,975,993,961,981,980,977,986,973,974,990,990,976,989,980,0,0,0,0,0,0,0,0,0,0,0,0,0,0,0,0,0,0,0,0,0,0,0,0,0,0,0,0,0,0,0,0,0,0,0,0,0,0,0,0,0,0,0,0,0,0,0,0,0,0,0,0,0,0,0,0,0,0,0,0,0,0,0,0,0,636,638,650,642,694,717,811,904,990,1033,1038,1022,1022,989,1020,957,955,924,908,891,875,859,842,839,823,806,777,761,744,740,712,696,679,674,649,645,683,685,638,642,653,661,656,666,647,662,648,677,657,652,661,663,676,691,674,667,675,663,675,678,675,682,661,669,666,1035,1021,1045,1030,1105,1248,1418,1544,1619,1653,1628,1592,1603,1557,1554,1526,1478,1446,1430,1408,1377,1388,1305,1296,1260,1280,1226,1178,1171,1154,1107,1101,1055,1054,1018,1011,1033,1036,1065,1023,1032,1030,1058,1066,1042,1050,1043,1057,1091,1081,1077,1087,1096,1099,1093,1093,1070,1103,1107,1103,1101,1092,1121,1138,1112,537,543,545,546,553,603,684,779,844,890,897,883,883,854,833,825,842,797,782,768,754,749,725,711,701,676,679,648,639,627,634,598,581,567,561,556,546,552,552,565,556,576,565,570,571,586,557,573,563,557,572,573,575,571,587,575,563,560,578,569,556,568,564,576,567,342,343,344,345,346,365,411,458,504,547,561,552,544,535,526,517,509,500,491,483,474,465,456,448,439,430,422,413,404,395,377,369,360,351,343,347,348,349,324,324,326,328,328,330,327,328,327,337,332,331,333,333,338,342,338,337,340,338,338,339,342,343,339,340,340,1024,1037,1000,1053,1173,1273,1430,1566,1637,1666,1710,1677,1656,1630,1569,1505,1500,1478,1483,1395,1398,1412,1367,1368,1253,1317,1288,1219,1188,1159,1135,1151,1052,1108,1043,1042,1049,1044,1073,1045,1060,1059,1083,1085,1067,1067,1070,1082,1124,1101,1103,1106,1113,1106,1115,1101,1090,1120,1127,1113,1103,1098,1124,1142,1123,1060,1073,1026,1081,1189,1287,1471,1597,1670,1696,1689,1705,1660,1609,1594,1540,1527,1512,1517,1414,1441,1448,1387,1342,1277,1340,1301,1242,1216,1186,1162,1121,1077,1083,1079,1067,1075,1070,1076,1120,1078,1087,1104,1088,1096,1103,1103,1103,1111,1096,1112,1100,1108,1110,1115,1118,1119,1119,1145,1097,1119,1123,1142,1122,1114,1424,1455,1504,1551,1767,2006,2217,2336,2387,2424,2387,2304,2298,2263,2221,2178,2138,2097,2053,1947,1934,1942,1885,1824,1746,1761,1715,1689,1620,1579,1589,1530,1455,1464,1422,1472,1471,1510,1504,1547,1512,1516,1547,1529,1533,1543,1543,1544,1562,1537,1545,1555,1558,1564,1572,1573,1577,1572,1585,1575,1589,1603,1618,1598,1598,910,918,921,978,985,1090,1234,1371,1452,1485,1465,1442,1418,1395,1395,1372,1377,1301,1278,1386,1231,1260,1184,1193,1138,1129,1115,1067,1108,1045,997,994,950,950,916,912,969,959,958,939,966,957,965,953,951,958,957,1023,1032,970,983,986,978,976,967,992,944,961,951,954,959,953,947,976,977,989,992,996,1000,1115,1183,1407,1515,1584,1645,1636,1623,1603,1596,1484,1522,1453,1473,1383,1376,1351,1325,1347,1302,1248,1261,1235,1158,1174,1153,1081,1111,1080,1051,1008,1004,1037,1040,1054,1058,1035,1050,1040,1085,1045,1059,1090,1134,1060,1082,1076,1077,1072,1095,1095,1067,1066,1054,1068,1096,1068,1081,1078,1078,1061,1046,1049,1051,1100,1147,1240,1476,1579,1664,1717,1694,1648,1618,1663,1596,1576,1508,1504,1469,1452,1439,1401,1383,1344,1318,1281,1263,1236,1210,1229,1149,1128,1101,1075,1066,1062,1066,1067,1088,1093,1093,1096,1090,1103,1113,1110,1099,1106,1139,1100,1118,1105,1116,1116,1122,1130,1115,1119,1136,1116,1107,1105,1100,1126,1083,596,598,600,602,611,709,828,870,924,1016,975,998,982,929,957,898,883,925,913,837,872,856,844,827,803,745,759,715,726,684,669,653,638,623,609,605,607,608,598,594,605,598,614,636,605,605,607,622,625,621,619,625,622,618,614,617,611,618,609,619,623,626,624,622,633,0,0,0,0,0,0,0,0,0,0,0,0,0,0,0,0,0,0,0,0,0,0,0,0,0,0,0,0,0,0,0,0,0,0,0,0,0,0,0,0,0,0,0,0,0,0,0,0,0,0,0,0,0,0,0,0,0,0,0,0,0,0,0,0,0,1092,1096,1059,1112,1230,1418,1503,1699,1740,1812,1740,1743,1759,1687,1645,1605,1605,1568,1532,1461,1434,1447,1398,1363,1325,1298,1284,1273,1285,1188,1161,1203,1107,1084,1072,1069,1071,1074,1113,1105,1105,1115,1103,1107,1176,1173,1112,1138,1126,1108,1110,1158,1166,1180,1175,1183,1165,1181,1181,1158,1138,1144,1118,1119,1115,686,706,704,718,737,787,892,988,1097,1167,1159,1151,1155,1072,1117,1071,1052,1004,1020,968,952,924,918,950,877,865,892,817,825,787,769,750,727,709,719,697,718,700,695,706,701,690,707,718,705,709,708,726,725,726,746,729,739,715,746,724,729,751,804,766,741,733,766,776,747,379,380,381,382,383,409,462,516,569,659,627,617,607,597,587,577,567,557,548,538,528,518,508,498,488,478,468,458,448,439,429,419,409,399,389,384,385,386,365,370,373,392,370,372,370,373,370,368,372,369,368,366,368,371,370,370,369,369,366,369,368,372,369,372,370,944,947,904,912,964,1088,1222,1371,1477,1507,1482,1449,1426,1393,1370,1347,1388,1330,1334,1253,1274,1238,1202,1160,1154,1113,1123,1126,1043,1020,997,986,996,928,938,964,914,916,932,939,945,951,961,962,944,970,945,953,950,952,946,962,952,971,971,968,957,957,948,973,960,974,948,966,954,915,918,939,939,995,1126,1251,1412,1517,1529,1501,1478,1454,1430,1407,1371,1347,1354,1316,1290,1252,1243,1238,1191,1167,1150,1133,1155,1079,1056,1024,1012,976,954,981,929,940,952,945,943,939,953,1047,1026,984,1016,988,1076,1027,1027,1019,968,978,1022,1015,978,1049,1003,976,1039,1011,1065,1035,1055,1007,1298,1331,1313,1401,1557,1841,2009,2156,2173,2232,2199,2158,2119,2071,2023,2004,1965,1943,1904,1872,1812,1777,1752,1681,1719,1611,1570,1546,1504,1458,1420,1401,1353,1356,1320,1320,1330,1340,1383,1396,1351,1349,1396,1359,1372,1380,1375,1384,1435,1394,1392,1467,1413,1412,1443,1422,1414,1418,1447,1399,1403,1407,1450,1391,1391,989,992,996,1000,1115,1183,1407,1515,1584,1645,1636,1623,1603,1596,1484,1522,1453,1473,1383,1376,1351,1325,1347,1302,1248,1261,1235,1158,1174,1153,1081,1111,1080,1051,1008,1004,1037,1040,1054,1058,1035,1050,1040,1085,1045,1059,1090,1134,1060,1082,1076,1077,1072,1095,1095,1067,1066,1054,1068,1096,1068,1081,1078,1078,1061,143,144,144,145,145,149,168,188,207,227,239,248,244,228,224,220,217,213,209,205,201,198,194,190,186,183,179,175,171,168,164,160,156,152,149,146,146,146,135,133,133,134,138,135,138,135,136,135,134,140,144,135,138,136,139,135,139,143,157,138,135,133,136,142,136,371,372,372,374,392,398,444,490,534,582,591,573,565,583,555,560,537,522,514,509,500,505,496,473,464,470,445,439,430,422,413,405,396,388,379,375,376,377,368,374,369,373,380,376,374,377,371,373,372,376,370,377,377,379,376,373,378,372,379,389,374,384,371,377,376,925,897,898,868,991,1061,1217,1382,1441,1430,1429,1407,1486,1319,1338,1372,1294,1357,1253,1261,1218,1195,1167,1161,1123,1106,1080,1058,1012,1005,1016,916,891,906,936,868,939,896,898,912,911,915,942,917,906,912,911,947,968,952,968,939,950,916,986,944,930,960,1047,971,951,932,980,978,952,994,1029,1039,1102,1101,1203,1418,1624,1581,1651,1620,1615,1670,1529,1504,1479,1491,1441,1401,1376,1387,1356,1301,1275,1271,1262,1199,1226,1168,1123,1126,1100,1047,1024,1064,1009,1011,1013,1038,1022,1019,1024,1037,1069,1049,1044,1045,1055,1077,1069,1076,1073,1069,1081,1097,1058,1068,1087,1085,1103,1080,1083,1110,1142,1089,0,0,0,0,0,0,0,0,0,0,0,0,0,0,0,0,0,0,0,0,0,0,0,0,0,0,0,0,0,0,0,0,0,0,0,0,0,0,0,0,0,0,0,0,0,0,0,0,0,0,0,0,0,0,0,0,0,0,0,0,0,0,0,0,0,527,528,529,532,590,588,734,742,968,948,950,936,921,906,890,875,786,899,793,814,731,717,701,702,675,664,647,633,619,683,591,576,559,626,588,533,534,613,553,554,552,563,694,623,591,623,587,691,613,625,625,568,578,609,591,570,646,590,569,624,605,675,629,617,595,1051,985,972,1070,1050,1147,1388,1582,1517,1550,1544,1519,1633,1501,1445,1421,1418,1485,1405,1413,1348,1273,1249,1224,1341,1271,1150,1185,1121,1077,1116,1100,1003,981,1061,965,967,970,1017,1015,1006,1013,1030,1017,1029,1019,1020,1020,1017,1021,1027,1026,1029,1026,1020,1027,1023,1026,1020,1032,1026,1034,1015,1017,1013,373,354,355,356,357,381,448,481,524,575,585,576,567,551,548,539,524,520,511,496,503,483,490,481,456,446,432,428,418,422,400,391,393,372,363,358,359,360,351,342,349,351,342,351,354,356,353,351,357,347,349,345,347,350,350,350,346,345,345,343,348,346,347,358,353,301,302,302,323,304,321,363,405,447,487,499,491,483,475,467,459,451,444,436,428,420,412,430,396,388,405,373,388,357,349,341,333,325,318,310,305,306,327,303,297,297,303,299,301,308,311,312,302,300,299,296,301,303,303,312,303,301,303,307,304,308,303,300,301,299,746,748,750,752,792,906,1054,1201,1331,1364,1320,1333,1308,1259,1248,1211,1187,1162,1138,1137,1081,1088,1042,1018,994,969,945,921,897,873,841,825,800,805,761,759,780,797,763,778,775,793,860,835,804,852,804,881,827,859,831,800,825,864,829,805,853,821,809,840,832,868,831,827,814,143,144,144,145,145,149,168,188,207,227,239,248,244,228,224,220,217,213,209,205,201,198,194,190,186,183,179,175,171,168,164,160,156,152,149,146,146,146,135,133,133,134,138,135,138,135,136,135,134,140,144,135,138,136,139,135,139,143,157,138,135,133,136,142,136,518,519,570,523,556,576,653,729,805,850,856,842,829,815,801,788,774,761,747,733,720,706,692,679,665,651,638,624,611,597,583,570,556,542,530,526,527,528,527,530,532,537,540,545,534,542,534,537,537,540,533,563,545,548,540,554,553,542,539,560,544,552,529,546,538,470,471,474,475,478,567,587,657,787,772,781,766,754,744,731,718,705,695,679,667,654,642,631,619,607,593,583,567,558,543,530,519,505,495,482,476,482,481,470,483,477,484,492,485,490,491,477,487,477,480,483,493,491,496,518,514,484,486,491,481,478,479,494,491,478,527,558,524,557,530,600,650,734,809,898,863,850,882,823,847,811,819,769,755,776,762,738,719,680,711,660,647,633,620,606,583,573,600,552,539,529,537,538,526,531,532,555,532,546,531,541,532,525,537,530,525,545,532,538,537,548,544,549,553,540,540,557,527,540,534,743,745,747,759,775,857,1028,1080,1170,1210,1209,1190,1171,1166,1132,1114,1095,1076,1057,1038,1019,1000,981,962,943,923,904,931,866,847,828,809,790,771,757,753,756,758,748,752,754,758,749,756,756,762,759,825,760,753,756,758,762,759,762,763,759,762,759,762,760,768,754,764,762,612,623,625,627,632,718,795,897,992,1007,1034,1001,1016,976,965,947,954,927,913,901,860,855,840,824,819,778,752,738,720,713,690,676,661,639,641,624,632,634,628,618,619,625,657,655,662,662,648,670,655,638,654,629,631,649,642,634,654,631,624,646,648,664,653,656,647,0,0,0,0,0,0,0,0,0,0,0,0,0,0,0,0,0,0,0,0,0,0,0,0,0,0,0,0,0,0,0,0,0,0,0,0,0,0,0,0,0,0,0,0,0,0,0,0,0,0,0,0,0,0,0,0,0,0,0,0,0,0,0,0,0,677,656,681,656,677,773,873,974,1063,1104,1105,1088,1070,1056,988,1018,980,983,966,932,931,914,896,879,861,844,776,800,792,765,728,739,713,705,691,642,652,663,670,656,662,662,661,671,670,679,675,670,678,668,672,672,670,677,675,672,678,677,672,669,674,679,678,683,680,716,718,735,724,761,837,936,1054,1140,1186,1187,1155,1148,1120,1176,1082,1062,1057,1024,1007,996,968,960,941,929,893,875,856,858,874,813,781,777,744,745,727,769,732,730,739,733,767,726,760,739,768,753,756,759,739,755,743,755,758,753,753,758,754,762,746,752,762,754,772,769,732,743,709,760,765,811,973,1088,1174,1192,1155,1137,1177,1141,1138,1119,1087,1026,1008,1027,971,953,934,954,932,930,861,843,824,806,787,769,805,760,746,752,745,773,745,747,746,753,759,763,756,781,759,762,759,761,753,756,756,770,772,761,763,761,749,764,758,768,754,766,758,1138,1118,1122,1164,1309,1465,1699,1915,1913,1935,1920,1886,1936,1817,1783,1749,1715,1681,1647,1635,1570,1545,1565,1498,1443,1409,1367,1341,1307,1273,1239,1205,1171,1147,1137,1137,1142,1140,1167,1146,1161,1165,1157,1174,1165,1165,1167,1180,1204,1185,1191,1195,1193,1205,1190,1195,1184,1210,1212,1211,1206,1195,1215,1227,1230,518,519,570,523,556,576,653,729,805,850,856,842,829,815,801,788,774,761,747,733,720,706,692,679,665,651,638,624,611,597,583,570,556,542,530,526,527,528,527,530,532,537,540,545,534,542,534,537,537,540,533,563,545,548,540,554,553,542,539,560,544,552,529,546,538,791,793,815,799,825,962,1050,1223,1308,1308,1272,1274,1306,1246,1212,1191,1240,1150,1129,1156,1108,1098,1054,1024,1035,985,1006,943,923,932,881,872,826,806,825,825,805,804,823,806,815,828,820,825,831,841,828,827,840,830,860,855,859,844,821,820,831,829,832,815,824,836,821,833,829,876,868,850,855,894,1001,1124,1263,1347,1456,1356,1374,1343,1343,1302,1277,1260,1223,1205,1195,1216,1138,1115,1087,1082,1055,1027,1014,995,956,939,917,865,844,861,857,860,859,864,860,867,881,891,890,900,864,874,886,873,866,885,874,868,868,899,888,866,867,864,871,875,879,882,882,870,265,265,266,267,275,279,314,364,383,438,432,425,419,430,406,399,392,386,379,372,366,359,352,359,352,345,326,319,313,316,299,302,286,279,292,276,277,278,270,265,266,269,271,268,271,268,270,271,270,269,271,271,270,266,269,273,271,273,266,268,274,271,270,268,266,500,501,503,504,621,550,561,620,679,724,730,736,708,697,686,691,664,669,643,647,621,610,613,589,578,567,569,558,534,563,513,502,502,480,511,549,508,510,487,487,487,490,513,490,495,495,495,496,492,494,494,500,500,508,640,593,524,522,503,493,511,491,510,496,492,892,904,918,899,946,1066,1222,1389,1489,1465,1440,1431,1467,1407,1369,1362,1327,1287,1295,1296,1255,1243,1197,1118,1161,1124,1082,1062,1036,1065,992,983,929,910,937,921,904,918,907,936,934,927,951,925,939,957,934,935,958,921,945,936,957,965,1120,1067,978,942,940,935,930,927,940,989,917,511,505,526,508,513,559,661,719,815,824,798,822,894,771,805,780,755,752,729,715,702,688,702,675,674,635,646,608,595,590,568,555,541,528,515,523,533,514,509,519,523,538,536,538,523,549,515,556,537,567,533,533,556,573,542,533,548,546,545,537,540,548,521,527,521,0,0,0,0,0,0,0,0,0,0,0,0,0,0,0,0,0,0,0,0,0,0,0,0,0,0,0,0,0,0,0,0,0,0,0,0,0,0,0,0,0,0,0,0,0,0,0,0,0,0,0,0,0,0,0,0,0,0,0,0,0,0,0,0,0,916,873,878,884,918,1077,1174,1367,1400,1555,1444,1486,1384,1405,1372,1305,1286,1312,1285,1252,1188,1206,1185,1113,1213,1079,1055,1108,1090,983,1001,1008,960,918,962,883,910,920,938,943,934,1019,982,982,966,955,969,999,966,986,985,976,943,955,961,985,985,950,975,1012,975,963,982,957,957,887,898,912,911,956,1115,1203,1401,1434,1511,1475,1465,1412,1434,1353,1341,1321,1349,1319,1289,1221,1238,1222,1150,1243,1109,1092,1096,1068,1019,1054,995,964,943,952,919,913,946,921,965,927,925,942,927,939,947,944,944,962,936,943,946,947,953,955,962,960,954,965,937,962,971,988,955,958,1244,1271,1277,1372,1501,1785,1930,2092,2105,2199,2173,2157,2103,2116,2014,1936,1885,1928,1867,1788,1776,1757,1765,1652,1731,1565,1548,1514,1509,1413,1405,1415,1341,1323,1298,1295,1303,1356,1364,1365,1367,1371,1395,1440,1386,1415,1410,1421,1435,1424,1405,1419,1409,1437,1394,1397,1418,1404,1396,1435,1414,1438,1404,1420,1421,791,793,815,799,825,962,1050,1223,1308,1308,1272,1274,1306,1246,1212,1191,1240,1150,1129,1156,1108,1098,1054,1024,1035,985,1006,943,923,932,881,872,826,806,825,825,805,804,823,806,815,828,820,825,831,841,828,827,840,830,860,855,859,844,821,820,831,829,832,815,824,836,821,833,829,423,424,425,427,429,462,534,599,636,663,669,662,655,648,641,651,642,620,624,606,605,596,602,591,546,544,534,524,514,504,477,466,455,444,457,429,430,431,426,432,430,437,439,434,442,444,430,441,432,433,441,450,452,447,463,442,430,431,439,439,426,437,435,444,433,669,685,674,676,696,784,867,1003,1066,1088,1086,1072,1058,1045,1031,1092,1023,1049,987,962,990,938,931,897,845,835,832,801,783,766,748,755,714,696,695,693,681,684,676,678,675,692,716,745,691,683,687,695,692,685,691,690,689,690,692,694,689,690,685,697,703,709,724,694,691,964,967,970,1005,1176,1119,1310,1483,1580,1572,1561,1538,1515,1492,1416,1463,1448,1444,1338,1366,1337,1265,1287,1245,1231,1230,1159,1138,1111,1049,1025,1040,1024,993,1002,987,981,981,1009,1013,967,967,1007,994,994,1009,1015,1037,1050,1008,1008,1022,1029,1022,1000,1043,1045,1038,1057,1050,1016,1021,1059,996,999,935,920,938,955,988,1142,1232,1343,1484,1493,1489,1465,1442,1418,1418,1430,1347,1346,1287,1276,1376,1250,1215,1202,1178,1133,1090,1068,1058,1054,1055,990,985,986,1021,935,951,935,978,971,969,975,973,978,1001,990,969,960,976,980,970,967,967,965,967,981,971,973,970,969,965,988,985,994,966,399,400,402,403,404,435,491,627,644,728,735,724,677,666,655,666,670,639,648,599,613,602,561,550,505,502,492,481,471,461,450,440,439,419,440,405,406,407,392,400,394,410,393,402,397,404,402,406,403,401,408,402,409,409,408,408,412,409,412,406,411,416,414,417,419,698,700,702,704,728,813,909,1050,1135,1155,1150,1134,1117,1096,1084,1084,1065,1066,1028,1013,990,971,952,962,905,870,852,834,816,797,779,761,752,725,712,717,710,712,716,710,714,713,714,709,714,721,717,717,709,716,720,729,724,725,721,724,720,720,720,735,724,729,715,717,722,1048,974,977,990,1053,1314,1440,1570,1563,1706,1644,1700,1639,1614,1484,1583,1451,1414,1400,1367,1349,1323,1324,1272,1214,1246,1171,1146,1170,1120,1153,1047,1044,1000,988,985,1064,990,1044,1009,1012,1021,1003,1013,1022,1019,1037,1093,1028,1042,1104,1044,1045,1108,1057,1040,1034,1040,1093,1150,1166,1191,1192,1077,1075,0,0,0,0,0,0,0,0,0,0,0,0,0,0,0,0,0,0,0,0,0,0,0,0,0,0,0,0,0,0,0,0,0,0,0,0,0,0,0,0,0,0,0,0,0,0,0,0,0,0,0,0,0,0,0,0,0,0,0,0,0,0,0,0,0,108,108,109,109,109,111,125,139,153,167,178,175,172,170,167,164,161,159,156,153,150,148,145,142,139,137,134,131,128,126,123,120,118,115,112,110,110,110,96,98,95,97,102,98,98,102,97,100,100,103,98,96,97,100,98,97,100,98,96,98,97,98,97,97,96,513,531,533,517,539,590,695,800,903,962,989,944,925,907,889,871,853,834,839,798,780,783,743,746,707,689,670,652,634,608,597,579,578,543,525,550,525,528,525,536,537,544,544,549,537,553,534,554,539,534,541,548,556,565,555,550,547,540,557,556,548,553,539,548,539,423,424,425,427,429,462,534,599,636,663,669,662,655,648,641,651,642,620,624,606,605,596,602,591,546,544,534,524,514,504,477,466,455,444,457,429,430,431,426,432,430,437,439,434,442,444,430,441,432,433,441,450,452,447,463,442,430,431,439,439,426,437,435,444,433,340,341,342,343,344,366,428,471,488,519,530,523,516,510,503,497,490,484,477,470,464,457,467,459,451,443,421,427,419,411,385,376,367,358,349,345,346,347,339,343,334,338,349,347,368,362,342,349,348,354,351,341,342,351,348,345,350,345,341,347,341,351,349,353,339,586,588,590,592,603,678,750,838,921,946,972,936,922,923,896,891,875,856,844,829,816,798,782,767,752,736,721,705,690,674,659,643,628,612,600,595,597,598,587,586,588,593,594,594,599,595,600,602,594,600,624,596,599,594,599,605,605,609,608,603,621,603,598,607,600,880,883,886,891,939,1043,1179,1312,1397,1432,1370,1349,1396,1360,1368,1315,1293,1309,1244,1176,1199,1216,1140,1089,1123,1090,1067,1042,1045,1024,977,952,932,917,925,983,902,861,917,914,930,958,943,940,923,940,934,965,946,945,1000,1023,1063,1022,980,952,948,965,950,942,948,973,945,968,937,931,943,936,945,1000,1113,1257,1394,1478,1512,1544,1497,1459,1435,1411,1386,1430,1394,1316,1292,1268,1245,1250,1207,1172,1149,1126,1102,1103,1054,1029,1006,983,961,947,944,983,949,959,967,965,975,994,961,973,994,978,974,1000,990,1078,1067,1088,1016,1136,1096,1022,999,978,976,992,965,977,1004,965,330,320,332,322,323,343,388,429,522,521,532,524,515,520,498,490,494,473,464,456,448,450,431,422,414,419,397,401,392,384,375,354,346,337,325,333,325,337,317,315,320,333,328,323,323,320,324,333,339,333,385,422,477,370,351,332,322,327,320,323,316,326,326,333,323,614,616,618,620,634,697,790,883,969,1012,1015,999,996,966,950,934,917,901,885,864,852,836,845,822,798,771,755,739,722,732,690,670,657,641,628,624,634,627,622,619,613,622,626,654,623,631,641,645,625,630,621,629,629,615,630,633,631,631,624,628,637,642,636,641,632,887,890,893,900,950,1057,1197,1330,1414,1449,1441,1421,1398,1375,1352,1391,1306,1345,1260,1338,1242,1191,1264,1239,1148,1099,1076,1053,1030,1007,984,1006,960,917,904,900,903,905,961,908,912,921,902,912,920,917,932,988,922,934,991,938,938,997,952,935,928,929,976,1036,1047,1073,1075,962,962,194,195,195,196,196,202,223,276,294,320,329,326,323,320,317,305,301,298,294,290,287,297,280,276,273,238,234,230,225,221,217,213,208,204,200,197,197,198,182,185,184,187,234,211,198,213,197,235,207,208,211,190,194,208,201,189,220,194,189,212,205,228,211,205,200,0,0,0,0,0,0,0,0,0,0,0,0,0,0,0,0,0,0,0,0,0,0,0,0,0,0,0,0,0,0,0,0,0,0,0,0,0,0,0,0,0,0,0,0,0,0,0,0,0,0,0,0,0,0,0,0,0,0,0,0,0,0,0,0,0,678,663,665,666,706,787,919,1051,1161,1228,1243,1175,1153,1131,1107,1085,1065,1043,1021,1020,977,955,955,933,889,859,837,823,793,779,775,735,706,709,674,672,676,680,686,682,682,690,684,691,686,695,684,694,689,684,687,685,691,695,692,691,690,691,692,690,687,702,686,694,689,340,341,342,343,344,366,428,471,488,519,530,523,516,510,503,497,490,484,477,470,464,457,467,459,451,443,421,427,419,411,385,376,367,358,349,345,346,347,339,343,334,338,349,347,368,362,342,349,348,354,351,341,342,351,348,345,350,345,341,347,341,351,349,353,339,964,912,969,934,977,1194,1327,1491,1564,1632,1597,1637,1541,1513,1558,1497,1429,1387,1382,1344,1316,1323,1260,1257,1204,1175,1148,1155,1116,1064,1035,1039,1025,953,936,974,973,969,970,966,984,1008,989,996,982,1012,989,1011,996,984,1004,1028,1055,1049,1026,1013,985,1006,993,983,985,1014,1009,1014,980,996,999,1002,1015,1067,1192,1351,1514,1596,1631,1624,1598,1572,1546,1520,1494,1468,1442,1417,1391,1365,1339,1313,1287,1261,1249,1209,1197,1157,1131,1118,1079,1053,1029,1014,1011,1054,1017,1020,1049,1049,1044,1067,1046,1054,1083,1049,1050,1074,1034,1059,1055,1072,1076,1234,1183,1092,1058,1062,1055,1042,1039,1053,1104,1031,1501,1449,1474,1555,1743,1994,2172,2394,2468,2461,2353,2470,2322,2324,2283,2202,2199,2120,2109,2038,1997,2001,2080,1873,1832,1791,1781,1746,1668,1736,1613,1545,1507,1484,1504,1467,1575,1477,1565,1552,1575,1594,1597,1608,1618,1636,1603,1618,1641,1627,1654,1652,1641,1652,1670,1637,1642,1658,1656,1673,1662,1652,1677,1678,1685,1188,1173,1177,1305,1307,1604,1724,1885,2003,2012,2021,1986,1928,1893,1881,1846,1859,1848,1719,1783,1671,1636,1650,1545,1511,1495,1460,1406,1390,1337,1320,1267,1268,1224,1189,1188,1193,1199,1268,1267,1242,1259,1256,1298,1262,1279,1297,1361,1283,1334,1318,1333,1288,1343,1333,1279,1274,1279,1315,1348,1327,1350,1336,1335,1305,873,860,878,879,928,1039,1177,1309,1394,1429,1436,1403,1380,1357,1335,1337,1289,1266,1268,1221,1198,1175,1152,1143,1107,1084,1061,1061,1016,1007,970,947,924,903,894,871,897,890,885,894,898,921,905,912,898,898,896,892,916,897,920,937,929,908,906,920,915,919,920,907,911,925,899,906,904,1271,1181,1186,1227,1367,1568,1746,1989,2125,2028,2013,2012,1943,2115,1921,1837,1875,1767,1762,1697,1662,1637,1659,1556,1521,1486,1499,1453,1381,1370,1334,1275,1241,1214,1206,1196,1262,1207,1236,1275,1239,1243,1279,1266,1254,1271,1266,1283,1288,1264,1269,1277,1290,1296,1300,1305,1289,1296,1307,1307,1318,1326,1341,1330,1321,1394,1362,1397,1544,1692,1885,2261,2181,2311,2335,2419,2267,2247,2188,2120,2212,2116,2072,2094,1972,1909,1893,1849,1855,1727,1718,1655,1631,1589,1552,1561,1497,1462,1432,1394,1374,1400,1406,1499,1503,1459,1456,1503,1484,1493,1501,1498,1517,1557,1507,1517,1529,1531,1533,1516,1543,1548,1554,1588,1551,1535,1540,1595,1531,1539,612,613,632,616,629,716,838,961,1069,1119,1119,1098,1077,1057,1036,1015,995,974,953,932,912,891,870,850,829,808,787,786,746,725,704,684,663,642,624,622,625,629,624,634,654,760,647,619,637,686,662,624,749,720,636,664,753,735,741,621,651,652,685,657,630,655,646,632,631,702,707,706,707,725,815,941,1115,1206,1221,1267,1200,1178,1157,1136,1115,1094,1106,1083,1030,1024,988,966,945,945,903,881,860,839,920,797,775,754,733,715,713,716,720,724,720,735,752,747,730,735,739,739,744,751,746,745,751,761,755,756,745,744,748,745,738,732,761,748,755,733,0,0,0,0,0,0,0,0,0,0,0,0,0,0,0,0,0,0,0,0,0,0,0,0,0,0,0,0,0,0,0,0,0,0,0,0,0,0,0,0,0,0,0,0,0,0,0,0,0,0,0,0,0,0,0,0,0,0,0,0,0,0,0,0,0,964,912,969,934,977,1194,1327,1491,1564,1632,1597,1637,1541,1513,1558,1497,1429,1387,1382,1344,1316,1323,1260,1257,1204,1175,1148,1155,1116,1064,1035,1039,1025,953,936,974,973,969,970,966,984,1008,989,996,982,1012,989,1011,996,984,1004,1028,1055,1049,1026,1013,985,1006,993,983,985,1014,1009,1014,980,0,0,0,0,0,0,0,0,0,0,0,0,0,0,0,0,0,0,0,0,0,0,0,0,0,0,0,0,0,0,0,0,0,0,0,0,0,0,0,0,0,0,0,0,0,0,0,0,0,0,0,0,0,0,0,0,0,0,0,0,0,0,0,0,0,377,390,379,380,381,441,463,536,572,639,627,617,626,597,587,577,567,575,564,537,527,517,523,513,487,477,467,472,447,437,427,417,407,397,399,395,383,384,372,373,377,387,372,379,373,378,380,372,379,371,373,373,374,379,374,377,376,378,376,380,374,384,373,379,376,766,805,808,820,846,975,1201,1181,1284,1307,1305,1319,1264,1244,1223,1179,1178,1315,1102,1132,1051,1079,1058,1038,972,993,973,979,935,914,893,902,852,860,818,812,817,842,818,818,822,831,831,838,840,851,838,835,846,837,839,840,839,847,845,835,846,844,845,844,841,853,833,843,835,853,856,857,863,905,1005,1135,1265,1410,1387,1384,1362,1340,1332,1297,1274,1304,1231,1209,1188,1166,1144,1122,1112,1126,1099,1035,1038,991,969,946,925,903,882,869,866,868,869,869,879,873,884,952,935,920,939,894,974,930,955,919,900,905,936,914,906,950,922,907,930,917,960,925,939,907,221,223,222,223,224,233,264,309,334,362,376,369,364,376,354,348,342,336,330,325,319,318,313,308,303,290,275,270,265,258,252,246,240,234,228,226,226,226,212,215,215,211,220,231,217,213,215,223,217,216,216,216,216,217,223,218,213,217,216,217,218,218,223,216,213,515,516,518,551,521,601,650,761,884,930,890,876,861,847,793,784,804,790,788,774,745,733,690,705,661,676,646,620,633,619,582,568,553,562,526,542,521,571,526,527,529,529,537,531,538,542,534,536,537,537,541,541,539,545,545,540,549,544,540,536,544,548,550,549,549,810,812,815,818,856,950,1076,1323,1336,1439,1322,1301,1280,1259,1238,1217,1225,1171,1253,1132,1111,1090,1069,1048,1027,1006,1072,964,943,922,901,880,859,838,891,822,824,869,825,847,844,840,864,838,852,869,848,847,864,837,855,851,868,871,1029,976,885,859,854,847,844,839,856,891,835,348,372,350,351,353,376,424,486,523,574,585,569,573,559,551,542,534,514,505,496,486,477,468,459,450,451,449,422,425,404,396,406,376,389,381,355,355,355,351,355,355,365,353,355,353,356,357,351,355,353,354,354,355,356,356,360,355,360,357,363,356,368,356,363,360,364,375,339,377,378,362,409,510,504,582,590,550,541,564,557,515,546,550,540,512,521,462,453,491,481,426,462,452,400,425,382,407,403,390,347,342,343,372,341,347,349,365,346,346,345,350,346,342,347,343,343,342,342,343,343,345,343,343,342,342,341,345,342,346,343,747,749,767,782,792,1001,1064,1331,1321,1383,1351,1326,1301,1276,1251,1268,1201,1176,1174,1158,1123,1098,1042,1063,1002,977,944,927,902,869,852,827,803,823,754,760,765,762,761,764,775,786,772,783,774,791,767,781,775,766,770,776,781,784,783,779,770,770,783,776,769,769,766,786,774,0,0,0,0,0,0,0,0,0,0,0,0,0,0,0,0,0,0,0,0,0,0,0,0,0,0,0,0,0,0,0,0,0,0,0,0,0,0,0,0,0,0,0,0,0,0,0,0,0,0,0,0,0,0,0,0,0,0,0,0,0,0,0,0,0 ]);
