n = 30;
D = [61,268,282,204,148,68,61,276,282,220,184,138,85,159,124,234,244,199,249,274,235,83,292,231,157,234,263,151,79,110 ];
q = 0;
prec = array2d(1..0,1..2,[]);
steps = 64;
l = 360;
r = 0;
which = [];
interval = array2d(1..0,1..2,[]);
T = array3d(1..31,1..31,0..64,[0,0,0,0,0,0,0,0,0,0,0,0,0,0,0,0,0,0,0,0,0,0,0,0,0,0,0,0,0,0,0,0,0,0,0,0,0,0,0,0,0,0,0,0,0,0,0,0,0,0,0,0,0,0,0,0,0,0,0,0,0,0,0,0,0,288,288,289,290,291,305,344,383,422,460,474,467,459,452,444,437,430,422,415,407,400,393,385,378,370,363,356,348,341,333,326,319,311,304,296,292,293,293,278,284,281,281,285,285,286,284,282,285,280,284,284,287,288,287,288,288,286,292,289,284,289,282,286,292,286,377,365,366,367,368,391,472,521,542,587,599,590,580,571,562,552,543,533,524,515,546,496,487,477,468,458,485,475,465,451,412,402,407,384,382,369,370,371,364,369,365,378,471,424,393,426,394,478,415,424,425,379,389,414,397,380,442,393,379,425,409,463,426,411,400,818,805,810,829,867,958,1100,1182,1309,1356,1328,1311,1260,1306,1247,1255,1203,1181,1163,1156,1100,1098,1081,1045,1018,998,999,957,961,913,911,938,867,832,836,832,832,852,839,839,858,944,858,846,860,896,874,848,867,854,860,851,863,863,863,852,852,853,861,870,847,875,852,864,864,1136,1135,1138,1195,1295,1539,1708,1903,1972,1976,1935,1901,1907,1810,1833,1823,1783,1746,1649,1633,1642,1570,1531,1524,1487,1450,1386,1379,1344,1309,1258,1246,1164,1168,1145,1152,1139,1145,1197,1196,1203,1297,1227,1204,1236,1262,1226,1213,1225,1230,1227,1215,1227,1233,1226,1211,1223,1216,1225,1235,1208,1234,1212,1216,1210,1270,1249,1277,1357,1522,1761,2023,2143,2166,2265,2191,2180,2179,2108,2106,2054,1913,1932,1925,1929,1792,1777,1712,1688,1658,1607,1572,1496,1491,1404,1365,1391,1326,1260,1308,1295,1344,1310,1373,1375,1356,1369,1368,1381,1374,1405,1399,1452,1390,1419,1418,1417,1391,1452,1429,1402,1396,1378,1399,1434,1399,1433,1415,1422,1391,954,927,937,947,1017,1105,1313,1430,1537,1514,1565,1553,1511,1492,1404,1358,1370,1357,1308,1363,1244,1257,1203,1235,1185,1161,1118,1155,1089,1055,1022,1018,965,945,959,966,959,985,946,988,947,944,968,950,963,971,967,966,991,962,968,975,975,982,975,990,988,983,997,966,988,996,1016,976,974,1222,1162,1173,1208,1309,1430,1660,1785,1886,1857,1903,1886,1916,1926,1775,1674,1680,1732,1656,1725,1536,1543,1547,1512,1457,1461,1421,1441,1343,1304,1290,1257,1232,1201,1195,1202,1217,1244,1243,1249,1273,1298,1311,1317,1315,1274,1279,1309,1264,1252,1268,1275,1272,1271,1299,1284,1262,1258,1272,1271,1265,1290,1296,1321,1280,371,378,379,374,381,406,459,512,565,611,622,612,602,583,583,573,563,553,544,534,524,514,504,495,485,475,465,455,446,436,426,416,406,397,387,382,383,384,377,380,379,377,379,379,384,387,379,383,379,381,385,384,388,386,387,385,383,383,388,387,383,387,385,386,386,740,727,729,746,776,863,974,1061,1175,1215,1189,1196,1151,1132,1137,1147,1099,1079,1059,1040,999,1002,983,952,924,905,907,867,873,829,826,791,787,753,754,751,753,756,752,754,756,762,760,758,767,761,763,760,766,760,766,761,771,779,774,784,772,770,774,764,769,770,774,778,768,443,470,472,447,449,484,583,611,730,723,733,721,709,738,686,714,663,689,677,665,652,605,593,582,570,558,579,566,524,512,500,517,505,465,454,476,477,479,456,456,455,469,460,472,457,462,467,464,461,462,456,462,461,455,462,468,465,463,461,462,469,480,470,477,468,1138,1142,1146,1251,1289,1455,1614,1749,1869,1848,1840,1827,1917,1752,1722,1738,1664,1649,1605,1599,1605,1517,1530,1458,1427,1520,1370,1403,1354,1281,1283,1269,1194,1171,1235,1168,1171,1174,1223,1234,1191,1187,1231,1210,1221,1227,1223,1226,1279,1233,1239,1258,1252,1251,1236,1257,1264,1269,1299,1253,1249,1258,1304,1243,1237,681,684,686,704,709,786,887,966,1070,1113,1099,1105,1065,1048,1031,1061,1016,997,978,961,930,926,908,879,852,845,838,814,794,764,760,744,744,710,696,692,704,696,692,678,682,680,685,684,690,692,689,690,692,694,695,698,697,701,700,699,705,702,700,699,706,708,712,712,712,201,202,203,203,204,211,239,267,295,323,339,333,328,322,317,312,306,301,295,290,284,279,274,268,263,257,252,246,241,236,230,225,219,214,208,204,205,206,192,190,195,203,197,193,194,201,196,197,201,203,234,236,243,216,197,198,197,205,198,194,196,202,198,202,197,540,542,543,545,551,600,679,758,836,882,889,875,861,847,833,819,805,809,777,763,749,735,720,750,735,678,664,655,636,620,608,594,615,566,553,548,550,551,548,559,549,560,562,568,560,575,559,564,554,554,557,564,567,561,567,563,557,554,569,560,555,557,557,567,555,710,652,729,691,681,785,839,995,1026,1125,1065,1055,1091,1033,1003,1036,969,1038,935,1001,895,893,866,859,832,814,797,780,763,754,729,712,703,712,663,660,661,663,661,701,662,668,687,677,667,671,676,705,687,667,672,677,695,685,682,689,677,679,692,687,701,702,705,699,690,1100,1120,1107,1142,1216,1387,1515,1651,1774,1775,1769,1738,1738,1666,1638,1656,1583,1571,1550,1524,1527,1445,1418,1422,1377,1369,1322,1362,1253,1238,1242,1217,1163,1133,1120,1153,1140,1157,1183,1175,1173,1174,1177,1181,1191,1185,1188,1193,1192,1183,1192,1196,1207,1214,1203,1213,1190,1205,1203,1197,1203,1216,1187,1193,1182,1122,1091,1100,1137,1242,1337,1530,1708,1715,1789,1768,1724,1722,1694,1640,1627,1608,1578,1542,1496,1510,1461,1451,1410,1338,1393,1329,1288,1261,1230,1204,1183,1151,1130,1112,1113,1112,1122,1170,1137,1139,1139,1172,1212,1162,1173,1173,1179,1236,1184,1192,1204,1200,1212,1159,1173,1185,1206,1204,1205,1173,1189,1205,1175,1175,781,784,785,789,838,915,1057,1159,1262,1281,1281,1278,1253,1220,1199,1225,1158,1153,1117,1104,1076,1064,1035,1015,994,987,953,956,924,892,916,864,844,810,797,804,807,808,793,790,808,822,802,817,799,816,797,825,810,798,806,806,820,835,820,814,815,804,814,815,816,820,800,817,808,1114,1113,1099,1133,1256,1536,1663,1858,1990,1933,1892,1859,1865,1768,1792,1762,1765,1680,1609,1594,1560,1526,1492,1452,1452,1385,1349,1372,1310,1256,1222,1211,1152,1149,1122,1118,1192,1129,1169,1170,1169,1176,1182,1170,1185,1188,1190,1177,1188,1193,1253,1246,1272,1207,1184,1195,1192,1202,1188,1181,1203,1174,1177,1185,1172,1187,1194,1190,1255,1403,1622,1883,2073,2098,2162,2090,2060,2052,1975,1996,1934,1854,1816,1779,1758,1719,1670,1631,1586,1581,1509,1477,1459,1399,1370,1322,1306,1243,1219,1224,1219,1259,1233,1314,1304,1295,1317,1353,1346,1329,1323,1346,1382,1342,1404,1425,1391,1319,1351,1364,1363,1360,1337,1418,1507,1456,1459,1467,1387,1389,512,514,516,517,523,570,646,722,797,844,850,837,823,809,796,782,769,755,741,728,714,701,687,673,660,646,632,619,605,592,578,564,551,537,525,520,522,523,514,513,516,518,519,519,519,519,517,527,519,521,524,527,532,531,538,529,533,527,531,529,533,538,527,536,529,750,748,720,755,787,852,969,1107,1180,1234,1202,1200,1195,1145,1150,1257,1095,1137,1065,1046,1030,1018,973,956,930,915,910,896,861,860,802,788,799,782,760,758,745,762,774,755,749,756,776,778,774,783,782,798,774,815,824,808,785,818,791,781,799,789,824,882,863,882,869,830,829,637,635,637,643,671,723,823,913,979,1044,1045,1048,1016,1026,979,968,950,946,917,900,880,866,849,830,813,819,779,746,746,727,749,694,679,681,651,656,659,659,657,656,655,670,666,671,690,682,664,674,683,677,675,668,662,684,677,676,670,662,666,668,668,667,674,702,664,610,612,613,615,628,689,781,873,959,1015,1003,1003,975,959,943,927,911,895,875,862,846,832,814,794,782,766,750,733,717,699,685,669,653,634,623,619,621,622,615,607,619,634,629,628,621,617,630,638,633,629,657,659,678,659,653,637,617,631,623,626,618,632,624,644,616,503,505,506,508,512,556,629,702,775,817,831,817,804,791,778,765,752,738,725,712,699,686,673,659,646,633,620,607,594,578,567,554,541,528,515,511,512,514,509,526,507,522,522,522,518,527,513,514,516,517,515,515,518,521,519,522,518,518,521,525,511,531,515,523,513,822,877,827,907,924,966,1094,1221,1307,1345,1344,1323,1383,1359,1258,1237,1215,1270,1172,1151,1130,1108,1111,1133,1108,1022,1023,984,958,934,915,894,926,851,891,889,856,839,858,853,871,873,868,889,876,893,889,877,908,879,883,890,889,901,883,875,888,891,885,884,884,894,871,892,890,378,379,380,381,382,408,461,514,567,614,625,615,605,595,585,575,566,556,546,536,526,516,506,497,487,477,467,457,447,437,412,402,408,383,388,383,384,386,380,378,371,373,396,397,385,395,393,407,404,416,414,415,406,408,410,392,406,407,416,430,411,426,427,437,406,677,679,681,683,687,768,841,940,1046,1069,1072,1072,1038,1021,1004,997,969,968,935,935,920,884,889,873,858,856,827,824,785,769,785,736,695,704,691,701,703,705,687,691,690,706,702,709,692,712,694,698,700,700,699,706,712,722,716,720,709,710,718,717,716,736,723,736,724,1311,1340,1373,1425,1534,1819,1899,2034,2088,2134,2256,2232,2074,2119,1971,1954,1900,1919,1855,1908,1779,1733,1709,1744,1651,1666,1587,1593,1486,1515,1441,1460,1405,1375,1370,1365,1382,1378,1418,1430,1449,1468,1452,1456,1444,1458,1435,1461,1468,1452,1451,1467,1463,1480,1560,1522,1456,1463,1490,1461,1453,1443,1459,1478,1460,0,0,0,0,0,0,0,0,0,0,0,0,0,0,0,0,0,0,0,0,0,0,0,0,0,0,0,0,0,0,0,0,0,0,0,0,0,0,0,0,0,0,0,0,0,0,0,0,0,0,0,0,0,0,0,0,0,0,0,0,0,0,0,0,0,486,487,489,490,493,546,599,689,735,809,794,781,769,757,744,732,720,704,712,683,670,658,664,633,621,608,593,581,571,556,544,532,522,510,498,493,494,496,479,472,480,496,471,481,477,483,477,473,481,475,472,473,476,480,478,485,475,476,476,477,479,486,476,488,483,0,0,0,0,0,0,0,0,0,0,0,0,0,0,0,0,0,0,0,0,0,0,0,0,0,0,0,0,0,0,0,0,0,0,0,0,0,0,0,0,0,0,0,0,0,0,0,0,0,0,0,0,0,0,0,0,0,0,0,0,0,0,0,0,0,655,657,645,647,704,741,820,967,1001,1070,1069,1034,1018,1001,984,968,951,931,963,901,885,868,870,835,818,802,795,778,775,733,716,700,686,665,655,651,653,655,640,634,642,651,647,656,651,655,645,666,657,647,649,641,645,655,652,651,655,641,640,647,651,655,653,674,654,1070,1074,1171,1083,1214,1288,1524,1692,1716,1761,1750,1735,1710,1706,1593,1623,1552,1571,1486,1474,1450,1437,1443,1397,1338,1353,1320,1258,1272,1252,1165,1208,1161,1133,1089,1151,1119,1136,1139,1138,1138,1152,1165,1149,1164,1167,1159,1157,1167,1169,1244,1242,1252,1211,1162,1157,1164,1166,1160,1165,1167,1161,1158,1183,1160,1387,1419,1413,1537,1717,2058,2186,2329,2343,2399,2363,2319,2279,2290,2178,2208,2167,2139,2095,2035,1991,1915,1921,1833,1842,1739,1696,1669,1625,1560,1524,1522,1443,1470,1441,1442,1456,1438,1493,1514,1529,1537,1536,1529,1529,1560,1525,1525,1565,1509,1532,1531,1544,1559,1712,1663,1567,1535,1539,1532,1521,1517,1528,1598,1514,1549,1554,1600,1730,1960,2287,2496,2653,2646,2617,2611,2590,2514,2486,2394,2400,2352,2321,2273,2156,2163,2160,2085,1976,1999,1926,1868,1835,1738,1799,1689,1654,1606,1622,1533,1579,1624,1644,1717,1721,1675,1681,1717,1706,1712,1724,1719,1727,1777,1726,1738,1750,1751,1756,1731,1761,1773,1773,1807,1762,1754,1762,1815,1747,1751,1242,1263,1213,1306,1365,1554,1759,1949,1991,2020,1963,2006,2014,1897,1860,1822,1789,1769,1700,1673,1624,1634,1609,1533,1524,1471,1533,1439,1460,1356,1346,1303,1272,1227,1231,1221,1223,1227,1309,1311,1299,1323,1356,1350,1332,1329,1342,1375,1337,1374,1381,1361,1320,1345,1340,1356,1359,1327,1374,1426,1386,1386,1392,1351,1348,1502,1532,1466,1593,1760,1911,2114,2297,2333,2357,2349,2365,2459,2289,2174,2131,2139,2119,1995,1964,1999,1915,1886,1919,1791,1771,1875,1693,1708,1601,1586,1538,1560,1497,1495,1458,1460,1466,1572,1562,1593,1608,1613,1649,1600,1611,1623,1633,1654,1623,1651,1662,1678,1667,1637,1623,1609,1629,1611,1614,1614,1640,1612,1644,1620,377,378,379,380,381,405,457,510,563,610,623,613,604,594,584,574,564,573,545,535,525,515,505,496,486,476,466,456,446,437,427,417,407,397,388,383,384,385,369,371,374,386,370,381,372,381,384,371,384,371,373,374,373,380,376,378,376,381,377,379,374,387,374,385,377,989,992,996,1000,1115,1183,1407,1515,1584,1645,1636,1623,1603,1596,1484,1522,1453,1473,1383,1376,1351,1325,1347,1302,1248,1261,1235,1158,1174,1153,1081,1111,1080,1051,1008,1004,1037,1040,1036,1013,1028,1031,1037,1047,1031,1030,1034,1045,1078,1058,1062,1067,1072,1069,1068,1061,1052,1081,1083,1077,1067,1061,1083,1099,1085,295,296,297,298,299,314,354,395,436,520,490,482,474,467,459,451,443,436,428,420,413,405,397,389,382,374,366,358,351,343,335,327,320,312,304,300,300,301,285,307,301,300,289,291,293,296,293,312,303,304,312,295,297,293,310,301,293,303,366,315,310,293,307,295,297,1434,1420,1429,1506,1719,1927,2119,2209,2230,2273,2241,2304,2216,2169,2097,2144,2039,1992,2006,1996,1896,1850,1842,1820,1742,1801,1669,1635,1648,1608,1554,1492,1459,1435,1520,1455,1427,1431,1486,1531,1496,1507,1531,1519,1512,1526,1527,1527,1540,1516,1524,1534,1536,1541,1551,1556,1554,1547,1563,1556,1567,1590,1600,1586,1580,944,963,950,936,1041,1100,1311,1419,1508,1547,1545,1538,1515,1491,1399,1421,1371,1393,1323,1317,1292,1250,1274,1229,1194,1192,1167,1092,1109,1089,1019,1051,1021,991,961,945,978,980,955,950,974,991,959,978,960,969,963,981,991,981,975,982,986,999,985,986,974,985,986,988,991,986,976,1003,1001,478,480,481,483,486,541,597,690,737,811,796,783,770,757,745,732,719,703,711,681,668,655,662,630,617,605,589,576,566,551,538,526,515,503,490,486,487,488,476,484,477,498,479,492,483,496,486,492,487,480,493,488,494,491,492,494,495,493,499,492,493,496,492,496,496,503,504,506,507,511,568,654,700,772,868,829,855,841,789,820,763,750,765,758,711,719,705,696,682,660,632,649,606,598,580,567,554,540,527,515,510,512,513,504,517,514,522,530,523,524,526,511,529,513,518,518,529,530,541,557,552,523,523,527,519,517,518,529,526,513,509,511,512,514,548,598,640,716,836,838,845,875,818,846,832,778,764,751,775,724,747,697,718,670,656,676,629,656,602,588,604,590,576,562,549,517,519,520,526,530,527,538,569,556,571,584,544,575,557,563,560,536,541,565,559,540,564,545,536,554,548,575,559,561,544,1395,1382,1385,1437,1656,1839,2021,2114,2157,2182,2152,2191,2131,2104,2034,2022,1978,1915,1932,1923,1825,1798,1796,1732,1693,1741,1623,1598,1592,1554,1522,1440,1421,1397,1441,1416,1388,1424,1491,1493,1475,1489,1479,1510,1486,1495,1525,1572,1497,1521,1520,1518,1510,1540,1536,1509,1505,1496,1506,1547,1506,1521,1526,1516,1499,958,942,963,972,1018,1129,1309,1457,1496,1613,1568,1504,1481,1455,1431,1408,1384,1361,1311,1352,1298,1293,1238,1250,1241,1199,1141,1139,1092,1102,1054,1017,1038,980,967,936,985,995,969,998,999,989,1009,986,1005,1019,997,991,1016,984,1003,997,1019,1029,1176,1128,1044,1003,1001,994,991,986,1004,1045,978,952,976,1073,1012,1063,1163,1322,1456,1570,1608,1651,1577,1556,1490,1531,1508,1519,1415,1434,1364,1316,1327,1266,1276,1237,1189,1201,1171,1122,1114,1070,1041,1051,1079,983,967,999,1020,1011,1007,1013,1022,1017,1014,1021,1049,1032,1024,1016,1020,1019,1020,1023,1030,1054,1024,1019,1031,1032,1023,1032,1027,1039,1026,1019,1376,1417,1399,1502,1675,1956,2141,2285,2300,2356,2417,2277,2237,2187,2137,2115,2075,2050,2010,1975,1913,1876,1849,1776,1854,1702,1659,1633,1589,1541,1501,1480,1432,1435,1400,1400,1409,1420,1463,1475,1499,1521,1537,1518,1511,1514,1504,1513,1491,1481,1498,1506,1501,1502,1531,1519,1493,1493,1506,1503,1499,1519,1540,1543,1510,1466,1470,1502,1641,1855,2158,2357,2518,2513,2552,2512,2464,2452,2364,2325,2283,2248,2208,2173,2102,2056,2025,1983,1927,1902,1839,1774,1743,1694,1692,1612,1571,1522,1538,1492,1494,1514,1559,1600,1606,1633,1654,1678,1657,1646,1655,1637,1648,1629,1619,1636,1644,1642,1649,1675,1665,1631,1635,1647,1644,1644,1662,1685,1692,1655,478,479,481,482,486,525,596,666,736,784,794,781,769,756,743,731,718,705,692,680,667,654,642,629,616,603,591,578,565,553,540,527,514,502,490,485,486,488,464,473,477,498,475,471,471,473,475,470,471,473,473,476,473,475,477,479,478,478,477,479,480,503,502,503,500,800,803,830,809,883,937,1066,1180,1340,1348,1308,1336,1304,1251,1261,1240,1223,1221,1176,1142,1093,1092,1051,1070,1063,1028,1012,985,937,948,926,871,919,892,819,812,845,848,876,824,832,844,889,899,854,900,875,906,900,875,878,852,859,884,868,850,892,868,851,875,869,906,875,883,864,898,902,904,885,968,1038,1232,1343,1429,1488,1464,1429,1404,1411,1332,1364,1308,1302,1287,1252,1215,1212,1195,1163,1137,1111,1089,1038,1048,1025,1005,975,954,925,916,910,914,918,914,914,911,919,921,935,919,921,934,937,916,922,920,923,922,915,927,927,922,923,916,932,927,935,935,931,924,572,574,576,578,587,642,728,805,896,981,943,971,955,897,924,902,887,841,860,811,799,773,758,779,735,713,734,683,674,659,644,629,678,668,582,581,583,584,592,594,594,598,600,595,601,605,594,599,595,599,601,603,606,607,601,598,608,603,613,613,606,615,600,602,606,466,467,469,470,473,511,578,637,712,801,770,797,784,733,758,740,727,685,707,660,641,629,616,640,599,580,604,556,550,538,526,514,566,552,478,473,474,476,480,481,480,484,491,492,498,515,491,498,494,495,494,503,496,514,498,490,500,490,486,507,494,498,492,506,492,784,787,789,792,826,986,1105,1236,1245,1408,1285,1414,1281,1223,1245,1182,1162,1257,1245,1100,1129,1108,1090,1126,1039,977,986,993,977,895,875,854,834,856,853,796,798,891,822,833,825,839,841,843,836,858,838,843,837,839,832,840,837,848,853,846,847,839,838,850,843,867,841,855,846,350,352,353,354,355,376,425,474,523,568,580,571,562,553,543,534,525,516,507,498,489,479,470,461,452,443,434,425,415,406,397,388,379,370,361,356,357,358,350,356,347,349,356,355,366,378,351,356,357,362,356,351,355,360,360,355,358,354,355,355,354,358,356,364,350,851,846,840,848,888,1009,1143,1178,1303,1434,1379,1346,1372,1261,1278,1253,1232,1220,1177,1138,1120,1111,1064,1082,1032,1050,1003,962,986,926,904,883,857,836,875,848,850,829,867,863,855,942,915,905,876,876,899,935,900,937,938,927,873,879,911,916,915,889,930,983,928,919,943,908,907,1593,1631,1698,1756,1912,2287,2341,2521,2669,2564,2555,2484,2529,2400,2368,2372,2293,2242,2332,2211,2134,2110,2061,1986,2028,1978,1941,1900,1848,1795,1748,1725,1681,1682,1647,1604,1658,1669,1820,1833,1785,1793,1828,1825,1870,1865,1825,1849,1892,1827,1838,1885,1893,1908,1880,1918,1909,1917,1943,1873,1864,1865,1905,1850,1831,486,487,489,490,493,546,599,689,735,809,794,781,769,757,744,732,720,704,712,683,670,658,664,633,621,608,593,581,571,556,544,532,522,510,498,493,494,496,479,472,480,496,471,481,477,483,477,473,481,475,472,473,476,480,478,485,475,476,476,477,479,486,476,488,483,181,181,182,182,183,186,208,230,252,274,290,285,281,277,272,268,264,260,255,251,247,242,238,234,230,225,221,217,212,208,204,200,195,191,187,183,184,184,181,177,171,173,185,188,182,188,184,195,187,210,215,212,192,209,200,181,187,192,212,233,224,239,231,227,208,443,445,446,447,449,481,543,604,666,715,726,725,703,692,681,669,658,647,635,624,613,601,597,579,568,556,545,534,522,511,500,488,481,466,455,450,451,452,440,437,444,453,447,446,440,449,446,441,445,447,447,449,450,458,457,460,450,456,453,457,462,475,477,481,477,0,0,0,0,0,0,0,0,0,0,0,0,0,0,0,0,0,0,0,0,0,0,0,0,0,0,0,0,0,0,0,0,0,0,0,0,0,0,0,0,0,0,0,0,0,0,0,0,0,0,0,0,0,0,0,0,0,0,0,0,0,0,0,0,0,678,683,682,687,702,800,907,997,1062,1135,1105,1089,1072,1083,1037,1020,1002,985,968,947,955,915,898,881,861,862,826,841,809,799,774,756,751,727,719,730,706,722,716,712,708,720,747,755,756,762,732,764,758,755,752,723,733,772,774,731,749,745,723,751,739,756,753,766,736,904,922,909,920,1002,1171,1307,1469,1565,1591,1581,1553,1525,1522,1534,1503,1476,1444,1409,1344,1301,1273,1245,1253,1222,1191,1152,1105,1097,1036,1020,1014,955,953,936,940,925,922,939,935,935,943,928,940,937,940,958,1020,947,965,974,970,962,980,989,962,953,960,968,978,965,969,977,984,971,1069,1056,1081,1067,1174,1373,1630,1785,1842,1908,1900,1774,1740,1769,1734,1699,1641,1606,1595,1563,1500,1465,1501,1421,1386,1351,1316,1294,1247,1212,1177,1153,1159,1088,1090,1073,1068,1075,1078,1121,1085,1097,1104,1089,1096,1103,1110,1101,1116,1097,1108,1105,1107,1111,1120,1128,1121,1123,1150,1108,1129,1157,1175,1152,1145,793,785,786,809,844,970,1110,1259,1315,1320,1342,1294,1243,1310,1254,1236,1175,1114,1112,1141,1125,1061,1050,1021,1011,1024,960,981,955,938,889,896,875,835,813,857,820,822,818,809,823,823,815,832,822,827,828,836,852,840,838,841,843,853,844,846,832,847,846,846,853,846,844,870,869,1027,1019,1041,1059,1123,1285,1462,1616,1667,1753,1760,1631,1632,1636,1576,1553,1488,1422,1415,1493,1418,1359,1335,1301,1286,1293,1226,1241,1211,1188,1180,1224,1159,1122,1049,1093,1078,1095,1100,1113,1108,1115,1135,1103,1120,1146,1124,1120,1151,1129,1221,1208,1233,1173,1291,1239,1172,1147,1126,1128,1137,1112,1127,1158,1108,521,547,524,552,531,576,651,727,802,850,899,845,831,817,804,790,777,763,749,736,722,709,695,682,668,654,640,627,614,600,587,573,575,546,533,556,530,531,533,534,531,545,540,538,567,546,537,542,542,545,542,540,538,544,542,544,545,540,539,541,541,542,545,549,539,600,602,604,606,617,702,802,879,941,1017,988,973,958,971,926,949,895,879,863,847,857,814,800,784,768,768,737,750,720,711,688,672,668,646,638,634,624,626,622,625,628,636,622,629,629,633,632,625,631,626,630,628,632,633,632,634,630,633,632,636,630,646,632,638,636,575,577,558,559,620,620,702,783,863,909,914,899,854,870,856,841,827,812,798,756,769,754,740,725,711,696,682,692,652,638,623,609,574,580,567,606,564,566,568,564,571,567,567,565,569,577,570,575,564,573,572,584,578,578,575,580,577,576,576,590,578,583,569,573,576,1053,1120,1059,1082,1159,1297,1469,1608,1685,1714,1706,1679,1651,1624,1597,1653,1542,1515,1547,1461,1433,1406,1422,1352,1324,1335,1270,1292,1215,1223,1161,1133,1106,1084,1112,1068,1109,1107,1120,1114,1119,1121,1116,1118,1133,1133,1123,1126,1128,1126,1129,1137,1143,1144,1143,1141,1136,1142,1159,1144,1138,1156,1131,1129,1135,542,544,545,547,554,629,720,791,834,922,889,877,867,882,838,824,810,796,781,767,779,737,724,710,696,702,667,682,660,646,633,619,607,587,579,574,575,577,569,568,575,586,580,584,590,599,586,585,595,588,605,602,605,602,578,577,588,588,591,576,584,591,578,588,583,150,150,151,151,152,156,174,197,218,239,252,248,244,240,236,232,228,224,220,216,212,208,204,200,196,192,188,184,180,173,171,167,163,159,155,152,152,153,151,135,136,136,157,144,143,138,138,141,164,152,152,152,157,150,157,147,147,158,166,154,142,143,163,147,141,669,671,655,675,693,740,840,935,1023,1062,1097,1071,1010,1017,1000,983,966,949,950,940,899,882,865,845,818,829,818,795,763,766,729,731,675,678,683,679,663,690,713,659,659,663,662,675,660,670,664,667,663,659,663,667,674,670,680,669,668,672,671,677,671,675,670,677,678,824,820,801,804,852,934,1059,1225,1225,1307,1305,1284,1192,1243,1222,1201,1141,1159,1101,1090,1096,1040,1055,1034,1013,959,971,974,929,908,887,866,825,798,812,824,783,813,810,822,820,902,859,845,845,827,831,861,839,844,853,838,814,820,831,844,827,821,840,837,837,825,847,824,821,1002,1018,1019,1038,1141,1237,1372,1538,1573,1654,1614,1588,1554,1537,1507,1477,1478,1454,1472,1385,1360,1334,1309,1283,1279,1286,1228,1232,1156,1152,1119,1094,1068,1045,1073,1030,1082,1062,1063,1084,1093,1070,1072,1087,1105,1097,1089,1080,1136,1080,1099,1084,1104,1124,1122,1134,1120,1092,1104,1103,1092,1088,1084,1138,1066,1261,1318,1229,1329,1460,1527,1726,1907,1981,1952,1939,1913,1819,1917,1788,1820,1805,1746,1739,1680,1623,1613,1615,1585,1512,1475,1444,1476,1382,1368,1331,1266,1276,1248,1225,1259,1243,1288,1288,1296,1304,1327,1304,1303,1314,1312,1313,1312,1388,1344,1310,1343,1387,1380,1396,1343,1325,1340,1355,1322,1314,1344,1330,1315,1299,739,741,739,742,789,859,974,1089,1175,1215,1214,1195,1188,1150,1132,1099,1115,1074,1059,1033,1017,997,989,961,951,918,913,882,864,840,838,806,786,767,749,750,751,742,753,753,762,795,764,753,768,784,766,760,763,764,767,761,774,769,772,768,761,761,772,776,760,782,764,769,770,870,889,875,881,1024,1085,1263,1424,1521,1548,1563,1535,1547,1509,1427,1399,1375,1348,1316,1292,1346,1234,1250,1169,1151,1123,1117,1068,1040,1033,985,957,930,970,906,885,890,888,906,908,907,927,957,923,925,950,929,944,945,955,1024,1030,1038,983,1073,1016,974,954,932,924,942,931,944,929,927,959,972,972,975,1066,1247,1485,1643,1735,1773,1745,1708,1675,1655,1610,1577,1548,1515,1491,1450,1414,1382,1376,1327,1284,1251,1219,1208,1154,1121,1097,1067,1075,1004,988,988,984,998,1000,1020,1019,1035,1085,1065,1043,1088,1043,1096,1058,1095,1060,1043,1063,1101,1069,1053,1085,1055,1050,1078,1073,1105,1065,1059,1045,657,659,661,663,681,749,849,949,1037,1079,1084,1067,1049,1032,1014,997,980,962,945,928,910,893,876,858,841,824,813,789,772,761,737,720,718,685,671,667,669,671,680,669,671,686,674,677,678,686,678,676,682,674,700,701,709,691,686,680,676,692,683,674,678,697,682,692,680,680,693,685,701,720,795,867,968,1093,1133,1069,1117,1098,1068,1067,1027,1030,977,994,972,973,950,907,903,882,873,849,827,795,776,776,758,738,719,706,702,707,709,692,689,712,725,701,720,697,714,699,715,716,700,702,708,713,726,713,709,707,705,710,712,708,710,695,714,709,509,511,512,514,520,567,642,718,793,839,843,831,818,804,789,808,764,750,737,723,710,696,683,667,654,682,627,615,601,588,574,561,547,534,521,516,518,553,516,530,526,533,537,538,531,544,523,546,531,552,530,537,548,556,545,540,540,547,545,536,539,538,527,538,526,542,552,545,547,579,606,687,768,847,892,898,883,869,854,840,826,811,797,783,768,766,751,725,711,696,682,668,663,639,625,610,596,581,567,554,550,552,553,549,550,544,553,556,582,553,560,572,567,555,561,552,560,561,548,561,564,562,561,557,560,570,576,570,577,567,575,585,578,580,615,646,731,816,898,942,946,931,916,901,886,871,856,841,826,811,808,793,766,751,736,721,706,696,676,661,646,631,616,601,612,584,585,587,582,579,590,602,595,601,598,609,602,598,609,598,600,610,615,619,603,595,602,608,606,595,598,611,594,609,595,875,887,882,896,964,1042,1214,1324,1396,1503,1494,1417,1389,1359,1335,1318,1291,1267,1256,1232,1211,1213,1153,1131,1122,1095,1063,1081,1018,998,972,978,926,905,918,891,947,896,922,911,909,927,912,916,970,968,923,952,935,919,915,952,992,1028,985,980,982,989,981,963,960,942,923,930,924,391,392,393,395,433,424,479,534,590,637,646,636,594,616,605,595,585,575,565,527,544,534,524,514,503,493,483,473,463,452,442,432,401,412,401,397,398,399,391,403,389,400,397,399,394,400,393,389,395,395,393,392,395,396,396,400,395,397,397,402,392,409,395,401,395,638,637,629,636,650,716,781,873,958,1001,1004,988,972,956,940,906,908,892,870,860,862,842,836,819,805,776,776,763,737,699,706,691,722,635,643,618,619,635,629,622,631,644,640,645,640,647,633,653,646,634,640,630,633,646,640,640,641,630,630,637,639,646,639,657,640,1114,1125,1120,1150,1264,1436,1674,1814,1903,1923,1907,1889,1848,1811,1783,1740,1711,1681,1641,1640,1575,1541,1508,1469,1454,1408,1375,1339,1344,1275,1245,1235,1178,1149,1133,1155,1148,1136,1185,1189,1185,1222,1208,1196,1213,1221,1198,1225,1226,1218,1216,1211,1203,1211,1216,1214,1210,1206,1207,1207,1203,1214,1203,1205,1188,181,181,182,182,183,186,208,230,252,274,290,285,281,277,272,268,264,260,255,251,247,242,238,234,230,225,221,217,212,208,204,200,195,191,187,183,184,184,181,177,171,173,185,188,182,188,184,195,187,210,215,212,192,209,200,181,187,192,212,233,224,239,231,227,208,800,755,757,759,788,915,983,1096,1184,1223,1223,1203,1184,1165,1146,1127,1107,1087,1068,1149,1104,1097,1026,1030,1014,934,936,975,877,857,838,886,818,781,767,764,826,785,789,797,790,797,805,807,814,823,800,817,814,817,807,804,801,810,805,808,805,806,800,795,795,808,800,802,785,981,984,987,1000,1065,1201,1345,1541,1564,1596,1589,1564,1539,1513,1488,1463,1438,1411,1386,1385,1453,1334,1320,1303,1295,1211,1206,1160,1135,1110,1084,1059,1051,1011,1034,996,1132,1019,1029,1061,1061,1052,1073,1051,1066,1078,1057,1055,1077,1045,1063,1060,1083,1099,1133,1121,1111,1066,1066,1058,1057,1054,1065,1110,1038,664,664,678,670,685,754,871,956,1039,1081,1086,1065,1034,1042,1014,1001,990,973,945,969,911,917,921,869,843,826,833,781,764,757,740,708,737,696,681,672,673,671,666,664,678,695,683,684,675,686,676,702,684,678,694,705,712,708,712,694,693,700,695,689,695,717,691,703,686,0,0,0,0,0,0,0,0,0,0,0,0,0,0,0,0,0,0,0,0,0,0,0,0,0,0,0,0,0,0,0,0,0,0,0,0,0,0,0,0,0,0,0,0,0,0,0,0,0,0,0,0,0,0,0,0,0,0,0,0,0,0,0,0,0,971,1016,999,1021,1129,1266,1466,1620,1690,1716,1704,1748,1653,1626,1600,1576,1602,1514,1496,1501,1467,1433,1392,1350,1299,1265,1263,1241,1165,1137,1139,1093,1099,1029,990,1012,1025,1066,1054,1060,1051,1049,1101,1150,1075,1077,1084,1112,1083,1083,1070,1082,1073,1085,1073,1090,1104,1076,1074,1110,1092,1106,1110,1084,1080,969,946,966,966,1034,1146,1308,1430,1479,1542,1492,1489,1456,1433,1415,1421,1366,1340,1345,1299,1291,1242,1247,1209,1187,1168,1142,1119,1103,1086,1061,1033,1010,987,983,956,983,962,981,978,992,994,1027,1014,1011,999,1005,1030,1014,1017,1024,1014,993,997,1012,1015,1004,1003,1005,1016,1016,1005,1028,1011,1005,210,211,252,212,237,243,268,307,295,333,332,329,335,323,326,322,318,310,295,291,319,297,278,278,267,262,267,264,261,242,237,259,254,222,217,213,214,214,203,210,205,223,204,217,204,218,208,216,211,204,213,209,215,215,211,210,216,211,217,211,210,215,208,213,213,474,444,461,466,474,504,558,626,640,713,688,679,680,742,661,652,643,630,610,602,623,657,573,568,553,543,543,534,526,532,492,509,529,462,452,449,450,503,460,461,454,458,464,486,461,469,475,511,463,463,460,464,464,454,465,468,463,465,457,463,467,467,461,467,461,1157,1113,1101,1127,1210,1445,1534,1672,1748,1777,1767,1739,1757,1682,1693,1626,1619,1569,1561,1610,1557,1541,1463,1457,1432,1338,1337,1366,1296,1233,1221,1242,1166,1126,1113,1111,1211,1175,1222,1167,1183,1208,1191,1219,1191,1225,1213,1205,1239,1213,1274,1288,1311,1260,1218,1198,1213,1223,1211,1197,1203,1220,1196,1225,1203,137,138,138,139,139,143,161,180,198,217,229,226,222,218,215,211,207,204,200,197,193,189,196,182,179,175,171,168,164,161,157,153,150,146,142,140,140,140,127,129,128,132,133,132,133,136,129,131,133,142,129,133,133,134,132,133,134,138,135,132,133,135,131,132,132,959,863,928,872,1106,1021,1156,1482,1371,1407,1505,1380,1358,1336,1313,1291,1269,1395,1301,1225,1179,1180,1223,1180,1167,1068,1063,1023,1024,978,956,956,929,911,942,874,876,896,912,897,900,902,907,901,908,905,912,906,905,904,920,916,919,912,909,915,911,917,908,919,919,922,908,905,906,517,498,520,501,527,575,651,727,758,806,808,797,791,775,764,753,774,731,713,701,719,687,660,653,635,642,619,608,597,571,558,563,552,536,508,504,505,506,508,500,502,506,502,507,504,506,510,506,507,502,506,507,503,506,510,510,507,506,508,509,510,519,516,524,516,210,210,211,212,200,221,250,280,309,339,352,326,341,335,330,324,318,313,307,301,296,290,257,262,273,268,262,256,251,231,239,234,215,222,204,213,213,201,195,194,194,193,194,193,196,196,195,195,194,195,196,196,197,196,198,197,197,197,198,198,197,200,196,196,197,771,765,757,756,805,890,1010,1113,1212,1255,1224,1236,1211,1194,1179,1154,1106,1117,1095,1107,1102,1063,1036,994,1010,943,954,937,894,866,832,832,811,784,760,782,806,784,782,783,784,787,799,801,825,823,795,810,810,809,805,813,804,836,813,809,809,797,789,815,801,809,799,824,801,854,814,811,845,845,955,1069,1215,1279,1318,1312,1345,1271,1282,1233,1235,1194,1154,1145,1124,1142,1145,1148,1040,1029,1040,1016,1002,936,916,911,874,896,835,837,816,839,836,854,841,863,844,868,893,850,845,859,886,888,884,885,898,892,882,876,877,854,884,860,884,883,896,891,899,940,1196,1079,1152,1109,1323,1333,1556,1863,1767,1796,1858,1757,1688,1660,1632,1604,1614,1694,1620,1551,1464,1459,1529,1471,1448,1325,1315,1299,1294,1213,1214,1179,1174,1163,1161,1127,1095,1143,1143,1184,1147,1154,1170,1156,1162,1168,1172,1168,1181,1164,1180,1170,1174,1177,1183,1189,1187,1185,1213,1172,1195,1206,1225,1202,1191,427,481,407,484,479,531,509,539,714,639,643,639,603,594,681,583,568,566,561,614,541,551,584,606,534,566,533,524,487,485,476,528,459,508,498,479,449,462,460,461,462,468,462,469,461,471,473,463,468,457,462,464,464,472,464,467,464,472,467,470,465,475,461,470,465,1414,1432,1428,1462,1679,1748,2102,2138,2230,2209,2187,2268,2107,2115,2071,2091,2058,1983,1927,1902,1938,1862,1854,1736,1737,1725,1673,1599,1620,1553,1502,1468,1468,1430,1414,1416,1396,1381,1474,1511,1473,1474,1498,1474,1487,1493,1490,1494,1510,1502,1519,1504,1507,1517,1521,1524,1509,1520,1555,1519,1541,1548,1562,1527,1519,368,377,346,402,348,371,420,470,559,564,574,565,594,546,537,528,519,510,500,491,482,473,464,454,445,436,427,418,463,399,390,381,372,415,404,349,350,351,340,341,349,361,345,349,346,349,355,347,351,347,349,351,349,353,351,354,354,355,353,354,357,379,377,381,377,928,862,865,871,916,1014,1137,1256,1333,1365,1359,1349,1318,1297,1277,1440,1235,1222,1194,1174,1168,1133,1128,1091,1077,1050,1029,1009,994,972,951,930,908,955,875,872,875,877,888,894,898,915,1045,977,930,975,923,1059,957,977,971,915,942,992,948,920,1001,936,923,977,959,1034,967,960,934,895,915,898,946,1025,1100,1199,1307,1426,1457,1492,1438,1407,1385,1367,1375,1320,1295,1238,1332,1285,1201,1241,1202,1148,1160,1105,1084,1030,1070,1013,1024,941,919,985,926,974,931,934,946,955,975,974,962,959,970,947,961,954,951,948,968,969,977,1062,1026,968,963,967,955,946,951,968,960,945,1301,1251,1243,1291,1407,1626,1768,1900,1972,1997,1983,1951,1928,1887,1856,1824,1813,1759,1756,1800,1736,1716,1635,1625,1596,1507,1495,1520,1418,1501,1364,1381,1304,1379,1252,1250,1351,1274,1382,1322,1343,1365,1348,1382,1348,1378,1373,1369,1399,1358,1365,1403,1428,1417,1401,1367,1367,1383,1367,1359,1356,1386,1358,1390,1359,484,485,521,489,528,535,606,676,747,794,801,787,775,762,750,787,729,753,699,686,673,661,648,640,665,610,597,624,570,563,546,533,521,508,496,492,493,529,515,480,485,484,495,502,486,503,490,490,501,502,494,500,504,515,510,510,496,506,503,506,509,509,507,523,517,245,246,247,248,248,260,295,329,364,400,395,405,399,395,370,379,372,366,359,352,346,340,333,326,319,313,306,300,293,286,269,273,256,260,253,249,250,250,236,242,240,247,245,249,240,251,239,247,242,246,239,246,248,253,247,248,246,246,251,249,243,250,239,245,240,658,645,660,642,695,721,825,919,1037,1052,1050,1043,1017,990,987,972,956,913,915,898,909,891,861,830,824,839,781,746,747,730,716,709,681,665,652,646,697,652,649,661,654,664,663,667,666,679,659,668,657,657,664,670,672,668,674,667,662,659,674,666,657,664,663,672,662,719,679,676,676,691,762,870,1008,1058,1101,1098,1135,1064,1079,1033,1053,1000,988,959,941,988,969,938,870,863,877,848,816,784,767,751,731,740,699,710,680,702,686,686,718,670,667,690,676,684,690,691,706,725,690,687,703,712,705,683,709,702,706,731,683,701,703,729,682,677,859,798,757,760,855,902,992,1108,1196,1235,1234,1245,1195,1193,1184,1135,1116,1241,1076,1136,1037,1017,1094,978,958,991,942,899,1025,860,840,858,821,806,872,764,809,768,781,800,790,822,784,805,795,815,805,812,799,793,802,801,810,810,812,816,810,804,818,808,812,821,808,816,817,697,699,701,703,784,800,906,1105,1100,1141,1211,1123,1105,1087,1069,1051,1033,1082,1074,1002,960,965,958,975,965,869,869,833,815,797,779,811,761,724,770,707,709,729,713,722,728,745,778,766,738,778,735,807,761,795,760,743,769,804,767,746,785,762,752,769,768,795,754,753,744,384,385,386,387,402,416,472,527,582,629,638,639,618,618,598,587,577,567,557,547,537,526,516,515,496,485,476,495,457,445,434,424,417,404,394,389,397,392,385,380,387,394,392,395,383,391,386,389,388,386,389,389,391,401,397,395,386,394,389,401,396,394,394,401,395,659,661,663,665,683,749,838,925,1005,1042,1041,1037,1011,995,979,1075,948,932,917,902,900,871,871,839,823,808,792,777,767,750,734,718,701,683,672,669,670,672,666,666,678,743,685,663,685,714,689,675,683,682,684,676,691,685,689,678,678,675,689,697,676,697,680,686,692,800,755,757,759,788,915,983,1096,1184,1223,1223,1203,1184,1165,1146,1127,1107,1087,1068,1149,1104,1097,1026,1030,1014,934,936,975,877,857,838,886,818,781,767,764,826,785,789,797,790,797,805,807,814,823,800,817,814,817,807,804,801,810,805,808,805,806,800,795,795,808,800,802,785,1057,1060,1063,1129,1168,1336,1545,1853,1800,1829,1818,1786,1913,1722,1748,1659,1627,1595,1688,1531,1500,1468,1486,1404,1373,1404,1309,1277,1331,1214,1182,1150,1118,1091,1166,1075,1080,1085,1107,1121,1130,1139,1136,1156,1138,1152,1127,1138,1135,1126,1129,1139,1145,1154,1146,1158,1139,1147,1156,1139,1130,1124,1137,1145,1123,1326,1330,1338,1447,1536,1750,1985,2291,2221,2242,2233,2195,2325,2118,2127,2040,2002,1963,2047,1886,1848,1803,1813,1726,1688,1717,1611,1573,1623,1513,1458,1424,1389,1362,1438,1343,1353,1355,1430,1429,1438,1445,1465,1506,1458,1490,1481,1496,1506,1495,1483,1495,1488,1498,1466,1466,1489,1482,1473,1496,1487,1499,1478,1488,1482,889,891,894,943,959,1097,1273,1519,1533,1567,1560,1532,1564,1476,1507,1421,1393,1365,1407,1309,1282,1254,1276,1198,1170,1203,1115,1087,1059,1031,1003,975,948,921,905,904,909,913,902,911,915,948,925,928,915,924,919,917,922,921,953,970,960,936,932,943,944,943,944,934,937,978,953,965,959,1030,1026,1029,1051,1116,1227,1387,1576,1605,1660,1647,1621,1595,1566,1543,1517,1505,1465,1439,1413,1388,1361,1335,1342,1286,1261,1235,1253,1185,1159,1128,1102,1083,1071,1048,1075,1047,1104,1099,1073,1063,1077,1087,1118,1141,1137,1107,1128,1101,1088,1083,1134,1138,1129,1135,1156,1142,1156,1129,1113,1123,1114,1093,1096,1077,0,0,0,0,0,0,0,0,0,0,0,0,0,0,0,0,0,0,0,0,0,0,0,0,0,0,0,0,0,0,0,0,0,0,0,0,0,0,0,0,0,0,0,0,0,0,0,0,0,0,0,0,0,0,0,0,0,0,0,0,0,0,0,0,0,290,291,292,293,294,308,348,388,428,467,482,474,467,459,451,444,436,429,421,413,406,398,391,383,375,368,360,352,345,337,330,322,314,307,299,295,295,296,287,277,281,282,284,302,282,301,294,285,303,293,291,292,294,301,295,297,291,297,293,293,297,300,299,307,299,828,830,833,837,877,959,1085,1210,1297,1346,1349,1328,1306,1285,1264,1256,1221,1199,1178,1156,1135,1114,1092,1071,1049,1028,1007,985,964,942,921,899,878,857,844,840,842,845,855,847,858,854,866,867,868,870,861,875,875,873,878,873,871,886,875,876,863,879,861,876,868,867,864,874,889,773,775,777,780,787,896,985,1134,1224,1353,1236,1354,1227,1206,1186,1166,1117,1098,1127,1085,1039,1019,1025,979,984,964,920,923,881,861,863,843,822,802,768,784,787,789,776,779,781,787,782,787,787,793,785,827,790,786,789,786,792,798,790,793,792,795,794,792,792,804,789,795,792,1400,1419,1460,1550,1668,2007,2118,2409,2348,2366,2346,2328,2441,2443,2277,2194,2178,2076,2136,2003,1962,1902,1943,1869,1781,1850,1737,1660,1746,1622,1533,1535,1479,1467,1513,1423,1470,1435,1514,1521,1541,1558,1550,1555,1540,1555,1535,1554,1565,1556,1547,1571,1572,1593,1627,1619,1559,1573,1577,1565,1560,1552,1568,1587,1573,1065,1046,1074,1072,1164,1325,1435,1607,1678,1682,1726,1663,1637,1610,1583,1556,1563,1502,1509,1448,1475,1403,1384,1372,1313,1332,1293,1257,1213,1178,1151,1124,1097,1088,1110,1085,1086,1090,1091,1088,1096,1133,1095,1126,1103,1103,1098,1093,1130,1103,1110,1119,1114,1124,1126,1122,1104,1107,1118,1108,1106,1113,1097,1136,1110,1449,1418,1488,1576,1698,2027,2253,2326,2390,2419,2368,2346,2319,2246,2357,2226,2150,2109,2136,2031,2001,1944,2010,1916,1821,1843,1730,1702,1754,1637,1585,1575,1546,1471,1457,1437,1463,1519,1557,1547,1545,1558,1552,1589,1557,1562,1586,1654,1568,1583,1582,1590,1595,1593,1613,1605,1591,1596,1589,1600,1606,1603,1598,1614,1605,989,992,995,1011,1077,1199,1336,1455,1526,1561,1559,1536,1527,1501,1468,1446,1453,1400,1408,1355,1333,1310,1287,1265,1242,1222,1196,1174,1144,1119,1093,1084,1042,1019,1006,1003,1006,1043,1019,1035,1034,1038,1054,1023,1042,1059,1044,1034,1077,1049,1127,1127,1134,1081,1105,1113,1097,1061,1044,1038,1054,1029,1043,1084,1026,1051,1054,1051,1073,1155,1285,1444,1559,1626,1674,1684,1660,1634,1608,1582,1558,1515,1518,1482,1450,1454,1398,1404,1378,1304,1280,1254,1225,1201,1175,1149,1135,1097,1085,1068,1058,1073,1078,1104,1090,1089,1089,1095,1104,1100,1100,1105,1096,1101,1097,1108,1101,1108,1104,1108,1114,1097,1108,1105,1108,1105,1120,1105,1112,1103,1026,1029,1032,1097,1135,1302,1508,1782,1763,1792,1781,1747,1912,1687,1710,1624,1592,1560,1599,1495,1466,1432,1453,1371,1340,1369,1274,1245,1213,1182,1150,1117,1087,1058,1159,1044,1049,1054,1076,1072,1069,1075,1070,1103,1101,1115,1097,1099,1112,1099,1095,1098,1097,1131,1127,1099,1108,1106,1098,1126,1107,1103,1108,1150,1108,1553,1535,1582,1658,1844,2103,2336,2453,2505,2589,2485,2511,2459,2394,2348,2358,2281,2222,2261,2187,2100,2130,2034,1974,1938,1898,1844,1814,1759,1767,1699,1619,1601,1559,1555,1536,1565,1609,1678,1674,1687,1693,1689,1679,1701,1718,1690,1694,1704,1705,1788,1784,1732,1711,1726,1754,1749,1818,1815,1708,1754,1835,1836,1802,1743,1665,1670,1782,1874,2038,2473,2748,2670,2767,2789,2693,2704,2672,2555,2658,2560,2489,2397,2461,2342,2315,2244,2261,2202,2071,2117,1970,1937,2010,1912,1831,1791,1787,1726,1703,1692,1683,1768,1924,1980,1953,1988,2011,2003,2016,1980,1980,2011,1979,1949,1983,1971,1979,1977,2010,1999,1977,1973,2014,1961,1979,1995,2022,2019,1976,1114,1118,1114,1211,1247,1304,1455,1574,1642,1675,1671,1647,1636,1622,1574,1549,1609,1500,1476,1451,1427,1483,1378,1354,1329,1362,1369,1256,1235,1207,1219,1158,1163,1151,1161,1124,1142,1130,1173,1159,1162,1168,1160,1176,1229,1229,1167,1197,1180,1168,1172,1215,1223,1235,1225,1203,1222,1231,1242,1221,1197,1197,1175,1172,1175,1682,1717,1804,1995,2367,2729,2998,3165,3190,3191,3166,3111,3054,2933,2870,2861,2771,2692,2592,2564,2499,2449,2361,2310,2247,2196,2115,2063,1995,1942,1882,1835,1758,1757,1724,1759,1778,1769,2067,2058,2025,2048,2047,2111,2114,2138,2103,2194,2093,2108,2091,2142,2130,2185,2149,2136,2133,2132,2126,2142,2117,2129,2095,2104,2058,1102,1105,1109,1136,1204,1428,1526,1717,1803,1848,1839,1761,1812,1740,1675,1681,1618,1662,1560,1574,1503,1474,1446,1417,1389,1360,1360,1303,1274,1280,1217,1188,1160,1136,1206,1118,1121,1157,1136,1130,1151,1175,1172,1149,1133,1151,1138,1185,1170,1160,1161,1291,1181,1180,1297,1176,1175,1169,1183,1184,1177,1180,1176,1182,1184,182,182,183,183,184,189,214,239,264,289,305,300,295,290,286,281,276,271,266,261,256,252,247,242,237,232,227,222,218,213,208,203,198,193,188,184,185,185,180,172,172,172,172,174,172,174,172,180,173,172,173,174,173,172,175,174,173,173,173,175,173,177,175,178,177,179,179,180,180,181,185,208,231,254,277,293,288,284,279,275,270,266,261,257,252,248,243,239,234,230,225,221,216,212,207,203,198,194,189,185,181,182,182,181,178,170,171,185,187,185,190,181,198,192,227,216,228,188,226,208,180,186,192,220,243,230,245,233,233,217,1538,1574,1627,1763,1882,2131,2496,2630,2565,2720,2564,2534,2651,2508,2436,2357,2313,2269,2332,2181,2136,2074,2078,1986,1942,1991,1861,1810,1865,1739,1679,1673,1624,1606,1596,1562,1611,1575,1724,1758,1702,1723,1764,1742,1744,1761,1733,1743,1770,1740,1765,1777,1779,1782,1810,1815,1780,1788,1840,1753,1751,1769,1842,1785,1743,1378,1391,1423,1474,1610,1784,1980,2138,2240,2240,2234,2177,2203,2144,2073,2157,2001,1976,1999,1949,1861,1825,1790,1755,1731,1684,1719,1661,1589,1558,1523,1493,1457,1414,1451,1402,1409,1425,1487,1520,1473,1489,1513,1501,1506,1531,1504,1512,1543,1503,1513,1534,1539,1539,1518,1541,1539,1537,1574,1506,1522,1528,1563,1521,1509,1170,1159,1175,1187,1276,1451,1603,1771,1838,1840,1873,1816,1787,1757,1727,1698,1712,1663,1644,1603,1605,1521,1508,1500,1432,1449,1409,1368,1314,1284,1274,1244,1196,1188,1211,1173,1176,1180,1216,1215,1220,1235,1216,1252,1228,1234,1233,1238,1244,1235,1228,1227,1242,1248,1242,1254,1252,1253,1244,1235,1239,1239,1249,1246,1231,1352,1365,1422,1441,1614,1977,2130,2192,2275,2306,2331,2237,2197,2158,2181,2126,2183,2001,1961,1974,1911,1925,1832,1775,1794,1767,1738,1607,1632,1565,1527,1450,1415,1389,1374,1374,1380,1480,1453,1461,1455,1467,1484,1456,1471,1498,1468,1491,1472,1512,1497,1506,1488,1509,1505,1528,1518,1503,1504,1510,1529,1513,1526,1512,1542,1406,1398,1482,1482,1659,2027,2179,2240,2323,2384,2377,2319,2277,2202,2225,2195,2126,2042,2035,2014,1952,1946,1870,1813,1855,1800,1830,1670,1667,1600,1561,1484,1471,1422,1432,1433,1414,1535,1505,1527,1544,1554,1550,1542,1541,1572,1536,1539,1572,1525,1545,1547,1560,1573,1725,1674,1580,1549,1550,1543,1534,1529,1540,1598,1531,1610,1585,1696,1806,1937,2361,2485,2642,2739,2787,2698,2587,2659,2550,2531,2485,2456,2404,2398,2251,2255,2189,2127,2133,2049,2057,1959,1922,1847,1818,1772,1686,1649,1637,1602,1690,1677,1666,1800,1803,1763,1756,1807,1786,1801,1807,1805,1811,1865,1817,1826,1841,1836,1846,1824,1850,1862,1864,1897,1857,1847,1853,1911,1843,1851,1284,1253,1334,1340,1459,1674,1966,2063,2132,2166,2119,2101,2078,2008,2065,1997,1925,1888,1920,1818,1792,1739,1744,1719,1627,1604,1544,1521,1478,1441,1415,1367,1358,1305,1290,1270,1296,1342,1329,1327,1344,1358,1353,1369,1350,1369,1346,1390,1372,1351,1365,1360,1379,1397,1379,1374,1383,1361,1372,1381,1381,1391,1371,1398,1375,1283,1295,1312,1345,1468,1628,1817,1988,2080,2122,2085,2035,2000,1994,1936,1921,1858,1843,1819,1785,1737,1696,1666,1629,1609,1567,1562,1518,1464,1451,1425,1368,1342,1313,1355,1317,1307,1322,1379,1371,1353,1360,1410,1397,1381,1401,1389,1395,1450,1397,1417,1435,1434,1415,1415,1425,1430,1447,1456,1437,1414,1437,1488,1443,1406,432,434,435,436,438,470,530,591,651,699,709,698,687,676,665,654,642,631,620,609,598,587,576,565,554,543,532,521,510,498,487,476,465,454,443,439,440,441,434,431,440,450,453,447,435,435,445,452,467,450,445,483,511,492,523,479,446,456,441,441,433,452,454,454,433,1057,1060,1063,1129,1168,1336,1545,1853,1800,1829,1818,1786,1913,1722,1748,1659,1627,1595,1688,1531,1500,1468,1486,1404,1373,1404,1309,1277,1331,1214,1182,1150,1118,1091,1166,1075,1080,1085,1107,1121,1130,1139,1136,1156,1138,1152,1127,1138,1135,1126,1129,1139,1145,1154,1146,1158,1139,1147,1156,1139,1130,1124,1137,1145,1123,1096,1136,1102,1128,1300,1364,1703,1775,1866,1904,1955,1843,1888,1815,1745,1713,1776,1647,1614,1582,1559,1522,1486,1449,1477,1520,1339,1344,1266,1230,1291,1157,1120,1088,1115,1114,1119,1162,1160,1152,1166,1174,1164,1162,1168,1168,1165,1174,1183,1165,1172,1208,1231,1204,1202,1182,1166,1183,1167,1164,1162,1183,1176,1185,1169,1365,1406,1385,1453,1683,1781,2150,2214,2285,2316,2368,2242,2287,2199,2124,2085,2140,2007,1968,1936,1899,1856,1813,1776,1790,1825,1647,1639,1556,1513,1566,1427,1391,1355,1383,1387,1393,1432,1434,1436,1438,1442,1444,1444,1453,1455,1451,1460,1459,1460,1466,1468,1470,1471,1483,1482,1481,1491,1487,1482,1497,1491,1490,1497,1493,928,930,933,942,1080,1124,1341,1504,1600,1643,1619,1590,1562,1570,1504,1475,1544,1418,1389,1360,1341,1309,1276,1243,1284,1178,1145,1113,1080,1048,1069,982,950,918,944,944,948,953,943,928,936,936,939,960,943,952,953,963,980,971,968,973,970,984,967,971,968,975,978,992,980,976,978,999,994,965,945,948,956,1007,1113,1290,1411,1493,1524,1557,1515,1504,1467,1415,1389,1366,1374,1333,1309,1309,1261,1247,1223,1192,1157,1134,1122,1079,1064,1060,1018,987,990,959,1017,959,953,1004,990,992,986,1022,1063,1006,1031,1036,1052,1045,1058,1053,1058,1031,1063,1028,1027,1038,1034,1034,1095,1065,1081,1059,1058,1073,311,311,312,313,314,329,371,412,453,493,507,499,491,484,476,468,460,452,445,468,429,421,413,406,398,390,382,374,367,359,351,343,335,328,320,315,316,317,296,303,302,316,301,301,300,305,301,297,302,300,300,297,297,299,299,300,299,300,297,297,295,300,297,300,297,0,0,0,0,0,0,0,0,0,0,0,0,0,0,0,0,0,0,0,0,0,0,0,0,0,0,0,0,0,0,0,0,0,0,0,0,0,0,0,0,0,0,0,0,0,0,0,0,0,0,0,0,0,0,0,0,0,0,0,0,0,0,0,0,0,741,743,745,748,775,856,969,1081,1169,1226,1263,1206,1187,1168,1134,1115,1096,1107,1070,1051,1031,1012,980,961,942,923,904,876,857,846,827,808,781,769,756,752,754,748,744,754,754,761,787,756,760,774,756,769,754,758,756,767,783,801,953,884,793,777,769,760,761,760,777,770,754,695,697,751,702,722,795,900,1006,1131,1142,1257,1094,1107,1089,1070,1023,1005,1016,970,1085,934,943,925,906,888,931,852,833,815,775,757,760,742,724,710,706,708,710,689,682,691,701,698,701,700,703,694,715,710,695,701,693,700,706,702,703,705,694,694,700,705,709,706,725,707,1475,1508,1517,1583,1881,1918,2340,2348,2403,2431,2503,2361,2417,2315,2238,2196,2249,2155,2073,2051,2000,1955,1910,1865,1882,1843,1747,1726,1669,1595,1640,1569,1550,1434,1462,1499,1494,1512,1618,1591,1582,1602,1595,1634,1658,1656,1637,1717,1627,1627,1633,1678,1675,1683,1694,1687,1665,1687,1669,1660,1654,1642,1629,1636,1608,956,959,997,975,1055,1155,1357,1445,1526,1575,1605,1579,1531,1529,1455,1430,1406,1411,1388,1378,1343,1294,1282,1232,1207,1229,1157,1124,1099,1126,1058,1033,1001,1005,998,970,992,994,991,985,1004,1035,1014,1026,1011,1008,1021,1020,1024,1006,1035,1045,1067,1050,1038,1020,996,1032,1007,1007,1003,1031,1015,1036,1000,1466,1540,1526,1596,1766,2109,2249,2506,2443,2530,2471,2409,2379,2366,2302,2244,2229,2161,2118,2138,2069,1997,1982,1882,1902,1835,1822,1767,1677,1630,1599,1566,1548,1468,1461,1477,1501,1500,1570,1571,1566,1586,1604,1624,1604,1616,1597,1625,1641,1618,1624,1614,1632,1651,1636,1621,1623,1643,1639,1649,1639,1625,1641,1662,1652,919,914,917,937,990,1104,1228,1387,1401,1451,1447,1415,1438,1414,1353,1333,1312,1429,1271,1250,1240,1209,1243,1191,1160,1129,1105,1082,1068,1043,1023,987,963,941,928,957,936,930,943,950,952,958,980,1001,975,967,955,978,973,976,974,985,973,977,962,965,963,958,960,965,968,970,965,957,955,954,971,960,972,1028,1163,1285,1437,1515,1571,1746,1539,1521,1483,1455,1432,1414,1446,1376,1352,1309,1298,1259,1237,1200,1176,1156,1120,1108,1080,1069,1054,999,999,973,969,971,983,978,976,989,1023,984,1015,984,1006,988,1003,1015,990,993,996,999,1019,1035,997,986,1000,1000,1006,991,985,991,1021,990,1065,1084,1071,1096,1267,1330,1662,1735,1829,1868,1919,1808,1849,1779,1875,1678,1741,1610,1580,1568,1525,1489,1452,1416,1444,1462,1325,1310,1234,1198,1285,1125,1089,1057,1082,1083,1088,1177,1098,1096,1110,1135,1104,1128,1103,1110,1106,1110,1138,1127,1151,1168,1165,1146,1126,1139,1124,1142,1144,1134,1139,1144,1118,1151,1149,1500,1478,1577,1558,1705,1979,2291,2405,2517,2635,2558,2502,2415,2384,2325,2280,2235,2242,2144,2144,2054,2099,2025,2010,1873,1828,1811,1737,1718,1647,1663,1601,1595,1491,1469,1505,1554,1500,1643,1642,1633,1658,1689,1685,1666,1665,1680,1724,1677,1718,1727,1708,1660,1688,1681,1694,1701,1671,1725,1793,1749,1756,1759,1700,1700,1682,1828,1823,1895,2111,2467,2642,2793,2819,2898,2794,2767,2730,2673,2642,2612,2556,2483,2434,2413,2374,2295,2255,2137,2183,2079,2091,2001,1907,1882,1845,1784,1754,1687,1680,1696,1721,1748,1915,1892,1892,1907,1905,1942,1912,1914,1942,2008,1922,1933,1940,1947,1953,1942,1963,1963,1942,1957,1938,1945,1961,1954,1943,1956,1940,1069,1034,1036,1054,1103,1258,1344,1552,1519,1566,1565,1527,1549,1525,1464,1437,1414,1491,1369,1455,1400,1306,1351,1321,1306,1212,1189,1171,1154,1159,1099,1130,1054,1066,1052,1053,1053,1050,1063,1065,1074,1085,1073,1099,1081,1098,1073,1091,1107,1082,1069,1085,1098,1103,1093,1105,1100,1095,1108,1100,1080,1073,1128,1091,1062,1513,1512,1531,1620,1897,2288,2629,2797,2891,2871,2852,2771,2709,2704,2593,2543,2498,2432,2367,2302,2263,2192,2155,2076,2023,1986,1904,1902,1781,1764,1691,1604,1569,1526,1505,1560,1541,1545,1642,1697,1642,1663,1700,1664,1677,1709,1673,1675,1700,1667,1674,1700,1702,1715,1820,1792,1721,1698,1726,1659,1680,1692,1735,1690,1674,1109,1027,1086,1065,1105,1233,1451,1588,1675,1677,1669,1731,1684,1589,1655,1600,1509,1482,1455,1501,1402,1375,1389,1322,1295,1268,1241,1251,1238,1161,1161,1108,1127,1059,1042,1040,1042,1045,1083,1070,1091,1073,1101,1127,1082,1081,1090,1150,1119,1113,1118,1128,1120,1107,1104,1108,1083,1114,1084,1112,1107,1103,1095,1103,1144,291,292,293,294,295,310,350,390,430,469,482,474,466,459,451,444,436,429,421,414,406,399,391,383,376,368,361,353,346,342,331,323,319,308,300,296,297,297,287,284,285,292,284,287,284,284,282,284,286,289,282,286,319,357,288,284,295,287,288,287,289,289,292,287,285,178,179,179,180,180,185,208,231,254,277,291,287,282,278,273,269,264,260,256,251,247,242,238,233,229,224,220,215,211,207,202,198,193,189,184,181,181,182,166,166,166,166,167,166,166,167,166,167,169,167,169,169,167,169,169,169,170,170,170,170,172,171,171,170,172,1558,1529,1588,1735,2076,2152,2532,2715,2629,2652,2711,2576,2619,2513,2433,2448,2436,2307,2254,2229,2174,2126,2077,2029,2049,2089,1907,1875,1787,1744,1733,1654,1603,1575,1567,1579,1601,1622,1755,1757,1762,1802,1827,1828,1796,1779,1804,1847,1811,1825,1843,1847,1841,1828,1826,1826,1813,1795,1815,1846,1802,1811,1818,1811,1782,1238,1287,1315,1312,1396,1718,1856,2063,2112,2116,2094,2054,2056,1995,2037,1930,1895,1898,1825,1818,1776,1746,1700,1661,1620,1615,1562,1504,1517,1441,1380,1338,1362,1273,1248,1283,1258,1272,1328,1311,1311,1315,1348,1363,1349,1358,1340,1350,1384,1367,1368,1367,1373,1384,1418,1358,1363,1383,1387,1391,1366,1365,1397,1447,1380,1055,1081,1109,1086,1175,1301,1489,1610,1687,1734,1761,1725,1670,1689,1601,1574,1546,1556,1529,1511,1577,1422,1417,1355,1327,1332,1304,1276,1209,1233,1163,1136,1101,1114,1111,1094,1112,1108,1107,1118,1114,1134,1160,1124,1134,1174,1138,1145,1169,1160,1249,1237,1258,1191,1302,1244,1192,1157,1138,1131,1146,1136,1145,1162,1127,1442,1395,1427,1564,1731,1846,2191,2309,2374,2362,2368,2293,2265,2243,2172,2126,2105,2051,2058,1971,1976,1896,1888,1808,1801,1763,1677,1670,1685,1545,1547,1457,1558,1386,1413,1446,1420,1459,1486,1475,1475,1487,1587,1567,1528,1555,1528,1625,1573,1558,1575,1522,1531,1579,1575,1532,1601,1562,1544,1606,1579,1631,1617,1639,1596,1499,1429,1464,1537,1682,1896,2201,2361,2378,2451,2456,2338,2345,2327,2216,2193,2148,2093,2129,2011,2052,1936,1960,1847,1839,1800,1713,1720,1699,1579,1581,1490,1528,1419,1447,1480,1454,1518,1549,1544,1510,1527,1577,1594,1542,1554,1568,1567,1556,1559,1578,1570,1579,1574,1547,1586,1605,1582,1575,1583,1587,1582,1621,1550,1558,1369,1377,1387,1505,1591,1851,2108,2275,2388,2489,2452,2343,2311,2254,2224,2196,2152,2083,2062,2007,1960,2022,1896,1878,1791,1758,1735,1668,1632,1582,1562,1503,1471,1409,1404,1442,1400,1428,1509,1519,1499,1513,1510,1526,1518,1549,1547,1624,1539,1567,1565,1564,1540,1606,1579,1551,1543,1528,1549,1585,1552,1586,1567,1575,1543,1301,1312,1340,1384,1522,1704,1945,2193,2185,2278,2223,2165,2139,2130,2070,2016,2005,1977,1901,1957,1834,1792,1782,1685,1710,1646,1646,1587,1529,1457,1430,1338,1369,1302,1294,1309,1333,1332,1361,1348,1355,1364,1345,1382,1361,1373,1372,1376,1402,1381,1383,1375,1383,1399,1398,1388,1375,1389,1382,1391,1390,1386,1392,1421,1396,1236,1201,1208,1296,1337,1506,1729,1866,1943,1962,1949,1904,1939,1844,1838,1783,1761,1755,1693,1730,1626,1624,1606,1535,1526,1478,1443,1443,1408,1348,1348,1286,1261,1234,1225,1218,1225,1223,1252,1296,1258,1268,1285,1269,1274,1282,1283,1281,1289,1274,1289,1282,1285,1289,1296,1302,1298,1297,1327,1282,1302,1313,1329,1313,1299,355,356,357,358,359,381,430,478,527,571,582,573,564,555,546,537,528,519,510,515,491,482,473,464,455,446,437,428,419,410,401,392,383,374,365,360,361,362,353,354,356,362,363,363,364,369,362,360,365,363,360,363,364,369,360,360,365,365,365,361,364,371,358,365,361,1096,1136,1102,1128,1300,1364,1703,1775,1866,1904,1955,1843,1888,1815,1745,1713,1776,1647,1614,1582,1559,1522,1486,1449,1477,1520,1339,1344,1266,1230,1291,1157,1120,1088,1115,1114,1119,1162,1160,1152,1166,1174,1164,1162,1168,1168,1165,1174,1183,1165,1172,1208,1231,1204,1202,1182,1166,1183,1167,1164,1162,1183,1176,1185,1169,966,970,972,984,1045,1164,1314,1526,1607,1659,1553,1504,1584,1480,1437,1485,1407,1383,1358,1338,1315,1292,1270,1257,1234,1188,1203,1159,1134,1091,1085,1042,1017,996,983,1023,983,986,1021,998,989,1003,1058,1107,1022,1020,1037,1058,1045,1066,1068,1066,1038,1040,1070,1049,1065,1051,1065,1133,1080,1087,1112,1061,1062,1195,1200,1204,1246,1358,1509,1699,1838,1980,1954,1914,1859,1931,1823,1774,1796,1787,1702,1684,1645,1628,1630,1560,1541,1552,1460,1478,1419,1388,1348,1327,1278,1248,1263,1224,1213,1216,1229,1283,1248,1246,1296,1245,1272,1340,1369,1359,1282,1267,1251,1265,1274,1323,1344,1371,1299,1309,1312,1302,1305,1320,1282,1251,1274,1257,878,876,873,886,956,1039,1174,1296,1384,1433,1415,1368,1347,1336,1318,1290,1281,1267,1224,1213,1208,1166,1157,1132,1124,1080,1058,1048,1025,982,980,953,930,911,870,901,898,893,897,898,893,907,928,898,906,921,912,913,916,925,998,1000,1009,965,1054,1003,944,939,915,915,929,904,923,912,906,337,338,332,340,341,356,393,435,477,532,528,520,507,504,523,488,480,473,465,457,449,441,433,425,417,410,404,394,390,382,375,368,360,353,388,342,342,343,335,341,338,337,340,338,342,345,337,341,335,339,342,343,347,343,346,340,338,337,346,350,338,342,341,343,342,995,950,953,965,1019,1132,1271,1400,1476,1540,1578,1477,1485,1439,1516,1414,1417,1339,1316,1296,1271,1297,1225,1249,1210,1201,1133,1110,1132,1064,1041,1019,1034,975,965,961,984,966,991,988,993,1021,1001,996,1055,1054,1003,1030,1087,1040,1023,1099,1144,1138,1130,1075,1058,1078,1080,1042,1012,1022,1017,997,982,824,815,817,846,894,956,1067,1182,1267,1336,1294,1274,1255,1256,1237,1197,1178,1158,1139,1124,1101,1100,1056,1061,1041,1004,988,965,964,940,907,878,852,853,838,835,840,840,853,843,843,846,843,859,912,911,847,879,862,851,852,891,900,913,908,884,898,908,916,890,874,869,855,852,851,0,0,0,0,0,0,0,0,0,0,0,0,0,0,0,0,0,0,0,0,0,0,0,0,0,0,0,0,0,0,0,0,0,0,0,0,0,0,0,0,0,0,0,0,0,0,0,0,0,0,0,0,0,0,0,0,0,0,0,0,0,0,0,0,0,265,266,267,268,268,281,318,355,392,429,356,351,346,341,414,407,400,393,386,379,372,365,358,351,344,337,330,323,316,309,302,295,288,281,274,301,270,271,264,272,263,269,272,274,272,281,273,269,276,273,271,268,269,273,269,269,271,271,266,269,264,271,268,270,263,1336,1340,1342,1385,1504,1690,1914,2090,2160,2201,2089,2072,2100,1989,1938,1996,1911,1857,1836,1794,1814,1731,1719,1678,1646,1592,1597,1575,1512,1502,1470,1393,1399,1341,1330,1386,1357,1351,1403,1395,1425,1441,1425,1451,1426,1466,1450,1447,1474,1436,1448,1479,1497,1498,1464,1451,1434,1456,1438,1428,1427,1453,1444,1467,1435,350,351,352,353,373,378,426,511,523,566,575,566,557,548,574,530,521,512,503,505,485,487,520,458,449,440,431,431,413,404,404,386,377,369,360,355,356,357,348,351,349,361,362,363,355,364,353,356,366,387,393,404,400,371,358,364,371,380,374,360,363,368,353,357,357,1096,1079,1081,1107,1244,1328,1502,1645,1761,1801,1727,1678,1744,1648,1602,1637,1688,1538,1511,1487,1462,1553,1410,1450,1365,1319,1429,1351,1256,1209,1245,1155,1147,1105,1114,1091,1093,1157,1124,1122,1136,1162,1131,1156,1130,1136,1133,1137,1165,1153,1179,1197,1191,1173,1154,1167,1152,1169,1172,1161,1167,1172,1145,1179,1175,377,395,379,381,382,408,460,512,564,609,618,608,599,589,580,570,560,551,541,531,522,512,524,551,483,474,484,508,448,435,444,416,406,414,404,399,384,401,389,395,389,403,404,408,396,404,394,395,407,420,432,446,441,414,401,408,412,420,418,402,406,414,394,400,399,351,352,372,354,355,401,435,481,515,557,563,541,534,546,520,513,520,513,505,498,491,484,477,470,462,446,424,428,406,413,392,384,376,368,360,358,356,357,364,341,346,342,371,373,347,372,350,347,361,372,358,364,378,401,388,395,355,378,370,376,396,387,400,411,392,959,973,980,999,1041,1192,1344,1501,1609,1627,1584,1539,1584,1514,1465,1447,1440,1381,1382,1352,1340,1314,1300,1279,1260,1214,1198,1174,1155,1085,1096,1055,1015,988,999,986,976,996,996,1001,1026,1035,1058,1031,1036,1022,1027,1031,1013,1006,1019,1020,1015,1016,1044,1034,1008,1011,1012,1012,1015,1023,1045,1042,1015,1020,1039,1037,1070,1139,1250,1408,1559,1671,1645,1618,1628,1589,1567,1574,1545,1488,1458,1432,1432,1399,1389,1370,1319,1293,1254,1234,1200,1176,1173,1135,1111,1100,1098,1064,1042,1056,1035,1059,1077,1070,1099,1070,1105,1081,1097,1085,1090,1090,1077,1093,1083,1104,1111,1104,1111,1104,1099,1114,1096,1098,1104,1103,1115,1105,1311,1296,1306,1398,1594,1667,1865,1999,2108,2141,2062,2049,2106,2006,1954,1982,1988,1835,1838,1808,1742,1839,1713,1713,1655,1603,1636,1589,1492,1477,1498,1375,1392,1350,1332,1309,1341,1377,1374,1360,1369,1379,1399,1364,1376,1378,1382,1405,1406,1403,1403,1529,1409,1392,1536,1420,1410,1425,1426,1415,1426,1418,1433,1435,1435,353,363,364,356,366,390,445,489,548,589,593,583,574,565,556,547,537,528,519,510,500,507,497,473,463,454,445,436,429,423,407,399,390,385,371,367,368,369,362,362,360,368,368,379,360,361,362,372,373,366,373,366,371,369,379,366,363,371,363,366,368,362,376,363,362,1576,1673,1728,1806,1947,2207,2339,2564,2609,2526,2520,2512,2424,2458,2386,2289,2341,2299,2187,2195,2162,2171,2082,2004,1963,1990,1908,1861,1807,1802,1754,1724,1739,1693,1608,1607,1624,1644,1786,1808,1796,1815,1859,1820,1818,1828,1824,1825,1848,1838,1831,1836,1840,1846,1882,1865,1854,1850,1897,1838,1854,1870,1879,1869,1851,639,645,633,667,722,714,785,891,950,989,911,897,887,871,938,954,904,924,874,902,844,864,813,827,783,768,779,765,736,735,703,725,711,647,644,640,667,668,655,659,652,670,664,670,660,664,663,664,661,662,655,661,659,654,661,668,666,664,660,661,666,682,668,672,666,724,726,728,730,755,831,932,1033,1115,1152,1273,1134,1116,1107,1081,1064,1046,1029,1011,994,976,959,941,924,906,889,871,854,836,819,801,784,767,749,737,734,736,738,731,740,735,747,756,746,752,760,736,746,739,740,743,758,751,754,795,789,749,751,758,741,736,738,759,754,740,814,805,787,790,795,949,1018,1127,1213,1278,1242,1224,1165,1225,1168,1150,1132,1113,1095,1080,1095,1076,1016,1037,985,997,951,929,938,883,894,846,821,808,770,825,772,771,805,790,790,797,801,806,808,805,805,814,813,805,808,815,817,809,810,823,814,824,809,800,818,820,801,801,791,1446,1451,1504,1563,1709,1924,2144,2314,2380,2416,2301,2241,2368,2324,2136,2190,2110,2044,2028,1975,1940,1904,1889,1844,1859,1751,1856,1697,1660,1620,1586,1531,1537,1574,1469,1526,1471,1491,1582,1589,1589,1624,1583,1583,1588,1616,1611,1697,1588,1600,1636,1626,1673,1612,1618,1618,1621,1623,1601,1602,1621,1627,1614,1618,1603,701,740,736,723,782,884,957,1085,1120,1169,1168,1149,1153,1130,1150,1076,1072,1059,1041,1022,991,1005,1013,928,897,909,890,868,853,834,836,799,808,796,745,742,744,746,755,754,745,746,782,806,763,774,769,790,772,793,781,785,770,789,775,772,787,764,777,814,792,808,795,791,787,448,450,451,453,475,494,558,660,686,732,738,727,715,703,727,680,669,657,645,634,622,637,651,587,575,564,552,540,529,517,505,494,482,470,459,455,456,458,447,441,446,449,440,458,450,455,454,453,469,448,447,450,447,460,452,454,450,449,449,449,454,452,449,477,455,830,842,840,865,931,1016,1221,1396,1410,1382,1462,1374,1451,1321,1332,1249,1229,1228,1206,1167,1144,1147,1146,1141,1056,1056,1019,1009,970,1021,927,907,929,900,850,849,850,864,866,888,873,873,881,897,881,898,891,928,906,937,953,927,909,917,936,902,907,920,1009,988,947,945,959,966,943,885,903,901,926,970,1059,1193,1365,1459,1431,1434,1421,1385,1367,1377,1334,1298,1271,1248,1265,1222,1216,1222,1137,1129,1094,1077,1046,1026,1030,992,971,963,962,912,905,906,898,924,902,907,912,963,943,945,945,931,963,939,924,940,912,917,935,931,921,942,917,913,936,934,958,944,947,938,992,1025,973,1008,1073,1247,1325,1502,1584,1572,1595,1620,1514,1530,1623,1587,1546,1390,1366,1341,1384,1316,1316,1266,1278,1192,1167,1209,1117,1093,1160,1043,1107,1034,984,981,984,986,998,1005,1003,1038,994,1035,1009,1036,1023,1027,1039,1011,1024,1016,1027,1038,1027,1028,1031,1029,1038,1023,1031,1039,1029,1061,1051,910,915,916,924,1032,1090,1232,1373,1496,1507,1470,1425,1496,1403,1361,1340,1401,1310,1287,1267,1246,1224,1203,1239,1166,1124,1190,1141,1074,1031,1026,984,960,939,927,924,926,929,938,943,954,940,939,957,958,960,961,952,988,951,955,947,966,973,976,985,984,961,969,974,963,958,955,980,939,655,669,659,660,693,749,808,942,985,1028,1029,1013,996,1015,1008,948,931,915,899,900,881,928,908,817,827,785,797,772,757,720,726,711,702,718,667,664,666,641,672,660,663,661,667,666,670,667,674,668,667,670,678,676,679,675,674,680,671,679,678,677,677,682,674,672,670,523,525,526,528,533,579,647,716,784,826,831,818,806,793,781,768,756,744,731,719,706,694,682,670,657,644,632,620,607,595,582,570,558,545,534,530,532,533,549,532,527,531,537,540,595,585,544,567,554,536,542,583,588,596,585,601,588,603,586,570,567,552,539,534,527,966,970,972,984,1045,1164,1314,1526,1607,1659,1553,1504,1584,1480,1437,1485,1407,1383,1358,1338,1315,1292,1270,1257,1234,1188,1203,1159,1134,1091,1085,1042,1017,996,983,1023,983,986,1021,998,989,1003,1058,1107,1022,1020,1037,1058,1045,1066,1068,1066,1038,1040,1070,1049,1065,1051,1065,1133,1080,1087,1112,1061,1062,1248,1200,1195,1254,1364,1554,1711,1800,1955,1938,1947,1842,1813,1885,1842,1803,1798,1712,1649,1675,1648,1668,1632,1530,1501,1491,1451,1427,1375,1368,1290,1261,1296,1211,1200,1256,1254,1227,1325,1290,1283,1372,1342,1340,1326,1306,1319,1348,1367,1340,1352,1357,1332,1333,1311,1343,1351,1348,1384,1382,1321,1309,1366,1296,1296,1478,1430,1453,1541,1695,1949,2109,2190,2321,2298,2301,2250,2156,2221,2166,2127,2129,2026,1957,1976,1964,1875,1928,1809,1773,1758,1712,1721,1624,1621,1565,1493,1527,1443,1432,1445,1487,1461,1511,1517,1535,1554,1539,1552,1537,1550,1529,1554,1557,1547,1545,1565,1562,1577,1591,1590,1548,1564,1571,1563,1558,1554,1563,1587,1574,1106,1116,1108,1149,1244,1429,1569,1641,1755,1755,1760,1694,1692,1691,1667,1666,1665,1591,1529,1574,1460,1459,1440,1421,1383,1411,1357,1326,1267,1257,1187,1159,1212,1109,1108,1108,1169,1134,1153,1157,1197,1468,1206,1144,1190,1287,1222,1161,1259,1235,1182,1187,1268,1246,1239,1152,1180,1173,1220,1220,1162,1208,1172,1176,1189,545,545,554,572,608,683,779,743,799,844,873,838,826,847,835,844,860,812,763,809,737,727,711,730,717,704,741,674,658,650,605,593,628,568,557,558,629,578,567,576,565,598,571,592,569,599,576,585,582,575,588,580,595,599,594,593,593,591,601,588,593,603,599,611,609,912,919,917,920,1024,1086,1239,1370,1434,1426,1470,1458,1403,1380,1405,1327,1395,1350,1326,1302,1298,1268,1230,1219,1182,1133,1115,1093,1104,1031,1059,963,964,942,929,942,928,935,936,937,942,957,958,948,976,976,963,965,991,983,1088,1083,1108,1032,960,966,970,969,971,970,966,973,965,1015,971,745,748,750,767,795,865,982,1093,1132,1165,1193,1153,1137,1122,1106,1090,1074,1058,1042,1026,1027,994,978,963,947,930,921,891,871,864,852,808,789,769,756,757,759,761,758,759,771,861,779,758,777,807,782,767,775,772,775,768,783,779,798,783,774,768,781,790,767,790,772,778,783,306,307,308,309,309,326,370,430,450,501,504,507,500,493,473,463,456,448,441,433,426,419,411,404,394,389,378,374,366,354,346,344,331,329,315,310,311,318,305,307,301,302,307,308,320,318,305,309,310,317,311,305,307,312,310,311,308,309,303,304,303,307,308,307,300,0,0,0,0,0,0,0,0,0,0,0,0,0,0,0,0,0,0,0,0,0,0,0,0,0,0,0,0,0,0,0,0,0,0,0,0,0,0,0,0,0,0,0,0,0,0,0,0,0,0,0,0,0,0,0,0,0,0,0,0,0,0,0,0,0,1623,1573,1574,1692,1884,2123,2280,2357,2499,2496,2472,2383,2314,2383,2397,2285,2271,2178,2107,2169,2087,2097,2053,1944,1906,1905,1900,1800,1746,1730,1670,1608,1667,1573,1547,1665,1603,1571,1701,1695,1695,1713,1811,1794,1748,1786,1743,1856,1799,1808,1796,1747,1763,1817,1802,1758,1827,1796,1776,1832,1804,1858,1834,1859,1813,564,563,572,591,610,668,749,796,859,902,929,893,880,899,885,893,888,857,807,851,778,766,748,765,751,736,732,703,685,676,629,616,649,588,576,577,608,597,590,594,588,592,599,591,594,594,592,591,590,594,592,596,599,600,598,595,598,593,599,610,596,607,593,596,599,1332,1308,1427,1390,1583,1771,1899,2018,2138,2106,2132,2013,1981,2093,2037,1961,2038,1865,1799,1941,1733,1725,1689,1665,1632,1620,1577,1550,1494,1507,1404,1372,1406,1384,1310,1314,1365,1338,1364,1409,1372,1371,1390,1374,1390,1396,1397,1397,1415,1389,1398,1403,1405,1411,1414,1426,1420,1418,1426,1403,1429,1437,1453,1420,1422,298,299,300,301,324,319,390,403,445,486,498,490,482,474,466,458,450,442,434,458,449,410,402,394,387,379,371,363,355,347,359,350,342,315,307,303,303,304,297,297,304,311,322,328,325,297,308,318,305,301,311,301,302,299,301,307,299,300,299,302,304,303,307,309,299,624,615,635,638,660,719,793,885,960,992,1048,978,983,965,952,942,954,910,882,882,855,854,827,814,799,775,793,746,729,716,708,687,670,658,644,640,643,657,638,640,630,633,646,653,645,661,655,669,654,669,654,657,652,672,651,652,670,652,655,679,664,675,661,666,662,1235,1216,1220,1274,1362,1595,1713,1808,1957,1939,1948,1862,1826,1896,1820,1802,1826,1745,1647,1689,1589,1608,1628,1548,1529,1487,1458,1442,1369,1384,1305,1274,1318,1204,1193,1196,1266,1220,1266,1269,1260,1290,1262,1284,1258,1285,1292,1379,1258,1276,1280,1275,1314,1257,1282,1287,1295,1281,1259,1269,1295,1282,1276,1275,1261,1258,1282,1265,1324,1474,1655,1857,1911,1986,1970,2008,1975,1953,1940,1911,1896,1845,1815,1741,1784,1676,1671,1618,1619,1579,1572,1543,1470,1447,1414,1378,1342,1363,1275,1266,1298,1289,1318,1329,1321,1343,1384,1353,1366,1353,1350,1359,1366,1368,1345,1358,1388,1411,1401,1381,1368,1346,1372,1350,1348,1344,1379,1363,1389,1348,1576,1526,1681,1729,1913,2180,2255,2366,2479,2441,2460,2338,2340,2405,2400,2300,2332,2192,2223,2244,2152,1995,1986,1956,1926,1868,1819,1787,1755,1778,1626,1589,1623,1626,1564,1586,1584,1586,1688,1687,1686,1700,1701,1720,1725,1736,1718,1725,1748,1734,1740,1749,1744,1771,1751,1724,1742,1738,1725,1748,1741,1729,1734,1778,1736,379,384,382,383,384,421,466,521,585,622,639,621,611,601,591,581,570,561,551,541,531,520,498,500,490,480,463,460,450,445,430,420,418,401,389,385,386,387,372,368,377,384,372,384,373,378,377,372,385,378,376,377,378,391,383,383,373,380,377,380,385,381,380,394,389,1796,1910,1934,2080,2467,2595,2873,2920,2846,2878,2912,2844,2875,2732,2757,2742,2601,2570,2515,2478,2353,2356,2288,2247,2266,2259,2166,2108,2063,2029,2019,1911,1971,1874,1839,1887,1893,1935,2223,2209,2230,2256,2283,2267,2285,2299,2268,2285,2318,2309,2405,2406,2389,2345,2429,2390,2335,2356,2354,2339,2360,2349,2356,2349,2361,693,681,689,732,809,806,857,947,1025,1063,1066,1050,1041,1038,1022,1029,1012,976,940,924,952,904,918,869,846,830,859,798,783,767,786,749,759,704,692,694,728,692,695,694,695,705,730,695,705,717,707,706,712,716,769,768,787,740,790,785,746,735,714,701,722,699,718,706,701,714,716,718,720,744,812,926,1034,1122,1169,1169,1151,1132,1114,1111,1076,1058,1039,1021,1002,984,979,947,942,909,891,872,854,835,817,804,774,756,737,724,725,727,728,714,729,731,738,737,739,733,748,731,752,730,731,731,743,751,763,753,752,741,732,752,754,748,751,732,740,732,715,717,719,698,758,823,934,1038,1125,1131,1132,1125,1097,1079,1077,1083,1065,1047,1029,1011,984,989,957,952,920,892,951,861,836,856,818,751,757,739,725,732,734,730,729,723,737,754,752,756,747,736,745,759,755,754,769,783,807,782,774,753,735,756,743,745,736,755,748,762,732,1735,1692,1743,1887,2120,2355,2506,2578,2714,2708,2818,2588,2525,2589,2555,2475,2458,2362,2288,2345,2260,2266,2218,2107,2065,2060,2008,1955,1891,1871,1783,1746,1780,1712,1686,1886,1749,1717,1939,1948,1991,2011,2025,2019,2046,2067,2061,2094,2116,2129,2159,2129,2127,2160,2209,2203,2178,2217,2266,2271,2284,2321,2315,2305,2323,915,895,926,954,984,1108,1246,1338,1404,1438,1456,1412,1389,1399,1378,1376,1352,1323,1273,1301,1247,1200,1200,1208,1158,1136,1153,1110,1060,1042,988,966,990,922,962,913,982,956,947,969,953,975,971,976,959,981,976,1016,993,1023,1044,1013,989,997,1020,989,988,1000,1092,1070,1030,1024,1045,1049,1021,662,662,672,691,703,795,882,943,1026,1066,1078,1052,1035,1052,1036,1030,1011,989,947,978,912,888,878,892,865,857,850,819,790,786,738,713,752,688,675,677,709,698,693,694,718,690,697,714,694,689,697,728,725,724,726,724,724,717,716,714,694,721,729,720,720,703,703,707,751,1049,1085,1078,1106,1211,1335,1537,1642,1678,1711,1703,1682,1676,1677,1644,1623,1590,1565,1480,1529,1425,1424,1371,1374,1361,1351,1305,1262,1249,1234,1173,1142,1165,1077,1101,1099,1167,1094,1164,1156,1142,1235,1211,1197,1176,1181,1196,1236,1191,1258,1295,1236,1167,1212,1214,1211,1210,1187,1269,1368,1317,1317,1327,1243,1236,1110,1147,1112,1164,1309,1424,1634,1720,1765,1759,1816,1771,1752,1758,1699,1706,1658,1632,1560,1607,1502,1500,1445,1440,1418,1415,1375,1319,1300,1269,1237,1204,1227,1139,1147,1161,1152,1157,1168,1177,1197,1213,1189,1204,1189,1207,1189,1210,1199,1189,1188,1203,1208,1227,1214,1214,1197,1192,1208,1212,1208,1210,1189,1211,1200,1181,1208,1196,1258,1460,1701,1918,2007,1909,1893,2063,1951,1953,1997,1833,1896,1872,1789,1766,1746,1595,1600,1535,1535,1564,1554,1454,1485,1465,1426,1334,1298,1331,1212,1201,1287,1237,1334,1334,1309,1306,1312,1326,1352,1369,1369,1343,1375,1351,1329,1320,1384,1386,1371,1380,1396,1387,1410,1375,1363,1372,1360,1336,1338,1320,1125,1143,1195,1191,1293,1473,1626,1794,1844,1849,1813,1764,1736,1844,1712,1729,1802,1641,1578,1606,1521,1517,1485,1465,1436,1428,1389,1366,1315,1310,1232,1204,1240,1211,1144,1147,1197,1170,1242,1231,1226,1313,1283,1281,1267,1250,1271,1306,1279,1313,1311,1312,1250,1260,1282,1290,1289,1268,1313,1363,1303,1289,1319,1276,1279,796,800,804,832,864,970,1091,1172,1242,1277,1309,1256,1237,1259,1230,1235,1210,1183,1128,1161,1087,1070,1046,1055,1039,1024,1006,971,951,932,880,860,887,821,815,810,866,831,818,816,821,824,827,820,828,833,837,824,824,824,825,824,831,828,861,848,835,836,837,831,840,832,830,833,828,473,475,476,477,480,510,582,649,715,770,777,764,752,740,728,716,704,692,679,667,655,643,631,619,606,594,582,570,558,546,528,516,504,492,480,480,481,483,467,468,470,477,472,475,471,477,475,475,475,473,477,478,477,480,483,483,484,480,481,480,485,502,501,504,501,1248,1200,1195,1254,1364,1554,1711,1800,1955,1938,1947,1842,1813,1885,1842,1803,1798,1712,1649,1675,1648,1668,1632,1530,1501,1491,1451,1427,1375,1368,1290,1261,1296,1211,1200,1256,1254,1227,1325,1290,1283,1372,1342,1340,1326,1306,1319,1348,1367,1340,1352,1357,1332,1333,1311,1343,1351,1348,1384,1382,1321,1309,1366,1296,1296,384,385,387,388,389,414,466,518,571,617,627,617,608,598,588,578,569,559,549,540,530,520,511,501,491,482,472,462,453,443,433,423,414,404,394,390,391,392,407,369,372,374,377,385,374,383,374,378,384,383,378,383,384,393,389,392,381,385,385,388,394,391,393,404,393,189,189,190,190,191,196,219,243,266,290,304,299,295,290,286,281,277,272,268,263,259,254,249,245,240,236,231,227,222,218,213,208,204,199,195,191,192,192,179,178,182,186,181,181,180,182,181,186,181,181,186,188,193,190,186,182,184,186,185,188,185,190,184,185,185,540,541,543,545,551,596,679,757,834,880,886,894,858,844,858,836,802,788,774,779,746,732,718,717,690,677,663,664,635,621,607,593,593,565,552,561,563,551,549,542,544,544,555,561,557,562,554,570,564,552,559,548,550,562,559,556,560,549,548,555,559,562,561,582,562,982,1049,1017,1015,1073,1216,1358,1484,1581,1616,1609,1572,1533,1528,1494,1481,1451,1415,1401,1378,1355,1341,1284,1276,1254,1229,1205,1191,1131,1127,1082,1059,1076,1029,1018,1013,999,1002,1022,1027,1007,1006,1021,1052,1030,1049,1040,1068,1051,1082,1077,1062,1072,1074,1107,1046,1059,1078,1072,1116,1084,1077,1098,1095,1081,1335,1305,1327,1403,1550,1786,2055,2186,2199,2217,2210,2134,2187,2081,2053,2034,2058,1980,1978,1906,1870,1788,1741,1708,1682,1682,1615,1601,1516,1493,1417,1390,1337,1348,1355,1338,1362,1345,1382,1428,1386,1402,1417,1399,1405,1417,1413,1418,1424,1410,1424,1412,1421,1421,1432,1432,1434,1432,1458,1406,1432,1438,1455,1435,1429,1469,1484,1477,1558,1821,2025,2389,2513,2494,2474,2490,2379,2387,2291,2247,2317,2244,2138,2157,2027,2043,2057,1951,1878,1920,1837,1767,1811,1677,1587,1583,1525,1500,1483,1475,1482,1488,1492,1590,1585,1579,1593,1582,1604,1589,1594,1616,1672,1594,1628,1634,1635,1614,1643,1644,1606,1595,1608,1624,1651,1632,1649,1649,1643,1621,1108,1122,1126,1169,1237,1353,1659,1672,1788,1793,1924,1865,1776,1723,1692,1612,1637,1628,1627,1580,1511,1448,1473,1416,1506,1370,1331,1303,1285,1275,1211,1171,1233,1133,1118,1156,1116,1138,1184,1174,1172,1174,1172,1180,1248,1243,1181,1211,1198,1177,1180,1227,1236,1250,1249,1253,1234,1248,1252,1227,1206,1214,1188,1191,1185,1342,1389,1373,1521,1545,1767,2053,2024,2133,2133,2375,2251,2101,2044,2008,2027,1944,1929,1923,1893,1800,1732,1751,1690,1700,1635,1622,1558,1562,1548,1452,1407,1491,1422,1355,1392,1353,1375,1450,1445,1440,1453,1443,1465,1450,1456,1478,1533,1456,1489,1496,1494,1475,1506,1504,1468,1457,1470,1486,1514,1494,1512,1512,1506,1484,0,0,0,0,0,0,0,0,0,0,0,0,0,0,0,0,0,0,0,0,0,0,0,0,0,0,0,0,0,0,0,0,0,0,0,0,0,0,0,0,0,0,0,0,0,0,0,0,0,0,0,0,0,0,0,0,0,0,0,0,0,0,0,0,0,901,904,922,931,967,1110,1247,1364,1463,1499,1494,1445,1421,1421,1374,1374,1351,1311,1287,1280,1304,1210,1187,1184,1160,1136,1158,1104,1046,1041,999,976,953,948,936,931,917,920,947,950,946,960,960,967,955,980,951,963,951,957,950,977,969,966,960,974,965,961,974,984,959,970,947,965,954,465,466,467,469,472,541,577,644,711,759,768,756,744,732,720,707,695,683,671,695,646,634,622,610,598,585,573,561,549,537,525,541,500,488,476,472,473,474,462,469,468,475,467,464,472,472,475,475,468,471,468,472,472,475,478,484,472,471,475,477,481,483,476,475,475,1356,1320,1334,1397,1535,1726,1927,2071,2132,2175,2153,2213,2116,2087,1976,1954,1933,1917,1841,1807,1880,1739,1706,1732,1638,1617,1614,1536,1503,1470,1532,1402,1371,1349,1373,1336,1340,1354,1440,1392,1394,1434,1390,1413,1388,1413,1414,1428,1418,1414,1427,1409,1443,1426,1457,1418,1428,1420,1405,1420,1428,1413,1425,1435,1412,843,861,863,869,896,1033,1154,1259,1369,1406,1403,1358,1337,1334,1294,1273,1269,1230,1208,1201,1179,1135,1113,1112,1089,1067,1047,1038,994,973,951,930,893,889,878,872,873,860,889,893,848,846,898,878,874,878,878,889,940,891,906,920,924,900,901,913,915,936,970,915,901,912,966,914,886,377,378,379,380,382,409,463,518,572,619,629,619,609,599,589,579,568,558,548,538,528,518,508,498,488,478,468,458,448,438,427,417,407,397,387,383,384,385,371,372,369,372,376,384,374,376,386,379,373,378,374,378,377,373,380,381,379,377,377,378,384,391,391,393,387,707,697,677,679,697,766,867,968,1091,1099,1135,1086,1068,1051,1033,1016,998,981,969,946,928,911,893,876,881,841,836,806,788,771,753,740,718,701,687,683,719,686,683,684,685,685,686,690,713,708,701,693,698,697,694,701,705,730,702,703,701,702,705,708,703,710,703,739,707,706,708,711,685,737,778,922,985,1119,1160,1162,1144,1125,1118,1088,1030,994,976,1024,955,941,958,905,921,902,851,865,846,828,778,761,743,753,734,693,677,679,693,691,690,693,720,693,707,693,700,691,691,702,695,693,703,703,713,701,710,702,702,708,698,702,713,689,709,700,1318,1282,1339,1346,1456,1631,1907,1961,2038,2130,2021,2043,2050,1947,1912,1892,1877,1840,1765,1751,1765,1670,1653,1666,1574,1569,1510,1491,1466,1444,1414,1363,1333,1310,1334,1297,1309,1315,1345,1357,1375,1395,1415,1397,1392,1392,1384,1391,1367,1360,1373,1381,1375,1371,1404,1394,1364,1365,1376,1368,1369,1376,1401,1403,1368,1102,1149,1093,1189,1255,1368,1575,1662,1762,1819,1756,1780,1721,1729,1664,1635,1592,1583,1584,1544,1530,1447,1453,1442,1383,1354,1355,1295,1297,1268,1214,1184,1153,1123,1143,1101,1122,1150,1152,1199,1156,1180,1193,1187,1172,1192,1177,1195,1191,1166,1184,1187,1199,1200,1197,1200,1197,1188,1210,1192,1206,1218,1220,1216,1207,972,961,963,977,1066,1185,1333,1453,1542,1613,1559,1547,1557,1484,1459,1449,1409,1428,1357,1342,1351,1293,1260,1274,1220,1208,1158,1134,1122,1097,1060,1035,1010,988,1010,972,975,989,984,981,996,1005,1005,1005,998,1005,1006,1020,1011,1006,1040,1015,1014,1007,1021,1027,1011,1022,1015,1013,1016,1028,1011,1030,1000,1297,1271,1305,1362,1509,1741,2010,2142,2155,2174,2168,2092,2079,2040,2036,1974,1964,1912,1914,1871,1777,1746,1703,1670,1636,1620,1577,1543,1480,1480,1401,1341,1327,1308,1346,1303,1328,1310,1352,1396,1351,1364,1373,1363,1371,1383,1378,1381,1402,1369,1381,1384,1388,1390,1387,1405,1404,1397,1407,1371,1404,1412,1427,1389,1386,1386,1375,1383,1514,1692,1965,2231,2367,2360,2385,2391,2281,2275,2229,2186,2172,2128,2061,2045,1972,1936,1918,1848,1801,1813,1741,1672,1663,1587,1544,1498,1441,1424,1399,1391,1406,1423,1407,1466,1452,1457,1458,1460,1491,1493,1491,1481,1494,1511,1494,1497,1493,1493,1519,1534,1503,1507,1518,1520,1532,1524,1514,1541,1583,1552,238,238,239,240,241,251,284,318,351,385,399,393,386,380,373,367,361,354,348,341,335,329,322,316,309,303,297,290,284,277,271,265,258,252,246,241,242,243,232,225,227,232,231,233,230,232,228,234,232,232,227,232,230,225,228,232,233,233,228,225,232,231,228,228,226,900,933,936,934,999,1170,1257,1368,1460,1485,1554,1488,1407,1429,1481,1395,1360,1332,1312,1290,1265,1242,1200,1192,1147,1147,1123,1096,1078,1036,991,991,967,960,947,944,938,915,931,946,946,963,970,959,957,969,950,958,951,950,952,969,966,976,1060,1023,970,963,971,959,951,960,977,974,959,809,812,818,820,842,935,1100,1209,1297,1331,1328,1307,1315,1268,1271,1200,1201,1178,1159,1141,1114,1119,1071,1052,1031,993,990,960,944,945,902,881,859,843,827,823,845,812,823,816,831,848,835,839,830,855,840,848,844,836,848,875,893,878,867,858,829,851,837,830,827,850,858,860,830,771,788,747,746,772,853,982,1090,1169,1218,1269,1200,1176,1161,1138,1122,1103,1083,1064,1087,1025,1046,1000,966,943,927,904,888,865,883,826,810,790,771,757,753,756,790,761,761,759,770,766,760,758,764,756,763,761,759,764,770,767,768,770,767,767,766,767,770,763,767,769,771,768,660,678,640,642,650,713,815,910,988,1040,1045,1028,1012,995,978,962,945,929,912,979,879,890,846,829,812,796,779,763,746,753,713,696,680,663,649,645,647,670,647,645,654,671,669,661,656,660,659,671,667,667,668,707,724,709,699,667,662,675,669,663,653,677,660,682,656,1032,1023,980,973,1033,1151,1304,1441,1587,1557,1616,1597,1504,1557,1454,1493,1464,1468,1426,1330,1305,1280,1256,1231,1255,1204,1208,1132,1107,1185,1057,1098,1008,985,1047,1042,1025,974,990,989,992,996,998,998,1007,1006,1006,1012,1009,1011,1016,1017,1019,1016,1029,1028,1030,1036,1034,1028,1044,1036,1034,1039,1038,520,522,523,525,530,576,652,727,803,849,857,844,830,817,803,789,776,762,749,735,722,708,694,681,684,654,640,626,613,599,586,572,559,545,532,528,529,531,523,536,532,547,568,562,542,575,536,584,557,582,553,546,564,585,562,550,570,562,556,564,557,579,549,554,542,853,856,832,879,922,1011,1124,1232,1319,1357,1353,1331,1310,1288,1266,1259,1223,1201,1180,1158,1157,1137,1117,1072,1097,1070,1026,1006,985,964,944,923,902,882,869,865,868,881,862,875,869,883,879,873,886,900,873,873,875,882,878,875,876,883,888,883,885,881,879,883,882,912,908,917,901,1488,1516,1561,1687,1755,2015,2200,2535,2530,2539,2380,2330,2277,2259,2224,2186,2179,2114,2092,2163,1990,1974,1941,1962,1827,1790,1828,1809,1687,1699,1602,1587,1573,1577,1556,1500,1581,1560,1646,1663,1649,1680,1685,1670,1662,1695,1666,1686,1665,1703,1685,1709,1686,1709,1706,1739,1716,1703,1718,1720,1733,1743,1734,1735,1754,384,385,387,388,389,414,466,518,571,617,627,617,608,598,588,578,569,559,549,540,530,520,511,501,491,482,472,462,453,443,433,423,414,404,394,390,391,392,407,369,372,374,377,385,374,383,374,378,384,383,378,383,384,393,389,392,381,385,385,388,394,391,393,404,393,618,620,621,623,635,696,856,876,1020,1004,1007,991,975,960,944,927,964,897,881,865,849,907,906,802,786,770,804,738,723,707,691,676,714,703,631,627,629,630,638,639,637,649,668,649,651,672,653,675,668,668,749,738,746,695,667,651,668,651,644,663,657,667,656,660,653,846,849,850,856,898,998,1128,1258,1403,1380,1377,1355,1333,1325,1290,1267,1297,1224,1202,1181,1159,1137,1115,1105,1119,1092,1028,1045,984,962,939,918,896,875,862,859,861,862,900,848,860,870,860,896,869,897,885,873,902,873,873,876,878,892,878,869,884,884,882,869,876,885,867,886,875,530,521,536,518,528,589,672,724,814,872,851,851,862,803,810,801,787,770,767,723,739,715,690,691,657,661,656,634,639,596,593,579,565,559,531,552,527,529,536,539,533,536,548,547,571,582,546,555,549,555,552,544,545,560,557,548,553,544,539,547,545,555,548,557,541,199,199,200,200,201,207,231,255,280,304,317,313,308,303,299,294,289,285,280,275,271,266,261,257,252,247,242,238,233,228,224,219,214,210,205,201,202,202,187,187,187,190,188,190,187,189,189,193,188,189,193,186,189,190,190,192,188,195,190,192,190,190,190,193,190,866,838,868,872,940,1153,1301,1526,1497,1569,1521,1494,1466,1439,1437,1425,1416,1386,1317,1306,1257,1263,1231,1200,1171,1140,1074,1091,1017,1017,969,945,918,896,852,874,879,876,876,882,871,893,884,884,893,905,889,881,885,898,896,884,882,890,892,892,890,892,882,889,884,899,900,900,883,997,1040,1002,1017,1109,1350,1498,1613,1775,1831,1854,1684,1717,1680,1606,1590,1582,1554,1525,1526,1499,1426,1350,1367,1340,1251,1267,1238,1198,1118,1141,1075,1018,987,1014,1015,1033,1028,1053,1043,1046,1049,1046,1047,1113,1114,1053,1082,1062,1053,1054,1105,1110,1122,1112,1119,1107,1119,1121,1103,1072,1082,1057,1055,1045,352,371,355,356,367,387,468,482,542,594,593,584,584,575,601,568,564,541,549,550,555,485,492,467,473,482,473,433,442,419,398,396,391,371,372,366,374,370,356,355,353,356,387,379,389,378,369,392,374,369,378,362,361,373,369,363,383,362,357,378,374,389,379,376,371,585,624,589,590,611,663,773,814,901,1020,932,930,989,899,933,895,886,858,860,857,909,782,784,809,756,760,796,701,705,706,651,645,634,609,627,601,633,627,606,617,615,616,623,619,624,619,617,622,615,617,617,624,631,637,633,636,624,630,631,622,626,621,626,633,618,967,978,958,978,1037,1180,1390,1473,1589,1563,1589,1532,1530,1474,1449,1431,1459,1383,1359,1354,1402,1348,1365,1235,1254,1203,1208,1135,1111,1086,1099,1037,1090,1048,977,974,976,986,992,1009,1007,1006,1028,996,1016,1032,1017,1008,1053,1020,1116,1097,1124,1053,1183,1138,1069,1036,1019,1013,1028,1003,1017,1062,999,0,0,0,0,0,0,0,0,0,0,0,0,0,0,0,0,0,0,0,0,0,0,0,0,0,0,0,0,0,0,0,0,0,0,0,0,0,0,0,0,0,0,0,0,0,0,0,0,0,0,0,0,0,0,0,0,0,0,0,0,0,0,0,0,0,726,728,730,732,758,839,950,1132,1199,1189,1189,1170,1151,1132,1113,1094,1106,1054,1120,1019,1000,981,962,943,924,905,1015,867,848,830,811,792,773,754,761,737,739,738,738,735,744,737,739,748,764,744,740,760,771,768,763,761,763,777,759,766,752,763,758,760,761,759,755,774,781,649,675,670,684,672,741,875,996,1073,1072,1073,1104,1069,1022,1040,1000,992,990,972,955,948,891,874,853,857,848,822,805,793,744,748,735,693,693,662,688,668,662,659,663,657,666,663,686,661,670,677,741,667,667,666,669,682,670,676,674,672,675,667,672,682,683,669,678,670,75,76,76,76,76,78,88,98,109,119,128,126,124,122,120,118,115,113,111,109,107,105,103,101,99,97,95,93,91,89,87,85,83,81,79,77,77,77,57,56,57,59,58,58,57,58,58,59,58,58,60,64,66,63,63,59,57,60,58,57,57,59,58,60,57,629,621,614,632,650,729,784,902,1023,1053,1038,1023,997,988,963,927,964,895,911,887,887,831,815,822,798,787,784,754,741,721,708,693,661,671,624,635,622,643,637,632,637,638,634,633,642,639,638,638,636,637,644,645,646,641,648,642,645,645,647,652,646,653,642,641,647,734,736,738,749,767,870,973,1071,1176,1200,1200,1204,1162,1167,1124,1126,1104,1087,1060,1041,1026,991,950,952,933,914,895,900,857,838,819,815,781,776,748,745,747,785,744,758,746,779,748,769,754,778,762,770,763,755,771,764,775,775,776,775,781,774,784,770,776,794,787,797,797,968,944,974,988,1051,1174,1331,1495,1599,1539,1575,1509,1484,1500,1474,1449,1454,1358,1418,1348,1288,1263,1239,1214,1222,1197,1267,1116,1091,1096,1079,1046,993,998,979,990,958,958,1012,984,990,989,998,1001,1045,1042,1000,1043,1027,1000,999,1057,1058,1052,1052,1066,1059,1084,1051,1036,1037,1016,996,992,984,640,643,587,597,566,709,733,772,879,937,884,876,957,908,864,910,901,800,781,809,849,803,803,800,770,781,678,726,665,684,701,699,620,618,653,650,660,591,624,631,626,644,669,661,653,668,640,666,668,692,686,687,682,664,659,654,676,674,662,656,661,677,652,654,648,1275,1323,1329,1401,1512,1832,1939,2037,2200,2153,2134,2121,2036,2028,1996,1961,1925,1920,1848,1911,1720,1764,1738,1725,1575,1583,1578,1563,1522,1490,1431,1483,1367,1392,1333,1418,1378,1375,1419,1421,1422,1427,1440,1430,1464,1450,1449,1449,1472,1460,1535,1537,1563,1519,1450,1471,1465,1476,1470,1458,1472,1451,1458,1506,1449,504,542,507,509,514,561,675,710,785,831,910,881,810,796,783,817,792,794,793,716,745,741,676,662,716,691,655,663,627,623,569,589,542,528,516,512,513,563,524,523,524,530,530,527,531,530,526,526,525,530,525,533,533,533,536,530,537,532,536,539,533,542,527,536,531,825,827,866,906,885,1112,1189,1465,1453,1512,1478,1451,1424,1396,1369,1367,1315,1288,1309,1266,1295,1264,1167,1148,1099,1072,1037,1018,991,956,937,910,883,922,833,907,844,841,843,845,856,867,864,868,851,868,853,888,867,866,869,877,885,900,890,877,884,875,885,889,885,891,873,881,877,914,957,919,926,1003,1287,1387,1559,1610,1669,1665,1661,1617,1617,1553,1521,1489,1457,1425,1439,1414,1329,1297,1265,1243,1201,1169,1149,1105,1073,1053,1009,985,947,931,931,957,944,962,950,940,950,985,1014,971,988,985,1016,1007,1008,1021,1003,990,1026,1027,983,1012,1001,1004,1059,1023,1043,1040,1076,1031,1111,1115,1108,1133,1216,1386,1625,1704,1814,1785,1775,1746,1741,1690,1661,1640,1655,1797,1548,1539,1548,1533,1538,1406,1420,1373,1375,1298,1264,1235,1222,1274,1203,1186,1115,1113,1116,1134,1193,1199,1183,1205,1239,1233,1213,1211,1225,1258,1220,1256,1262,1242,1199,1226,1222,1237,1239,1206,1252,1307,1266,1264,1275,1233,1230,513,484,516,518,523,624,641,720,795,842,847,834,820,807,787,780,766,753,758,726,713,699,646,669,657,645,632,618,605,591,578,564,551,593,525,490,522,524,515,532,519,548,521,539,525,549,527,540,531,522,536,532,542,540,538,536,538,533,552,534,531,538,533,545,542,231,231,232,233,234,244,277,309,342,374,387,381,375,369,363,356,350,344,338,332,325,319,313,307,301,294,288,282,276,269,263,257,251,245,238,234,235,236,224,218,218,219,220,224,220,222,224,223,222,223,222,223,223,222,225,225,225,224,224,225,227,231,231,232,230,566,568,569,580,581,637,734,806,984,933,937,922,907,892,877,862,847,832,829,814,787,772,757,742,727,712,697,682,667,652,637,622,657,592,579,575,576,601,584,588,586,590,591,595,588,599,588,592,586,590,587,606,599,600,595,602,599,595,600,613,596,607,585,595,593,599,601,603,614,616,707,778,855,953,982,985,1008,954,938,923,943,891,910,872,856,829,813,798,782,796,751,735,748,704,688,672,683,641,650,612,608,610,635,613,615,614,622,633,633,659,663,629,640,639,645,655,642,647,663,645,629,639,630,622,638,631,640,634,644,631,748,750,753,755,785,948,1014,1100,1188,1227,1226,1207,1187,1167,1148,1128,1109,1089,1108,1050,1031,1011,1063,972,988,933,913,894,933,915,835,815,796,831,805,846,761,763,792,790,791,793,791,792,805,807,795,797,795,798,800,800,807,806,810,810,799,806,816,806,801,815,802,802,802,562,564,566,567,575,629,712,795,926,920,925,910,896,881,866,852,837,819,808,793,778,764,749,734,720,705,690,676,661,646,632,617,602,588,623,571,572,571,570,570,567,572,577,590,575,577,592,582,575,579,576,580,579,576,585,587,583,583,580,584,591,613,614,617,608,437,438,439,441,442,485,530,567,627,675,683,672,661,650,639,628,617,606,595,585,574,563,573,563,554,519,510,527,517,478,487,454,467,481,447,443,444,419,425,424,426,427,461,430,431,431,432,433,445,456,440,437,439,438,467,445,440,439,455,442,442,442,446,444,444,763,776,770,773,804,891,1021,1135,1235,1259,1257,1237,1217,1197,1178,1170,1149,1130,1120,1102,1083,1052,1032,1000,980,970,941,913,903,873,853,833,811,794,790,785,787,817,792,794,794,794,829,844,827,807,801,833,814,812,813,806,799,807,804,806,808,797,794,809,809,822,818,806,804,618,620,621,623,635,696,856,876,1020,1004,1007,991,975,960,944,927,964,897,881,865,849,907,906,802,786,770,804,738,723,707,691,676,714,703,631,627,629,630,638,639,637,649,668,649,651,672,653,675,668,668,749,738,746,695,667,651,668,651,644,663,657,667,656,660,653,563,564,566,568,575,616,695,774,848,899,914,904,889,875,861,846,829,814,803,789,775,760,746,732,717,700,689,672,660,643,631,617,603,588,573,569,572,571,568,570,572,590,580,577,578,599,575,583,586,600,624,622,632,621,576,576,587,594,584,580,586,593,582,582,579,313,314,315,305,306,322,363,405,446,487,499,491,483,475,468,476,452,459,436,429,421,413,405,397,390,395,387,379,358,363,355,335,327,319,312,307,308,309,296,297,305,318,307,307,303,314,302,315,305,302,315,317,330,332,319,310,308,317,312,304,311,326,309,316,304,718,721,723,725,760,815,917,1029,1113,1159,1164,1183,1137,1118,1099,1081,1059,1069,1025,1035,983,960,951,928,914,892,877,855,835,851,802,780,765,760,731,727,731,727,730,735,733,752,752,744,748,764,753,752,759,770,856,856,867,805,749,744,759,762,746,747,760,748,747,755,749,1069,1051,1021,1132,1105,1275,1475,1604,1686,1611,1644,1668,1572,1560,1514,1501,1541,1493,1461,1381,1359,1389,1366,1297,1296,1271,1301,1194,1222,1145,1126,1118,1098,1081,1066,1035,1016,1049,1054,1072,1078,1063,1063,1074,1091,1085,1077,1069,1127,1070,1091,1076,1090,1105,1114,1123,1105,1085,1097,1095,1083,1078,1077,1130,1062,1487,1497,1534,1650,1863,2130,2282,2465,2439,2560,2500,2487,2385,2375,2295,2261,2266,2221,2125,2128,2036,2054,1995,1919,1883,1855,1818,1770,1703,1683,1633,1558,1549,1525,1514,1495,1536,1530,1610,1602,1610,1624,1605,1620,1620,1623,1633,1705,1625,1629,1648,1649,1656,1663,1671,1659,1639,1657,1649,1651,1650,1666,1655,1672,1662,1606,1640,1709,1877,2058,2469,2642,2616,2726,2739,2745,2769,2623,2630,2531,2491,2450,2345,2348,2302,2245,2221,2107,2109,2017,2045,1968,1946,1875,1833,1749,1698,1641,1667,1637,1659,1703,1647,1801,1858,1828,1865,1884,1878,1891,1858,1857,1886,1858,1824,1854,1848,1856,1850,1887,1877,1854,1849,1889,1833,1850,1869,1895,1893,1853,1201,1159,1219,1279,1339,1542,1718,1894,1858,1871,1938,1865,1802,1854,1731,1776,1704,1729,1732,1594,1579,1549,1557,1495,1487,1450,1456,1430,1401,1300,1324,1256,1252,1275,1207,1200,1192,1228,1282,1288,1276,1300,1330,1328,1306,1306,1317,1349,1313,1344,1344,1335,1296,1313,1313,1332,1337,1302,1340,1384,1341,1340,1346,1320,1318,1487,1393,1473,1564,1655,1959,2217,2243,2257,2209,2271,2247,2189,2173,2106,2168,2009,2029,2052,1886,1905,1831,1834,1768,1755,1714,1791,1684,1651,1569,1564,1516,1487,1520,1443,1458,1478,1530,1535,1559,1542,1588,1571,1558,1550,1574,1552,1563,1563,1588,1598,1625,1608,1589,1586,1601,1589,1591,1598,1588,1601,1612,1585,1597,1620,577,579,580,582,591,639,731,835,898,944,949,934,918,894,888,892,876,912,828,813,798,775,768,769,738,716,708,693,678,663,648,633,618,597,590,598,587,583,568,573,580,587,585,590,576,584,576,608,584,584,590,590,608,628,605,596,605,591,600,603,607,614,591,599,593,974,956,940,984,1009,1204,1355,1471,1491,1498,1515,1496,1446,1450,1409,1394,1422,1393,1358,1280,1259,1280,1273,1204,1202,1165,1150,1107,1137,1059,1046,1037,1017,1047,987,954,936,953,958,967,974,991,1024,1013,985,1027,983,1057,1011,1046,1011,994,1021,1055,1020,999,1038,1016,1006,1028,1024,1052,1012,1011,1001,0,0,0,0,0,0,0,0,0,0,0,0,0,0,0,0,0,0,0,0,0,0,0,0,0,0,0,0,0,0,0,0,0,0,0,0,0,0,0,0,0,0,0,0,0,0,0,0,0,0,0,0,0,0,0,0,0,0,0,0,0,0,0,0,0,1387,1368,1405,1459,1679,1753,1954,2077,2219,2212,2150,2119,2096,2051,2009,1984,1957,1979,1890,1870,1939,1807,1746,1742,1693,1756,1719,1612,1616,1500,1465,1464,1446,1427,1377,1364,1369,1370,1482,1482,1459,1473,1471,1497,1476,1487,1506,1572,1493,1545,1535,1552,1502,1563,1554,1494,1486,1490,1528,1573,1537,1562,1559,1548,1521,928,898,881,920,937,1103,1260,1375,1396,1405,1446,1406,1358,1369,1323,1310,1292,1312,1279,1201,1182,1208,1199,1132,1145,1111,1083,1041,1087,1012,998,977,966,941,928,895,877,894,889,896,905,916,909,915,904,915,901,936,913,914,921,917,939,960,935,928,936,928,936,936,943,953,929,935,929,555,557,559,560,568,611,693,775,851,901,916,905,890,876,861,846,828,813,802,787,773,758,743,728,714,696,684,667,655,637,625,611,596,581,566,561,565,564,565,564,567,569,561,559,569,569,557,570,580,565,567,568,572,564,572,567,565,570,564,559,571,563,570,567,570,357,358,359,360,362,386,437,489,540,586,596,587,577,568,558,549,539,530,592,510,501,560,482,539,463,453,444,434,425,415,405,396,386,377,367,363,364,365,355,357,354,357,396,381,393,404,372,403,383,386,384,364,369,388,385,366,392,370,364,383,377,401,385,388,373,220,221,222,222,223,231,262,293,324,355,370,364,358,352,346,340,334,329,323,317,311,305,299,293,287,281,275,269,263,257,251,246,240,234,228,224,224,225,211,211,212,213,223,211,217,222,212,220,215,212,217,217,216,217,224,222,225,220,219,219,216,219,220,219,224,1349,1329,1379,1392,1488,1658,1855,2004,2126,2120,2061,2031,2032,1967,1927,1903,1878,1924,1832,1797,1807,1737,1694,1728,1644,1607,1574,1568,1515,1445,1425,1438,1408,1427,1338,1325,1329,1331,1432,1435,1428,1459,1486,1480,1459,1461,1470,1506,1471,1502,1519,1514,1482,1483,1473,1486,1493,1465,1499,1535,1497,1499,1502,1480,1472,695,661,663,702,711,770,888,952,1040,1122,1124,1068,1046,1078,1016,998,1027,999,990,929,930,887,873,967,843,825,808,825,773,791,766,753,704,712,673,669,671,703,683,685,685,700,689,693,687,707,694,687,700,686,690,692,689,694,690,694,691,699,694,695,689,701,689,698,690,923,940,905,917,952,1127,1246,1452,1449,1484,1480,1436,1451,1395,1399,1413,1309,1320,1298,1258,1243,1244,1254,1176,1193,1126,1102,1072,1097,1017,1000,971,982,941,939,966,961,943,950,963,958,1047,985,965,953,968,969,1023,1043,1000,1032,1003,990,976,1012,994,980,999,1083,1036,1013,996,1039,1034,1000,1476,1462,1497,1611,1799,2085,2237,2367,2395,2444,2527,2445,2412,2334,2254,2221,2175,2133,2086,2047,1997,1989,1924,1904,1810,1787,1750,1735,1663,1648,1607,1563,1510,1491,1479,1480,1518,1524,1580,1577,1580,1623,1609,1608,1609,1627,1606,1616,1618,1617,1621,1640,1662,1655,1635,1625,1608,1617,1603,1600,1591,1621,1611,1626,1581,1566,1553,1607,1757,1988,2322,2465,2547,2614,2638,2618,2645,2500,2521,2440,2401,2336,2289,2237,2194,2139,2117,2067,2010,1942,1922,1875,1864,1795,1747,1684,1614,1609,1582,1572,1574,1593,1582,1689,1674,1681,1680,1810,1717,1718,1728,1709,1718,1799,1805,1724,1727,1729,1754,1884,1759,1736,1738,1769,1751,1746,1735,1765,1795,1771,765,720,675,677,697,828,871,1071,1136,1104,1217,1148,1088,1052,1122,1104,999,992,1046,1027,990,989,902,949,850,840,877,873,797,769,751,734,723,698,685,681,730,692,687,680,687,689,680,703,694,703,701,699,720,692,693,695,692,707,698,700,695,697,695,694,700,700,699,730,706,751,753,752,754,780,961,1021,1116,1179,1223,1219,1199,1218,1206,1189,1160,1102,1148,1128,1048,1023,1014,1034,1007,1035,928,908,889,912,850,831,811,792,791,759,755,788,778,770,777,770,791,815,806,818,836,795,824,828,831,855,837,835,829,816,801,824,810,800,813,814,820,812,821,805,851,864,835,863,892,997,1124,1258,1340,1334,1373,1387,1340,1308,1279,1268,1240,1219,1211,1139,1166,1134,1116,1102,1063,1013,1029,1000,989,957,906,913,891,871,865,826,855,859,859,860,856,868,869,866,859,876,855,864,863,860,862,876,870,868,871,871,868,869,875,877,861,870,868,874,864,516,518,519,521,524,604,650,727,803,849,856,842,863,832,813,788,774,771,746,759,719,705,692,674,710,650,650,623,609,596,582,568,555,541,528,524,525,527,526,515,518,538,516,542,522,529,531,532,555,532,533,526,527,546,563,530,522,538,525,533,532,524,534,557,531,410,411,412,413,415,474,503,562,620,668,678,667,696,646,635,624,613,603,592,581,571,560,549,538,559,517,506,495,485,474,463,453,442,431,421,416,417,418,412,420,409,414,424,420,434,446,416,422,423,431,422,415,419,424,424,418,424,418,418,419,417,424,420,429,414,662,664,667,669,687,756,899,1004,1045,1156,1090,1072,1055,1038,1020,1003,985,995,992,933,916,937,881,901,846,829,812,794,799,760,742,725,738,690,676,672,674,706,672,675,675,692,678,695,679,695,698,685,692,684,683,684,679,680,683,686,686,691,679,682,687,700,692,701,686,413,414,415,416,418,439,497,554,612,659,682,671,660,650,639,628,617,607,596,585,574,564,553,542,531,520,510,499,488,477,467,456,445,434,423,419,420,421,414,422,417,420,425,422,426,435,415,426,418,418,423,430,430,426,432,425,418,419,432,429,416,420,420,426,419,751,753,760,784,791,908,996,1130,1252,1232,1256,1256,1234,1233,1172,1141,1166,1112,1142,1071,1041,1067,1090,1057,988,942,960,947,961,875,843,824,828,784,771,799,791,771,784,779,787,871,802,790,793,789,791,807,817,817,820,812,802,810,804,815,795,805,800,801,806,795,806,814,817,1577,1561,1802,1812,1882,2142,2342,2545,2505,2502,2594,2453,2406,2334,2325,2391,2280,2197,2278,2115,2062,2037,2001,1994,1923,1938,1874,1818,1798,1762,1686,1637,1621,1601,1601,1634,1672,1621,1755,1767,1736,1754,1753,1801,1761,1792,1810,1880,1786,1822,1796,1810,1794,1845,1819,1787,1800,1782,1796,1831,1809,1836,1817,1832,1796,563,564,566,568,575,616,695,774,848,899,914,904,889,875,861,846,829,814,803,789,775,760,746,732,717,700,689,672,660,643,631,617,603,588,573,569,572,571,568,570,572,590,580,577,578,599,575,583,586,600,624,622,632,621,576,576,587,594,584,580,586,593,582,582,579,1300,1234,1241,1288,1392,1472,1582,1717,1791,1839,1956,1783,1817,1725,1749,1789,1649,1645,1687,1553,1539,1496,1494,1562,1449,1382,1353,1325,1296,1331,1347,1316,1182,1230,1252,1249,1292,1255,1304,1266,1273,1284,1262,1298,1273,1290,1305,1326,1299,1292,1304,1305,1321,1325,1332,1311,1307,1312,1310,1312,1315,1317,1309,1332,1321,1460,1464,1504,1578,1725,1845,1968,2093,2161,2252,2191,2133,2161,2064,2081,1995,1970,1972,1891,1856,1886,1788,1779,1738,1722,1650,1616,1581,1547,1575,1584,1556,1412,1391,1484,1522,1526,1489,1560,1567,1539,1555,1559,1605,1563,1587,1600,1665,1582,1629,1612,1624,1597,1658,1633,1586,1588,1581,1610,1643,1625,1656,1635,1647,1609,1202,1211,1225,1265,1355,1398,1563,1687,1763,1831,1792,1742,1736,1710,1666,1642,1612,1581,1553,1528,1500,1472,1459,1434,1403,1358,1330,1317,1270,1281,1325,1294,1160,1130,1221,1213,1228,1232,1227,1275,1231,1246,1257,1250,1251,1271,1257,1260,1273,1246,1264,1261,1266,1269,1276,1280,1276,1274,1312,1258,1274,1284,1300,1282,1275,680,672,674,676,687,628,705,782,859,904,911,897,883,870,856,842,838,814,800,787,773,759,745,731,726,704,690,676,662,689,733,737,607,593,684,652,681,692,651,655,649,657,666,655,657,663,649,657,655,657,652,661,660,661,657,657,661,655,662,670,657,667,653,659,657,1051,1081,1069,1091,1178,1257,1407,1528,1668,1620,1648,1654,1590,1588,1531,1472,1449,1453,1462,1434,1452,1433,1312,1417,1321,1270,1268,1227,1197,1159,1183,1133,1114,1105,1055,1091,1069,1057,1081,1126,1080,1091,1099,1090,1096,1111,1103,1106,1127,1096,1104,1107,1112,1115,1110,1126,1126,1118,1133,1093,1122,1131,1147,1112,1108,885,874,891,898,922,1002,1112,1260,1292,1354,1391,1312,1293,1274,1366,1236,1217,1226,1224,1161,1193,1171,1104,1164,1072,1047,1029,1026,1001,979,940,918,922,897,886,883,900,887,878,883,885,908,894,892,888,908,891,894,889,893,885,897,890,901,907,900,902,894,891,904,900,935,914,924,917,465,466,487,469,471,512,550,619,670,736,725,715,698,696,678,667,657,647,633,623,613,603,593,583,573,566,556,546,536,526,516,505,495,485,509,471,472,473,458,464,471,479,475,484,464,481,464,494,472,469,475,477,491,506,487,479,486,473,487,488,483,490,469,477,471,349,350,351,352,353,376,426,489,526,570,581,571,562,553,544,534,525,516,507,497,488,479,470,461,451,442,476,424,414,405,396,387,377,368,359,354,355,356,351,346,363,349,349,360,350,356,364,358,371,360,362,364,363,368,357,358,351,368,354,358,360,355,350,361,381,1668,1607,1657,1753,1925,2053,2195,2276,2340,2367,2481,2303,2432,2264,2264,2271,2126,2133,2144,2043,2034,1930,1966,1968,1885,1774,1760,1735,1698,1720,1715,1687,1554,1576,1646,1613,1642,1615,1799,1731,1726,1747,1736,1771,1812,1801,1786,1857,1778,1774,1848,1818,1828,1895,1828,1833,1813,1838,1878,1927,1954,1968,1945,1805,1790,698,691,693,695,713,661,748,836,919,962,967,952,937,921,906,890,896,859,844,829,813,798,782,767,760,736,721,705,690,715,765,759,628,613,702,672,701,751,672,667,667,675,695,684,716,717,678,702,684,672,671,715,735,748,781,787,747,741,718,701,699,680,687,679,670,1343,1343,1388,1426,1603,1589,1780,1971,2028,1987,1980,1971,1911,1898,1840,1808,1798,1787,1733,1789,1744,1627,1612,1590,1690,1556,1492,1449,1416,1387,1444,1447,1291,1266,1368,1362,1356,1423,1398,1394,1388,1411,1410,1438,1406,1417,1412,1425,1448,1441,1432,1451,1447,1466,1438,1442,1447,1452,1449,1466,1452,1463,1438,1470,1461,0,0,0,0,0,0,0,0,0,0,0,0,0,0,0,0,0,0,0,0,0,0,0,0,0,0,0,0,0,0,0,0,0,0,0,0,0,0,0,0,0,0,0,0,0,0,0,0,0,0,0,0,0,0,0,0,0,0,0,0,0,0,0,0,0,771,763,753,768,797,754,877,935,1042,1109,1112,1069,1019,1034,998,999,962,965,947,930,912,879,862,860,852,810,793,791,750,796,814,836,704,665,763,745,762,810,721,729,740,754,740,749,735,755,733,755,740,732,738,746,753,762,753,749,747,739,755,753,745,749,735,746,737,1248,1227,1270,1326,1461,1572,1654,1719,1793,1840,1836,1821,1817,1774,1749,1714,1672,1643,1580,1550,1536,1525,1490,1454,1444,1377,1386,1319,1309,1325,1340,1333,1174,1178,1244,1242,1320,1303,1265,1315,1272,1283,1297,1288,1285,1304,1294,1295,1315,1287,1289,1304,1305,1314,1307,1326,1317,1309,1333,1300,1318,1343,1348,1319,1305,1235,1245,1269,1286,1407,1393,1597,1674,1777,1843,1803,1798,1725,1724,1675,1655,1645,1640,1608,1546,1542,1490,1485,1427,1458,1391,1368,1330,1309,1279,1340,1333,1178,1152,1258,1269,1263,1265,1249,1259,1266,1285,1288,1289,1282,1314,1283,1313,1299,1312,1323,1294,1323,1371,1309,1302,1320,1317,1310,1315,1325,1338,1311,1317,1311,1559,1562,1639,1736,1903,1948,2138,2270,2370,2324,2311,2297,2232,2212,2149,2161,2096,2079,2071,2001,2020,1899,1878,1871,1905,1806,1736,1675,1650,1615,1666,1664,1525,1484,1587,1581,1576,1669,1717,1701,1680,1703,1688,1746,1755,1759,1738,1815,1726,1724,1726,1766,1767,1792,1789,1780,1757,1773,1763,1756,1743,1735,1720,1716,1692,232,233,234,234,235,283,320,358,395,412,425,420,431,424,417,410,403,396,380,381,374,367,360,353,346,339,332,330,323,316,265,259,289,282,240,236,236,237,233,233,234,234,234,239,253,238,235,238,236,239,235,243,235,240,236,236,238,236,238,239,239,236,236,233,236,1803,1912,1942,2086,2326,2349,2502,2673,2684,2791,2675,2683,2594,2622,2510,2464,2444,2433,2407,2263,2290,2169,2207,2209,2160,2038,2029,1917,1931,1931,1981,1896,1766,1780,1807,1882,1869,1865,2080,2090,2094,2123,2149,2172,2138,2164,2160,2179,2202,2205,2223,2266,2232,2254,2239,2269,2293,2310,2330,2294,2320,2356,2363,2360,2349,599,601,603,604,616,548,621,693,765,812,811,838,782,781,760,747,753,765,716,703,690,675,664,648,678,621,609,599,586,573,673,657,533,520,612,608,610,611,578,577,577,579,591,583,592,598,591,583,584,585,584,591,588,615,586,583,583,586,586,593,584,587,584,605,585,990,938,940,931,1000,1064,1210,1340,1365,1431,1430,1409,1389,1368,1348,1356,1307,1314,1291,1246,1277,1252,1184,1207,1150,1102,1103,1082,1056,1093,1008,985,987,962,1007,947,950,952,988,951,959,952,983,1017,973,982,988,993,1034,996,1005,1015,1011,1019,973,985,994,1020,1012,1021,991,999,1015,988,1000,860,864,866,871,909,978,1094,1215,1271,1301,1311,1293,1266,1256,1237,1211,1200,1210,1188,1145,1171,1156,1090,1165,1059,1027,1016,997,972,951,929,908,912,887,876,873,874,876,892,901,850,850,883,877,873,885,897,909,936,890,885,900,909,900,875,917,931,914,943,927,897,899,934,873,874,1781,1729,1799,1952,2154,2295,2382,2498,2557,2589,2689,2509,2592,2427,2458,2462,2314,2317,2324,2189,2174,2101,2085,2137,2015,1938,1920,1856,1815,1836,1853,1800,1665,1715,1760,1753,1782,1761,1958,2009,1969,1976,1994,1979,2000,2010,2027,2024,2050,2031,2042,2053,2070,2081,2081,2103,2095,2081,2094,2063,2085,2092,2124,2155,2108,871,873,876,883,912,874,989,1099,1192,1303,1224,1237,1185,1197,1185,1126,1147,1130,1075,1056,1055,1016,1017,1001,996,1011,941,916,896,876,951,982,816,781,887,883,885,873,851,847,852,870,855,871,858,875,874,861,871,861,860,862,856,858,859,864,864,871,856,856,863,876,869,878,864,744,760,762,764,796,757,847,947,1034,1076,1079,1100,1057,1007,1010,993,986,1002,942,924,906,889,882,854,884,820,787,785,753,751,831,826,699,706,772,769,771,773,746,745,748,754,758,747,755,755,762,759,754,760,779,754,758,759,782,753,756,763,768,763,769,761,756,761,755,1044,1048,1067,1066,1130,1119,1279,1395,1476,1539,1513,1512,1460,1453,1402,1378,1412,1381,1408,1302,1289,1241,1233,1216,1242,1194,1142,1109,1093,1068,1134,1149,1003,954,1060,1070,1063,1065,1053,1051,1037,1050,1089,1082,1066,1073,1077,1095,1082,1081,1075,1074,1074,1084,1085,1078,1098,1077,1067,1107,1088,1097,1110,1077,1073,1100,1109,1129,1128,1208,1195,1374,1481,1561,1631,1594,1623,1548,1525,1479,1463,1456,1454,1483,1367,1366,1318,1301,1282,1281,1260,1212,1191,1160,1133,1198,1212,1042,1016,1121,1132,1125,1127,1113,1111,1157,1426,1167,1099,1149,1244,1180,1121,1216,1193,1143,1151,1229,1207,1196,1105,1145,1136,1188,1185,1127,1167,1130,1130,1150,1173,1188,1206,1317,1319,1381,1579,1655,1728,1791,1741,1734,1738,1685,1647,1672,1679,1628,1524,1495,1479,1496,1414,1410,1451,1328,1311,1320,1259,1250,1299,1286,1142,1142,1205,1195,1219,1207,1203,1211,1219,1238,1244,1238,1231,1264,1235,1266,1252,1264,1276,1251,1275,1321,1266,1252,1271,1267,1260,1264,1274,1285,1260,1267,1260,1178,1178,1203,1217,1340,1375,1574,1633,1682,1728,1715,1711,1655,1646,1592,1562,1568,1562,1511,1476,1532,1409,1398,1392,1384,1356,1296,1257,1236,1211,1273,1307,1125,1078,1195,1195,1189,1190,1192,1211,1188,1210,1216,1197,1205,1230,1202,1223,1210,1234,1219,1227,1220,1228,1231,1233,1239,1226,1228,1219,1236,1241,1238,1229,1258,770,772,781,777,793,748,864,937,1024,1095,1061,1083,1037,1055,993,976,1003,994,933,916,922,882,887,871,870,842,818,800,783,765,840,878,712,676,792,781,783,785,779,744,746,748,758,749,755,766,751,755,753,754,758,761,768,766,775,766,772,768,764,760,769,772,774,775,776,751,759,754,758,777,836,924,1026,1085,1128,1132,1116,1101,1085,1070,1054,1051,1051,1032,1004,1039,1020,946,981,921,899,883,868,846,827,809,790,789,786,764,760,770,763,751,759,767,784,774,779,764,777,760,767,764,762,764,779,778,783,786,781,768,772,784,783,774,777,772,786,775,1300,1234,1241,1288,1392,1472,1582,1717,1791,1839,1956,1783,1817,1725,1749,1789,1649,1645,1687,1553,1539,1496,1494,1562,1449,1382,1353,1325,1296,1331,1347,1316,1182,1230,1252,1249,1292,1255,1304,1266,1273,1284,1262,1298,1273,1290,1305,1326,1299,1292,1304,1305,1321,1325,1332,1311,1307,1312,1310,1312,1315,1317,1309,1332,1321,625,679,671,631,643,705,796,887,972,1015,1018,1001,986,970,954,938,923,973,973,943,859,843,827,811,795,835,763,747,731,715,699,683,667,651,701,634,636,637,639,625,634,632,630,644,632,634,634,647,659,653,649,654,654,660,654,654,644,654,655,659,661,655,653,674,672,853,908,858,873,907,1007,1140,1270,1356,1392,1388,1365,1344,1322,1314,1278,1256,1351,1212,1190,1168,1197,1124,1113,1080,1058,1036,1024,992,970,948,963,904,918,878,866,868,870,896,874,884,875,901,932,890,897,904,912,929,913,915,922,917,927,896,902,907,920,909,930,911,916,920,907,927,537,527,540,539,545,594,671,749,810,883,876,848,835,839,832,818,804,760,784,756,742,713,711,686,666,658,645,631,612,614,600,604,573,559,552,555,546,548,546,538,550,548,552,563,547,549,548,550,563,554,560,557,559,572,562,557,549,560,555,567,562,559,554,571,573,187,188,189,189,190,195,217,240,277,285,299,294,290,286,281,277,272,268,261,257,255,250,246,242,237,233,228,224,220,215,211,207,202,198,193,190,190,191,177,181,184,188,186,189,180,185,178,197,182,181,185,184,195,207,192,186,189,181,187,188,189,193,179,182,178,877,886,875,851,931,1070,1280,1396,1509,1530,1519,1518,1466,1519,1413,1377,1350,1395,1364,1284,1267,1236,1201,1173,1146,1148,1086,1087,1056,1025,997,973,904,898,882,874,893,902,883,885,893,890,902,896,900,899,892,900,899,897,904,902,905,917,913,908,908,908,908,904,920,914,908,909,909,996,1013,966,978,1110,1264,1414,1558,1607,1629,1620,1601,1717,1549,1546,1501,1613,1493,1482,1406,1456,1386,1322,1325,1287,1286,1252,1192,1209,1157,1131,1092,1063,994,1022,1003,1029,1036,1059,1039,1031,1037,1101,1143,1061,1061,1080,1103,1083,1105,1100,1111,1073,1076,1096,1095,1106,1084,1104,1169,1121,1127,1149,1104,1100,343,314,345,346,327,355,400,445,463,511,518,511,504,505,497,490,485,475,468,443,453,440,442,444,425,394,400,411,392,394,385,366,369,360,324,347,337,320,326,325,326,326,323,333,330,330,330,333,340,327,326,330,327,340,330,337,330,328,328,327,331,328,328,347,332,595,572,579,580,590,625,700,855,819,869,871,953,846,859,830,818,864,793,860,751,804,853,735,732,708,672,711,679,656,652,639,615,612,599,560,583,574,556,554,565,578,554,560,567,573,568,568,567,567,568,564,567,570,577,572,578,593,573,576,577,578,579,579,626,599,966,1021,1051,1002,1046,1167,1321,1485,1541,1574,1616,1533,1518,1484,1490,1443,1418,1479,1482,1410,1318,1372,1302,1244,1212,1279,1169,1144,1136,1094,1079,1044,1045,997,1062,981,999,986,1029,1017,1017,1026,1020,1036,1085,1088,1023,1054,1036,1023,1027,1069,1077,1090,1083,1061,1078,1089,1097,1072,1054,1053,1032,1030,1028,109,110,110,110,111,113,128,142,157,171,182,179,176,174,171,168,165,162,159,156,154,151,148,145,142,139,136,134,131,128,125,122,119,116,114,111,111,112,94,95,94,98,93,96,95,96,96,97,96,95,97,96,98,98,97,97,98,98,100,97,98,100,98,101,101,733,773,737,740,767,848,960,1072,1161,1234,1200,1247,1162,1143,1124,1102,1086,1171,1044,1028,1009,990,971,952,933,914,895,876,856,837,818,799,802,761,747,744,789,769,744,753,744,753,746,770,746,758,764,851,751,751,749,754,777,752,762,758,756,762,752,755,768,769,752,766,756,629,629,633,635,628,735,831,898,989,1035,1033,1018,1028,953,942,923,919,893,905,883,851,827,856,816,823,803,749,755,722,719,703,705,671,672,615,638,657,622,642,631,631,633,641,652,637,644,645,641,642,641,642,646,646,655,659,653,646,651,649,660,657,675,676,685,677,0,0,0,0,0,0,0,0,0,0,0,0,0,0,0,0,0,0,0,0,0,0,0,0,0,0,0,0,0,0,0,0,0,0,0,0,0,0,0,0,0,0,0,0,0,0,0,0,0,0,0,0,0,0,0,0,0,0,0,0,0,0,0,0,0,630,632,637,636,666,701,829,888,1013,1047,1055,1049,1015,997,954,938,948,931,889,873,885,880,847,827,804,799,759,753,726,733,693,691,661,662,649,646,646,630,629,629,640,656,644,648,638,651,639,663,644,640,655,657,677,685,666,655,656,660,656,651,661,678,653,662,648,741,743,745,757,775,857,970,1056,1193,1212,1225,1228,1173,1128,1134,1094,1096,1077,1058,1080,1031,1016,992,990,1031,923,904,884,865,846,842,808,788,769,764,775,754,756,747,756,762,782,769,770,769,781,755,769,762,755,766,774,770,771,797,778,759,759,772,768,756,766,766,774,762,948,1016,954,966,1060,1184,1342,1436,1517,1626,1586,1626,1536,1510,1485,1456,1434,1522,1380,1358,1332,1307,1248,1223,1198,1206,1189,1124,1158,1104,1050,1061,1049,1005,992,990,1008,1016,1000,997,1006,1014,1013,1015,1012,1022,1022,1029,1023,1020,1026,1028,1029,1022,1037,1040,1032,1043,1035,1030,1031,1043,1034,1044,1023,592,613,600,635,616,657,721,848,923,882,889,978,863,854,841,906,906,784,816,785,747,812,820,742,698,743,716,732,625,709,615,635,655,630,599,562,612,606,588,599,600,619,608,607,601,619,599,606,601,605,594,608,599,610,615,613,609,603,599,610,603,619,594,605,599,1307,1323,1337,1420,1499,1650,1936,2135,2196,2111,2049,2051,2057,2061,2039,2023,1887,1959,1845,1853,1808,1724,1745,1771,1724,1581,1579,1551,1497,1527,1537,1491,1390,1341,1349,1374,1374,1337,1426,1417,1444,1456,1463,1497,1448,1465,1470,1479,1510,1474,1479,1518,1532,1525,1495,1472,1461,1486,1463,1470,1464,1496,1471,1494,1478,493,494,496,533,502,547,620,693,766,812,818,805,792,779,835,753,787,726,758,700,731,674,717,703,675,622,608,633,636,569,556,582,568,517,504,533,534,503,519,517,515,517,516,522,517,521,519,519,522,524,523,525,527,525,530,532,523,526,524,523,526,530,523,526,526,843,834,836,841,937,1030,1210,1351,1464,1512,1479,1501,1423,1410,1371,1335,1309,1298,1271,1244,1216,1240,1207,1135,1108,1080,1053,1026,1042,972,944,1003,890,907,847,839,851,856,869,870,866,901,877,870,878,892,877,893,893,891,888,879,873,879,889,890,878,883,871,877,875,900,907,905,886,932,934,934,934,1013,1196,1360,1481,1554,1577,1569,1551,1585,1501,1478,1455,1472,1449,1410,1363,1370,1324,1282,1272,1249,1209,1177,1145,1113,1081,1057,1026,984,954,946,938,945,951,971,945,951,948,961,977,961,966,966,982,1003,993,993,1001,997,1005,991,990,992,1003,1011,1022,1003,1001,1013,1026,1015,1103,1159,1190,1166,1225,1373,1555,1716,1768,1796,1795,1756,1729,1700,1693,1643,1614,1671,1636,1602,1500,1517,1443,1414,1386,1410,1435,1300,1288,1243,1230,1186,1157,1135,1201,1120,1138,1126,1172,1161,1154,1159,1169,1212,1196,1213,1192,1207,1211,1214,1210,1208,1198,1238,1234,1195,1213,1207,1213,1252,1221,1228,1231,1284,1233,557,503,505,502,511,556,610,703,776,823,792,776,803,789,770,763,750,737,724,710,677,684,671,639,639,631,618,605,575,577,566,552,539,526,513,509,511,481,500,504,496,501,508,510,538,538,504,509,513,519,515,503,507,519,515,509,513,509,504,508,504,514,511,519,501,220,220,221,222,222,232,263,294,324,355,369,363,357,351,345,339,333,327,321,316,310,304,298,292,286,280,274,268,262,256,251,245,239,233,227,223,224,224,211,213,213,213,215,213,216,215,212,215,211,213,216,218,217,216,220,216,215,215,218,223,215,218,215,217,217,573,575,577,587,588,645,731,817,900,944,962,947,918,902,887,872,857,842,827,823,808,781,777,780,775,720,763,690,675,660,644,629,665,599,594,605,583,585,591,598,586,594,603,603,610,618,599,601,606,613,601,598,600,609,601,601,603,601,596,599,594,605,595,601,586,606,608,610,621,624,685,775,866,950,993,1011,1027,965,949,933,954,902,886,870,900,850,823,818,820,849,759,743,728,740,696,707,664,648,657,628,638,617,619,623,625,621,651,631,623,631,645,631,645,645,640,637,629,622,630,636,637,623,633,618,625,618,622,628,625,611,792,739,741,744,772,854,997,1081,1239,1209,1323,1189,1236,1150,1131,1112,1093,1073,1113,1035,1096,1095,977,958,938,919,900,881,883,842,823,803,854,765,751,748,750,752,747,758,755,767,761,748,755,789,762,754,805,782,800,769,801,794,876,815,789,768,772,769,767,763,762,771,753,569,609,573,574,583,638,722,806,887,932,936,988,907,892,877,859,847,938,814,803,788,773,758,743,728,714,699,684,669,654,639,625,610,595,582,578,579,581,577,576,575,579,586,576,587,579,582,579,577,582,584,590,583,587,615,616,586,592,583,580,586,585,599,587,582,449,401,428,429,404,435,493,551,608,656,659,654,643,632,622,611,600,590,579,569,576,567,537,549,540,505,522,484,504,484,474,465,455,445,436,431,432,433,437,414,418,417,429,437,419,435,424,423,435,439,427,433,440,449,441,442,429,439,438,438,442,442,439,455,452,726,728,730,733,759,839,959,1056,1134,1165,1164,1147,1192,1109,1096,1079,1102,1085,1052,1011,1036,980,960,943,926,909,887,869,861,830,811,792,773,754,732,737,739,748,733,738,729,752,741,740,749,762,743,739,740,756,751,740,739,747,748,749,747,749,738,745,741,762,767,763,749,625,679,671,631,643,705,796,887,972,1015,1018,1001,986,970,954,938,923,973,973,943,859,843,827,811,795,835,763,747,731,715,699,683,667,651,701,634,636,637,639,625,634,632,630,644,632,634,634,647,659,653,649,654,654,660,654,654,644,654,655,659,661,655,653,674,672,155,155,156,156,157,159,177,196,214,233,246,243,239,236,232,228,225,221,218,214,210,207,203,200,196,192,189,185,182,178,174,171,167,164,160,157,157,158,164,141,139,139,149,149,149,143,142,147,169,150,156,162,163,162,143,148,155,167,175,162,146,148,169,143,139,418,419,420,421,423,451,509,566,624,672,694,673,662,651,641,630,620,609,607,588,577,567,556,552,535,530,519,503,498,482,471,460,450,443,428,427,425,430,403,412,416,438,414,410,410,411,411,409,410,411,410,411,410,412,414,416,416,415,414,417,416,432,427,430,427,162,162,163,163,164,168,189,209,230,250,264,260,256,252,248,244,240,236,232,228,224,220,216,212,208,204,200,196,192,188,184,180,176,172,168,164,165,165,157,154,156,157,163,156,157,157,157,159,156,164,170,162,158,164,162,157,155,157,169,177,179,181,181,164,163,702,705,707,706,729,816,903,1049,1100,1140,1142,1124,1143,1089,1128,1109,1035,1017,996,981,962,960,924,910,888,874,855,838,820,800,792,781,749,730,731,714,715,717,713,713,716,723,778,762,745,770,749,793,761,759,754,726,732,753,741,730,768,737,729,754,747,783,759,761,749,911,914,916,1057,990,1145,1392,1483,1587,1654,1624,1645,1541,1581,1484,1478,1486,1454,1370,1390,1312,1341,1260,1227,1233,1185,1141,1139,1088,1073,1044,998,949,947,933,920,932,954,967,932,940,937,966,1005,958,968,968,976,1023,982,990,998,996,1004,958,969,981,999,994,999,973,984,1000,971,976,1098,1072,1012,1194,1249,1385,1624,1800,1952,1877,1942,1825,1756,1784,1721,1714,1678,1643,1607,1515,1537,1515,1466,1378,1408,1375,1325,1289,1221,1219,1163,1128,1113,1039,1068,1026,1108,1039,1096,1098,1097,1141,1124,1111,1118,1135,1113,1138,1149,1145,1198,1200,1219,1165,1135,1122,1120,1129,1115,1107,1106,1122,1113,1126,1095,822,856,820,821,850,980,1106,1256,1334,1311,1320,1332,1343,1302,1260,1333,1243,1180,1178,1165,1195,1082,1081,1049,1028,1008,987,1024,936,907,924,866,904,845,839,798,800,829,833,835,838,838,831,829,841,841,830,832,840,833,837,840,845,838,837,836,840,844,843,832,844,844,840,838,845,1056,1090,1055,1072,1201,1296,1457,1613,1747,1658,1678,1668,1747,1704,1638,1649,1555,1538,1480,1463,1487,1445,1429,1384,1303,1277,1252,1341,1192,1184,1170,1151,1140,1114,1073,1083,1089,1117,1106,1113,1120,1128,1141,1139,1136,1149,1123,1143,1131,1122,1133,1131,1142,1152,1146,1154,1137,1138,1143,1133,1131,1129,1142,1151,1127,495,496,498,499,504,545,616,679,759,807,841,803,790,777,764,751,727,726,713,700,687,674,661,648,635,641,628,597,601,571,558,539,532,534,507,502,504,505,495,492,500,527,515,501,500,515,509,515,531,541,687,720,823,596,523,511,510,529,514,502,504,519,515,526,513,622,624,626,627,641,718,799,907,979,1021,1025,1009,993,976,1018,1000,995,911,895,878,861,846,829,813,795,780,763,747,731,715,709,682,666,648,636,632,634,635,634,636,633,644,642,642,639,655,633,641,638,637,639,649,648,644,644,646,645,641,654,656,639,647,642,647,644,497,499,500,502,506,550,623,695,767,815,855,808,828,877,769,756,774,730,717,704,691,678,665,679,639,626,613,693,586,573,584,570,534,501,509,505,506,507,496,491,502,513,493,502,499,506,496,502,503,495,496,495,499,502,501,503,498,496,496,496,500,500,495,508,501,1075,1124,1100,1108,1189,1377,1508,1645,1763,1794,1741,1783,1685,1656,1628,1667,1574,1545,1517,1569,1463,1435,1450,1418,1351,1324,1296,1268,1240,1212,1229,1182,1147,1105,1094,1092,1094,1097,1143,1145,1138,1225,1190,1189,1175,1161,1183,1215,1177,1221,1215,1215,1151,1165,1190,1199,1197,1167,1208,1264,1213,1199,1216,1187,1191,564,566,568,569,577,645,716,814,872,919,932,893,902,887,852,903,843,828,813,798,782,769,754,739,723,709,693,679,665,650,645,620,605,589,577,572,575,576,562,576,573,585,585,588,576,598,570,602,585,609,582,587,603,618,599,592,595,595,600,595,593,601,582,591,582,0,0,0,0,0,0,0,0,0,0,0,0,0,0,0,0,0,0,0,0,0,0,0,0,0,0,0,0,0,0,0,0,0,0,0,0,0,0,0,0,0,0,0,0,0,0,0,0,0,0,0,0,0,0,0,0,0,0,0,0,0,0,0,0,0,607,579,610,612,610,673,774,864,949,993,1017,980,965,929,889,917,949,864,852,837,838,803,790,802,738,759,744,728,712,694,690,674,649,600,620,616,604,606,592,593,600,611,596,608,599,606,615,602,607,599,602,603,599,605,605,607,606,606,603,605,610,622,618,628,616,712,741,743,718,743,822,972,1086,1175,1215,1248,1152,1166,1224,1096,1117,1139,1114,1059,1039,984,1000,991,988,942,923,903,976,864,845,848,828,787,747,726,723,725,754,736,747,745,758,752,746,755,756,746,746,747,751,748,747,746,752,754,753,755,752,749,755,753,778,776,783,771,1038,1042,1039,1066,1119,1255,1399,1568,1625,1661,1670,1625,1597,1589,1543,1571,1512,1466,1442,1515,1406,1363,1366,1350,1285,1254,1253,1229,1203,1162,1188,1153,1106,1067,1055,1053,1055,1058,1069,1075,1081,1099,1228,1161,1114,1158,1108,1248,1144,1165,1160,1101,1133,1184,1139,1111,1195,1127,1113,1169,1153,1229,1160,1154,1128,1172,1189,1180,1233,1301,1438,1609,1790,1896,1863,1920,1877,1855,1833,1769,1754,1789,1641,1649,1618,1578,1606,1499,1492,1481,1414,1378,1425,1286,1311,1294,1258,1218,1196,1178,1164,1193,1188,1221,1229,1250,1271,1288,1288,1295,1265,1250,1285,1242,1231,1245,1252,1246,1242,1273,1264,1235,1238,1248,1238,1237,1245,1269,1275,1237,717,720,722,724,765,870,942,1053,1140,1198,1180,1172,1142,1137,1103,1101,1066,1053,1027,1008,998,972,953,974,925,896,888,870,840,833,848,796,778,745,732,728,730,732,733,732,738,745,745,754,752,764,755,747,762,751,751,755,755,764,753,745,760,759,756,758,753,764,745,758,749,877,880,930,1016,953,1096,1301,1438,1542,1610,1580,1526,1498,1470,1442,1414,1413,1357,1329,1301,1273,1290,1299,1189,1239,1147,1125,1097,1054,1020,1062,963,935,908,931,886,898,919,967,908,912,922,905,912,921,920,932,981,922,935,991,939,938,998,954,936,931,931,978,1037,1049,1074,1076,962,965,1023,980,971,1097,1087,1259,1479,1672,1770,1772,1775,1724,1722,1658,1625,1603,1558,1525,1503,1459,1426,1407,1360,1327,1317,1285,1227,1194,1175,1128,1104,1062,1029,998,984,985,1011,997,1008,1004,999,1011,1100,1078,1046,1075,1046,1126,1084,1081,1084,1034,1040,1090,1076,1038,1100,1061,1042,1095,1077,1118,1095,1104,1083,631,633,635,637,652,863,812,907,994,1037,1067,1026,1009,992,975,959,942,925,909,892,875,859,842,825,809,811,793,759,759,725,709,692,675,680,645,641,642,739,657,667,659,670,672,670,666,680,659,668,664,663,662,675,675,672,669,671,671,668,682,683,664,675,663,671,668,682,692,686,696,718,768,885,965,1091,1137,1099,1086,1065,1048,1030,985,1003,994,976,970,952,904,905,873,880,852,844,826,804,770,740,738,712,694,680,700,708,686,686,684,692,689,741,718,724,732,716,767,761,721,729,712,726,747,721,718,736,713,716,733,723,759,731,776,725,573,575,575,575,587,642,727,817,895,979,942,927,914,897,886,867,852,837,824,810,792,781,761,747,756,720,696,686,674,656,655,627,632,595,584,579,583,583,584,596,583,590,605,599,610,626,595,603,598,599,596,592,593,607,609,596,601,592,590,602,592,613,594,605,592,546,536,550,539,546,597,676,756,835,892,994,890,856,842,824,834,800,786,784,757,743,729,715,698,686,672,673,644,630,629,601,587,573,572,546,555,544,543,538,538,547,557,552,557,555,565,559,553,565,554,555,560,563,570,555,550,560,561,562,553,556,567,550,562,553,521,538,524,527,533,623,655,734,885,853,879,845,834,889,804,792,777,763,767,800,722,726,756,681,668,657,641,629,613,600,588,622,559,605,533,529,530,533,531,538,536,548,533,536,540,542,542,545,537,539,536,540,541,542,546,553,542,540,544,542,549,552,542,544,542,899,862,885,919,950,1034,1168,1300,1384,1448,1455,1426,1402,1364,1335,1333,1280,1266,1246,1212,1189,1170,1198,1119,1141,1076,1121,1079,1009,1000,1009,941,918,885,887,901,888,883,875,873,885,917,891,877,893,908,894,891,896,897,899,898,905,904,907,902,901,902,912,916,906,915,911,913,916,334,335,336,337,338,358,405,451,498,541,552,544,535,526,518,509,571,491,483,474,465,457,448,439,431,422,413,448,396,387,431,370,361,332,344,339,340,341,333,334,333,334,356,346,341,362,345,364,345,345,351,349,345,362,351,340,353,340,335,355,347,360,347,349,343,614,615,630,619,627,690,767,839,923,983,1002,958,939,923,908,892,877,861,846,847,815,819,799,792,778,764,741,706,723,697,695,668,653,639,626,643,624,630,621,611,616,616,625,634,633,637,630,645,640,623,630,618,621,633,629,628,630,618,619,624,626,633,630,654,633,1129,1125,1124,1290,1269,1467,1669,1847,1899,1948,1924,1890,1859,1808,1792,1755,1725,1688,1654,1623,1591,1552,1517,1485,1451,1435,1384,1360,1322,1292,1245,1214,1183,1154,1140,1135,1145,1151,1177,1188,1182,1211,1189,1226,1193,1216,1199,1203,1207,1198,1210,1202,1226,1241,1229,1238,1219,1220,1234,1218,1227,1228,1231,1249,1231,155,155,156,156,157,159,177,196,214,233,246,243,239,236,232,228,225,221,218,214,210,207,203,200,196,192,189,185,182,178,174,171,167,164,160,157,157,158,164,141,139,139,149,149,149,143,142,147,169,150,156,162,163,162,143,148,155,167,175,162,146,148,169,143,139,477,478,479,481,484,579,589,656,723,770,778,766,754,742,730,718,705,693,681,669,657,645,633,621,609,597,584,572,560,548,536,524,512,500,488,484,485,486,475,473,473,485,475,477,475,479,473,477,476,475,480,478,481,481,478,480,481,479,481,485,479,483,483,483,483,562,564,565,578,575,628,710,792,872,917,923,925,910,879,865,866,835,821,806,792,791,776,762,779,719,748,690,675,660,646,631,617,602,588,574,570,572,573,568,570,572,572,587,570,584,588,576,587,579,578,585,585,582,587,594,587,598,590,586,583,585,591,594,592,596,622,637,637,626,653,712,810,904,971,1044,1018,1013,1003,981,949,933,937,927,885,873,878,856,849,798,783,791,757,758,741,714,704,677,676,659,662,628,632,676,645,646,642,655,655,654,651,667,641,654,651,649,646,660,657,654,652,656,656,654,666,663,648,657,646,654,649,846,810,800,840,821,932,1039,1143,1277,1289,1281,1341,1227,1242,1201,1168,1174,1124,1116,1088,1068,1048,1025,1045,989,969,958,929,909,942,869,850,848,858,865,855,795,856,848,812,818,828,814,835,829,840,833,856,851,823,825,828,825,836,832,835,828,830,825,825,831,831,829,858,838,1326,1330,1358,1448,1567,1834,2160,2164,2263,2287,2246,2251,2136,2196,2114,2049,2049,2014,1952,1916,1929,1849,1791,1754,1732,1692,1632,1587,1861,1464,1481,1468,1378,1364,1393,1327,1334,1373,1429,1433,1448,1461,1443,1474,1445,1461,1443,1461,1468,1457,1437,1458,1471,1472,1466,1484,1479,1471,1479,1467,1453,1444,1476,1540,1480,1460,1498,1541,1708,1834,2145,2384,2436,2491,2573,2525,2493,2350,2393,2308,2322,2246,2197,2168,2179,2101,1982,1939,1865,1867,1798,1780,1714,1787,1676,1619,1603,1517,1527,1535,1491,1479,1477,1602,1575,1578,1582,1620,1643,1625,1627,1619,1623,1662,1648,1679,1647,1667,1663,1701,1639,1656,1689,1719,1696,1672,1680,1718,1780,1679,936,998,955,1016,1056,1158,1319,1400,1529,1576,1516,1585,1499,1514,1452,1389,1440,1353,1354,1311,1281,1263,1262,1282,1192,1154,1195,1108,1089,1107,1028,1027,1013,994,997,984,988,974,990,990,986,993,991,1001,991,994,1003,1060,989,992,991,998,999,985,998,999,992,998,986,1003,997,998,998,996,991,1189,1231,1212,1311,1351,1487,1848,1755,1865,1972,1855,1918,1828,1838,1771,1791,1750,1658,1654,1607,1619,1550,1543,1551,1464,1455,1487,1425,1459,1386,1301,1266,1268,1209,1261,1221,1246,1226,1280,1283,1332,1587,1346,1279,1332,1433,1357,1302,1405,1378,1320,1328,1405,1392,1367,1279,1314,1314,1357,1361,1291,1342,1305,1306,1312,818,839,823,840,865,985,1086,1211,1298,1336,1334,1313,1291,1270,1277,1228,1220,1177,1164,1143,1121,1121,1080,1058,1037,1016,995,974,952,931,910,889,868,847,849,830,832,834,821,817,815,815,822,836,827,832,838,846,840,852,852,838,861,854,892,847,853,874,853,870,856,850,871,859,862,701,732,705,746,731,831,914,1022,1157,1176,1225,1226,1114,1130,1077,1059,1067,1022,1004,986,967,949,930,948,894,875,857,839,820,841,784,765,770,729,783,778,713,715,747,729,726,739,725,755,731,760,754,751,760,732,736,737,748,747,741,735,744,747,740,735,739,749,733,753,736,383,385,386,387,397,425,481,537,592,640,635,640,629,605,609,585,588,565,555,545,535,525,515,505,506,495,474,464,465,454,434,424,414,404,394,398,390,391,387,389,393,395,401,401,397,411,396,401,400,403,394,419,401,410,409,411,409,400,394,409,400,404,387,404,395,1119,1122,1107,1179,1218,1387,1574,1803,1761,1811,1750,1774,1783,1722,1693,1778,1680,1577,1546,1520,1520,1486,1416,1413,1360,1501,1340,1313,1357,1235,1192,1231,1136,1114,1153,1125,1129,1132,1180,1180,1160,1172,1164,1196,1172,1182,1210,1259,1185,1208,1208,1205,1195,1228,1223,1195,1195,1183,1199,1229,1197,1211,1219,1215,1202,643,673,647,688,665,756,829,926,1061,1081,1058,1135,1024,1063,990,973,1003,940,942,906,889,872,855,875,822,805,788,771,754,776,720,704,709,670,723,719,654,656,682,654,660,662,657,669,668,678,672,668,677,666,670,669,667,675,672,670,674,672,669,664,672,676,676,685,679,469,471,472,474,477,575,587,656,725,773,780,767,755,742,730,717,705,693,680,668,655,643,630,618,605,593,580,568,555,543,530,518,505,493,481,476,478,479,472,471,470,471,475,469,475,471,473,471,471,473,475,477,476,479,480,483,476,481,478,477,480,478,481,480,479,0,0,0,0,0,0,0,0,0,0,0,0,0,0,0,0,0,0,0,0,0,0,0,0,0,0,0,0,0,0,0,0,0,0,0,0,0,0,0,0,0,0,0,0,0,0,0,0,0,0,0,0,0,0,0,0,0,0,0,0,0,0,0,0,0,404,406,407,408,409,435,475,531,587,634,645,635,624,614,604,593,583,573,562,552,542,531,521,511,501,490,480,483,459,449,454,444,434,424,415,410,411,412,392,391,403,416,394,402,395,403,397,401,401,395,395,395,396,399,397,400,399,397,397,396,395,400,393,399,396,1079,1084,1069,1073,1147,1302,1476,1629,1665,1717,1658,1684,1695,1691,1631,1690,1600,1578,1491,1445,1446,1414,1347,1346,1316,1430,1293,1302,1255,1191,1150,1135,1098,1076,1114,1073,1090,1093,1112,1111,1114,1114,1141,1135,1156,1169,1129,1154,1136,1133,1141,1133,1131,1161,1158,1139,1142,1141,1127,1150,1134,1144,1135,1152,1147,638,640,642,644,665,725,817,921,1005,1047,1025,1033,1017,1000,983,982,942,925,924,899,883,866,884,848,778,772,789,772,723,743,715,716,692,692,651,658,660,668,645,659,659,672,672,674,664,686,654,689,675,700,672,676,695,709,684,676,686,680,687,678,680,686,668,676,668,666,639,645,639,680,719,818,913,974,1017,1020,1025,1050,1049,1029,959,994,929,909,895,881,885,826,836,793,793,777,745,785,727,696,704,663,647,666,638,666,654,636,645,634,655,645,660,639,645,654,641,640,644,636,645,642,641,647,656,648,646,648,651,652,674,655,668,654,1331,1320,1347,1436,1526,1862,2027,2120,2183,2244,2204,2259,2094,2157,2104,2014,1993,1924,1902,1895,1850,1834,1753,1684,1666,1630,1570,1532,1826,1514,1456,1428,1343,1408,1358,1350,1318,1339,1412,1415,1413,1427,1458,1415,1437,1464,1441,1432,1451,1443,1522,1519,1547,1502,1597,1543,1473,1463,1441,1440,1449,1428,1441,1473,1427,1377,1389,1445,1520,1705,2001,2244,2331,2387,2442,2396,2408,2300,2270,2187,2170,2157,2083,2056,2057,1994,1930,1888,1815,1792,1751,1686,1652,1822,1589,1533,1527,1433,1451,1451,1406,1414,1444,1509,1509,1510,1521,1551,1513,1547,1556,1539,1542,1558,1550,1621,1631,1658,1619,1625,1624,1579,1571,1555,1549,1556,1541,1552,1590,1539,990,1002,984,968,1063,1206,1423,1490,1500,1559,1529,1537,1609,1532,1422,1455,1401,1349,1386,1315,1359,1250,1258,1231,1184,1181,1137,1172,1146,1107,1095,1068,983,961,948,938,961,1023,975,969,975,1014,971,1012,975,982,980,977,1006,989,984,991,993,1019,1016,994,989,1006,996,998,993,999,983,1015,988,469,502,472,476,510,516,625,698,796,773,780,763,751,738,726,714,701,735,677,709,652,640,628,615,603,591,578,566,554,541,529,574,504,492,483,508,477,478,483,494,490,502,527,519,509,536,496,538,517,552,511,504,518,533,517,508,525,522,514,522,511,533,510,515,502,605,606,607,619,629,695,778,868,957,1003,1009,997,979,961,933,918,912,899,871,864,848,835,806,790,777,760,732,735,717,702,678,668,648,636,624,620,616,643,614,623,617,640,626,630,625,644,626,642,628,622,636,630,636,639,640,634,646,634,637,624,632,644,637,642,642,241,242,243,244,244,255,289,323,357,392,405,399,392,386,379,373,366,360,353,347,340,334,327,321,314,308,301,295,288,282,275,269,262,256,249,245,246,246,231,231,234,239,238,246,239,249,247,240,251,241,239,238,238,246,239,238,241,241,236,236,238,241,236,243,235,135,136,136,137,137,140,158,175,193,210,223,220,216,213,209,206,202,199,195,192,189,185,182,178,175,171,168,164,161,157,154,151,147,144,140,137,138,138,123,123,123,123,124,124,124,124,125,125,125,125,125,126,126,126,126,127,127,127,127,128,128,128,128,129,129,304,305,306,307,308,324,367,410,453,494,506,498,490,482,474,466,458,450,442,434,426,418,410,402,394,386,377,369,361,353,345,337,329,321,313,309,309,310,304,308,300,312,304,303,311,320,307,314,309,304,303,299,310,305,310,309,304,317,319,308,308,309,307,304,302,355,356,357,358,359,382,432,482,532,576,587,578,569,574,550,541,532,522,513,504,495,485,476,467,458,448,439,430,421,411,402,393,384,374,365,370,371,372,356,362,353,360,378,370,381,377,363,371,369,370,370,360,362,370,370,363,372,364,360,371,363,374,369,372,360,480,482,483,485,489,543,601,672,742,790,778,784,771,758,746,733,720,708,695,682,669,657,644,688,618,619,684,580,568,555,542,573,559,504,492,488,489,490,504,491,490,494,491,498,492,496,492,496,495,491,491,491,495,500,498,495,495,493,495,496,492,502,491,498,493,1341,1370,1376,1489,1573,1855,2129,2057,2235,2269,2137,2142,2073,2122,2038,1975,1994,1910,1955,1844,1812,1779,1837,1777,1677,1643,1601,1580,1621,1509,1463,1429,1421,1389,1380,1375,1372,1379,1436,1427,1443,1465,1449,1458,1450,1476,1458,1464,1465,1449,1466,1489,1512,1496,1487,1480,1451,1474,1458,1450,1448,1483,1468,1487,1456,477,478,479,481,484,579,589,656,723,770,778,766,754,742,730,718,705,693,681,669,657,645,633,621,609,597,584,572,560,548,536,524,512,500,488,484,485,486,475,473,473,485,475,477,475,479,473,477,476,475,480,478,481,481,478,480,481,479,481,485,479,483,483,483,483,580,582,584,585,594,648,732,815,896,941,946,931,916,902,887,872,857,842,828,813,798,783,768,754,739,724,709,695,720,702,650,635,621,606,593,589,590,592,585,582,585,590,607,610,609,616,609,622,613,610,603,592,594,605,599,596,609,599,594,601,600,617,608,615,607,355,356,357,358,359,382,431,480,530,592,585,576,567,558,549,539,530,521,512,503,494,484,475,466,457,448,438,429,420,423,402,393,383,374,365,360,361,362,355,348,350,351,343,366,351,351,355,360,374,358,355,355,354,370,379,356,351,362,354,361,358,353,357,380,358,726,738,755,788,765,833,947,1101,1188,1201,1190,1182,1163,1138,1125,1106,1087,1067,1044,1030,1011,983,961,954,935,928,897,888,875,877,821,802,783,789,760,747,749,751,760,752,753,758,763,761,762,755,766,766,764,761,774,771,770,761,763,771,768,775,760,770,770,767,767,763,758,995,946,932,1006,993,1129,1276,1438,1535,1527,1568,1551,1474,1479,1471,1416,1389,1354,1370,1306,1335,1272,1231,1244,1169,1179,1182,1168,1105,1098,1091,1041,1013,997,958,965,995,1028,1026,1009,1009,1007,1014,1030,1023,1037,1042,1074,1035,1085,1080,1089,1040,1072,1068,1037,1034,1030,1068,1110,1081,1105,1090,1087,1074,1449,1462,1466,1619,1854,2042,2225,2380,2455,2453,2454,2449,2427,2337,2246,2220,2159,2139,2072,2064,1980,1960,1897,1924,1882,1766,1753,1745,1678,1663,1565,1522,1481,1494,1481,1509,1495,1458,1543,1560,1560,1582,1609,1562,1568,1575,1581,1577,1602,1596,1586,1582,1588,1588,1626,1613,1603,1602,1637,1588,1609,1623,1649,1633,1626,1643,1604,1656,1844,2087,2357,2534,2678,2745,2704,2665,2717,2637,2627,2472,2451,2362,2264,2312,2213,2166,2186,2071,2034,2038,1951,1856,1889,1822,1782,1702,1684,1600,1635,1625,1643,1632,1665,1809,1788,1822,1816,1808,1825,1886,1904,1832,1862,1880,1827,1826,1889,1894,1927,1886,1893,1884,1912,1909,1886,1862,1859,1813,1835,1845,1169,1101,1090,1141,1211,1347,1528,1753,1819,1788,1806,1790,1708,1741,1719,1639,1651,1596,1614,1564,1523,1475,1433,1428,1355,1370,1336,1387,1264,1232,1238,1182,1189,1156,1102,1121,1132,1144,1175,1177,1133,1129,1173,1156,1162,1169,1166,1184,1223,1172,1181,1195,1196,1197,1173,1203,1207,1213,1245,1206,1190,1196,1248,1180,1185,1455,1336,1386,1416,1517,1689,1887,2169,2164,2127,2140,2120,2034,2112,2047,1950,2000,1898,1911,1857,1811,1759,1712,1702,1625,1635,1659,1642,1556,1503,1515,1446,1424,1412,1364,1419,1369,1477,1434,1430,1440,1473,1461,1468,1474,1450,1457,1475,1459,1464,1466,1470,1472,1475,1479,1480,1482,1484,1483,1483,1497,1488,1488,1502,1488,624,631,633,635,663,712,798,900,987,1030,1024,1017,1001,984,968,970,935,919,902,886,870,853,853,836,804,788,771,755,739,722,719,689,673,657,643,639,641,642,642,637,639,639,639,634,640,644,642,639,638,640,646,648,649,649,647,645,646,646,649,657,651,656,646,645,652,900,865,851,906,904,1024,1160,1318,1424,1410,1439,1437,1362,1368,1362,1294,1283,1249,1268,1205,1235,1160,1137,1148,1075,1089,1091,1081,1017,965,1006,958,931,915,862,883,916,973,927,907,902,924,915,916,969,965,929,954,938,917,927,957,977,982,982,986,974,996,975,957,960,939,920,923,917,186,186,187,188,188,194,219,244,269,294,308,303,298,294,289,284,279,274,270,265,260,255,250,245,241,236,231,226,221,216,212,207,202,197,192,189,189,190,179,179,179,181,181,181,180,181,181,184,184,185,194,196,194,188,182,184,185,182,180,188,184,182,181,185,181,1338,1277,1286,1364,1566,1636,1960,1964,2105,2148,2051,2165,1998,1972,1913,1899,1848,1828,1783,1769,1730,1697,1664,1657,1604,1595,1541,1526,1547,1423,1389,1372,1327,1338,1301,1322,1293,1309,1342,1386,1349,1349,1380,1352,1368,1373,1372,1373,1384,1373,1383,1375,1380,1383,1392,1391,1392,1392,1418,1372,1394,1398,1419,1396,1390,842,806,792,853,834,944,1069,1244,1329,1339,1343,1354,1273,1281,1297,1210,1199,1168,1188,1126,1138,1084,1063,1077,1020,1019,1023,1015,959,901,949,897,872,857,803,824,857,887,858,852,847,860,859,858,859,852,861,854,860,853,867,859,864,858,858,869,860,869,853,863,866,877,859,860,854,573,574,576,578,588,644,730,816,899,943,948,932,917,902,887,872,857,841,826,811,796,781,766,750,735,720,705,690,715,697,644,629,614,599,585,581,583,585,578,587,586,602,596,595,590,610,588,595,590,592,584,595,587,599,602,600,596,591,586,598,591,608,583,592,587,281,282,283,284,285,299,339,379,419,459,471,464,456,449,441,433,426,418,411,403,396,388,381,373,366,358,350,343,335,328,320,313,305,298,290,286,286,287,289,277,272,276,293,301,285,296,311,317,296,334,323,325,292,297,316,314,335,302,322,388,334,337,332,324,331,0,0,0,0,0,0,0,0,0,0,0,0,0,0,0,0,0,0,0,0,0,0,0,0,0,0,0,0,0,0,0,0,0,0,0,0,0,0,0,0,0,0,0,0,0,0,0,0,0,0,0,0,0,0,0,0,0,0,0,0,0,0,0,0,0,1297,1238,1246,1300,1486,1544,1815,1964,2028,2046,1981,1987,1911,1903,1853,1818,1769,1751,1707,1695,1658,1643,1596,1612,1539,1496,1480,1466,1443,1381,1349,1333,1289,1287,1365,1283,1254,1306,1314,1346,1342,1341,1359,1344,1355,1380,1350,1343,1365,1332,1351,1350,1368,1373,1428,1441,1394,1351,1356,1343,1338,1334,1353,1399,1326,668,638,675,652,711,730,824,955,997,1077,1078,1022,1006,1028,974,1014,978,976,945,938,918,895,847,849,815,799,813,767,792,732,719,703,713,671,659,681,682,648,661,663,660,671,664,662,659,666,660,664,663,661,667,671,669,669,671,668,669,668,669,672,664,669,671,674,669,827,872,841,851,894,1019,1164,1326,1332,1418,1409,1396,1352,1287,1333,1238,1241,1275,1229,1153,1188,1174,1162,1088,1045,1051,1003,1026,991,1016,917,894,948,853,911,852,856,891,856,859,861,863,863,864,862,867,863,875,871,871,874,875,881,888,884,884,883,885,884,888,889,893,890,892,890,1438,1428,1450,1668,1790,1997,2180,2389,2412,2367,2412,2407,2362,2274,2205,2180,2119,2050,2022,2005,1941,1922,1881,1848,1818,1737,1696,1689,1642,1609,1522,1575,1466,1460,1535,1480,1451,1460,1535,1596,1542,1564,1577,1564,1572,1594,1567,1579,1589,1560,1574,1588,1589,1595,1616,1628,1595,1590,1617,1565,1586,1597,1632,1595,1578,1535,1518,1556,1737,1979,2214,2395,2543,2612,2574,2601,2592,2542,2476,2393,2372,2305,2218,2209,2130,2095,2099,2003,1985,1941,1856,1810,1798,1754,1724,1617,1609,1536,1551,1560,1558,1547,1579,1696,1695,1666,1686,1687,1732,1695,1717,1736,1797,1713,1742,1728,1736,1720,1758,1733,1713,1718,1708,1705,1739,1728,1751,1727,1738,1695,783,726,787,737,817,898,949,1161,1149,1285,1190,1241,1221,1132,1181,1166,1075,1139,1047,1099,1060,980,1020,1037,996,927,969,866,899,895,809,790,771,759,800,807,798,802,804,766,772,782,770,790,784,794,787,789,805,778,781,783,777,792,787,790,784,784,782,782,785,786,785,813,794,718,677,675,682,701,773,870,972,1060,1157,1239,1091,1069,1061,1039,1079,1003,981,1050,1004,932,919,984,875,858,877,823,842,792,821,756,734,743,700,711,685,688,693,684,679,685,701,686,699,685,695,706,691,693,686,686,693,686,687,690,695,693,698,690,691,695,706,699,709,700,774,769,779,774,808,900,1020,1147,1221,1270,1264,1258,1242,1164,1182,1173,1155,1150,1097,1081,1071,1068,1047,1010,981,965,942,956,894,887,861,829,820,826,789,781,783,795,791,784,787,787,787,784,792,789,793,789,789,790,797,799,800,798,795,797,798,799,799,808,802,808,797,794,801,452,446,447,448,451,488,553,618,683,731,775,758,716,704,692,691,668,673,645,633,621,609,640,585,574,562,550,538,548,514,503,503,505,467,481,448,452,454,441,441,456,469,449,458,447,463,449,456,455,446,448,452,452,453,452,453,453,450,455,454,447,450,444,450,448,338,339,340,341,342,363,410,457,505,549,601,551,542,534,525,516,507,498,489,480,472,463,487,445,436,427,419,410,401,392,383,374,392,357,373,343,344,345,338,333,341,354,343,341,343,349,343,345,346,343,351,364,372,363,358,348,342,360,350,343,343,361,350,358,347,620,622,624,626,660,726,822,888,973,1018,1022,1072,989,973,985,940,924,908,891,875,859,842,826,810,794,777,761,745,728,712,696,680,683,647,633,629,631,633,616,617,622,633,622,636,624,625,640,628,624,622,621,625,621,619,626,629,626,623,623,624,631,640,636,645,634,398,387,413,390,391,439,485,545,601,648,658,647,637,626,616,606,595,566,575,564,554,532,523,514,506,497,491,464,471,463,454,446,437,417,420,392,417,406,403,404,404,414,406,404,414,415,409,408,425,417,404,416,425,430,432,418,416,422,438,412,414,422,410,407,406,730,686,688,690,711,822,935,1045,1116,1222,1158,1140,1138,1054,1177,1046,1090,1015,995,948,945,973,936,891,928,855,837,843,841,807,753,780,751,743,719,700,696,686,699,700,699,700,701,709,743,712,703,710,708,713,708,725,708,716,710,713,714,710,710,713,712,710,712,714,708,1552,1508,1607,1624,1754,2121,2240,2484,2363,2410,2492,2372,2310,2243,2292,2175,2133,2101,2077,2026,2002,1951,1911,1897,1843,1802,1765,1804,1675,1638,1630,1581,1561,1565,1522,1512,1497,1548,1610,1608,1617,1620,1623,1609,1627,1642,1620,1624,1632,1634,1712,1709,1657,1636,1654,1682,1678,1743,1741,1640,1679,1761,1761,1727,1669,580,582,584,585,594,648,732,815,896,941,946,931,916,902,887,872,857,842,828,813,798,783,768,754,739,724,709,695,720,702,650,635,621,606,593,589,590,592,585,582,585,590,607,610,609,616,609,622,613,610,603,592,594,605,599,596,609,599,594,601,600,617,608,615,607,1117,1108,1058,1165,1154,1286,1477,1614,1743,1688,1680,1667,1643,1678,1675,1549,1607,1581,1470,1471,1492,1469,1415,1429,1407,1390,1270,1234,1226,1200,1220,1174,1103,1082,1087,1124,1125,1089,1129,1123,1128,1130,1126,1126,1142,1142,1133,1135,1137,1135,1137,1146,1152,1152,1152,1150,1144,1150,1168,1152,1147,1164,1139,1138,1144,1292,1292,1295,1449,1465,1643,1864,1992,2031,2053,2038,2073,1990,1942,1910,1878,1872,1813,1781,1776,1717,1780,1750,1620,1589,1557,1534,1492,1478,1456,1396,1408,1343,1313,1319,1356,1358,1322,1397,1379,1375,1392,1386,1419,1390,1392,1422,1478,1401,1415,1425,1422,1417,1411,1429,1417,1402,1417,1403,1413,1418,1418,1414,1422,1397,979,960,992,998,1073,1183,1369,1475,1536,1564,1543,1533,1509,1485,1461,1498,1405,1400,1376,1352,1337,1303,1263,1251,1241,1235,1166,1157,1131,1120,1069,1044,1047,1027,995,993,1026,1016,1004,1034,1030,1026,1051,1029,1038,1066,1032,1031,1058,1016,1043,1038,1054,1059,1218,1167,1075,1040,1046,1039,1024,1024,1037,1088,1015,444,466,437,438,449,478,538,579,615,656,665,656,647,638,629,632,622,613,604,594,585,575,549,557,547,546,511,511,502,492,483,473,474,454,444,441,454,443,438,440,442,453,457,448,450,455,446,456,450,455,454,461,465,464,457,448,456,457,457,454,452,465,452,457,450,1169,1126,1129,1176,1273,1432,1578,1625,1738,1909,1768,1742,1697,1718,1582,1663,1621,1509,1539,1461,1488,1441,1465,1387,1414,1362,1336,1295,1304,1239,1235,1169,1306,1219,1178,1112,1115,1157,1170,1212,1174,1175,1229,1180,1192,1197,1197,1197,1222,1214,1208,1199,1207,1206,1241,1223,1218,1216,1252,1198,1216,1220,1242,1216,1213,960,934,951,946,991,1176,1246,1316,1459,1590,1453,1433,1436,1394,1344,1372,1303,1283,1262,1242,1221,1201,1199,1178,1140,1119,1099,1095,1121,1038,1017,997,1100,988,1021,943,945,947,966,975,985,1012,1009,1017,1013,997,982,1006,985,975,996,993,991,986,1015,1003,978,976,989,989,980,988,990,999,977,382,349,362,390,364,426,420,474,531,537,548,540,533,525,518,510,503,496,488,464,473,496,442,451,443,436,414,421,413,429,393,413,407,376,386,365,383,384,371,366,369,370,369,368,374,372,370,373,369,371,377,377,376,373,385,376,377,377,378,385,379,383,376,374,378,402,415,417,418,420,473,512,571,631,664,673,662,671,660,722,633,622,616,615,589,570,567,560,545,527,516,497,494,502,473,483,458,434,423,425,420,422,423,406,402,411,423,414,419,403,415,407,404,411,414,409,412,418,427,422,425,410,417,416,419,427,422,425,432,423,1475,1452,1438,1590,1628,1857,2077,2219,2316,2253,2203,2244,2188,2182,2169,2072,2085,2098,1932,1943,1954,1903,1841,1864,1814,1817,1680,1618,1601,1566,1577,1522,1448,1453,1434,1487,1474,1454,1540,1537,1549,1567,1581,1558,1551,1602,1549,1555,1566,1563,1564,1574,1608,1602,1646,1617,1593,1601,1597,1567,1602,1590,1590,1611,1594,462,454,456,457,469,507,577,627,673,715,722,712,701,691,680,693,670,659,648,637,626,615,587,593,582,579,543,541,530,519,508,496,504,474,463,460,473,462,453,465,463,469,470,472,465,475,461,484,464,465,469,472,486,498,485,477,475,465,481,479,478,480,467,476,465,1162,1163,1168,1290,1310,1465,1643,1760,1857,1867,1852,1831,1771,1765,1749,1735,1693,1678,1642,1612,1552,1534,1546,1465,1442,1417,1422,1363,1370,1364,1333,1234,1211,1234,1168,1198,1185,1193,1235,1226,1259,1273,1267,1295,1267,1271,1281,1288,1317,1281,1299,1315,1336,1328,1300,1274,1264,1288,1269,1267,1265,1288,1264,1299,1271,245,240,247,247,248,259,293,327,361,395,409,378,373,390,383,377,370,364,357,351,344,338,331,325,318,312,305,287,311,286,279,273,266,260,253,249,249,250,239,249,239,247,246,243,241,245,240,238,241,242,240,239,240,241,241,242,241,241,241,243,238,247,240,242,239,522,527,528,530,546,581,650,740,798,817,823,830,798,786,792,760,778,765,752,722,726,713,684,671,659,654,631,628,614,601,588,575,550,548,524,533,534,536,533,540,534,550,552,555,547,552,540,544,557,565,576,591,583,559,555,559,563,572,568,548,557,562,540,548,546,1055,1071,1051,1128,1151,1286,1479,1616,1698,1723,1680,1668,1735,1640,1574,1548,1577,1544,1468,1489,1451,1440,1411,1398,1348,1282,1288,1229,1220,1218,1149,1167,1153,1074,1091,1117,1118,1112,1107,1112,1129,1150,1120,1141,1119,1134,1118,1141,1146,1138,1131,1143,1151,1167,1151,1150,1131,1143,1153,1151,1149,1149,1133,1167,1158,1064,1055,1049,1168,1149,1300,1427,1629,1656,1720,1667,1669,1587,1589,1556,1534,1519,1468,1469,1447,1414,1385,1364,1345,1307,1295,1247,1249,1222,1229,1131,1117,1103,1081,1058,1078,1077,1084,1074,1062,1085,1090,1092,1069,1077,1096,1084,1134,1169,1096,1184,1181,1127,1097,1113,1160,1130,1195,1197,1101,1135,1220,1215,1198,1123,1377,1403,1431,1564,1601,1815,2003,2112,2280,2206,2185,2159,2145,2082,2060,2041,1993,2011,1963,1896,1831,1807,1813,1791,1718,1668,1667,1603,1604,1632,1513,1470,1428,1431,1386,1482,1404,1414,1499,1512,1459,1475,1501,1496,1494,1516,1499,1512,1556,1501,1518,1529,1533,1536,1509,1537,1548,1545,1588,1536,1524,1533,1583,1521,1522,0,0,0,0,0,0,0,0,0,0,0,0,0,0,0,0,0,0,0,0,0,0,0,0,0,0,0,0,0,0,0,0,0,0,0,0,0,0,0,0,0,0,0,0,0,0,0,0,0,0,0,0,0,0,0,0,0,0,0,0,0,0,0,0,0,1707,1641,1687,1912,1981,2194,2447,2556,2582,2605,2618,2537,2430,2400,2404,2389,2349,2233,2323,2161,2216,2150,2030,2049,2002,1914,1866,1902,1835,1843,1791,1717,1650,1614,1629,1665,1693,1658,1805,1824,1822,1855,1816,1834,1825,1848,1840,1866,1845,1828,1827,1825,1911,1850,1868,1853,1877,1859,1861,1833,1861,1866,1863,1876,1847,421,429,423,502,426,458,515,581,629,674,682,683,661,651,632,630,619,601,591,598,577,567,557,546,536,525,515,502,491,516,473,456,452,441,431,427,428,429,417,418,424,432,429,437,432,441,435,430,442,431,429,431,431,442,430,427,435,433,435,426,432,437,425,435,427,977,998,1000,1016,1070,1220,1319,1420,1537,1626,1523,1502,1509,1487,1436,1463,1367,1370,1348,1428,1281,1282,1260,1281,1217,1195,1173,1130,1171,1087,1085,1063,1068,1047,1017,1008,1010,1012,1009,1008,1007,1024,1035,1042,1030,1046,1036,1066,1042,1024,1047,1017,1031,1043,1040,1032,1053,1028,1031,1040,1044,1063,1052,1068,1058,921,924,926,935,978,1138,1227,1296,1415,1571,1434,1414,1395,1376,1326,1355,1286,1266,1246,1285,1206,1179,1166,1139,1126,1106,1086,1066,1109,1020,1006,986,1070,978,960,927,935,937,953,953,939,945,996,1045,969,974,978,992,974,980,969,971,970,982,974,977,998,975,967,1007,986,999,1008,976,973,1613,1593,1598,1780,1840,2091,2305,2399,2534,2467,2423,2451,2361,2382,2365,2231,2274,2406,2115,2241,2129,2075,2009,2035,1975,1946,1834,1769,1748,1710,1760,1660,1593,1566,1573,1627,1614,1594,1734,1741,1717,1739,1736,1777,1741,1777,1782,1795,1762,1794,1781,1787,1764,1812,1799,1774,1766,1751,1765,1801,1778,1809,1784,1795,1756,677,686,681,761,700,794,876,1013,1082,1121,1097,1090,1063,1046,1020,1011,1017,969,951,953,922,909,912,875,854,840,820,828,807,854,755,732,723,700,706,703,704,706,713,691,700,709,703,712,715,724,712,710,720,708,715,713,714,717,706,703,713,712,716,699,707,717,702,715,709,566,553,555,556,581,641,715,770,841,881,885,872,858,845,832,819,835,821,806,775,778,763,718,721,720,701,663,649,644,631,617,595,599,575,563,559,574,577,568,578,569,580,584,582,577,593,570,580,576,575,572,584,584,583,580,579,582,577,591,593,575,585,572,582,577,875,858,880,941,904,1024,1144,1321,1371,1410,1381,1372,1329,1317,1314,1265,1285,1223,1204,1188,1156,1135,1131,1114,1070,1048,1040,1027,1004,1013,947,920,904,883,876,875,877,884,898,871,883,902,888,892,885,892,891,896,904,884,898,927,946,928,924,905,884,909,891,885,881,914,898,914,889,929,919,914,1001,964,1107,1236,1411,1466,1487,1457,1463,1409,1389,1359,1341,1329,1305,1285,1286,1221,1212,1194,1183,1143,1120,1110,1095,1072,1094,1005,977,966,945,938,937,939,946,959,973,929,925,974,950,953,959,951,963,991,960,977,980,986,982,971,985,985,997,1038,974,970,984,1039,983,955,1005,1113,1005,1104,1098,1244,1455,1562,1578,1625,1635,1620,1566,1584,1505,1531,1468,1447,1423,1451,1404,1389,1324,1286,1239,1216,1197,1193,1193,1165,1106,1077,1059,1070,1004,1050,1035,1061,1072,1055,1058,1050,1051,1060,1067,1072,1055,1065,1077,1087,1106,1081,1107,1123,1144,1122,1080,1111,1123,1122,1124,1150,1126,1118,1107,990,991,1002,1089,1067,1209,1334,1489,1582,1607,1600,1590,1524,1583,1479,1439,1432,1439,1419,1366,1328,1323,1332,1255,1219,1223,1222,1177,1166,1165,1097,1058,1039,1025,1001,1007,1011,1017,1040,1014,1027,1049,1031,1035,1030,1037,1040,1043,1047,1029,1043,1069,1091,1072,1066,1052,1028,1052,1037,1030,1023,1059,1039,1060,1031,574,583,577,657,589,675,735,850,917,964,944,930,904,899,877,860,882,833,809,812,788,773,786,744,730,715,704,708,693,710,649,629,620,605,604,603,605,604,599,603,592,601,609,608,616,610,605,605,606,611,602,607,609,613,606,607,614,609,607,617,605,616,606,609,598,810,812,793,817,860,931,1033,1107,1230,1303,1255,1239,1223,1206,1159,1182,1125,1108,1091,1074,1115,1040,1044,1006,999,972,959,937,947,903,896,869,837,866,803,822,825,823,825,821,824,821,833,859,825,836,846,848,839,832,835,839,838,837,839,839,828,844,827,844,840,836,828,844,851,1117,1108,1058,1165,1154,1286,1477,1614,1743,1688,1680,1667,1643,1678,1675,1549,1607,1581,1470,1471,1492,1469,1415,1429,1407,1390,1270,1234,1226,1200,1220,1174,1103,1082,1087,1124,1125,1089,1129,1123,1128,1130,1126,1126,1142,1142,1133,1135,1137,1135,1137,1146,1152,1152,1152,1150,1144,1150,1168,1152,1147,1164,1139,1138,1144,1167,1199,1140,1192,1275,1436,1637,1766,1829,1906,1832,1821,1771,1745,1716,1684,1658,1629,1600,1579,1578,1521,1506,1463,1431,1395,1369,1340,1308,1287,1253,1224,1195,1176,1158,1307,1192,1162,1235,1246,1218,1230,1250,1208,1280,1233,1226,1267,1297,1272,1223,1311,1294,1282,1348,1239,1243,1284,1319,1241,1235,1242,1250,1231,1228,924,916,919,928,946,1092,1257,1355,1457,1521,1460,1434,1394,1374,1370,1340,1306,1283,1274,1234,1280,1188,1242,1142,1128,1097,1091,1054,1042,1013,985,1003,939,934,923,941,903,914,921,942,937,954,1011,981,960,999,955,1036,974,1011,975,958,978,1009,985,973,1000,973,968,994,985,1026,980,977,960,1333,1297,1318,1399,1512,1750,1901,2036,2082,2154,2054,2061,2042,1978,1959,1856,1873,1867,1767,1787,1807,1713,1681,1655,1660,1564,1563,1497,1480,1454,1416,1383,1332,1334,1316,1316,1352,1346,1380,1368,1366,1384,1517,1479,1419,1456,1415,1520,1490,1496,1479,1429,1450,1475,1499,1430,1498,1478,1461,1499,1461,1525,1510,1543,1466,1462,1441,1497,1541,1747,1942,2141,2249,2372,2272,2326,2243,2209,2200,2224,2157,2061,2064,2032,2013,1953,1934,1839,1853,1795,1795,1732,1656,1698,1628,1590,1521,1565,1471,1499,1475,1494,1462,1585,1570,1604,1595,1604,1641,1608,1619,1611,1634,1647,1634,1634,1649,1648,1643,1621,1621,1610,1637,1627,1626,1626,1637,1606,1619,1642,1613,1620,1678,1841,2277,2636,2893,3035,3124,3080,3036,3025,2893,2832,2790,2709,2648,2616,2666,2505,2431,2342,2281,2236,2158,2119,2036,1990,1913,1852,1830,1747,1685,1670,1700,1710,1687,1686,1864,1863,1859,1885,1924,1922,1905,1916,1895,1920,1943,1932,1932,1928,1947,1962,2055,1976,1940,1957,1952,1946,1930,1927,1969,1972,1945,1509,1513,1557,1665,2010,2413,2701,2882,2899,2933,2891,2882,2712,2692,2653,2574,2515,2456,2379,2378,2243,2219,2126,2084,2041,1982,1892,1849,1775,1745,1686,1642,1552,1565,1514,1551,1581,1581,1662,1669,1681,1698,1694,1706,1692,1705,1683,1706,1716,1703,1697,1721,1724,1741,1754,1724,1712,1723,1724,1716,1712,1709,1724,1740,1725,1636,1630,1706,1761,2078,2244,2381,2533,2581,2581,2585,2503,2461,2516,2413,2317,2280,2255,2253,2250,2191,2148,2022,2049,1986,1960,1954,1835,1849,1799,1745,1687,1692,1625,1674,1623,1639,1650,1785,1831,1792,1804,1817,1817,1819,1823,1822,1822,1839,1813,1834,1819,1835,1847,1846,1857,1849,1847,1876,1822,1849,1855,1876,1854,1838,1898,1925,1996,2081,2408,2597,2759,2932,2915,3029,2965,2836,2776,2868,2719,2686,2630,2601,2540,2572,2493,2462,2307,2314,2248,2216,2221,2100,2179,2037,1981,1933,1960,1910,1911,1899,1971,1915,2260,2240,2274,2295,2312,2293,2322,2343,2343,2361,2398,2404,2494,2408,2392,2447,2473,2446,2423,2456,2571,2583,2612,2655,2646,2555,2546,1166,1163,1179,1183,1259,1438,1620,1759,1902,1893,1798,1849,1736,1737,1708,1739,1626,1621,1627,1540,1532,1505,1533,1447,1403,1369,1360,1331,1302,1312,1244,1214,1169,1143,1191,1148,1151,1154,1184,1185,1182,1173,1214,1213,1197,1198,1202,1215,1230,1238,1277,1234,1256,1221,1271,1227,1238,1277,1363,1291,1265,1262,1306,1318,1265,1383,1359,1441,1446,1572,1828,2027,2118,2214,2159,2214,2133,2138,2096,2057,1996,1961,1948,1932,1900,1862,1839,1733,1760,1690,1705,1643,1569,1601,1544,1508,1442,1470,1390,1422,1393,1398,1383,1460,1467,1474,1487,1503,1522,1488,1519,1482,1533,1522,1542,1487,1493,1520,1535,1513,1525,1540,1531,1517,1516,1505,1514,1526,1585,1521,752,791,777,782,788,911,1023,1148,1230,1304,1244,1211,1262,1207,1195,1163,1146,1105,1103,1094,1073,1015,1033,1005,1013,992,951,898,895,884,839,835,823,795,782,810,786,814,786,783,782,795,793,781,779,785,781,792,791,789,792,835,795,790,833,795,792,793,795,798,790,792,800,800,800,1719,1717,1802,1904,2259,2328,2535,2647,2939,2743,2677,2678,2659,2615,2572,2544,2500,2440,2354,2333,2373,2319,2193,2134,2146,2163,2084,1964,1919,1898,1829,1848,1775,1715,1737,1716,1771,1754,1984,1979,1939,1937,1991,1956,1968,1976,1975,1992,2049,2001,2004,2076,2019,2018,2060,2038,2032,2044,2081,2041,2026,2027,2090,2026,2035,1325,1301,1334,1373,1488,1731,1932,2024,2145,2069,2126,2046,2014,2012,1974,1914,1900,1870,1855,1825,1787,1766,1678,1690,1621,1645,1578,1505,1538,1483,1461,1383,1424,1331,1363,1334,1352,1336,1391,1363,1372,1369,1384,1391,1384,1387,1387,1403,1429,1419,1418,1425,1426,1435,1428,1430,1419,1442,1452,1450,1447,1436,1464,1472,1472,1160,1192,1133,1187,1273,1437,1639,1767,1830,1907,1833,1821,1771,1745,1716,1683,1657,1628,1598,1577,1575,1518,1502,1459,1426,1390,1364,1334,1302,1280,1246,1217,1188,1169,1150,1148,1185,1154,1197,1195,1205,1208,1192,1216,1211,1219,1212,1214,1242,1212,1213,1206,1226,1231,1231,1244,1245,1222,1231,1230,1223,1221,1223,1242,1207,723,696,685,701,753,832,942,1065,1095,1156,1117,1164,1145,1127,1112,1047,1070,1051,993,1014,957,939,936,939,920,851,833,845,812,861,776,789,740,751,708,692,755,738,747,736,732,733,767,793,749,756,762,795,769,814,800,808,768,781,784,772,781,767,786,852,813,824,810,801,814,573,595,597,599,588,670,752,845,924,1004,948,933,950,934,918,891,857,842,855,840,824,781,793,751,761,746,730,690,675,683,644,629,636,599,586,602,604,606,590,586,587,595,593,602,593,595,601,596,595,593,591,595,592,588,594,599,596,595,594,592,598,608,603,610,601,1703,1686,1735,1886,2109,2229,2461,2629,2735,2655,2590,2593,2595,2552,2515,2467,2444,2366,2303,2262,2321,2214,2128,2092,2084,1997,1984,1907,1877,1845,1790,1789,1755,1676,1698,1686,1748,1725,1912,1920,1901,1949,1918,1952,1927,1970,1971,2024,1946,1979,1957,1968,1957,2003,1981,1945,1954,1934,1958,1992,1963,1998,1972,1987,1955,0,0,0,0,0,0,0,0,0,0,0,0,0,0,0,0,0,0,0,0,0,0,0,0,0,0,0,0,0,0,0,0,0,0,0,0,0,0,0,0,0,0,0,0,0,0,0,0,0,0,0,0,0,0,0,0,0,0,0,0,0,0,0,0,0,1231,1244,1285,1352,1427,1563,1780,1909,2065,2034,1978,1965,1948,1910,1921,1862,1832,1824,1746,1738,1721,1692,1588,1582,1541,1507,1528,1456,1422,1394,1355,1361,1307,1247,1241,1245,1268,1304,1305,1353,1309,1321,1335,1328,1323,1338,1333,1326,1353,1322,1325,1346,1338,1346,1344,1368,1358,1355,1379,1341,1360,1388,1386,1359,1346,1658,1668,1735,2022,2253,2711,2937,3107,3224,3155,3174,3171,3077,3023,2854,2772,2709,2690,2655,2632,2637,2454,2423,2289,2210,2147,2085,2041,1997,1939,1835,1791,1784,1715,1739,1752,1732,1732,1928,1912,1923,1934,1962,1912,1920,1927,1933,1964,1971,1970,1966,2139,1973,1958,2140,1987,1975,1991,1998,1994,1993,1987,2014,2018,2025,1543,1547,1595,1753,2061,2463,2750,2931,2988,2980,2945,2935,2804,2744,2697,2617,2557,2538,2463,2426,2325,2258,2205,2155,2079,2019,1959,1921,1846,1786,1720,1676,1614,1599,1582,1591,1616,1621,1769,1765,1759,1772,1779,1800,1851,1858,1774,1827,1804,1795,1787,1826,1831,1854,1842,1820,1834,1843,1853,1827,1803,1810,1785,1781,1765,880,884,884,890,985,1171,1409,1611,1710,1733,1725,1683,1648,1613,1577,1543,1508,1473,1438,1403,1368,1333,1298,1263,1232,1193,1157,1122,1087,1082,1017,985,947,913,896,898,906,914,940,942,896,892,934,919,922,925,925,945,985,931,938,952,955,952,928,957,960,967,1001,961,942,945,997,927,927,1079,1094,1083,1117,1211,1329,1505,1674,1752,1738,1749,1735,1679,1687,1650,1622,1576,1558,1509,1491,1558,1445,1398,1432,1398,1321,1334,1297,1237,1225,1204,1220,1147,1104,1093,1094,1100,1113,1115,1146,1142,1147,1167,1144,1152,1183,1143,1156,1175,1168,1156,1153,1176,1189,1335,1284,1199,1170,1161,1152,1146,1149,1152,1197,1129,1245,1241,1261,1293,1396,1624,1765,1918,2018,1967,2024,1948,1925,1915,1885,1825,1787,1782,1766,1702,1708,1684,1579,1609,1543,1557,1536,1430,1468,1415,1379,1314,1344,1266,1293,1266,1272,1253,1298,1350,1309,1317,1335,1326,1322,1348,1329,1334,1350,1319,1328,1344,1343,1349,1345,1359,1350,1343,1373,1338,1350,1368,1382,1356,1341,878,873,895,890,929,1132,1173,1319,1443,1400,1465,1400,1377,1442,1335,1309,1286,1263,1284,1218,1237,1228,1129,1216,1104,1104,1116,1026,1058,1025,1001,945,1000,900,930,903,905,888,942,917,923,916,925,925,976,973,930,968,954,929,930,985,989,989,984,997,986,1012,986,970,967,948,929,927,921,835,821,799,827,865,960,1088,1227,1282,1312,1297,1315,1293,1298,1255,1230,1208,1187,1150,1145,1108,1087,1060,1081,1038,988,967,956,940,967,898,890,856,847,822,806,852,835,820,830,833,858,841,840,835,855,838,841,836,840,832,847,836,850,854,853,850,844,839,852,847,885,860,871,863,745,748,744,747,798,884,1000,1137,1214,1247,1222,1206,1206,1186,1148,1142,1123,1119,1083,1063,1047,1011,1009,967,968,911,918,890,864,880,848,840,809,789,802,772,808,776,798,789,786,792,800,794,799,791,799,795,795,792,807,802,805,798,797,804,800,806,794,809,806,808,797,793,793,969,1025,980,987,1074,1154,1333,1468,1546,1615,1593,1551,1505,1504,1473,1443,1423,1381,1401,1369,1313,1314,1297,1266,1208,1220,1170,1139,1119,1084,1060,1069,1043,992,985,1032,1026,1008,1016,1036,1014,1034,1031,1009,1070,1031,1029,1045,1077,1057,1013,1035,1077,1068,1091,1029,1037,1062,1106,1031,1034,1045,1044,1020,1019,1122,1142,1137,1172,1269,1396,1652,1717,1823,1808,1813,1768,1739,1753,1685,1653,1624,1611,1568,1546,1601,1553,1453,1492,1453,1372,1386,1298,1285,1285,1249,1177,1191,1143,1137,1146,1159,1129,1151,1157,1168,1193,1181,1174,1169,1193,1167,1203,1190,1200,1234,1231,1252,1250,1203,1193,1208,1206,1205,1198,1212,1226,1198,1205,1198,1722,1738,1813,2097,2355,2749,3028,3109,3198,3160,3194,3104,3017,2982,2951,2855,2791,2796,2682,2713,2686,2472,2472,2361,2281,2218,2154,2105,2064,2004,1940,1855,1794,1780,1870,1821,1797,1797,2083,2163,2113,2107,2147,2113,2141,2178,2137,2129,2190,2115,2147,2147,2165,2171,2321,2297,2209,2156,2185,2123,2140,2146,2187,2200,2119,1167,1199,1140,1192,1275,1436,1637,1766,1829,1906,1832,1821,1771,1745,1716,1684,1658,1629,1600,1579,1578,1521,1506,1463,1431,1395,1369,1340,1308,1287,1253,1224,1195,1176,1158,1307,1192,1162,1235,1246,1218,1230,1250,1208,1280,1233,1226,1267,1297,1272,1223,1311,1294,1282,1348,1239,1243,1284,1319,1241,1235,1242,1250,1231,1228,739,694,696,698,719,792,894,997,1097,1141,1127,1109,1092,1074,1056,1038,1020,1014,985,967,961,943,966,907,883,865,844,826,808,790,772,755,737,720,706,703,704,706,694,709,700,735,695,724,706,731,716,723,718,706,722,712,724,724,722,721,728,722,735,718,721,731,723,736,737,921,923,926,973,1001,1158,1262,1383,1478,1515,1495,1471,1448,1473,1400,1376,1399,1339,1305,1281,1269,1245,1301,1196,1166,1142,1115,1091,1067,1044,1020,996,972,950,947,934,936,939,985,984,963,971,965,983,976,989,997,1067,988,1039,1032,1042,993,1063,1045,988,984,982,1023,1061,1034,1058,1045,1045,1026,815,801,842,831,856,980,1080,1183,1273,1385,1324,1306,1273,1287,1254,1222,1201,1190,1177,1134,1140,1107,1108,1052,1026,1044,981,976,957,904,904,895,864,873,848,832,835,812,821,828,838,861,846,845,838,860,832,864,853,862,896,884,913,909,856,852,868,864,863,853,869,884,853,859,852,454,455,456,457,459,521,550,609,668,715,724,713,702,674,680,657,663,632,637,626,616,605,594,583,572,561,551,543,529,518,495,496,486,463,464,513,461,462,464,465,470,483,465,478,469,479,479,467,479,465,470,469,470,477,469,472,470,478,471,471,470,481,470,478,471,1205,1227,1257,1284,1361,1540,1728,1859,1979,2018,2004,1962,1994,1879,1860,1845,1778,1782,1760,1718,1689,1638,1592,1571,1560,1571,1489,1478,1450,1415,1424,1334,1278,1279,1249,1246,1226,1248,1303,1285,1287,1299,1440,1394,1338,1368,1337,1435,1410,1414,1402,1346,1367,1386,1421,1346,1413,1394,1379,1413,1378,1436,1434,1463,1387,1071,1059,1063,1113,1186,1298,1451,1587,1677,1750,1719,1687,1745,1633,1636,1605,1551,1531,1504,1477,1450,1423,1387,1370,1361,1378,1289,1262,1249,1208,1320,1141,1127,1106,1090,1072,1089,1078,1118,1104,1099,1110,1215,1202,1151,1170,1151,1239,1198,1181,1210,1160,1166,1203,1204,1147,1215,1181,1175,1236,1197,1254,1243,1275,1199,510,536,513,514,520,566,640,714,788,889,840,827,813,818,831,793,796,766,734,720,774,694,680,667,654,640,627,614,601,587,589,561,547,534,522,517,519,520,514,525,523,537,596,567,539,584,536,616,562,598,565,538,560,584,560,540,583,556,544,569,557,596,561,554,542,762,743,723,723,735,834,985,1034,1105,1144,1227,1150,1190,1161,1111,1068,1114,1038,1035,989,1000,983,950,916,916,881,882,861,849,880,815,816,788,731,719,715,729,802,749,749,749,759,764,753,761,760,761,760,770,779,852,851,863,793,756,774,776,783,767,762,784,753,763,764,755,1081,1037,1040,1060,1165,1257,1459,1572,1663,1763,1673,1646,1621,1594,1567,1540,1569,1497,1460,1433,1418,1423,1428,1337,1329,1277,1247,1238,1211,1161,1156,1114,1087,1065,1046,1077,1052,1049,1122,1106,1083,1091,1087,1110,1099,1115,1113,1175,1107,1147,1143,1149,1118,1189,1154,1106,1104,1098,1134,1164,1145,1175,1159,1159,1134,472,473,475,476,488,521,590,659,728,774,781,769,756,727,731,706,710,678,681,669,657,644,632,619,607,594,582,573,557,545,520,520,507,523,483,487,480,481,483,479,485,499,494,490,485,485,492,501,510,502,530,539,538,524,515,502,487,496,488,493,484,494,493,501,487,750,757,798,762,787,872,974,1106,1203,1244,1251,1198,1190,1163,1150,1151,1088,1079,1072,1072,1051,1043,1028,1051,958,956,915,896,876,859,837,817,798,762,770,755,763,765,789,768,766,775,778,778,835,827,783,815,797,778,786,822,830,835,827,845,830,853,827,809,809,794,781,777,768,507,508,510,512,516,562,637,711,785,833,839,864,813,799,891,808,792,778,766,752,738,724,710,665,652,639,625,612,598,585,572,558,545,531,519,515,516,517,515,518,515,519,522,522,522,522,521,517,522,519,516,522,523,526,523,521,527,521,524,533,523,534,518,524,526,544,525,547,537,565,621,691,753,852,896,901,867,872,841,824,816,788,784,768,771,740,742,711,697,683,659,670,659,641,627,587,598,584,618,556,531,533,543,544,539,547,544,559,578,548,544,547,565,563,563,561,567,564,561,557,561,554,561,554,563,567,570,568,565,576,732,687,689,691,713,788,894,999,1099,1143,1128,1110,1093,1074,1056,1038,1020,1012,983,965,959,941,963,904,879,861,839,821,803,785,766,748,730,713,699,695,697,699,698,698,702,718,703,710,703,720,709,705,717,701,705,709,705,710,708,713,709,716,713,712,708,720,706,717,708,626,651,647,643,652,730,826,951,1006,1068,1014,1045,1012,989,979,955,954,951,912,890,862,859,841,855,840,819,757,758,754,741,709,692,687,670,656,653,643,663,660,651,647,653,647,667,714,716,662,682,664,649,649,690,699,709,709,710,700,710,707,692,678,664,651,653,646,965,973,1033,990,1048,1171,1313,1526,1558,1593,1594,1619,1547,1490,1496,1466,1398,1384,1370,1364,1338,1324,1303,1320,1223,1215,1169,1159,1119,1096,1068,1043,1018,979,988,973,995,965,1004,996,999,1011,1004,1011,1008,1009,1020,1004,1017,1000,1017,1008,1013,1013,1007,1017,1006,1021,1004,1009,1014,1026,1007,1014,1004,467,470,472,473,476,513,579,625,688,734,743,769,770,729,781,721,707,718,706,673,681,648,636,594,582,571,559,548,557,525,513,502,511,492,481,476,494,479,465,471,471,472,470,465,476,473,477,475,469,472,468,475,472,476,478,485,472,471,475,479,483,483,476,473,473,1213,1255,1241,1261,1387,1563,1707,1876,2011,2008,1973,1907,1921,1839,1844,1771,1792,1769,1727,1630,1699,1634,1572,1532,1513,1494,1425,1391,1365,1347,1303,1304,1278,1255,1254,1263,1255,1209,1304,1315,1283,1302,1299,1346,1304,1329,1341,1404,1322,1366,1355,1361,1337,1402,1371,1322,1325,1315,1349,1381,1358,1390,1371,1383,1346,0,0,0,0,0,0,0,0,0,0,0,0,0,0,0,0,0,0,0,0,0,0,0,0,0,0,0,0,0,0,0,0,0,0,0,0,0,0,0,0,0,0,0,0,0,0,0,0,0,0,0,0,0,0,0,0,0,0,0,0,0,0,0,0,0,1024,1065,1031,1089,1108,1230,1393,1530,1621,1672,1664,1637,1691,1584,1583,1532,1505,1479,1452,1426,1399,1416,1346,1320,1293,1370,1240,1214,1187,1161,1191,1178,1082,1059,1044,1040,1043,1045,1053,1065,1069,1097,1089,1078,1075,1099,1078,1089,1078,1084,1096,1115,1101,1100,1101,1099,1100,1090,1080,1093,1090,1133,1107,1121,1113,1002,1006,1032,1025,1080,1239,1397,1533,1624,1676,1669,1638,1697,1585,1549,1539,1506,1487,1461,1435,1409,1383,1347,1331,1305,1342,1281,1227,1188,1175,1167,1109,1059,1060,1045,1041,1020,1104,1045,1044,1057,1083,1072,1062,1054,1070,1061,1091,1080,1080,1152,1158,1187,1139,1106,1084,1088,1096,1089,1081,1093,1108,1087,1103,1085,1311,1174,1179,1220,1316,1477,1705,1802,1888,1941,1890,2034,1830,1800,1769,1739,1708,1689,1648,1618,1606,1568,1577,1507,1470,1440,1406,1393,1362,1315,1301,1254,1231,1203,1191,1188,1191,1194,1260,1248,1245,1251,1245,1267,1318,1319,1256,1284,1271,1254,1257,1296,1306,1320,1318,1295,1305,1315,1326,1302,1280,1288,1262,1267,1261,277,278,279,279,280,294,333,372,410,458,460,453,439,438,431,424,416,409,402,395,387,380,373,366,358,351,344,336,329,322,315,307,300,293,286,281,278,283,270,269,268,279,269,271,270,274,268,274,273,271,273,271,273,272,272,274,277,276,274,269,273,276,273,274,274,333,334,335,336,337,359,406,455,502,545,557,548,539,530,521,512,522,494,485,478,467,459,449,441,432,423,414,404,397,387,378,369,362,352,343,338,339,340,330,331,332,332,332,331,334,334,333,330,333,332,331,334,335,334,331,332,334,333,335,332,333,335,330,333,334,447,449,450,452,472,492,557,623,704,753,744,732,720,736,697,709,673,674,649,661,661,624,601,600,581,569,575,542,530,538,506,494,482,470,459,454,456,457,454,445,452,456,461,463,450,458,452,452,457,457,456,457,461,472,467,469,454,461,460,468,469,467,470,478,468,508,510,512,507,507,564,638,712,782,848,829,825,802,783,776,755,759,759,724,704,703,703,665,676,656,659,642,600,599,601,561,547,546,533,520,529,506,513,502,501,517,595,524,501,521,549,529,514,523,521,522,517,526,524,526,516,519,517,529,536,519,530,522,527,533,606,642,597,644,622,734,774,847,997,989,978,978,964,946,932,914,959,929,925,838,835,821,791,826,774,758,742,713,743,697,681,660,647,751,619,613,627,646,648,626,641,633,631,637,682,649,626,632,651,645,638,634,633,644,631,646,639,637,637,632,628,636,641,661,626,580,572,583,576,595,652,735,827,918,965,954,938,921,912,893,878,849,845,833,883,801,799,807,767,746,730,712,696,681,668,651,636,670,596,583,589,590,591,588,586,590,591,586,595,587,606,585,588,588,594,590,592,638,687,591,595,602,593,594,594,599,600,596,596,592,174,174,175,176,176,182,206,230,254,278,291,287,282,278,273,268,264,259,254,250,245,240,236,231,230,226,217,213,208,203,199,194,189,185,180,177,177,178,173,161,162,162,167,166,167,164,164,167,177,169,173,173,173,173,170,169,171,179,182,179,171,169,185,174,175,825,828,831,835,862,948,1072,1195,1293,1350,1348,1326,1305,1284,1288,1241,1220,1199,1177,1156,1135,1113,1092,1071,1050,1028,1007,986,964,943,922,900,879,858,842,838,840,842,845,840,855,882,876,877,871,859,864,876,874,867,882,898,922,902,892,874,854,877,862,860,858,883,869,886,853,739,694,696,698,719,792,894,997,1097,1141,1127,1109,1092,1074,1056,1038,1020,1014,985,967,961,943,966,907,883,865,844,826,808,790,772,755,737,720,706,703,704,706,694,709,700,735,695,724,706,731,716,723,718,706,722,712,724,724,722,721,728,722,735,718,721,731,723,736,737,935,938,975,948,1004,1148,1332,1555,1658,1638,1774,1600,1571,1597,1572,1538,1456,1427,1469,1416,1341,1312,1284,1255,1226,1197,1168,1140,1111,1082,1053,1025,996,969,951,950,954,959,965,963,960,968,970,984,967,968,983,977,965,971,967,975,971,965,976,977,973,971,967,982,978,986,989,985,977,1200,1207,1244,1247,1346,1554,1783,1987,2081,2065,2181,2013,1968,1995,1954,1922,1827,1799,1832,1774,1686,1650,1615,1580,1544,1509,1474,1438,1403,1372,1337,1297,1263,1236,1219,1234,1224,1229,1288,1261,1275,1299,1279,1290,1280,1309,1289,1295,1294,1277,1296,1320,1341,1326,1315,1307,1275,1303,1287,1276,1273,1307,1306,1313,1279,767,769,806,773,805,920,1072,1281,1330,1374,1369,1344,1319,1294,1329,1245,1220,1195,1171,1193,1121,1096,1071,1047,1022,997,972,948,923,898,873,849,824,799,781,779,783,788,790,793,787,813,802,805,820,809,801,805,809,815,814,823,814,820,806,807,813,806,802,805,806,807,804,801,791,894,889,899,905,981,1106,1209,1346,1394,1466,1489,1411,1389,1358,1370,1315,1297,1285,1254,1231,1208,1200,1163,1141,1121,1096,1077,1055,1052,1011,989,967,945,924,910,907,909,912,913,912,923,916,911,931,928,930,929,928,955,928,925,921,937,944,945,957,954,935,943,947,936,931,935,952,917,261,262,263,263,264,274,308,342,376,410,425,418,412,405,399,393,386,380,373,367,360,354,347,341,334,328,321,315,308,302,295,289,282,276,269,265,266,266,253,256,256,257,256,257,258,257,256,257,258,258,258,256,257,257,257,257,256,259,258,259,258,261,259,257,256,328,329,330,331,332,351,397,443,489,532,544,536,527,518,510,501,493,484,475,467,458,450,441,432,424,415,407,398,389,381,372,364,355,346,338,333,334,335,319,331,330,334,335,338,328,339,324,348,328,328,332,335,349,361,346,337,337,327,343,340,338,340,327,337,327,692,694,697,699,719,793,897,1006,1090,1132,1133,1115,1110,1079,1062,1044,1026,1008,990,978,954,936,918,900,882,864,846,828,810,792,774,756,748,720,706,703,705,706,692,692,694,707,695,710,693,705,728,700,700,694,695,703,695,700,700,705,700,710,699,708,709,717,710,724,715,703,701,707,709,727,798,899,1000,1085,1126,1128,1111,1062,1076,1058,1034,995,978,988,971,927,943,918,901,883,842,848,808,791,796,779,740,744,726,693,714,691,693,705,712,715,709,707,717,741,726,709,737,737,736,733,726,728,738,731,732,722,725,751,732,730,723,724,752,737,1278,1297,1372,1344,1449,1663,1931,2168,2249,2204,2252,2219,2079,2103,2105,2058,1938,1913,1984,1891,1788,1751,1746,1676,1677,1601,1564,1526,1489,1451,1430,1377,1341,1342,1331,1313,1303,1309,1364,1360,1374,1398,1386,1396,1391,1383,1389,1464,1397,1381,1407,1420,1433,1409,1418,1402,1374,1407,1382,1381,1381,1410,1394,1415,1381,907,910,913,942,1008,1086,1267,1444,1447,1483,1490,1490,1431,1442,1430,1396,1337,1313,1289,1266,1242,1219,1225,1206,1148,1146,1101,1077,1053,1062,1026,983,959,956,924,921,923,966,925,939,946,962,962,955,951,967,944,951,952,948,944,962,962,975,1016,1007,961,962,966,952,942,943,961,958,942,1311,1364,1343,1388,1539,1767,1966,2160,2258,2269,2279,2264,2138,2100,2058,2029,2036,1953,1931,1912,1916,1793,1769,1740,1686,1640,1563,1587,1575,1462,1450,1413,1360,1398,1380,1359,1324,1343,1391,1413,1413,1420,1444,1422,1422,1460,1421,1422,1443,1412,1434,1435,1453,1461,1550,1560,1470,1445,1448,1441,1433,1440,1458,1501,1437,926,954,932,934,989,1104,1250,1344,1414,1449,1448,1473,1406,1395,1364,1377,1354,1302,1281,1260,1251,1218,1197,1177,1183,1143,1114,1107,1066,1066,1018,1010,970,955,935,932,935,960,971,937,939,951,965,985,975,991,976,1000,989,958,974,958,969,975,970,957,981,965,955,968,975,992,974,986,969,929,910,913,920,990,1087,1212,1411,1436,1478,1474,1449,1413,1405,1383,1357,1337,1313,1296,1274,1244,1230,1230,1161,1141,1118,1095,1073,1050,1045,1004,999,957,937,944,920,923,925,946,931,939,959,947,945,1009,1005,948,982,976,951,976,1035,1050,1039,1036,1024,997,1023,1013,982,968,977,961,963,947,904,907,944,915,971,1114,1296,1517,1621,1598,1617,1564,1535,1530,1537,1503,1418,1393,1434,1382,1307,1279,1250,1221,1329,1164,1136,1107,1079,1067,1022,991,965,938,920,919,921,928,928,936,931,968,922,965,938,967,952,955,967,938,952,944,954,966,954,954,957,953,966,948,955,963,953,986,974,1398,1432,1423,1497,1665,1906,2103,2224,2337,2363,2375,2331,2282,2202,2194,2165,2100,2082,2073,1980,1960,1899,1895,1838,1790,1739,1672,1692,1618,1562,1552,1519,1463,1451,1440,1435,1426,1492,1526,1544,1496,1507,1534,1519,1529,1539,1535,1540,1581,1536,1542,1563,1559,1557,1545,1574,1570,1572,1605,1556,1559,1570,1605,1547,1539,1555,1575,1622,1707,1864,2130,2321,2506,2638,2642,2645,2584,2454,2411,2412,2329,2367,2243,2216,2191,2167,2062,2065,1998,1970,1934,1806,1845,1806,1689,1699,1665,1578,1603,1696,1635,1544,1564,1693,1750,1701,1731,1744,1734,1736,1758,1732,1749,1751,1720,1743,1750,1756,1755,1792,1773,1758,1748,1778,1755,1761,1786,1799,1788,1777,1024,1015,1022,1037,1115,1260,1403,1464,1531,1565,1655,1638,1515,1503,1470,1496,1425,1402,1379,1417,1358,1311,1328,1313,1279,1245,1240,1200,1193,1171,1135,1102,1093,1040,1051,1068,1057,1049,1070,1073,1072,1112,1098,1084,1092,1110,1088,1110,1114,1119,1170,1174,1190,1138,1105,1096,1096,1101,1090,1081,1081,1096,1087,1100,1068,1731,1759,1851,2052,2428,2814,3029,3196,3247,3272,3174,3140,3092,2998,2926,2855,2791,2748,2664,2597,2579,2476,2410,2447,2294,2244,2147,2125,2033,1962,1902,1847,1796,1832,1763,1778,1794,1803,2080,2102,2104,2153,2168,2150,2163,2153,2124,2177,2111,2138,2140,2149,2134,2146,2175,2183,2147,2129,2146,2142,2155,2150,2169,2182,2172,1031,1060,1038,1058,1155,1311,1486,1548,1688,1739,1680,1702,1663,1600,1619,1546,1582,1526,1508,1438,1411,1384,1374,1331,1360,1277,1250,1259,1271,1196,1168,1148,1089,1066,1050,1047,1082,1053,1085,1070,1073,1074,1074,1106,1106,1110,1093,1101,1121,1100,1101,1099,1100,1130,1134,1100,1106,1118,1116,1126,1115,1107,1129,1167,1130,0,0,0,0,0,0,0,0,0,0,0,0,0,0,0,0,0,0,0,0,0,0,0,0,0,0,0,0,0,0,0,0,0,0,0,0,0,0,0,0,0,0,0,0,0,0,0,0,0,0,0,0,0,0,0,0,0,0,0,0,0,0,0,0,0,217,217,218,219,219,226,255,284,312,341,356,350,345,339,334,328,323,317,312,306,301,295,290,284,279,273,268,262,257,251,246,240,235,229,224,220,220,221,202,203,203,203,203,203,205,204,207,205,205,207,205,207,207,208,209,211,208,209,209,210,212,211,210,210,210,1415,1449,1479,1519,1660,1906,2171,2351,2428,2419,2642,2386,2292,2436,2266,2249,2128,2108,2134,2070,1965,1978,1883,1967,1808,1760,1807,1684,1637,1596,1571,1547,1485,1484,1442,1462,1443,1449,1564,1563,1554,1641,1609,1610,1598,1587,1602,1637,1601,1640,1652,1635,1580,1614,1609,1623,1624,1594,1647,1712,1677,1677,1689,1626,1626,1290,1279,1262,1383,1487,1714,1866,2066,2078,2159,2069,2070,1981,2004,1982,1938,1871,1838,1805,1732,1720,1681,1702,1667,1571,1595,1506,1507,1459,1452,1413,1350,1371,1418,1297,1309,1283,1354,1380,1351,1366,1389,1369,1381,1371,1399,1379,1387,1384,1367,1387,1411,1432,1417,1409,1399,1366,1394,1378,1368,1364,1398,1397,1405,1371,1006,1009,1012,1052,1135,1230,1432,1609,1629,1744,1635,1644,1583,1591,1576,1539,1478,1452,1426,1399,1373,1347,1351,1329,1269,1264,1216,1190,1164,1170,1131,1085,1059,1055,1024,1021,1119,1067,1057,1067,1062,1082,1084,1090,1089,1089,1074,1088,1080,1067,1077,1085,1085,1075,1112,1101,1074,1070,1077,1076,1072,1084,1088,1091,1073,1230,1242,1240,1290,1428,1603,1833,1988,2078,2109,2126,2055,2019,2029,2020,1955,1873,1867,1854,1764,1768,1691,1692,1659,1643,1546,1509,1508,1517,1400,1396,1336,1293,1350,1301,1280,1255,1320,1363,1346,1357,1360,1360,1350,1376,1371,1337,1343,1358,1351,1346,1365,1357,1351,1350,1360,1355,1355,1367,1369,1341,1356,1352,1355,1346,1287,1300,1276,1329,1513,1691,1883,2036,2164,2156,2172,2137,2099,2123,2063,1999,1916,1910,1896,1805,1808,1731,1731,1736,1681,1583,1574,1544,1472,1435,1430,1370,1326,1384,1336,1314,1288,1354,1367,1367,1371,1371,1372,1366,1380,1388,1375,1375,1384,1388,1455,1458,1410,1386,1399,1422,1433,1497,1491,1387,1432,1507,1512,1481,1424,1527,1601,1672,1720,1989,2153,2370,2521,2448,2621,2427,2421,2378,2344,2376,2267,2194,2188,2116,2155,2093,2106,1990,2019,1954,1930,1806,1768,1779,1754,1690,1656,1670,1641,1604,1549,1566,1624,1723,1781,1729,1758,1766,1753,1766,1782,1756,1772,1774,1749,1779,1770,1779,1774,1810,1796,1777,1773,1815,1756,1770,1788,1808,1792,1773,1147,1150,1168,1189,1345,1469,1694,1895,1998,2014,1963,1953,1895,1860,1823,1797,1810,1730,1712,1641,1620,1586,1566,1541,1466,1449,1375,1380,1373,1287,1279,1246,1195,1214,1170,1192,1135,1176,1236,1245,1218,1229,1225,1258,1236,1252,1264,1326,1243,1288,1279,1284,1254,1330,1288,1243,1239,1235,1267,1297,1283,1314,1298,1295,1266,1206,1217,1221,1260,1344,1508,1702,1837,1921,1961,1914,1918,1852,1855,1835,1819,1730,1717,1723,1659,1608,1577,1598,1552,1514,1476,1445,1415,1363,1364,1345,1301,1241,1248,1233,1205,1246,1239,1253,1246,1254,1291,1277,1287,1289,1266,1271,1292,1274,1277,1275,1280,1280,1280,1285,1288,1291,1294,1288,1281,1303,1291,1289,1303,1287,362,363,364,366,367,390,441,489,539,584,594,585,575,566,557,548,538,529,520,511,501,492,483,474,465,455,446,437,428,418,420,400,391,381,372,368,369,370,361,364,361,371,369,373,365,384,362,372,369,363,365,373,372,369,370,372,370,370,380,371,365,368,365,371,365,935,938,975,948,1004,1148,1332,1555,1658,1638,1774,1600,1571,1597,1572,1538,1456,1427,1469,1416,1341,1312,1284,1255,1226,1197,1168,1140,1111,1082,1053,1025,996,969,951,950,954,959,965,963,960,968,970,984,967,968,983,977,965,971,967,975,971,965,976,977,973,971,967,982,978,986,989,985,977,1129,1097,1137,1125,1212,1387,1602,1761,1853,1879,1866,1889,1877,1768,1736,1703,1671,1688,1713,1573,1540,1508,1475,1505,1537,1492,1345,1370,1324,1247,1215,1273,1150,1122,1113,1148,1112,1172,1153,1156,1146,1156,1156,1179,1158,1174,1174,1315,1165,1162,1160,1169,1181,1151,1174,1176,1169,1182,1159,1166,1179,1180,1166,1180,1172,1394,1367,1424,1442,1575,1807,2052,2190,2283,2291,2271,2287,2268,2154,2115,2076,2037,2055,2072,1927,1881,1842,1803,1825,1855,1798,1647,1669,1612,1530,1491,1541,1420,1393,1380,1478,1382,1443,1471,1459,1478,1475,1535,1493,1486,1487,1489,1501,1528,1517,1512,1504,1517,1521,1552,1535,1516,1527,1559,1519,1532,1524,1550,1534,1525,961,928,930,939,1000,1145,1328,1490,1587,1617,1609,1580,1629,1523,1494,1466,1437,1409,1489,1351,1323,1294,1265,1300,1257,1227,1151,1122,1138,1065,1037,1008,979,953,942,977,941,946,969,954,958,953,970,990,974,976,975,1000,1009,1020,1020,1021,1008,1021,1003,996,998,1008,1019,1044,1015,1023,1021,1042,1034,998,1001,1004,1017,1074,1194,1364,1487,1569,1602,1613,1613,1553,1537,1525,1484,1460,1435,1409,1382,1382,1333,1344,1282,1292,1232,1210,1185,1160,1135,1110,1086,1061,1039,1025,1013,1015,1059,1031,1039,1065,1095,1073,1080,1065,1063,1063,1059,1053,1039,1051,1060,1058,1055,1077,1069,1044,1044,1054,1054,1044,1054,1061,1078,1046,213,214,214,215,215,222,249,276,302,329,345,340,334,329,324,319,314,308,303,298,293,288,282,277,272,267,262,256,251,246,241,235,230,225,220,216,216,217,204,204,203,207,204,205,204,207,204,204,203,203,205,205,207,207,204,205,207,208,208,212,208,211,207,205,207,194,195,196,196,197,202,228,254,280,306,323,318,313,308,303,298,293,288,283,277,272,267,262,257,252,247,242,237,232,227,222,217,212,207,201,197,198,198,185,186,186,189,190,188,189,189,186,187,187,189,187,190,192,192,187,188,192,189,192,189,190,193,186,189,188,796,799,801,804,839,929,1051,1173,1260,1310,1315,1294,1273,1252,1231,1210,1189,1183,1148,1127,1106,1085,1064,1051,1022,1002,981,960,939,918,897,876,856,835,821,808,821,846,813,818,824,848,836,837,822,850,827,829,828,831,820,836,829,847,847,845,833,836,827,844,838,854,830,845,836,803,753,755,758,784,866,981,1096,1186,1293,1232,1234,1193,1173,1199,1179,1114,1095,1048,1055,1036,1016,971,977,957,980,918,898,856,859,839,799,800,780,766,742,780,766,786,753,753,751,784,806,771,763,764,789,812,792,795,806,804,805,770,781,790,802,807,814,784,792,814,777,785,1499,1441,1539,1545,1694,1985,2199,2319,2441,2406,2393,2446,2385,2297,2229,2222,2147,2175,2169,2023,1982,1934,1900,1920,1988,1846,1735,1797,1696,1612,1571,1620,1495,1468,1485,1527,1502,1548,1600,1590,1600,1695,1659,1641,1636,1628,1625,1669,1695,1642,1642,1666,1687,1686,1656,1643,1624,1624,1613,1611,1605,1631,1625,1647,1588,1011,1015,1036,1037,1144,1234,1426,1535,1637,1647,1678,1630,1604,1598,1577,1524,1498,1471,1469,1418,1392,1365,1339,1336,1286,1286,1233,1207,1201,1154,1127,1101,1075,1052,1039,1027,1029,1065,1061,1059,1055,1065,1061,1065,1067,1074,1073,1059,1068,1068,1077,1066,1073,1072,1068,1078,1063,1078,1068,1070,1068,1085,1069,1072,1061,1488,1475,1580,1620,1781,1980,2230,2460,2485,2467,2415,2501,2330,2291,2328,2235,2224,2132,2232,2172,2086,1959,1941,1923,1879,1874,1751,1713,1784,1626,1644,1624,1494,1552,1543,1528,1545,1505,1644,1627,1643,1705,1665,1679,1665,1650,1654,1677,1667,1652,1656,1690,1747,1765,1692,1670,1660,1670,1655,1650,1647,1680,1659,1688,1649,967,970,973,987,1050,1168,1301,1420,1502,1538,1537,1502,1480,1458,1436,1425,1403,1370,1348,1326,1304,1281,1268,1237,1223,1204,1178,1154,1161,1095,1070,1053,1020,997,984,1012,984,996,994,1007,1015,1024,1023,1028,1024,1031,1014,1022,1020,1011,1015,1024,1031,1039,1031,1043,1023,1031,1037,1020,1016,1011,1024,1032,1009,1012,1015,1030,1033,1111,1219,1377,1522,1604,1624,1650,1637,1600,1596,1550,1524,1488,1477,1462,1421,1403,1370,1344,1318,1277,1284,1228,1203,1177,1152,1126,1100,1074,1051,1039,1042,1028,1065,1047,1090,1051,1054,1083,1057,1066,1073,1070,1085,1083,1068,1081,1072,1080,1078,1091,1091,1085,1089,1116,1076,1089,1104,1121,1100,1093,1098,1066,1122,1091,1179,1353,1562,1724,1816,1842,1830,1853,1839,1733,1700,1665,1636,1625,1679,1536,1506,1474,1442,1472,1447,1391,1312,1378,1292,1215,1200,1266,1116,1091,1081,1117,1081,1141,1124,1130,1141,1150,1145,1151,1150,1158,1138,1147,1146,1136,1141,1149,1157,1166,1160,1172,1146,1154,1161,1144,1145,1136,1151,1167,1141,1585,1588,1634,1735,1885,2136,2379,2520,2678,2595,2559,2539,2535,2427,2395,2375,2351,2268,2272,2176,2132,2078,2044,2032,1937,1984,1859,1855,1834,1728,1736,1659,1602,1634,1617,1578,1584,1591,1711,1705,1702,1721,1819,1804,1757,1793,1754,1849,1808,1815,1802,1761,1766,1817,1808,1770,1839,1812,1790,1841,1813,1870,1843,1870,1825,1704,1733,1847,1962,2173,2398,2624,2843,2861,2837,2739,2833,2643,2599,2667,2532,2551,2454,2546,2405,2390,2225,2202,2209,2160,2148,1991,1976,2039,1879,1915,1848,1739,1762,1762,1775,1788,1754,2067,2058,2025,2048,2047,2111,2114,2138,2103,2194,2093,2108,2091,2142,2130,2185,2149,2136,2133,2132,2126,2142,2117,2129,2095,2104,2058,1090,1096,1092,1120,1198,1272,1524,1539,1619,1652,1649,1613,1589,1565,1547,1529,1523,1470,1446,1422,1403,1374,1359,1326,1311,1287,1263,1280,1255,1211,1159,1216,1140,1118,1127,1085,1104,1107,1136,1146,1157,1179,1156,1179,1159,1162,1159,1170,1294,1261,1222,1242,1318,1288,1259,1160,1158,1189,1203,1176,1151,1169,1181,1158,1127,1638,1658,1662,1881,2168,2580,2867,2998,3088,3108,3004,2963,2924,2847,2762,2709,2652,2623,2533,2494,2407,2351,2274,2238,2166,2124,2048,1995,1939,1876,1791,1744,1715,1671,1681,1665,1677,1685,1857,1894,1857,1859,1879,1873,1888,1904,1884,1886,1938,1882,1885,1899,1912,1928,1908,1940,1926,1915,1942,1887,1905,1911,1939,1900,1879,1080,1108,1086,1112,1252,1314,1489,1627,1744,1763,1756,1728,1747,1691,1643,1615,1632,1559,1531,1535,1475,1500,1449,1390,1392,1334,1334,1278,1250,1281,1194,1166,1138,1147,1131,1152,1110,1134,1152,1137,1136,1147,1272,1236,1187,1212,1185,1280,1246,1228,1239,1185,1200,1230,1251,1187,1256,1221,1207,1257,1222,1279,1271,1296,1231,347,348,349,350,351,371,419,468,516,560,573,564,555,546,537,528,519,510,501,492,483,474,465,456,447,438,429,420,411,402,393,384,375,366,357,352,353,354,341,345,346,351,362,360,361,360,350,360,356,362,354,362,356,371,356,349,362,354,356,358,358,361,351,351,351,0,0,0,0,0,0,0,0,0,0,0,0,0,0,0,0,0,0,0,0,0,0,0,0,0,0,0,0,0,0,0,0,0,0,0,0,0,0,0,0,0,0,0,0,0,0,0,0,0,0,0,0,0,0,0,0,0,0,0,0,0,0,0,0,0,1610,1613,1673,1862,1910,2177,2426,2541,2616,2628,2787,2611,2587,2469,2424,2379,2335,2359,2349,2201,2156,2112,2067,2166,2118,2033,1889,1923,1874,1802,1854,1708,1666,1613,1599,1641,1632,1663,1804,1815,1784,1803,1801,1850,1810,1840,1858,1930,1835,1871,1843,1859,1842,1891,1866,1836,1849,1831,1843,1878,1858,1885,1865,1880,1843,1390,1374,1411,1473,1650,1796,1952,2100,2182,2220,2176,2207,2171,2109,2063,2007,1992,1937,1898,1861,1826,1849,1793,1800,1699,1696,1652,1644,1569,1515,1519,1459,1446,1410,1414,1390,1398,1405,1456,1445,1447,1455,1540,1528,1496,1507,1493,1574,1532,1507,1535,1489,1496,1542,1537,1498,1555,1519,1511,1565,1541,1582,1573,1600,1557,1110,1114,1136,1175,1247,1417,1594,1699,1798,1805,1833,1810,1754,1745,1722,1667,1638,1609,1622,1551,1522,1493,1464,1458,1406,1403,1348,1319,1310,1261,1232,1203,1174,1169,1139,1127,1130,1157,1179,1183,1182,1184,1207,1251,1197,1228,1223,1233,1246,1233,1219,1227,1216,1244,1204,1207,1223,1214,1203,1235,1221,1242,1216,1228,1229,1389,1416,1425,1488,1678,1980,2113,2381,2435,2344,2357,2296,2256,2295,2163,2170,2126,2155,2055,1962,1922,1882,1842,1924,1762,1867,1692,1667,1635,1595,1565,1520,1495,1464,1444,1407,1413,1419,1537,1528,1520,1611,1588,1577,1570,1563,1575,1613,1568,1612,1629,1595,1550,1585,1574,1586,1596,1565,1616,1685,1650,1655,1667,1603,1601,1423,1449,1461,1561,1725,2030,2162,2358,2521,2390,2403,2341,2336,2339,2206,2213,2169,2234,2097,2003,1962,1921,1881,1988,1800,1849,1755,1702,1671,1629,1599,1554,1501,1497,1478,1440,1446,1453,1555,1548,1552,1620,1594,1602,1598,1575,1575,1596,1593,1591,1583,1612,1643,1646,1610,1588,1583,1586,1572,1570,1560,1589,1575,1598,1549,1524,1548,1548,1728,1808,2107,2359,2522,2611,2716,2599,2552,2504,2480,2521,2369,2307,2287,2214,2175,2143,2076,2082,2019,1936,1920,1871,1815,1748,1763,1665,1610,1579,1577,1525,1553,1538,1577,1657,1717,1664,1692,1706,1688,1698,1716,1693,1703,1705,1687,1711,1709,1713,1720,1765,1759,1723,1721,1757,1695,1715,1723,1759,1733,1713,1323,1310,1344,1441,1507,1706,1961,2130,2270,2215,2166,2163,2089,2054,2097,2006,2000,1911,2017,1934,1852,1753,1740,1758,1686,1717,1566,1532,1565,1453,1475,1398,1328,1374,1350,1361,1328,1337,1372,1381,1394,1410,1414,1424,1432,1441,1451,1461,1468,1480,1487,1498,1509,1521,1525,1535,1544,1552,1557,1565,1574,1583,1590,1611,1616,1276,1278,1268,1326,1410,1587,1785,1943,2022,2063,2025,1993,1990,1965,1930,1872,1864,1806,1770,1732,1700,1704,1666,1604,1579,1560,1537,1474,1465,1408,1399,1357,1327,1309,1310,1274,1291,1298,1325,1333,1340,1363,1352,1357,1344,1359,1341,1341,1356,1346,1379,1392,1379,1360,1357,1368,1366,1379,1376,1353,1375,1376,1361,1360,1356,410,412,413,414,415,444,501,558,615,662,673,663,652,642,631,621,610,600,589,579,568,558,547,537,526,516,505,495,496,474,463,453,442,432,421,416,418,419,403,402,403,406,407,406,411,409,407,412,410,410,414,414,412,411,419,418,417,420,418,416,423,420,419,420,420,1129,1097,1137,1125,1212,1387,1602,1761,1853,1879,1866,1889,1877,1768,1736,1703,1671,1688,1713,1573,1540,1508,1475,1505,1537,1492,1345,1370,1324,1247,1215,1273,1150,1122,1113,1148,1112,1172,1153,1156,1146,1156,1156,1179,1158,1174,1174,1315,1165,1162,1160,1169,1181,1151,1174,1176,1169,1182,1159,1166,1179,1180,1166,1180,1172,586,587,589,591,600,655,740,824,906,951,955,940,925,910,895,881,862,851,836,821,806,791,776,761,743,731,716,698,686,671,656,642,627,612,598,592,596,597,578,583,599,616,595,606,585,602,585,614,593,586,593,596,608,621,606,599,605,592,603,606,600,607,585,594,588,390,391,392,393,394,420,474,527,580,627,637,627,617,608,598,588,578,568,558,548,538,528,519,509,499,489,479,469,459,449,440,430,420,458,400,395,396,397,391,389,397,420,410,399,400,409,402,409,418,422,495,532,602,470,415,403,406,419,414,395,401,415,404,416,403,732,774,742,762,807,857,970,1082,1191,1210,1238,1219,1172,1166,1153,1114,1092,1076,1057,1038,1014,1000,998,961,962,923,904,882,914,846,858,801,789,783,756,750,755,757,767,761,763,764,763,759,768,764,767,761,763,763,769,772,771,772,768,766,769,769,772,781,772,778,767,766,775,1197,1188,1195,1251,1349,1525,1696,1808,1908,1934,1893,1891,1861,1832,1777,1771,1717,1710,1669,1692,1619,1587,1538,1508,1497,1464,1425,1388,1358,1363,1314,1282,1261,1265,1221,1218,1210,1231,1261,1238,1251,1266,1266,1281,1258,1261,1260,1277,1309,1284,1289,1279,1290,1299,1298,1285,1284,1304,1295,1307,1296,1294,1309,1328,1313,1202,1204,1232,1288,1521,1792,2108,2275,2442,2378,2348,2345,2252,2227,2156,2126,2060,2013,2011,1925,1875,1821,1808,1724,1790,1675,1715,1553,1502,1451,1400,1321,1299,1265,1225,1259,1262,1255,1310,1307,1356,1624,1366,1303,1348,1442,1379,1326,1422,1399,1340,1351,1447,1449,1399,1314,1356,1343,1384,1382,1335,1368,1340,1343,1353,1344,1363,1393,1491,1722,2070,2373,2556,2590,2632,2641,2633,2470,2458,2348,2353,2273,2219,2165,2111,2082,2027,1973,1896,1925,1907,1863,1654,1647,1572,1539,1525,1415,1357,1389,1395,1407,1420,1475,1478,1476,1489,1506,1487,1520,1513,1506,1503,1524,1529,1556,1550,1572,1589,1574,1564,1535,1545,1532,1526,1532,1516,1532,1559,1513,1321,1308,1331,1387,1468,1720,1889,2078,2105,2116,2137,2106,2067,1991,1966,1953,1912,1888,1851,1795,1814,1751,1673,1696,1642,1606,1573,1569,1507,1455,1433,1426,1417,1386,1372,1323,1355,1401,1424,1407,1424,1484,1443,1457,1443,1426,1434,1448,1445,1432,1434,1467,1525,1544,1464,1444,1434,1445,1430,1426,1424,1457,1435,1463,1421,1607,1593,1637,1680,1793,2081,2243,2423,2445,2499,2466,2520,2388,2368,2329,2308,2338,2186,2145,2084,2098,2073,1949,1966,1940,1970,1872,1821,1779,1699,1672,1701,1653,1622,1608,1592,1593,1640,1729,1778,1738,1749,1761,1762,1764,1769,1766,1765,1786,1757,1774,1763,1779,1789,1790,1803,1794,1790,1820,1763,1790,1796,1816,1795,1781,308,309,310,311,312,329,371,414,456,497,510,502,494,486,478,470,462,454,446,438,430,422,414,406,398,390,382,374,366,358,350,342,334,326,318,313,314,315,299,305,310,317,314,318,303,314,301,333,308,307,312,311,330,348,325,316,322,307,318,320,322,326,304,312,304,1120,1107,1115,1159,1248,1470,1579,1689,1791,1819,1784,1779,1750,1723,1670,1665,1613,1607,1554,1557,1520,1490,1442,1413,1405,1376,1340,1299,1271,1278,1231,1203,1180,1185,1139,1136,1128,1148,1164,1189,1200,1167,1174,1188,1211,1202,1192,1183,1245,1182,1206,1187,1202,1216,1229,1243,1228,1199,1211,1210,1198,1193,1192,1256,1174,666,695,670,672,690,760,860,961,1048,1092,1094,1077,1060,1042,1025,1007,990,972,955,938,920,903,885,868,851,833,816,798,781,764,746,729,711,767,680,676,678,680,678,678,685,699,692,700,699,716,701,697,713,701,721,722,720,723,693,690,703,705,703,693,700,706,693,705,695,1611,1554,1615,1756,1818,2045,2280,2386,2484,2569,2443,2378,2337,2410,2262,2237,2185,2188,2107,2069,2043,2106,1975,1927,1909,1924,1808,1772,1732,1762,1684,1632,1684,1715,1583,1573,1546,1576,1671,1718,1685,1698,1724,1716,1702,1726,1717,1720,1732,1704,1715,1732,1732,1735,1746,1749,1747,1741,1765,1756,1759,1782,1792,1780,1773,1061,1061,1067,1092,1171,1310,1474,1595,1692,1728,1697,1690,1644,1637,1591,1582,1538,1527,1475,1480,1432,1437,1379,1352,1335,1325,1273,1249,1221,1215,1169,1143,1134,1127,1093,1077,1079,1089,1093,1083,1098,1112,1092,1111,1095,1101,1101,1112,1130,1123,1114,1122,1121,1134,1118,1124,1119,1127,1129,1139,1129,1126,1127,1146,1144,578,580,582,584,594,651,738,825,908,953,957,942,926,911,896,880,861,850,834,819,804,788,773,758,739,727,712,694,681,666,651,635,620,605,591,585,589,590,583,584,583,585,590,588,583,584,587,588,584,585,585,593,588,587,593,588,587,590,585,595,587,588,594,591,585,891,877,880,886,955,1036,1173,1306,1390,1467,1445,1401,1379,1356,1340,1339,1316,1283,1243,1220,1198,1175,1152,1130,1107,1085,1062,1059,1017,1013,989,949,932,961,901,888,904,928,907,914,908,924,960,954,958,973,934,961,973,981,996,978,978,975,948,939,977,942,938,951,951,973,958,977,948,794,797,799,802,839,929,1051,1172,1376,1296,1295,1274,1254,1233,1213,1307,1172,1151,1131,1110,1089,1069,1048,1028,1007,1028,966,946,925,905,884,864,878,823,810,806,808,846,836,829,844,855,836,823,898,906,838,863,906,866,821,900,937,957,948,902,894,919,930,889,856,852,838,825,828,1481,1515,1590,1686,1731,1967,2217,2312,2376,2445,2398,2346,2253,2315,2181,2177,2140,2112,2055,1997,2025,1962,1908,1862,1868,1885,1749,1765,1676,1721,1645,1594,1570,1593,1545,1534,1507,1524,1600,1587,1609,1624,1637,1643,1651,1666,1639,1654,1673,1660,1685,1687,1659,1680,1711,1708,1679,1703,1717,1713,1711,1723,1717,1717,1734,1077,1059,1081,1097,1160,1320,1484,1628,1726,1866,1729,1720,1672,1669,1615,1726,1557,1570,1508,1459,1445,1421,1398,1413,1406,1349,1284,1297,1217,1187,1263,1236,1134,1115,1109,1102,1087,1090,1127,1118,1145,1174,1151,1165,1156,1175,1168,1164,1197,1159,1170,1197,1204,1207,1206,1167,1161,1176,1164,1158,1153,1182,1156,1189,1169,1160,1174,1213,1289,1314,1462,1768,1783,1857,1934,1873,1841,1812,1799,1753,1756,1693,1706,1633,1603,1587,1543,1513,1497,1477,1515,1416,1388,1343,1385,1272,1311,1248,1276,1260,1210,1181,1255,1264,1254,1288,1302,1296,1323,1296,1299,1310,1317,1342,1306,1322,1343,1363,1355,1327,1303,1292,1315,1296,1295,1292,1315,1292,1328,1299,1191,1193,1197,1310,1463,1748,2063,2231,2420,2335,2305,2247,2210,2255,2115,2116,2020,1973,1925,1961,1830,1783,1735,1687,1777,1666,1654,1497,1521,1395,1372,1307,1328,1226,1234,1209,1228,1238,1269,1267,1272,1280,1276,1284,1287,1310,1288,1295,1285,1289,1295,1296,1296,1296,1304,1314,1305,1312,1309,1297,1318,1310,1322,1315,1306,1280,1323,1302,1385,1596,1972,2297,2455,2528,2531,2525,2467,2408,2354,2299,2236,2183,2142,2090,2037,1975,1922,1870,1818,1877,1810,1769,1609,1557,1505,1453,1441,1359,1316,1313,1310,1323,1335,1396,1390,1389,1402,1388,1410,1394,1397,1424,1476,1399,1421,1427,1426,1418,1429,1444,1418,1405,1413,1414,1438,1417,1424,1432,1432,1414,0,0,0,0,0,0,0,0,0,0,0,0,0,0,0,0,0,0,0,0,0,0,0,0,0,0,0,0,0,0,0,0,0,0,0,0,0,0,0,0,0,0,0,0,0,0,0,0,0,0,0,0,0,0,0,0,0,0,0,0,0,0,0,0,0,1132,1138,1143,1162,1213,1382,1590,1707,1797,1802,1854,1798,1757,1695,1699,1641,1648,1615,1580,1546,1479,1507,1463,1441,1395,1381,1373,1344,1283,1278,1244,1219,1166,1156,1148,1119,1105,1182,1181,1188,1181,1195,1197,1191,1192,1203,1179,1188,1185,1185,1183,1202,1197,1193,1190,1193,1193,1189,1204,1212,1184,1195,1184,1191,1188,1013,1002,1033,1022,1110,1239,1383,1574,1625,1657,1644,1648,1585,1567,1540,1527,1491,1464,1433,1413,1396,1356,1331,1327,1289,1251,1236,1219,1192,1143,1119,1078,1067,1046,1031,1029,1032,1020,1057,1046,1058,1061,1053,1045,1082,1070,1042,1037,1058,1060,1054,1050,1049,1052,1052,1062,1058,1060,1054,1053,1049,1082,1087,1090,1068,965,1016,980,962,1047,1138,1302,1428,1509,1606,1531,1514,1490,1457,1447,1412,1435,1367,1394,1356,1321,1268,1243,1219,1220,1194,1145,1156,1116,1077,1077,1062,1003,1006,962,959,961,1009,980,973,990,1009,996,997,992,1017,998,1007,1004,996,1008,1035,1055,1040,1026,1016,991,1013,1001,992,989,1015,1017,1021,991,859,902,864,847,914,986,1117,1245,1331,1408,1358,1345,1323,1293,1286,1258,1266,1214,1221,1254,1177,1127,1106,1084,1088,1066,1019,1021,999,948,932,910,895,914,854,850,853,894,864,862,870,915,889,897,884,864,885,893,905,881,906,905,928,911,921,898,882,879,876,877,879,882,873,916,868,1231,1161,1209,1289,1384,1451,1640,1860,1849,1917,1940,1837,1808,1835,1754,1775,1745,1731,1629,1624,1569,1539,1509,1480,1472,1442,1390,1464,1331,1389,1358,1241,1218,1309,1286,1174,1233,1273,1265,1272,1274,1305,1262,1307,1277,1306,1292,1307,1319,1295,1307,1300,1314,1322,1310,1312,1304,1313,1325,1307,1317,1319,1310,1346,1345,722,724,726,728,753,850,941,1050,1139,1181,1235,1163,1144,1126,1157,1161,1069,1098,1032,1013,994,976,957,938,919,900,882,863,844,840,807,788,750,784,736,733,735,737,730,747,739,756,864,813,772,818,767,879,795,823,807,766,784,818,792,772,833,787,772,813,793,858,810,807,778,1029,1069,1073,1114,1155,1263,1500,1599,1647,1678,1700,1643,1616,1590,1563,1565,1510,1500,1469,1430,1416,1392,1350,1336,1337,1316,1275,1261,1223,1218,1190,1162,1083,1086,1092,1071,1092,1093,1098,1115,1113,1126,1181,1176,1150,1187,1139,1187,1170,1182,1180,1138,1162,1200,1169,1160,1193,1173,1153,1180,1168,1175,1179,1177,1145,1436,1440,1465,1555,1789,2165,2452,2661,2689,2697,2662,2599,2556,2504,2451,2398,2375,2292,2253,2191,2134,2081,2032,1978,2061,1933,1922,1764,1711,1662,1606,1557,1517,1472,1462,1544,1476,1487,1586,1585,1591,1634,1616,1614,1613,1647,1612,1640,1633,1627,1628,1651,1664,1662,1646,1637,1610,1623,1610,1603,1594,1623,1626,1633,1582,586,587,589,591,600,655,740,824,906,951,955,940,925,910,895,881,862,851,836,821,806,791,776,761,743,731,716,698,686,671,656,642,627,612,598,592,596,597,578,583,599,616,595,606,585,602,585,614,593,586,593,596,608,621,606,599,605,592,603,606,600,607,585,594,588,577,619,580,582,591,644,726,810,891,937,941,927,911,896,882,868,852,837,823,808,794,779,764,749,735,721,705,691,675,661,647,632,617,602,589,585,587,588,585,598,585,594,600,596,607,623,594,596,596,598,594,590,593,602,603,594,598,592,592,598,590,606,593,605,592,805,848,810,823,849,953,1064,1188,1276,1315,1312,1307,1271,1249,1229,1209,1187,1166,1146,1125,1105,1083,1074,1041,1022,1001,990,958,976,955,896,875,854,843,820,826,855,821,832,843,837,846,848,859,852,860,843,856,846,856,851,844,839,847,851,854,844,848,840,845,843,861,866,856,844,700,705,720,725,721,773,927,1046,1095,1173,1173,1153,1120,1059,1067,1019,1063,1007,1026,996,935,933,948,912,886,896,854,859,817,799,793,743,766,726,694,717,730,735,718,724,720,729,731,728,731,745,718,730,723,724,729,737,738,731,738,735,728,725,739,735,721,729,730,736,728,563,565,566,568,574,590,643,696,748,791,867,792,796,773,763,753,743,734,724,714,705,695,685,675,666,655,646,636,627,643,607,597,588,592,577,564,573,574,555,565,565,577,571,579,568,584,567,575,569,563,569,578,577,578,578,576,573,571,587,582,570,580,576,586,579,1220,1266,1252,1359,1503,1823,1997,2083,2175,2128,2210,2072,2035,2062,2022,1982,1995,1902,1836,1777,1792,1747,1702,1642,1593,1618,1519,1527,1479,1454,1354,1396,1348,1276,1266,1266,1304,1330,1367,1369,1366,1396,1420,1413,1394,1392,1410,1443,1406,1448,1450,1450,1399,1402,1424,1428,1428,1405,1447,1491,1441,1440,1447,1425,1422,1305,1342,1317,1370,1492,1677,1835,1972,2100,2091,2102,2098,2090,2008,1945,1916,1885,1851,1841,1786,1753,1718,1678,1655,1628,1590,1557,1543,1539,1451,1424,1398,1356,1326,1343,1311,1397,1317,1395,1398,1355,1350,1395,1378,1389,1396,1391,1397,1448,1398,1407,1421,1419,1426,1397,1426,1437,1438,1471,1427,1417,1424,1478,1407,1412,644,646,648,713,666,733,829,926,1012,1100,1056,1041,1023,1006,989,973,956,939,922,956,889,933,855,838,822,805,832,771,755,738,723,704,688,671,659,718,655,657,660,661,668,682,685,671,668,668,675,677,706,687,706,717,732,720,767,723,684,683,672,676,666,679,687,677,667,850,899,882,935,932,1072,1160,1285,1449,1433,1402,1381,1358,1337,1351,1302,1317,1250,1275,1246,1228,1170,1147,1194,1099,1078,1034,1109,1013,992,971,948,979,906,895,928,892,868,911,881,889,886,897,905,897,897,896,911,936,922,921,929,930,937,923,929,916,939,946,943,938,929,951,955,951,919,962,924,950,986,1158,1242,1377,1488,1498,1492,1469,1445,1458,1397,1396,1349,1326,1302,1299,1256,1231,1208,1235,1161,1127,1113,1089,1095,1041,1044,1035,970,964,935,978,935,952,954,943,946,950,984,981,993,990,973,1001,980,966,982,957,959,975,976,966,986,960,957,977,977,998,986,990,984,533,534,536,556,545,617,674,752,830,875,910,867,852,838,824,810,796,782,768,754,782,750,712,698,684,708,656,642,628,649,600,586,572,558,545,541,542,575,545,560,547,563,562,568,553,572,554,556,554,552,552,563,562,562,559,561,561,556,573,572,555,565,550,563,557,635,637,644,646,661,775,815,954,998,1142,1043,1028,1010,968,977,964,943,904,911,901,878,867,844,827,812,795,784,778,744,734,712,697,659,662,748,628,639,675,675,638,646,657,640,668,653,660,659,654,679,653,652,653,649,669,668,657,652,659,653,656,660,656,656,686,663,765,718,738,772,745,859,962,1075,1135,1176,1215,1234,1174,1119,1200,1108,1089,1044,1061,1007,988,969,973,932,944,953,875,886,893,846,800,781,763,744,730,756,758,730,743,736,743,748,749,743,746,741,749,753,748,756,776,790,784,770,758,762,746,755,746,752,744,758,751,756,751,475,476,478,498,483,546,594,663,732,780,816,774,761,749,736,724,711,719,686,674,722,673,636,624,611,653,586,573,561,583,536,523,511,498,486,482,483,516,475,487,484,494,491,498,487,506,485,499,490,484,491,498,502,506,501,496,494,490,510,502,492,495,491,501,494,570,612,573,575,585,640,725,811,894,939,942,928,912,896,882,868,851,836,822,807,792,776,761,746,732,717,701,686,670,656,641,626,610,595,751,578,580,581,595,599,609,607,600,625,605,623,623,609,644,613,615,616,616,628,610,614,609,621,608,609,608,619,602,622,623,516,518,560,520,543,572,632,743,778,849,850,819,800,784,796,787,770,760,722,706,716,688,692,661,643,630,638,625,611,595,565,568,543,541,528,524,525,543,518,510,523,549,531,524,529,531,529,537,538,529,539,562,569,557,580,542,526,537,530,533,522,544,537,550,532,862,852,860,896,911,1023,1140,1405,1357,1450,1390,1369,1345,1298,1301,1282,1256,1259,1212,1196,1168,1185,1142,1100,1121,1076,1040,1028,989,972,945,935,905,879,875,846,877,930,879,894,873,885,902,878,885,908,881,908,892,915,899,907,900,909,914,916,913,906,909,911,917,922,921,913,940,797,680,700,733,701,805,879,1034,1036,1078,1120,1199,1067,1030,1113,1023,1005,962,981,929,933,930,918,878,876,887,811,845,854,801,743,785,723,705,691,717,719,691,692,697,701,732,702,715,700,705,698,697,707,702,700,713,710,720,707,716,712,713,716,706,708,722,694,712,703,1081,1084,1149,1146,1142,1337,1445,1673,1766,1798,1680,1658,1668,1637,1588,1649,1631,1595,1506,1404,1503,1401,1383,1327,1304,1351,1269,1260,1242,1240,1181,1120,1117,1127,1122,1069,1126,1086,1115,1127,1116,1130,1135,1153,1137,1145,1138,1144,1129,1141,1134,1129,1122,1127,1136,1142,1128,1130,1122,1128,1130,1146,1147,1144,1123,255,256,256,257,258,270,305,340,376,411,424,417,410,403,397,390,383,377,370,392,357,350,343,337,330,323,317,310,327,296,290,283,276,270,263,259,259,260,248,251,250,250,253,250,251,254,249,253,248,250,251,255,256,257,256,253,253,250,256,263,253,256,251,254,254,1252,1241,1234,1301,1414,1586,1778,1919,2016,2036,2021,2029,1993,1957,1891,1864,1833,1811,1790,1735,1746,1667,1629,1592,1556,1541,1483,1471,1482,1406,1377,1323,1310,1264,1232,1232,1261,1285,1334,1318,1336,1340,1332,1322,1402,1405,1333,1371,1352,1326,1328,1389,1401,1426,1395,1388,1381,1403,1411,1404,1363,1356,1329,1338,1351,1237,1301,1269,1331,1477,1592,1781,1920,2066,2040,1986,2049,2043,1961,1899,1871,1841,1808,1799,1744,1713,1678,1639,1617,1574,1554,1551,1493,1498,1418,1392,1349,1359,1295,1297,1280,1282,1262,1334,1326,1330,1405,1341,1355,1336,1350,1352,1353,1378,1358,1365,1356,1349,1371,1383,1368,1350,1364,1365,1365,1368,1360,1371,1397,1367,1055,1099,1061,1212,1162,1324,1472,1762,1714,1721,1711,1693,1656,1628,1602,1605,1554,1519,1492,1485,1438,1410,1382,1373,1328,1301,1273,1246,1218,1291,1169,1136,1108,1102,1073,1077,1074,1092,1126,1118,1129,1182,1152,1159,1145,1121,1137,1156,1159,1152,1167,1180,1219,1241,1153,1146,1142,1136,1131,1138,1131,1141,1134,1152,1124,0,0,0,0,0,0,0,0,0,0,0,0,0,0,0,0,0,0,0,0,0,0,0,0,0,0,0,0,0,0,0,0,0,0,0,0,0,0,0,0,0,0,0,0,0,0,0,0,0,0,0,0,0,0,0,0,0,0,0,0,0,0,0,0,0,263,264,265,266,266,280,317,354,392,429,441,434,427,420,413,406,399,392,385,378,371,363,356,349,342,335,328,321,314,307,300,293,286,279,272,267,268,269,259,256,258,258,258,257,261,259,258,261,257,259,263,264,264,263,270,264,261,262,262,266,262,265,262,262,263,349,350,351,401,402,377,427,548,529,574,583,573,564,630,545,537,527,588,577,566,489,545,535,496,452,476,492,482,415,436,396,387,377,368,386,403,404,356,371,363,364,364,369,370,372,372,376,371,371,370,376,374,378,374,372,379,371,379,374,371,376,374,370,369,363,382,383,412,385,407,414,468,522,617,624,632,622,612,602,629,583,572,562,552,542,532,522,512,502,492,550,472,491,480,442,432,422,412,402,392,388,389,390,377,384,381,386,393,385,393,387,383,386,381,386,386,394,388,393,417,416,388,393,389,383,384,384,401,394,385,426,427,453,455,432,495,527,589,650,698,706,695,678,673,661,650,633,664,611,664,594,583,571,560,544,564,526,545,533,493,477,470,485,448,437,432,433,460,445,438,438,439,437,444,441,444,441,444,444,437,439,440,438,439,445,444,440,440,441,444,438,448,441,447,445,465,466,456,459,462,510,576,630,711,760,766,755,739,715,718,710,693,667,669,644,646,620,621,608,597,585,619,560,548,525,524,514,487,488,476,462,473,508,469,472,468,481,473,476,471,480,468,471,475,470,468,473,473,473,475,480,475,477,480,479,473,487,470,479,472,104,104,104,105,105,107,121,135,149,163,174,171,168,166,163,160,157,154,152,149,146,143,141,138,135,132,130,127,124,121,119,116,113,110,108,105,106,106,89,88,90,92,92,89,90,90,90,93,95,92,93,93,97,92,92,94,92,93,93,93,93,94,93,92,92,1059,1100,1063,1082,1144,1278,1442,1591,1694,1720,1711,1744,1657,1660,1601,1579,1553,1524,1520,1470,1443,1413,1388,1361,1334,1307,1338,1256,1266,1195,1168,1144,1114,1093,1079,1077,1078,1081,1136,1123,1118,1206,1174,1167,1159,1144,1168,1206,1160,1223,1262,1213,1137,1182,1183,1184,1179,1158,1244,1341,1292,1285,1297,1213,1212,577,619,580,582,591,644,726,810,891,937,941,927,911,896,882,868,852,837,823,808,794,779,764,749,735,721,705,691,675,661,647,632,617,602,589,585,587,588,585,598,585,594,600,596,607,623,594,596,596,598,594,590,593,602,603,594,598,592,592,598,590,606,593,605,592,643,645,716,673,663,728,822,1014,1026,1044,1047,1031,1013,1117,982,965,949,932,915,900,883,867,949,834,841,800,785,768,776,735,726,703,799,670,667,652,654,656,671,669,685,682,679,703,683,702,701,692,724,697,692,699,697,710,690,689,694,698,690,695,692,702,679,703,702,871,883,876,908,929,1033,1169,1384,1424,1434,1431,1409,1371,1349,1327,1318,1295,1379,1236,1227,1192,1169,1145,1125,1126,1079,1057,1035,1036,990,984,945,972,901,907,883,923,898,912,909,914,919,919,906,921,928,934,920,919,919,919,917,925,922,953,919,920,928,931,925,930,927,919,923,917,607,604,619,621,634,699,796,889,947,1017,1008,992,955,957,944,932,899,902,868,858,859,833,824,801,774,769,761,727,721,706,689,681,666,633,635,631,617,631,626,636,625,629,640,642,646,654,634,652,647,651,639,634,632,642,640,642,636,636,629,631,626,634,632,633,617,295,295,295,310,296,300,313,327,341,355,364,361,358,355,353,350,347,344,342,339,336,334,331,328,339,323,320,317,314,312,309,306,304,315,298,296,296,297,280,287,278,284,287,292,288,299,289,284,293,289,287,284,285,289,285,284,286,287,282,284,280,287,284,286,278,1040,1070,1086,1090,1230,1433,1588,1837,1909,1850,1836,1803,1771,1738,1706,1733,1641,1598,1630,1591,1511,1519,1463,1448,1412,1345,1316,1275,1270,1246,1186,1197,1160,1094,1075,1116,1088,1075,1106,1133,1143,1110,1116,1133,1154,1145,1137,1127,1188,1124,1150,1130,1145,1160,1173,1185,1172,1142,1154,1153,1141,1136,1136,1199,1116,1096,1152,1102,1161,1209,1344,1518,1649,1772,1790,1805,1774,1725,1697,1669,1641,1613,1585,1549,1530,1493,1474,1446,1418,1404,1362,1334,1307,1279,1251,1223,1314,1153,1131,1115,1126,1184,1159,1159,1183,1174,1190,1182,1161,1175,1191,1187,1210,1175,1175,1187,1196,1252,1189,1222,1185,1207,1206,1206,1184,1213,1220,1203,1218,1213,454,455,456,458,460,498,563,607,663,666,664,676,670,665,660,664,655,644,630,600,593,586,610,582,575,560,555,556,544,523,511,500,488,476,464,460,462,463,461,457,461,471,464,465,462,473,467,468,467,465,457,456,465,464,478,460,461,470,470,469,464,463,462,461,460,697,711,709,666,712,778,900,948,1023,1021,1015,1102,1010,1056,990,1043,976,960,940,953,894,963,900,868,856,825,826,815,805,781,763,746,730,737,698,695,698,700,701,707,700,732,710,702,712,724,708,723,725,721,718,707,701,708,716,716,703,710,698,705,697,705,708,706,690,1039,988,1059,1032,1062,1193,1392,1643,1619,1626,1596,1571,1544,1635,1494,1458,1444,1481,1392,1367,1342,1349,1407,1266,1308,1232,1208,1212,1179,1143,1095,1063,1174,1031,1012,998,1027,1020,1047,1028,1039,1043,1044,1063,1045,1051,1052,1063,1088,1075,1075,1083,1080,1091,1074,1075,1073,1088,1092,1103,1085,1083,1095,1111,1100,362,355,356,364,357,370,395,421,458,470,477,472,467,462,457,452,447,442,437,433,428,423,418,460,408,403,398,393,389,384,379,374,369,364,359,357,358,358,354,345,346,347,353,350,354,347,354,353,351,349,360,354,355,349,347,356,350,358,346,348,355,353,349,346,342,751,753,755,785,832,872,1042,1103,1218,1229,1296,1302,1189,1170,1182,1131,1142,1176,1073,1053,1061,1014,1027,1001,977,978,916,915,899,905,871,853,840,779,801,762,826,819,810,801,797,805,815,838,807,818,818,844,813,810,809,814,813,804,817,818,815,818,807,818,818,818,810,818,810,661,618,620,622,634,697,790,883,969,1013,1016,999,983,967,951,934,918,902,886,870,853,837,821,805,789,772,756,740,724,708,691,675,659,643,629,625,627,629,613,614,624,639,628,632,623,634,622,646,628,624,638,638,656,666,646,638,640,642,640,634,645,662,637,644,632,296,297,298,299,300,316,358,399,441,481,493,485,477,469,461,454,446,438,430,422,414,407,399,391,383,375,367,360,352,344,336,328,321,313,305,300,301,302,284,292,289,305,297,293,291,295,287,292,291,294,289,286,287,289,289,289,294,291,287,294,288,301,291,291,289,636,638,664,690,657,724,821,957,1028,1046,1087,1032,1014,1049,1031,965,948,931,913,932,915,887,846,831,838,796,780,763,808,730,720,696,745,663,706,645,647,649,657,663,660,675,670,669,671,683,670,682,671,669,678,675,677,679,683,678,690,682,678,668,678,687,684,686,687,665,667,671,672,688,758,884,958,1050,1127,1094,1105,1078,1038,1044,1031,996,948,945,937,922,878,904,881,864,834,813,811,762,778,742,727,722,693,678,677,677,697,663,651,655,663,680,648,653,656,659,679,683,678,674,799,678,664,797,683,675,683,685,683,682,677,695,693,700,993,996,972,1015,1132,1211,1387,1511,1574,1578,1677,1685,1537,1537,1542,1485,1489,1479,1408,1382,1348,1296,1303,1271,1242,1237,1170,1163,1175,1141,1101,1078,1059,1024,1018,981,1029,1000,1074,1022,1035,1054,1036,1069,1046,1080,1061,1051,1083,1054,1080,1082,1089,1080,1053,1045,1063,1067,1061,1044,1058,1068,1045,1067,1054,624,580,581,583,592,631,712,792,870,949,954,905,891,877,945,870,882,819,805,848,777,762,765,734,757,705,722,698,662,663,634,633,618,603,578,587,588,589,583,584,583,586,595,596,622,629,594,605,600,603,600,593,594,615,609,599,601,592,587,598,594,605,596,608,592,1231,1228,1252,1374,1406,1594,1834,1904,2002,2065,2071,1986,1882,1921,1880,1897,1844,1846,1756,1730,1693,1638,1601,1593,1552,1531,1499,1453,1457,1403,1359,1356,1293,1268,1279,1261,1241,1249,1307,1300,1321,1321,1333,1368,1333,1345,1341,1346,1368,1344,1349,1357,1352,1360,1346,1340,1345,1353,1343,1350,1353,1367,1343,1353,1360,301,302,303,304,305,323,364,409,452,496,504,496,488,482,472,464,456,448,440,432,424,415,407,399,391,451,375,367,359,351,343,335,327,319,311,306,307,310,320,289,288,291,328,322,303,296,297,301,342,322,348,339,356,317,340,308,318,362,381,340,312,327,365,370,310,1029,1032,1051,1076,1156,1288,1459,1595,1741,1706,1665,1650,1627,1623,1582,1588,1557,1533,1490,1461,1472,1423,1408,1376,1343,1311,1320,1267,1215,1183,1151,1179,1109,1059,1041,1101,1053,1058,1090,1090,1093,1115,1098,1096,1101,1113,1107,1172,1116,1111,1180,1181,1205,1138,1118,1112,1105,1128,1107,1099,1106,1126,1107,1127,1110,1065,1121,1049,1109,1167,1254,1462,1595,1690,1739,1755,1703,1676,1649,1622,1595,1529,1541,1514,1524,1452,1433,1406,1380,1314,1287,1260,1272,1207,1242,1153,1150,1123,1100,1090,1058,1138,1128,1104,1150,1104,1115,1123,1114,1120,1135,1128,1130,1151,1120,1129,1133,1137,1141,1138,1151,1151,1143,1159,1120,1149,1159,1175,1142,1143,1137,1125,1205,1190,1249,1401,1586,1829,1844,1847,1814,1785,1755,1849,1698,1669,1639,1618,1580,1646,1531,1494,1580,1436,1474,1395,1367,1337,1331,1262,1286,1204,1285,1169,1157,1137,1141,1160,1250,1218,1211,1296,1265,1265,1254,1230,1244,1275,1285,1262,1273,1280,1249,1251,1237,1268,1274,1268,1302,1307,1248,1233,1288,1225,1223,343,351,345,346,348,369,466,466,515,520,531,561,517,510,534,497,516,507,498,488,479,470,461,452,443,462,425,416,407,398,389,379,371,362,360,348,387,350,337,335,347,362,338,342,338,347,354,341,346,340,342,347,343,349,346,348,348,358,348,355,353,380,376,381,384,0,0,0,0,0,0,0,0,0,0,0,0,0,0,0,0,0,0,0,0,0,0,0,0,0,0,0,0,0,0,0,0,0,0,0,0,0,0,0,0,0,0,0,0,0,0,0,0,0,0,0,0,0,0,0,0,0,0,0,0,0,0,0,0,0,498,499,502,502,507,552,630,699,746,812,829,800,802,786,796,761,723,711,698,709,698,681,647,634,621,671,614,600,590,575,581,548,534,522,527,507,506,513,506,509,502,513,513,517,527,530,515,510,514,521,517,508,509,522,516,513,513,518,507,515,508,515,514,518,508,531,533,536,536,542,591,706,747,827,908,878,911,849,832,842,833,800,780,781,752,740,722,716,710,696,669,652,638,628,638,594,583,569,556,542,541,540,547,534,533,538,534,541,540,563,546,546,553,563,546,547,549,561,569,550,557,550,549,560,555,550,561,550,601,555,615,616,618,640,634,696,788,881,999,1028,1053,1147,1023,1096,972,1041,916,900,884,867,878,835,819,803,811,771,754,738,719,753,717,674,657,641,628,674,626,627,644,644,634,692,675,649,653,670,656,676,707,671,674,655,646,654,666,662,649,648,638,645,641,642,659,652,624,587,589,591,619,621,661,789,835,945,961,1022,950,934,919,904,889,873,858,843,828,812,797,815,766,773,771,720,724,712,674,683,669,670,613,611,596,652,629,617,624,654,799,653,609,637,700,666,619,737,707,633,654,739,721,724,615,644,640,678,660,623,651,636,628,631,243,244,245,245,246,260,291,325,360,383,396,400,394,383,385,374,368,361,355,348,342,335,341,336,332,310,303,297,290,284,277,271,264,258,251,247,248,248,234,240,235,245,236,239,235,239,235,233,236,238,233,234,235,236,235,240,235,238,238,240,234,245,234,239,236,865,868,870,876,906,1002,1133,1261,1360,1388,1352,1342,1324,1325,1289,1280,1276,1235,1217,1209,1187,1165,1143,1113,1098,1076,1053,1031,1009,986,964,942,920,898,882,878,880,924,904,879,892,885,912,909,898,889,894,913,952,931,934,937,943,929,940,925,919,947,954,940,925,921,947,957,951,643,645,716,673,663,728,822,1014,1026,1044,1047,1031,1013,1117,982,965,949,932,915,900,883,867,949,834,841,800,785,768,776,735,726,703,799,670,667,652,654,656,671,669,685,682,679,703,683,702,701,692,724,697,692,699,697,710,690,689,694,698,690,695,692,702,679,703,702,471,472,474,475,478,516,582,648,713,761,768,756,744,732,720,709,697,685,673,661,649,637,625,613,601,589,577,565,553,541,529,517,505,493,482,478,479,480,470,468,473,483,478,472,469,471,480,483,501,486,534,573,634,524,495,490,478,483,476,478,471,483,480,486,477,699,710,703,705,726,801,906,1011,1101,1142,1158,1125,1157,1089,1070,1052,1034,1016,998,980,974,944,969,919,901,871,853,835,817,799,781,763,745,727,713,745,711,713,717,717,720,716,714,713,725,722,714,714,722,717,716,722,724,718,718,717,723,723,723,717,723,723,720,720,725,618,596,615,639,607,695,748,835,890,932,945,918,908,894,897,865,846,831,821,807,794,778,784,797,784,716,769,691,694,677,689,633,615,604,636,579,629,587,584,572,577,583,601,569,573,576,579,598,601,598,593,718,598,585,716,600,592,599,603,600,599,594,613,611,617,607,609,567,571,579,631,770,851,867,916,918,907,907,901,864,850,843,821,803,803,792,764,750,735,721,706,687,695,710,649,635,620,606,592,579,575,576,589,576,573,579,590,587,584,595,583,580,591,605,584,600,606,600,590,631,608,586,584,582,587,580,593,595,594,584,1214,1239,1179,1254,1392,1592,1881,2025,2034,2054,2037,2002,2050,1930,1894,1945,1878,1802,1764,1754,1723,1713,1609,1573,1580,1541,1458,1430,1423,1344,1323,1288,1253,1228,1235,1197,1224,1239,1281,1291,1281,1367,1327,1326,1318,1309,1317,1348,1321,1333,1326,1332,1292,1311,1305,1327,1330,1302,1321,1344,1318,1306,1325,1299,1297,1375,1374,1330,1384,1597,1818,2004,2331,2302,2315,2291,2215,2223,2132,2092,2105,2046,2006,1925,1914,1897,1883,1812,1766,1740,1648,1643,1656,1593,1516,1429,1388,1349,1368,1359,1361,1369,1356,1398,1384,1389,1391,1403,1428,1422,1415,1415,1434,1444,1427,1435,1426,1426,1453,1465,1436,1445,1452,1451,1470,1458,1455,1478,1517,1488,744,743,728,737,765,842,972,1084,1166,1170,1158,1187,1155,1118,1120,1079,1057,1031,1039,1024,985,982,964,986,913,895,909,859,867,823,805,788,757,739,737,734,733,738,731,730,738,751,744,748,753,763,752,749,763,753,784,777,782,768,743,741,753,752,755,738,747,758,744,756,751,978,977,1014,997,1071,1147,1313,1444,1519,1518,1502,1525,1563,1447,1444,1398,1548,1401,1408,1324,1327,1273,1250,1317,1271,1237,1175,1166,1124,1131,1106,1031,1035,1004,994,987,1005,975,993,1000,1011,1035,1028,1034,1024,1028,1005,1022,1014,1004,1013,1023,1024,1026,1051,1037,1007,1009,1020,1021,1013,1022,1027,1034,1014,812,841,832,862,858,943,1208,1201,1313,1327,1377,1303,1282,1261,1240,1211,1220,1177,1193,1156,1114,1093,1072,1070,1078,1009,988,967,946,918,904,883,889,841,827,824,826,828,832,832,827,827,854,878,841,854,850,879,861,875,858,867,858,873,847,851,863,850,846,879,866,879,863,862,867,527,528,489,490,494,537,665,743,750,797,804,791,778,766,753,740,727,714,702,689,676,663,650,637,625,612,599,617,621,561,548,535,522,509,497,493,494,496,507,484,502,492,490,490,524,493,486,486,504,499,496,495,499,500,491,504,498,501,503,498,492,501,503,522,494,512,539,496,505,509,599,618,744,794,820,861,832,819,786,792,803,792,775,762,754,740,726,660,671,678,670,651,642,604,569,588,583,550,524,541,501,519,540,522,522,516,519,546,541,561,547,532,555,539,538,541,526,525,539,534,531,545,527,522,539,534,548,541,538,529,883,878,881,887,936,1052,1180,1313,1427,1432,1428,1434,1383,1360,1337,1314,1292,1269,1278,1223,1200,1213,1155,1130,1109,1086,1084,1041,1041,1015,996,949,915,927,1028,888,880,912,893,889,898,911,925,898,888,898,893,943,922,917,917,1042,939,945,1054,929,928,921,934,935,935,936,931,937,937,469,470,430,432,434,468,585,653,653,701,710,698,687,676,664,653,642,630,619,608,597,585,574,563,551,540,529,518,554,495,484,472,461,450,439,434,435,437,425,426,430,441,425,432,426,431,433,426,432,424,427,429,429,433,429,430,431,432,431,438,430,439,429,434,431,463,465,466,468,471,511,579,648,716,763,770,758,745,733,721,708,696,684,671,659,647,634,622,610,598,585,573,561,548,536,524,511,499,487,475,470,472,473,467,468,458,472,470,472,485,488,468,469,472,484,478,467,469,477,473,475,472,472,463,465,463,469,472,470,457,343,344,345,346,347,367,414,462,510,555,566,557,549,540,531,522,513,504,495,486,477,468,459,451,442,433,424,415,406,397,388,379,370,361,353,348,349,350,340,346,342,343,347,345,347,353,341,349,341,343,347,350,354,353,353,347,345,342,354,357,343,348,345,348,346,691,754,692,721,770,789,894,1037,1087,1168,1166,1176,1126,1078,1089,1080,1061,1043,1025,969,951,976,941,947,879,861,842,828,851,788,791,755,734,716,702,746,738,740,722,700,699,703,747,737,720,717,725,723,752,751,783,755,774,741,771,740,758,785,817,787,760,774,806,816,758,845,840,842,862,908,976,1174,1215,1366,1386,1356,1342,1315,1272,1271,1250,1209,1256,1221,1146,1125,1126,1104,1061,1042,1021,1021,1000,967,971,976,908,875,889,853,849,841,872,866,859,862,862,862,858,863,871,868,866,860,866,869,876,874,876,871,874,871,871,873,885,876,882,868,870,876,935,934,932,921,978,1111,1353,1403,1485,1512,1524,1473,1449,1436,1401,1388,1364,1391,1348,1291,1282,1260,1241,1244,1162,1161,1123,1081,1075,1062,1032,975,973,949,957,959,943,925,974,952,952,970,1007,1011,973,1024,998,1066,1016,993,996,970,999,1000,990,966,1014,990,971,992,994,1030,991,1006,981,427,425,430,432,434,468,530,589,653,701,707,698,685,675,664,653,642,629,616,606,595,584,574,563,548,540,529,518,506,495,484,471,461,446,439,435,435,433,445,425,425,427,457,458,441,439,444,442,458,468,501,473,470,470,477,454,469,475,507,516,481,498,496,515,471,1202,1201,1169,1217,1362,1548,1836,1981,1990,2011,1994,1959,1974,1888,1853,1885,1773,1747,1735,1733,1641,1635,1571,1535,1511,1465,1430,1394,1387,1324,1288,1319,1218,1194,1200,1183,1189,1217,1258,1239,1252,1274,1264,1272,1256,1268,1269,1269,1277,1257,1273,1298,1323,1312,1305,1284,1254,1284,1267,1268,1258,1291,1274,1300,1266,1292,1298,1270,1343,1502,1759,1951,2093,2191,2212,2164,2166,2126,2070,2041,2035,1961,1909,1869,1840,1799,1777,1708,1668,1641,1610,1548,1546,1503,1427,1396,1355,1308,1292,1275,1277,1284,1291,1364,1350,1355,1350,1351,1356,1430,1426,1358,1395,1384,1358,1357,1412,1420,1436,1429,1441,1420,1447,1441,1411,1390,1395,1364,1368,1365,948,951,970,966,1026,1145,1395,1436,1552,1551,1545,1520,1496,1479,1446,1421,1418,1372,1347,1343,1298,1273,1248,1242,1199,1174,1149,1125,1100,1217,1050,1026,1001,979,966,963,971,968,1000,991,989,996,990,996,1062,1059,994,1027,1012,996,996,1044,1054,1066,1061,1069,1052,1065,1068,1042,1024,1028,1003,1003,999,294,295,295,296,283,297,354,395,413,475,464,480,449,442,435,427,420,413,426,398,391,403,376,388,361,372,364,339,332,341,334,310,318,310,288,283,284,300,280,280,278,289,279,281,280,285,279,284,282,281,284,282,285,284,282,285,287,285,285,279,284,286,285,286,286,361,362,364,365,366,394,443,495,547,593,603,594,584,572,565,555,545,536,526,516,507,497,487,478,466,458,452,439,432,421,410,400,392,383,371,367,368,369,376,358,360,361,370,373,362,368,362,365,366,363,368,366,368,376,376,370,364,369,368,378,371,370,370,376,371,0,0,0,0,0,0,0,0,0,0,0,0,0,0,0,0,0,0,0,0,0,0,0,0,0,0,0,0,0,0,0,0,0,0,0,0,0,0,0,0,0,0,0,0,0,0,0,0,0,0,0,0,0,0,0,0,0,0,0,0,0,0,0,0,0,208,209,210,210,211,218,246,275,303,331,345,340,334,329,324,318,313,307,302,297,291,286,280,275,270,264,259,253,248,243,237,232,226,221,216,212,212,213,198,200,201,201,200,202,203,201,201,201,202,201,201,210,202,205,202,202,202,202,202,203,203,202,201,201,203,481,491,484,486,498,531,659,672,742,790,810,784,772,759,746,734,721,708,696,694,670,657,645,632,629,655,594,581,569,556,543,530,518,548,493,489,533,519,498,500,494,503,500,503,508,517,503,500,502,509,506,499,499,508,506,503,499,508,495,502,496,500,501,500,495,349,350,332,333,334,376,400,487,523,535,593,568,559,624,541,546,540,530,505,495,486,477,443,459,462,441,443,423,414,383,406,399,377,348,366,335,353,364,347,342,347,348,357,358,345,355,348,351,353,353,353,354,357,369,362,364,349,358,355,365,365,363,365,374,364,238,239,239,240,241,251,285,318,351,385,398,392,385,379,373,366,360,354,347,341,335,328,322,316,309,303,297,290,284,278,271,265,259,252,246,242,242,243,228,226,224,223,225,234,228,230,231,233,231,238,240,231,250,242,263,232,233,249,235,243,235,231,243,231,233,1160,1163,1168,1164,1276,1415,1613,1808,1783,1839,1806,1778,1751,1739,1728,1669,1692,1613,1587,1603,1533,1519,1535,1451,1454,1392,1362,1334,1336,1266,1260,1247,1179,1157,1147,1144,1174,1150,1195,1182,1183,1191,1191,1221,1221,1229,1210,1219,1239,1222,1236,1235,1237,1261,1250,1215,1223,1235,1231,1246,1233,1223,1245,1283,1246,471,472,474,475,478,516,582,648,713,761,768,756,744,732,720,709,697,685,673,661,649,637,625,613,601,589,577,565,553,541,529,517,505,493,482,478,479,480,470,468,473,483,478,472,469,471,480,483,501,486,534,573,634,524,495,490,478,483,476,478,471,483,480,486,477,455,456,458,459,461,497,560,624,687,735,743,731,719,708,696,685,673,662,650,639,627,616,604,593,581,569,558,546,535,523,512,500,489,477,466,509,463,464,458,455,462,458,473,493,462,457,461,478,476,476,473,479,477,472,469,472,465,471,464,473,477,479,478,475,485,683,643,645,690,661,781,822,917,1075,1117,1050,1034,1083,1066,984,967,1012,934,977,959,884,924,906,888,871,853,785,818,800,782,764,701,729,711,673,651,652,654,662,670,668,671,691,662,676,692,676,668,687,671,690,678,690,692,848,798,708,686,677,674,674,669,689,703,666,596,612,611,573,579,712,779,912,947,981,977,961,942,938,916,941,905,876,874,886,842,811,791,795,762,766,731,740,682,652,658,620,641,626,628,576,618,607,590,595,601,632,601,611,593,601,596,592,602,600,595,610,608,617,605,613,609,613,615,608,607,621,594,607,602,679,681,681,685,704,774,870,970,1060,1135,1104,1168,1102,1052,1033,1017,1000,994,999,981,927,951,906,880,862,844,827,810,855,789,759,740,724,706,693,689,691,693,690,687,697,712,709,702,699,701,701,712,715,707,708,745,763,748,738,713,706,717,710,706,698,721,705,722,701,1238,1284,1253,1363,1545,1698,2015,2145,2108,2199,2121,2117,2090,2034,2000,1963,1938,1892,1918,1853,1786,1717,1741,1679,1638,1591,1530,1519,1466,1462,1383,1358,1291,1265,1293,1282,1303,1295,1337,1330,1326,1345,1445,1426,1378,1412,1371,1475,1427,1432,1417,1374,1383,1433,1421,1379,1445,1418,1397,1445,1415,1472,1444,1466,1418,1399,1403,1429,1510,1747,1990,2219,2359,2406,2387,2403,2367,2322,2271,2205,2194,2202,2141,2112,2105,1994,1872,1907,1842,1798,1747,1718,1620,1628,1632,1512,1464,1453,1484,1426,1446,1405,1423,1490,1487,1488,1498,1491,1527,1493,1496,1521,1597,1504,1519,1524,1527,1541,1551,1559,1543,1533,1531,1531,1545,1549,1549,1537,1555,1544,839,839,831,835,898,995,1144,1248,1344,1393,1351,1372,1381,1301,1309,1240,1240,1216,1228,1206,1146,1152,1108,1088,1060,1030,1041,990,1007,948,928,931,921,889,854,870,861,885,885,874,873,870,905,940,890,907,904,935,919,942,934,936,912,939,909,907,920,905,914,971,943,962,942,936,945,1072,1073,1066,1088,1227,1311,1498,1605,1695,1749,1758,1707,1712,1681,1630,1557,1552,1524,1530,1571,1498,1431,1391,1424,1334,1338,1305,1250,1262,1211,1210,1171,1114,1124,1142,1105,1098,1083,1120,1128,1128,1139,1162,1154,1145,1160,1136,1152,1159,1182,1181,1189,1181,1160,1153,1158,1170,1179,1172,1152,1174,1173,1147,1151,1151,796,887,816,804,838,951,1052,1201,1262,1326,1471,1279,1272,1237,1231,1196,1175,1155,1134,1106,1093,1072,1071,1030,1010,990,969,948,928,937,887,882,861,825,811,855,810,839,828,820,837,831,841,871,830,840,851,850,861,851,853,858,852,859,845,846,837,859,839,859,856,862,855,860,881,598,600,602,604,616,676,767,857,940,1002,987,985,974,939,922,908,892,877,895,878,829,851,796,783,767,750,735,719,702,688,672,655,641,625,611,608,609,611,599,603,607,613,618,617,624,609,609,622,611,608,619,616,614,616,634,621,615,615,617,614,622,619,615,623,614,426,427,429,430,432,465,526,587,648,696,775,694,683,671,660,649,638,627,616,604,593,582,571,560,549,537,526,515,504,493,481,470,459,448,437,432,434,435,418,419,422,423,456,424,425,425,425,429,438,449,430,431,432,430,460,438,432,431,442,433,433,433,435,434,435,991,1000,984,1061,1103,1223,1345,1483,1601,1638,1682,1605,1577,1568,1516,1471,1437,1449,1411,1401,1378,1350,1302,1258,1263,1207,1199,1158,1131,1107,1081,1056,1120,1040,1001,993,1072,1047,1044,1074,1034,1036,1060,1051,1046,1057,1053,1066,1073,1047,1062,1055,1063,1069,1075,1076,1065,1073,1099,1067,1076,1077,1093,1076,1067,540,542,544,545,553,604,685,765,843,907,893,893,883,850,834,822,808,794,813,798,750,774,721,708,694,679,665,651,636,622,609,593,580,566,553,549,550,552,537,542,549,559,554,559,545,554,542,576,552,552,556,555,575,594,569,561,570,556,564,565,570,578,553,560,553,448,449,450,452,454,492,558,624,689,737,744,732,721,709,697,685,673,661,649,637,625,613,601,589,578,566,554,542,530,518,506,494,482,470,459,502,456,457,454,460,468,486,464,456,462,472,468,455,511,499,457,476,510,508,523,463,468,477,499,464,454,468,473,456,453,232,232,233,234,234,243,274,305,336,367,382,377,371,365,359,353,347,341,335,329,323,317,311,305,299,293,287,281,275,269,263,257,251,245,239,235,236,236,224,226,225,228,230,230,228,227,226,227,230,230,243,249,246,233,231,231,234,234,238,232,233,231,226,228,230,576,616,599,623,631,686,733,820,939,947,953,944,923,908,935,877,862,874,831,843,801,785,797,755,766,724,709,750,752,736,686,671,618,602,628,585,635,588,607,600,611,626,621,617,613,618,616,628,632,629,625,661,679,662,653,629,621,638,626,621,614,636,623,637,617,970,962,946,958,1035,1160,1252,1384,1525,1543,1590,1514,1522,1481,1431,1407,1355,1391,1333,1326,1261,1295,1253,1189,1246,1163,1136,1111,1086,1049,1040,1016,1037,1001,963,954,975,1008,1001,1006,961,960,1015,994,990,996,993,1011,1058,1006,1026,1038,1042,1019,1021,1031,1034,1054,1089,1037,1020,1045,1097,1047,1017,820,868,840,807,853,957,1071,1176,1295,1356,1332,1286,1313,1257,1260,1281,1212,1191,1176,1115,1151,1105,1099,1032,1058,1020,1014,971,973,928,875,934,845,849,851,884,834,823,846,845,862,871,861,882,869,894,883,871,907,879,897,907,891,911,869,866,879,890,879,870,879,884,867,886,883,529,537,550,534,541,606,706,789,838,890,948,881,867,872,829,793,790,795,827,772,762,721,707,702,693,682,651,659,643,629,637,582,568,554,534,555,546,558,547,549,545,554,547,548,547,548,548,544,548,547,548,547,552,553,553,557,549,552,552,559,552,568,552,556,554,1219,1230,1260,1330,1447,1654,1998,2017,2166,2104,2079,2075,2031,1968,1937,1922,1898,1852,1831,1814,1740,1679,1667,1688,1572,1519,1494,1463,1431,1406,1348,1323,1280,1254,1287,1260,1268,1261,1318,1307,1297,1304,1318,1361,1342,1364,1341,1359,1359,1369,1371,1371,1355,1401,1389,1343,1361,1360,1367,1417,1378,1387,1390,1443,1384,1316,1320,1337,1427,1632,1878,2143,2228,2274,2321,2273,2252,2203,2148,2112,2102,2084,2027,1986,1999,1886,1820,1804,1741,1699,1650,1633,1584,1538,1516,1446,1424,1369,1385,1342,1361,1363,1358,1445,1420,1425,1432,1440,1464,1482,1486,1459,1488,1464,1438,1433,1497,1501,1489,1490,1506,1494,1510,1490,1484,1486,1473,1445,1452,1440,1042,951,954,949,1014,1145,1282,1436,1492,1550,1544,1496,1495,1447,1445,1399,1374,1350,1326,1301,1277,1253,1248,1211,1180,1155,1131,1107,1082,1058,1034,1025,1072,963,949,1000,949,952,994,971,976,970,1013,1043,989,999,1009,1037,1022,1058,1049,1058,1020,1036,1034,1019,1022,1026,1038,1106,1061,1068,1059,1050,1073,378,379,380,381,383,409,463,517,570,617,627,617,607,597,587,577,567,557,547,537,566,517,507,497,488,478,468,458,448,438,428,418,408,398,388,412,385,386,379,372,384,397,387,386,380,386,388,394,399,387,396,426,445,425,420,400,380,404,386,381,379,402,395,406,384,474,474,477,478,481,523,593,662,732,779,786,787,758,748,735,725,712,696,687,706,660,649,640,622,610,602,584,575,559,545,532,521,510,498,487,480,483,484,471,477,472,480,584,536,511,539,504,599,529,542,538,491,501,529,511,494,561,509,493,540,521,582,542,547,515,113,114,114,114,115,117,133,148,164,180,191,188,185,182,179,176,173,170,167,164,161,158,155,152,148,145,142,139,136,133,130,127,124,121,118,115,115,116,100,101,101,102,101,102,103,102,102,102,102,102,101,105,102,103,102,102,102,102,102,102,102,102,101,101,102,0,0,0,0,0,0,0,0,0,0,0,0,0,0,0,0,0,0,0,0,0,0,0,0,0,0,0,0,0,0,0,0,0,0,0,0,0,0,0,0,0,0,0,0,0,0,0,0,0,0,0,0,0,0,0,0,0,0,0,0,0,0,0,0,0,399,400,402,403,404,433,491,548,651,653,694,720,642,632,621,622,612,601,590,579,568,547,567,591,515,505,504,484,473,472,452,442,439,429,410,433,406,435,409,406,410,416,410,409,411,412,412,411,411,410,416,424,429,422,418,414,411,418,415,414,410,422,414,418,414,333,334,333,336,337,368,416,451,497,541,551,543,534,525,517,508,499,491,482,473,465,456,447,438,427,421,412,404,395,386,378,369,358,349,343,338,339,340,334,328,325,330,346,347,338,340,342,350,346,374,387,373,357,355,368,341,346,365,394,386,366,378,380,399,368,400,401,403,425,427,429,486,582,643,691,684,688,677,634,655,644,632,601,610,579,568,577,565,527,543,532,521,510,474,487,476,465,454,421,422,413,428,430,427,419,415,420,417,435,478,478,423,450,434,419,417,461,465,480,473,478,471,480,476,460,446,432,423,422,418,1246,1341,1285,1302,1423,1593,1776,1896,2000,2010,1981,1964,1939,1890,1858,1830,1828,1770,1777,1757,1719,1670,1701,1622,1549,1557,1503,1472,1438,1398,1395,1363,1325,1303,1283,1265,1295,1308,1375,1368,1361,1388,1420,1412,1394,1388,1405,1438,1412,1445,1448,1443,1390,1395,1415,1425,1428,1407,1453,1498,1438,1434,1455,1417,1417,455,456,458,459,461,497,560,624,687,735,743,731,719,708,696,685,673,662,650,639,627,616,604,593,581,569,558,546,535,523,512,500,489,477,466,509,463,464,458,455,462,458,473,493,462,457,461,478,476,476,473,479,477,472,469,472,465,471,464,473,477,479,478,475,485,840,832,815,845,873,976,1087,1208,1312,1348,1345,1308,1312,1284,1270,1240,1207,1177,1191,1155,1120,1087,1100,1070,1049,1041,1009,963,971,943,922,912,859,839,852,839,886,836,852,851,854,852,863,867,891,891,861,879,881,883,898,897,899,915,883,876,873,868,858,876,869,875,866,885,877,772,774,794,779,844,944,1016,1134,1222,1261,1260,1240,1236,1200,1196,1175,1140,1144,1123,1094,1129,1040,1042,1066,980,960,940,920,900,920,909,896,820,852,798,801,786,788,795,787,797,825,806,824,789,810,793,783,801,806,789,815,813,835,823,838,808,829,828,822,836,843,822,843,824,956,969,946,969,1046,1142,1339,1482,1505,1591,1559,1506,1526,1473,1458,1451,1433,1417,1349,1368,1297,1321,1260,1262,1198,1185,1162,1094,1117,1078,1067,1040,1011,995,979,971,962,949,990,1000,957,953,994,975,984,990,986,989,1039,992,1000,1016,1012,1009,994,1015,1020,1027,1058,1009,1004,1013,1057,997,991,847,840,837,846,856,957,1128,1118,1203,1245,1247,1231,1213,1279,1263,1163,1146,1143,1112,1096,1079,1062,1045,1027,1011,994,977,961,944,941,910,895,887,860,841,850,844,874,850,851,852,862,864,858,864,876,864,871,876,881,955,955,961,904,878,869,875,873,863,871,877,868,864,873,868,1453,1419,1440,1543,1783,2039,2279,2527,2500,2475,2448,2404,2359,2347,2305,2226,2181,2136,2092,2182,2010,1958,1914,1869,1889,1780,1735,1691,1671,1599,1557,1513,1513,1450,1443,1469,1477,1463,1557,1547,1560,1566,1573,1605,1567,1575,1588,1580,1606,1578,1596,1590,1590,1589,1574,1588,1572,1597,1566,1582,1589,1605,1583,1589,1591,1358,1287,1327,1414,1601,1875,2119,2338,2311,2324,2299,2257,2174,2172,2164,2087,2007,2002,1960,1968,1882,1832,1756,1748,1705,1631,1620,1578,1506,1490,1422,1408,1381,1346,1310,1341,1321,1357,1372,1366,1365,1363,1369,1388,1380,1390,1397,1418,1420,1418,1421,1402,1418,1413,1449,1415,1421,1438,1425,1451,1433,1421,1457,1444,1452,906,922,925,934,973,1148,1297,1400,1443,1501,1492,1469,1446,1484,1401,1373,1351,1327,1286,1263,1255,1231,1209,1187,1161,1123,1099,1089,1066,1099,1068,982,997,936,990,959,922,942,967,963,968,968,975,969,975,976,981,980,970,974,986,991,988,982,976,990,978,986,973,991,973,989,971,974,971,1170,1154,1159,1194,1331,1484,1647,1799,1863,1922,1831,1804,1805,1754,1721,1689,1661,1639,1624,1565,1605,1518,1495,1503,1434,1438,1366,1348,1320,1331,1280,1221,1180,1172,1133,1143,1159,1153,1198,1195,1202,1212,1198,1229,1208,1212,1210,1215,1225,1214,1208,1207,1222,1228,1222,1237,1231,1234,1226,1220,1219,1219,1230,1227,1213,1054,1045,1083,1089,1172,1336,1455,1614,1671,1703,1694,1667,1659,1605,1586,1577,1532,1529,1493,1452,1492,1398,1444,1434,1332,1290,1263,1236,1222,1221,1215,1182,1101,1143,1073,1080,1079,1069,1122,1130,1107,1115,1108,1133,1124,1138,1142,1216,1135,1175,1170,1174,1144,1226,1177,1131,1131,1126,1161,1191,1174,1205,1188,1188,1162,843,859,843,865,877,998,1151,1233,1315,1352,1355,1372,1306,1347,1311,1260,1241,1233,1216,1185,1172,1129,1130,1087,1048,1042,1026,1018,999,940,953,917,876,884,860,851,859,886,856,860,868,902,874,888,863,873,864,858,877,871,896,914,907,891,886,892,883,894,892,882,889,896,870,886,878,602,661,623,608,638,679,769,859,943,988,991,975,960,944,928,912,897,905,889,849,856,818,824,808,771,755,739,723,708,692,676,678,645,646,615,628,613,615,603,614,616,610,634,605,619,639,623,615,640,607,626,615,634,633,798,736,666,630,619,618,621,613,617,654,607,947,958,989,965,1064,1166,1535,1456,1513,1611,1757,1554,1513,1538,1674,1429,1393,1446,1403,1344,1296,1294,1260,1222,1219,1312,1183,1144,1200,1104,1090,1025,1007,995,965,1002,957,967,1008,1007,1012,1016,1015,1020,1024,1042,1024,1029,1021,1024,1030,1028,1030,1029,1035,1045,1037,1040,1039,1031,1049,1040,1039,1044,1037,799,800,784,804,808,993,1077,1179,1220,1259,1303,1282,1217,1259,1217,1199,1177,1177,1136,1134,1095,1053,1072,1014,976,972,951,949,928,876,887,868,816,825,853,792,794,830,836,800,804,807,839,837,848,844,829,856,835,820,835,810,812,828,828,818,837,812,807,829,828,847,836,839,833,833,825,807,838,869,974,1088,1211,1314,1349,1347,1309,1313,1284,1269,1239,1206,1175,1189,1153,1117,1084,1096,1066,1045,1036,1005,958,965,937,916,906,852,832,844,832,879,829,840,841,835,901,869,843,846,866,854,871,898,867,875,855,845,851,867,866,850,853,840,851,847,862,882,873,846,363,364,365,366,368,391,442,493,544,590,600,590,581,572,562,553,543,534,524,515,505,496,510,477,468,458,449,439,430,420,411,402,392,383,373,369,370,371,363,355,363,372,371,369,360,360,368,378,369,370,371,410,424,408,407,374,365,378,370,368,358,374,366,387,362,576,578,596,620,610,648,773,859,938,980,986,937,960,945,929,876,861,908,892,853,861,785,829,776,777,749,734,693,702,701,686,650,617,619,589,602,586,588,593,584,596,609,601,598,592,594,601,608,605,600,607,645,662,642,636,607,595,613,601,601,588,613,600,618,598,910,994,938,924,997,1105,1256,1403,1416,1501,1500,1463,1445,1451,1404,1346,1311,1367,1342,1303,1243,1222,1211,1174,1184,1174,1106,1083,1156,1061,1054,971,956,957,946,964,918,928,958,978,975,992,1053,1024,1001,1043,998,1077,1017,1055,1023,999,1020,1054,1027,1011,1050,1014,1006,1040,1031,1069,1028,1019,1004,723,764,728,730,752,836,965,1074,1175,1150,1166,1158,1171,1121,1102,1188,1120,1047,1028,1010,991,973,1003,938,906,899,880,862,845,826,806,778,769,743,728,721,727,746,721,730,735,752,812,789,749,793,748,840,779,810,785,751,779,817,778,755,814,774,759,793,785,828,779,771,760,486,515,506,490,508,558,608,699,750,824,855,828,798,796,772,750,726,752,725,688,675,663,664,663,650,628,623,586,667,592,590,535,530,527,497,533,487,496,502,506,504,517,518,518,517,517,508,515,523,533,531,539,538,524,526,525,530,541,532,511,531,521,510,514,511,1577,1464,1492,1624,1854,2116,2203,2363,2460,2461,2442,2401,2379,2292,2252,2215,2177,2198,2100,2061,2023,1985,2018,1923,1896,1872,1870,1755,1732,1645,1662,1557,1560,1495,1488,1491,1539,1508,1640,1612,1604,1623,1616,1655,1683,1681,1658,1741,1650,1648,1652,1703,1701,1710,1719,1713,1690,1713,1695,1686,1677,1665,1650,1656,1628,1391,1349,1369,1455,1655,1935,2166,2367,2367,2372,2346,2303,2268,2225,2217,2131,2088,2045,2002,2009,1923,1873,1830,1787,1744,1707,1664,1614,1578,1531,1491,1442,1448,1386,1372,1375,1383,1391,1457,1451,1459,1519,1496,1503,1498,1483,1479,1501,1496,1494,1483,1516,1545,1547,1512,1489,1482,1487,1475,1473,1465,1491,1475,1501,1455,1218,1196,1229,1263,1317,1476,1695,1804,1922,1966,1853,1911,1823,1844,1737,1781,1751,1671,1642,1579,1626,1529,1522,1560,1442,1472,1418,1409,1341,1379,1309,1279,1249,1244,1207,1229,1228,1172,1285,1282,1257,1275,1272,1313,1277,1294,1311,1378,1298,1349,1333,1348,1302,1356,1345,1292,1288,1294,1327,1359,1341,1363,1349,1346,1317,334,335,337,338,339,359,407,458,501,544,555,546,538,529,520,511,502,494,485,476,467,458,450,441,432,423,414,409,397,388,379,370,362,353,387,340,344,385,350,357,351,357,360,363,356,363,351,356,354,353,353,368,362,364,363,363,363,363,376,376,361,370,355,361,360,537,539,541,542,549,668,738,761,840,885,890,876,862,930,916,819,805,790,907,762,748,733,719,705,691,676,662,648,634,619,605,591,577,562,608,545,547,595,561,561,560,564,573,561,571,564,565,563,562,567,568,575,568,576,617,610,575,577,570,567,570,570,587,576,570,434,436,437,439,441,490,555,603,667,715,723,712,730,711,677,665,721,642,631,619,607,596,610,573,561,550,538,526,537,525,492,480,468,457,446,477,442,444,448,447,444,445,447,445,447,446,447,445,446,446,449,447,449,450,452,452,447,448,449,453,452,458,450,452,453,407,408,409,410,412,445,503,558,616,664,672,662,651,626,616,619,613,598,587,577,566,543,539,534,523,513,502,481,481,470,460,444,438,418,417,425,414,415,407,400,410,423,416,414,407,409,415,423,426,414,420,453,471,453,449,426,409,429,412,412,406,426,420,432,411,0,0,0,0,0,0,0,0,0,0,0,0,0,0,0,0,0,0,0,0,0,0,0,0,0,0,0,0,0,0,0,0,0,0,0,0,0,0,0,0,0,0,0,0,0,0,0,0,0,0,0,0,0,0,0,0,0,0,0,0,0,0,0,0,0,718,710,689,676,733,783,910,1092,1119,1158,1159,1096,1157,1060,1029,1033,1015,1010,980,993,1025,931,890,920,901,855,830,824,784,835,791,797,743,716,745,711,709,712,710,709,717,728,722,728,732,743,730,729,740,730,748,746,747,746,723,720,731,731,733,720,726,736,723,735,729,377,378,380,381,382,460,521,518,572,619,628,618,608,598,588,578,568,558,548,538,528,518,508,498,488,478,468,458,448,438,428,418,408,398,436,383,384,434,389,393,399,407,400,410,393,406,395,411,400,395,401,402,409,411,408,406,410,400,409,408,407,416,395,403,396,1312,1316,1326,1366,1552,1667,1873,2041,2091,2151,2138,2102,2035,2002,1967,1935,1902,1943,1835,1802,1768,1735,1753,1668,1648,1658,1623,1605,1567,1491,1458,1450,1387,1355,1360,1393,1383,1319,1417,1456,1424,1437,1451,1445,1440,1453,1447,1444,1468,1437,1441,1465,1457,1466,1464,1486,1475,1471,1496,1458,1476,1504,1501,1474,1461,840,832,815,845,873,976,1087,1208,1312,1348,1345,1308,1312,1284,1270,1240,1207,1177,1191,1155,1120,1087,1100,1070,1049,1041,1009,963,971,943,922,912,859,839,852,839,886,836,852,851,854,852,863,867,891,891,861,879,881,883,898,897,899,915,883,876,873,868,858,876,869,875,866,885,877,476,477,478,480,483,588,588,654,721,862,776,764,752,740,728,716,704,692,680,668,655,643,631,671,607,595,583,571,559,547,579,584,553,499,487,483,484,485,508,479,480,483,522,514,496,494,499,499,526,523,565,529,546,525,541,510,522,549,582,576,559,577,605,595,537,428,387,388,389,390,466,527,587,648,696,706,695,616,672,661,650,639,628,617,606,562,551,541,506,550,539,528,517,506,495,457,446,436,450,396,435,436,437,418,422,418,425,476,453,458,457,433,478,448,452,456,426,432,454,441,431,461,434,425,450,441,472,454,450,437,631,633,628,637,662,713,803,902,987,1040,1044,1017,1001,1003,968,952,936,919,893,877,871,854,838,819,800,789,772,756,738,723,726,718,673,658,658,641,642,644,641,644,648,652,657,654,652,647,652,653,680,659,657,669,684,669,716,689,664,659,654,660,653,662,668,656,649,868,838,843,843,888,997,1107,1325,1322,1367,1357,1382,1314,1304,1271,1226,1240,1230,1176,1179,1191,1136,1098,1059,1058,1056,1016,1035,1007,992,971,892,929,864,886,869,853,855,866,860,870,937,875,890,862,875,876,882,898,881,885,875,869,890,908,882,870,882,879,884,881,870,883,900,871,1353,1328,1408,1445,1620,1967,2087,2161,2338,2268,2324,2197,2307,2200,2123,2125,2066,1989,1996,1931,1895,1878,1873,1749,1751,1677,1695,1631,1577,1499,1479,1439,1397,1342,1367,1377,1387,1397,1425,1440,1425,1459,1455,1438,1437,1478,1441,1471,1443,1478,1471,1475,1464,1483,1478,1499,1491,1472,1480,1478,1499,1486,1490,1484,1512,1484,1442,1520,1617,1817,2198,2368,2457,2646,2554,2531,2470,2506,2389,2348,2369,2314,2222,2236,2142,2048,2027,2038,1921,1910,1857,1846,1732,1719,1653,1686,1580,1543,1505,1530,1521,1533,1490,1640,1608,1616,1649,1618,1641,1620,1665,1656,1649,1650,1634,1652,1635,1674,1652,1646,1637,1672,1649,1640,1634,1654,1655,1644,1651,1636,1023,996,1001,1018,1094,1219,1418,1617,1620,1680,1621,1628,1581,1552,1518,1457,1464,1536,1386,1426,1391,1370,1303,1279,1266,1257,1250,1189,1179,1169,1141,1054,1076,1026,1036,1037,1013,1041,1052,1047,1051,1044,1072,1105,1059,1080,1082,1099,1093,1096,1082,1091,1081,1101,1069,1073,1083,1081,1067,1104,1090,1100,1082,1088,1105,1257,1262,1238,1392,1391,1552,1778,1969,1996,2022,1958,2019,1961,1875,1896,1771,1772,1885,1686,1720,1681,1642,1686,1653,1570,1523,1501,1446,1455,1416,1420,1314,1403,1351,1296,1274,1276,1300,1358,1343,1360,1364,1357,1381,1429,1442,1382,1397,1415,1373,1375,1425,1429,1456,1428,1430,1427,1447,1442,1414,1402,1404,1368,1383,1383,715,705,707,703,724,806,912,1039,1108,1149,1151,1133,1115,1096,1078,1060,1042,1023,1005,987,985,950,932,914,895,870,912,841,816,804,786,781,737,731,717,713,761,730,724,717,730,723,745,766,729,722,725,747,748,744,749,752,748,747,743,740,733,743,733,753,746,748,744,744,762,787,759,762,764,796,882,999,1204,1203,1254,1241,1272,1201,1193,1161,1118,1134,1162,1078,1080,1090,1023,1003,963,964,966,924,945,919,905,872,808,836,786,791,787,771,820,772,783,787,806,906,854,805,858,808,937,843,870,856,807,838,882,840,814,889,832,816,864,852,920,854,843,825,171,172,172,173,173,178,201,224,247,270,284,279,275,271,266,262,257,253,248,244,240,235,231,226,222,217,213,208,204,200,195,191,186,182,177,174,174,175,163,164,162,166,164,165,164,166,163,163,163,162,164,162,165,165,162,165,164,166,165,164,165,169,164,164,163,1179,1184,1176,1231,1432,1471,1662,1892,1886,1947,1901,1880,1837,1807,1876,1733,1703,1675,1655,1612,1632,1588,1533,1492,1461,1442,1434,1382,1340,1337,1271,1250,1237,1222,1199,1195,1194,1210,1228,1236,1238,1250,1285,1272,1258,1280,1250,1276,1277,1304,1299,1302,1300,1291,1269,1269,1294,1295,1283,1272,1292,1297,1268,1271,1267,742,701,703,706,729,805,912,1106,1134,1182,1155,1181,1140,1102,1075,1033,1049,1043,997,1012,1013,965,946,889,892,896,855,878,868,836,809,746,790,727,745,728,712,714,715,724,725,747,738,729,730,744,728,744,744,753,785,781,801,792,743,737,748,743,748,737,745,752,740,749,741,468,470,471,473,476,584,585,654,723,864,778,766,753,741,728,716,703,691,678,666,654,641,629,668,604,591,579,566,554,541,573,578,546,492,480,475,477,478,487,490,479,522,514,490,495,506,495,509,530,504,508,494,486,491,494,501,491,486,481,486,485,486,498,492,472,268,268,269,270,271,321,362,404,445,486,442,435,429,422,415,408,401,394,387,380,373,366,359,352,345,339,332,325,318,311,304,297,290,283,276,272,272,273,262,257,262,265,265,271,258,265,265,259,263,263,262,264,266,276,272,269,261,270,265,271,271,268,269,273,272,412,387,388,389,390,450,510,570,630,633,687,676,665,654,643,632,621,610,599,588,577,566,555,544,533,522,511,500,489,478,467,456,445,434,423,419,420,421,416,415,416,417,417,418,418,423,418,418,416,417,416,426,424,423,418,423,422,423,426,424,422,425,415,419,419,1141,1146,1137,1183,1355,1383,1563,1795,1824,1812,1830,1791,1750,1721,1737,1671,1641,1596,1601,1559,1581,1517,1481,1425,1411,1378,1373,1323,1282,1281,1230,1211,1199,1183,1160,1156,1154,1179,1185,1169,1181,1185,1184,1177,1185,1189,1187,1198,1205,1193,1193,1248,1195,1193,1257,1207,1191,1198,1200,1197,1200,1199,1205,1221,1219,849,842,850,829,911,980,1146,1238,1323,1360,1335,1341,1297,1313,1306,1283,1168,1163,1177,1195,1100,1150,1083,1106,1048,1062,998,998,968,939,891,891,907,849,866,863,834,873,884,873,861,869,851,866,861,866,882,931,870,882,888,884,878,907,909,877,869,864,879,890,873,882,886,882,876,716,735,734,740,807,892,985,1093,1133,1173,1174,1200,1216,1124,1148,1136,1086,1096,1070,1001,992,991,947,992,929,933,895,888,857,834,800,802,767,755,731,755,723,770,749,735,747,738,760,783,744,745,751,763,764,760,762,769,766,766,760,760,748,766,749,769,766,766,762,763,784,1312,1289,1372,1438,1579,1840,2043,2171,2294,2225,2193,2155,2293,2158,2082,2084,2026,1949,1957,1870,1850,1827,1792,1713,1686,1640,1637,1589,1523,1464,1445,1405,1363,1330,1419,1343,1353,1369,1412,1406,1411,1427,1404,1419,1420,1427,1438,1465,1428,1437,1458,1457,1455,1466,1450,1443,1427,1450,1450,1451,1438,1463,1456,1466,1448,1401,1387,1473,1517,1751,2054,2273,2342,2513,2423,2398,2343,2382,2307,2255,2252,2210,2108,2125,2043,1994,1975,1935,1843,1811,1760,1752,1696,1629,1566,1586,1497,1459,1421,1446,1437,1448,1449,1532,1537,1490,1486,1528,1516,1517,1533,1534,1532,1582,1539,1537,1552,1555,1558,1534,1579,1589,1571,1597,1580,1549,1557,1594,1532,1533,790,863,809,819,912,943,1151,1183,1355,1319,1400,1377,1282,1312,1310,1268,1266,1170,1149,1128,1107,1136,1056,1108,1088,1002,997,1043,982,960,970,931,842,898,876,871,804,813,858,850,866,882,879,884,875,859,874,885,881,871,891,908,931,907,899,881,861,879,868,870,861,882,875,889,862,568,619,568,573,582,637,717,865,881,926,931,922,1000,892,876,918,852,837,812,802,788,773,762,738,728,709,694,683,664,650,638,620,656,597,577,576,575,620,596,584,583,592,586,586,647,645,600,624,602,586,585,624,634,648,648,649,634,653,642,629,619,603,591,593,586,660,654,669,692,714,756,872,977,1046,1102,1088,1075,1070,1052,1035,967,988,976,981,938,923,931,912,832,845,835,840,807,777,760,731,732,712,693,677,683,665,679,691,671,684,682,677,678,728,702,669,670,691,692,685,674,676,684,676,685,680,683,676,675,668,680,685,689,664,337,338,339,340,341,363,411,459,508,552,563,554,545,536,527,518,509,500,491,482,473,464,455,446,437,428,419,410,401,392,383,374,365,356,347,342,343,344,332,330,335,346,342,338,333,333,340,346,360,348,397,438,496,387,363,349,338,345,335,339,332,342,342,348,338,231,232,232,233,234,243,274,306,337,368,383,377,371,365,359,353,347,341,335,329,323,317,311,305,299,293,287,281,275,269,263,257,251,245,239,234,235,236,231,219,220,219,225,225,226,223,224,227,234,227,233,232,231,231,231,228,230,238,241,241,233,228,247,240,243,601,593,552,554,562,668,768,876,946,987,1046,892,878,863,849,834,820,805,791,777,762,748,733,719,704,754,675,661,646,632,618,603,589,574,561,557,558,560,547,554,563,577,568,567,559,571,554,584,567,571,573,568,591,611,575,569,580,572,573,569,580,592,565,572,564,0,0,0,0,0,0,0,0,0,0,0,0,0,0,0,0,0,0,0,0,0,0,0,0,0,0,0,0,0,0,0,0,0,0,0,0,0,0,0,0,0,0,0,0,0,0,0,0,0,0,0,0,0,0,0,0,0,0,0,0,0,0,0,0,0,565,578,589,626,592,648,734,803,903,964,1015,982,922,906,957,859,854,839,875,863,800,770,755,754,739,724,709,745,678,663,692,633,613,602,589,585,628,588,600,605,603,617,617,618,617,614,611,610,626,613,622,626,624,619,618,637,624,621,607,623,618,625,608,629,613,1456,1546,1427,1501,1656,1853,2032,2177,2200,2361,2199,2185,2152,2097,2088,2072,2006,2047,1959,1886,1882,1821,1900,1759,1716,1700,1683,1612,1664,1540,1581,1467,1526,1434,1432,1420,1461,1441,1507,1562,1513,1544,1562,1548,1547,1564,1535,1562,1554,1527,1551,1556,1565,1565,1589,1574,1555,1544,1573,1554,1560,1580,1587,1586,1567,476,477,478,480,483,588,588,654,721,862,776,764,752,740,728,716,704,692,680,668,655,643,631,671,607,595,583,571,559,547,579,584,553,499,487,483,484,485,508,479,480,483,522,514,496,494,499,499,526,523,565,529,546,525,541,510,522,549,582,576,559,577,605,595,537,599,601,602,604,615,682,771,859,942,973,988,961,957,942,915,899,895,869,865,839,834,818,803,787,763,747,741,716,707,692,676,661,645,630,617,608,609,610,601,594,601,605,593,614,606,613,611,610,628,603,605,607,605,617,609,611,607,607,606,605,611,609,608,638,616,827,829,868,836,876,983,1127,1240,1326,1350,1359,1326,1315,1295,1261,1240,1229,1197,1187,1155,1144,1122,1100,1079,1060,1026,1014,983,968,947,935,904,882,861,848,839,851,843,864,839,850,868,853,858,851,859,858,861,869,851,864,893,913,894,891,870,850,876,858,852,847,881,863,881,855,668,669,671,688,753,747,888,963,1079,1167,1091,1100,1075,1040,1022,1004,1012,969,953,920,915,920,888,864,850,894,833,792,826,821,752,729,703,734,683,686,682,730,697,710,695,698,715,728,718,726,706,721,714,720,712,705,702,710,710,714,705,707,700,702,698,708,709,702,687,461,462,464,465,467,501,541,582,623,660,672,664,656,649,641,633,626,659,624,628,595,587,580,572,582,557,560,549,534,526,519,525,503,482,472,467,468,470,460,462,461,464,478,464,471,467,468,464,470,473,468,477,476,483,526,519,486,492,479,467,484,465,484,470,465,1234,1252,1235,1291,1414,1715,1967,2023,2089,2116,2082,2123,2010,1973,1983,1925,1952,1855,1866,1731,1755,1686,1681,1628,1591,1580,1500,1453,1468,1416,1370,1308,1296,1235,1214,1274,1251,1247,1298,1309,1317,1336,1358,1338,1334,1335,1328,1333,1317,1310,1320,1328,1330,1330,1349,1340,1313,1310,1322,1315,1317,1323,1332,1343,1313,1200,1210,1210,1233,1323,1481,1667,1825,1928,1926,1920,1992,1856,1960,1800,1769,1759,1700,1678,1642,1609,1590,1557,1527,1498,1457,1457,1395,1366,1367,1358,1304,1243,1260,1206,1219,1208,1211,1254,1261,1256,1246,1285,1283,1268,1271,1273,1296,1307,1312,1355,1306,1328,1291,1345,1302,1307,1349,1449,1367,1340,1333,1380,1389,1335,541,543,545,546,553,604,684,763,841,886,891,877,863,850,835,821,808,792,778,764,750,736,722,748,694,681,709,651,637,623,609,595,581,566,554,550,551,553,539,536,537,537,540,541,544,545,546,550,549,554,560,555,553,559,557,556,557,561,567,572,570,570,579,577,582,785,750,779,806,858,897,1004,1115,1200,1239,1320,1220,1211,1183,1172,1144,1126,1106,1087,1068,1049,1011,1015,1028,976,945,945,918,897,878,859,852,821,872,841,784,840,790,808,812,814,817,825,835,828,820,822,821,833,832,899,893,909,848,821,839,841,848,840,817,838,815,829,827,817,966,959,973,996,1014,1141,1292,1429,1528,1532,1538,1502,1489,1465,1430,1404,1391,1378,1372,1342,1390,1269,1295,1240,1187,1181,1147,1131,1123,1065,1047,1022,998,976,962,954,982,959,967,967,986,1059,986,976,991,1028,1005,980,999,985,991,982,996,997,996,985,984,986,994,1004,982,1009,986,1000,1000,479,488,482,491,487,530,600,695,736,787,783,780,763,753,744,734,719,716,705,679,667,654,641,629,616,605,591,587,566,553,540,528,515,540,515,486,488,489,492,491,515,530,541,545,553,495,517,538,502,493,501,501,498,494,524,513,493,493,490,494,494,502,511,525,494,657,652,666,662,698,760,860,1031,1049,1077,1080,1062,1056,1039,1013,992,993,961,952,924,918,876,862,866,839,821,813,768,757,780,743,739,709,782,676,672,696,713,685,683,693,705,701,710,702,718,712,706,721,706,708,724,731,735,717,702,708,717,709,703,700,718,700,718,699,638,640,642,642,683,748,820,918,1054,1048,1051,1034,1015,1000,1020,1001,976,959,916,924,913,890,849,833,843,798,826,764,747,752,715,698,700,665,651,672,673,675,649,662,670,684,671,676,666,679,659,674,662,661,662,674,676,675,675,674,670,672,682,672,668,664,661,674,662,462,459,460,462,451,504,576,665,711,730,758,753,734,722,755,703,686,636,668,614,637,625,613,622,589,597,565,553,541,529,534,505,492,480,456,452,482,454,452,450,455,452,452,455,454,453,456,468,471,470,469,472,471,469,467,470,465,473,476,472,473,470,469,477,483,592,593,595,596,609,679,769,860,944,975,990,962,958,943,915,899,894,868,863,837,832,816,800,784,759,743,737,711,702,686,670,655,639,623,610,601,602,603,593,598,602,625,602,611,594,602,599,590,606,601,598,615,609,614,601,615,613,616,619,609,610,623,598,609,606,539,551,553,537,561,616,706,762,851,910,902,890,880,875,847,833,816,804,766,775,756,759,747,754,682,689,686,649,654,628,625,611,590,582,568,547,559,535,559,559,557,565,565,564,563,579,554,568,562,560,562,572,570,565,567,568,565,565,577,573,560,563,562,565,562,872,868,917,920,952,1073,1189,1394,1407,1429,1468,1402,1469,1368,1421,1310,1305,1268,1253,1248,1227,1160,1176,1138,1148,1083,1069,1018,1002,1019,1000,966,958,969,916,890,914,905,909,951,911,914,931,914,923,928,929,958,939,923,937,928,940,932,940,945,939,945,971,927,945,945,961,943,936,600,602,604,604,640,695,740,826,954,1019,975,961,944,910,932,915,892,876,836,846,836,815,798,783,774,730,717,701,700,693,672,657,660,626,613,633,634,636,611,623,610,625,623,631,617,622,629,618,615,621,616,619,617,615,622,626,622,618,618,622,624,638,631,639,625,1127,1148,1147,1140,1298,1429,1563,1760,1791,1844,1886,1810,1759,1693,1692,1700,1647,1573,1581,1572,1542,1476,1482,1507,1422,1347,1330,1359,1336,1286,1270,1229,1173,1143,1163,1179,1171,1170,1195,1191,1206,1237,1231,1230,1223,1208,1216,1238,1229,1222,1221,1259,1282,1271,1251,1231,1222,1230,1223,1222,1214,1238,1226,1249,1214,187,188,189,189,190,197,223,249,275,302,315,310,305,300,295,290,285,280,275,270,265,260,255,250,245,240,234,229,224,219,214,209,204,199,194,190,191,191,180,185,184,185,186,186,186,185,182,186,182,184,185,189,188,189,192,188,186,186,190,188,186,188,184,187,185,1154,1157,1197,1195,1270,1424,1610,1745,1838,1875,1865,1916,1808,1776,1827,1717,1687,1656,1626,1600,1639,1540,1508,1478,1449,1420,1463,1359,1331,1320,1311,1258,1211,1190,1221,1173,1176,1179,1207,1229,1226,1241,1256,1235,1235,1269,1235,1235,1249,1228,1251,1250,1262,1266,1419,1366,1274,1251,1257,1246,1239,1242,1259,1289,1241,1132,1135,1163,1196,1239,1389,1613,1748,1842,1875,1870,1921,1816,1782,1753,1724,1695,1656,1635,1600,1622,1511,1518,1521,1461,1427,1421,1367,1338,1334,1288,1273,1213,1168,1232,1174,1177,1180,1207,1230,1227,1239,1307,1277,1257,1304,1256,1328,1273,1305,1282,1249,1279,1311,1283,1262,1299,1266,1258,1290,1281,1320,1274,1274,1257,1077,1096,1084,1152,1191,1346,1525,1661,1763,1764,1757,1717,1700,1673,1633,1613,1588,1571,1532,1494,1476,1455,1420,1410,1355,1344,1358,1287,1248,1267,1192,1260,1136,1114,1195,1138,1096,1105,1141,1144,1149,1238,1160,1164,1158,1198,1184,1251,1162,1160,1156,1158,1185,1149,1170,1159,1159,1165,1161,1169,1168,1179,1156,1173,1169,181,181,211,212,213,189,213,238,262,287,349,296,291,286,281,321,272,267,263,299,253,248,244,239,234,230,225,220,215,211,239,201,197,192,217,213,214,214,190,198,189,196,205,201,198,202,195,200,198,202,196,193,195,197,196,196,200,197,194,201,195,207,197,198,195,215,216,216,217,218,227,257,287,317,348,361,356,350,344,338,332,327,302,315,291,303,298,292,286,280,275,269,263,257,251,246,240,234,228,222,218,219,220,208,203,205,209,209,204,207,208,203,209,209,207,207,208,205,205,207,209,209,210,207,205,210,209,208,207,208,354,355,356,357,359,393,445,498,579,581,635,582,587,577,554,544,574,525,529,506,530,500,490,480,459,449,451,430,429,439,409,400,390,380,371,360,361,362,358,361,361,362,365,366,364,379,365,369,363,366,361,373,366,374,376,372,369,366,365,369,368,371,357,365,363,405,416,418,419,420,456,524,584,628,668,684,675,669,668,643,632,619,610,612,589,573,579,554,557,534,523,524,489,498,476,476,465,448,443,432,411,422,438,414,416,411,425,412,422,414,423,418,420,419,419,423,419,426,427,426,426,427,425,429,423,430,432,431,437,435,547,550,488,489,493,650,695,789,786,825,803,889,788,765,770,739,819,745,731,746,705,671,771,718,714,619,671,658,573,622,547,542,529,516,522,555,494,495,506,509,510,523,518,511,516,518,513,515,517,518,534,542,550,533,518,514,521,526,526,515,518,526,514,522,517,487,488,480,490,495,547,619,691,763,780,814,789,788,776,754,738,723,785,712,688,686,657,648,708,625,612,608,575,569,597,556,541,530,515,503,484,522,494,495,498,500,516,509,500,506,511,502,508,518,526,634,618,640,547,504,502,515,516,509,501,511,509,504,510,508,0,0,0,0,0,0,0,0,0,0,0,0,0,0,0,0,0,0,0,0,0,0,0,0,0,0,0,0,0,0,0,0,0,0,0,0,0,0,0,0,0,0,0,0,0,0,0,0,0,0,0,0,0,0,0,0,0,0,0,0,0,0,0,0,0,955,958,961,969,1011,1128,1276,1413,1514,1556,1552,1527,1505,1478,1454,1429,1405,1379,1354,1333,1305,1283,1256,1231,1208,1183,1178,1133,1110,1104,1101,1053,1010,989,972,970,973,976,1019,984,984,994,977,991,996,992,1015,1061,998,1013,1074,1014,1015,1075,1027,1011,1004,1008,1060,1118,1134,1160,1161,1045,1040,599,601,602,604,615,682,771,859,942,973,988,961,957,942,915,899,895,869,865,839,834,818,803,787,763,747,741,716,707,692,676,661,645,630,617,608,609,610,601,594,601,605,593,614,606,613,611,610,628,603,605,607,605,617,609,611,607,607,606,605,611,609,608,638,616,1199,1168,1171,1207,1319,1556,1736,1907,2032,2087,2024,2006,1913,1916,1878,1904,1763,1739,1766,1671,1626,1592,1549,1523,1553,1518,1430,1486,1371,1327,1318,1258,1224,1241,1176,1184,1189,1236,1271,1268,1264,1355,1321,1318,1299,1290,1310,1343,1314,1353,1356,1358,1295,1302,1320,1328,1329,1303,1346,1395,1342,1329,1350,1317,1319,1468,1437,1456,1540,1704,1990,2172,2333,2458,2505,2426,2401,2312,2299,2263,2272,2127,2097,2136,2016,1965,1924,1881,1849,1870,1828,1735,1783,1662,1612,1596,1526,1491,1509,1448,1457,1459,1510,1570,1567,1552,1572,1571,1572,1590,1598,1579,1575,1580,1590,1591,1581,1591,1597,1594,1604,1585,1597,1583,1585,1582,1606,1583,1583,1562,1031,999,1001,1016,1102,1304,1460,1638,1710,1825,1712,1755,1665,1673,1638,1561,1530,1511,1493,1450,1409,1379,1340,1319,1350,1278,1237,1198,1186,1146,1142,1085,1054,1019,1006,1013,1018,1064,1047,1050,1047,1055,1061,1070,1065,1073,1065,1063,1075,1080,1152,1151,1167,1114,1066,1077,1081,1091,1076,1069,1085,1055,1072,1070,1058,690,692,694,696,713,776,877,977,1064,1134,1110,1093,1065,1058,1055,1023,1032,989,1063,954,951,918,956,884,867,852,926,870,802,785,768,822,735,718,704,700,702,704,706,714,716,730,744,745,753,724,718,741,720,714,732,724,724,720,749,736,710,709,717,717,714,722,725,732,710,546,548,549,551,533,657,672,795,840,890,926,912,852,839,825,811,797,825,810,756,742,743,753,738,724,672,658,664,678,627,636,636,622,603,549,545,546,534,559,565,560,567,570,569,568,576,563,567,565,564,561,570,572,576,571,568,571,564,576,583,568,577,562,570,569,390,391,392,394,395,420,470,542,594,615,634,647,614,604,594,584,574,564,574,544,562,524,541,504,494,484,474,464,456,447,437,428,419,409,400,396,397,398,392,394,391,389,391,393,395,396,393,394,393,395,396,394,400,397,399,400,395,396,399,400,396,407,399,400,401,489,490,492,493,497,538,608,684,749,796,805,793,792,767,754,742,729,716,718,691,678,665,653,640,635,615,602,598,576,564,551,538,526,513,501,496,498,499,490,492,495,513,503,496,506,517,499,501,508,518,545,539,546,525,496,500,507,515,509,499,508,514,504,507,504,436,457,458,473,462,496,562,679,746,813,799,787,775,763,751,738,726,714,702,648,696,665,660,641,646,616,604,592,540,527,515,518,471,459,468,476,464,465,460,463,464,467,468,471,464,472,465,470,464,469,465,488,475,476,471,481,476,476,477,479,473,477,460,471,465,1558,1554,1546,1638,1817,2125,2345,2461,2574,2713,2547,2520,2499,2406,2367,2353,2272,2204,2241,2111,2065,2023,1972,1956,1978,1939,1835,1909,1758,1732,1688,1605,1596,1587,1591,1579,1539,1602,1749,1692,1686,1705,1695,1731,1773,1764,1742,1819,1735,1729,1787,1780,1788,1843,1792,1795,1776,1797,1824,1862,1882,1892,1871,1754,1736,703,706,708,710,743,845,917,1024,1124,1152,1156,1137,1119,1100,1093,1063,1045,1027,1107,990,971,953,934,916,897,879,883,873,824,805,802,777,769,732,718,714,730,737,723,724,724,732,736,737,739,748,736,735,741,740,738,741,743,747,740,732,747,743,743,745,739,751,733,741,733,1451,1434,1481,1643,1679,1897,2199,2379,2326,2317,2281,2376,2190,2260,2119,2192,2062,2026,2108,1953,1917,1961,1865,1879,1792,1735,1693,1691,1626,1611,1567,1574,1486,1533,1475,1510,1487,1460,1560,1552,1582,1595,1606,1628,1586,1603,1608,1616,1649,1618,1613,1627,1633,1640,1617,1604,1606,1619,1602,1605,1601,1635,1613,1628,1610,715,754,756,759,737,845,980,1075,1181,1179,1219,1175,1159,1166,1115,1110,1082,1077,1076,1007,1016,999,983,966,957,933,946,898,838,819,838,819,817,744,781,761,778,730,749,791,748,746,766,752,759,767,764,779,789,758,764,769,774,775,770,787,777,777,792,767,783,787,805,769,764,702,706,708,722,730,813,916,1018,1099,1141,1146,1130,1101,1116,1066,1063,1052,1034,1105,996,974,963,946,921,925,885,855,881,819,802,800,779,749,732,718,726,730,718,747,740,725,738,713,728,722,726,747,762,730,744,747,743,755,769,771,733,731,725,746,748,738,746,746,744,736,1168,1137,1140,1172,1286,1521,1699,1871,1996,2076,1988,1967,1874,1881,1843,1759,1728,1702,1729,1637,1592,1556,1515,1509,1520,1537,1397,1354,1337,1295,1287,1227,1193,1210,1259,1151,1158,1204,1215,1213,1227,1257,1249,1249,1242,1226,1236,1257,1248,1239,1241,1279,1302,1288,1268,1251,1241,1250,1244,1241,1233,1257,1245,1267,1235,1399,1394,1396,1465,1616,1871,2042,2143,2259,2231,2245,2195,2127,2089,2080,2073,2025,1971,2040,1923,1849,1852,1786,1761,1707,1698,1672,1649,1589,1545,1511,1464,1501,1408,1420,1395,1416,1407,1517,1498,1519,1527,1519,1504,1586,1588,1516,1552,1536,1511,1511,1575,1585,1613,1575,1567,1574,1591,1602,1596,1552,1549,1510,1521,1536,1702,1659,1739,1940,2061,2259,2551,2747,2705,2649,2607,2695,2506,2569,2424,2490,2356,2315,2425,2231,2223,2227,2127,2170,2074,1981,1964,1955,1856,1836,1814,1791,1704,1751,1693,1785,1707,1680,1941,1928,1895,1920,1918,1965,1985,1996,1964,2058,1956,1981,1976,2022,2001,2075,2027,2002,1985,2002,2006,2019,2009,2024,1986,1987,1943,789,810,819,825,833,919,1042,1226,1276,1295,1314,1293,1306,1251,1252,1210,1191,1179,1154,1123,1105,1084,1075,1043,1022,1004,1021,969,926,901,899,887,871,826,824,834,803,809,820,822,817,838,860,841,847,847,840,829,848,852,844,868,864,869,839,846,851,840,823,878,837,841,836,877,836,1799,1806,1897,2156,2506,2886,2981,2993,3116,3100,3129,3024,3019,2968,2854,2782,2846,2706,2707,2610,2585,2528,2503,2397,2323,2274,2203,2148,2076,2023,1947,1895,1842,1824,1828,1824,1856,1861,2214,2201,2174,2198,2202,2245,2269,2294,2252,2349,2246,2256,2249,2301,2283,2341,2314,2306,2284,2285,2280,2297,2270,2285,2245,2252,2205,794,828,854,802,871,911,1032,1153,1293,1300,1308,1337,1266,1245,1224,1280,1182,1161,1141,1120,1099,1078,1057,1052,1015,994,1010,980,967,945,916,882,847,827,812,839,808,836,833,835,833,844,844,844,838,855,831,840,838,836,839,851,847,845,844,845,843,843,855,861,837,846,838,841,837,344,345,346,347,348,370,418,466,514,558,569,560,551,542,533,524,515,506,497,488,479,470,461,452,443,434,426,417,408,399,390,381,372,363,354,349,350,351,338,332,339,343,333,347,339,342,342,339,355,340,338,340,338,350,342,343,338,341,340,341,346,343,341,361,348,387,388,390,391,326,384,389,474,519,560,581,572,605,596,586,576,566,517,508,537,527,557,472,463,454,406,398,426,420,412,403,395,386,378,332,327,328,329,324,325,337,346,333,339,327,341,327,337,332,327,330,334,333,333,333,333,334,332,338,337,328,332,326,330,328,1695,1690,1749,1830,2039,2429,2530,2691,2798,2883,2755,2724,2643,2611,2569,2572,2424,2388,2420,2295,2246,2193,2138,2217,2243,2086,1988,2028,1904,1848,1822,1780,1728,1726,1707,1717,1679,1738,1908,1899,1916,1927,1919,1912,1923,1933,1925,1933,1943,1934,1981,1994,1966,1956,1980,1985,1976,2015,2022,1937,1971,2032,2040,2012,1969,1055,1089,1062,1123,1194,1299,1476,1612,1715,1762,1774,1723,1700,1672,1644,1616,1578,1560,1540,1463,1436,1437,1420,1393,1351,1336,1329,1309,1252,1224,1210,1168,1129,1117,1091,1086,1092,1127,1119,1160,1119,1128,1149,1127,1138,1145,1144,1145,1157,1145,1165,1146,1151,1159,1162,1160,1160,1161,1197,1158,1182,1191,1210,1170,1164,802,805,807,811,850,984,1086,1192,1277,1314,1334,1294,1273,1252,1231,1210,1188,1167,1216,1125,1104,1083,1062,1041,1020,999,1000,988,936,915,909,873,871,831,830,814,864,837,835,837,838,844,851,856,852,846,847,847,862,864,942,936,954,885,847,866,867,875,862,848,869,840,855,856,844,1205,1210,1216,1260,1343,1581,1744,1855,1977,1950,1972,1947,1955,1849,1824,1772,1797,1727,1783,1645,1636,1608,1546,1525,1509,1458,1506,1428,1385,1337,1337,1294,1297,1237,1266,1224,1244,1252,1283,1280,1296,1334,1295,1327,1291,1312,1297,1321,1326,1298,1307,1309,1315,1341,1351,1314,1304,1313,1313,1322,1313,1307,1304,1334,1300,1258,1268,1250,1299,1425,1629,1840,1943,2063,2030,2055,1993,1928,1893,1903,1855,1840,1803,1875,1709,1676,1679,1620,1598,1548,1528,1505,1511,1447,1402,1371,1327,1359,1271,1271,1258,1278,1286,1314,1353,1317,1318,1348,1320,1338,1342,1341,1342,1356,1346,1365,1350,1350,1361,1364,1361,1363,1365,1398,1361,1387,1394,1414,1373,1368,1322,1326,1368,1404,1677,1829,1934,2041,2340,2132,2213,2125,2172,2017,1983,1949,2068,1939,2012,1814,1851,1782,1712,1873,1668,1708,1598,1639,1509,1476,1517,1408,1444,1356,1356,1342,1402,1430,1453,1442,1433,1442,1459,1503,1482,1504,1480,1499,1505,1521,1522,1527,1499,1549,1536,1484,1505,1505,1514,1575,1525,1539,1540,1605,1532,1313,1269,1297,1354,1441,1625,1930,2036,2067,2030,2030,2192,1948,2013,1885,1950,1836,1804,1864,1739,1707,1696,1663,1631,1598,1545,1507,1510,1448,1466,1398,1409,1321,1345,1287,1343,1320,1292,1386,1349,1353,1379,1350,1366,1348,1390,1391,1380,1369,1363,1384,1367,1403,1374,1376,1372,1396,1383,1365,1373,1386,1379,1379,1379,1376,983,991,975,1027,1046,1154,1323,1442,1555,1602,1610,1571,1547,1507,1485,1470,1430,1419,1414,1378,1353,1308,1278,1288,1236,1202,1214,1201,1127,1102,1106,1081,1024,1014,989,986,987,1014,1004,1014,1017,1058,1057,1046,1028,1049,1026,1024,1043,1049,1032,1069,1057,1052,1051,1061,1053,1042,1014,1080,1040,1057,1031,1068,1037,0,0,0,0,0,0,0,0,0,0,0,0,0,0,0,0,0,0,0,0,0,0,0,0,0,0,0,0,0,0,0,0,0,0,0,0,0,0,0,0,0,0,0,0,0,0,0,0,0,0,0,0,0,0,0,0,0,0,0,0,0,0,0,0,0,1199,1168,1171,1207,1319,1556,1736,1907,2032,2087,2024,2006,1913,1916,1878,1904,1763,1739,1766,1671,1626,1592,1549,1523,1553,1518,1430,1486,1371,1327,1318,1258,1224,1241,1176,1184,1189,1236,1271,1268,1264,1355,1321,1318,1299,1290,1310,1343,1314,1353,1356,1358,1295,1302,1320,1328,1329,1303,1346,1395,1342,1329,1350,1317,1319,0,0,0,0,0,0,0,0,0,0,0,0,0,0,0,0,0,0,0,0,0,0,0,0,0,0,0,0,0,0,0,0,0,0,0,0,0,0,0,0,0,0,0,0,0,0,0,0,0,0,0,0,0,0,0,0,0,0,0,0,0,0,0,0,0,288,288,289,290,291,305,344,383,422,460,474,467,459,452,444,437,430,422,415,407,400,393,385,378,370,363,356,348,341,333,326,319,311,304,296,292,293,293,278,284,281,281,285,285,286,284,282,285,280,284,284,287,288,287,288,288,286,292,289,284,289,282,286,292,286,377,365,366,367,368,391,472,521,542,587,599,590,580,571,562,552,543,533,524,515,546,496,487,477,468,458,485,475,465,451,412,402,407,384,382,369,370,371,364,369,365,378,471,424,393,426,394,478,415,424,425,379,389,414,397,380,442,393,379,425,409,463,426,411,400,818,805,810,829,867,958,1100,1182,1309,1356,1328,1311,1260,1306,1247,1255,1203,1181,1163,1156,1100,1098,1081,1045,1018,998,999,957,961,913,911,938,867,832,836,832,832,852,839,839,858,944,858,846,860,896,874,848,867,854,860,851,863,863,863,852,852,853,861,870,847,875,852,864,864,1136,1135,1138,1195,1295,1539,1708,1903,1972,1976,1935,1901,1907,1810,1833,1823,1783,1746,1649,1633,1642,1570,1531,1524,1487,1450,1386,1379,1344,1309,1258,1246,1164,1168,1145,1152,1139,1145,1197,1196,1203,1297,1227,1204,1236,1262,1226,1213,1225,1230,1227,1215,1227,1233,1226,1211,1223,1216,1225,1235,1208,1234,1212,1216,1210,1270,1249,1277,1357,1522,1761,2023,2143,2166,2265,2191,2180,2179,2108,2106,2054,1913,1932,1925,1929,1792,1777,1712,1688,1658,1607,1572,1496,1491,1404,1365,1391,1326,1260,1308,1295,1344,1310,1373,1375,1356,1369,1368,1381,1374,1405,1399,1452,1390,1419,1418,1417,1391,1452,1429,1402,1396,1378,1399,1434,1399,1433,1415,1422,1391,954,927,937,947,1017,1105,1313,1430,1537,1514,1565,1553,1511,1492,1404,1358,1370,1357,1308,1363,1244,1257,1203,1235,1185,1161,1118,1155,1089,1055,1022,1018,965,945,959,966,959,985,946,988,947,944,968,950,963,971,967,966,991,962,968,975,975,982,975,990,988,983,997,966,988,996,1016,976,974,1222,1162,1173,1208,1309,1430,1660,1785,1886,1857,1903,1886,1916,1926,1775,1674,1680,1732,1656,1725,1536,1543,1547,1512,1457,1461,1421,1441,1343,1304,1290,1257,1232,1201,1195,1202,1217,1244,1243,1249,1273,1298,1311,1317,1315,1274,1279,1309,1264,1252,1268,1275,1272,1271,1299,1284,1262,1258,1272,1271,1265,1290,1296,1321,1280,371,378,379,374,381,406,459,512,565,611,622,612,602,583,583,573,563,553,544,534,524,514,504,495,485,475,465,455,446,436,426,416,406,397,387,382,383,384,377,380,379,377,379,379,384,387,379,383,379,381,385,384,388,386,387,385,383,383,388,387,383,387,385,386,386,740,727,729,746,776,863,974,1061,1175,1215,1189,1196,1151,1132,1137,1147,1099,1079,1059,1040,999,1002,983,952,924,905,907,867,873,829,826,791,787,753,754,751,753,756,752,754,756,762,760,758,767,761,763,760,766,760,766,761,771,779,774,784,772,770,774,764,769,770,774,778,768,443,470,472,447,449,484,583,611,730,723,733,721,709,738,686,714,663,689,677,665,652,605,593,582,570,558,579,566,524,512,500,517,505,465,454,476,477,479,456,456,455,469,460,472,457,462,467,464,461,462,456,462,461,455,462,468,465,463,461,462,469,480,470,477,468,1138,1142,1146,1251,1289,1455,1614,1749,1869,1848,1840,1827,1917,1752,1722,1738,1664,1649,1605,1599,1605,1517,1530,1458,1427,1520,1370,1403,1354,1281,1283,1269,1194,1171,1235,1168,1171,1174,1223,1234,1191,1187,1231,1210,1221,1227,1223,1226,1279,1233,1239,1258,1252,1251,1236,1257,1264,1269,1299,1253,1249,1258,1304,1243,1237,681,684,686,704,709,786,887,966,1070,1113,1099,1105,1065,1048,1031,1061,1016,997,978,961,930,926,908,879,852,845,838,814,794,764,760,744,744,710,696,692,704,696,692,678,682,680,685,684,690,692,689,690,692,694,695,698,697,701,700,699,705,702,700,699,706,708,712,712,712,201,202,203,203,204,211,239,267,295,323,339,333,328,322,317,312,306,301,295,290,284,279,274,268,263,257,252,246,241,236,230,225,219,214,208,204,205,206,192,190,195,203,197,193,194,201,196,197,201,203,234,236,243,216,197,198,197,205,198,194,196,202,198,202,197,540,542,543,545,551,600,679,758,836,882,889,875,861,847,833,819,805,809,777,763,749,735,720,750,735,678,664,655,636,620,608,594,615,566,553,548,550,551,548,559,549,560,562,568,560,575,559,564,554,554,557,564,567,561,567,563,557,554,569,560,555,557,557,567,555,710,652,729,691,681,785,839,995,1026,1125,1065,1055,1091,1033,1003,1036,969,1038,935,1001,895,893,866,859,832,814,797,780,763,754,729,712,703,712,663,660,661,663,661,701,662,668,687,677,667,671,676,705,687,667,672,677,695,685,682,689,677,679,692,687,701,702,705,699,690,1100,1120,1107,1142,1216,1387,1515,1651,1774,1775,1769,1738,1738,1666,1638,1656,1583,1571,1550,1524,1527,1445,1418,1422,1377,1369,1322,1362,1253,1238,1242,1217,1163,1133,1120,1153,1140,1157,1183,1175,1173,1174,1177,1181,1191,1185,1188,1193,1192,1183,1192,1196,1207,1214,1203,1213,1190,1205,1203,1197,1203,1216,1187,1193,1182,1122,1091,1100,1137,1242,1337,1530,1708,1715,1789,1768,1724,1722,1694,1640,1627,1608,1578,1542,1496,1510,1461,1451,1410,1338,1393,1329,1288,1261,1230,1204,1183,1151,1130,1112,1113,1112,1122,1170,1137,1139,1139,1172,1212,1162,1173,1173,1179,1236,1184,1192,1204,1200,1212,1159,1173,1185,1206,1204,1205,1173,1189,1205,1175,1175,781,784,785,789,838,915,1057,1159,1262,1281,1281,1278,1253,1220,1199,1225,1158,1153,1117,1104,1076,1064,1035,1015,994,987,953,956,924,892,916,864,844,810,797,804,807,808,793,790,808,822,802,817,799,816,797,825,810,798,806,806,820,835,820,814,815,804,814,815,816,820,800,817,808,1114,1113,1099,1133,1256,1536,1663,1858,1990,1933,1892,1859,1865,1768,1792,1762,1765,1680,1609,1594,1560,1526,1492,1452,1452,1385,1349,1372,1310,1256,1222,1211,1152,1149,1122,1118,1192,1129,1169,1170,1169,1176,1182,1170,1185,1188,1190,1177,1188,1193,1253,1246,1272,1207,1184,1195,1192,1202,1188,1181,1203,1174,1177,1185,1172,1187,1194,1190,1255,1403,1622,1883,2073,2098,2162,2090,2060,2052,1975,1996,1934,1854,1816,1779,1758,1719,1670,1631,1586,1581,1509,1477,1459,1399,1370,1322,1306,1243,1219,1224,1219,1259,1233,1314,1304,1295,1317,1353,1346,1329,1323,1346,1382,1342,1404,1425,1391,1319,1351,1364,1363,1360,1337,1418,1507,1456,1459,1467,1387,1389,512,514,516,517,523,570,646,722,797,844,850,837,823,809,796,782,769,755,741,728,714,701,687,673,660,646,632,619,605,592,578,564,551,537,525,520,522,523,514,513,516,518,519,519,519,519,517,527,519,521,524,527,532,531,538,529,533,527,531,529,533,538,527,536,529,750,748,720,755,787,852,969,1107,1180,1234,1202,1200,1195,1145,1150,1257,1095,1137,1065,1046,1030,1018,973,956,930,915,910,896,861,860,802,788,799,782,760,758,745,762,774,755,749,756,776,778,774,783,782,798,774,815,824,808,785,818,791,781,799,789,824,882,863,882,869,830,829,637,635,637,643,671,723,823,913,979,1044,1045,1048,1016,1026,979,968,950,946,917,900,880,866,849,830,813,819,779,746,746,727,749,694,679,681,651,656,659,659,657,656,655,670,666,671,690,682,664,674,683,677,675,668,662,684,677,676,670,662,666,668,668,667,674,702,664,610,612,613,615,628,689,781,873,959,1015,1003,1003,975,959,943,927,911,895,875,862,846,832,814,794,782,766,750,733,717,699,685,669,653,634,623,619,621,622,615,607,619,634,629,628,621,617,630,638,633,629,657,659,678,659,653,637,617,631,623,626,618,632,624,644,616,503,505,506,508,512,556,629,702,775,817,831,817,804,791,778,765,752,738,725,712,699,686,673,659,646,633,620,607,594,578,567,554,541,528,515,511,512,514,509,526,507,522,522,522,518,527,513,514,516,517,515,515,518,521,519,522,518,518,521,525,511,531,515,523,513,822,877,827,907,924,966,1094,1221,1307,1345,1344,1323,1383,1359,1258,1237,1215,1270,1172,1151,1130,1108,1111,1133,1108,1022,1023,984,958,934,915,894,926,851,891,889,856,839,858,853,871,873,868,889,876,893,889,877,908,879,883,890,889,901,883,875,888,891,885,884,884,894,871,892,890,378,379,380,381,382,408,461,514,567,614,625,615,605,595,585,575,566,556,546,536,526,516,506,497,487,477,467,457,447,437,412,402,408,383,388,383,384,386,380,378,371,373,396,397,385,395,393,407,404,416,414,415,406,408,410,392,406,407,416,430,411,426,427,437,406,677,679,681,683,687,768,841,940,1046,1069,1072,1072,1038,1021,1004,997,969,968,935,935,920,884,889,873,858,856,827,824,785,769,785,736,695,704,691,701,703,705,687,691,690,706,702,709,692,712,694,698,700,700,699,706,712,722,716,720,709,710,718,717,716,736,723,736,724,1311,1340,1373,1425,1534,1819,1899,2034,2088,2134,2256,2232,2074,2119,1971,1954,1900,1919,1855,1908,1779,1733,1709,1744,1651,1666,1587,1593,1486,1515,1441,1460,1405,1375,1370,1365,1382,1378,1418,1430,1449,1468,1452,1456,1444,1458,1435,1461,1468,1452,1451,1467,1463,1480,1560,1522,1456,1463,1490,1461,1453,1443,1459,1478,1460,0,0,0,0,0,0,0,0,0,0,0,0,0,0,0,0,0,0,0,0,0,0,0,0,0,0,0,0,0,0,0,0,0,0,0,0,0,0,0,0,0,0,0,0,0,0,0,0,0,0,0,0,0,0,0,0,0,0,0,0,0,0,0,0,0 ]);
