n = 10;
D = [67,130,85,216,264,79,262,145,95,181 ];
q = 0;
prec = array2d(1..0,1..2,[]);
steps = 64;
l = 360;
r = 0;
which = [];
interval = array2d(1..0,1..2,[]);
T = array3d(1..11,1..11,0..64,[0,0,0,0,0,0,0,0,0,0,0,0,0,0,0,0,0,0,0,0,0,0,0,0,0,0,0,0,0,0,0,0,0,0,0,0,0,0,0,0,0,0,0,0,0,0,0,0,0,0,0,0,0,0,0,0,0,0,0,0,0,0,0,0,0,725,687,689,691,722,799,905,1010,1086,1126,1128,1110,1092,1074,1056,1038,1033,1001,983,965,985,929,911,903,875,906,887,830,835,785,767,749,731,720,699,724,697,699,698,698,702,718,703,710,703,720,709,705,717,701,705,709,705,710,708,713,709,716,713,712,708,720,706,717,708,573,574,576,578,588,644,729,815,896,983,945,930,915,900,885,870,855,840,825,809,832,779,764,749,734,719,704,689,706,659,644,629,614,599,585,610,583,585,583,585,575,592,587,585,596,606,584,584,587,602,596,585,587,592,593,592,591,593,583,585,583,588,593,586,577,1315,1290,1368,1413,1613,1814,1990,2126,2215,2268,2255,2209,2150,2131,2127,2048,2036,2010,1967,1918,1898,1834,1798,1716,1707,1665,1623,1580,1508,1496,1454,1384,1407,1349,1313,1352,1352,1360,1390,1428,1397,1410,1424,1418,1412,1426,1420,1417,1441,1411,1413,1436,1429,1440,1435,1457,1448,1443,1468,1430,1449,1476,1473,1448,1434,763,794,823,806,837,913,1027,1172,1267,1322,1288,1224,1205,1185,1178,1190,1108,1133,1134,1086,1049,1029,1030,966,992,973,947,933,907,874,868,860,844,838,813,791,822,794,787,798,802,821,921,869,820,873,824,952,858,885,871,822,853,897,856,829,905,847,832,881,868,935,870,859,841,328,329,330,331,332,352,398,445,491,535,546,534,525,516,511,502,494,485,476,468,459,447,439,433,424,415,407,398,389,381,372,361,355,344,337,330,331,334,332,324,333,322,330,325,337,338,325,335,343,328,326,339,337,343,337,346,339,353,345,338,335,331,324,325,327,609,611,613,615,628,691,782,875,961,1003,1007,991,974,960,942,926,910,894,878,862,845,829,813,797,781,765,749,733,716,700,684,668,652,636,622,619,620,622,615,611,606,615,618,646,614,622,632,634,616,619,610,618,619,606,618,623,619,618,614,615,623,630,624,630,619,875,880,916,930,940,1044,1181,1307,1391,1435,1425,1403,1386,1358,1495,1318,1258,1267,1194,1227,1196,1229,1151,1129,1165,1139,1080,1103,1019,1032,974,955,929,911,981,867,893,858,906,915,909,922,922,935,916,938,920,924,913,916,913,939,928,928,927,937,929,922,934,942,925,935,912,929,919,715,677,679,681,701,863,877,979,1068,1206,1110,1093,1075,1057,1039,1022,1103,986,968,951,971,915,897,880,862,893,874,809,823,773,756,738,720,702,750,713,687,751,714,710,699,707,708,709,710,718,722,705,720,748,744,744,731,782,735,714,716,714,746,753,737,755,751,733,723,234,234,235,236,237,247,280,312,345,378,391,385,378,372,366,360,354,347,341,335,329,322,316,310,304,297,291,285,279,273,266,260,254,248,241,237,238,239,225,220,230,226,225,218,219,222,222,254,274,224,230,234,234,225,223,234,222,223,224,220,225,224,220,230,226,0,0,0,0,0,0,0,0,0,0,0,0,0,0,0,0,0,0,0,0,0,0,0,0,0,0,0,0,0,0,0,0,0,0,0,0,0,0,0,0,0,0,0,0,0,0,0,0,0,0,0,0,0,0,0,0,0,0,0,0,0,0,0,0,0,768,782,775,773,805,902,1014,1141,1232,1270,1276,1246,1228,1203,1185,1168,1144,1127,1107,1108,1061,1058,1048,1011,985,962,938,920,901,884,861,835,820,800,789,782,804,799,784,791,797,815,799,807,795,798,794,789,806,797,807,818,813,809,809,817,809,807,821,807,806,821,808,821,816,0,0,0,0,0,0,0,0,0,0,0,0,0,0,0,0,0,0,0,0,0,0,0,0,0,0,0,0,0,0,0,0,0,0,0,0,0,0,0,0,0,0,0,0,0,0,0,0,0,0,0,0,0,0,0,0,0,0,0,0,0,0,0,0,0,396,397,399,400,401,431,508,545,601,648,632,624,616,607,599,604,595,584,558,564,553,543,549,520,530,520,511,501,469,459,448,438,427,417,407,402,403,404,403,389,394,397,392,409,399,412,409,400,412,395,400,397,396,404,402,400,399,402,397,396,396,401,399,408,401,811,759,803,806,840,979,1165,1405,1488,1536,1505,1410,1447,1388,1389,1331,1330,1301,1272,1243,1214,1228,1101,1140,1045,1045,989,1010,981,952,923,885,865,869,814,812,849,781,850,829,827,836,839,839,897,888,845,877,859,840,850,885,893,898,890,909,893,916,891,875,875,860,846,843,833,798,822,730,754,866,933,994,1223,1312,1306,1385,1261,1260,1270,1204,1247,1213,1212,1167,1151,1139,1147,1075,1091,1004,962,939,940,912,901,818,848,840,853,811,807,828,811,806,809,812,817,815,813,823,816,820,816,823,816,822,818,829,837,831,841,830,828,831,822,828,830,832,837,827,613,623,625,619,632,694,787,879,964,1007,1010,994,978,962,946,930,947,898,881,865,861,833,817,839,785,769,763,736,720,704,688,679,679,663,626,622,624,634,618,631,630,641,648,642,640,649,629,639,630,630,633,649,642,649,687,678,640,641,649,639,629,632,647,645,631,485,504,490,527,496,540,612,681,752,800,809,796,783,832,757,744,731,718,705,692,679,719,654,661,628,615,602,607,576,561,548,535,524,511,499,495,496,497,496,499,488,556,526,516,516,526,514,525,517,522,525,504,499,513,511,510,523,501,495,514,508,522,523,514,492,1350,1198,1239,1245,1428,1601,1692,1829,1899,1926,1917,1884,1941,1826,1796,1765,1735,1704,1674,1643,1613,1583,1591,1547,1491,1461,1470,1459,1370,1339,1345,1336,1281,1227,1311,1247,1215,1218,1267,1266,1290,1304,1282,1305,1277,1298,1279,1310,1311,1295,1297,1309,1315,1333,1313,1312,1299,1306,1319,1317,1313,1311,1296,1327,1321,134,134,135,135,136,139,157,175,194,212,225,221,218,214,210,207,203,200,196,193,189,185,182,178,175,171,168,164,160,157,153,150,146,143,139,136,136,137,127,125,126,127,127,125,126,126,124,127,127,126,126,126,125,125,125,126,127,127,125,125,127,126,126,125,126,882,878,906,899,978,1051,1237,1372,1434,1469,1464,1438,1441,1363,1385,1346,1298,1300,1276,1235,1215,1224,1163,1130,1167,1089,1089,1065,1031,1023,995,956,945,926,895,913,900,916,915,907,915,928,921,929,932,945,929,934,940,930,948,948,947,946,927,923,932,931,934,922,927,938,923,937,931,768,782,775,773,805,902,1014,1141,1232,1270,1276,1246,1228,1203,1185,1168,1144,1127,1107,1108,1061,1058,1048,1011,985,962,938,920,901,884,861,835,820,800,789,782,804,799,784,791,797,815,799,807,795,798,794,789,806,797,807,818,813,809,809,817,809,807,821,807,806,821,808,821,816,526,527,529,531,533,624,664,757,819,865,870,856,843,824,810,801,782,773,762,745,761,717,704,690,676,664,660,634,622,606,595,581,565,583,538,544,532,537,531,532,534,536,638,583,572,573,560,649,590,561,594,552,568,591,569,560,609,555,560,600,579,645,596,629,575,263,263,264,265,266,289,316,353,391,427,440,433,426,419,412,405,398,391,384,377,370,363,356,349,341,334,327,320,313,306,299,292,285,278,271,267,267,268,259,251,255,256,253,261,258,264,263,258,264,256,257,256,256,261,258,259,257,258,257,256,257,259,258,265,262,0,0,0,0,0,0,0,0,0,0,0,0,0,0,0,0,0,0,0,0,0,0,0,0,0,0,0,0,0,0,0,0,0,0,0,0,0,0,0,0,0,0,0,0,0,0,0,0,0,0,0,0,0,0,0,0,0,0,0,0,0,0,0,0,0,1010,1053,1015,1030,1122,1363,1511,1626,1788,1844,1867,1697,1730,1693,1619,1603,1595,1567,1538,1539,1512,1439,1363,1380,1353,1264,1280,1251,1211,1131,1154,1088,1031,1000,1027,1028,1046,1041,1067,1069,1050,1062,1052,1082,1059,1069,1098,1143,1073,1093,1092,1090,1082,1112,1108,1081,1080,1067,1082,1108,1080,1093,1097,1091,1077,640,643,587,597,566,709,733,772,879,937,884,876,957,908,864,910,901,800,781,809,849,803,803,800,770,781,678,726,665,684,701,699,620,618,653,650,660,591,624,631,626,644,669,661,653,668,640,666,668,692,686,687,682,664,659,654,676,674,662,656,661,677,652,654,648,503,504,506,516,512,558,644,706,795,826,832,819,806,792,779,766,753,739,738,725,699,686,673,660,646,633,620,607,593,580,567,553,540,527,514,510,512,536,508,524,511,541,514,532,516,540,519,530,523,516,529,524,536,533,531,529,531,526,541,526,526,533,529,538,537,629,621,614,632,650,729,784,902,1023,1053,1038,1023,997,988,963,927,964,895,911,887,887,831,815,822,798,787,784,754,741,721,708,693,661,671,624,635,622,643,637,632,637,638,634,633,642,639,638,638,636,637,644,645,646,641,648,642,645,645,647,652,646,653,642,641,647,1083,1087,1090,1276,1195,1336,1512,1719,1775,1756,1746,1719,1691,1663,1636,1608,1610,1550,1702,1497,1469,1442,1414,1386,1359,1331,1428,1276,1248,1220,1229,1165,1137,1115,1123,1135,1102,1103,1151,1145,1141,1153,1142,1164,1211,1213,1147,1177,1164,1151,1150,1191,1203,1215,1211,1191,1200,1212,1221,1198,1176,1187,1157,1160,1154,252,253,254,255,256,344,303,338,374,409,422,415,409,402,395,389,382,375,368,362,355,348,341,335,328,321,314,308,301,294,288,281,274,267,261,256,257,258,261,254,245,246,265,274,259,269,265,284,262,289,284,284,264,287,272,266,281,262,280,322,295,307,294,288,287,636,695,640,661,679,734,819,948,1033,1077,1078,1059,1044,997,979,967,973,961,932,922,906,887,861,836,820,819,778,785,755,746,714,716,699,673,668,660,665,685,657,657,666,678,671,676,680,691,678,677,690,680,702,700,701,693,669,670,680,679,682,666,675,683,669,682,675,526,527,529,531,533,624,664,757,819,865,870,856,843,824,810,801,782,773,762,745,761,717,704,690,676,664,660,634,622,606,595,581,565,583,538,544,532,537,531,532,534,536,638,583,572,573,560,649,590,561,594,552,568,591,569,560,609,555,560,600,579,645,596,629,575,1352,1353,1407,1445,1609,1765,2029,2162,2158,2243,2229,2180,2109,2110,2095,1999,1959,1952,1937,1981,1860,1792,1777,1717,1706,1702,1607,1570,1533,1540,1473,1456,1402,1420,1401,1404,1431,1413,1493,1481,1461,1481,1476,1519,1482,1490,1524,1574,1498,1516,1518,1514,1509,1521,1522,1509,1502,1499,1495,1521,1507,1516,1509,1506,1482,864,866,879,875,934,1060,1242,1404,1502,1542,1526,1500,1473,1475,1421,1394,1385,1329,1406,1289,1294,1226,1195,1164,1153,1109,1071,1047,1009,977,955,942,911,854,880,879,883,847,879,881,879,891,891,889,885,901,877,888,884,884,886,897,896,892,890,891,890,888,900,908,883,893,884,889,884,956,959,997,975,1055,1155,1357,1445,1526,1575,1605,1579,1531,1529,1455,1430,1406,1411,1388,1378,1343,1294,1282,1232,1207,1229,1157,1124,1099,1126,1058,1033,1001,1005,998,970,992,994,977,1006,977,999,996,1000,1001,1017,1135,1047,1144,1017,1063,1085,1100,1058,1028,1057,1004,1024,1015,1013,1004,1007,1042,1042,1014,0,0,0,0,0,0,0,0,0,0,0,0,0,0,0,0,0,0,0,0,0,0,0,0,0,0,0,0,0,0,0,0,0,0,0,0,0,0,0,0,0,0,0,0,0,0,0,0,0,0,0,0,0,0,0,0,0,0,0,0,0,0,0,0,0,1069,1034,1036,1054,1103,1258,1344,1552,1519,1566,1565,1527,1549,1525,1464,1437,1414,1491,1369,1455,1400,1306,1351,1321,1306,1212,1189,1171,1154,1159,1099,1130,1054,1066,1052,1053,1053,1050,1063,1065,1074,1085,1073,1099,1081,1098,1073,1091,1107,1082,1069,1085,1098,1103,1093,1105,1100,1095,1108,1100,1080,1073,1128,1091,1062,1378,1331,1356,1481,1677,1738,2006,2210,2230,2263,2297,2197,2171,2176,2081,2061,2018,1965,1977,1888,1917,1816,1914,1732,1726,1690,1605,1619,1636,1477,1482,1392,1445,1322,1349,1381,1355,1394,1403,1417,1437,1453,1420,1442,1426,1443,1426,1459,1452,1436,1436,1448,1451,1470,1459,1458,1434,1437,1479,1463,1458,1449,1430,1461,1450,1065,1084,1071,1096,1267,1330,1662,1735,1829,1868,1919,1808,1849,1779,1875,1678,1741,1610,1580,1568,1525,1489,1452,1416,1444,1462,1325,1310,1234,1198,1285,1125,1089,1057,1082,1083,1088,1177,1131,1133,1101,1110,1136,1105,1211,1152,1110,1183,1139,1116,1108,1211,1160,1164,1220,1170,1166,1200,1219,1151,1142,1129,1128,1122,1121,1786,1786,1919,2026,2339,2622,2816,3001,2986,3083,2996,2926,2887,2865,2849,2934,2704,2784,2621,2588,2583,2432,2421,2301,2312,2237,2246,2154,2056,2000,1954,1897,1843,1811,1799,1834,1824,1841,2141,2140,2150,2198,2163,2167,2163,2174,2180,2282,2167,2163,2207,2201,2254,2192,2206,2190,2183,2193,2160,2167,2178,2200,2190,2201,2163,914,917,930,927,996,1105,1320,1482,1577,1621,1597,1569,1540,1549,1484,1455,1452,1398,1370,1342,1360,1291,1258,1226,1194,1162,1129,1097,1065,1033,1000,968,963,905,931,930,934,898,915,916,917,922,921,923,920,925,920,936,929,930,932,936,945,951,947,946,940,939,942,942,948,953,938,947,944,1080,1122,1123,1111,1195,1391,1723,1822,1930,2007,2070,1957,1922,1878,1848,1771,1735,1698,1661,1625,1588,1624,1515,1525,1442,1405,1468,1332,1334,1258,1222,1228,1188,1120,1097,1132,1132,1111,1173,1172,1153,1164,1156,1181,1165,1174,1199,1248,1183,1200,1203,1202,1192,1225,1215,1190,1191,1181,1198,1222,1190,1204,1212,1204,1190,1352,1353,1407,1445,1609,1765,2029,2162,2158,2243,2229,2180,2109,2110,2095,1999,1959,1952,1937,1981,1860,1792,1777,1717,1706,1702,1607,1570,1533,1540,1473,1456,1402,1420,1401,1404,1431,1413,1493,1481,1461,1481,1476,1519,1482,1490,1524,1574,1498,1516,1518,1514,1509,1521,1522,1509,1502,1499,1495,1521,1507,1516,1509,1506,1482,784,766,771,843,795,900,1002,1196,1220,1262,1236,1230,1187,1178,1151,1130,1146,1093,1078,1063,1034,1038,1043,976,957,938,933,921,901,913,848,823,810,790,789,787,789,790,793,787,804,787,794,807,827,813,798,812,820,816,814,812,816,830,814,814,805,812,804,809,809,806,801,831,837,808,715,717,720,756,845,949,1042,1111,1145,1145,1128,1110,1093,1075,1201,1051,1034,1016,998,980,962,928,970,952,941,856,847,838,811,793,775,795,739,736,724,782,727,737,740,733,841,761,738,746,767,756,744,747,760,762,748,737,748,749,756,749,758,740,754,747,776,786,778,766,462,454,456,457,469,507,577,627,673,715,722,712,701,691,680,693,670,659,648,637,626,615,587,593,582,579,543,541,530,519,508,496,504,474,463,460,473,462,453,465,463,469,470,472,465,475,461,484,464,465,469,472,486,498,485,477,475,465,481,479,478,480,467,476,465,973,947,964,959,1004,1189,1259,1329,1472,1603,1466,1446,1449,1407,1357,1385,1316,1296,1275,1255,1234,1214,1212,1191,1153,1132,1112,1108,1134,1051,1030,1010,1113,1001,1034,956,958,960,1012,983,1006,996,989,988,1027,1005,990,988,1003,998,1000,1001,999,993,999,1003,1000,1005,1004,1004,998,1008,1004,998,999,0,0,0,0,0,0,0,0,0,0,0,0,0,0,0,0,0,0,0,0,0,0,0,0,0,0,0,0,0,0,0,0,0,0,0,0,0,0,0,0,0,0,0,0,0,0,0,0,0,0,0,0,0,0,0,0,0,0,0,0,0,0,0,0,0,812,812,816,892,849,960,1072,1214,1294,1335,1307,1299,1258,1246,1218,1196,1193,1157,1140,1124,1094,1074,1072,1033,1013,993,985,973,952,962,897,871,856,836,830,828,828,837,855,833,835,843,845,843,901,893,850,884,864,845,854,889,897,902,894,906,896,922,894,878,877,862,847,845,836,1055,1071,1051,1128,1151,1286,1479,1616,1698,1723,1680,1668,1735,1640,1574,1548,1577,1544,1468,1489,1451,1440,1411,1398,1348,1282,1288,1229,1220,1218,1149,1167,1153,1074,1091,1117,1118,1112,1111,1126,1134,1147,1157,1137,1136,1172,1135,1143,1145,1124,1136,1144,1161,1162,1313,1259,1168,1151,1151,1141,1129,1129,1144,1164,1127,1521,1523,1562,1751,1790,2116,2226,2396,2416,2416,2444,2363,2345,2280,2238,2232,2226,2182,2113,2076,2007,1980,1983,1936,1863,1829,1825,1758,1741,1741,1677,1597,1572,1564,1575,1597,1550,1559,1662,1658,1657,1670,1660,1678,1665,1670,1688,1764,1675,1689,1695,1701,1705,1717,1727,1717,1703,1703,1704,1716,1713,1719,1709,1728,1716,712,705,707,709,744,821,933,1024,1093,1128,1128,1110,1093,1076,1059,1285,1036,1018,1001,983,966,948,914,957,939,928,844,835,818,800,782,765,784,729,716,713,763,717,737,708,715,715,714,723,724,733,728,723,733,723,725,726,723,732,730,728,731,730,726,722,730,733,735,743,737,595,604,599,678,612,671,777,882,924,965,968,964,938,923,899,892,877,854,838,842,815,802,787,772,757,741,726,734,718,714,666,645,636,620,608,604,605,606,593,608,599,632,593,621,602,626,611,619,614,602,617,608,619,618,616,615,622,616,629,613,614,624,616,628,630,784,766,771,843,795,900,1002,1196,1220,1262,1236,1230,1187,1178,1151,1130,1146,1093,1078,1063,1034,1038,1043,976,957,938,933,921,901,913,848,823,810,790,789,787,789,790,793,787,804,787,794,807,827,813,798,812,820,816,814,812,816,830,814,814,805,812,804,809,809,806,801,831,837,305,306,307,308,309,326,369,412,455,497,510,502,493,485,477,469,461,453,445,437,428,420,412,404,396,388,380,371,363,355,347,339,331,323,315,310,311,312,303,309,296,301,311,309,325,324,304,308,309,319,315,304,307,312,310,308,310,309,303,308,302,310,311,311,299,635,621,625,630,639,705,826,887,978,1019,1036,994,982,966,946,938,918,912,890,877,858,835,878,810,791,772,765,740,730,756,698,682,666,650,634,633,630,673,630,636,637,649,647,651,640,660,642,646,644,639,646,654,651,654,656,655,656,653,662,659,652,674,669,676,671,547,549,550,553,560,612,692,775,854,899,902,889,875,860,846,831,815,803,788,775,760,780,731,717,702,688,672,659,674,630,615,650,587,573,560,555,557,558,560,564,560,577,592,582,580,593,576,577,588,594,587,611,605,595,588,590,594,577,557,617,578,582,575,600,575,1365,1375,1387,1487,1673,1945,2213,2266,2398,2373,2349,2320,2270,2223,2217,2155,2101,2101,1965,2009,1989,1847,1855,1813,1717,1714,1688,1589,1596,1558,1491,1468,1434,1403,1407,1381,1426,1410,1479,1497,1473,1502,1504,1486,1495,1519,1491,1516,1501,1521,1511,1518,1511,1518,1522,1527,1533,1519,1518,1509,1533,1535,1531,1521,1549,889,904,908,919,952,1102,1194,1346,1446,1490,1461,1445,1414,1392,1405,1327,1352,1313,1281,1215,1213,1208,1234,1126,1126,1103,1075,1091,1059,1024,1009,978,938,952,943,901,956,906,951,930,932,950,931,960,940,976,961,986,975,960,945,948,974,960,952,939,958,965,955,938,953,961,937,962,944,0,0,0,0,0,0,0,0,0,0,0,0,0,0,0,0,0,0,0,0,0,0,0,0,0,0,0,0,0,0,0,0,0,0,0,0,0,0,0,0,0,0,0,0,0,0,0,0,0,0,0,0,0,0,0,0,0,0,0,0,0,0,0,0,0,433,435,436,437,439,475,539,602,666,713,721,710,698,686,675,663,652,640,629,617,606,594,583,571,559,548,536,525,513,502,490,479,467,456,444,440,441,442,445,439,442,440,449,455,441,450,453,445,449,446,450,452,453,462,460,455,447,460,454,465,456,455,453,461,464,722,711,713,715,737,816,923,1029,1134,1219,1226,1138,1120,1107,1089,1065,1066,1029,1011,1012,974,956,989,919,905,883,864,846,828,824,791,773,755,737,764,719,721,726,737,753,743,814,781,764,754,752,752,775,760,770,776,760,739,741,756,767,745,747,764,756,754,743,768,745,738,625,611,612,620,627,691,805,870,960,1001,1019,977,965,950,930,922,903,897,875,862,844,821,808,797,778,755,752,799,718,707,687,671,655,639,624,623,619,620,607,608,610,625,611,629,610,619,637,617,617,613,613,618,613,614,617,621,617,622,615,619,624,633,626,638,626,367,368,369,370,372,397,450,503,555,601,689,602,616,656,596,634,553,543,533,523,514,504,494,484,475,465,474,464,436,426,416,406,431,387,377,373,374,375,373,370,371,373,370,376,372,374,373,373,374,368,371,371,371,374,374,374,372,371,374,376,370,381,370,377,372,305,306,307,308,309,326,369,412,455,497,510,502,493,485,477,469,461,453,445,437,428,420,412,404,396,388,380,371,363,355,347,339,331,323,315,310,311,312,303,309,296,301,311,309,325,324,304,308,309,319,315,304,307,312,310,308,310,309,303,308,302,310,311,311,299,630,634,634,635,650,741,814,902,996,1051,1032,1025,1004,988,971,951,942,922,902,892,875,856,839,819,808,790,775,758,742,722,709,692,674,657,640,657,643,642,631,631,639,649,646,640,645,649,648,649,642,640,645,647,641,647,654,654,657,652,648,649,652,680,680,684,682,415,417,418,427,518,465,515,589,636,684,692,681,670,659,648,775,626,614,603,592,581,570,559,548,537,526,515,513,493,481,489,459,448,437,426,430,423,424,415,423,420,432,454,448,432,462,427,462,445,460,440,434,445,452,444,437,449,444,441,450,439,450,439,441,434,622,624,626,627,641,718,799,907,979,1021,1025,1009,993,976,1018,1000,995,911,895,878,861,846,829,813,795,780,763,747,731,715,709,682,666,648,636,632,634,635,638,633,637,646,651,647,657,637,640,648,644,634,645,645,641,640,671,659,638,639,634,639,640,649,651,646,640,1111,1085,1025,1207,1262,1398,1637,1813,1965,1890,1955,1838,1769,1797,1734,1727,1691,1656,1620,1528,1550,1528,1479,1391,1421,1388,1338,1302,1234,1232,1176,1141,1126,1052,1081,1039,1121,1052,1121,1131,1100,1115,1127,1099,1157,1121,1116,1159,1138,1121,1110,1130,1121,1114,1145,1130,1120,1167,1181,1122,1134,1123,1121,1119,1119,1038,1042,1039,1066,1119,1255,1399,1568,1625,1661,1670,1625,1597,1589,1543,1571,1512,1466,1442,1515,1406,1363,1366,1350,1285,1254,1253,1229,1203,1162,1188,1153,1106,1067,1055,1053,1055,1058,1073,1070,1089,1090,1100,1137,1096,1112,1110,1111,1137,1112,1113,1121,1119,1127,1103,1105,1108,1120,1106,1110,1116,1130,1111,1122,1126,483,472,486,475,478,519,588,657,726,785,821,787,755,743,727,738,705,693,693,668,656,643,631,615,606,593,596,569,556,558,531,519,506,507,482,490,479,478,476,486,484,491,493,496,490,502,481,494,485,481,487,498,495,496,501,493,488,487,502,501,485,493,483,494,486,0,0,0,0,0,0,0,0,0,0,0,0,0,0,0,0,0,0,0,0,0,0,0,0,0,0,0,0,0,0,0,0,0,0,0,0,0,0,0,0,0,0,0,0,0,0,0,0,0,0,0,0,0,0,0,0,0,0,0,0,0,0,0,0,0,854,857,859,864,908,1008,1140,1269,1354,1391,1421,1366,1376,1427,1300,1278,1356,1283,1212,1190,1168,1146,1168,1129,1080,1142,1037,1095,993,971,971,949,905,864,870,867,869,872,886,878,890,892,879,875,909,897,870,866,885,888,881,876,875,877,876,886,882,885,879,879,873,894,899,901,881,405,407,408,409,411,453,501,573,618,666,674,663,653,642,631,728,610,599,588,577,567,556,545,534,523,513,502,491,480,470,469,448,437,427,416,412,413,414,396,397,408,423,403,408,397,408,401,403,403,400,400,404,407,410,407,407,406,404,407,408,407,408,403,407,404,822,834,828,828,884,990,1106,1233,1307,1367,1327,1333,1324,1287,1264,1242,1252,1196,1187,1146,1149,1110,1081,1052,1048,1023,1019,990,964,928,926,904,891,865,838,832,847,849,852,850,852,853,889,878,891,891,864,896,876,870,883,866,867,892,885,873,881,877,863,889,871,888,877,889,882,630,634,634,635,650,741,814,902,996,1051,1032,1025,1004,988,971,951,942,922,902,892,875,856,839,819,808,790,775,758,742,722,709,692,674,657,640,657,643,642,631,631,639,649,646,640,645,649,648,649,642,640,645,647,641,647,654,654,657,652,648,649,652,680,680,684,682,932,933,936,948,1006,1120,1270,1403,1526,1522,1515,1586,1507,1444,1421,1397,1372,1348,1324,1300,1274,1251,1225,1202,1178,1154,1127,1179,1081,1057,1059,1008,979,962,947,944,948,980,950,955,969,986,966,984,966,982,962,974,977,961,961,975,975,986,978,976,968,974,982,974,973,967,961,993,970,1189,1192,1179,1241,1311,1528,1670,1809,1892,1895,1966,1910,1843,1811,1810,1737,1700,1769,1647,1619,1586,1589,1573,1540,1493,1468,1426,1382,1362,1314,1286,1256,1231,1245,1230,1232,1188,1194,1253,1250,1250,1378,1299,1271,1284,1299,1277,1285,1292,1294,1300,1311,1311,1312,1328,1294,1281,1284,1276,1276,1265,1294,1288,1297,1258,1181,1167,1274,1228,1359,1542,1675,1859,1881,1959,1906,1963,1846,1825,1825,1746,1725,1740,1695,1624,1625,1564,1598,1523,1456,1527,1450,1403,1385,1363,1308,1280,1231,1274,1206,1213,1206,1201,1229,1228,1233,1239,1236,1242,1248,1268,1248,1254,1246,1250,1257,1257,1257,1259,1265,1274,1266,1273,1271,1260,1279,1272,1285,1277,1269,1817,1865,1976,2245,2663,2802,3069,3181,3174,3170,3186,3172,3023,3010,2958,2874,2768,2796,2694,2685,2584,2560,2476,2472,2384,2393,2334,2225,2148,2121,2035,1993,1930,1904,1982,1878,1902,1934,2233,2248,2294,2312,2307,2318,2344,2362,2355,2371,2402,2398,2437,2423,2425,2455,2491,2505,2485,2534,2544,2548,2548,2575,2575,2593,2621,1639,1587,1642,1743,1903,2105,2265,2438,2460,2538,2432,2550,2387,2341,2327,2278,2221,2221,2124,2140,2112,2056,1988,1982,1958,1874,1867,1778,1738,1722,1697,1652,1655,1645,1621,1610,1657,1592,1782,1761,1762,1769,1771,1789,1818,1831,1790,1966,1802,1769,1770,1833,1848,1819,1830,1843,1824,1854,1815,1815,1816,1795,1759,1772,1762,712,714,716,718,756,820,929,1039,1168,1168,1169,1248,1188,1113,1095,1076,1057,1039,1020,1017,983,964,945,923,922,903,867,849,833,815,823,774,759,740,726,723,725,726,724,722,741,740,733,756,740,761,756,748,779,752,753,756,755,769,744,743,749,758,748,745,749,760,737,760,759,877,880,881,890,936,1044,1171,1312,1401,1438,1421,1399,1388,1350,1342,1316,1297,1274,1251,1224,1194,1168,1148,1128,1100,1090,1057,1044,1021,998,975,950,929,907,892,891,891,896,904,889,904,915,902,906,904,911,911,929,945,922,914,909,929,921,925,928,934,931,924,922,928,907,945,919,891,0,0,0,0,0,0,0,0,0,0,0,0,0,0,0,0,0,0,0,0,0,0,0,0,0,0,0,0,0,0,0,0,0,0,0,0,0,0,0,0,0,0,0,0,0,0,0,0,0,0,0,0,0,0,0,0,0,0,0,0,0,0,0,0,0,1179,1243,1168,1219,1296,1499,1646,1791,1862,1878,1937,1894,1826,1784,1795,1722,1685,1755,1632,1605,1573,1576,1520,1527,1480,1455,1414,1370,1350,1303,1276,1246,1217,1235,1220,1184,1178,1183,1205,1203,1210,1219,1220,1221,1226,1222,1225,1238,1233,1234,1239,1249,1250,1249,1262,1256,1248,1266,1256,1251,1264,1261,1262,1271,1260,1098,989,996,1008,1079,1204,1359,1568,1617,1676,1654,1696,1613,1530,1501,1475,1450,1424,1419,1393,1346,1321,1296,1270,1245,1298,1193,1168,1142,1116,1117,1065,1055,1017,1004,1001,1004,1080,1021,1035,1036,1077,1074,1061,1050,1066,1046,1046,1062,1069,1054,1091,1076,1067,1069,1081,1078,1060,1037,1099,1061,1089,1062,1097,1066,932,933,936,948,1006,1120,1270,1403,1526,1522,1515,1586,1507,1444,1421,1397,1372,1348,1324,1300,1274,1251,1225,1202,1178,1154,1127,1179,1081,1057,1059,1008,979,962,947,944,948,980,950,955,969,986,966,984,966,982,962,974,977,961,961,975,975,986,978,976,968,974,982,974,973,967,961,993,970,709,712,715,729,741,822,928,1071,1125,1169,1181,1152,1124,1100,1092,1063,1058,1037,1014,989,981,960,941,915,906,900,869,851,830,812,794,778,768,738,718,723,722,718,726,721,728,739,733,739,744,753,741,740,751,741,759,755,756,755,735,731,743,741,745,730,737,747,733,746,740,128,128,129,129,129,133,150,168,186,204,216,212,209,205,202,198,195,191,188,184,181,177,174,171,167,164,160,157,153,150,146,143,139,136,133,130,130,130,125,123,119,120,129,134,125,129,127,135,131,144,148,146,136,141,140,127,131,134,144,155,143,154,149,157,141,334,335,336,337,338,359,407,454,502,545,556,547,538,530,521,551,503,494,485,477,468,459,450,441,432,424,415,406,397,388,379,370,362,353,344,339,340,368,335,340,328,334,345,343,349,355,339,340,341,349,343,337,339,343,341,339,343,341,335,340,335,343,340,339,331,715,760,718,763,790,891,1093,1269,1335,1458,1440,1346,1384,1308,1328,1300,1272,1244,1216,1188,1134,1132,1104,1075,1061,968,968,963,935,919,879,830,779,775,773,769,775,781,777,764,774,769,771,787,777,775,781,795,810,801,799,805,801,808,793,799,798,804,807,816,804,799,801,816,823,758,759,742,760,808,908,1013,1126,1174,1201,1222,1213,1221,1129,1111,1094,1165,1085,1064,1078,1069,980,1026,1047,1021,1004,981,864,927,928,866,885,825,825,836,816,826,770,855,797,797,801,798,815,801,809,804,804,806,795,801,802,805,807,818,807,805,808,808,815,804,812,804,813,812,560,553,554,556,564,617,699,781,913,905,1107,896,893,867,852,838,823,809,794,780,765,792,821,722,707,703,787,664,649,634,620,605,600,576,563,559,570,562,549,550,556,568,561,557,556,561,565,559,556,559,561,564,559,563,568,569,569,568,564,567,571,598,598,600,598,445,447,448,450,452,490,555,620,686,734,741,729,717,705,694,682,670,658,646,634,622,610,599,587,621,563,551,539,527,516,504,492,497,468,472,452,454,455,458,440,441,440,483,463,452,448,450,454,486,476,481,479,487,463,494,469,472,492,503,484,464,471,502,499,471,1132,1156,1139,1219,1305,1441,1592,1728,1804,1831,1821,1793,1764,1735,1706,1720,1766,1619,1703,1635,1630,1504,1475,1471,1417,1388,1453,1378,1324,1272,1349,1215,1219,1164,1151,1149,1152,1155,1196,1203,1199,1223,1250,1243,1259,1266,1228,1264,1266,1265,1289,1272,1268,1268,1250,1239,1264,1249,1238,1250,1259,1258,1250,1274,1244,0,0,0,0,0,0,0,0,0,0,0,0,0,0,0,0,0,0,0,0,0,0,0,0,0,0,0,0,0,0,0,0,0,0,0,0,0,0,0,0,0,0,0,0,0,0,0,0,0,0,0,0,0,0,0,0,0,0,0,0,0,0,0,0,0,838,824,840,844,888,988,1136,1248,1296,1365,1333,1343,1289,1301,1280,1227,1208,1191,1192,1147,1147,1102,1102,1035,1061,1045,1029,968,948,928,929,886,869,865,834,848,843,837,836,845,844,855,853,860,850,864,848,856,847,846,852,863,863,864,866,863,860,862,873,863,862,874,874,889,875,709,712,715,729,741,822,928,1071,1125,1169,1181,1152,1124,1100,1092,1063,1058,1037,1014,989,981,960,941,915,906,900,869,851,830,812,794,778,768,738,718,723,722,718,726,721,728,739,733,739,744,753,741,740,751,741,759,755,756,755,735,731,743,741,745,730,737,747,733,746,740,449,474,458,450,456,485,554,626,677,738,728,724,712,700,702,670,665,653,641,652,622,610,606,603,581,559,555,555,524,520,500,496,477,461,452,456,453,455,445,440,441,440,453,456,454,455,447,467,458,449,454,446,448,458,454,453,457,445,446,452,455,458,457,476,458,817,812,815,827,858,964,1081,1206,1304,1469,1334,1389,1284,1274,1273,1269,1226,1190,1163,1135,1126,1103,1072,1050,1029,1014,997,991,950,933,933,881,864,885,825,860,824,831,839,844,850,890,867,870,866,840,860,870,898,864,940,947,1008,898,878,869,860,851,848,858,851,853,851,877,841,557,566,560,609,615,624,707,790,870,1223,968,905,890,875,908,879,831,817,844,787,783,758,743,729,714,738,685,701,685,641,650,612,620,622,569,596,567,599,573,587,585,600,660,630,601,647,596,680,624,659,628,601,624,652,625,605,647,619,610,634,623,661,624,621,606,1054,1056,1200,1113,1235,1445,1689,1813,1962,1966,1948,1911,1833,1797,1801,1765,1689,1654,1655,1618,1582,1510,1625,1611,1402,1366,1362,1326,1289,1253,1216,1151,1143,1113,1101,1103,1082,1118,1157,1169,1153,1177,1207,1202,1179,1177,1190,1216,1185,1207,1203,1196,1166,1177,1181,1206,1208,1172,1199,1234,1193,1189,1198,1181,1179,603,605,607,625,619,660,746,858,1146,1003,1027,945,950,915,898,885,890,855,840,868,810,815,779,803,772,779,736,721,712,722,675,646,681,629,614,612,630,615,619,621,621,621,622,626,648,644,636,629,632,631,630,636,639,663,637,637,634,636,644,641,636,642,637,684,640,495,500,502,496,503,540,615,694,753,811,802,796,783,770,769,738,731,717,706,715,682,671,664,655,636,615,628,607,577,571,551,545,525,508,498,520,500,501,499,502,494,496,506,511,538,534,506,509,517,519,515,503,508,519,513,510,514,509,506,507,504,514,511,523,500,778,785,784,782,821,901,1100,1153,1227,1278,1363,1247,1226,1205,1195,1159,1145,1124,1104,1105,1067,1047,1031,1017,989,962,950,1023,901,888,861,847,820,796,785,838,789,791,813,782,785,789,776,786,783,786,786,815,804,797,795,801,813,799,805,800,798,805,808,805,810,806,798,820,818,1101,1007,1020,1078,1105,1212,1449,1510,1591,1646,1617,1712,1577,1546,1582,1508,1484,1438,1412,1387,1380,1335,1360,1284,1275,1233,1165,1291,1175,1145,1147,1111,1053,1064,1062,1015,981,1031,1057,1031,1031,1037,1070,1092,1062,1054,1061,1067,1105,1089,1116,1091,1108,1097,1134,1078,1090,1124,1138,1131,1104,1112,1150,1200,1110,807,802,804,808,846,949,1064,1188,1286,1434,1317,1358,1267,1258,1257,1253,1200,1175,1149,1121,1191,1079,1058,1037,1016,1001,1013,979,1005,912,922,933,854,858,815,850,814,821,845,837,836,841,854,840,841,837,848,853,852,847,859,873,858,846,866,858,853,864,846,856,856,853,858,855,847,0,0,0,0,0,0,0,0,0,0,0,0,0,0,0,0,0,0,0,0,0,0,0,0,0,0,0,0,0,0,0,0,0,0,0,0,0,0,0,0,0,0,0,0,0,0,0,0,0,0,0,0,0,0,0,0,0,0,0,0,0,0,0,0,0,449,474,458,450,456,485,554,626,677,738,728,724,712,700,702,670,665,653,641,652,622,610,606,603,581,559,555,555,524,520,500,496,477,461,452,456,453,455,445,440,441,440,453,456,454,455,447,467,458,449,454,446,448,458,454,453,457,445,446,452,455,458,457,476,458,0,0,0,0,0,0,0,0,0,0,0,0,0,0,0,0,0,0,0,0,0,0,0,0,0,0,0,0,0,0,0,0,0,0,0,0,0,0,0,0,0,0,0,0,0,0,0,0,0,0,0,0,0,0,0,0,0,0,0,0,0,0,0,0,0,725,687,689,691,722,799,905,1010,1086,1126,1128,1110,1092,1074,1056,1038,1033,1001,983,965,985,929,911,903,875,906,887,830,835,785,767,749,731,720,699,724,697,699,698,698,702,718,703,710,703,720,709,705,717,701,705,709,705,710,708,713,709,716,713,712,708,720,706,717,708,573,574,576,578,588,644,729,815,896,983,945,930,915,900,885,870,855,840,825,809,832,779,764,749,734,719,704,689,706,659,644,629,614,599,585,610,583,585,583,585,575,592,587,585,596,606,584,584,587,602,596,585,587,592,593,592,591,593,583,585,583,588,593,586,577,1315,1290,1368,1413,1613,1814,1990,2126,2215,2268,2255,2209,2150,2131,2127,2048,2036,2010,1967,1918,1898,1834,1798,1716,1707,1665,1623,1580,1508,1496,1454,1384,1407,1349,1313,1352,1352,1360,1390,1428,1397,1410,1424,1418,1412,1426,1420,1417,1441,1411,1413,1436,1429,1440,1435,1457,1448,1443,1468,1430,1449,1476,1473,1448,1434,763,794,823,806,837,913,1027,1172,1267,1322,1288,1224,1205,1185,1178,1190,1108,1133,1134,1086,1049,1029,1030,966,992,973,947,933,907,874,868,860,844,838,813,791,822,794,787,798,802,821,921,869,820,873,824,952,858,885,871,822,853,897,856,829,905,847,832,881,868,935,870,859,841,328,329,330,331,332,352,398,445,491,535,546,534,525,516,511,502,494,485,476,468,459,447,439,433,424,415,407,398,389,381,372,361,355,344,337,330,331,334,332,324,333,322,330,325,337,338,325,335,343,328,326,339,337,343,337,346,339,353,345,338,335,331,324,325,327,609,611,613,615,628,691,782,875,961,1003,1007,991,974,960,942,926,910,894,878,862,845,829,813,797,781,765,749,733,716,700,684,668,652,636,622,619,620,622,615,611,606,615,618,646,614,622,632,634,616,619,610,618,619,606,618,623,619,618,614,615,623,630,624,630,619,875,880,916,930,940,1044,1181,1307,1391,1435,1425,1403,1386,1358,1495,1318,1258,1267,1194,1227,1196,1229,1151,1129,1165,1139,1080,1103,1019,1032,974,955,929,911,981,867,893,858,906,915,909,922,922,935,916,938,920,924,913,916,913,939,928,928,927,937,929,922,934,942,925,935,912,929,919,715,677,679,681,701,863,877,979,1068,1206,1110,1093,1075,1057,1039,1022,1103,986,968,951,971,915,897,880,862,893,874,809,823,773,756,738,720,702,750,713,687,751,714,710,699,707,708,709,710,718,722,705,720,748,744,744,731,782,735,714,716,714,746,753,737,755,751,733,723,234,234,235,236,237,247,280,312,345,378,391,385,378,372,366,360,354,347,341,335,329,322,316,310,304,297,291,285,279,273,266,260,254,248,241,237,238,239,225,220,230,226,225,218,219,222,222,254,274,224,230,234,234,225,223,234,222,223,224,220,225,224,220,230,226,0,0,0,0,0,0,0,0,0,0,0,0,0,0,0,0,0,0,0,0,0,0,0,0,0,0,0,0,0,0,0,0,0,0,0,0,0,0,0,0,0,0,0,0,0,0,0,0,0,0,0,0,0,0,0,0,0,0,0,0,0,0,0,0,0 ]);
