n = 10;
D = [158,228,245,220,184,207,294,236,84,146 ];
q = 0;
prec = array2d(1..0,1..2,[]);
steps = 64;
l = 360;
r = 0;
which = [];
interval = array2d(1..0,1..2,[]);
T = array3d(1..11,1..11,0..64,[0,0,0,0,0,0,0,0,0,0,0,0,0,0,0,0,0,0,0,0,0,0,0,0,0,0,0,0,0,0,0,0,0,0,0,0,0,0,0,0,0,0,0,0,0,0,0,0,0,0,0,0,0,0,0,0,0,0,0,0,0,0,0,0,0,628,630,632,634,649,714,828,903,990,1030,1036,1019,1003,986,970,953,1032,920,903,887,870,854,837,821,802,788,771,755,738,722,709,689,672,673,642,638,638,641,625,628,639,654,642,645,637,648,637,661,642,639,656,657,678,687,666,654,656,661,657,652,662,679,654,663,651,1392,1361,1383,1415,1653,1835,2019,2148,2164,2277,2204,2156,2203,2138,2059,2083,1984,1975,1931,1870,1839,1835,1772,1772,1709,1666,1630,1666,1550,1530,1512,1456,1496,1426,1447,1382,1394,1387,1476,1483,1481,1484,1488,1479,1491,1501,1486,1486,1495,1499,1564,1571,1524,1499,1511,1534,1547,1608,1605,1507,1543,1625,1623,1596,1536,871,838,840,864,913,1025,1136,1264,1309,1436,1384,1354,1410,1339,1289,1270,1245,1224,1209,1187,1159,1200,1115,1127,1078,1050,1028,1019,1043,969,963,920,898,883,870,848,863,852,866,868,870,877,873,885,882,881,876,875,881,874,879,876,885,894,889,899,888,886,892,884,883,884,888,891,881,938,941,1002,954,1009,1155,1312,1449,1550,1565,1560,1612,1511,1487,1462,1408,1413,1388,1364,1339,1315,1286,1265,1241,1216,1236,1164,1138,1115,1089,1066,1041,1017,1053,1024,952,955,957,977,970,977,983,986,975,976,983,982,991,998,994,992,1047,997,994,1052,1006,993,1003,1005,1003,1004,1004,1009,1016,1017,1244,1223,1217,1309,1390,1574,1759,1892,2006,1977,1965,1974,1961,1920,1840,1812,1770,1733,1709,1711,1653,1622,1586,1581,1528,1497,1502,1438,1439,1384,1372,1304,1280,1264,1283,1225,1246,1232,1330,1311,1306,1320,1328,1302,1352,1381,1343,1327,1346,1327,1332,1346,1380,1373,1378,1312,1330,1333,1368,1359,1311,1348,1326,1330,1313,622,624,649,628,640,712,805,937,985,1028,1031,1015,998,982,988,950,955,917,901,874,868,852,836,820,804,787,789,793,739,722,706,690,674,657,644,632,656,635,637,640,637,653,651,645,648,661,644,656,647,644,653,649,651,652,657,653,666,656,652,641,651,659,656,657,660,1649,1687,1798,1863,2077,2431,2633,2899,2867,2791,2710,2663,2686,2651,2581,2545,2448,2419,2381,2332,2263,2148,2144,2096,2027,2026,1959,1930,1897,1833,1808,1761,1714,1723,1705,1697,1649,1699,1857,1919,1870,1901,1927,1904,1902,1927,1903,1914,1919,1894,1907,1925,1931,1940,2033,1998,1945,1932,1953,1924,1932,1949,1983,1960,1945,1431,1412,1418,1518,1596,1828,2046,2100,2218,2240,2180,2188,2191,2149,2078,2047,2003,1982,1954,1902,1890,1841,1802,1789,1739,1713,1688,1640,1641,1582,1566,1517,1469,1440,1475,1402,1437,1425,1511,1503,1501,1512,1507,1541,1511,1514,1540,1604,1520,1535,1535,1543,1548,1547,1566,1557,1542,1545,1541,1551,1556,1554,1551,1566,1556,1114,1093,1071,1097,1200,1301,1465,1604,1715,1715,1749,1796,1721,1675,1601,1597,1592,1558,1502,1467,1443,1415,1390,1419,1336,1331,1303,1288,1246,1215,1189,1158,1136,1141,1117,1080,1101,1086,1104,1100,1116,1129,1128,1143,1120,1139,1115,1162,1136,1119,1131,1124,1138,1162,1143,1136,1146,1123,1134,1143,1142,1152,1130,1159,1135,0,0,0,0,0,0,0,0,0,0,0,0,0,0,0,0,0,0,0,0,0,0,0,0,0,0,0,0,0,0,0,0,0,0,0,0,0,0,0,0,0,0,0,0,0,0,0,0,0,0,0,0,0,0,0,0,0,0,0,0,0,0,0,0,0,561,563,565,567,576,630,714,799,880,974,929,914,900,885,870,855,840,825,810,795,781,766,751,736,721,706,691,676,662,647,632,617,602,587,574,570,572,573,567,567,575,598,585,576,583,587,580,585,595,598,619,641,626,618,591,580,583,596,588,572,578,591,580,592,582,0,0,0,0,0,0,0,0,0,0,0,0,0,0,0,0,0,0,0,0,0,0,0,0,0,0,0,0,0,0,0,0,0,0,0,0,0,0,0,0,0,0,0,0,0,0,0,0,0,0,0,0,0,0,0,0,0,0,0,0,0,0,0,0,0,1478,1481,1526,1681,1853,2147,2334,2435,2461,2507,2548,2465,2365,2372,2331,2274,2210,2203,2212,2091,2052,2052,1967,1976,1893,1853,1813,1775,1768,1727,1647,1592,1586,1516,1510,1522,1536,1550,1604,1649,1613,1619,1649,1633,1636,1648,1647,1649,1665,1641,1650,1658,1663,1669,1677,1677,1682,1677,1688,1679,1694,1709,1723,1704,1704,1040,1040,1082,1067,1138,1284,1433,1583,1626,1681,1735,1691,1616,1595,1569,1546,1542,1485,1569,1450,1480,1384,1357,1331,1305,1297,1269,1242,1184,1193,1202,1133,1093,1132,1063,1055,1110,1074,1091,1092,1080,1085,1138,1181,1105,1114,1121,1141,1120,1120,1107,1119,1110,1120,1111,1124,1139,1111,1106,1144,1129,1137,1147,1120,1111,1064,1067,1068,1091,1201,1299,1500,1604,1695,1753,1773,1681,1689,1630,1603,1573,1664,1519,1532,1497,1438,1414,1422,1360,1374,1329,1301,1253,1253,1196,1172,1145,1118,1095,1107,1101,1110,1110,1119,1126,1110,1123,1106,1144,1113,1121,1150,1202,1127,1142,1142,1141,1143,1168,1167,1137,1129,1124,1137,1150,1141,1151,1145,1145,1133,1413,1444,1495,1514,1730,1865,2041,2177,2210,2253,2391,2244,2162,2132,2097,2082,2052,1987,2059,1934,1923,1850,1815,1917,1745,1728,1691,1669,1589,1596,1550,1523,1531,1509,1471,1433,1510,1466,1574,1570,1542,1562,1562,1605,1571,1586,1601,1667,1582,1621,1617,1623,1594,1652,1616,1582,1575,1579,1591,1623,1625,1650,1621,1623,1585,471,472,474,475,478,516,611,712,728,800,785,760,786,736,724,712,711,688,676,674,651,639,637,615,612,617,588,567,563,542,530,518,506,494,490,485,487,488,477,481,481,501,516,494,490,517,493,516,513,525,605,575,611,545,500,485,511,493,488,492,495,510,496,499,495,1527,1528,1588,1731,2022,2540,2802,2959,2975,2972,2976,2930,2816,2738,2681,2640,2560,2601,2439,2391,2319,2257,2200,2136,2066,2033,1998,1894,1827,1772,1678,1646,1576,1524,1529,1525,1542,1565,1663,1709,1667,1685,1696,1673,1692,1700,1698,1702,1705,1696,1712,1700,1703,1712,1719,1725,1713,1712,1750,1710,1743,1751,1763,1723,1716,1587,1636,1715,1743,1861,2091,2264,2397,2428,2469,2629,2456,2430,2371,2333,2315,2282,2234,2326,2156,2143,2068,2070,2110,1954,1943,1895,1869,1787,1791,1741,1712,1658,1687,1661,1626,1701,1644,1804,1794,1813,1828,1855,1879,1830,1859,1859,1880,1874,1885,1870,1909,1891,1925,1925,1868,1873,1862,1856,1888,1862,1896,1876,1888,1863,1270,1300,1336,1376,1483,1672,1811,1990,2027,2075,2120,2073,1956,1929,1897,1904,1898,1836,1873,1750,1743,1673,1642,1691,1578,1604,1531,1522,1435,1446,1415,1379,1324,1364,1326,1309,1354,1320,1386,1391,1361,1379,1382,1427,1384,1407,1420,1486,1403,1448,1430,1442,1413,1474,1448,1402,1404,1396,1422,1455,1437,1467,1447,1457,1418,561,563,565,567,576,630,714,799,880,974,929,914,900,885,870,855,840,825,810,795,781,766,751,736,721,706,691,676,662,647,632,617,602,587,574,570,572,573,567,567,575,598,585,576,583,587,580,585,595,598,619,641,626,618,591,580,583,596,588,572,578,591,580,592,582,1597,1579,1628,1733,1839,2063,2306,2520,2488,2461,2428,2420,2330,2316,2263,2237,2161,2165,2091,2086,2094,2049,1985,1954,1940,1874,1796,1821,1804,1680,1659,1607,1629,1619,1544,1618,1581,1606,1692,1677,1682,1681,1812,1718,1719,1729,1710,1720,1801,1808,1729,1733,1734,1762,1886,1759,1738,1739,1769,1757,1746,1735,1766,1795,1771,1651,1645,1693,1814,2033,2256,2396,2716,2666,2609,2598,2572,2562,2412,2444,2372,2363,2250,2310,2210,2163,2199,2093,2063,2025,1935,1886,1887,1870,1797,1788,1700,1804,1656,1661,1651,1680,1649,1819,1808,1842,1866,1870,1911,1857,1857,1871,1892,1908,1872,1874,1918,1937,1931,1893,1877,1865,1885,1862,1866,1865,1896,1876,1905,1877,0,0,0,0,0,0,0,0,0,0,0,0,0,0,0,0,0,0,0,0,0,0,0,0,0,0,0,0,0,0,0,0,0,0,0,0,0,0,0,0,0,0,0,0,0,0,0,0,0,0,0,0,0,0,0,0,0,0,0,0,0,0,0,0,0,734,753,756,758,788,849,961,1065,1132,1157,1159,1184,1165,1112,1127,1081,1065,1050,1034,1031,1011,987,1021,954,940,916,918,877,878,862,820,801,799,762,766,763,747,767,754,754,749,760,787,824,766,761,763,771,772,767,774,766,769,771,784,768,763,769,761,776,778,783,799,769,766,694,696,698,700,720,791,893,1056,1083,1126,1128,1110,1092,1075,1112,1039,1022,1004,986,969,951,982,916,949,926,863,845,890,868,792,775,757,777,722,708,704,706,708,708,701,716,706,722,748,710,715,724,730,737,728,729,737,732,732,723,725,718,736,718,732,735,736,731,733,755,375,376,377,378,379,402,448,495,542,615,611,602,577,568,559,550,542,533,524,515,507,498,489,480,471,463,454,445,436,428,419,410,401,392,384,380,381,381,369,369,369,372,381,372,380,374,373,374,372,376,377,383,376,378,417,411,387,393,381,371,389,374,387,377,372,1257,1221,1226,1271,1372,1536,1731,2009,1972,1998,2007,1922,2009,1860,1882,1798,1767,1787,1758,1674,1643,1658,1581,1598,1563,1488,1502,1486,1451,1364,1371,1302,1366,1290,1237,1235,1238,1241,1303,1309,1313,1329,1330,1357,1327,1352,1319,1359,1355,1369,1321,1332,1358,1369,1349,1363,1365,1367,1356,1349,1340,1344,1359,1356,1321,978,980,982,994,1068,1297,1546,1623,1662,1746,1717,1697,1701,1673,1563,1618,1591,1499,1536,1508,1449,1382,1410,1374,1375,1302,1284,1229,1215,1157,1121,1085,1049,1015,1011,995,1003,1010,1060,1043,1054,1047,1050,1038,1072,1051,1039,1032,1051,1046,1044,1046,1046,1046,1040,1050,1046,1047,1051,1057,1042,1055,1046,1045,1045,173,174,174,175,175,179,199,219,238,258,271,267,263,259,255,251,248,244,240,236,232,228,225,221,217,213,209,205,202,198,194,190,186,183,179,176,176,176,162,159,162,164,159,169,164,172,171,165,172,162,165,163,163,166,163,163,163,165,163,161,162,164,162,167,164,623,625,626,628,638,682,775,867,903,960,962,955,927,911,903,888,876,844,870,823,812,821,782,797,785,774,762,729,717,694,693,682,670,658,634,630,632,633,608,619,629,610,613,622,628,624,624,623,625,624,626,624,626,632,630,636,647,633,634,636,638,639,645,645,634,1597,1579,1628,1733,1839,2063,2306,2520,2488,2461,2428,2420,2330,2316,2263,2237,2161,2165,2091,2086,2094,2049,1985,1954,1940,1874,1796,1821,1804,1680,1659,1607,1629,1619,1544,1618,1581,1606,1692,1677,1682,1681,1812,1718,1719,1729,1710,1720,1801,1808,1729,1733,1734,1762,1886,1759,1738,1739,1769,1757,1746,1735,1766,1795,1771,830,819,820,838,856,985,1112,1236,1290,1400,1371,1331,1280,1274,1262,1220,1215,1146,1218,1150,1174,1125,1103,1005,984,1115,1009,966,953,926,914,921,867,859,830,829,832,834,852,863,833,838,855,838,902,846,846,879,850,843,840,846,848,848,851,850,854,879,906,852,856,856,850,846,846,1181,1066,1069,1093,1171,1347,1539,1657,1700,1730,1721,1740,1655,1628,1611,1624,1605,1568,1547,1464,1485,1419,1408,1378,1361,1309,1281,1300,1257,1196,1171,1157,1152,1094,1079,1113,1112,1106,1103,1100,1110,1206,1135,1136,1126,1161,1151,1131,1129,1131,1123,1127,1137,1123,1154,1141,1137,1131,1136,1143,1137,1151,1138,1146,1144,594,596,598,600,613,678,774,869,957,1000,997,985,969,952,936,919,902,886,869,848,836,820,803,787,770,753,737,720,704,684,671,654,637,621,607,604,606,608,587,592,592,607,595,605,593,596,610,596,592,595,594,598,593,592,599,601,598,596,594,599,603,613,609,616,606,0,0,0,0,0,0,0,0,0,0,0,0,0,0,0,0,0,0,0,0,0,0,0,0,0,0,0,0,0,0,0,0,0,0,0,0,0,0,0,0,0,0,0,0,0,0,0,0,0,0,0,0,0,0,0,0,0,0,0,0,0,0,0,0,0,451,453,454,455,457,493,555,634,679,727,735,753,712,701,690,678,666,656,644,633,647,610,598,587,576,564,553,541,524,519,507,496,485,473,462,458,459,466,445,453,450,453,450,448,457,456,458,457,450,455,449,457,457,460,463,469,455,454,460,463,464,464,460,460,457,428,429,431,432,434,467,527,587,648,695,703,692,681,670,659,648,637,626,615,604,593,582,571,560,549,538,527,516,505,494,483,472,461,450,439,434,436,437,430,434,431,435,433,440,435,441,435,435,439,431,434,435,437,440,440,440,437,437,441,444,434,448,435,445,439,875,892,894,886,932,1025,1160,1291,1404,1425,1421,1417,1365,1342,1331,1308,1286,1277,1261,1208,1196,1203,1182,1130,1162,1111,1061,1049,1097,993,971,936,931,919,891,902,890,902,907,908,904,914,919,911,919,928,923,919,927,935,1007,1007,1019,963,920,927,932,944,925,923,944,913,924,922,915,1331,1334,1291,1352,1560,1775,2126,2158,2226,2206,2216,2153,2118,2100,2168,2015,1960,1940,1890,1875,1891,1849,1803,1761,1732,1654,1631,1566,1518,1468,1453,1386,1344,1313,1319,1306,1336,1340,1402,1405,1399,1428,1455,1450,1429,1432,1440,1475,1437,1468,1473,1470,1435,1449,1444,1456,1461,1433,1468,1505,1465,1470,1472,1450,1442,615,620,618,620,632,690,730,802,873,935,941,913,917,887,874,861,848,835,851,837,796,810,796,797,769,754,750,726,712,690,684,653,657,641,615,624,628,627,624,628,623,630,637,631,631,647,624,631,631,634,626,637,634,640,642,633,637,633,640,646,632,647,628,633,633,286,287,288,289,290,305,344,423,441,500,490,505,492,490,478,454,468,460,453,425,438,431,385,377,370,362,355,347,379,332,325,317,310,302,295,290,291,292,279,281,281,288,342,318,301,324,304,343,311,316,316,293,296,318,302,288,327,299,291,317,310,338,317,307,303,830,819,820,838,856,985,1112,1236,1290,1400,1371,1331,1280,1274,1262,1220,1215,1146,1218,1150,1174,1125,1103,1005,984,1115,1009,966,953,926,914,921,867,859,830,829,832,834,852,863,833,838,855,838,902,846,846,879,850,843,840,846,848,848,851,850,854,879,906,852,856,856,850,846,846,909,1002,915,943,978,1088,1285,1410,1451,1513,1560,1535,1536,1438,1431,1390,1410,1318,1360,1293,1363,1237,1199,1175,1172,1221,1160,1080,1111,1033,1060,1035,1112,939,975,1013,925,985,991,980,989,1019,990,983,998,1013,996,988,994,991,996,989,1000,997,1005,997,989,989,1001,1005,986,1012,993,1001,1003,976,940,982,997,1059,1148,1297,1477,1495,1592,1547,1502,1497,1512,1545,1481,1492,1410,1440,1382,1383,1326,1297,1258,1193,1208,1162,1157,1105,1087,1081,1055,1058,981,978,950,994,997,1001,986,993,993,999,1022,1007,1006,1008,1030,1040,1044,1042,1046,1036,1051,1031,1029,1030,1036,1044,1067,1043,1046,1044,1067,1062,840,843,845,850,899,1004,1142,1276,1360,1390,1393,1371,1348,1325,1302,1366,1257,1234,1211,1188,1165,1138,1120,1097,1074,1051,1028,1005,979,960,933,914,888,869,856,850,856,856,884,894,869,878,869,891,882,898,899,976,890,930,925,929,906,980,932,883,884,878,914,942,927,957,936,937,909,549,539,540,542,533,581,680,747,822,867,926,894,880,865,863,848,794,819,793,731,764,760,745,698,715,671,636,662,609,616,589,604,561,548,562,530,532,533,537,541,540,559,550,542,545,564,547,552,557,569,595,595,609,602,548,541,553,550,548,547,548,550,546,552,548,0,0,0,0,0,0,0,0,0,0,0,0,0,0,0,0,0,0,0,0,0,0,0,0,0,0,0,0,0,0,0,0,0,0,0,0,0,0,0,0,0,0,0,0,0,0,0,0,0,0,0,0,0,0,0,0,0,0,0,0,0,0,0,0,0,854,856,869,892,940,1015,1154,1263,1359,1398,1398,1377,1361,1334,1313,1293,1272,1234,1228,1210,1186,1163,1148,1127,1106,1079,1064,1044,1023,982,961,946,915,904,870,867,869,882,877,883,883,914,873,912,886,912,899,905,913,889,902,893,905,912,902,902,905,902,911,896,902,911,900,927,924,544,546,548,549,555,604,682,760,838,885,893,878,864,850,956,882,867,851,836,821,802,791,772,710,696,682,668,654,640,626,612,598,584,570,557,552,554,555,545,546,555,570,562,570,547,571,549,553,556,555,553,563,568,577,570,571,555,562,570,572,569,565,568,578,567,1526,1532,1569,1711,1967,2319,2574,2650,2726,2721,2696,2687,2709,2569,2499,2437,2388,2323,2326,2246,2196,2142,2074,2052,1968,1984,1896,1819,1818,1794,1672,1622,1583,1585,1554,1557,1587,1576,1687,1726,1679,1686,1710,1703,1755,1755,1711,1728,1754,1705,1710,1753,1764,1787,1758,1797,1784,1777,1793,1724,1744,1743,1763,1723,1710,954,957,967,975,1024,1099,1203,1307,1404,1481,1446,1425,1454,1384,1364,1404,1354,1332,1310,1321,1268,1250,1229,1208,1188,1161,1146,1125,1104,1057,1045,1042,1011,1002,970,966,1016,963,989,991,1037,1291,1050,976,1032,1126,1055,1001,1097,1074,1016,1030,1105,1084,1068,983,1014,1011,1057,1061,994,1040,1008,1011,1019,711,714,716,718,742,818,927,1051,1123,1196,1199,1164,1163,1111,1127,1091,1090,1072,1054,1083,981,962,944,925,907,888,909,851,885,834,795,777,758,740,726,722,724,726,728,713,721,725,752,772,735,767,755,766,774,741,759,737,743,768,753,741,758,745,735,753,755,774,761,781,756,909,1002,915,943,978,1088,1285,1410,1451,1513,1560,1535,1536,1438,1431,1390,1410,1318,1360,1293,1363,1237,1199,1175,1172,1221,1160,1080,1111,1033,1060,1035,1112,939,975,1013,925,985,991,980,989,1019,990,983,998,1013,996,988,994,991,996,989,1000,997,1005,997,989,989,1001,1005,986,1012,993,1001,1003,1275,1312,1390,1399,1570,1699,1966,2061,2148,2102,2136,2155,2071,2010,2029,2029,1948,1900,1865,1813,1824,1766,1731,1697,1640,1600,1609,1560,1530,1489,1451,1504,1368,1343,1393,1360,1329,1344,1403,1406,1426,1455,1421,1442,1427,1448,1429,1436,1434,1420,1415,1428,1437,1448,1448,1444,1426,1444,1450,1433,1432,1421,1427,1447,1427,1496,1506,1515,1600,1754,1970,2177,2430,2355,2345,2464,2334,2278,2475,2203,2210,2127,2087,2052,2012,1977,1939,1978,1864,1824,1789,1751,1745,1676,1672,1757,1642,1641,1533,1610,1577,1545,1507,1680,1682,1683,1719,1739,1731,1704,1706,1725,1761,1732,1741,1746,1770,1759,1751,1748,1751,1741,1718,1739,1767,1720,1735,1738,1731,1710,357,358,359,360,361,384,425,487,512,517,522,517,512,543,543,497,518,487,497,494,486,478,470,460,450,441,432,423,413,404,395,390,382,374,366,362,363,370,350,357,353,364,386,380,365,394,362,392,381,415,372,368,373,384,373,370,387,388,373,381,374,394,373,373,368,500,543,503,504,509,554,660,702,776,822,829,815,802,806,776,782,749,736,723,709,696,683,670,656,643,630,617,603,590,577,564,550,537,524,511,507,550,510,509,510,518,510,500,524,515,529,518,518,548,515,516,513,523,522,530,532,544,522,531,534,519,516,510,533,502,804,806,814,812,852,936,1118,1178,1243,1304,1318,1244,1225,1206,1218,1168,1180,1160,1139,1134,1098,1126,1086,1016,997,978,990,955,921,902,933,869,853,833,859,820,818,824,810,813,823,832,832,836,817,833,821,853,833,830,836,845,852,867,856,844,851,841,853,856,852,859,840,848,845,0,0,0,0,0,0,0,0,0,0,0,0,0,0,0,0,0,0,0,0,0,0,0,0,0,0,0,0,0,0,0,0,0,0,0,0,0,0,0,0,0,0,0,0,0,0,0,0,0,0,0,0,0,0,0,0,0,0,0,0,0,0,0,0,0,1329,1334,1291,1343,1503,1652,2089,1983,2053,2077,2061,2094,1997,1964,1931,1964,1879,1833,1815,1782,1735,1749,1681,1688,1590,1571,1644,1519,1473,1451,1448,1400,1344,1371,1399,1352,1366,1315,1426,1405,1402,1405,1409,1424,1480,1481,1415,1443,1434,1412,1415,1463,1474,1495,1493,1494,1468,1487,1489,1470,1447,1453,1428,1436,1427,1068,1067,1075,1089,1225,1347,1564,1704,1792,1826,1726,1682,1751,1728,1616,1681,1593,1601,1612,1506,1493,1569,1382,1369,1323,1279,1269,1283,1231,1228,1199,1197,1180,1097,1080,1075,1091,1099,1157,1112,1111,1123,1106,1123,1127,1121,1150,1191,1129,1146,1219,1143,1147,1218,1154,1141,1133,1141,1204,1272,1294,1325,1322,1182,1179,209,210,211,211,212,217,255,268,293,283,289,287,285,320,316,280,305,276,305,290,285,280,275,265,265,260,256,251,246,254,223,250,249,221,216,212,213,213,203,204,201,205,205,208,204,210,203,205,207,204,203,207,208,207,207,210,207,209,211,210,207,212,205,210,207,333,334,334,335,371,388,382,413,466,475,484,498,492,487,481,476,471,465,460,455,424,418,412,406,400,394,388,382,376,401,364,357,351,345,339,336,337,338,333,325,326,327,333,332,334,327,334,334,332,330,340,334,337,328,327,337,331,339,327,327,334,332,330,327,323,1275,1312,1390,1399,1570,1699,1966,2061,2148,2102,2136,2155,2071,2010,2029,2029,1948,1900,1865,1813,1824,1766,1731,1697,1640,1600,1609,1560,1530,1489,1451,1504,1368,1343,1393,1360,1329,1344,1403,1406,1426,1455,1421,1442,1427,1448,1429,1436,1434,1420,1415,1428,1437,1448,1448,1444,1426,1444,1450,1433,1432,1421,1427,1447,1427,488,490,491,493,497,539,612,684,756,803,811,798,785,772,759,746,733,720,707,694,681,668,654,642,629,616,603,590,577,564,551,539,526,513,500,496,497,499,486,483,493,521,507,494,493,506,501,508,523,527,680,712,816,591,516,503,506,521,511,494,500,514,507,519,506,444,445,447,448,451,487,550,615,679,730,737,725,713,702,690,681,666,655,643,631,619,610,596,584,572,563,549,542,525,516,506,494,478,467,457,451,437,439,439,440,433,439,444,468,440,446,458,458,441,445,439,444,446,435,447,447,445,444,441,446,450,456,452,457,449,1192,1198,1203,1250,1358,1528,1726,1915,1928,1950,2018,1911,1934,1848,1812,1838,1750,1722,1690,1659,1627,1595,1561,1532,1599,1466,1434,1406,1371,1393,1311,1277,1249,1227,1268,1213,1214,1269,1267,1259,1268,1272,1262,1280,1274,1283,1279,1277,1299,1282,1282,1285,1285,1302,1294,1299,1285,1294,1292,1291,1298,1300,1292,1322,1307,857,847,872,855,902,1039,1189,1274,1358,1387,1370,1405,1355,1330,1340,1314,1252,1296,1220,1198,1164,1142,1118,1085,1074,1041,1031,1009,998,996,943,920,938,867,867,875,862,861,869,858,860,862,878,853,864,870,862,873,879,877,878,923,881,879,930,885,882,884,882,878,883,885,893,892,897,710,714,716,716,740,813,918,1023,1112,1150,1154,1139,1118,1103,1085,1063,1045,1031,1012,994,976,958,937,922,904,883,865,849,828,813,795,774,759,741,727,723,722,727,743,730,752,731,754,779,736,732,743,771,774,769,769,781,777,766,758,759,737,768,743,764,762,759,752,759,804,1224,1238,1256,1291,1380,1524,1770,2001,1932,1956,1941,1952,1926,1860,1830,1916,1766,1742,1710,1662,1650,1600,1591,1573,1535,1503,1444,1427,1401,1378,1348,1290,1273,1241,1307,1226,1241,1266,1313,1305,1304,1315,1315,1330,1383,1391,1315,1348,1335,1326,1321,1365,1373,1392,1378,1350,1376,1383,1394,1371,1348,1351,1321,1322,1317,0,0,0,0,0,0,0,0,0,0,0,0,0,0,0,0,0,0,0,0,0,0,0,0,0,0,0,0,0,0,0,0,0,0,0,0,0,0,0,0,0,0,0,0,0,0,0,0,0,0,0,0,0,0,0,0,0,0,0,0,0,0,0,0,0,1579,1740,1648,1822,2376,2911,3032,3102,3149,3164,3106,3058,2963,2886,2923,2823,2808,2718,2793,2509,2514,2481,2421,2281,2257,2172,2041,1970,1903,1899,1784,1709,1734,1704,1659,1714,1731,1750,1891,1948,1899,1926,1965,1922,1937,1954,1927,1943,1957,1943,1953,1945,1953,1949,2012,1976,1954,1948,2000,1932,1947,1963,1985,1970,1954,1306,1320,1390,1375,1465,1587,1770,1979,1978,2033,2120,2060,2084,1940,1912,2021,1878,1824,1792,1803,1731,1681,1673,1634,1617,1584,1547,1520,1495,1460,1413,1389,1400,1389,1389,1333,1334,1446,1422,1425,1382,1376,1426,1405,1417,1421,1419,1424,1480,1429,1436,1452,1451,1456,1430,1457,1468,1471,1504,1459,1448,1455,1510,1436,1440,1062,1068,1071,1093,1173,1345,1499,1681,1714,1726,1725,1696,1717,1675,1692,1679,1555,1567,1540,1476,1448,1421,1406,1368,1339,1313,1281,1256,1226,1233,1174,1165,1119,1097,1099,1081,1117,1120,1091,1090,1093,1099,1099,1097,1108,1108,1111,1114,1112,1113,1118,1119,1121,1118,1130,1133,1133,1137,1136,1129,1145,1138,1135,1142,1138,488,490,491,493,497,539,612,684,756,803,811,798,785,772,759,746,733,720,707,694,681,668,654,642,629,616,603,590,577,564,551,539,526,513,500,496,497,499,486,483,493,521,507,494,493,506,501,508,523,527,680,712,816,591,516,503,506,521,511,494,500,514,507,519,506,1609,1614,1658,1839,2051,2426,2681,2869,2936,2964,2960,2870,2771,2745,2690,2636,2557,2544,2452,2405,2341,2301,2230,2179,2122,2065,2044,1944,1888,1831,1826,1721,1711,1657,1638,1642,1653,1717,1848,1871,1816,1838,1899,1864,1862,1889,1858,1870,1917,1866,1891,1916,1920,1908,2029,1987,1925,1927,1968,1889,1877,1895,1969,1916,1872,1505,1500,1534,1686,2013,2398,2722,2863,2924,2939,2887,2835,2775,2703,2654,2594,2548,2495,2435,2354,2307,2228,2166,2111,2233,1991,1930,1871,1810,1767,1709,1630,1577,1564,1528,1543,1577,1566,1695,1687,1708,1734,1713,1717,1723,1702,1704,1743,1757,1708,1741,1751,1777,1746,1748,1732,1706,1720,1706,1704,1708,1717,1709,1750,1706,874,876,878,941,975,1144,1354,1537,1622,1716,1705,1675,1645,1543,1511,1613,1447,1415,1383,1351,1319,1287,1255,1223,1191,1159,1127,1095,1063,1031,999,967,935,904,891,892,898,905,899,898,900,920,906,920,905,922,922,907,916,909,908,911,906,907,908,914,913,915,906,908,909,924,920,927,912,1253,1256,1306,1430,1479,1734,1996,2221,2240,2372,2349,2259,2219,2109,2116,2025,1984,1993,1900,1858,1817,1775,1733,1737,1693,1608,1641,1524,1519,1441,1517,1357,1348,1323,1275,1277,1316,1328,1350,1328,1341,1338,1342,1359,1352,1352,1356,1369,1395,1376,1382,1387,1387,1397,1383,1389,1380,1405,1410,1407,1404,1394,1415,1428,1432,1289,1250,1220,1327,1486,1656,1918,2091,2166,2247,2228,2190,2152,2093,2002,1962,1921,1881,1840,1800,1760,1719,1679,1639,1732,1558,1518,1477,1498,1436,1582,1316,1277,1245,1234,1236,1243,1251,1313,1300,1303,1310,1307,1341,1341,1350,1330,1340,1357,1342,1358,1356,1357,1382,1369,1337,1346,1357,1353,1372,1358,1348,1371,1411,1378,1042,1045,1073,1127,1184,1385,1601,1759,1811,1840,1865,1822,1773,1735,1755,1687,1646,1648,1606,1564,1534,1499,1462,1458,1391,1355,1319,1284,1248,1212,1176,1221,1104,1074,1061,1089,1069,1076,1105,1113,1097,1112,1093,1131,1099,1108,1137,1190,1113,1129,1129,1128,1131,1158,1156,1124,1118,1112,1124,1138,1128,1138,1133,1133,1119,1692,1681,1739,2151,2339,2524,2768,2921,3039,3043,3010,2959,2909,2838,2737,2684,2631,2578,2525,2615,2420,2367,2432,2261,2337,2156,2147,2050,2094,1956,1886,1845,1766,1737,1725,1768,1797,1751,2042,2049,2002,2014,2048,2035,2042,2055,2050,2061,2109,2060,2071,2084,2084,2090,2070,2100,2110,2109,2145,2098,2095,2101,2154,2090,2098,0,0,0,0,0,0,0,0,0,0,0,0,0,0,0,0,0,0,0,0,0,0,0,0,0,0,0,0,0,0,0,0,0,0,0,0,0,0,0,0,0,0,0,0,0,0,0,0,0,0,0,0,0,0,0,0,0,0,0,0,0,0,0,0,0,1047,1049,1065,1109,1179,1302,1474,1611,1655,1721,1707,1729,1659,1632,1602,1577,1549,1585,1495,1530,1444,1475,1386,1366,1393,1358,1322,1297,1222,1209,1182,1140,1113,1108,1066,1067,1077,1080,1100,1076,1083,1090,1090,1107,1099,1097,1099,1111,1139,1114,1119,1106,1112,1134,1119,1114,1111,1128,1120,1133,1127,1119,1136,1146,1147,1222,1190,1219,1279,1392,1545,1735,1853,1942,2037,1984,1929,1898,1868,1814,1783,1757,1753,1690,1732,1639,1598,1567,1556,1535,1474,1443,1412,1381,1368,1371,1319,1312,1237,1232,1204,1225,1229,1282,1287,1284,1306,1282,1295,1304,1299,1290,1297,1336,1302,1333,1300,1320,1333,1314,1323,1312,1309,1330,1313,1305,1297,1289,1320,1272,1609,1614,1658,1839,2051,2426,2681,2869,2936,2964,2960,2870,2771,2745,2690,2636,2557,2544,2452,2405,2341,2301,2230,2179,2122,2065,2044,1944,1888,1831,1826,1721,1711,1657,1638,1642,1653,1717,1848,1871,1816,1838,1899,1864,1862,1889,1858,1870,1917,1866,1891,1916,1920,1908,2029,1987,1925,1927,1968,1889,1877,1895,1969,1916,1872,1440,1483,1435,1667,1727,1913,2042,2218,2265,2234,2189,2139,2110,2113,2103,2025,1941,1984,2065,1985,1836,1815,1857,1927,1727,1697,1741,1671,1677,1574,1503,1583,1581,1493,1456,1468,1513,1487,1578,1554,1568,1573,1585,1594,1608,1603,1593,1606,1627,1633,1639,1643,1612,1616,1637,1642,1650,1625,1678,1658,1670,1703,1715,1658,1658,1654,1630,1667,1827,1973,2234,2496,2471,2573,2502,2547,2386,2380,2313,2369,2269,2219,2244,2129,2190,2122,2022,2053,1995,2018,1937,1946,2031,1873,1782,1743,1760,1662,1691,1674,1644,1615,1648,1816,1805,1820,1851,1827,1843,1836,1828,1855,1914,1853,1856,1865,1873,1895,1886,1909,1856,1832,1864,1857,1863,1846,1879,1872,1884,1849,178,179,179,179,180,183,202,221,240,258,272,268,264,261,257,253,250,246,242,239,235,231,228,224,220,217,213,209,205,202,198,194,191,187,183,180,181,181,167,170,167,171,171,173,167,172,167,173,169,170,169,169,173,177,171,171,172,170,172,172,171,173,166,169,166,611,613,614,616,628,682,748,813,876,905,917,891,879,867,855,843,831,819,807,846,818,772,810,748,736,724,712,700,767,676,664,690,641,629,619,618,620,621,605,609,614,642,614,625,610,617,610,609,619,615,611,623,622,629,617,626,624,623,628,617,618,632,606,621,614,819,817,820,826,859,1009,1041,1136,1205,1256,1222,1205,1189,1172,1155,1139,1122,1105,1089,1072,1055,1039,1022,1072,989,1083,1018,998,957,905,889,913,855,883,830,827,829,831,858,821,820,823,808,867,829,841,843,843,863,853,854,830,852,874,911,835,833,874,836,861,841,828,860,868,841,206,207,207,208,209,215,241,267,293,318,333,328,323,318,313,308,303,298,293,288,283,278,273,268,263,258,253,248,243,238,233,228,223,218,213,209,210,210,197,200,202,236,210,202,197,198,202,215,209,203,205,204,197,198,202,208,198,197,198,198,200,197,203,201,196,1343,1342,1384,1423,1541,1863,1896,2003,2180,2155,2164,2013,1983,2006,1923,1893,1928,1833,1908,1773,1743,1713,1683,1708,1651,1670,1678,1638,1536,1472,1442,1507,1411,1439,1359,1399,1452,1391,1489,1501,1473,1488,1482,1516,1493,1516,1533,1590,1506,1541,1522,1532,1513,1570,1540,1506,1516,1497,1511,1551,1521,1549,1539,1542,1509,1068,1046,1074,1070,1175,1271,1391,1584,1726,1732,1716,1625,1585,1559,1614,1551,1594,1532,1505,1401,1375,1363,1395,1337,1274,1313,1286,1222,1184,1177,1150,1092,1106,1102,1106,1037,1039,1089,1073,1091,1088,1087,1108,1077,1097,1115,1100,1092,1134,1103,1198,1183,1206,1142,1266,1229,1152,1119,1099,1100,1111,1084,1098,1144,1081,0,0,0,0,0,0,0,0,0,0,0,0,0,0,0,0,0,0,0,0,0,0,0,0,0,0,0,0,0,0,0,0,0,0,0,0,0,0,0,0,0,0,0,0,0,0,0,0,0,0,0,0,0,0,0,0,0,0,0,0,0,0,0,0,0,455,456,473,474,460,485,532,630,670,701,691,678,671,680,655,647,639,631,606,616,585,603,595,559,579,571,541,555,515,517,509,489,514,485,463,460,477,478,469,469,468,477,476,475,473,490,464,478,473,470,471,480,478,475,476,477,475,475,485,478,469,471,470,475,470,1440,1483,1435,1667,1727,1913,2042,2218,2265,2234,2189,2139,2110,2113,2103,2025,1941,1984,2065,1985,1836,1815,1857,1927,1727,1697,1741,1671,1677,1574,1503,1583,1581,1493,1456,1468,1513,1487,1578,1554,1568,1573,1585,1594,1608,1603,1593,1606,1627,1633,1639,1643,1612,1616,1637,1642,1650,1625,1678,1658,1670,1703,1715,1658,1658,1180,1121,1124,1166,1299,1437,1591,1690,1844,1830,1984,1779,1761,1667,1703,1698,1602,1612,1591,1557,1556,1525,1457,1455,1456,1446,1351,1331,1302,1286,1283,1249,1183,1187,1159,1120,1173,1148,1202,1192,1184,1197,1200,1220,1202,1211,1215,1358,1205,1198,1205,1207,1220,1180,1202,1215,1202,1222,1182,1189,1212,1208,1190,1200,1185,1301,1284,1297,1427,1499,1651,1850,2122,2131,2140,2121,2123,2044,2001,1927,1892,1918,1913,1796,1788,1727,1694,1702,1745,1596,1565,1579,1531,1497,1486,1399,1368,1387,1350,1316,1301,1303,1306,1364,1355,1351,1373,1436,1432,1404,1435,1401,1447,1464,1448,1490,1448,1457,1460,1453,1404,1450,1434,1425,1448,1433,1452,1461,1498,1447,457,459,483,461,489,523,570,637,704,751,759,747,734,722,710,698,686,674,662,650,638,625,613,601,589,577,565,553,541,529,516,504,492,480,468,464,489,467,464,470,458,462,472,472,498,502,467,475,476,484,478,467,471,478,478,472,477,471,469,472,469,477,476,484,464,306,307,308,309,310,328,371,415,459,500,512,504,495,487,479,471,463,455,446,438,430,422,414,405,397,389,381,373,365,356,348,340,332,324,315,311,312,313,299,296,296,296,297,302,300,300,302,307,307,309,311,304,327,312,328,307,307,320,309,315,310,307,316,303,305,689,692,700,663,674,745,838,935,1020,1058,1058,1051,1026,1011,986,983,995,945,938,910,900,879,862,845,829,812,841,779,765,761,738,717,733,685,659,662,664,666,661,663,661,678,668,678,668,678,678,670,670,672,669,669,666,663,670,672,672,675,664,669,672,685,679,684,672,225,226,251,227,252,236,266,300,325,354,351,347,356,351,345,339,334,323,323,315,311,307,303,299,295,291,287,272,266,260,255,249,243,238,232,228,252,229,219,219,219,220,230,223,225,230,220,234,225,223,227,226,225,230,232,231,231,230,226,230,227,234,234,235,235,1103,1110,1163,1210,1221,1535,1544,1666,1744,1871,1744,1782,1723,1679,1633,1652,1613,1598,1540,1660,1484,1440,1451,1489,1382,1344,1330,1288,1260,1269,1204,1176,1222,1138,1113,1120,1123,1129,1135,1145,1150,1165,1199,1200,1172,1198,1173,1229,1190,1174,1197,1177,1197,1220,1204,1189,1213,1181,1190,1211,1206,1227,1199,1216,1199,1138,1148,1123,1137,1299,1413,1614,1734,1840,1819,1870,1846,1751,1761,1653,1709,1677,1571,1589,1594,1537,1534,1510,1483,1387,1378,1342,1314,1286,1308,1212,1188,1159,1170,1157,1125,1131,1186,1149,1157,1157,1165,1172,1172,1180,1184,1197,1198,1205,1211,1216,1222,1236,1246,1243,1249,1256,1265,1266,1281,1282,1290,1290,1322,1321,411,417,423,415,443,441,484,555,579,603,610,602,594,587,579,571,563,556,548,540,544,525,527,518,510,501,486,478,470,463,455,450,441,432,424,417,442,419,414,420,415,430,430,433,420,429,418,424,431,445,425,438,440,444,429,433,438,442,440,427,430,440,417,426,423,0,0,0,0,0,0,0,0,0,0,0,0,0,0,0,0,0,0,0,0,0,0,0,0,0,0,0,0,0,0,0,0,0,0,0,0,0,0,0,0,0,0,0,0,0,0,0,0,0,0,0,0,0,0,0,0,0,0,0,0,0,0,0,0,0,1180,1121,1124,1166,1299,1437,1591,1690,1844,1830,1984,1779,1761,1667,1703,1698,1602,1612,1591,1557,1556,1525,1457,1455,1456,1446,1351,1331,1302,1286,1283,1249,1183,1187,1159,1120,1173,1148,1202,1192,1184,1197,1200,1220,1202,1211,1215,1358,1205,1198,1205,1207,1220,1180,1202,1215,1202,1222,1182,1189,1212,1208,1190,1200,1185,0,0,0,0,0,0,0,0,0,0,0,0,0,0,0,0,0,0,0,0,0,0,0,0,0,0,0,0,0,0,0,0,0,0,0,0,0,0,0,0,0,0,0,0,0,0,0,0,0,0,0,0,0,0,0,0,0,0,0,0,0,0,0,0,0,628,630,632,634,649,714,828,903,990,1030,1036,1019,1003,986,970,953,1032,920,903,887,870,854,837,821,802,788,771,755,738,722,709,689,672,673,642,638,638,641,625,628,639,654,642,645,637,648,637,661,642,639,656,657,678,687,666,654,656,661,657,652,662,679,654,663,651,1392,1361,1383,1415,1653,1835,2019,2148,2164,2277,2204,2156,2203,2138,2059,2083,1984,1975,1931,1870,1839,1835,1772,1772,1709,1666,1630,1666,1550,1530,1512,1456,1496,1426,1447,1382,1394,1387,1476,1483,1481,1484,1488,1479,1491,1501,1486,1486,1495,1499,1564,1571,1524,1499,1511,1534,1547,1608,1605,1507,1543,1625,1623,1596,1536,871,838,840,864,913,1025,1136,1264,1309,1436,1384,1354,1410,1339,1289,1270,1245,1224,1209,1187,1159,1200,1115,1127,1078,1050,1028,1019,1043,969,963,920,898,883,870,848,863,852,866,868,870,877,873,885,882,881,876,875,881,874,879,876,885,894,889,899,888,886,892,884,883,884,888,891,881,938,941,1002,954,1009,1155,1312,1449,1550,1565,1560,1612,1511,1487,1462,1408,1413,1388,1364,1339,1315,1286,1265,1241,1216,1236,1164,1138,1115,1089,1066,1041,1017,1053,1024,952,955,957,977,970,977,983,986,975,976,983,982,991,998,994,992,1047,997,994,1052,1006,993,1003,1005,1003,1004,1004,1009,1016,1017,1244,1223,1217,1309,1390,1574,1759,1892,2006,1977,1965,1974,1961,1920,1840,1812,1770,1733,1709,1711,1653,1622,1586,1581,1528,1497,1502,1438,1439,1384,1372,1304,1280,1264,1283,1225,1246,1232,1330,1311,1306,1320,1328,1302,1352,1381,1343,1327,1346,1327,1332,1346,1380,1373,1378,1312,1330,1333,1368,1359,1311,1348,1326,1330,1313,622,624,649,628,640,712,805,937,985,1028,1031,1015,998,982,988,950,955,917,901,874,868,852,836,820,804,787,789,793,739,722,706,690,674,657,644,632,656,635,637,640,637,653,651,645,648,661,644,656,647,644,653,649,651,652,657,653,666,656,652,641,651,659,656,657,660,1649,1687,1798,1863,2077,2431,2633,2899,2867,2791,2710,2663,2686,2651,2581,2545,2448,2419,2381,2332,2263,2148,2144,2096,2027,2026,1959,1930,1897,1833,1808,1761,1714,1723,1705,1697,1649,1699,1857,1919,1870,1901,1927,1904,1902,1927,1903,1914,1919,1894,1907,1925,1931,1940,2033,1998,1945,1932,1953,1924,1932,1949,1983,1960,1945,1431,1412,1418,1518,1596,1828,2046,2100,2218,2240,2180,2188,2191,2149,2078,2047,2003,1982,1954,1902,1890,1841,1802,1789,1739,1713,1688,1640,1641,1582,1566,1517,1469,1440,1475,1402,1437,1425,1511,1503,1501,1512,1507,1541,1511,1514,1540,1604,1520,1535,1535,1543,1548,1547,1566,1557,1542,1545,1541,1551,1556,1554,1551,1566,1556,1114,1093,1071,1097,1200,1301,1465,1604,1715,1715,1749,1796,1721,1675,1601,1597,1592,1558,1502,1467,1443,1415,1390,1419,1336,1331,1303,1288,1246,1215,1189,1158,1136,1141,1117,1080,1101,1086,1104,1100,1116,1129,1128,1143,1120,1139,1115,1162,1136,1119,1131,1124,1138,1162,1143,1136,1146,1123,1134,1143,1142,1152,1130,1159,1135,0,0,0,0,0,0,0,0,0,0,0,0,0,0,0,0,0,0,0,0,0,0,0,0,0,0,0,0,0,0,0,0,0,0,0,0,0,0,0,0,0,0,0,0,0,0,0,0,0,0,0,0,0,0,0,0,0,0,0,0,0,0,0,0,0 ]);
