n = 10;
D = [110,297,233,183,192,170,140,241,279,169 ];
q = 0;
prec = array2d(1..0,1..2,[]);
steps = 64;
l = 360;
r = 0;
which = [];
interval = array2d(1..0,1..2,[]);
T = array3d(1..11,1..11,0..64,[0,0,0,0,0,0,0,0,0,0,0,0,0,0,0,0,0,0,0,0,0,0,0,0,0,0,0,0,0,0,0,0,0,0,0,0,0,0,0,0,0,0,0,0,0,0,0,0,0,0,0,0,0,0,0,0,0,0,0,0,0,0,0,0,0,118,119,119,119,180,184,208,232,256,280,295,290,286,282,277,272,267,262,258,254,249,244,240,235,230,225,220,217,212,207,202,198,193,188,183,180,181,181,127,107,107,108,107,108,108,108,107,110,108,107,107,108,108,107,110,108,108,108,108,108,108,108,108,108,108,230,230,231,232,232,343,428,454,516,564,578,568,577,567,541,526,522,513,519,482,484,476,454,471,448,439,429,420,411,432,392,384,386,364,344,233,234,275,197,195,198,202,200,198,202,199,198,203,198,198,204,211,208,205,210,204,198,198,198,200,196,202,200,204,198,193,194,194,195,196,254,347,386,428,469,482,475,481,459,453,446,436,430,421,415,408,399,392,382,376,367,361,354,345,338,330,322,314,307,254,196,196,197,153,154,152,156,156,156,156,156,155,155,156,157,154,156,156,155,156,156,156,156,156,156,156,156,155,154,154,817,819,822,823,840,1295,1800,1979,2104,2155,2132,2099,2064,2026,2000,1948,1910,1871,1833,1788,1754,1710,1682,1642,1593,1575,1533,1494,1365,1168,1115,891,865,864,832,829,814,807,799,804,805,814,823,826,820,827,813,822,816,832,831,831,824,837,819,828,830,822,822,827,821,836,809,817,817,372,377,378,379,383,432,674,752,832,907,909,913,873,819,860,858,848,805,764,754,738,727,733,718,727,675,685,666,622,515,497,497,497,440,383,380,380,384,354,330,328,334,339,341,341,344,340,344,344,341,344,336,338,345,347,338,338,338,338,338,338,338,338,338,338,932,935,951,966,988,1585,1914,2125,2215,2262,2255,2229,2189,2152,2112,2091,2040,1938,1963,1930,1892,1871,1838,1730,1743,1712,1675,1432,1265,1167,1102,1019,1001,970,956,946,948,951,944,935,946,949,966,953,953,967,952,968,959,963,957,952,954,956,957,953,959,962,951,959,953,969,959,956,954,207,208,208,209,211,272,309,410,453,497,524,516,507,499,490,481,474,465,457,448,440,432,423,415,406,398,427,381,372,329,301,294,287,280,291,211,212,212,155,155,155,156,157,157,157,159,155,157,160,155,157,161,162,159,164,161,156,156,158,160,154,155,155,155,154,699,700,702,704,709,1089,1575,1785,1918,1954,1933,1902,1864,1827,1805,1753,1716,1678,1641,1599,1567,1530,1492,1455,1418,1386,1350,1311,1269,1227,1089,929,756,732,712,710,715,720,708,712,709,741,732,732,735,735,724,727,736,733,742,731,726,740,728,730,735,726,725,731,731,738,727,737,732,304,304,305,306,308,367,561,612,695,752,764,750,739,727,714,701,689,678,665,653,640,628,614,602,589,577,565,553,543,529,443,434,378,320,312,354,309,310,270,267,263,270,275,270,275,277,271,273,274,284,292,292,296,281,278,272,275,278,269,270,269,272,273,272,263,0,0,0,0,0,0,0,0,0,0,0,0,0,0,0,0,0,0,0,0,0,0,0,0,0,0,0,0,0,0,0,0,0,0,0,0,0,0,0,0,0,0,0,0,0,0,0,0,0,0,0,0,0,0,0,0,0,0,0,0,0,0,0,0,0,160,161,162,162,163,169,288,321,355,388,405,399,392,386,379,373,367,360,354,346,340,334,327,321,314,308,302,295,289,282,276,270,175,171,166,164,164,164,171,138,137,139,148,145,145,140,139,143,172,145,149,151,154,151,143,143,147,174,173,155,142,144,158,158,154,0,0,0,0,0,0,0,0,0,0,0,0,0,0,0,0,0,0,0,0,0,0,0,0,0,0,0,0,0,0,0,0,0,0,0,0,0,0,0,0,0,0,0,0,0,0,0,0,0,0,0,0,0,0,0,0,0,0,0,0,0,0,0,0,0,220,225,253,222,222,315,398,445,492,538,553,543,535,526,517,508,499,490,482,472,464,456,446,446,428,420,411,402,393,385,375,342,322,314,260,223,224,224,182,182,183,189,186,188,183,190,184,188,187,190,185,185,187,186,187,186,185,186,183,186,186,191,183,183,183,117,117,118,118,148,183,206,231,255,279,295,290,285,280,276,271,266,261,256,253,248,243,238,234,229,224,219,214,211,206,201,196,192,187,182,149,149,149,77,76,77,77,75,77,77,79,79,77,80,76,77,77,77,79,78,78,77,77,76,77,78,78,78,80,78,876,878,881,883,901,1491,1904,2104,2265,2280,2266,2222,2191,2150,2108,2072,2030,1991,1947,1904,1871,1831,1784,1749,1696,1666,1624,1501,1316,1266,972,951,924,902,896,889,864,868,856,863,860,867,871,873,872,878,861,861,861,861,861,861,861,861,861,861,861,861,861,861,861,861,861,861,861,259,260,260,261,262,328,463,515,569,622,645,614,625,537,583,594,584,573,564,553,499,489,522,512,501,492,465,471,460,446,300,299,346,252,266,263,264,264,227,223,221,226,232,233,233,236,233,234,236,234,237,228,230,238,237,230,235,237,229,236,236,237,237,239,237,908,911,929,942,965,1532,1797,1996,2151,2192,2196,2164,2133,2097,2054,2027,1998,1951,1927,1879,1843,1765,1791,1741,1711,1682,1654,1432,1148,1021,1004,976,996,939,924,952,924,932,894,888,898,901,901,895,901,903,903,901,904,898,900,901,899,903,902,901,901,900,899,901,901,902,901,904,901,168,171,170,172,172,226,298,332,367,404,427,420,415,407,400,393,386,380,373,365,359,352,345,338,332,324,317,310,304,297,289,282,252,245,176,173,173,174,118,118,118,118,130,125,120,124,121,130,123,122,123,119,120,123,123,120,126,120,120,124,123,129,123,122,122,758,760,762,764,770,1337,1692,1915,2063,2092,2075,2055,1994,1955,1915,1874,1834,1794,1754,1713,1681,1642,1608,1563,1524,1484,1441,1406,1366,1276,1008,832,806,782,777,770,775,780,765,771,764,805,804,771,800,788,775,775,775,775,775,775,775,775,775,775,775,775,775,775,775,775,775,775,775,321,322,317,319,360,431,609,624,740,786,819,777,781,769,751,727,727,732,669,658,663,650,641,660,645,603,591,608,573,549,540,551,407,339,326,362,327,348,290,295,290,295,301,299,296,302,297,297,297,297,297,297,297,297,297,297,297,297,297,297,297,297,297,297,297,160,161,162,162,163,169,288,321,355,388,405,399,392,386,379,373,367,360,354,346,340,334,327,321,314,308,302,295,289,282,276,270,175,171,166,164,164,164,171,138,137,139,148,145,145,140,139,143,172,145,149,151,154,151,143,143,147,174,173,155,142,144,158,158,154,172,173,173,174,174,180,328,336,368,400,416,410,403,397,391,385,379,372,366,360,354,348,342,334,328,322,316,310,335,326,320,313,305,298,178,175,175,176,167,165,165,166,166,166,167,168,167,168,166,168,169,173,169,169,170,171,169,168,166,170,168,169,166,169,167,138,138,139,140,140,186,244,272,301,328,345,339,334,328,324,318,313,307,302,296,290,285,279,274,268,264,258,253,247,242,236,231,196,192,188,140,140,140,115,117,115,119,138,138,123,134,127,139,131,126,137,124,123,133,127,122,138,121,117,139,132,138,134,135,127,0,0,0,0,0,0,0,0,0,0,0,0,0,0,0,0,0,0,0,0,0,0,0,0,0,0,0,0,0,0,0,0,0,0,0,0,0,0,0,0,0,0,0,0,0,0,0,0,0,0,0,0,0,0,0,0,0,0,0,0,0,0,0,0,0,212,215,216,222,223,261,297,421,466,508,536,528,519,511,502,494,486,477,469,456,451,439,434,426,417,405,400,391,380,296,288,283,275,269,262,259,259,259,159,160,160,162,162,165,160,163,161,163,161,162,162,167,163,163,160,162,161,160,159,163,160,161,157,161,158,903,892,894,919,986,1538,1970,2199,2290,2341,2299,2285,2219,2220,2176,2113,2084,2048,1998,1960,1942,1882,1810,1792,1726,1685,1648,1624,1471,1177,1005,963,951,976,919,920,893,883,887,890,906,915,904,897,905,904,902,900,903,895,899,908,915,918,910,909,900,903,909,913,907,897,901,910,902,390,390,386,400,402,447,709,785,861,959,958,943,897,865,907,903,862,851,856,790,776,792,772,759,737,715,718,717,622,552,423,523,524,444,410,403,404,395,342,340,336,345,370,371,356,370,360,373,367,360,374,352,353,371,364,352,373,358,346,375,368,375,371,374,364,823,825,825,831,847,1301,1612,1796,1930,2016,1995,1985,1931,1920,1868,1844,1800,1767,1756,1720,1674,1669,1610,1597,1546,1528,1513,1432,1331,1177,1138,884,873,855,842,845,862,854,824,827,823,825,833,833,829,844,830,833,833,830,831,827,827,831,829,827,832,828,825,830,828,833,830,830,827,303,305,306,312,308,385,531,593,672,740,761,727,714,725,712,700,688,676,667,652,639,627,615,603,591,578,565,553,521,410,456,409,324,344,334,313,313,314,233,235,233,237,264,263,243,258,248,267,254,248,259,243,243,256,250,242,264,241,237,263,255,265,257,259,249,785,772,774,785,828,1328,1745,1995,2109,2151,2097,2086,2018,2023,1984,1931,1893,1852,1815,1769,1752,1693,1622,1606,1543,1503,1464,1464,1424,1276,1073,964,913,794,800,786,806,805,804,794,813,824,818,819,817,815,823,818,820,814,812,809,821,823,812,814,806,810,813,825,819,868,823,817,816,422,429,432,432,440,461,805,878,992,1044,1053,1036,1019,1003,985,970,954,923,896,909,892,875,854,843,822,810,788,770,776,734,642,586,543,466,448,431,435,431,393,387,390,403,399,396,396,402,396,403,404,407,410,414,410,413,398,400,404,406,394,395,401,400,394,402,393,172,173,173,174,174,180,328,336,368,400,416,410,403,397,391,385,379,372,366,360,354,348,342,334,328,322,316,310,335,326,320,313,305,298,178,175,175,176,167,165,165,166,166,166,167,168,167,168,166,168,169,173,169,169,170,171,169,168,166,170,168,169,166,169,167,209,210,211,211,228,290,373,415,456,496,511,504,495,488,480,472,464,457,448,441,433,426,417,410,411,394,386,378,370,362,355,346,303,297,265,228,244,261,174,156,156,158,166,166,162,158,157,162,182,163,170,174,176,171,163,163,163,163,163,163,163,163,162,162,161,79,79,79,80,80,122,136,152,168,183,195,193,189,187,183,181,177,175,171,169,165,162,159,156,153,150,147,144,141,138,135,132,128,126,122,80,80,121,45,45,45,45,45,45,45,45,45,45,45,45,45,45,45,45,45,45,45,45,46,47,45,46,44,44,43,268,269,270,271,272,372,487,541,596,645,668,648,648,636,616,607,606,586,577,566,556,585,540,525,525,505,495,487,475,464,454,400,389,373,296,272,292,273,201,200,202,208,204,209,200,208,202,207,206,208,206,208,209,206,207,207,207,207,207,207,207,207,206,206,205,0,0,0,0,0,0,0,0,0,0,0,0,0,0,0,0,0,0,0,0,0,0,0,0,0,0,0,0,0,0,0,0,0,0,0,0,0,0,0,0,0,0,0,0,0,0,0,0,0,0,0,0,0,0,0,0,0,0,0,0,0,0,0,0,0,951,955,958,974,1048,1605,2069,2283,2428,2453,2448,2415,2376,2320,2286,2247,2198,2144,2101,2064,2018,1980,1921,1889,1847,1799,1750,1640,1431,1094,1107,1041,1037,989,980,972,946,959,902,908,908,913,918,912,924,917,907,905,908,906,920,913,917,912,921,920,912,914,918,916,921,903,911,909,908,230,242,223,224,244,301,421,464,531,528,573,571,583,573,564,554,519,516,525,465,457,498,470,478,446,442,433,440,430,373,403,402,373,304,299,293,292,226,224,225,223,228,234,233,235,236,233,237,236,235,237,231,233,238,236,234,236,236,233,235,236,236,236,236,236,861,864,888,865,924,1436,1695,1883,2016,2068,2081,2038,2008,1980,1948,1914,1872,1848,1809,1795,1743,1677,1680,1644,1627,1586,1556,1432,1284,1153,975,946,933,893,906,882,895,886,828,834,829,838,839,831,837,838,838,838,838,838,834,838,837,838,838,837,838,836,836,836,836,836,836,836,836,243,247,246,247,249,287,428,483,537,586,615,607,596,586,574,565,555,546,534,527,517,505,495,487,475,466,455,448,438,430,418,410,294,286,256,250,250,251,163,163,163,163,175,170,165,169,166,175,168,167,168,164,165,168,168,165,171,165,166,171,168,175,167,168,165,833,835,839,843,890,1390,1843,2118,2226,2270,2265,2227,2179,2136,2093,2049,2007,1953,1919,1876,1829,1789,1743,1703,1659,1616,1568,1545,1486,1276,1038,922,894,869,861,854,859,868,810,812,831,842,828,816,834,828,841,824,825,825,820,814,823,820,824,825,818,816,822,823,824,840,840,816,815,395,394,392,394,400,451,736,773,885,964,994,965,960,945,913,897,899,843,828,817,828,807,795,782,767,742,731,708,708,687,650,455,448,460,443,396,397,400,335,340,335,340,346,344,341,347,342,342,342,342,342,342,342,342,342,342,342,342,343,344,342,343,341,341,340,209,210,211,211,228,290,373,415,456,496,511,504,495,488,480,472,464,457,448,441,433,426,417,410,411,394,386,378,370,362,355,346,303,297,265,228,244,261,174,156,156,158,166,166,162,158,157,162,182,163,170,174,176,171,163,163,163,163,163,163,163,163,162,162,161,815,816,826,869,937,1481,1777,2003,2097,2134,2119,2080,2080,2006,1969,1932,1893,1909,1873,1834,1807,1706,1669,1632,1594,1556,1519,1527,1369,1180,1038,1011,863,841,828,836,832,866,840,835,852,860,842,857,844,850,848,859,874,860,857,862,864,874,864,868,857,866,867,867,866,866,860,874,860,928,935,953,972,1092,1661,2029,2183,2314,2361,2314,2281,2270,2232,2175,2101,2102,2037,2039,1989,1952,1914,1850,1840,1797,1763,1714,1552,1192,1177,1086,1008,983,988,955,956,952,954,947,943,959,968,950,965,951,960,956,966,969,968,963,969,973,976,972,976,965,974,975,975,971,974,966,980,968,872,869,891,902,1004,1620,1879,2068,2222,2268,2245,2204,2164,2122,2083,2043,2006,1967,1924,1884,1905,1819,1775,1729,1696,1659,1627,1581,1374,1246,1036,963,936,915,892,909,851,845,844,842,849,863,846,859,852,857,850,853,854,854,848,861,858,861,871,866,861,865,866,866,856,859,851,865,854,1009,1011,1022,1041,1136,1785,2200,2359,2470,2518,2451,2442,2405,2350,2295,2256,2251,2182,2163,2122,2060,2024,1984,1960,1844,1786,1748,1658,1298,1143,1130,1084,1058,1037,1024,1033,985,1002,992,991,1005,1016,998,1010,999,1005,1004,1012,1013,1013,1007,1017,1012,1020,1020,1024,1013,1021,1012,1019,1015,1018,1010,1024,1013,0,0,0,0,0,0,0,0,0,0,0,0,0,0,0,0,0,0,0,0,0,0,0,0,0,0,0,0,0,0,0,0,0,0,0,0,0,0,0,0,0,0,0,0,0,0,0,0,0,0,0,0,0,0,0,0,0,0,0,0,0,0,0,0,0,998,1013,1006,1020,1141,1781,2150,2277,2413,2457,2410,2367,2334,2318,2260,2222,2185,2147,2126,2066,2027,1989,1949,1912,1892,1834,1795,1527,1400,1281,1095,1128,1050,1028,1014,1014,980,983,979,984,995,1009,996,1000,992,1006,993,993,994,995,994,1003,1014,1045,1015,1010,1009,1004,1012,1003,998,993,1003,1005,993,1224,1226,1262,1369,2385,2775,3245,3460,3612,3615,3561,3506,3426,3336,3250,3184,3100,3026,2959,2876,2800,2734,2622,2512,2260,2201,2000,1896,1730,1422,1372,1318,1280,1264,1248,1251,1269,1291,1341,1338,1338,1336,1347,1334,1350,1344,1341,1373,1379,1350,1369,1373,1372,1357,1357,1372,1349,1376,1360,1360,1361,1360,1360,1359,1358,816,823,838,831,884,1343,1686,1848,1967,2033,1975,1980,1942,1880,1848,1816,1837,1753,1746,1713,1658,1627,1596,1584,1532,1501,1468,1439,1292,1144,940,888,868,856,830,840,796,798,798,809,799,823,814,808,817,836,816,826,823,824,823,820,813,820,823,827,818,822,809,816,814,825,834,836,812,126,126,127,127,128,196,222,248,274,300,318,312,307,302,297,292,286,282,277,272,266,261,256,252,247,241,236,231,226,222,216,211,206,201,196,128,193,193,118,117,118,120,124,121,121,137,120,126,124,137,121,119,121,123,121,120,124,124,120,121,121,124,123,121,121,653,656,694,661,693,1141,1309,1497,1563,1658,1605,1596,1569,1530,1534,1507,1491,1425,1400,1375,1378,1323,1310,1272,1245,1220,1219,1193,1143,1117,1092,865,699,698,681,678,665,642,640,645,641,666,650,643,651,682,647,658,656,655,656,650,644,651,654,659,649,652,643,649,647,658,667,669,645,815,816,826,869,937,1481,1777,2003,2097,2134,2119,2080,2080,2006,1969,1932,1893,1909,1873,1834,1807,1706,1669,1632,1594,1556,1519,1527,1369,1180,1038,1011,863,841,828,836,832,866,840,835,852,860,842,857,844,850,848,859,874,860,857,862,864,874,864,868,857,866,867,867,866,866,860,874,860,362,364,364,366,370,503,665,741,817,894,906,887,877,862,848,834,819,805,789,776,760,745,731,715,700,687,672,658,644,632,618,522,512,478,373,370,371,391,325,317,312,322,328,330,322,321,317,319,329,323,326,330,331,333,323,328,326,325,327,328,324,345,319,325,323,240,240,241,242,243,372,429,478,529,591,600,585,580,571,561,552,542,532,530,513,504,495,486,476,466,463,447,438,428,418,409,399,383,315,295,244,244,245,196,194,194,194,202,201,196,201,197,198,200,200,201,201,202,207,205,206,199,203,201,207,206,229,201,207,205,408,409,410,425,427,500,761,846,932,1012,1019,1003,985,969,953,934,921,901,884,872,854,838,821,805,790,773,756,740,724,708,612,495,499,427,442,436,436,410,352,350,350,350,358,357,352,357,353,354,356,356,357,357,358,368,361,362,355,359,357,363,363,390,363,369,367,164,165,165,166,172,259,293,328,362,398,412,406,400,393,387,381,374,367,361,354,348,340,334,327,321,314,308,301,295,289,282,276,268,262,175,173,173,174,151,149,149,149,157,156,151,156,152,153,155,155,156,156,157,162,160,161,154,158,156,162,161,234,157,163,160,993,997,1008,1025,1071,1653,2035,2231,2356,2440,2401,2379,2353,2312,2266,2234,2191,2145,2127,2079,2041,1996,1961,1918,1874,1846,1777,1676,1369,1289,1096,1072,1046,1038,1028,1019,994,1000,969,979,983,991,997,988,988,1002,983,1003,1004,1000,1015,1005,1019,1011,1003,998,1001,998,996,1013,998,1001,998,1004,1004,0,0,0,0,0,0,0,0,0,0,0,0,0,0,0,0,0,0,0,0,0,0,0,0,0,0,0,0,0,0,0,0,0,0,0,0,0,0,0,0,0,0,0,0,0,0,0,0,0,0,0,0,0,0,0,0,0,0,0,0,0,0,0,0,0,962,969,968,991,1012,1572,1925,2157,2263,2318,2302,2253,2199,2200,2163,2116,2084,2055,1987,1980,1938,1885,1879,1822,1795,1760,1720,1427,1067,1072,1038,1024,1004,1014,998,971,972,992,970,961,972,973,983,974,975,980,976,977,979,977,979,980,979,1000,984,984,978,981,979,986,985,998,987,993,990,210,211,212,212,212,336,380,424,470,514,529,520,512,504,495,487,478,470,462,453,445,435,427,418,410,402,393,385,376,368,360,351,343,334,306,300,300,301,207,204,206,206,206,205,208,207,206,208,205,207,210,211,211,210,238,211,208,209,209,212,209,212,209,209,210,929,932,935,955,1069,1595,2197,2386,2541,2486,2562,2416,2369,2323,2274,2229,2247,2134,2088,2047,2059,1989,1917,1880,1825,1827,1740,1707,1564,1276,1161,1118,1009,960,946,947,952,984,960,955,977,977,973,971,974,972,980,975,973,977,973,968,978,982,980,975,970,970,975,981,984,1012,999,972,971,490,472,498,512,510,630,890,954,1018,1070,1083,1069,1058,1046,1033,1022,1008,996,985,972,961,948,934,922,907,898,873,873,835,768,726,625,507,492,505,480,504,507,465,466,465,469,470,474,471,472,463,471,467,466,467,484,476,480,493,483,474,478,484,482,476,483,466,469,468,362,364,364,366,370,503,665,741,817,894,906,887,877,862,848,834,819,805,789,776,760,745,731,715,700,687,672,658,644,632,618,522,512,478,373,370,371,391,325,317,312,322,328,330,322,321,317,319,329,323,326,330,331,333,323,328,326,325,327,328,324,345,319,325,323,923,903,918,917,1023,1563,1918,2053,2175,2224,2171,2115,2100,2066,2041,1998,1977,1957,1922,1881,1854,1797,1761,1728,1711,1678,1622,1546,1342,1172,1266,961,956,943,917,908,930,904,904,913,909,939,959,932,927,947,933,937,931,928,917,941,952,936,923,932,931,921,954,959,939,966,933,933,931,875,867,880,882,977,1516,1842,1982,2069,2127,2103,2073,2036,2007,1989,1942,1919,1893,1857,1812,1793,1744,1709,1676,1654,1623,1571,1539,1197,1083,1184,926,919,930,886,879,868,825,829,832,829,844,853,855,845,857,840,847,855,841,837,857,866,849,847,850,849,842,861,863,840,863,840,835,833,872,862,867,871,1001,1444,1835,1967,2089,2104,2095,2068,2048,2015,1962,1948,1908,1868,1850,1817,1783,1726,1713,1678,1626,1589,1556,1525,1332,972,1160,927,916,936,887,874,889,849,854,860,861,871,885,874,881,894,864,880,871,867,869,888,905,873,869,877,875,870,903,894,891,891,870,871,869,855,856,858,865,952,1481,1790,1943,2046,2084,2078,2043,2009,1976,1941,1910,1877,1842,1816,1782,1749,1715,1680,1647,1613,1579,1546,1425,1065,1043,1187,928,900,914,872,869,823,780,784,787,784,799,808,810,800,812,795,802,810,796,792,812,821,804,802,805,803,795,816,817,796,819,796,791,789,1268,1285,1355,1452,2584,3104,3458,3715,3727,3712,3656,3579,3504,3451,3350,3296,3196,3116,3104,2966,2855,2667,2521,2340,2276,2151,2035,1878,1518,1467,1423,1367,1362,1301,1308,1303,1329,1358,1444,1428,1451,1484,1454,1418,1531,1443,1450,1434,1507,1453,1457,1583,1583,1568,1578,1434,1493,1454,1452,1446,1440,1458,1449,1448,1439,969,968,975,991,1087,1712,2082,2235,2315,2362,2338,2294,2268,2269,2180,2151,2125,2082,2045,2007,1964,1927,1888,1860,1812,1757,1742,1614,1270,1156,1256,1036,1015,1017,984,984,984,942,945,957,942,959,965,975,962,971,954,960,970,957,954,973,982,965,965,962,964,954,979,980,955,981,958,953,951,0,0,0,0,0,0,0,0,0,0,0,0,0,0,0,0,0,0,0,0,0,0,0,0,0,0,0,0,0,0,0,0,0,0,0,0,0,0,0,0,0,0,0,0,0,0,0,0,0,0,0,0,0,0,0,0,0,0,0,0,0,0,0,0,0,1041,1038,1049,1060,1207,1835,2211,2364,2467,2519,2465,2429,2382,2371,2339,2268,2243,2225,2186,2138,2108,2048,2018,1955,1928,1789,1664,1490,1227,1177,1282,1100,1069,1090,1042,1053,986,943,947,950,959,969,973,979,966,987,963,969,978,960,957,980,989,969,973,970,969,966,984,992,963,987,964,959,957,1267,1296,1348,1466,2446,3128,3481,3672,3748,3764,3740,3601,3524,3471,3397,3316,3217,3165,3092,2985,2947,2865,2743,2430,2154,2086,2031,1946,1724,1477,1416,1363,1337,1304,1298,1313,1322,1340,1444,1439,1453,1480,1492,1427,1518,1452,1458,1442,1489,1464,1470,1480,1487,1483,1533,1509,1485,1462,1462,1455,1452,1467,1458,1457,1448,1182,1159,1176,1198,1366,2147,2558,2682,2767,2808,2760,2701,2648,2603,2586,2541,2516,2482,2438,2373,2350,2283,2242,2190,2170,2052,1822,1642,1314,1300,1408,1224,1224,1205,1176,1151,1156,1120,1119,1127,1130,1143,1149,1151,1142,1154,1137,1144,1152,1138,1134,1154,1163,1146,1144,1147,1146,1139,1158,1160,1137,1160,1137,1132,1130,923,903,918,917,1023,1563,1918,2053,2175,2224,2171,2115,2100,2066,2041,1998,1977,1957,1922,1881,1854,1797,1761,1728,1711,1678,1622,1546,1342,1172,1266,961,956,943,917,908,930,904,904,913,909,939,959,932,927,947,933,937,931,928,917,941,952,936,923,932,931,921,954,959,939,966,933,933,931,268,268,269,270,271,342,486,541,597,653,670,660,650,639,628,618,607,596,585,574,564,553,542,531,520,510,499,488,477,468,423,412,343,335,303,272,272,273,244,243,244,247,248,250,248,246,247,252,248,248,250,263,263,257,263,255,251,262,256,247,258,251,248,251,251,212,212,213,213,214,300,374,417,462,503,529,520,511,504,495,487,478,470,462,453,445,436,426,420,411,403,394,386,378,369,356,352,344,305,297,215,216,216,184,184,184,184,184,184,184,184,184,184,184,184,184,184,184,184,184,184,184,184,184,184,184,184,184,184,184,381,379,379,381,383,445,686,766,874,921,939,925,908,903,879,865,857,835,819,804,789,774,757,744,737,714,699,684,675,654,576,551,480,412,422,383,384,378,323,323,323,323,323,323,323,323,323,323,323,323,323,323,323,323,323,323,323,323,323,323,323,323,323,323,323,284,284,284,286,287,324,506,564,625,687,711,699,688,673,662,651,639,632,616,609,598,584,572,560,551,538,526,516,424,412,345,337,328,322,291,288,288,289,228,228,228,228,228,228,228,228,228,228,228,228,228,228,228,228,228,228,228,228,228,228,228,228,228,228,228,846,842,850,869,911,1316,1675,1859,2008,2078,2065,2032,1996,1960,1921,1892,1851,1838,1795,1753,1729,1706,1665,1639,1597,1556,1534,1417,1316,993,978,925,902,884,870,858,881,861,821,823,826,829,829,829,826,824,829,822,823,825,823,829,829,829,829,829,829,829,829,829,829,829,829,829,829,274,279,276,276,278,371,506,559,618,624,637,637,620,612,613,596,619,608,597,585,574,564,553,542,531,528,510,499,488,477,466,454,445,289,288,278,357,280,256,256,256,256,256,256,256,256,256,256,256,256,256,256,256,256,256,256,256,256,256,256,256,256,256,256,256,1076,1078,1090,1073,1133,1670,2270,2451,2528,2590,2589,2548,2450,2454,2418,2387,2332,2309,2246,2204,2179,2135,2096,2062,2017,1965,1787,1432,1358,1197,1170,1152,1137,1106,1096,1093,1104,1093,1047,1047,1047,1047,1047,1047,1047,1047,1047,1047,1047,1047,1047,1047,1047,1047,1047,1047,1047,1047,1047,1047,1047,1047,1047,1047,1047,0,0,0,0,0,0,0,0,0,0,0,0,0,0,0,0,0,0,0,0,0,0,0,0,0,0,0,0,0,0,0,0,0,0,0,0,0,0,0,0,0,0,0,0,0,0,0,0,0,0,0,0,0,0,0,0,0,0,0,0,0,0,0,0,0,785,788,789,796,922,1433,1737,2013,2116,2155,2137,2097,2056,2017,1977,1935,1894,1853,1812,1770,1729,1686,1663,1606,1572,1532,1491,1450,1411,1203,1013,908,859,818,801,827,816,812,773,773,780,802,801,795,802,793,784,808,790,790,788,789,783,791,793,799,790,788,787,794,794,799,800,801,801,303,303,332,304,330,384,490,511,530,548,558,554,549,546,542,538,535,530,526,523,519,516,515,507,504,500,499,496,488,481,400,396,391,384,380,330,330,332,257,263,258,264,264,270,261,264,260,260,264,259,258,271,265,269,268,270,268,268,276,268,268,273,258,260,260,268,268,269,270,271,342,486,541,597,653,670,660,650,639,628,618,607,596,585,574,564,553,542,531,520,510,499,488,477,468,423,412,343,335,303,272,272,273,244,243,244,247,248,250,248,246,247,252,248,248,250,263,263,257,263,255,251,262,256,247,258,251,248,251,251,764,766,768,777,828,1482,1645,1887,2019,2058,2046,2010,1974,1965,1900,1864,1828,1791,1755,1719,1708,1670,1666,1579,1561,1501,1425,1390,1354,1195,1165,832,808,787,804,772,808,780,786,787,805,806,829,778,819,822,821,809,832,824,818,821,825,832,837,794,813,816,848,835,804,834,817,818,825,883,885,888,912,1036,1757,1940,2173,2301,2332,2318,2277,2235,2223,2154,2113,2072,2035,1994,1953,1938,1889,1886,1796,1773,1708,1622,1574,1463,1248,1124,949,928,902,924,893,908,887,893,895,893,912,910,886,920,920,923,916,926,918,923,924,923,923,928,902,921,924,923,919,912,942,925,926,925,821,819,820,854,957,1544,1795,2029,2156,2184,2180,2131,2092,2052,2016,1979,1949,1902,1863,1828,1782,1771,1727,1676,1644,1603,1534,1495,1442,1261,1048,936,904,860,860,849,793,789,796,786,778,797,795,805,805,805,808,804,811,803,808,809,808,808,813,807,817,812,808,804,811,827,811,824,810,958,960,964,994,1164,1931,2127,2362,2478,2511,2492,2446,2404,2386,2315,2272,2227,2190,2146,2101,2084,2032,2027,1933,1906,1839,1697,1660,1488,1188,1136,1032,1004,977,996,969,952,934,938,943,937,956,954,934,964,964,967,963,970,962,967,968,967,967,972,950,969,971,967,963,959,986,970,974,969,208,209,210,211,211,295,375,420,464,507,524,516,507,499,490,482,474,465,457,448,440,432,424,416,408,399,391,382,374,366,357,349,309,302,294,212,290,290,203,206,204,229,206,212,204,209,204,204,206,204,202,207,207,209,207,211,208,209,212,212,206,237,203,209,205,1096,1106,1079,1128,1266,2112,2402,2602,2739,2767,2734,2698,2660,2620,2575,2531,2500,2446,2368,2342,2307,2245,2201,2140,2082,2008,1887,1559,1474,1350,1224,1171,1110,1111,1093,1098,1122,1110,1114,1121,1120,1131,1114,1122,1123,1136,1137,1133,1128,1140,1138,1146,1150,1148,1155,1130,1131,1130,1149,1146,1132,1135,1142,1127,1120,1288,1293,1334,1451,2397,2905,3526,3692,3766,3752,3694,3618,3540,3534,3399,3308,3222,3153,3090,3000,2892,2836,2631,2456,2394,2132,2032,1878,1536,1523,1432,1379,1343,1333,1316,1352,1338,1351,1465,1457,1455,1454,1476,1463,1472,1463,1461,1486,1478,1469,1479,1479,1537,1477,1486,1482,1475,1478,1478,1479,1484,1486,1471,1479,1479,870,872,874,881,1019,1664,1896,2130,2251,2290,2257,2234,2194,2153,2114,2073,2064,1991,1953,1927,1886,1865,1807,1773,1724,1682,1603,1566,1383,1233,1137,940,914,893,884,880,875,871,882,883,883,883,878,881,893,887,903,885,888,904,901,914,913,907,910,900,898,890,911,908,895,895,904,892,885,0,0,0,0,0,0,0,0,0,0,0,0,0,0,0,0,0,0,0,0,0,0,0,0,0,0,0,0,0,0,0,0,0,0,0,0,0,0,0,0,0,0,0,0,0,0,0,0,0,0,0,0,0,0,0,0,0,0,0,0,0,0,0,0,0,728,730,732,733,800,1320,1544,1779,1910,1944,1927,1910,1876,1831,1806,1770,1737,1701,1669,1643,1607,1586,1538,1506,1468,1430,1357,1324,1291,1113,1063,793,771,750,740,736,739,737,735,734,734,731,748,734,734,742,749,752,747,761,751,763,803,765,774,741,756,739,763,766,743,755,770,748,741,764,766,768,777,828,1482,1645,1887,2019,2058,2046,2010,1974,1965,1900,1864,1828,1791,1755,1719,1708,1670,1666,1579,1561,1501,1425,1390,1354,1195,1165,832,808,787,804,772,808,780,786,787,805,806,829,778,819,822,821,809,832,824,818,821,825,832,837,794,813,816,848,835,804,834,817,818,825,296,298,298,299,303,468,526,585,644,703,730,712,706,690,679,668,657,651,634,624,612,601,606,579,567,556,546,534,523,512,501,489,478,468,304,301,301,302,280,278,281,289,283,286,279,283,285,289,289,286,289,285,291,291,289,285,283,292,284,291,284,284,284,284,284,334,335,333,334,336,453,608,681,744,803,806,798,787,769,760,749,736,724,674,697,687,639,658,649,633,624,580,598,586,544,562,490,502,347,348,320,338,347,319,316,318,321,323,329,318,323,318,328,322,326,324,326,333,339,332,332,328,328,331,333,335,332,330,330,330,469,474,472,460,479,597,865,934,1025,1104,1125,1136,1115,1063,1045,1036,1024,1035,973,958,948,950,933,889,871,860,860,842,809,758,742,596,552,480,479,476,478,442,419,416,417,417,417,423,423,425,427,423,427,425,425,425,422,431,426,425,422,428,424,424,423,423,423,423,423,386,389,388,387,392,473,720,798,883,938,942,927,907,898,886,872,849,840,829,811,794,783,766,747,738,723,716,632,610,595,583,489,530,410,402,393,396,418,362,362,365,365,366,366,366,365,364,368,369,365,366,368,369,368,369,372,370,368,368,369,370,371,369,371,368,675,680,682,681,690,959,1298,1442,1586,1660,1655,1628,1612,1585,1559,1531,1506,1471,1453,1426,1410,1371,1345,1319,1291,1264,1238,1203,1057,945,923,822,739,704,692,685,690,632,597,597,597,597,597,597,597,597,597,597,597,597,597,597,597,597,597,597,597,597,597,597,597,597,597,597,597,394,407,396,452,401,591,718,789,888,934,942,931,901,904,927,880,896,880,866,850,835,819,805,789,768,759,706,733,692,696,632,574,505,454,403,400,448,437,393,394,396,401,395,402,398,402,408,399,403,396,400,400,396,397,401,401,400,401,400,401,402,408,406,408,407,1161,1183,1173,1213,1313,2024,2550,2697,2744,2816,2790,2746,2707,2652,2623,2577,2526,2485,2444,2406,2349,2094,2062,2006,1964,1924,1787,1591,1395,1362,1283,1249,1228,1230,1202,1198,1210,1215,1182,1177,1189,1191,1184,1189,1190,1189,1188,1192,1194,1186,1190,1191,1193,1192,1192,1196,1193,1191,1192,1192,1194,1194,1193,1194,1191,180,180,181,181,182,285,319,352,387,421,435,429,422,416,409,403,396,390,384,376,370,363,357,350,344,337,331,324,318,312,304,298,291,285,278,183,183,184,166,163,164,163,166,169,165,170,165,169,168,167,169,167,170,169,169,169,168,169,170,166,167,167,167,167,167,649,650,653,654,656,1109,1435,1613,1766,1808,1800,1764,1734,1695,1664,1640,1599,1564,1530,1501,1464,1429,1392,1357,1322,1294,1259,1225,1184,1150,977,844,717,675,664,658,681,668,639,638,642,647,648,672,653,677,659,651,663,652,649,675,672,671,670,650,650,650,650,650,650,650,650,650,650,0,0,0,0,0,0,0,0,0,0,0,0,0,0,0,0,0,0,0,0,0,0,0,0,0,0,0,0,0,0,0,0,0,0,0,0,0,0,0,0,0,0,0,0,0,0,0,0,0,0,0,0,0,0,0,0,0,0,0,0,0,0,0,0,0,296,298,298,299,303,468,526,585,644,703,730,712,706,690,679,668,657,651,634,624,612,601,606,579,567,556,546,534,523,512,501,489,478,468,304,301,301,302,280,278,281,289,283,286,279,283,285,289,289,286,289,285,291,291,289,285,283,292,284,291,284,284,284,284,284,0,0,0,0,0,0,0,0,0,0,0,0,0,0,0,0,0,0,0,0,0,0,0,0,0,0,0,0,0,0,0,0,0,0,0,0,0,0,0,0,0,0,0,0,0,0,0,0,0,0,0,0,0,0,0,0,0,0,0,0,0,0,0,0,0,118,119,119,119,180,184,208,232,256,280,295,290,286,282,277,272,267,262,258,254,249,244,240,235,230,225,220,217,212,207,202,198,193,188,183,180,181,181,127,107,107,108,107,108,108,108,107,110,108,107,107,108,108,107,110,108,108,108,108,108,108,108,108,108,108,230,230,231,232,232,343,428,454,516,564,578,568,577,567,541,526,522,513,519,482,484,476,454,471,448,439,429,420,411,432,392,384,386,364,344,233,234,275,197,195,198,202,200,198,202,199,198,203,198,198,204,211,208,205,210,204,198,198,198,200,196,202,200,204,198,193,194,194,195,196,254,347,386,428,469,482,475,481,459,453,446,436,430,421,415,408,399,392,382,376,367,361,354,345,338,330,322,314,307,254,196,196,197,153,154,152,156,156,156,156,156,155,155,156,157,154,156,156,155,156,156,156,156,156,156,156,156,155,154,154,817,819,822,823,840,1295,1800,1979,2104,2155,2132,2099,2064,2026,2000,1948,1910,1871,1833,1788,1754,1710,1682,1642,1593,1575,1533,1494,1365,1168,1115,891,865,864,832,829,814,807,799,804,805,814,823,826,820,827,813,822,816,832,831,831,824,837,819,828,830,822,822,827,821,836,809,817,817,372,377,378,379,383,432,674,752,832,907,909,913,873,819,860,858,848,805,764,754,738,727,733,718,727,675,685,666,622,515,497,497,497,440,383,380,380,384,354,330,328,334,339,341,341,344,340,344,344,341,344,336,338,345,347,338,338,338,338,338,338,338,338,338,338,932,935,951,966,988,1585,1914,2125,2215,2262,2255,2229,2189,2152,2112,2091,2040,1938,1963,1930,1892,1871,1838,1730,1743,1712,1675,1432,1265,1167,1102,1019,1001,970,956,946,948,951,944,935,946,949,966,953,953,967,952,968,959,963,957,952,954,956,957,953,959,962,951,959,953,969,959,956,954,207,208,208,209,211,272,309,410,453,497,524,516,507,499,490,481,474,465,457,448,440,432,423,415,406,398,427,381,372,329,301,294,287,280,291,211,212,212,155,155,155,156,157,157,157,159,155,157,160,155,157,161,162,159,164,161,156,156,158,160,154,155,155,155,154,699,700,702,704,709,1089,1575,1785,1918,1954,1933,1902,1864,1827,1805,1753,1716,1678,1641,1599,1567,1530,1492,1455,1418,1386,1350,1311,1269,1227,1089,929,756,732,712,710,715,720,708,712,709,741,732,732,735,735,724,727,736,733,742,731,726,740,728,730,735,726,725,731,731,738,727,737,732,304,304,305,306,308,367,561,612,695,752,764,750,739,727,714,701,689,678,665,653,640,628,614,602,589,577,565,553,543,529,443,434,378,320,312,354,309,310,270,267,263,270,275,270,275,277,271,273,274,284,292,292,296,281,278,272,275,278,269,270,269,272,273,272,263,0,0,0,0,0,0,0,0,0,0,0,0,0,0,0,0,0,0,0,0,0,0,0,0,0,0,0,0,0,0,0,0,0,0,0,0,0,0,0,0,0,0,0,0,0,0,0,0,0,0,0,0,0,0,0,0,0,0,0,0,0,0,0,0,0 ]);
