n = 10;
D = [252,274,203,114,151,107,148,125,162,64 ];
q = 0;
prec = array2d(1..0,1..2,[]);
steps = 64;
l = 360;
r = 0;
which = [];
interval = array2d(1..0,1..2,[]);
T = array3d(1..11,1..11,0..64,[0,0,0,0,0,0,0,0,0,0,0,0,0,0,0,0,0,0,0,0,0,0,0,0,0,0,0,0,0,0,0,0,0,0,0,0,0,0,0,0,0,0,0,0,0,0,0,0,0,0,0,0,0,0,0,0,0,0,0,0,0,0,0,0,0,639,641,656,658,661,738,832,927,1010,1055,1058,1042,1025,1009,987,976,953,936,926,910,886,877,852,844,818,801,794,778,761,745,728,700,695,679,665,649,651,673,656,657,648,667,660,656,668,680,662,656,659,674,668,659,659,666,664,664,663,670,655,662,657,662,666,661,653,1032,1041,1035,1077,1140,1243,1458,1554,1665,1701,1632,1717,1722,1617,1564,1516,1533,1487,1446,1451,1453,1385,1363,1339,1316,1300,1250,1233,1190,1162,1139,1111,1115,1068,1074,1048,1038,1041,1058,1053,1062,1081,1065,1081,1065,1076,1082,1069,1076,1066,1068,1073,1067,1069,1069,1074,1073,1075,1067,1073,1073,1085,1078,1088,1073,1366,1462,1391,1460,1708,1869,2097,2243,2341,2323,2295,2261,2221,2174,2126,2095,2059,2015,1981,1941,1901,1859,1817,1777,1853,1724,1661,1619,1594,1541,1594,1461,1418,1420,1488,1403,1396,1402,1487,1486,1498,1521,1495,1542,1503,1527,1502,1517,1527,1519,1499,1517,1539,1549,1536,1554,1532,1536,1542,1534,1528,1514,1554,1556,1516,332,333,334,335,336,357,403,450,497,540,551,603,593,525,516,508,499,490,481,473,518,455,446,438,429,420,412,403,394,385,377,368,359,350,342,337,338,339,326,327,331,334,332,333,335,334,333,332,337,337,343,354,347,343,332,334,337,335,335,334,334,335,332,334,335,1077,1145,1100,1110,1222,1401,1616,1774,1874,1872,1852,1922,1792,1752,1711,1687,1655,1681,1617,1678,1529,1491,1460,1497,1454,1365,1332,1297,1258,1278,1197,1168,1128,1108,1096,1090,1151,1152,1150,1142,1172,1189,1183,1210,1183,1185,1196,1197,1226,1190,1211,1226,1248,1239,1212,1188,1177,1200,1183,1177,1177,1199,1179,1211,1180,733,712,734,739,744,849,962,1075,1131,1203,1202,1183,1164,1141,1096,1106,1059,1040,1069,1029,984,991,946,952,909,890,895,875,856,835,836,778,779,758,747,723,725,747,744,738,743,741,741,738,743,749,747,748,739,747,749,760,756,756,752,755,751,752,752,767,756,761,748,752,754,767,770,772,775,807,970,1017,1108,1290,1260,1260,1240,1212,1200,1159,1185,1139,1119,1099,1079,1088,1039,1018,998,978,958,938,917,897,916,857,837,817,797,783,779,781,778,778,770,778,810,790,806,770,791,776,766,789,795,813,831,836,825,801,818,792,809,808,804,817,821,804,824,806,368,369,370,372,373,396,447,498,549,595,605,596,586,577,567,558,548,539,530,520,511,501,492,482,473,463,454,445,435,426,416,407,397,388,378,374,375,376,361,358,361,371,362,363,358,365,370,360,365,363,362,362,372,373,377,364,371,368,371,374,378,372,365,372,381,611,613,615,617,630,714,783,865,959,992,1006,1049,1057,983,932,926,910,885,878,862,899,822,814,798,782,766,750,726,711,695,686,670,647,638,624,620,622,624,624,621,619,626,608,618,616,618,636,699,619,629,634,634,638,646,654,633,625,625,628,634,625,626,630,633,629,0,0,0,0,0,0,0,0,0,0,0,0,0,0,0,0,0,0,0,0,0,0,0,0,0,0,0,0,0,0,0,0,0,0,0,0,0,0,0,0,0,0,0,0,0,0,0,0,0,0,0,0,0,0,0,0,0,0,0,0,0,0,0,0,0,736,673,675,740,696,783,850,980,1141,1105,1107,1073,1073,1041,985,969,952,936,915,904,937,920,844,886,802,851,821,795,796,783,766,726,743,652,681,705,683,648,670,675,678,697,691,684,679,689,683,700,694,697,761,769,795,740,714,695,695,699,699,689,693,702,692,712,690,0,0,0,0,0,0,0,0,0,0,0,0,0,0,0,0,0,0,0,0,0,0,0,0,0,0,0,0,0,0,0,0,0,0,0,0,0,0,0,0,0,0,0,0,0,0,0,0,0,0,0,0,0,0,0,0,0,0,0,0,0,0,0,0,0,578,558,582,583,594,651,701,784,859,905,955,946,880,871,851,836,822,808,798,783,769,787,738,757,747,696,716,662,648,633,619,634,620,604,565,597,566,567,563,572,570,575,599,572,577,578,572,582,570,573,572,582,586,603,732,679,600,591,583,575,577,572,593,585,572,1530,1486,1616,1630,1787,2118,2241,2375,2384,2564,2404,2423,2484,2304,2455,2237,2185,2274,2091,2014,1976,2079,1932,1938,1887,1893,1783,1815,1679,1759,1634,1574,1582,1516,1507,1535,1563,1519,1628,1614,1621,1625,1755,1659,1662,1671,1651,1660,1743,1751,1683,1686,1690,1706,1823,1696,1679,1678,1708,1694,1685,1672,1705,1734,1710,381,382,383,384,386,396,467,521,576,622,631,621,611,579,591,581,546,561,551,521,531,502,511,501,491,483,471,461,453,441,415,421,411,419,391,387,388,389,384,378,380,379,380,376,380,379,383,379,378,380,384,385,385,385,387,384,385,385,386,396,387,391,385,384,388,1228,1194,1273,1272,1387,1603,1799,2022,2085,2022,2171,1940,1906,1856,1855,1801,1767,1763,1833,1725,1728,1662,1596,1692,1550,1476,1457,1405,1434,1355,1381,1282,1212,1222,1224,1230,1242,1254,1254,1251,1265,1295,1297,1264,1261,1284,1261,1311,1302,1307,1335,1450,1357,1341,1419,1299,1306,1310,1312,1299,1313,1323,1310,1314,1313,232,233,234,235,235,245,278,311,343,376,390,383,377,371,365,358,352,346,340,334,327,321,315,309,302,296,290,284,277,271,265,259,253,246,240,236,237,237,231,222,222,223,225,224,224,226,223,231,224,223,225,226,225,224,230,227,228,226,226,228,226,227,228,230,231,629,605,634,634,648,683,805,898,983,1028,1031,1016,965,1069,965,949,933,885,869,962,837,854,836,790,774,786,770,753,710,721,705,689,713,656,642,638,640,642,634,617,619,618,636,629,631,626,629,634,655,645,652,647,652,652,649,646,648,662,671,662,651,651,678,662,663,304,305,306,307,308,324,365,406,448,488,499,492,484,476,468,461,453,445,437,430,422,414,406,398,391,383,375,367,360,352,344,336,329,321,313,309,309,310,299,293,293,301,293,311,297,296,300,300,311,303,303,300,301,311,326,301,299,309,299,307,303,299,307,316,304,435,436,437,439,441,439,497,555,613,690,728,688,704,697,626,616,605,594,564,554,543,533,523,513,502,492,509,472,461,451,456,446,459,444,414,441,442,412,415,412,418,420,418,417,417,427,420,425,416,420,423,437,434,431,426,429,420,424,419,427,420,427,417,425,419,736,673,675,740,696,783,850,980,1141,1105,1107,1073,1073,1041,985,969,952,936,915,904,937,920,844,886,802,851,821,795,796,783,766,726,743,652,681,705,683,648,670,675,678,697,691,684,679,689,683,700,694,697,761,769,795,740,714,695,695,699,699,689,693,702,692,712,690,1113,1097,1133,1134,1269,1313,1487,1668,1680,1809,1724,1805,1728,1665,1665,1654,1562,1528,1495,1477,1494,1509,1450,1453,1377,1345,1380,1352,1217,1242,1214,1217,1158,1135,1108,1103,1130,1075,1123,1127,1126,1162,1114,1165,1134,1160,1149,1153,1173,1137,1150,1142,1151,1168,1161,1153,1156,1157,1162,1152,1158,1164,1156,1197,1176,587,594,592,613,603,654,744,835,907,963,950,943,927,911,906,910,866,850,835,842,808,793,783,774,750,729,721,744,683,702,652,644,622,602,592,620,594,595,600,598,598,599,598,615,634,623,602,613,624,616,609,606,608,629,622,614,611,608,608,610,609,610,610,645,611,0,0,0,0,0,0,0,0,0,0,0,0,0,0,0,0,0,0,0,0,0,0,0,0,0,0,0,0,0,0,0,0,0,0,0,0,0,0,0,0,0,0,0,0,0,0,0,0,0,0,0,0,0,0,0,0,0,0,0,0,0,0,0,0,0,1028,1030,1145,1046,1150,1334,1555,1724,1815,1839,1902,1791,1755,1724,1739,1657,1621,1682,1556,1521,1489,1456,1575,1520,1355,1322,1288,1255,1220,1188,1155,1188,1086,1086,1041,1044,1051,1059,1081,1081,1128,1380,1133,1063,1120,1213,1146,1090,1187,1160,1111,1121,1198,1173,1156,1073,1103,1100,1146,1154,1083,1130,1099,1097,1112,795,778,799,788,839,894,1019,1142,1222,1348,1257,1316,1239,1228,1181,1196,1162,1135,1099,1098,1075,1100,1048,1046,990,966,969,970,902,896,876,885,835,814,786,801,806,788,787,807,805,801,825,798,813,828,810,806,827,799,816,810,827,829,988,936,846,821,813,808,805,800,818,851,797,1217,1220,1227,1268,1356,1518,1711,1848,1942,2111,1960,1928,1898,1866,1835,1804,1773,1765,1710,1679,1648,1617,1585,1555,1523,1492,1461,1431,1398,1367,1336,1305,1275,1252,1238,1235,1315,1243,1300,1300,1296,1311,1321,1305,1302,1323,1296,1311,1311,1305,1304,1363,1320,1315,1358,1315,1313,1309,1323,1332,1304,1318,1309,1318,1313,614,616,617,629,630,689,797,866,951,1018,999,984,984,953,957,941,906,890,875,859,843,828,812,796,794,765,750,905,718,703,687,672,656,640,627,623,698,636,644,653,631,732,670,652,655,672,654,648,657,664,663,647,640,651,651,657,649,648,641,647,639,653,655,651,628,1110,1198,1167,1269,1333,1473,1593,1779,1814,1832,1847,1910,1786,1803,1815,1745,1690,1669,1647,1541,1530,1560,1454,1461,1466,1431,1297,1407,1324,1311,1284,1194,1223,1154,1187,1208,1153,1195,1195,1188,1191,1197,1188,1202,1215,1215,1213,1195,1205,1196,1208,1198,1206,1197,1223,1204,1212,1226,1207,1215,1230,1213,1200,1211,1205,778,785,784,782,819,897,1092,1143,1218,1269,1355,1239,1218,1198,1188,1152,1139,1119,1099,1100,1062,1043,1028,1014,986,960,947,1021,900,887,860,847,820,796,785,838,789,791,783,804,792,825,787,807,798,818,807,814,801,797,807,805,815,815,816,821,814,807,822,813,816,824,813,821,821,592,584,602,603,598,666,757,852,974,985,974,970,929,927,931,890,884,866,844,857,836,792,794,761,746,736,715,729,690,670,664,655,633,609,595,609,593,604,601,602,600,607,605,608,606,614,603,607,610,601,603,607,605,606,610,611,606,609,613,611,605,617,605,615,608,1113,1097,1133,1134,1269,1313,1487,1668,1680,1809,1724,1805,1728,1665,1665,1654,1562,1528,1495,1477,1494,1509,1450,1453,1377,1345,1380,1352,1217,1242,1214,1217,1158,1135,1108,1103,1130,1075,1123,1127,1126,1162,1114,1165,1134,1160,1149,1153,1173,1137,1150,1142,1151,1168,1161,1153,1156,1157,1162,1152,1158,1164,1156,1197,1176,1306,1302,1335,1371,1565,1778,2031,2136,2290,2225,2225,2167,2129,2109,2052,2014,1988,2036,1899,1861,1834,1796,1781,1699,1670,1674,1679,1589,1540,1479,1487,1431,1365,1367,1342,1323,1368,1339,1407,1389,1390,1397,1432,1445,1432,1440,1421,1430,1470,1452,1451,1456,1458,1471,1501,1441,1450,1465,1465,1480,1448,1448,1479,1533,1463,1490,1536,1561,1619,1819,2053,2282,2443,2467,2454,2434,2423,2406,2313,2278,2237,2251,2164,2119,2146,2073,2055,1990,1902,1892,1827,1821,1744,1689,1686,1649,1584,1590,1496,1496,1549,1582,1551,1631,1606,1625,1624,1628,1643,1635,1637,1641,1652,1685,1664,1667,1671,1671,1683,1674,1677,1664,1690,1697,1693,1689,1681,1705,1719,1723,1209,1161,1136,1212,1268,1549,1711,1877,1974,2004,1987,1951,1915,1879,1846,1912,1890,1735,1699,1666,1630,1640,1555,1552,1543,1479,1411,1375,1376,1302,1269,1230,1253,1166,1148,1221,1155,1162,1231,1233,1206,1220,1215,1257,1225,1238,1253,1311,1243,1266,1257,1267,1253,1305,1274,1237,1235,1236,1257,1273,1256,1279,1273,1273,1243,0,0,0,0,0,0,0,0,0,0,0,0,0,0,0,0,0,0,0,0,0,0,0,0,0,0,0,0,0,0,0,0,0,0,0,0,0,0,0,0,0,0,0,0,0,0,0,0,0,0,0,0,0,0,0,0,0,0,0,0,0,0,0,0,0,1197,1196,1197,1274,1370,1580,1821,1967,2083,2067,2014,2009,1973,1926,1907,1866,1843,1800,1743,1723,1688,1662,1606,1571,1548,1509,1474,1438,1402,1366,1331,1286,1258,1218,1214,1215,1214,1234,1268,1272,1281,1285,1282,1312,1284,1298,1281,1302,1305,1294,1275,1294,1309,1311,1303,1320,1315,1307,1315,1304,1289,1283,1312,1375,1314,456,457,458,460,462,530,564,629,743,742,750,785,727,715,703,691,679,668,656,644,632,620,609,597,585,573,561,549,538,526,514,530,490,478,467,463,464,465,476,450,455,458,453,471,460,475,470,463,475,456,461,460,458,465,464,462,461,464,460,460,458,463,461,469,463,1613,1611,1646,1778,1923,2205,2445,2594,2691,2694,2650,2620,2573,2502,2504,2491,2439,2385,2308,2240,2205,2145,2100,2074,2016,1970,1949,1888,1856,1861,1745,1658,1671,1633,1622,1616,1622,1629,1777,1770,1767,1778,1787,1818,1808,1825,1805,1817,1838,1826,1830,1841,1832,1865,1840,1816,1835,1823,1815,1864,1831,1832,1838,1888,1840,1715,1772,1838,1911,2161,2493,2948,2776,2942,2840,2798,2762,2714,2655,2618,2570,2534,2526,2427,2379,2371,2342,2269,2178,2139,2091,2127,1996,1948,1900,1852,1801,1748,1794,1774,1733,1750,1752,1978,2045,1991,2016,2042,2007,2022,2061,2025,2025,2049,2010,2053,2033,2057,2060,2217,2168,2077,2054,2085,2024,2041,2045,2083,2085,2033,1270,1232,1293,1283,1432,1704,2043,2020,2206,2113,2083,2059,2023,1975,1950,1914,1889,1895,1804,1768,1743,1707,1695,1613,1586,1550,1559,1477,1441,1405,1368,1324,1294,1263,1304,1252,1297,1268,1333,1300,1303,1306,1341,1364,1346,1349,1338,1342,1382,1365,1404,1365,1384,1390,1412,1352,1367,1398,1426,1429,1411,1425,1457,1491,1394,1163,1166,1171,1211,1342,1461,1687,1818,1880,1885,1875,1880,1815,1785,1755,1725,1750,1665,1635,1640,1610,1571,1539,1503,1562,1447,1417,1382,1365,1335,1291,1259,1267,1236,1207,1180,1183,1227,1256,1262,1242,1258,1261,1268,1256,1300,1283,1288,1271,1350,1304,1320,1283,1368,1300,1311,1300,1274,1300,1345,1330,1332,1322,1321,1311,1306,1302,1335,1371,1565,1778,2031,2136,2290,2225,2225,2167,2129,2109,2052,2014,1988,2036,1899,1861,1834,1796,1781,1699,1670,1674,1679,1589,1540,1479,1487,1431,1365,1367,1342,1323,1368,1339,1407,1389,1390,1397,1432,1445,1432,1440,1421,1430,1470,1452,1451,1456,1458,1471,1501,1441,1450,1465,1465,1480,1448,1448,1479,1533,1463,398,399,424,402,403,391,489,546,545,651,660,617,639,665,562,625,597,587,576,515,505,545,534,524,513,458,521,482,429,420,450,401,391,382,372,384,405,406,381,380,381,395,393,384,381,387,388,393,401,409,484,488,501,430,391,389,395,394,384,393,388,385,384,395,386,310,311,312,313,314,329,369,410,450,488,500,493,485,478,470,463,455,447,440,432,425,417,410,402,394,465,441,431,436,426,349,342,334,326,319,314,315,316,308,311,310,314,347,337,331,337,326,345,327,327,332,320,322,338,326,316,340,318,317,334,331,342,330,325,323,701,707,725,715,760,798,931,965,1127,1163,1165,1160,1125,1113,1099,1076,1062,1027,1008,999,956,966,934,928,910,892,847,852,840,823,784,768,743,730,732,731,704,713,735,702,705,712,705,736,707,721,716,723,744,731,726,722,730,751,772,730,718,740,723,738,737,728,741,761,731,1204,1226,1232,1280,1408,1588,1819,1974,2055,2080,2058,2022,1986,1978,2050,1881,1841,1805,1769,1759,1700,1661,1619,1589,1553,1546,1524,1436,1429,1375,1452,1300,1305,1238,1306,1227,1233,1262,1287,1271,1274,1281,1299,1322,1298,1304,1307,1329,1335,1310,1327,1310,1311,1338,1346,1317,1334,1337,1328,1356,1344,1346,1365,1388,1366,0,0,0,0,0,0,0,0,0,0,0,0,0,0,0,0,0,0,0,0,0,0,0,0,0,0,0,0,0,0,0,0,0,0,0,0,0,0,0,0,0,0,0,0,0,0,0,0,0,0,0,0,0,0,0,0,0,0,0,0,0,0,0,0,0,916,965,968,948,1025,1150,1334,1499,1590,1620,1609,1580,1551,1522,1494,1594,1503,1407,1378,1349,1320,1292,1254,1234,1205,1176,1169,1110,1110,1159,1032,1064,1009,947,933,932,1029,959,1001,973,980,978,1014,1045,999,1011,1021,1053,1036,1087,1105,1082,1024,1065,1046,1026,1030,1030,1081,1182,1147,1169,1150,1089,1107,440,441,443,444,447,483,547,612,676,720,728,753,708,696,685,673,661,649,638,626,665,600,591,732,568,556,544,530,518,507,495,486,472,462,449,447,448,449,424,425,426,426,427,429,430,431,432,433,434,435,437,438,439,440,441,442,444,445,446,447,448,449,450,452,453,679,681,683,711,705,778,882,985,1074,1132,1118,1100,1083,1065,1047,1029,1011,993,975,1012,939,951,904,915,868,850,832,814,796,778,760,742,725,707,693,689,691,733,684,689,692,706,700,703,694,705,701,702,697,695,700,705,703,708,710,709,713,705,708,708,710,736,730,735,730,248,249,249,250,251,261,294,327,360,393,423,417,410,404,397,391,384,378,371,364,358,351,345,338,332,325,319,312,306,299,281,286,279,273,266,251,252,253,245,245,245,247,248,251,250,256,255,250,255,249,247,247,247,253,248,247,249,248,246,247,247,249,245,253,247,278,278,279,280,281,295,341,372,421,487,461,454,447,449,441,434,427,419,412,404,419,389,382,374,367,359,352,364,337,348,315,308,301,293,286,282,283,283,299,266,266,268,282,278,280,269,270,278,307,282,293,293,296,295,281,278,284,305,315,303,279,279,312,278,276,398,399,424,402,403,391,489,546,545,651,660,617,639,665,562,625,597,587,576,515,505,545,534,524,513,458,521,482,429,420,450,401,391,382,372,384,405,406,381,380,381,395,393,384,381,387,388,393,401,409,484,488,501,430,391,389,395,394,384,393,388,385,384,395,386,1036,1053,1006,1045,1090,1336,1451,1674,1793,1750,1789,1732,1687,1646,1668,1693,1554,1605,1494,1462,1431,1427,1369,1339,1309,1302,1288,1216,1251,1190,1123,1119,1062,1035,1024,1053,1049,1026,1049,1043,1052,1070,1054,1067,1054,1063,1068,1059,1062,1055,1057,1061,1055,1055,1058,1062,1061,1061,1055,1061,1061,1074,1067,1075,1061,1219,1219,1233,1282,1381,1527,1771,1971,2071,2009,2058,1941,2040,1890,1910,1952,1831,1752,1701,1698,1703,1646,1580,1597,1588,1505,1490,1408,1373,1339,1304,1289,1236,1232,1239,1250,1262,1201,1305,1296,1288,1315,1346,1338,1323,1317,1340,1375,1333,1396,1430,1383,1310,1355,1355,1356,1352,1330,1419,1511,1464,1459,1465,1387,1384,1265,1268,1279,1330,1506,1650,1809,1939,2033,2064,2051,2052,1982,1952,1937,1922,1851,1819,1841,1755,1739,1690,1657,1623,1620,1572,1581,1507,1460,1454,1413,1386,1331,1300,1287,1287,1297,1310,1359,1368,1350,1365,1364,1379,1369,1398,1398,1427,1384,1424,1402,1407,1404,1456,1409,1383,1404,1383,1401,1440,1411,1437,1413,1430,1403,457,459,460,462,464,479,542,606,700,719,728,717,705,693,682,698,686,647,635,624,612,601,589,577,566,554,543,531,519,508,496,485,473,461,450,445,447,448,441,441,444,457,450,445,447,465,455,450,458,463,504,515,517,495,450,447,453,462,452,452,452,455,453,456,453,895,901,899,906,959,1085,1278,1441,1549,1589,1575,1527,1507,1490,1462,1526,1411,1382,1335,1321,1292,1264,1237,1213,1174,1137,1124,1100,1068,1039,1011,983,955,928,910,897,913,921,927,916,934,990,954,961,950,934,942,959,952,943,945,978,1008,1000,971,952,938,952,939,935,932,955,944,965,930,0,0,0,0,0,0,0,0,0,0,0,0,0,0,0,0,0,0,0,0,0,0,0,0,0,0,0,0,0,0,0,0,0,0,0,0,0,0,0,0,0,0,0,0,0,0,0,0,0,0,0,0,0,0,0,0,0,0,0,0,0,0,0,0,0,1306,1293,1309,1420,1490,1729,1921,2117,2186,2214,2195,2153,2147,2149,2011,2111,1981,1928,1967,1888,1814,1800,1763,1697,1672,1623,1583,1619,1532,1471,1484,1428,1428,1313,1347,1332,1335,1346,1403,1386,1384,1391,1424,1436,1422,1433,1414,1425,1463,1447,1466,1464,1473,1470,1494,1433,1440,1460,1461,1467,1442,1441,1473,1524,1457,1429,1445,1430,1610,1643,1979,2119,2328,2354,2435,2473,2376,2387,2235,2195,2310,2113,2073,2078,1991,1951,1955,1869,1872,1899,1747,1793,1706,1668,1585,1544,1540,1572,1482,1485,1425,1457,1475,1548,1532,1540,1537,1667,1573,1575,1583,1565,1573,1655,1660,1579,1579,1583,1604,1736,1613,1590,1589,1621,1601,1597,1587,1617,1648,1623,931,933,936,944,1000,1223,1329,1495,1596,1635,1626,1597,1628,1539,1510,1644,1453,1424,1442,1366,1337,1309,1280,1251,1338,1193,1255,1178,1107,1078,1049,1020,1070,964,1006,945,950,955,990,994,989,1001,1004,1003,1000,1016,993,998,1000,996,994,1008,1008,1009,1005,1005,1008,1000,1011,1015,998,1012,998,1007,1006,1028,998,1058,1016,1083,1343,1439,1683,1702,1739,1728,1697,1667,1636,1606,1627,1545,1560,1483,1526,1422,1392,1361,1331,1300,1324,1240,1209,1233,1148,1117,1138,1056,1029,1012,1039,1016,1021,1037,1037,1042,1089,1055,1065,1057,1044,1063,1053,1068,1052,1073,1043,1061,1060,1080,1063,1066,1050,1060,1063,1074,1060,1046,1084,1063,1036,1053,1006,1045,1090,1336,1451,1674,1793,1750,1789,1732,1687,1646,1668,1693,1554,1605,1494,1462,1431,1427,1369,1339,1309,1302,1288,1216,1251,1190,1123,1119,1062,1035,1024,1053,1049,1026,1049,1043,1052,1070,1054,1067,1054,1063,1068,1059,1062,1055,1057,1061,1055,1055,1058,1062,1061,1061,1055,1061,1061,1074,1067,1075,1061,877,864,989,936,992,1035,1223,1287,1523,1406,1411,1445,1367,1399,1323,1354,1331,1258,1303,1214,1192,1153,1224,1171,1136,1112,1060,1038,1017,1034,1037,989,912,891,904,993,1001,916,942,935,932,935,935,970,965,966,952,963,974,961,959,955,957,984,988,960,968,968,967,983,974,970,978,1023,985,251,252,252,253,254,265,300,336,371,406,421,414,408,401,394,387,381,374,367,360,354,347,340,333,327,320,313,306,300,293,286,280,273,266,259,255,255,256,248,238,240,240,238,242,240,243,241,243,248,245,242,245,242,246,245,243,245,243,245,247,247,249,246,251,247,656,634,636,671,650,718,855,936,1021,1063,1121,1021,1004,988,971,955,938,921,905,888,872,885,858,822,857,789,772,756,757,739,741,706,673,689,643,642,644,658,647,645,639,648,653,680,649,656,668,669,653,656,647,655,655,641,656,660,659,659,651,653,664,669,662,669,659,1704,1709,1771,1934,2149,2518,2572,2680,2752,2871,2844,2668,2684,2607,2564,2527,2474,2442,2391,2415,2279,2209,2214,2109,2074,2084,2002,1936,1887,1902,1830,1750,1717,1713,1687,1712,1719,1735,1902,1896,1937,2208,1950,1916,1937,2035,2001,2007,2017,2009,1962,1968,2037,2019,2031,1924,1939,1948,1989,2007,1938,1979,1958,1971,1960,607,609,615,616,594,685,731,821,903,961,949,934,923,953,941,920,904,888,872,862,798,783,772,757,741,761,711,696,681,697,670,635,650,634,592,620,622,623,598,595,596,605,601,613,602,605,611,607,606,603,601,606,602,599,606,609,608,606,605,603,610,619,615,622,613,1404,1427,1527,1531,1729,1934,2289,2275,2301,2301,2296,2256,2423,2373,2182,2228,2177,2028,2136,2040,1923,1849,1809,1766,1738,1720,1751,1619,1579,1677,1518,1488,1440,1422,1394,1417,1457,1440,1518,1524,1518,1519,1542,1539,1557,1571,1527,1560,1551,1582,1559,1564,1548,1590,1566,1575,1552,1545,1542,1568,1564,1564,1551,1562,1583,0,0,0,0,0,0,0,0,0,0,0,0,0,0,0,0,0,0,0,0,0,0,0,0,0,0,0,0,0,0,0,0,0,0,0,0,0,0,0,0,0,0,0,0,0,0,0,0,0,0,0,0,0,0,0,0,0,0,0,0,0,0,0,0,0,695,701,729,770,728,887,956,1046,1106,1147,1152,1132,1114,1193,1077,1059,1133,1022,1093,985,1052,1032,930,911,894,952,857,838,848,801,868,760,745,727,778,709,711,740,738,739,743,741,735,736,749,748,735,738,747,741,744,751,748,746,745,739,744,747,745,735,747,743,745,741,748,530,532,533,535,541,588,664,741,1065,862,870,856,843,829,815,801,788,774,760,747,733,719,706,692,678,665,651,637,624,610,596,582,569,555,542,538,540,541,525,532,538,547,542,547,533,542,532,565,540,540,546,544,564,584,559,549,559,545,554,555,561,568,542,550,544,602,618,619,621,685,732,885,900,965,1021,1013,971,1029,1000,949,912,917,945,897,894,852,836,820,835,788,772,799,761,723,741,676,675,659,628,629,668,627,651,628,639,641,661,760,708,659,712,661,790,693,720,707,657,689,732,691,662,737,679,666,712,698,764,699,689,670,877,864,989,936,992,1035,1223,1287,1523,1406,1411,1445,1367,1399,1323,1354,1331,1258,1303,1214,1192,1153,1224,1171,1136,1112,1060,1038,1017,1034,1037,989,912,891,904,993,1001,916,942,935,932,935,935,970,965,966,952,963,974,961,959,955,957,984,988,960,968,968,967,983,974,970,978,1023,985,843,846,814,813,880,932,1067,1256,1279,1381,1359,1357,1335,1312,1250,1268,1208,1224,1202,1180,1106,1136,1064,1043,1022,1000,980,960,939,918,897,876,894,837,887,809,811,861,848,844,841,843,855,862,879,882,852,856,860,862,862,852,855,875,867,858,855,861,852,866,855,860,856,873,862,521,522,524,526,532,580,682,734,811,858,864,852,826,813,809,795,783,769,753,739,726,712,698,686,670,679,643,621,608,601,587,567,579,546,533,529,530,532,524,524,526,536,536,541,527,540,532,532,536,538,537,539,545,554,549,553,540,545,546,548,555,561,561,570,560,898,928,986,912,958,1073,1333,1356,1474,1519,1465,1442,1479,1395,1433,1348,1324,1298,1270,1259,1278,1207,1184,1186,1203,1162,1150,1084,1047,1020,1012,997,989,932,971,927,1026,917,944,938,955,983,954,962,950,968,971,963,981,953,968,996,1016,1004,991,975,954,983,961,954,951,985,966,988,957,1637,1640,1694,1899,2320,2593,2937,2888,2922,3071,2959,3015,2821,2829,2738,2677,2624,2599,2549,2475,2542,2362,2320,2345,2241,2170,2100,2015,2000,1909,1841,1749,1764,1732,1654,1782,1684,1702,1966,1956,1923,1943,1945,1995,2017,2034,2001,2093,1993,2003,1985,2046,2032,2086,2052,2038,2035,2033,2025,2039,2017,2026,1992,2000,1955,668,670,672,715,692,762,863,964,1135,1091,1162,1080,1117,1045,1028,1010,993,975,958,940,923,905,888,922,853,938,818,800,783,765,792,731,713,696,679,678,680,682,685,678,684,695,731,715,691,694,691,703,677,698,699,708,710,717,692,699,695,684,701,721,709,705,700,728,698,1504,1504,1544,1646,2007,2116,2324,2508,2476,2625,2495,2442,2402,2365,2336,2305,2236,2270,2149,2082,2118,2009,1973,1989,1914,1879,1808,1761,1718,1675,1621,1572,1556,1537,1525,1564,1535,1533,1632,1617,1623,1621,1751,1658,1659,1669,1649,1659,1739,1746,1666,1670,1670,1700,1824,1696,1675,1677,1706,1694,1682,1672,1703,1732,1708,538,498,504,543,550,538,630,681,770,800,807,794,781,768,834,743,805,771,704,691,678,665,720,706,691,626,658,588,635,605,549,592,534,563,546,546,495,549,532,534,521,533,536,533,545,555,532,533,536,550,546,533,536,539,540,539,539,541,531,533,531,537,541,534,524,0,0,0,0,0,0,0,0,0,0,0,0,0,0,0,0,0,0,0,0,0,0,0,0,0,0,0,0,0,0,0,0,0,0,0,0,0,0,0,0,0,0,0,0,0,0,0,0,0,0,0,0,0,0,0,0,0,0,0,0,0,0,0,0,0,591,593,595,596,606,662,749,835,918,960,968,953,938,923,907,892,877,862,846,831,816,801,785,770,755,739,724,709,694,678,663,648,633,617,602,600,601,603,600,598,598,599,598,615,634,623,602,613,624,616,609,606,608,629,622,614,611,608,608,610,609,610,610,645,611,884,908,899,885,969,1052,1214,1363,1398,1433,1440,1552,1400,1341,1409,1374,1303,1318,1257,1298,1211,1188,1171,1126,1122,1131,1073,1030,1030,992,967,968,967,916,949,897,923,947,927,927,923,934,938,930,939,951,946,938,946,954,1027,1027,1038,988,938,946,952,963,945,943,963,934,945,943,935,843,846,814,813,880,932,1067,1256,1279,1381,1359,1357,1335,1312,1250,1268,1208,1224,1202,1180,1106,1136,1064,1043,1022,1000,980,960,939,918,897,876,894,837,887,809,811,861,848,844,841,843,855,862,879,882,852,856,860,862,862,852,855,875,867,858,855,861,852,866,855,860,856,873,862,461,462,464,465,468,505,571,638,705,754,763,751,739,726,714,702,690,678,666,654,642,630,617,605,593,581,569,557,545,533,520,508,496,484,472,468,469,470,480,462,460,465,460,467,464,467,464,462,465,458,462,461,462,463,464,465,463,465,465,464,462,472,462,468,464,454,456,457,458,461,499,565,632,714,747,756,744,731,719,707,695,683,671,659,647,635,623,610,598,586,574,562,550,538,526,514,482,489,459,466,461,462,464,445,455,455,462,461,462,456,465,452,472,456,455,463,463,477,487,472,465,467,461,473,470,469,475,462,469,462,837,855,902,902,891,994,1121,1309,1334,1365,1368,1348,1326,1381,1282,1287,1243,1221,1239,1173,1194,1129,1126,1085,1063,1041,1020,1015,997,952,958,909,888,870,854,850,886,855,889,899,874,883,874,896,886,902,904,981,894,935,930,934,911,984,937,888,889,883,919,946,931,961,940,942,914,1396,1419,1504,1497,1676,1951,2152,2507,2358,2392,2345,2304,2302,2261,2248,2211,2226,2085,2057,2116,2073,1900,1977,1812,1867,1850,1688,1779,1717,1594,1639,1514,1452,1430,1507,1421,1531,1530,1559,1551,1544,1562,1562,1590,1590,1605,1581,1595,1612,1606,1680,1674,1680,1652,1628,1590,1608,1604,1593,1624,1612,1598,1609,1656,1611,278,279,280,281,282,295,334,372,411,449,463,455,448,441,433,426,419,411,404,397,389,382,375,368,360,353,346,338,331,324,316,309,302,294,287,282,283,284,305,259,255,255,280,280,276,266,268,278,317,284,294,308,304,294,273,281,293,316,335,315,277,278,317,278,266,1124,1123,1109,1143,1266,1584,1673,1868,2039,1943,1902,1869,1875,1778,1802,1772,1775,1724,1619,1604,1570,1536,1502,1462,1462,1395,1359,1382,1345,1266,1232,1221,1162,1187,1132,1128,1202,1139,1192,1168,1168,1172,1207,1230,1208,1202,1198,1206,1245,1228,1254,1228,1246,1237,1275,1219,1231,1261,1280,1271,1244,1253,1289,1348,1249,426,427,429,430,432,465,527,589,651,699,709,698,686,675,664,652,641,630,618,607,596,584,573,562,550,539,528,516,505,491,482,471,460,448,437,433,434,435,429,434,433,431,425,440,440,448,430,433,472,434,452,439,445,449,456,456,448,441,452,448,435,431,426,458,420,484,485,487,488,492,534,605,676,748,926,804,791,778,765,752,739,726,714,701,688,675,662,649,636,623,611,598,585,572,559,546,533,521,546,495,491,492,494,519,476,480,479,490,500,481,499,485,486,498,501,490,495,501,510,506,506,492,501,500,500,504,503,501,517,514,0,0,0,0,0,0,0,0,0,0,0,0,0,0,0,0,0,0,0,0,0,0,0,0,0,0,0,0,0,0,0,0,0,0,0,0,0,0,0,0,0,0,0,0,0,0,0,0,0,0,0,0,0,0,0,0,0,0,0,0,0,0,0,0,0,536,523,525,541,548,602,679,733,846,888,861,881,834,820,839,847,832,788,774,760,724,742,707,693,670,656,664,628,641,601,604,574,576,546,549,544,546,547,542,540,542,548,568,545,547,560,550,553,547,546,546,547,553,565,634,632,580,565,556,553,555,545,555,549,544,461,462,464,465,468,505,571,638,705,754,763,751,739,726,714,702,690,678,666,654,642,630,617,605,593,581,569,557,545,533,520,508,496,484,472,468,469,470,480,462,460,465,460,467,464,467,464,462,465,458,462,461,462,463,464,465,463,465,465,464,462,472,462,468,464,666,672,710,699,691,855,882,948,1062,1152,1094,1077,1126,1107,1084,1012,994,1049,955,1011,965,982,955,944,906,834,821,795,778,803,752,771,708,691,670,674,675,670,670,686,676,708,670,697,679,701,687,695,690,678,695,685,698,695,697,693,699,693,707,692,692,706,698,709,710,513,490,491,492,498,540,611,682,753,800,806,793,785,770,764,780,739,717,714,691,711,665,652,640,627,614,603,590,605,561,551,537,524,513,501,495,501,498,485,494,499,511,500,506,494,513,492,500,496,491,494,503,504,506,503,501,496,495,510,504,494,496,494,502,495,545,550,551,563,571,625,708,797,856,900,902,918,878,845,856,833,819,816,797,775,761,739,733,722,726,662,674,659,615,642,617,590,588,574,570,553,567,569,559,557,561,573,561,564,565,572,567,563,567,560,571,573,579,575,572,568,561,578,569,561,563,584,570,579,567,1127,1151,1134,1170,1243,1398,1601,1842,1914,1783,1774,1975,1721,1694,1719,1640,1628,1587,1560,1657,1561,1601,1467,1468,1425,1491,1470,1312,1284,1270,1227,1213,1171,1163,1147,1216,1175,1142,1187,1188,1200,1230,1202,1222,1204,1203,1199,1198,1221,1198,1208,1218,1216,1221,1216,1225,1202,1202,1211,1211,1202,1212,1202,1226,1210,413,401,407,392,418,432,509,546,628,675,683,673,662,651,644,649,583,608,597,553,554,564,529,542,493,503,498,499,474,477,451,458,428,425,437,409,396,435,406,407,408,416,417,418,419,431,418,418,427,437,417,418,420,426,415,414,422,425,422,414,417,419,410,419,415,892,936,897,903,1041,1105,1296,1449,1555,1586,1576,1548,1641,1491,1560,1434,1406,1377,1437,1311,1292,1285,1317,1235,1169,1206,1121,1093,1162,1132,1058,1066,950,1012,975,997,942,918,967,982,970,1005,975,993,980,1006,988,994,985,983,992,991,1004,1009,1009,1014,1000,998,1011,1003,1011,1021,1012,1022,1019,650,661,654,656,676,742,808,940,1027,1070,1071,1054,1037,1020,1003,948,969,951,931,917,900,883,866,849,842,814,797,780,763,749,729,678,694,677,664,658,662,685,680,656,656,668,647,676,655,685,680,702,684,657,664,663,687,669,671,660,669,676,666,659,669,676,660,678,664,974,998,991,1021,1072,1198,1374,1496,1578,1609,1602,1577,1551,1539,1500,1489,1466,1434,1412,1385,1362,1320,1347,1280,1271,1246,1230,1180,1154,1129,1103,1051,1038,1025,1070,1000,1017,1039,1042,1008,1017,1015,1066,1051,1028,1029,1029,1044,1092,1078,1076,1078,1090,1070,1101,1074,1061,1095,1111,1088,1075,1074,1108,1127,1090,553,555,556,558,565,686,697,777,856,901,906,892,878,863,849,953,821,805,792,778,764,749,799,721,706,692,678,664,649,635,621,607,592,578,565,561,563,564,568,547,554,556,550,567,561,573,569,561,573,557,562,561,559,567,563,562,564,565,561,556,561,565,564,571,565,0,0,0,0,0,0,0,0,0,0,0,0,0,0,0,0,0,0,0,0,0,0,0,0,0,0,0,0,0,0,0,0,0,0,0,0,0,0,0,0,0,0,0,0,0,0,0,0,0,0,0,0,0,0,0,0,0,0,0,0,0,0,0,0,0,666,672,710,699,691,855,882,948,1062,1152,1094,1077,1126,1107,1084,1012,994,1049,955,1011,965,982,955,944,906,834,821,795,778,803,752,771,708,691,670,674,675,670,670,686,676,708,670,697,679,701,687,695,690,678,695,685,698,695,697,693,699,693,707,692,692,706,698,709,710,0,0,0,0,0,0,0,0,0,0,0,0,0,0,0,0,0,0,0,0,0,0,0,0,0,0,0,0,0,0,0,0,0,0,0,0,0,0,0,0,0,0,0,0,0,0,0,0,0,0,0,0,0,0,0,0,0,0,0,0,0,0,0,0,0,639,641,656,658,661,738,832,927,1010,1055,1058,1042,1025,1009,987,976,953,936,926,910,886,877,852,844,818,801,794,778,761,745,728,700,695,679,665,649,651,673,656,657,648,667,660,656,668,680,662,656,659,674,668,659,659,666,664,664,663,670,655,662,657,662,666,661,653,1032,1041,1035,1077,1140,1243,1458,1554,1665,1701,1632,1717,1722,1617,1564,1516,1533,1487,1446,1451,1453,1385,1363,1339,1316,1300,1250,1233,1190,1162,1139,1111,1115,1068,1074,1048,1038,1041,1058,1053,1062,1081,1065,1081,1065,1076,1082,1069,1076,1066,1068,1073,1067,1069,1069,1074,1073,1075,1067,1073,1073,1085,1078,1088,1073,1366,1462,1391,1460,1708,1869,2097,2243,2341,2323,2295,2261,2221,2174,2126,2095,2059,2015,1981,1941,1901,1859,1817,1777,1853,1724,1661,1619,1594,1541,1594,1461,1418,1420,1488,1403,1396,1402,1487,1486,1498,1521,1495,1542,1503,1527,1502,1517,1527,1519,1499,1517,1539,1549,1536,1554,1532,1536,1542,1534,1528,1514,1554,1556,1516,332,333,334,335,336,357,403,450,497,540,551,603,593,525,516,508,499,490,481,473,518,455,446,438,429,420,412,403,394,385,377,368,359,350,342,337,338,339,326,327,331,334,332,333,335,334,333,332,337,337,343,354,347,343,332,334,337,335,335,334,334,335,332,334,335,1077,1145,1100,1110,1222,1401,1616,1774,1874,1872,1852,1922,1792,1752,1711,1687,1655,1681,1617,1678,1529,1491,1460,1497,1454,1365,1332,1297,1258,1278,1197,1168,1128,1108,1096,1090,1151,1152,1150,1142,1172,1189,1183,1210,1183,1185,1196,1197,1226,1190,1211,1226,1248,1239,1212,1188,1177,1200,1183,1177,1177,1199,1179,1211,1180,733,712,734,739,744,849,962,1075,1131,1203,1202,1183,1164,1141,1096,1106,1059,1040,1069,1029,984,991,946,952,909,890,895,875,856,835,836,778,779,758,747,723,725,747,744,738,743,741,741,738,743,749,747,748,739,747,749,760,756,756,752,755,751,752,752,767,756,761,748,752,754,767,770,772,775,807,970,1017,1108,1290,1260,1260,1240,1212,1200,1159,1185,1139,1119,1099,1079,1088,1039,1018,998,978,958,938,917,897,916,857,837,817,797,783,779,781,778,778,770,778,810,790,806,770,791,776,766,789,795,813,831,836,825,801,818,792,809,808,804,817,821,804,824,806,368,369,370,372,373,396,447,498,549,595,605,596,586,577,567,558,548,539,530,520,511,501,492,482,473,463,454,445,435,426,416,407,397,388,378,374,375,376,361,358,361,371,362,363,358,365,370,360,365,363,362,362,372,373,377,364,371,368,371,374,378,372,365,372,381,611,613,615,617,630,714,783,865,959,992,1006,1049,1057,983,932,926,910,885,878,862,899,822,814,798,782,766,750,726,711,695,686,670,647,638,624,620,622,624,624,621,619,626,608,618,616,618,636,699,619,629,634,634,638,646,654,633,625,625,628,634,625,626,630,633,629,0,0,0,0,0,0,0,0,0,0,0,0,0,0,0,0,0,0,0,0,0,0,0,0,0,0,0,0,0,0,0,0,0,0,0,0,0,0,0,0,0,0,0,0,0,0,0,0,0,0,0,0,0,0,0,0,0,0,0,0,0,0,0,0,0 ]);
