n = 10;
D = [192,190,175,142,107,281,194,250,275,246 ];
q = 0;
prec = array2d(1..0,1..2,[]);
steps = 64;
l = 360;
r = 0;
which = [];
interval = array2d(1..0,1..2,[]);
T = array3d(1..11,1..11,0..64,[0,0,0,0,0,0,0,0,0,0,0,0,0,0,0,0,0,0,0,0,0,0,0,0,0,0,0,0,0,0,0,0,0,0,0,0,0,0,0,0,0,0,0,0,0,0,0,0,0,0,0,0,0,0,0,0,0,0,0,0,0,0,0,0,0,699,701,703,705,773,843,904,1006,1092,1131,1132,1173,1155,1128,1117,1044,1074,1062,971,954,937,919,929,885,867,850,833,816,798,852,779,761,757,757,737,709,711,713,722,700,699,703,747,737,720,717,725,723,752,751,783,755,774,741,771,740,758,785,817,787,760,774,806,816,758,965,931,989,1005,1056,1107,1249,1358,1471,1557,1473,1493,1454,1401,1421,1347,1358,1341,1251,1300,1262,1214,1194,1229,1173,1091,1095,1045,1125,1052,976,953,956,998,927,912,963,972,983,957,960,960,996,1022,982,990,998,1035,1008,1067,1096,1061,1004,1054,1024,1005,1011,1007,1070,1177,1141,1159,1137,1076,1088,822,825,827,868,873,988,1138,1233,1309,1350,1345,1358,1365,1318,1337,1299,1266,1283,1168,1124,1103,1112,1093,1069,1059,1000,980,959,939,918,936,922,884,863,856,835,837,839,837,877,837,838,860,843,851,859,855,867,873,850,862,856,864,864,873,877,870,874,900,859,875,883,900,877,873,539,541,543,544,552,613,679,761,841,905,898,883,869,858,832,804,802,790,745,731,762,747,733,718,663,650,674,623,647,596,618,604,570,564,549,548,549,551,546,550,546,550,559,561,570,568,554,560,560,565,556,557,556,567,560,556,560,555,554,556,555,556,550,552,546,1228,1194,1273,1272,1387,1603,1799,2022,2085,2022,2171,1940,1906,1856,1855,1801,1767,1763,1833,1725,1728,1662,1596,1692,1550,1476,1457,1405,1434,1355,1381,1282,1212,1222,1224,1230,1242,1254,1254,1251,1265,1295,1297,1264,1261,1284,1261,1311,1302,1307,1335,1450,1357,1341,1419,1299,1306,1310,1312,1299,1313,1323,1310,1314,1313,1540,1507,1507,1645,1938,2183,2411,2672,2533,2571,2571,2469,2424,2364,2362,2288,2243,2228,2210,2181,2103,2218,2008,1995,1940,1869,1823,1761,1712,1693,1661,1573,1526,1537,1512,1550,1540,1549,1643,1682,1646,1649,1680,1651,1673,1674,1678,1679,1692,1681,1702,1687,1689,1698,1703,1704,1702,1706,1738,1704,1731,1738,1757,1716,1709,672,674,676,735,699,794,894,998,1059,1154,1174,1149,1147,1115,1054,1022,1028,991,936,919,935,918,865,848,847,819,802,785,769,745,779,756,779,734,677,682,684,713,690,692,699,692,706,698,695,699,695,698,705,697,700,700,705,714,698,705,702,702,702,701,710,708,703,700,702,696,698,700,744,726,815,914,1018,1098,1175,1200,1210,1167,1152,1077,1056,1042,1025,969,952,953,936,895,878,876,848,865,813,796,771,775,781,764,741,701,742,708,723,718,717,722,722,737,740,764,763,733,748,753,754,763,753,759,782,752,741,744,739,728,744,740,746,739,755,749,286,287,288,289,290,296,346,386,427,452,443,457,450,442,435,429,420,413,414,406,399,391,384,376,368,361,346,339,331,324,316,309,302,303,273,291,291,292,276,277,277,286,282,280,284,286,279,278,280,281,279,278,281,284,278,280,281,285,284,279,282,291,280,284,280,0,0,0,0,0,0,0,0,0,0,0,0,0,0,0,0,0,0,0,0,0,0,0,0,0,0,0,0,0,0,0,0,0,0,0,0,0,0,0,0,0,0,0,0,0,0,0,0,0,0,0,0,0,0,0,0,0,0,0,0,0,0,0,0,0,681,683,685,650,708,728,867,989,1076,1043,1131,1094,1063,1046,1029,1029,1011,977,916,958,926,909,904,887,858,851,823,769,753,736,762,752,688,732,716,654,688,657,682,686,675,682,703,708,697,728,703,730,708,735,728,731,705,745,717,712,715,702,715,749,723,754,728,746,712,0,0,0,0,0,0,0,0,0,0,0,0,0,0,0,0,0,0,0,0,0,0,0,0,0,0,0,0,0,0,0,0,0,0,0,0,0,0,0,0,0,0,0,0,0,0,0,0,0,0,0,0,0,0,0,0,0,0,0,0,0,0,0,0,0,1416,1424,1464,1543,1663,1838,2204,2218,2377,2388,2256,2295,2207,2125,2100,2185,2065,1933,2012,1951,1892,1884,1826,1834,1729,1629,1645,1683,1653,1592,1532,1563,1416,1434,1478,1425,1429,1411,1531,1496,1501,1534,1520,1536,1513,1563,1548,1555,1544,1535,1550,1521,1562,1542,1537,1527,1567,1540,1519,1532,1544,1552,1544,1544,1528,238,239,240,240,241,252,306,318,352,385,398,392,386,379,373,367,360,354,347,341,350,343,322,316,309,303,297,290,284,278,271,265,259,252,246,242,242,243,228,232,234,242,234,227,230,236,234,233,250,248,239,238,251,248,246,231,233,236,241,236,235,236,234,231,230,476,477,482,483,487,525,594,668,737,760,794,786,746,768,759,723,711,703,691,678,665,653,640,628,611,603,586,578,565,552,540,527,511,509,490,486,484,489,481,481,481,480,488,486,493,486,490,486,486,487,486,490,491,491,491,502,495,509,499,486,509,485,496,492,485,727,722,731,733,815,871,1014,1157,1347,1306,1301,1277,1254,1230,1237,1183,1160,1136,1112,1089,1056,1126,1039,1020,971,947,924,957,949,853,892,806,782,779,830,780,743,807,763,762,764,769,768,766,776,775,777,779,776,776,781,781,782,778,790,791,790,793,792,785,799,792,787,794,790,1038,1041,1044,1061,1143,1337,1568,1753,1820,1851,1842,1806,1786,1737,1733,1690,1655,1621,1601,1552,1518,1483,1424,1439,1377,1345,1311,1276,1242,1219,1173,1150,1104,1065,1066,1067,1062,1068,1093,1092,1144,1391,1145,1075,1130,1221,1159,1104,1200,1173,1122,1133,1208,1187,1168,1084,1113,1114,1158,1166,1095,1142,1112,1107,1123,274,275,276,277,278,292,331,370,410,448,460,453,445,438,431,447,416,408,401,394,386,379,372,364,357,349,342,335,327,320,313,305,298,291,283,279,280,280,270,276,269,273,279,281,280,287,279,276,282,281,276,274,276,282,276,274,278,277,273,274,272,278,272,277,269,315,316,317,318,319,338,362,428,473,515,526,518,510,501,493,482,476,443,459,427,442,434,425,417,408,400,392,383,375,366,358,349,341,315,324,303,320,321,307,301,303,307,307,307,307,308,304,310,309,308,307,309,308,303,307,310,311,312,307,305,311,310,308,308,307,469,470,472,473,477,517,586,655,724,771,791,785,753,741,728,716,703,691,679,666,654,641,629,616,608,592,579,567,554,542,529,519,505,492,527,476,477,479,471,471,472,473,498,473,479,479,479,480,476,478,477,483,483,492,625,577,508,504,487,478,494,476,494,480,476,681,683,685,650,708,728,867,989,1076,1043,1131,1094,1063,1046,1029,1029,1011,977,916,958,926,909,904,887,858,851,823,769,753,736,762,752,688,732,716,654,688,657,682,686,675,682,703,708,697,728,703,730,708,735,728,731,705,745,717,712,715,702,715,749,723,754,728,746,712,865,872,875,876,928,1027,1257,1302,1381,1485,1415,1391,1368,1353,1323,1296,1278,1255,1233,1205,1228,1165,1142,1120,1097,1074,1052,1021,1003,984,995,935,916,886,891,878,885,883,884,890,879,914,896,890,899,912,897,889,892,906,904,891,886,894,899,899,896,897,886,893,890,904,907,905,886,1493,1485,1602,1631,1778,2061,2224,2382,2434,2360,2379,2336,2291,2301,2311,2213,2155,2124,2077,2106,2044,1943,1896,1909,1943,1777,1756,1711,1754,1693,1604,1603,1541,1573,1539,1553,1546,1544,1636,1655,1651,1656,1674,1647,1688,1701,1678,1663,1706,1678,1748,1756,1769,1748,1742,1747,1729,1696,1686,1683,1689,1671,1679,1765,1664,0,0,0,0,0,0,0,0,0,0,0,0,0,0,0,0,0,0,0,0,0,0,0,0,0,0,0,0,0,0,0,0,0,0,0,0,0,0,0,0,0,0,0,0,0,0,0,0,0,0,0,0,0,0,0,0,0,0,0,0,0,0,0,0,0,1653,1593,1673,1751,1932,2219,2383,2469,2571,2543,2597,2508,2430,2448,2400,2337,2299,2259,2279,2201,2198,2096,2025,2039,1988,1919,1894,1829,1851,1803,1730,1716,1666,1619,1664,1624,1650,1686,1782,1776,1773,1795,1847,1841,1830,1862,1827,1854,1884,1871,1915,1873,1877,1895,1877,1836,1882,1863,1855,1884,1874,1889,1897,1916,1897,1273,1269,1291,1326,1432,1664,1807,1959,2058,2007,2063,1986,1963,1953,1922,1862,1824,1818,1801,1737,1742,1717,1612,1641,1575,1588,1567,1460,1577,1444,1408,1343,1372,1294,1322,1295,1300,1281,1356,1358,1365,1387,1396,1403,1398,1390,1382,1415,1406,1404,1412,1421,1442,1429,1419,1397,1378,1394,1380,1379,1369,1396,1384,1401,1355,1689,1702,1774,2068,2304,2760,2985,3155,3270,3200,3184,3223,3087,3020,2896,2813,2750,2730,2695,2671,2596,2492,2439,2325,2245,2182,2119,2075,2030,1971,1867,1823,1816,1747,1749,1762,1764,1764,2042,2044,2002,1995,2040,2023,2032,2041,2038,2047,2102,2057,2064,2079,2079,2086,2067,2098,2094,2104,2139,2100,2087,2092,2144,2083,2088,1527,1530,1564,1696,1984,2380,2688,2857,2933,2912,2872,2799,2736,2679,2641,2564,2519,2449,2410,2388,2276,2231,2173,2121,2058,2000,1932,1890,1817,1759,1712,1660,1607,1582,1559,1567,1598,1597,1685,1734,1694,1715,1734,1729,1713,1729,1727,1723,1742,1716,1719,1743,1739,1746,1756,1767,1762,1758,1780,1765,1774,1808,1800,1793,1782,1475,1446,1464,1557,1660,1925,2133,2223,2340,2291,2318,2223,2220,2196,2139,2080,2076,2069,2042,2052,1961,1911,1850,1829,1757,1748,1763,1663,1703,1635,1601,1501,1568,1447,1509,1486,1459,1471,1545,1536,1534,1547,1541,1577,1544,1549,1573,1637,1554,1570,1568,1577,1582,1580,1600,1591,1577,1580,1575,1585,1589,1588,1585,1601,1590,1484,1461,1491,1576,1696,1965,2172,2261,2355,2302,2354,2258,2239,2230,2172,2112,2094,2080,2062,2024,1970,1981,1858,1867,1785,1775,1744,1689,1694,1638,1599,1525,1573,1471,1508,1484,1483,1471,1551,1531,1511,1560,1586,1560,1578,1594,1677,1620,1662,1637,1674,1689,1688,1702,1706,1704,1723,1724,1763,1769,1758,1790,1786,1778,1797,1017,1006,1080,1045,1094,1284,1445,1548,1656,1610,1671,1603,1576,1685,1564,1498,1472,1480,1463,1420,1410,1399,1314,1381,1264,1298,1269,1184,1226,1168,1142,1082,1156,1033,1080,1037,1040,1023,1067,1074,1063,1103,1081,1072,1078,1100,1070,1092,1096,1087,1084,1077,1070,1077,1085,1090,1073,1082,1073,1077,1066,1081,1076,1078,1059,865,872,875,876,928,1027,1257,1302,1381,1485,1415,1391,1368,1353,1323,1296,1278,1255,1233,1205,1228,1165,1142,1120,1097,1074,1052,1021,1003,984,995,935,916,886,891,878,885,883,884,890,879,914,896,890,899,912,897,889,892,906,904,891,886,894,899,899,896,897,886,893,890,904,907,905,886,851,858,870,879,908,1004,1136,1293,1426,1392,1382,1418,1318,1329,1276,1257,1288,1242,1227,1189,1179,1129,1113,1115,1073,1047,1023,1006,986,985,940,918,893,901,868,899,866,891,874,900,886,912,889,881,886,906,898,920,882,879,892,888,958,892,915,888,911,905,905,878,911,919,894,912,905,340,341,356,357,343,364,406,448,490,591,537,580,521,513,505,497,489,567,474,509,458,450,442,434,427,419,456,447,395,429,379,371,364,356,348,344,345,346,337,337,335,348,345,335,341,342,340,342,356,357,434,426,438,369,347,342,348,345,340,340,343,340,341,343,342,1589,1592,1654,1782,1871,2092,2292,2429,2593,2479,2499,2438,2364,2445,2404,2266,2275,2200,2161,2130,2056,2018,2007,2016,1926,1893,1842,1766,1782,1710,1711,1654,1640,1582,1618,1637,1611,1654,1733,1756,1734,1757,1766,1743,1762,1778,1756,1772,1765,1782,1772,1777,1778,1795,1794,1803,1797,1784,1787,1773,1794,1797,1800,1794,1811,0,0,0,0,0,0,0,0,0,0,0,0,0,0,0,0,0,0,0,0,0,0,0,0,0,0,0,0,0,0,0,0,0,0,0,0,0,0,0,0,0,0,0,0,0,0,0,0,0,0,0,0,0,0,0,0,0,0,0,0,0,0,0,0,0,446,447,462,464,452,512,547,605,617,649,658,680,645,638,631,625,618,612,605,598,592,593,583,572,565,559,540,530,519,532,526,487,476,466,455,466,453,454,446,445,446,449,449,453,448,447,450,450,446,448,448,450,450,449,450,450,449,449,448,461,452,452,454,450,448,644,647,648,650,666,827,826,1034,1009,1052,1056,1039,1023,1006,989,973,956,939,922,906,889,873,856,839,822,806,789,778,755,739,722,705,688,672,658,654,656,658,662,666,660,663,672,663,667,667,663,664,662,667,664,668,669,672,669,667,669,664,670,683,670,679,664,668,670,938,941,958,945,1008,1099,1232,1360,1432,1546,1469,1452,1426,1405,1383,1362,1341,1333,1298,1278,1255,1238,1212,1195,1170,1142,1127,1091,1084,1048,1045,1020,995,979,958,962,963,956,982,976,991,1007,999,991,991,994,989,1053,1024,1000,1009,1006,994,1008,1003,1012,984,1001,983,998,991,986,986,999,1008,223,224,224,236,226,235,260,286,312,337,348,371,338,333,328,323,318,363,308,303,298,319,312,284,279,297,291,274,259,254,249,244,239,234,229,226,227,227,211,209,215,223,215,213,216,222,216,216,216,215,224,230,233,225,224,218,215,228,220,215,217,228,222,225,218,205,206,206,207,207,215,238,261,284,307,318,342,309,304,300,295,291,286,282,278,273,293,288,260,255,251,246,242,237,233,228,224,220,215,211,208,208,209,208,194,192,194,205,203,202,201,203,215,216,236,235,242,210,217,226,204,207,220,245,261,240,245,251,235,231,631,639,649,659,695,725,856,916,1061,1051,1043,1057,1036,1018,987,945,968,948,893,901,884,850,830,840,796,793,772,749,752,724,711,693,705,658,657,660,648,650,656,651,664,694,667,652,668,684,667,661,663,667,668,668,674,670,672,664,666,666,677,682,666,679,664,667,672,851,858,870,879,908,1004,1136,1293,1426,1392,1382,1418,1318,1329,1276,1257,1288,1242,1227,1189,1179,1129,1113,1115,1073,1047,1023,1006,986,985,940,918,893,901,868,899,866,891,874,900,886,912,889,881,886,906,898,920,882,879,892,888,958,892,915,888,911,905,905,878,911,919,894,912,905,529,510,510,511,515,561,668,718,786,846,840,825,817,796,786,769,794,750,732,714,707,690,677,663,650,665,651,611,623,583,570,560,542,531,544,514,517,517,509,516,516,537,518,529,514,522,515,510,518,514,509,525,518,522,521,530,524,527,534,526,523,536,516,525,521,529,540,532,534,540,589,667,701,810,854,834,907,820,831,817,795,819,776,762,748,746,720,706,656,643,629,616,647,607,612,595,586,567,562,551,567,538,540,533,539,540,554,538,553,541,562,557,540,561,540,546,547,545,554,546,548,546,555,549,552,544,557,545,557,547,1205,1256,1244,1306,1372,1548,1775,1968,1924,2054,1981,1949,1968,1903,1930,1837,1875,1732,1719,1703,1674,1638,1620,1627,1549,1540,1453,1453,1402,1355,1373,1338,1289,1290,1229,1264,1226,1228,1281,1269,1294,1348,1311,1274,1281,1304,1295,1358,1409,1307,1401,1395,1335,1305,1323,1376,1340,1404,1405,1310,1345,1428,1429,1410,1333,495,497,534,500,504,542,607,671,735,789,779,821,761,753,742,729,717,706,693,696,671,659,668,635,624,612,600,588,582,602,553,544,531,519,507,539,504,505,503,501,502,507,507,504,510,506,511,513,509,508,510,511,513,507,509,518,511,516,507,510,515,514,513,509,506,0,0,0,0,0,0,0,0,0,0,0,0,0,0,0,0,0,0,0,0,0,0,0,0,0,0,0,0,0,0,0,0,0,0,0,0,0,0,0,0,0,0,0,0,0,0,0,0,0,0,0,0,0,0,0,0,0,0,0,0,0,0,0,0,0,1054,1134,1082,1082,1171,1303,1475,1611,1701,1750,1741,1713,1685,1658,1630,1602,1575,1547,1519,1534,1501,1436,1409,1369,1338,1362,1300,1274,1225,1215,1187,1144,1132,1126,1074,1124,1071,1084,1105,1112,1113,1128,1151,1136,1123,1152,1120,1124,1121,1124,1123,1144,1149,1167,1281,1233,1151,1145,1147,1138,1138,1143,1166,1169,1145,1318,1316,1324,1420,1470,1626,1813,1943,2029,2074,2071,2030,1999,1968,1937,1909,1869,1845,1814,1826,1744,1720,1691,1660,1629,1598,1563,1536,1506,1472,1444,1413,1370,1356,1347,1330,1333,1337,1402,1394,1391,1413,1466,1465,1443,1473,1436,1489,1495,1480,1490,1448,1458,1505,1484,1438,1483,1461,1453,1481,1470,1487,1490,1521,1483,432,433,430,431,434,468,474,498,522,544,555,550,546,541,536,553,548,522,518,513,508,504,499,494,490,485,481,476,470,467,462,457,461,443,438,436,434,436,420,430,420,449,426,430,430,419,429,427,445,449,575,424,420,424,431,435,432,418,432,444,452,420,412,454,415,370,371,371,372,372,380,404,427,450,473,484,479,475,470,466,497,457,452,482,443,472,434,430,425,421,416,412,407,403,398,394,389,385,380,376,373,373,374,355,354,360,368,364,362,364,369,360,365,365,373,368,377,381,377,371,364,368,376,373,366,365,376,364,370,365,289,290,291,292,301,306,351,392,428,473,501,477,469,494,453,445,438,430,423,410,403,399,392,384,376,368,357,353,345,334,329,322,311,306,298,294,292,292,280,284,281,287,345,323,308,324,309,343,315,314,318,294,299,323,309,292,331,297,291,322,316,339,318,312,308,529,510,510,511,515,561,668,718,786,846,840,825,817,796,786,769,794,750,732,714,707,690,677,663,650,665,651,611,623,583,570,560,542,531,544,514,517,517,509,516,516,537,518,529,514,522,515,510,518,514,509,525,518,522,521,530,524,527,534,526,523,536,516,525,521,1219,1219,1233,1282,1381,1527,1771,1971,2071,2009,2058,1941,2040,1890,1910,1952,1831,1752,1701,1698,1703,1646,1580,1597,1588,1505,1490,1408,1373,1339,1304,1289,1236,1232,1239,1250,1262,1201,1305,1296,1288,1315,1346,1338,1323,1317,1340,1375,1333,1396,1430,1383,1310,1355,1355,1356,1352,1330,1419,1511,1464,1459,1465,1387,1384,745,747,749,782,774,873,1007,1140,1244,1374,1289,1267,1244,1222,1200,1177,1190,1133,1174,1118,1094,1043,1021,999,987,954,932,910,928,865,881,820,798,798,752,787,760,796,792,774,782,776,800,831,790,795,797,810,831,814,815,820,817,823,793,801,807,814,808,824,808,816,818,805,817,1669,1679,1737,1971,2275,2673,2962,3176,3138,3147,3151,3031,2964,2895,2857,2802,2732,2662,2621,2590,2497,2436,2355,2282,2219,2133,2094,2032,2031,1884,1838,1781,1776,1710,1685,1706,1719,1752,1904,1916,1923,1953,2000,2007,1975,2002,2001,2023,2053,2062,2071,2117,2083,2103,2113,2131,2154,2172,2199,2161,2186,2225,2237,2244,2231,812,814,816,798,849,933,1049,1164,1257,1291,1291,1272,1252,1232,1212,1191,1173,1154,1134,1115,1095,1075,1056,1036,1005,997,1025,958,938,918,899,879,860,819,806,823,825,806,831,805,808,810,844,841,852,848,833,861,839,824,840,815,816,832,832,822,841,816,813,835,833,853,841,845,838,1072,1075,1078,1114,1177,1335,1491,1619,1701,1736,1730,1728,1714,1657,1644,1616,1588,1573,1545,1516,1488,1462,1460,1392,1364,1336,1323,1280,1293,1228,1196,1164,1157,1117,1101,1088,1115,1098,1142,1141,1138,1176,1187,1154,1137,1147,1154,1202,1239,1193,1256,1192,1199,1172,1218,1187,1173,1210,1313,1257,1236,1228,1283,1262,1197,0,0,0,0,0,0,0,0,0,0,0,0,0,0,0,0,0,0,0,0,0,0,0,0,0,0,0,0,0,0,0,0,0,0,0,0,0,0,0,0,0,0,0,0,0,0,0,0,0,0,0,0,0,0,0,0,0,0,0,0,0,0,0,0,0,513,514,516,517,521,552,612,672,732,777,786,775,764,753,742,731,720,709,699,688,677,666,655,644,633,622,611,600,589,578,567,556,545,534,524,520,521,522,517,521,526,530,522,547,525,545,545,526,562,530,533,533,533,546,529,532,530,540,529,529,527,540,523,542,538,872,869,871,877,945,1038,1206,1309,1392,1429,1454,1402,1406,1357,1346,1311,1315,1265,1268,1245,1221,1174,1174,1161,1127,1083,1086,1037,1014,1021,979,951,923,902,882,880,888,889,896,877,882,882,898,913,889,904,898,911,927,930,919,928,930,948,927,936,921,931,936,953,947,940,948,969,953,896,892,859,865,911,1013,1176,1278,1363,1400,1396,1374,1379,1329,1307,1285,1287,1240,1242,1195,1196,1151,1151,1128,1105,1061,1114,1016,994,1001,949,927,905,883,870,867,869,871,894,879,882,885,883,885,953,950,886,919,901,889,888,940,946,958,952,958,947,960,963,939,920,917,894,892,892,1083,1052,1055,1078,1156,1324,1533,1694,1791,1827,1814,1782,1755,1718,1691,1711,1668,1651,1558,1526,1499,1463,1431,1501,1371,1335,1346,1275,1239,1207,1175,1143,1111,1084,1067,1066,1071,1076,1090,1097,1076,1084,1103,1114,1104,1130,1116,1144,1121,1150,1127,1130,1123,1174,1118,1110,1134,1119,1131,1162,1142,1166,1139,1146,1139,1219,1219,1233,1282,1381,1527,1771,1971,2071,2009,2058,1941,2040,1890,1910,1952,1831,1752,1701,1698,1703,1646,1580,1597,1588,1505,1490,1408,1373,1339,1304,1289,1236,1232,1239,1250,1262,1201,1305,1296,1288,1315,1346,1338,1323,1317,1340,1375,1333,1396,1430,1383,1310,1355,1355,1356,1352,1330,1419,1511,1464,1459,1465,1387,1384,1435,1418,1494,1551,1714,1991,2269,2452,2433,2488,2493,2411,2422,2284,2277,2221,2180,2120,2054,2069,2064,1953,1955,1939,1870,1779,1751,1783,1664,1599,1589,1563,1476,1479,1433,1484,1446,1501,1594,1577,1594,1598,1587,1582,1660,1662,1595,1626,1614,1583,1586,1644,1656,1683,1655,1649,1640,1663,1669,1665,1620,1626,1588,1603,1612,985,982,989,1000,1082,1289,1457,1627,1718,1738,1724,1693,1662,1631,1600,1604,1571,1538,1476,1445,1414,1383,1352,1321,1290,1259,1228,1239,1166,1135,1104,1073,1042,1013,999,1001,1007,1014,1016,1021,1017,1055,1006,1058,1026,1053,1039,1044,1062,1027,1039,1031,1042,1059,1051,1042,1043,1044,1052,1039,1044,1050,1042,1083,1062,1718,1706,1765,1921,2328,2692,2890,3015,3091,3058,3011,2960,2893,2848,2796,2782,2656,2595,2535,2469,2435,2348,2295,2234,2176,2120,2054,2040,1930,1875,1820,1754,1704,1701,1683,1747,1719,1750,1960,1945,1949,1991,2015,2009,1984,1973,2004,2047,2016,2045,2075,2071,2038,2023,2039,2030,2017,2007,2049,2078,2026,2033,2047,2029,2002,1080,1085,1088,1107,1206,1289,1464,1588,1658,1718,1659,1650,1665,1601,1602,1539,1528,1540,1479,1432,1418,1414,1359,1357,1312,1298,1273,1260,1225,1193,1158,1171,1121,1099,1077,1096,1095,1101,1115,1088,1101,1101,1143,1135,1111,1111,1114,1126,1177,1157,1157,1158,1168,1151,1180,1151,1139,1175,1189,1164,1151,1150,1181,1203,1170,1335,1320,1333,1380,1493,1668,1873,2009,2057,2072,2057,2026,2047,1963,1931,1914,1887,1940,1805,1774,1742,1711,1680,1686,1617,1585,1554,1522,1530,1459,1442,1409,1372,1346,1330,1348,1342,1341,1389,1396,1392,1403,1425,1398,1434,1447,1421,1417,1436,1426,1505,1505,1533,1496,1583,1533,1461,1443,1432,1427,1432,1415,1425,1495,1413,578,607,582,584,593,647,748,822,894,929,934,920,963,894,880,867,854,851,827,814,800,787,774,760,747,734,720,707,694,681,651,654,621,605,616,587,589,591,583,590,601,586,583,593,596,595,596,596,601,600,588,591,605,609,599,603,621,601,602,601,606,607,605,617,603,0,0,0,0,0,0,0,0,0,0,0,0,0,0,0,0,0,0,0,0,0,0,0,0,0,0,0,0,0,0,0,0,0,0,0,0,0,0,0,0,0,0,0,0,0,0,0,0,0,0,0,0,0,0,0,0,0,0,0,0,0,0,0,0,0,1106,1109,1150,1142,1256,1411,1609,1759,1795,1868,1864,1777,1789,1734,1706,1653,1665,1673,1609,1534,1541,1519,1486,1447,1399,1414,1353,1342,1306,1282,1226,1200,1165,1152,1122,1158,1132,1139,1202,1182,1202,1204,1195,1184,1265,1265,1197,1233,1215,1190,1190,1250,1260,1287,1254,1249,1244,1266,1269,1262,1226,1216,1190,1198,1212,1130,1133,1132,1170,1266,1384,1578,1699,1766,1823,1762,1749,1761,1695,1680,1628,1639,1623,1584,1510,1516,1496,1440,1425,1377,1380,1333,1375,1279,1262,1225,1224,1171,1193,1146,1158,1174,1146,1210,1218,1211,1300,1262,1261,1243,1237,1249,1277,1249,1269,1272,1273,1234,1244,1241,1265,1268,1230,1258,1291,1254,1245,1258,1235,1237,1325,1324,1306,1360,1515,1765,2012,2173,2251,2261,2237,2202,2156,2115,2078,2035,1999,2024,1956,1922,1837,1792,1797,1752,1671,1670,1590,1584,1543,1469,1429,1419,1351,1321,1311,1355,1354,1374,1411,1422,1369,1382,1414,1407,1405,1426,1426,1424,1468,1420,1424,1435,1440,1441,1415,1457,1475,1453,1482,1457,1433,1443,1476,1418,1421,1435,1418,1494,1551,1714,1991,2269,2452,2433,2488,2493,2411,2422,2284,2277,2221,2180,2120,2054,2069,2064,1953,1955,1939,1870,1779,1751,1783,1664,1599,1589,1563,1476,1479,1433,1484,1446,1501,1594,1577,1594,1598,1587,1582,1660,1662,1595,1626,1614,1583,1586,1644,1656,1683,1655,1649,1640,1663,1669,1665,1620,1626,1588,1603,1612,681,660,661,660,680,749,845,940,1027,1067,1122,1050,1025,1014,1000,1017,959,947,939,917,896,883,864,844,831,815,810,811,765,752,761,717,698,682,673,668,695,697,664,668,674,700,672,686,670,676,669,667,679,675,671,683,683,692,679,686,682,683,686,677,678,691,664,680,677,258,259,259,260,261,273,309,344,380,416,428,422,418,408,404,397,388,381,374,426,363,356,347,340,334,349,320,313,307,300,293,286,281,273,266,262,262,263,245,250,247,249,251,250,251,254,249,253,250,251,253,255,257,258,257,256,254,254,261,257,256,256,257,261,258,1345,1353,1419,1475,1616,1833,2044,2135,2171,2190,2214,2111,2111,2063,2020,2029,1998,1959,1971,1857,1861,1837,1741,1723,1703,1639,1652,1580,1551,1543,1510,1452,1477,1458,1494,1447,1385,1420,1475,1479,1502,1517,1495,1518,1493,1513,1494,1526,1524,1510,1512,1525,1533,1551,1534,1533,1517,1522,1539,1539,1536,1532,1517,1550,1542,197,197,198,198,199,206,234,261,299,316,329,324,319,313,308,303,298,292,287,282,277,271,266,261,256,250,245,240,235,230,224,219,214,209,203,200,200,201,187,186,187,189,190,189,195,189,188,192,190,188,192,193,189,187,203,196,192,195,190,187,196,192,192,192,188,253,254,255,256,256,268,299,331,362,347,358,356,354,352,345,343,341,339,337,335,333,339,333,327,321,315,309,303,297,291,285,279,273,267,261,257,258,258,246,246,246,247,248,249,250,261,249,249,249,249,246,250,250,254,255,249,250,248,250,248,249,253,246,249,249,840,843,875,881,892,990,1120,1249,1346,1372,1369,1347,1451,1303,1282,1260,1238,1217,1195,1173,1173,1130,1114,1086,1097,1043,1021,999,978,1009,934,913,891,870,862,853,881,858,884,863,855,870,927,970,889,884,902,919,902,927,924,928,896,899,915,912,928,907,929,993,943,953,971,923,925,1129,1185,1189,1227,1250,1377,1540,1673,1795,1785,1784,1751,1852,1698,1672,1646,1623,1590,1567,1540,1528,1488,1461,1429,1409,1383,1360,1330,1302,1281,1254,1283,1188,1160,1153,1203,1164,1162,1228,1197,1202,1221,1192,1233,1206,1233,1245,1248,1239,1223,1225,1229,1239,1257,1252,1222,1231,1227,1231,1227,1225,1235,1222,1243,1222,0,0,0,0,0,0,0,0,0,0,0,0,0,0,0,0,0,0,0,0,0,0,0,0,0,0,0,0,0,0,0,0,0,0,0,0,0,0,0,0,0,0,0,0,0,0,0,0,0,0,0,0,0,0,0,0,0,0,0,0,0,0,0,0,0,23,23,23,23,23,23,27,30,33,36,39,39,38,37,37,36,35,35,34,34,33,32,32,31,30,30,29,28,28,27,27,26,25,25,24,23,23,23,0,0,0,0,0,0,0,0,0,0,0,0,0,0,0,0,0,0,0,0,0,0,0,0,0,0,0,444,446,473,464,451,506,570,610,675,717,722,711,744,689,720,708,655,644,629,622,611,596,588,613,587,555,553,552,521,507,501,514,494,492,456,448,454,481,447,450,449,462,453,452,450,461,454,448,452,458,456,454,455,458,458,460,455,461,455,460,460,470,471,472,467,681,660,661,660,680,749,845,940,1027,1067,1122,1050,1025,1014,1000,1017,959,947,939,917,896,883,864,844,831,815,810,811,765,752,761,717,698,682,673,668,695,697,664,668,674,700,672,686,670,676,669,667,679,675,671,683,683,692,679,686,682,683,686,677,678,691,664,680,677,684,709,686,688,710,785,924,994,1078,1119,1121,1112,1084,1146,1047,1064,1009,998,977,960,942,954,908,888,873,851,835,818,801,782,791,751,750,710,693,718,694,696,695,706,705,717,717,720,710,731,709,717,710,707,715,723,723,728,729,724,722,718,733,726,720,739,737,747,738,287,288,289,290,291,306,346,389,426,465,477,469,465,457,447,442,432,427,416,409,401,394,386,379,371,366,356,349,343,334,318,320,311,303,296,291,292,286,278,285,287,296,289,297,284,299,284,301,287,281,288,291,299,305,295,289,294,285,297,295,289,294,281,288,284,1377,1414,1472,1512,1672,1807,2017,2145,2252,2286,2278,2163,2188,2163,2092,2066,2124,1922,1943,1898,1890,1893,1780,1749,1730,1725,1672,1669,1613,1601,1504,1485,1522,1415,1427,1423,1455,1473,1506,1503,1495,1524,1516,1518,1520,1535,1517,1512,1512,1528,1520,1517,1512,1512,1520,1525,1520,1522,1509,1521,1514,1531,1531,1529,1510,180,216,181,182,182,188,213,238,263,288,317,313,292,287,282,278,273,268,263,258,254,249,244,239,234,230,225,220,215,248,206,201,196,191,186,183,183,184,170,170,172,175,170,172,171,172,172,171,172,171,171,171,171,172,172,172,171,171,171,171,172,173,172,174,173,279,280,281,282,283,290,302,313,324,335,342,340,337,335,333,331,329,326,324,322,320,318,315,313,311,309,307,305,302,300,317,310,294,295,288,284,284,285,274,271,266,278,270,284,266,271,273,284,284,281,289,273,282,282,318,273,271,288,272,281,273,265,287,273,268,824,863,829,833,872,967,1094,1220,1306,1345,1358,1337,1300,1278,1257,1236,1340,1194,1172,1151,1130,1108,1084,1065,1044,1029,1002,980,959,974,922,900,874,853,840,837,838,841,853,828,828,835,859,852,851,854,863,884,875,898,935,890,882,899,891,869,877,897,947,971,965,989,994,945,912,1118,1152,1136,1158,1225,1352,1514,1645,1737,1775,1766,1741,1699,1682,1648,1622,1740,1576,1544,1518,1501,1466,1437,1415,1389,1363,1337,1304,1285,1285,1234,1208,1165,1161,1147,1145,1147,1133,1210,1203,1177,1187,1181,1205,1193,1218,1220,1289,1210,1238,1226,1234,1213,1273,1242,1206,1218,1197,1216,1249,1220,1246,1234,1243,1214,99,99,99,99,100,102,115,129,143,208,221,201,199,197,206,153,151,148,145,143,140,137,134,132,129,126,124,121,118,116,113,110,108,105,102,100,100,101,83,83,83,83,83,83,85,85,85,85,85,85,85,86,86,86,86,86,86,86,86,86,86,87,87,87,86,0,0,0,0,0,0,0,0,0,0,0,0,0,0,0,0,0,0,0,0,0,0,0,0,0,0,0,0,0,0,0,0,0,0,0,0,0,0,0,0,0,0,0,0,0,0,0,0,0,0,0,0,0,0,0,0,0,0,0,0,0,0,0,0,0,472,479,497,475,478,519,585,695,723,773,780,764,755,743,730,742,705,704,680,668,655,638,631,618,608,593,581,568,556,543,549,519,535,494,481,477,506,480,486,480,483,487,488,480,490,484,485,488,484,484,493,498,498,496,513,493,484,487,485,491,486,494,488,491,488,684,709,686,688,710,785,924,994,1078,1119,1121,1112,1084,1146,1047,1064,1009,998,977,960,942,954,908,888,873,851,835,818,801,782,791,751,750,710,693,718,694,696,695,706,705,717,717,720,710,731,709,717,710,707,715,723,723,728,729,724,722,718,733,726,720,739,737,747,738,220,221,222,222,223,232,262,324,358,353,367,362,356,349,344,338,332,326,321,314,309,303,297,291,285,280,274,268,262,256,251,245,239,233,228,224,224,225,210,213,215,222,217,218,216,224,212,220,213,211,219,217,223,227,218,218,217,220,222,216,219,226,217,219,215,528,529,531,533,539,588,666,749,824,877,881,859,845,832,826,812,799,777,764,757,736,730,716,703,682,675,655,648,628,608,594,580,566,553,540,536,537,557,550,540,536,539,537,541,580,584,552,555,550,536,536,550,554,548,586,549,561,555,556,565,568,553,538,540,533,946,989,993,985,1023,1147,1366,1491,1510,1591,1501,1477,1547,1443,1449,1439,1398,1408,1411,1337,1287,1280,1245,1211,1204,1186,1148,1174,1108,1059,1082,1010,1008,977,987,976,942,1002,975,969,966,975,1052,1038,1009,1027,1008,1075,1039,1021,1042,997,1003,1051,1038,1001,1054,1015,1005,1053,1038,1070,1051,1063,1043,619,613,627,625,639,703,827,882,957,1002,1033,1035,1018,1004,988,991,979,944,921,875,864,847,832,840,821,809,768,752,736,731,728,687,672,646,642,657,625,624,636,634,632,642,703,685,680,686,657,716,691,690,680,648,654,692,675,657,692,666,646,682,670,706,684,695,667,296,297,297,298,299,329,369,398,439,479,493,487,479,470,463,452,442,436,428,421,413,405,397,390,382,377,366,362,351,343,334,328,320,312,305,300,301,302,282,282,282,284,285,288,286,287,288,288,287,288,287,289,289,288,291,291,292,292,291,291,294,294,294,295,294,1057,1097,1074,1202,1179,1373,1571,1710,1788,1810,1787,1763,1735,1727,1791,1640,1605,1569,1599,1595,1481,1538,1415,1454,1406,1324,1288,1248,1321,1255,1186,1143,1171,1082,1072,1105,1094,1076,1121,1145,1150,1122,1161,1138,1126,1172,1153,1160,1162,1166,1170,1193,1181,1185,1160,1167,1170,1168,1159,1177,1172,1169,1180,1168,1165,1341,1373,1413,1479,1636,1926,2161,2298,2507,2366,2343,2326,2259,2216,2167,2147,2086,2094,2005,1959,1920,1895,1833,1788,1748,1710,1660,1633,1576,1547,1491,1465,1444,1396,1389,1407,1415,1410,1494,1487,1479,1570,1550,1534,1518,1518,1533,1574,1526,1567,1587,1552,1510,1542,1533,1542,1555,1522,1574,1643,1608,1616,1625,1562,1558,442,474,490,447,449,486,552,645,704,738,772,794,818,749,734,689,718,701,663,641,662,614,602,612,600,623,554,579,563,550,544,495,513,473,489,449,480,487,464,465,468,480,461,468,462,472,469,460,471,469,463,462,486,501,478,470,483,467,472,467,478,471,461,471,469,466,473,475,476,474,548,584,674,744,777,810,814,817,786,770,725,753,758,696,674,680,646,633,642,629,640,617,578,565,555,542,520,517,498,492,473,483,496,478,479,481,488,479,490,481,491,490,483,490,477,483,481,484,491,484,485,484,487,485,485,483,493,480,490,483,0,0,0,0,0,0,0,0,0,0,0,0,0,0,0,0,0,0,0,0,0,0,0,0,0,0,0,0,0,0,0,0,0,0,0,0,0,0,0,0,0,0,0,0,0,0,0,0,0,0,0,0,0,0,0,0,0,0,0,0,0,0,0,0,0,220,221,222,222,223,232,262,324,358,353,367,362,356,349,344,338,332,326,321,314,309,303,297,291,285,280,274,268,262,256,251,245,239,233,228,224,224,225,210,213,215,222,217,218,216,224,212,220,213,211,219,217,223,227,218,218,217,220,222,216,219,226,217,219,215,0,0,0,0,0,0,0,0,0,0,0,0,0,0,0,0,0,0,0,0,0,0,0,0,0,0,0,0,0,0,0,0,0,0,0,0,0,0,0,0,0,0,0,0,0,0,0,0,0,0,0,0,0,0,0,0,0,0,0,0,0,0,0,0,0,699,701,703,705,773,843,904,1006,1092,1131,1132,1173,1155,1128,1117,1044,1074,1062,971,954,937,919,929,885,867,850,833,816,798,852,779,761,757,757,737,709,711,713,722,700,699,703,747,737,720,717,725,723,752,751,783,755,774,741,771,740,758,785,817,787,760,774,806,816,758,965,931,989,1005,1056,1107,1249,1358,1471,1557,1473,1493,1454,1401,1421,1347,1358,1341,1251,1300,1262,1214,1194,1229,1173,1091,1095,1045,1125,1052,976,953,956,998,927,912,963,972,983,957,960,960,996,1022,982,990,998,1035,1008,1067,1096,1061,1004,1054,1024,1005,1011,1007,1070,1177,1141,1159,1137,1076,1088,822,825,827,868,873,988,1138,1233,1309,1350,1345,1358,1365,1318,1337,1299,1266,1283,1168,1124,1103,1112,1093,1069,1059,1000,980,959,939,918,936,922,884,863,856,835,837,839,837,877,837,838,860,843,851,859,855,867,873,850,862,856,864,864,873,877,870,874,900,859,875,883,900,877,873,539,541,543,544,552,613,679,761,841,905,898,883,869,858,832,804,802,790,745,731,762,747,733,718,663,650,674,623,647,596,618,604,570,564,549,548,549,551,546,550,546,550,559,561,570,568,554,560,560,565,556,557,556,567,560,556,560,555,554,556,555,556,550,552,546,1228,1194,1273,1272,1387,1603,1799,2022,2085,2022,2171,1940,1906,1856,1855,1801,1767,1763,1833,1725,1728,1662,1596,1692,1550,1476,1457,1405,1434,1355,1381,1282,1212,1222,1224,1230,1242,1254,1254,1251,1265,1295,1297,1264,1261,1284,1261,1311,1302,1307,1335,1450,1357,1341,1419,1299,1306,1310,1312,1299,1313,1323,1310,1314,1313,1540,1507,1507,1645,1938,2183,2411,2672,2533,2571,2571,2469,2424,2364,2362,2288,2243,2228,2210,2181,2103,2218,2008,1995,1940,1869,1823,1761,1712,1693,1661,1573,1526,1537,1512,1550,1540,1549,1643,1682,1646,1649,1680,1651,1673,1674,1678,1679,1692,1681,1702,1687,1689,1698,1703,1704,1702,1706,1738,1704,1731,1738,1757,1716,1709,672,674,676,735,699,794,894,998,1059,1154,1174,1149,1147,1115,1054,1022,1028,991,936,919,935,918,865,848,847,819,802,785,769,745,779,756,779,734,677,682,684,713,690,692,699,692,706,698,695,699,695,698,705,697,700,700,705,714,698,705,702,702,702,701,710,708,703,700,702,696,698,700,744,726,815,914,1018,1098,1175,1200,1210,1167,1152,1077,1056,1042,1025,969,952,953,936,895,878,876,848,865,813,796,771,775,781,764,741,701,742,708,723,718,717,722,722,737,740,764,763,733,748,753,754,763,753,759,782,752,741,744,739,728,744,740,746,739,755,749,286,287,288,289,290,296,346,386,427,452,443,457,450,442,435,429,420,413,414,406,399,391,384,376,368,361,346,339,331,324,316,309,302,303,273,291,291,292,276,277,277,286,282,280,284,286,279,278,280,281,279,278,281,284,278,280,281,285,284,279,282,291,280,284,280,0,0,0,0,0,0,0,0,0,0,0,0,0,0,0,0,0,0,0,0,0,0,0,0,0,0,0,0,0,0,0,0,0,0,0,0,0,0,0,0,0,0,0,0,0,0,0,0,0,0,0,0,0,0,0,0,0,0,0,0,0,0,0,0,0 ]);
