n = 10;
D = [192,190,175,142,107,281,194,250,275,246 ];
q = 0;
prec = array2d(1..0,1..2,[]);
steps = 64;
l = 360;
r = 0;
which = [];
interval = array2d(1..0,1..2,[]);
T = array3d(1..11,1..11,0..64,[0,0,0,0,0,0,0,0,0,0,0,0,0,0,0,0,0,0,0,0,0,0,0,0,0,0,0,0,0,0,0,0,0,0,0,0,0,0,0,0,0,0,0,0,0,0,0,0,0,0,0,0,0,0,0,0,0,0,0,0,0,0,0,0,0,559,560,562,564,571,710,993,1171,1286,1352,1358,1345,1325,1339,1283,1252,1240,1218,1165,1144,1124,1102,1093,1062,1040,1020,999,979,957,892,810,608,605,605,589,567,568,565,551,548,550,549,551,560,558,567,557,562,563,555,555,558,558,558,564,562,564,557,559,558,558,566,560,562,554,744,744,760,752,782,867,1468,1629,1756,1863,1767,1758,1727,1681,1653,1616,1605,1579,1501,1519,1514,1456,1432,1392,1380,1309,1196,836,1201,841,780,762,764,764,740,728,757,760,726,726,733,737,741,728,742,742,742,743,743,743,744,744,744,745,745,738,745,745,745,745,746,746,746,745,744,657,660,661,668,698,895,1202,1416,1534,1607,1614,1582,1558,1557,1532,1482,1456,1441,1386,1348,1323,1311,1287,1262,1237,1200,1176,1150,1049,907,909,755,745,690,684,668,669,653,634,627,631,635,632,638,634,641,639,643,640,650,645,650,640,635,638,637,641,638,632,633,637,638,638,635,634,426,431,431,434,436,542,720,869,978,1046,1069,1046,1030,1004,993,962,956,943,888,873,873,858,841,826,793,775,763,745,677,489,615,560,466,461,439,438,439,398,333,335,333,334,352,346,350,352,342,352,344,342,343,336,338,348,346,337,347,337,338,344,343,352,344,345,341,949,950,955,960,1005,1541,2019,2315,2372,2416,2446,2328,2287,2227,2226,2161,2120,2115,2100,2055,2013,1960,1915,1882,1838,1771,1748,1637,1324,1084,1177,1025,969,968,954,962,962,966,935,940,938,943,973,964,947,960,950,963,966,964,964,967,970,970,961,970,967,968,964,964,964,994,962,976,955,1192,1194,1204,1204,1518,2160,2710,3030,3039,3071,3085,2962,2908,2836,2817,2745,2691,2671,2644,2586,2523,2479,2409,2332,2299,2149,1916,1729,1495,1354,1328,1258,1220,1196,1195,1222,1208,1224,1217,1215,1218,1228,1238,1235,1234,1243,1229,1228,1243,1230,1228,1230,1227,1235,1235,1237,1234,1229,1237,1235,1242,1262,1238,1236,1232,531,537,540,545,549,615,944,1135,1236,1307,1315,1302,1282,1276,1239,1213,1182,1144,1100,1102,1086,1065,1038,1017,1005,982,962,942,845,668,741,652,626,606,541,545,547,517,498,491,495,499,496,502,498,505,503,507,504,514,513,514,504,499,502,501,505,502,496,497,501,502,502,499,498,549,556,560,564,568,647,983,1181,1282,1352,1359,1346,1325,1310,1281,1253,1222,1183,1138,1140,1123,1102,1074,1053,1039,1015,995,974,846,700,771,668,640,592,560,569,566,517,498,491,495,499,496,502,498,505,503,507,504,514,513,514,504,499,502,501,505,502,496,497,501,502,502,499,498,223,223,230,231,260,323,365,439,485,532,531,548,540,530,522,514,504,495,490,480,472,462,454,446,436,428,415,406,397,366,357,351,341,334,218,261,261,261,196,198,196,198,205,202,204,207,202,208,203,202,204,202,203,206,205,199,205,199,199,202,202,207,203,207,201,0,0,0,0,0,0,0,0,0,0,0,0,0,0,0,0,0,0,0,0,0,0,0,0,0,0,0,0,0,0,0,0,0,0,0,0,0,0,0,0,0,0,0,0,0,0,0,0,0,0,0,0,0,0,0,0,0,0,0,0,0,0,0,0,0,543,541,537,520,550,582,1040,1163,1247,1251,1272,1281,1275,1255,1234,1206,1213,1172,1099,1149,1111,1090,1072,1052,1029,1021,987,922,903,743,892,757,550,585,572,523,550,525,498,490,500,503,504,518,504,514,509,511,513,509,516,510,510,537,509,506,514,518,505,509,509,518,508,518,514,0,0,0,0,0,0,0,0,0,0,0,0,0,0,0,0,0,0,0,0,0,0,0,0,0,0,0,0,0,0,0,0,0,0,0,0,0,0,0,0,0,0,0,0,0,0,0,0,0,0,0,0,0,0,0,0,0,0,0,0,0,0,0,0,0,1098,1122,1122,1128,1243,1672,2376,2589,2650,2667,2696,2618,2579,2544,2438,2444,2357,2314,2329,2277,2255,2206,2114,2054,1916,1717,1673,1506,1396,1382,1225,1219,1132,1145,1125,1113,1094,1092,1058,1058,1072,1077,1084,1095,1076,1083,1098,1100,1094,1093,1096,1090,1092,1106,1093,1086,1094,1098,1087,1090,1089,1100,1091,1098,1094,190,191,192,192,192,302,367,381,422,462,477,470,463,454,447,440,432,424,416,409,420,411,386,379,370,363,356,348,340,333,325,318,310,302,196,193,193,194,182,185,187,193,187,181,184,188,187,186,267,267,191,190,268,270,196,184,186,188,192,188,188,188,187,184,184,378,379,385,386,389,416,617,779,849,906,919,907,895,881,868,867,851,839,822,809,796,781,763,749,732,719,702,620,608,637,586,437,425,415,392,388,387,360,289,293,291,297,297,297,294,299,289,301,293,297,301,305,303,325,302,294,294,292,303,303,304,324,297,304,293,580,577,584,585,630,958,1119,1388,1519,1567,1561,1532,1504,1476,1484,1419,1391,1361,1334,1303,1267,1246,1228,1189,1161,1136,1105,1084,1061,917,713,692,625,623,636,624,594,604,569,566,570,574,574,581,577,581,577,577,587,577,574,578,576,582,578,580,579,579,578,581,575,584,577,623,579,829,808,809,835,904,1435,1707,2072,2171,2218,2207,2167,2126,2084,2069,2028,1986,1943,1903,1859,1818,1775,1708,1691,1650,1609,1573,1531,1402,1343,1188,920,883,852,852,853,849,854,838,848,847,848,857,860,855,869,863,859,870,867,860,882,864,873,861,858,876,865,858,862,876,874,860,866,855,219,220,220,221,222,283,397,444,492,537,552,543,534,525,517,532,499,489,481,472,463,454,446,436,428,418,410,402,392,384,375,304,357,290,282,223,224,224,166,165,164,169,169,167,168,170,167,170,170,176,194,195,193,198,172,164,166,170,173,172,176,193,172,176,168,246,246,247,248,249,310,433,483,535,583,598,588,578,569,560,574,541,529,521,511,501,492,483,472,464,452,443,435,424,416,406,335,387,252,310,242,251,251,166,165,164,169,169,167,168,170,167,170,170,176,191,192,188,198,172,164,166,170,173,172,176,193,172,176,168,373,374,377,378,379,399,691,771,849,919,949,921,903,889,873,859,843,829,814,799,784,769,754,739,726,710,694,679,664,650,634,477,467,393,404,380,381,383,337,335,344,346,361,361,347,360,353,362,356,354,359,353,354,380,351,349,355,361,349,352,352,361,351,360,356,543,541,537,520,550,582,1040,1163,1247,1251,1272,1281,1275,1255,1234,1206,1213,1172,1099,1149,1111,1090,1072,1052,1029,1021,987,922,903,743,892,757,550,585,572,523,550,525,498,490,500,503,504,518,504,514,509,511,513,509,516,510,510,537,509,506,514,518,505,509,509,518,508,518,514,692,696,696,699,726,1044,1343,1559,1657,1737,1698,1669,1641,1620,1587,1550,1533,1506,1479,1446,1426,1398,1370,1343,1316,1288,1260,1225,1203,1069,920,917,817,708,699,702,705,687,662,661,669,706,677,682,677,679,703,690,685,686,676,679,675,684,677,683,678,676,676,680,685,704,694,703,685,1194,1188,1202,1231,1430,2186,2578,2747,2819,2829,2796,2803,2749,2718,2669,2592,2577,2532,2455,2438,2363,2331,2275,2269,2177,2094,1734,1503,1415,1354,1283,1281,1232,1225,1219,1198,1200,1158,1151,1150,1153,1176,1150,1184,1159,1158,1171,1170,1189,1163,1163,1165,1162,1192,1195,1169,1167,1174,1164,1172,1168,1186,1167,1198,1171,0,0,0,0,0,0,0,0,0,0,0,0,0,0,0,0,0,0,0,0,0,0,0,0,0,0,0,0,0,0,0,0,0,0,0,0,0,0,0,0,0,0,0,0,0,0,0,0,0,0,0,0,0,0,0,0,0,0,0,0,0,0,0,0,0,1274,1271,1285,1324,1612,2434,2809,2906,3011,2996,3020,2952,2905,2902,2828,2764,2727,2690,2648,2586,2549,2511,2418,2376,2244,1911,1823,1463,1480,1442,1384,1347,1332,1295,1305,1291,1254,1217,1201,1203,1218,1228,1205,1237,1213,1212,1225,1224,1243,1217,1217,1219,1216,1246,1249,1223,1221,1228,1218,1226,1222,1240,1221,1252,1225,1010,1011,1022,1021,1074,1847,2161,2287,2408,2397,2431,2373,2334,2333,2271,2219,2185,2150,2139,2072,2059,2019,1927,1951,1874,1796,1704,1550,1420,1262,1168,1074,1097,1031,1040,1029,946,904,893,890,911,918,893,923,901,909,915,913,933,903,904,909,906,933,942,910,908,919,908,922,912,931,912,943,916,1351,1361,1419,1654,2350,3284,3582,3786,3875,3840,3791,3777,3662,3583,3475,3375,3300,3276,3225,3015,2655,2295,2173,2122,2053,2021,1695,1660,1624,1576,1493,1458,1443,1397,1399,1401,1411,1411,1476,1492,1508,1521,1503,1520,1504,1504,1500,1511,1606,1513,1530,1593,1591,1606,1623,1592,1519,1520,1529,1529,1517,1523,1514,1610,1589,1221,1224,1251,1356,2380,2856,3225,3428,3519,3494,3446,3358,3283,3214,3169,3076,3022,2938,2892,2865,2731,2677,2468,2333,2172,2119,1978,1835,1619,1407,1369,1328,1285,1265,1247,1253,1278,1277,1348,1387,1355,1372,1387,1383,1370,1383,1381,1378,1393,1372,1375,1394,1391,1396,1404,1525,1409,1406,1477,1472,1471,1470,1461,1581,1526,1137,1135,1148,1153,1323,2144,2477,2600,2729,2704,2722,2667,2620,2588,2516,2485,2446,2410,2400,2343,2304,2261,2161,2187,2106,2052,1766,1486,1487,1371,1276,1200,1220,1157,1176,1155,1118,1081,1065,1067,1082,1092,1069,1101,1077,1076,1089,1088,1107,1081,1081,1083,1080,1110,1113,1087,1085,1092,1082,1090,1086,1104,1085,1116,1089,1156,1154,1167,1174,1356,2190,2522,2644,2772,2746,2764,2707,2660,2627,2555,2523,2484,2447,2436,2376,2338,2294,2194,2219,2138,2071,1711,1351,1355,1310,1279,1220,1233,1176,1191,1155,1118,1081,1065,1067,1082,1092,1069,1101,1077,1076,1089,1088,1107,1081,1081,1083,1080,1110,1113,1087,1085,1092,1082,1090,1086,1104,1085,1116,1089,813,804,818,820,866,1411,1695,1801,1944,1932,1974,1923,1891,1898,1863,1797,1766,1766,1749,1704,1673,1641,1562,1594,1516,1539,1473,1419,1384,1136,978,865,939,826,864,824,809,767,756,754,763,774,754,781,761,761,774,773,794,769,769,769,765,795,798,772,769,775,767,774,771,789,770,801,774,692,696,696,699,726,1044,1343,1559,1657,1737,1698,1669,1641,1620,1587,1550,1533,1506,1479,1446,1426,1398,1370,1343,1316,1288,1260,1225,1203,1069,920,917,817,708,699,702,705,687,662,661,669,706,677,682,677,679,703,690,685,686,676,679,675,684,677,683,678,676,676,680,685,704,694,703,685,680,685,693,698,708,875,1312,1459,1583,1662,1655,1666,1581,1562,1531,1504,1515,1490,1436,1425,1409,1354,1335,1306,1283,1256,1227,1120,1081,1006,908,814,714,708,693,700,692,668,645,649,656,653,656,657,655,655,656,657,655,655,662,667,664,665,661,666,663,658,664,665,664,665,659,660,660,272,272,284,311,274,406,487,537,588,709,644,696,625,615,606,596,586,680,568,610,549,540,530,520,512,502,547,536,474,514,454,433,424,284,278,275,276,276,269,269,268,278,276,268,272,273,272,273,284,305,308,304,304,319,277,273,278,276,272,272,274,272,272,274,273,1235,1238,1244,1309,1505,2095,2684,2839,2928,2968,2935,2919,2836,2796,2738,2688,2666,2614,2554,2512,2467,2331,2154,2076,1893,1790,1765,1412,1425,1368,1368,1314,1281,1260,1270,1241,1241,1227,1204,1216,1221,1216,1221,1228,1213,1228,1222,1233,1230,1226,1232,1233,1234,1239,1234,1239,1234,1227,1236,1239,1236,1238,1232,1232,1232,0,0,0,0,0,0,0,0,0,0,0,0,0,0,0,0,0,0,0,0,0,0,0,0,0,0,0,0,0,0,0,0,0,0,0,0,0,0,0,0,0,0,0,0,0,0,0,0,0,0,0,0,0,0,0,0,0,0,0,0,0,0,0,0,0,355,356,369,381,361,403,647,688,728,778,789,814,772,763,757,750,741,734,726,717,710,711,697,685,672,660,647,635,622,609,562,549,391,383,364,383,362,360,312,309,311,312,315,319,311,320,311,321,314,313,318,317,322,324,319,318,318,316,321,321,317,319,314,313,313,515,517,518,520,520,659,965,1077,1186,1259,1267,1246,1227,1207,1186,1167,1147,1126,1106,1087,1066,1047,1027,1006,986,967,946,929,906,886,866,674,664,558,526,522,524,522,477,480,482,488,491,484,487,486,482,489,483,483,484,486,486,487,486,487,489,481,487,486,484,498,483,487,485,750,752,763,751,771,1061,1433,1581,1694,1761,1762,1742,1710,1685,1659,1632,1607,1582,1555,1530,1504,1483,1454,1434,1404,1370,1352,1309,1214,1188,1010,973,796,783,766,769,770,747,720,722,720,728,731,730,730,738,738,727,736,726,726,748,776,746,729,727,726,734,732,730,728,742,727,731,729,178,179,179,244,180,280,311,340,371,401,417,445,405,399,393,387,381,378,369,363,357,382,374,340,334,347,340,328,310,304,298,292,286,280,274,180,181,181,146,146,147,149,149,150,146,150,146,152,146,146,149,150,152,155,150,149,150,147,151,155,150,152,147,146,146,164,164,164,165,165,172,285,313,340,368,381,410,370,364,360,354,349,343,338,333,327,351,345,312,306,301,295,290,284,279,182,179,176,172,168,166,166,167,146,146,147,149,149,150,146,150,146,152,146,146,149,150,152,155,150,149,150,147,151,155,150,152,147,146,146,504,511,519,527,540,690,955,1059,1166,1242,1251,1268,1225,1205,1184,1134,1151,1132,1071,1081,1060,1020,996,1008,955,951,926,898,890,862,763,680,635,526,525,528,518,520,493,497,500,506,505,508,501,506,500,502,500,502,505,510,509,511,509,509,511,504,515,515,511,515,506,508,508,680,685,693,698,708,875,1312,1459,1583,1662,1655,1666,1581,1562,1531,1504,1515,1490,1436,1425,1409,1354,1335,1306,1283,1256,1227,1120,1081,1006,908,814,714,708,693,700,692,668,645,649,656,653,656,657,655,655,656,657,655,655,662,667,664,665,661,666,663,658,664,665,664,665,659,660,660,405,406,407,408,409,481,729,827,914,991,1008,990,976,955,943,922,910,897,877,856,846,828,812,795,780,765,749,733,631,616,508,532,519,474,461,411,411,413,369,363,367,370,368,369,367,371,366,373,373,369,372,377,377,372,375,378,373,374,373,374,370,375,373,370,370,423,432,425,427,432,532,800,841,972,1024,1000,1087,984,997,980,954,982,931,914,897,895,864,847,787,771,754,739,776,626,734,612,577,506,498,440,474,430,432,412,407,403,409,418,414,407,415,408,422,415,413,413,417,418,417,417,420,412,424,419,418,419,417,417,412,411,963,963,967,958,1020,1366,1997,2232,2288,2335,2341,2299,2255,2230,2216,2148,2110,2073,2025,1978,1975,1921,1900,1846,1817,1601,1743,1405,1167,1084,1098,1070,1031,1004,983,989,954,962,928,922,936,938,931,934,938,929,939,939,949,944,944,947,950,945,950,951,946,946,942,946,944,949,946,943,943,396,397,440,400,403,599,728,805,880,942,934,924,913,902,890,874,860,847,831,835,805,790,801,762,748,734,720,705,698,722,663,637,512,504,405,465,403,404,375,380,377,386,383,390,380,383,377,380,382,378,377,391,383,388,386,390,385,387,405,387,386,393,378,384,382,0,0,0,0,0,0,0,0,0,0,0,0,0,0,0,0,0,0,0,0,0,0,0,0,0,0,0,0,0,0,0,0,0,0,0,0,0,0,0,0,0,0,0,0,0,0,0,0,0,0,0,0,0,0,0,0,0,0,0,0,0,0,0,0,0,843,868,848,865,982,1450,1700,1890,2025,2100,2089,2055,2022,1989,1956,1922,1890,1856,1822,1837,1764,1723,1690,1642,1605,1582,1542,1528,1303,1202,991,915,905,900,859,858,849,859,823,820,839,863,843,845,830,846,835,831,834,835,832,837,844,847,846,845,837,837,837,843,844,845,853,846,845,1054,1052,1055,1100,1176,1951,2102,2314,2429,2487,2483,2434,2397,2358,2321,2286,2237,2208,2176,2186,2092,2064,2029,1990,1953,1915,1801,1494,1359,1177,1155,1130,1096,1084,1077,1064,1049,1059,1066,1060,1074,1085,1090,1096,1078,1077,1083,1092,1082,1089,1096,1100,1100,1112,1110,1092,1086,1094,1087,1087,1075,1075,1075,1075,1075,340,341,342,344,347,436,564,593,621,648,666,660,653,649,642,637,633,626,620,615,609,604,598,592,588,581,577,571,535,555,473,460,439,354,350,348,347,348,276,282,277,284,284,290,280,284,279,280,284,279,278,291,285,289,288,290,288,288,303,288,288,293,277,280,279,294,295,296,297,297,411,480,508,535,562,580,574,569,564,558,553,548,542,536,531,526,520,515,509,505,498,494,488,482,477,443,436,429,384,378,298,298,299,239,244,240,246,247,253,244,246,240,244,245,242,241,255,247,251,249,253,249,251,271,251,249,255,241,245,244,231,232,232,233,240,244,412,460,508,556,586,572,562,559,543,534,525,516,507,492,483,478,470,460,451,441,428,423,414,400,394,386,248,244,238,235,233,233,212,213,212,213,214,215,214,216,213,216,218,214,216,220,220,217,218,221,216,215,216,219,215,218,219,217,217,405,406,407,408,409,481,729,827,914,991,1008,990,976,955,943,922,910,897,877,856,846,828,812,795,780,765,749,733,631,616,508,532,519,474,461,411,411,413,369,363,367,370,368,369,367,371,366,373,373,369,372,377,377,372,375,378,373,374,373,374,370,375,373,370,370,935,937,938,952,987,1747,2070,2310,2353,2394,2385,2329,2310,2268,2225,2284,2142,2094,2041,2008,1977,1924,1896,1867,1798,1806,1714,1458,1098,1071,1043,1031,988,982,961,947,933,926,916,923,917,935,925,932,924,943,931,937,937,934,939,938,948,941,953,949,948,951,946,944,947,961,940,939,938,596,597,599,600,619,775,1208,1363,1492,1548,1546,1518,1491,1466,1440,1412,1389,1359,1334,1308,1280,1251,1225,1198,1173,1144,1118,1091,1040,1013,753,671,638,637,601,605,608,573,573,574,580,590,571,584,580,579,579,582,589,584,579,578,579,595,597,580,576,586,578,584,583,575,586,582,578,1335,1334,1370,1473,2330,2891,3343,3645,3756,3742,3715,3637,3556,3474,3422,3323,3253,3194,3138,3031,2916,2701,2507,2208,2013,1954,1675,1625,1624,1507,1470,1424,1420,1368,1348,1361,1375,1380,1418,1407,1409,1424,1423,1426,1425,1433,1430,1425,1432,1424,1425,1424,1424,1429,1425,1424,1425,1428,1425,1422,1425,1426,1424,1426,1425,649,651,652,638,691,936,1234,1371,1484,1549,1549,1526,1502,1478,1454,1429,1407,1384,1360,1338,1314,1290,1262,1243,1206,1188,1178,1149,1125,1101,942,874,718,655,644,658,660,644,635,623,629,631,623,643,636,644,640,639,656,632,633,636,632,644,638,640,636,636,635,633,639,638,638,638,638,857,860,861,870,941,1237,1784,1941,2023,2082,2074,2045,2024,1985,1956,1928,1905,1869,1847,1808,1774,1750,1705,1670,1636,1603,1572,1464,1328,1112,956,931,913,888,872,870,843,839,829,820,823,823,830,831,836,827,835,846,849,843,850,856,855,853,847,851,850,860,854,863,857,844,850,850,848,0,0,0,0,0,0,0,0,0,0,0,0,0,0,0,0,0,0,0,0,0,0,0,0,0,0,0,0,0,0,0,0,0,0,0,0,0,0,0,0,0,0,0,0,0,0,0,0,0,0,0,0,0,0,0,0,0,0,0,0,0,0,0,0,0,409,411,412,413,414,579,706,802,854,919,943,930,916,903,890,877,864,850,837,824,811,797,786,772,758,746,733,720,706,693,597,667,594,427,419,416,416,417,382,384,383,388,390,389,390,395,387,393,392,393,395,394,405,405,410,394,393,396,405,402,404,404,397,402,400,694,695,696,698,755,994,1416,1570,1655,1714,1710,1682,1664,1628,1615,1573,1554,1518,1499,1471,1443,1408,1389,1360,1335,1299,1294,1244,1216,1112,904,867,738,721,705,704,707,687,666,656,660,657,661,666,666,662,666,678,682,674,683,686,686,684,678,683,681,690,697,696,690,683,683,683,683,708,711,687,692,728,1030,1382,1533,1619,1680,1675,1648,1630,1594,1568,1542,1522,1488,1469,1434,1414,1381,1360,1333,1307,1273,1253,1219,1192,1142,934,741,724,706,696,693,695,687,666,656,660,657,661,666,666,662,666,678,682,674,683,686,686,684,678,683,681,690,688,684,680,683,683,683,683,862,841,843,854,977,1425,1839,2032,2146,2191,2175,2135,2097,2059,2024,2044,1946,1964,1869,1830,1792,1753,1715,1675,1636,1602,1564,1526,1295,1237,1023,996,888,867,853,852,845,850,842,851,855,860,857,870,857,881,869,875,872,861,872,876,878,874,883,887,867,872,876,882,868,878,868,877,866,935,937,938,952,987,1747,2070,2310,2353,2394,2385,2329,2310,2268,2225,2284,2142,2094,2041,2008,1977,1924,1896,1867,1798,1806,1714,1458,1098,1071,1043,1031,988,982,961,947,933,926,916,923,917,935,925,932,924,943,931,937,937,934,939,938,948,941,953,949,948,951,946,944,947,961,940,939,938,1128,1134,1143,1161,1510,2381,2677,2800,2915,2923,2881,2884,2776,2724,2691,2610,2556,2503,2464,2423,2361,2333,2329,2204,2222,1990,1962,1802,1529,1279,1271,1236,1180,1164,1146,1143,1125,1125,1122,1136,1142,1148,1152,1147,1147,1165,1143,1153,1153,1144,1147,1157,1167,1180,1174,1182,1171,1161,1159,1156,1146,1141,1151,1165,1136,788,785,791,792,940,1519,1746,1951,2061,2085,2068,2031,1993,1956,1918,1881,1843,1805,1771,1734,1696,1659,1622,1585,1548,1510,1473,1409,1373,1323,1046,901,833,810,799,800,769,773,773,787,781,784,779,776,781,786,781,792,792,795,793,792,792,786,797,798,790,795,790,791,797,790,816,807,806,1374,1364,1412,1535,2632,3196,3456,3618,3694,3669,3613,3547,3471,3414,3355,3283,3187,3114,3042,2962,2922,2817,2710,2616,2412,2147,1787,1798,1544,1500,1456,1403,1363,1360,1346,1387,1375,1398,1449,1449,1458,1518,1463,1484,1466,1522,1470,1476,1483,1464,1465,1472,1468,1534,1539,1484,1466,1482,1511,1474,1474,1462,1472,1528,1462,855,868,859,861,1011,1546,1756,1905,1989,2061,1990,1980,1998,1921,1922,1846,1833,1848,1774,1718,1701,1696,1630,1628,1574,1557,1527,1512,1470,1250,926,1066,896,879,861,870,876,878,861,870,878,880,888,869,886,883,877,900,915,896,912,896,928,891,913,897,893,905,925,931,920,898,921,927,910,1049,1052,1053,1062,1270,2001,2247,2410,2468,2486,2468,2431,2456,2355,2317,2296,2264,2325,2166,2128,2090,2053,2016,2023,1940,1902,1846,1702,1527,1167,1153,1127,1097,1076,1064,1066,1042,1039,1039,1055,1060,1056,1047,1046,1062,1054,1060,1073,1083,1069,1082,1080,1069,1070,1086,1080,1066,1079,1082,1074,1084,1060,1104,1077,1076,462,485,465,467,474,776,892,986,1072,1114,1120,1104,1136,1072,1056,1040,1024,1021,992,976,960,944,928,912,896,880,864,848,832,817,781,693,680,484,504,469,471,472,466,466,472,468,466,474,470,468,471,475,478,472,470,472,475,476,476,476,475,474,478,475,473,479,471,475,474,0,0,0,0,0,0,0,0,0,0,0,0,0,0,0,0,0,0,0,0,0,0,0,0,0,0,0,0,0,0,0,0,0,0,0,0,0,0,0,0,0,0,0,0,0,0,0,0,0,0,0,0,0,0,0,0,0,0,0,0,0,0,0,0,0,884,887,889,890,1107,1693,1930,2076,2154,2236,2148,2132,2146,2080,2047,1983,1997,1989,1930,1840,1849,1822,1773,1736,1678,1693,1623,1575,1501,1141,980,960,932,913,897,900,905,905,892,906,911,904,917,899,903,909,906,958,959,925,950,920,937,930,931,921,924,928,954,954,949,920,949,933,932,904,906,905,917,1072,1660,1893,2038,2119,2187,2114,2098,2113,2034,2016,1953,1966,1947,1900,1812,1819,1795,1728,1710,1652,1656,1599,1562,1369,1009,980,979,936,932,916,926,905,905,892,906,911,904,917,899,903,909,906,958,959,925,949,920,937,930,931,921,924,928,944,954,949,920,949,933,932,1055,1059,1037,1068,1346,2118,2414,2604,2701,2711,2682,2634,2584,2535,2486,2438,2389,2344,2296,2297,2197,2148,2150,2094,2002,1994,1908,1669,1619,1259,1143,1135,1080,1056,1047,1079,1063,1051,1060,1074,1080,1086,1090,1085,1085,1103,1081,1091,1091,1082,1085,1095,1105,1118,1112,1120,1109,1099,1097,1094,1084,1079,1089,1103,1074,1128,1134,1143,1161,1510,2381,2677,2800,2915,2923,2881,2884,2776,2724,2691,2610,2556,2503,2464,2423,2361,2333,2329,2204,2222,1990,1962,1802,1529,1279,1271,1236,1180,1164,1146,1143,1125,1125,1122,1136,1142,1148,1152,1147,1147,1165,1143,1153,1153,1144,1147,1157,1167,1180,1174,1182,1171,1161,1159,1156,1146,1141,1151,1165,1136,525,525,528,527,533,629,994,1108,1225,1276,1277,1256,1230,1216,1200,1180,1150,1136,1122,1097,1075,1057,1036,1011,997,978,967,879,834,745,740,666,642,545,537,534,536,539,500,503,508,505,507,506,508,505,506,508,510,509,512,519,516,510,511,515,514,511,512,510,514,513,512,514,511,206,207,207,208,259,324,367,409,451,495,513,506,500,489,483,474,465,457,448,443,435,427,416,408,400,394,384,375,368,360,351,343,337,327,264,259,260,255,173,174,175,173,175,174,176,175,175,174,175,174,177,174,177,172,174,174,174,174,174,174,174,174,174,174,174,1074,1081,1077,1107,1172,1727,2305,2489,2545,2601,2595,2533,2523,2469,2424,2398,2352,2292,2273,2210,2175,2144,2085,2059,1916,1717,1598,1405,1382,1244,1208,1161,1136,1124,1119,1084,1103,1088,1062,1062,1072,1077,1072,1078,1072,1066,1080,1084,1086,1080,1082,1082,1085,1084,1084,1088,1085,1083,1084,1084,1086,1086,1085,1086,1083,157,157,158,158,159,247,280,313,354,379,394,388,382,375,369,363,357,350,344,338,332,325,319,313,307,300,294,288,282,276,268,262,256,250,243,195,196,196,136,136,136,136,136,136,136,136,136,136,136,136,136,136,136,136,136,136,136,136,136,136,136,136,136,136,136,201,201,204,204,204,318,356,391,427,416,429,427,424,422,414,411,409,406,404,402,399,405,399,390,384,376,370,362,356,349,341,334,325,319,283,216,216,217,166,163,164,163,166,169,165,170,165,169,168,167,169,167,170,169,169,169,168,169,170,166,167,167,167,167,167,672,674,676,678,691,944,1271,1444,1564,1643,1639,1615,1589,1561,1536,1510,1485,1460,1434,1407,1393,1356,1330,1303,1278,1251,1225,1198,1173,1006,925,730,712,696,685,682,685,652,616,616,616,616,616,616,616,616,616,616,616,616,616,616,616,616,616,616,616,616,616,616,616,616,616,616,616,902,909,921,909,950,1380,1758,1940,2065,2136,2126,2098,2067,2034,2001,1970,1942,1904,1876,1845,1830,1785,1753,1714,1690,1658,1628,1441,1378,1193,1162,997,950,928,922,928,928,888,859,859,859,859,859,859,859,859,859,859,859,859,859,859,859,859,859,859,859,859,859,859,859,859,859,859,859,0,0,0,0,0,0,0,0,0,0,0,0,0,0,0,0,0,0,0,0,0,0,0,0,0,0,0,0,0,0,0,0,0,0,0,0,0,0,0,0,0,0,0,0,0,0,0,0,0,0,0,0,0,0,0,0,0,0,0,0,0,0,0,0,0,27,27,27,27,27,27,32,36,39,43,46,46,45,44,44,43,42,42,40,40,39,38,38,37,36,36,34,33,33,32,32,31,30,30,28,27,27,27,0,0,0,0,0,0,0,0,0,0,0,0,0,0,0,0,0,0,0,0,0,0,0,0,0,0,0,355,356,372,371,360,495,684,732,810,860,866,853,877,826,848,835,786,772,754,746,733,715,705,721,704,666,663,662,625,608,601,532,489,425,364,358,363,396,347,352,352,356,355,359,353,359,351,358,354,354,359,362,364,366,363,360,362,355,364,366,363,364,357,364,358,525,525,528,527,533,629,994,1108,1225,1276,1277,1256,1230,1216,1200,1180,1150,1136,1122,1097,1075,1057,1036,1011,997,978,967,879,834,745,740,666,642,545,537,534,536,539,500,503,508,505,507,506,508,505,506,508,510,509,512,519,516,510,511,515,514,511,512,510,514,513,512,514,511,547,548,548,549,554,665,1050,1168,1293,1342,1345,1330,1300,1286,1256,1238,1210,1197,1172,1152,1130,1110,1089,1065,1047,1021,1001,907,877,785,740,635,678,568,554,556,555,534,519,519,530,532,524,526,522,524,525,528,526,529,530,542,536,534,530,532,534,533,531,528,537,534,533,534,533,229,230,231,232,232,340,408,455,502,550,572,562,557,548,536,529,518,511,499,490,481,472,463,454,445,439,427,418,411,400,381,384,373,342,236,232,233,228,202,204,203,202,203,202,203,204,205,201,205,202,205,201,206,202,206,205,204,203,204,202,203,204,199,201,201,1099,1110,1099,1129,1194,1763,2373,2549,2648,2677,2665,2595,2589,2530,2481,2444,2381,2306,2288,2275,2237,2197,2134,2089,1916,1717,1641,1433,1438,1321,1203,1188,1183,1131,1140,1104,1107,1087,1081,1078,1093,1104,1089,1098,1086,1085,1099,1104,1102,1100,1100,1100,1105,1108,1103,1105,1105,1105,1103,1102,1109,1107,1106,1106,1105,144,201,144,145,145,225,255,285,315,345,380,375,350,344,338,333,327,321,315,309,304,298,292,286,280,276,270,264,258,297,247,241,235,229,223,219,219,220,136,136,137,140,136,137,136,137,137,136,137,136,136,136,136,137,137,137,136,136,136,136,137,138,137,139,138,221,222,224,225,226,338,362,375,388,402,410,408,404,402,399,397,394,391,388,386,384,381,378,375,373,370,368,366,362,360,380,372,352,340,332,227,227,228,188,188,187,186,188,187,190,192,188,196,190,187,191,191,188,188,191,192,188,192,185,190,187,186,186,186,186,659,690,662,664,677,923,1246,1416,1525,1605,1626,1602,1560,1533,1508,1483,1467,1432,1406,1381,1356,1329,1300,1278,1252,1228,1202,1176,1150,1001,964,720,699,682,671,669,670,638,616,618,621,628,624,620,622,619,622,623,618,623,619,622,622,624,623,624,619,621,622,622,621,636,620,626,623,894,920,908,896,936,1358,1733,1912,2027,2101,2118,2085,2038,2009,1974,1942,1921,1884,1848,1821,1793,1759,1724,1698,1666,1634,1603,1441,1345,1283,1130,966,932,928,917,916,917,874,859,856,862,867,873,862,881,865,869,877,858,863,861,903,881,905,866,865,863,868,866,866,865,880,864,870,867,79,79,79,79,120,121,138,154,171,186,202,199,195,191,189,183,181,177,174,171,168,164,160,158,154,151,148,145,141,139,135,132,129,126,122,120,120,121,37,38,37,38,37,37,36,38,39,36,39,37,37,36,38,38,39,37,39,37,38,37,39,38,36,35,35,0,0,0,0,0,0,0,0,0,0,0,0,0,0,0,0,0,0,0,0,0,0,0,0,0,0,0,0,0,0,0,0,0,0,0,0,0,0,0,0,0,0,0,0,0,0,0,0,0,0,0,0,0,0,0,0,0,0,0,0,0,0,0,0,0,377,379,393,380,382,523,702,808,867,927,936,916,906,891,876,890,846,836,816,801,786,765,757,741,729,711,697,681,667,651,581,501,559,395,384,381,435,384,372,377,375,381,382,384,378,385,374,390,381,382,380,385,394,390,385,386,386,384,386,386,384,387,378,381,378,547,548,548,549,554,665,1050,1168,1293,1342,1345,1330,1300,1286,1256,1238,1210,1197,1172,1152,1130,1110,1089,1065,1047,1021,1001,907,877,785,740,635,678,568,554,556,555,534,519,519,530,532,524,526,522,524,525,528,526,529,530,542,536,534,530,532,534,533,531,528,537,534,533,534,533,176,176,177,177,178,278,314,350,387,423,440,434,427,418,412,405,398,391,385,376,370,363,356,349,342,336,328,321,314,307,301,294,286,279,273,217,217,218,161,154,155,157,156,156,157,157,154,157,157,156,156,157,157,155,157,157,157,159,157,156,157,157,157,157,156,422,423,424,426,431,496,794,867,953,1049,1054,1030,1014,998,991,974,958,932,916,908,883,876,859,843,818,810,786,777,748,729,669,608,488,442,432,428,429,445,398,399,403,405,400,411,404,413,406,407,406,406,406,407,407,407,407,407,406,406,407,407,406,406,406,407,406,745,732,757,759,758,1098,1477,1659,1783,1850,1801,1772,1761,1728,1703,1692,1645,1618,1587,1565,1528,1505,1481,1453,1418,1383,1196,1157,1201,1004,942,808,806,781,759,757,753,753,718,721,723,728,731,729,734,729,723,749,739,739,739,739,738,738,741,739,737,741,737,739,737,737,739,738,738,495,490,498,500,511,591,918,1024,1106,1198,1219,1200,1187,1168,1149,1143,1125,1095,1090,1050,1036,1016,998,992,974,956,921,902,883,870,818,549,537,516,513,502,500,499,452,458,453,458,465,463,459,466,460,461,460,460,460,461,461,461,461,461,460,460,461,461,460,460,460,461,460,229,236,237,238,246,299,404,461,498,563,586,580,570,560,551,536,528,518,512,500,493,484,472,464,455,450,437,430,414,404,396,386,356,267,259,246,251,251,144,145,145,145,158,153,147,152,148,158,150,149,150,147,148,151,151,148,153,147,148,152,150,156,150,152,149,845,840,852,870,883,1391,1799,1995,2145,2170,2144,2115,2082,2044,1996,1963,1926,1881,1852,1820,1771,1751,1690,1657,1632,1588,1545,1497,1306,1156,974,914,913,865,857,852,848,852,823,823,828,823,839,835,835,842,835,834,832,830,832,831,830,836,835,834,832,831,830,827,833,833,831,837,835,1072,1090,1078,1090,1248,2010,2471,2663,2826,2817,2811,2774,2710,2659,2598,2552,2497,2443,2396,2344,2294,2266,2199,2140,2097,2052,1854,1557,1558,1237,1192,1172,1151,1116,1095,1101,1092,1106,1084,1085,1084,1096,1107,1101,1116,1107,1096,1093,1091,1100,1096,1095,1094,1094,1100,1099,1097,1092,1091,1097,1096,1121,1124,1097,1095,353,361,374,357,359,498,662,712,825,885,926,889,892,878,859,826,831,822,760,748,760,736,722,734,720,691,664,684,640,630,619,505,471,378,399,359,365,401,316,322,317,322,329,327,323,330,324,325,324,324,324,325,325,325,325,325,324,324,325,325,324,324,324,325,324,372,378,380,380,379,529,698,751,857,931,969,933,936,921,901,868,871,862,799,786,798,773,758,767,754,725,697,693,672,662,577,535,497,406,396,378,385,391,316,322,317,322,329,327,323,330,324,325,324,324,324,325,325,325,325,325,324,324,325,325,324,324,324,325,324,0,0,0,0,0,0,0,0,0,0,0,0,0,0,0,0,0,0,0,0,0,0,0,0,0,0,0,0,0,0,0,0,0,0,0,0,0,0,0,0,0,0,0,0,0,0,0,0,0,0,0,0,0,0,0,0,0,0,0,0,0,0,0,0,0,176,176,177,177,178,278,314,350,387,423,440,434,427,418,412,405,398,391,385,376,370,363,356,349,342,336,328,321,314,307,301,294,286,279,273,217,217,218,161,154,155,157,156,156,157,157,154,157,157,156,156,157,157,155,157,157,157,159,157,156,157,157,157,157,156,0,0,0,0,0,0,0,0,0,0,0,0,0,0,0,0,0,0,0,0,0,0,0,0,0,0,0,0,0,0,0,0,0,0,0,0,0,0,0,0,0,0,0,0,0,0,0,0,0,0,0,0,0,0,0,0,0,0,0,0,0,0,0,0,0,559,560,562,564,571,710,993,1171,1286,1352,1358,1345,1325,1339,1283,1252,1240,1218,1165,1144,1124,1102,1093,1062,1040,1020,999,979,957,892,810,608,605,605,589,567,568,565,551,548,550,549,551,560,558,567,557,562,563,555,555,558,558,558,564,562,564,557,559,558,558,566,560,562,554,744,744,760,752,782,867,1468,1629,1756,1863,1767,1758,1727,1681,1653,1616,1605,1579,1501,1519,1514,1456,1432,1392,1380,1309,1196,836,1201,841,780,762,764,764,740,728,757,760,726,726,733,737,741,728,742,742,742,743,743,743,744,744,744,745,745,738,745,745,745,745,746,746,746,745,744,657,660,661,668,698,895,1202,1416,1534,1607,1614,1582,1558,1557,1532,1482,1456,1441,1386,1348,1323,1311,1287,1262,1237,1200,1176,1150,1049,907,909,755,745,690,684,668,669,653,634,627,631,635,632,638,634,641,639,643,640,650,645,650,640,635,638,637,641,638,632,633,637,638,638,635,634,426,431,431,434,436,542,720,869,978,1046,1069,1046,1030,1004,993,962,956,943,888,873,873,858,841,826,793,775,763,745,677,489,615,560,466,461,439,438,439,398,333,335,333,334,352,346,350,352,342,352,344,342,343,336,338,348,346,337,347,337,338,344,343,352,344,345,341,949,950,955,960,1005,1541,2019,2315,2372,2416,2446,2328,2287,2227,2226,2161,2120,2115,2100,2055,2013,1960,1915,1882,1838,1771,1748,1637,1324,1084,1177,1025,969,968,954,962,962,966,935,940,938,943,973,964,947,960,950,963,966,964,964,967,970,970,961,970,967,968,964,964,964,994,962,976,955,1192,1194,1204,1204,1518,2160,2710,3030,3039,3071,3085,2962,2908,2836,2817,2745,2691,2671,2644,2586,2523,2479,2409,2332,2299,2149,1916,1729,1495,1354,1328,1258,1220,1196,1195,1222,1208,1224,1217,1215,1218,1228,1238,1235,1234,1243,1229,1228,1243,1230,1228,1230,1227,1235,1235,1237,1234,1229,1237,1235,1242,1262,1238,1236,1232,531,537,540,545,549,615,944,1135,1236,1307,1315,1302,1282,1276,1239,1213,1182,1144,1100,1102,1086,1065,1038,1017,1005,982,962,942,845,668,741,652,626,606,541,545,547,517,498,491,495,499,496,502,498,505,503,507,504,514,513,514,504,499,502,501,505,502,496,497,501,502,502,499,498,549,556,560,564,568,647,983,1181,1282,1352,1359,1346,1325,1310,1281,1253,1222,1183,1138,1140,1123,1102,1074,1053,1039,1015,995,974,846,700,771,668,640,592,560,569,566,517,498,491,495,499,496,502,498,505,503,507,504,514,513,514,504,499,502,501,505,502,496,497,501,502,502,499,498,223,223,230,231,260,323,365,439,485,532,531,548,540,530,522,514,504,495,490,480,472,462,454,446,436,428,415,406,397,366,357,351,341,334,218,261,261,261,196,198,196,198,205,202,204,207,202,208,203,202,204,202,203,206,205,199,205,199,199,202,202,207,203,207,201,0,0,0,0,0,0,0,0,0,0,0,0,0,0,0,0,0,0,0,0,0,0,0,0,0,0,0,0,0,0,0,0,0,0,0,0,0,0,0,0,0,0,0,0,0,0,0,0,0,0,0,0,0,0,0,0,0,0,0,0,0,0,0,0,0 ]);
