n = 10;
D = [67,273,284,295,220,223,68,71,219,120 ];
q = 0;
prec = array2d(1..0,1..2,[]);
steps = 64;
l = 360;
r = 0;
which = [];
interval = array2d(1..0,1..2,[]);
T = array3d(1..11,1..11,0..64,[0,0,0,0,0,0,0,0,0,0,0,0,0,0,0,0,0,0,0,0,0,0,0,0,0,0,0,0,0,0,0,0,0,0,0,0,0,0,0,0,0,0,0,0,0,0,0,0,0,0,0,0,0,0,0,0,0,0,0,0,0,0,0,0,0,643,651,635,644,679,712,768,896,958,996,1012,986,975,994,981,944,943,909,893,852,866,820,817,789,787,784,767,725,742,725,710,695,670,682,670,646,665,667,662,656,652,655,653,651,656,668,656,709,657,651,659,661,670,651,667,664,657,667,651,656,660,662,654,664,662,202,202,203,203,204,212,240,268,296,324,338,332,327,321,316,311,305,300,294,289,284,278,273,268,262,257,251,246,241,235,230,225,219,214,208,205,205,206,219,184,185,185,205,204,195,187,187,193,233,200,218,218,231,208,208,196,203,239,247,222,195,201,241,227,193,983,994,1006,1006,1092,1170,1290,1461,1519,1548,1562,1563,1500,1499,1481,1442,1442,1421,1396,1317,1321,1267,1268,1221,1205,1196,1162,1136,1125,1102,1081,1055,1042,1021,1017,993,1007,1009,1012,1011,1027,1047,1027,1047,1019,1028,1017,1022,1037,1026,1026,1037,1036,1053,1042,1042,1030,1040,1044,1049,1039,1046,1023,1049,1047,1786,1877,1994,2205,2291,2507,2545,2742,2815,2798,2849,2840,2708,2724,2648,2611,2522,2638,2465,2441,2390,2268,2301,2211,2206,2146,2077,2029,1995,1947,1931,1936,1854,1829,1895,1775,1883,1828,2109,2124,2149,2179,2156,2167,2180,2218,2215,2218,2253,2226,2278,2272,2253,2280,2333,2321,2306,2316,2362,2324,2344,2358,2439,2376,2364,682,680,674,667,723,761,822,958,1021,1058,1046,1046,1034,1013,1013,1000,974,963,947,905,918,871,854,816,814,831,782,770,787,768,753,737,711,704,693,686,688,690,687,684,687,697,700,692,695,692,699,700,702,707,746,762,782,735,712,710,705,725,707,692,716,692,702,707,690,1684,1748,1778,1969,2152,2319,2492,2653,2619,2680,2663,2663,2518,2558,2511,2414,2411,2422,2315,2292,2234,2181,2121,2086,2048,2004,1982,1948,1886,1868,1848,1770,1777,1742,1732,1687,1714,1737,1911,1912,1912,1976,1924,1930,1919,1963,1957,2035,1920,1937,1947,1933,1986,1925,1949,1947,1961,1945,1933,1945,1958,1958,1950,1950,1941,336,337,352,351,340,360,423,472,521,565,576,567,558,549,520,531,522,494,503,494,485,476,467,458,449,440,431,422,413,404,395,372,376,367,358,354,354,355,340,340,342,345,341,347,343,362,345,346,341,343,345,342,345,347,340,351,343,341,343,342,343,345,347,347,342,807,809,812,815,861,950,1071,1191,1269,1320,1319,1299,1278,1234,1254,1217,1197,1176,1149,1136,1115,1095,1072,1054,1034,975,993,934,940,932,898,853,844,813,822,819,821,858,844,808,810,814,822,815,821,831,816,821,818,818,823,825,832,831,839,829,838,832,829,821,832,837,838,840,840,1204,1215,1201,1252,1366,1503,1596,1775,1810,1876,1835,1811,1817,1750,1733,1716,1706,1703,1622,1599,1591,1515,1540,1457,1500,1420,1429,1348,1340,1326,1306,1292,1257,1204,1187,1189,1201,1273,1234,1262,1268,1273,1282,1262,1268,1300,1266,1261,1291,1249,1274,1273,1287,1291,1451,1402,1309,1276,1280,1273,1260,1258,1274,1326,1253,0,0,0,0,0,0,0,0,0,0,0,0,0,0,0,0,0,0,0,0,0,0,0,0,0,0,0,0,0,0,0,0,0,0,0,0,0,0,0,0,0,0,0,0,0,0,0,0,0,0,0,0,0,0,0,0,0,0,0,0,0,0,0,0,0,552,577,553,557,562,585,694,778,847,866,921,872,831,818,804,791,806,797,792,781,722,749,698,720,709,690,677,662,647,633,621,604,565,575,562,558,559,539,549,544,544,548,553,553,554,547,557,556,556,553,565,560,562,553,553,562,560,567,552,560,563,561,559,555,550,0,0,0,0,0,0,0,0,0,0,0,0,0,0,0,0,0,0,0,0,0,0,0,0,0,0,0,0,0,0,0,0,0,0,0,0,0,0,0,0,0,0,0,0,0,0,0,0,0,0,0,0,0,0,0,0,0,0,0,0,0,0,0,0,0,582,556,567,568,563,578,651,762,837,856,862,866,868,808,795,782,784,788,775,747,716,735,690,710,698,683,670,661,643,630,622,598,559,586,619,562,636,532,557,559,567,583,575,579,578,592,579,575,593,583,605,605,606,600,572,572,585,584,584,570,580,586,572,584,575,374,375,376,379,378,405,459,516,570,617,627,619,607,599,586,576,667,556,546,536,526,516,506,496,486,473,463,453,443,434,424,413,406,394,386,380,383,383,371,374,374,383,384,381,385,397,381,385,388,400,386,392,388,403,383,379,391,394,388,387,388,389,385,385,385,1228,1236,1179,1240,1333,1526,1697,1861,1956,1848,1943,1976,1918,1876,1869,1757,1755,1758,1763,1640,1670,1564,1586,1558,1513,1469,1440,1437,1401,1321,1291,1289,1299,1259,1210,1250,1224,1266,1300,1284,1281,1285,1300,1337,1322,1336,1315,1329,1345,1337,1344,1345,1340,1368,1371,1323,1337,1351,1353,1380,1350,1355,1375,1425,1357,136,137,137,137,138,141,160,178,197,215,228,224,220,217,213,210,206,202,199,195,192,188,184,181,177,174,170,166,163,159,156,152,148,145,141,138,139,139,127,125,126,127,127,126,127,127,125,128,128,127,127,128,127,126,127,128,129,129,128,127,129,129,128,128,128,1063,1070,1077,1163,1229,1330,1500,1677,1697,1713,1764,1735,1733,1703,1688,1596,1603,1531,1524,1478,1460,1436,1567,1465,1341,1335,1294,1266,1219,1279,1208,1173,1123,1114,1147,1094,1082,1130,1129,1130,1145,1152,1151,1190,1143,1164,1162,1162,1187,1159,1165,1172,1168,1175,1160,1164,1157,1173,1158,1169,1167,1184,1167,1179,1182,692,730,706,699,720,794,916,1002,1117,1168,1130,1126,1114,1065,1077,1041,1024,1067,988,982,952,934,928,898,881,863,845,827,809,791,783,756,747,720,706,703,719,707,698,695,698,725,700,712,699,707,699,692,713,706,749,759,758,718,703,715,712,715,717,703,712,720,695,716,708,1057,1037,1063,1086,1157,1283,1448,1581,1762,1725,1777,1649,1663,1636,1610,1576,1516,1529,1463,1476,1410,1422,1396,1359,1303,1315,1289,1262,1197,1195,1182,1117,1114,1092,1133,1072,1075,1055,1095,1074,1076,1083,1104,1120,1100,1108,1106,1130,1133,1108,1129,1103,1107,1135,1136,1111,1128,1127,1118,1147,1138,1138,1158,1167,1159,678,662,645,638,712,727,822,912,999,1045,1048,1027,1045,998,969,981,962,981,954,941,882,866,866,833,816,796,783,786,750,742,714,714,762,665,667,650,652,654,654,644,657,683,663,677,646,670,652,649,660,669,652,663,674,694,679,687,660,676,672,678,687,687,680,698,679,552,577,553,557,562,585,694,778,847,866,921,872,831,818,804,791,806,797,792,781,722,749,698,720,709,690,677,662,647,633,621,604,565,575,562,558,559,539,549,544,544,548,553,553,554,547,557,556,556,553,565,560,562,553,553,562,560,567,552,560,563,561,559,555,550,257,257,258,259,260,272,308,344,380,415,428,422,422,415,401,401,387,378,374,367,360,353,347,340,333,332,317,313,306,299,292,285,276,272,265,261,261,262,249,248,251,262,253,251,254,261,253,251,253,250,259,259,265,261,257,256,251,265,257,248,255,266,259,261,255,580,582,603,587,626,672,739,807,870,924,927,900,886,912,925,895,842,855,814,800,786,771,757,756,729,723,693,698,684,680,636,622,633,604,591,570,589,588,579,587,587,601,606,598,600,621,605,607,613,625,632,605,621,653,603,598,611,610,606,606,608,610,607,610,607,0,0,0,0,0,0,0,0,0,0,0,0,0,0,0,0,0,0,0,0,0,0,0,0,0,0,0,0,0,0,0,0,0,0,0,0,0,0,0,0,0,0,0,0,0,0,0,0,0,0,0,0,0,0,0,0,0,0,0,0,0,0,0,0,0,935,925,948,938,1042,1131,1254,1377,1499,1478,1512,1462,1413,1444,1449,1404,1330,1339,1291,1266,1250,1223,1193,1193,1176,1135,1099,1099,1073,1049,1022,1006,1009,952,938,917,941,940,960,966,951,961,943,968,953,958,986,1030,962,977,978,975,970,997,998,970,959,958,968,978,966,976,981,975,965,1820,1753,1874,1998,2147,2545,2654,2752,2757,2755,2828,2732,2599,2678,2653,2590,2449,2433,2372,2441,2277,2314,2212,2216,2125,2149,2029,2004,2086,1902,1851,1857,1856,1762,1804,1791,1766,1796,2075,2063,2078,2108,2075,2095,2085,2113,2114,2182,2106,2108,2133,2154,2156,2162,2165,2133,2092,2125,2118,2117,2100,2138,2144,2157,2110,619,621,643,627,650,699,794,841,934,959,988,960,945,945,957,913,898,885,868,853,815,800,807,784,777,770,740,744,709,705,679,663,674,627,614,593,618,628,606,599,607,615,611,619,615,619,610,630,622,610,615,606,609,618,616,615,618,606,605,611,615,619,618,638,618,1642,1625,1756,1849,2038,2287,2387,2538,2664,2631,2582,2561,2461,2572,2422,2365,2301,2277,2208,2195,2206,2129,2053,2082,2076,1967,1946,1942,1876,1788,1772,1691,1689,1686,1656,1647,1685,1728,1872,1866,1835,1855,1863,1910,1873,1891,1904,1975,1893,1931,1919,1934,1909,1965,1937,1900,1892,1893,1909,1934,1930,1961,1924,1934,1886,603,580,581,583,605,649,734,822,902,937,941,935,920,905,892,872,860,845,812,797,783,785,770,756,741,726,760,719,679,664,651,634,619,605,578,599,587,597,590,593,588,599,601,600,596,611,588,598,594,594,592,602,603,602,598,600,600,596,610,610,593,602,593,600,596,963,994,974,1017,1034,1129,1301,1524,1446,1484,1482,1461,1490,1418,1544,1368,1355,1334,1360,1291,1270,1288,1228,1206,1178,1215,1143,1121,1152,1073,1058,1037,1015,997,1012,981,1003,1048,1040,1008,1008,1020,1001,1020,1019,1016,1043,1087,1020,1036,1088,1036,1037,1092,1049,1034,1024,1028,1072,1131,1149,1174,1175,1062,1058,1156,1136,1160,1166,1246,1397,1553,1716,1732,1780,1769,1779,1751,1660,1647,1656,1688,1585,1600,1522,1538,1489,1509,1459,1406,1491,1345,1357,1257,1246,1219,1259,1211,1194,1153,1115,1149,1123,1177,1214,1180,1185,1207,1195,1190,1203,1197,1208,1216,1198,1212,1202,1214,1225,1221,1229,1208,1221,1246,1215,1234,1233,1253,1237,1220,257,257,258,259,260,272,308,344,380,415,428,422,422,415,401,401,387,378,374,367,360,353,347,340,333,332,317,313,306,299,292,285,276,272,265,261,261,262,249,248,251,262,253,251,254,261,253,251,253,250,259,259,265,261,257,256,251,265,257,248,255,266,259,261,255,892,888,884,913,966,1077,1167,1338,1409,1452,1437,1477,1367,1372,1344,1304,1326,1295,1234,1226,1245,1201,1180,1121,1137,1089,1074,1040,1046,993,1008,979,950,925,890,887,921,938,921,925,922,955,943,936,945,958,935,958,960,954,950,947,946,952,951,945,940,944,938,935,930,944,936,942,919,344,345,346,347,348,371,420,470,519,568,575,630,556,547,538,532,522,510,501,492,483,474,464,455,446,437,428,418,409,402,391,382,372,363,354,349,350,351,342,343,341,345,341,347,345,346,347,342,348,341,343,342,343,346,347,348,345,346,347,349,343,356,346,353,348,922,879,877,919,958,1116,1157,1338,1406,1442,1428,1468,1358,1418,1335,1295,1364,1271,1226,1255,1234,1193,1211,1116,1129,1166,1060,1052,1039,990,1002,1007,945,939,883,880,961,931,919,919,937,1028,939,920,942,970,948,930,940,934,937,929,942,940,959,944,935,930,942,951,927,953,934,943,946,0,0,0,0,0,0,0,0,0,0,0,0,0,0,0,0,0,0,0,0,0,0,0,0,0,0,0,0,0,0,0,0,0,0,0,0,0,0,0,0,0,0,0,0,0,0,0,0,0,0,0,0,0,0,0,0,0,0,0,0,0,0,0,0,0,893,829,831,835,876,1065,1120,1281,1436,1349,1348,1390,1306,1387,1263,1300,1220,1203,1177,1155,1187,1165,1184,1070,1137,1027,1005,1021,994,941,919,898,874,853,842,903,882,884,855,896,854,851,878,866,864,879,871,885,899,871,874,881,890,897,888,907,886,892,906,882,904,906,927,896,884,372,373,374,375,376,402,456,509,562,612,619,673,599,589,579,572,562,550,603,592,520,510,500,491,481,471,461,451,441,434,422,412,402,392,382,378,379,380,381,372,372,381,369,393,377,376,379,380,395,386,386,378,384,403,408,383,376,393,377,387,383,374,387,400,383,759,792,764,797,784,950,968,1165,1169,1284,1242,1212,1185,1202,1188,1145,1140,1148,1084,1124,1029,1110,981,961,942,932,912,975,915,854,853,833,805,766,780,776,773,755,772,764,776,795,782,784,776,784,784,789,790,778,792,823,841,825,821,792,774,801,785,778,770,805,787,810,779,1009,1019,1028,1040,1114,1280,1410,1567,1653,1659,1699,1718,1641,1583,1569,1559,1482,1512,1428,1414,1394,1356,1370,1317,1356,1289,1224,1202,1203,1149,1162,1125,1073,1070,1044,1033,1039,1056,1057,1027,1032,1038,1060,1027,1036,1040,1039,1059,1063,1060,1057,1184,1062,1052,1184,1066,1062,1067,1068,1063,1068,1066,1085,1084,1090,1300,1304,1314,1401,1581,1836,2032,2177,2255,2307,2276,2262,2181,2140,2099,2057,2054,1975,1933,1892,1893,1809,1768,1727,1685,1644,1628,1612,1520,1479,1488,1428,1365,1334,1326,1327,1335,1365,1382,1392,1422,1445,1455,1435,1428,1432,1419,1428,1410,1396,1412,1420,1415,1415,1443,1433,1405,1406,1418,1414,1410,1418,1438,1441,1410,704,699,727,730,757,777,932,1038,1129,1106,1169,1181,1132,1207,1137,1054,1109,988,1051,1005,1026,1020,951,933,914,913,875,857,827,891,810,808,756,735,777,682,692,760,715,755,745,728,729,747,737,740,733,767,748,753,766,738,746,736,764,749,738,756,846,779,772,746,768,744,752,892,888,884,913,966,1077,1167,1338,1409,1452,1437,1477,1367,1372,1344,1304,1326,1295,1234,1226,1245,1201,1180,1121,1137,1089,1074,1040,1046,993,1008,979,950,925,890,887,921,938,921,925,922,955,943,936,945,958,935,958,960,954,950,947,946,952,951,945,940,944,938,935,930,944,936,942,919,1766,1810,1883,2029,2230,2441,2676,2749,2807,2822,2764,2732,2663,2634,2618,2502,2488,2438,2398,2357,2346,2305,2311,2201,2162,2120,2118,1977,2008,1971,1903,1832,1834,1792,1780,1798,1777,1809,2083,2122,2087,2102,2107,2123,2111,2121,2118,2123,2145,2116,2125,2114,2133,2144,2141,2157,2154,2156,2174,2123,2146,2149,2178,2149,2130,1229,1255,1244,1281,1374,1574,1792,1912,1976,1997,1993,1960,1902,1878,1871,1823,1770,1745,1705,1660,1642,1657,1746,1572,1523,1527,1494,1414,1392,1384,1363,1330,1268,1241,1241,1233,1257,1242,1284,1279,1296,1317,1309,1322,1307,1340,1322,1321,1334,1313,1320,1349,1369,1365,1337,1327,1312,1326,1314,1307,1302,1329,1311,1337,1300,1798,1803,1888,2040,2217,2407,2627,2736,2797,2813,2729,2709,2654,2643,2638,2494,2479,2458,2390,2403,2338,2300,2323,2232,2155,2132,2111,1979,1994,1956,1911,1825,1866,1852,1774,1812,1821,1797,2093,2088,2093,2113,2139,2145,2139,2153,2136,2163,2183,2157,2169,2155,2169,2199,2190,2172,2172,2188,2187,2207,2192,2183,2208,2229,2224,874,877,899,886,934,1040,1260,1352,1428,1462,1549,1434,1382,1374,1336,1341,1291,1272,1245,1200,1200,1216,1219,1171,1171,1147,1100,1154,1017,1050,1005,968,926,934,891,887,890,892,912,911,909,958,947,922,930,946,928,954,988,944,948,944,939,942,936,938,929,929,924,921,919,934,930,935,905,0,0,0,0,0,0,0,0,0,0,0,0,0,0,0,0,0,0,0,0,0,0,0,0,0,0,0,0,0,0,0,0,0,0,0,0,0,0,0,0,0,0,0,0,0,0,0,0,0,0,0,0,0,0,0,0,0,0,0,0,0,0,0,0,0,1257,1283,1274,1314,1412,1616,1885,1963,2018,2039,2034,2000,1942,1917,1910,1858,1807,1782,1741,1696,1678,1691,1680,1605,1555,1559,1525,1471,1423,1413,1392,1355,1296,1270,1269,1261,1295,1271,1319,1311,1306,1326,1436,1414,1359,1394,1355,1455,1415,1419,1405,1364,1373,1410,1413,1365,1434,1410,1388,1433,1399,1460,1435,1465,1402,197,198,198,199,199,206,233,259,286,313,327,322,317,311,306,301,296,291,286,281,276,270,265,260,255,250,245,240,235,229,224,219,214,209,204,200,201,201,188,196,188,194,195,193,193,194,190,190,190,192,189,188,189,190,190,192,190,190,190,193,188,196,189,192,189,1921,2026,2081,2234,2460,2691,2853,2978,2994,3028,2969,2933,2867,2891,2864,2724,2699,2621,2586,2533,2518,2524,2472,2353,2286,2285,2267,2118,2128,2103,2048,2094,1980,1938,1949,1946,1910,1966,2277,2269,2278,2306,2385,2379,2340,2363,2363,2389,2451,2445,2460,2507,2479,2482,2511,2513,2538,2571,2607,2554,2563,2605,2647,2643,2615,1631,1633,1700,1880,2240,2562,2863,2987,3066,3049,3079,2923,2898,2801,2788,2680,2638,2565,2502,2436,2393,2331,2253,2209,2148,2070,2016,1964,1888,1827,1772,1707,1676,1632,1633,1671,1720,1713,1881,1873,1878,1918,1945,1937,1910,1902,1933,1975,1939,1972,2000,1995,1962,1948,1966,1958,1943,1930,1970,2016,1954,1961,1969,1958,1932,1336,1348,1380,1442,1560,1762,1957,2101,2158,2168,2157,2160,2093,2061,2022,1989,1960,1929,1903,1857,1817,1787,1759,1724,1679,1709,1607,1595,1548,1506,1478,1430,1406,1394,1380,1366,1382,1427,1434,1442,1455,1547,1464,1478,1450,1473,1460,1481,1478,1460,1465,1468,1466,1495,1501,1482,1458,1459,1479,1483,1475,1467,1465,1489,1453,1766,1810,1883,2029,2230,2441,2676,2749,2807,2822,2764,2732,2663,2634,2618,2502,2488,2438,2398,2357,2346,2305,2311,2201,2162,2120,2118,1977,2008,1971,1903,1832,1834,1792,1780,1798,1777,1809,2083,2122,2087,2102,2107,2123,2111,2121,2118,2123,2145,2116,2125,2114,2133,2144,2141,2157,2154,2156,2174,2123,2146,2149,2178,2149,2130,615,614,616,620,606,693,781,828,980,1006,1013,969,953,940,926,884,898,854,840,864,842,832,813,799,748,790,749,735,688,703,687,718,655,638,625,599,626,624,616,618,616,622,689,664,661,671,638,706,668,683,662,633,638,663,647,638,680,651,633,663,652,691,668,678,649,62,62,62,62,63,63,72,80,89,97,105,103,101,100,98,96,95,93,91,90,88,86,84,83,81,79,78,76,74,73,71,69,68,66,64,63,63,63,40,40,40,41,41,40,41,41,41,41,43,43,57,55,57,44,40,40,42,42,41,40,43,40,40,40,41,618,619,635,625,599,733,760,821,937,980,963,960,931,931,917,875,876,846,831,861,833,819,805,791,742,767,749,735,683,701,703,718,664,650,602,593,636,682,632,634,648,744,651,630,641,671,653,638,698,691,651,655,710,708,679,629,647,644,666,656,637,649,641,636,632,326,327,328,329,330,350,396,443,489,534,543,535,526,517,509,500,491,483,474,465,457,448,439,431,422,410,405,396,387,379,370,360,353,344,335,331,332,333,320,317,324,334,331,325,322,322,327,335,342,337,386,426,484,376,350,333,325,332,324,327,319,328,328,337,325,1135,1210,1142,1165,1305,1466,1602,1789,1858,1843,1891,1798,1833,1749,1769,1707,1677,1623,1589,1640,1617,1497,1481,1499,1473,1460,1403,1456,1386,1311,1237,1220,1183,1171,1163,1175,1191,1167,1210,1215,1205,1234,1206,1229,1202,1229,1237,1321,1202,1221,1223,1219,1259,1202,1227,1230,1238,1223,1205,1215,1238,1227,1221,1220,1207,0,0,0,0,0,0,0,0,0,0,0,0,0,0,0,0,0,0,0,0,0,0,0,0,0,0,0,0,0,0,0,0,0,0,0,0,0,0,0,0,0,0,0,0,0,0,0,0,0,0,0,0,0,0,0,0,0,0,0,0,0,0,0,0,0,1056,1141,1025,1132,1225,1250,1471,1602,1737,1658,1769,1683,1753,1624,1594,1607,1575,1477,1530,1470,1415,1440,1440,1309,1282,1265,1230,1259,1253,1170,1164,1112,1090,1155,1067,1045,1071,1112,1111,1116,1107,1193,1157,1158,1143,1131,1145,1174,1142,1164,1159,1158,1119,1135,1137,1160,1161,1126,1152,1189,1151,1139,1156,1131,1133,755,757,746,762,792,876,991,1106,1249,1232,1231,1212,1249,1172,1153,1133,1114,1094,1075,1055,1037,1017,997,978,958,998,919,900,878,861,841,894,789,783,770,766,768,770,772,768,777,797,794,793,786,798,791,799,801,798,798,833,851,841,827,794,791,806,794,789,779,806,787,810,779,1096,1182,1129,1154,1256,1376,1553,1688,1782,1824,1814,1847,1752,1729,1701,1666,1644,1616,1588,1559,1531,1464,1474,1446,1418,1389,1349,1333,1292,1263,1249,1212,1176,1131,1137,1138,1116,1119,1156,1168,1164,1169,1190,1158,1175,1207,1184,1175,1207,1184,1275,1264,1289,1234,1346,1295,1227,1203,1181,1183,1193,1168,1183,1214,1165,634,592,594,643,606,653,749,831,905,963,967,938,923,917,906,886,863,886,845,845,803,883,824,828,771,762,723,708,705,674,707,695,643,616,614,599,598,619,606,614,618,640,629,618,621,633,615,633,633,642,684,671,699,677,628,623,636,629,632,618,630,638,624,631,623,615,614,616,620,606,693,781,828,980,1006,1013,969,953,940,926,884,898,854,840,864,842,832,813,799,748,790,749,735,688,703,687,718,655,638,625,599,626,624,616,618,616,622,689,664,661,671,638,706,668,683,662,633,638,663,647,638,680,651,633,663,652,691,668,678,649,1649,1734,1789,1915,2021,2403,2565,2598,2650,2689,2600,2669,2585,2582,2466,2472,2416,2354,2325,2288,2309,2211,2159,2115,2068,2053,1987,1935,1955,1865,1819,1761,1720,1702,1677,1682,1681,1761,1866,1927,1878,1904,1920,1915,1907,1933,1914,1925,1928,1903,1919,1932,1942,1942,1953,1955,1948,1945,1971,1946,1955,1971,1989,1981,1971,1103,1140,1170,1181,1245,1465,1627,1719,1830,1865,1809,1807,1785,1768,1725,1709,1666,1637,1596,1590,1562,1520,1519,1451,1424,1412,1402,1319,1380,1297,1262,1224,1182,1160,1138,1141,1138,1208,1181,1190,1203,1225,1214,1218,1205,1220,1199,1206,1218,1204,1197,1219,1216,1241,1275,1266,1215,1218,1222,1210,1204,1202,1218,1231,1206,1676,1689,1798,1842,2019,2228,2483,2566,2659,2631,2610,2599,2543,2480,2421,2424,2381,2383,2317,2248,2222,2193,2135,2108,2087,2070,1980,1928,1949,1846,1821,1760,1782,1741,1670,1675,1674,1747,1893,1938,1900,1912,1932,1924,1930,1932,1931,1932,1948,1930,1953,1932,1945,1961,1960,1966,1956,1956,1994,1947,1976,1983,2003,1968,1952,763,801,814,806,820,964,1075,1148,1271,1309,1277,1257,1285,1264,1256,1222,1213,1195,1114,1137,1073,1105,1072,1014,994,997,1018,923,1003,917,897,859,857,818,794,791,793,839,814,814,817,830,823,816,830,824,825,821,836,830,822,828,838,832,835,832,825,837,844,825,827,832,831,821,818,170,170,171,172,172,177,201,224,248,271,285,280,276,271,267,262,258,253,249,244,240,235,230,226,221,217,212,208,203,199,194,190,185,181,176,173,173,174,167,164,165,163,164,164,175,177,163,173,175,164,163,174,174,179,177,181,173,180,184,174,173,170,163,164,163,1131,1168,1199,1213,1281,1507,1671,1835,1873,1907,1850,1848,1825,1808,1764,1747,1703,1674,1632,1626,1598,1555,1589,1485,1457,1444,1434,1350,1409,1352,1291,1253,1210,1189,1166,1169,1167,1270,1252,1265,1233,1251,1241,1289,1252,1275,1284,1348,1264,1307,1298,1304,1279,1351,1310,1262,1262,1257,1292,1321,1309,1340,1317,1321,1291,0,0,0,0,0,0,0,0,0,0,0,0,0,0,0,0,0,0,0,0,0,0,0,0,0,0,0,0,0,0,0,0,0,0,0,0,0,0,0,0,0,0,0,0,0,0,0,0,0,0,0,0,0,0,0,0,0,0,0,0,0,0,0,0,0,1795,1894,1945,2066,2256,2629,2776,2767,2881,2943,2863,3021,2784,2765,2686,2637,2621,2539,2510,2467,2475,2394,2345,2278,2230,2181,2137,2124,2095,2012,1963,1927,1865,1870,1845,1829,1842,1881,2154,2164,2198,2211,2224,2211,2233,2260,2256,2277,2303,2299,2336,2305,2293,2321,2375,2363,2341,2352,2414,2407,2427,2452,2438,2421,2425,1625,1698,1728,1917,2241,2628,2892,3059,3086,3201,3052,2977,2928,2901,2785,2757,2680,2607,2556,2494,2419,2370,2291,2230,2174,2193,2045,1983,1975,1866,1812,1760,1704,1682,1662,1700,1709,1723,1863,1937,1885,1900,1923,1893,1909,1950,1912,1915,1947,1887,1920,1917,1940,1942,1972,1993,1965,1932,1949,1907,1923,1931,1964,1972,1917,1324,1321,1333,1403,1534,1709,1906,2029,2141,2098,2119,2092,2056,2037,1969,1987,1948,1909,1869,1852,1808,1754,1716,1690,1653,1618,1588,1621,1525,1479,1459,1428,1366,1363,1352,1372,1360,1365,1395,1399,1411,1434,1420,1427,1413,1420,1409,1407,1425,1415,1445,1458,1453,1443,1424,1435,1435,1442,1442,1420,1444,1444,1413,1429,1425,1649,1734,1789,1915,2021,2403,2565,2598,2650,2689,2600,2669,2585,2582,2466,2472,2416,2354,2325,2288,2309,2211,2159,2115,2068,2053,1987,1935,1955,1865,1819,1761,1720,1702,1677,1682,1681,1761,1866,1927,1878,1904,1920,1915,1907,1933,1914,1925,1928,1903,1919,1932,1942,1942,1953,1955,1948,1945,1971,1946,1955,1971,1989,1981,1971,434,435,436,438,440,476,516,589,628,700,682,672,661,674,641,651,620,610,599,589,579,567,572,548,538,528,517,507,514,503,491,470,467,448,446,440,441,443,433,430,438,458,446,435,437,445,444,446,456,457,476,493,484,472,452,442,439,455,445,433,435,449,442,453,441,692,695,697,699,745,833,857,1117,1037,1075,1076,1060,1083,1026,1009,1069,976,959,942,952,909,928,927,894,842,826,832,838,775,759,742,760,709,692,705,702,704,706,708,700,695,701,708,705,708,700,710,706,708,702,718,709,714,706,707,715,709,717,701,709,715,718,708,706,702,501,506,504,509,515,558,619,698,759,798,838,793,801,768,762,749,731,723,707,701,684,672,659,658,643,620,633,607,594,578,568,555,542,529,531,512,514,515,511,513,515,530,524,517,525,539,519,522,527,539,556,555,554,553,517,516,526,532,526,523,526,530,523,525,523,1032,1038,1039,1060,1161,1305,1379,1554,1593,1624,1617,1591,1610,1541,1516,1564,1467,1436,1411,1414,1363,1375,1359,1319,1265,1230,1234,1230,1163,1135,1103,1118,1059,1038,1058,1049,1050,1080,1061,1060,1057,1074,1076,1098,1080,1088,1084,1092,1111,1100,1092,1089,1103,1115,1106,1101,1096,1112,1100,1113,1115,1116,1101,1131,1127,1905,1883,1957,2212,2379,2737,2733,2911,2901,2974,2897,2906,2858,2829,2648,2767,2692,2580,2538,2495,2435,2411,2456,2340,2265,2212,2176,2113,2043,1989,1928,2027,1919,2018,1949,1917,1877,1897,2230,2234,2267,2285,2312,2306,2325,2347,2333,2377,2389,2421,2459,2422,2397,2450,2485,2458,2436,2477,2545,2567,2570,2618,2608,2577,2578,732,717,736,738,790,884,913,1015,1100,1137,1137,1093,1117,1084,1042,1125,1007,1014,996,1004,961,956,977,943,890,873,878,883,801,802,784,783,749,731,728,742,744,746,728,728,732,748,733,741,733,751,740,736,749,731,735,739,736,741,738,743,739,746,744,741,739,751,736,748,739,1737,1763,1819,1960,2302,2536,2577,2704,2779,2765,2723,2634,2662,2596,2588,2546,2434,2400,2430,2352,2254,2249,2249,2204,2076,2089,2059,1984,1921,1944,1904,1871,1847,1772,1797,1771,1766,1828,2081,2110,2083,2103,2103,2106,2108,2122,2113,2125,2160,2123,2129,2114,2133,2147,2144,2150,2155,2140,2183,2144,2161,2167,2228,2149,2125,0,0,0,0,0,0,0,0,0,0,0,0,0,0,0,0,0,0,0,0,0,0,0,0,0,0,0,0,0,0,0,0,0,0,0,0,0,0,0,0,0,0,0,0,0,0,0,0,0,0,0,0,0,0,0,0,0,0,0,0,0,0,0,0,0,548,572,574,553,622,635,727,807,885,930,941,927,912,898,884,869,855,841,819,812,797,783,769,745,701,687,711,697,683,668,641,640,625,597,584,579,581,559,575,575,582,591,586,592,596,605,594,592,601,591,598,594,596,600,585,584,593,593,596,579,588,598,584,595,590,1233,1232,1240,1288,1454,1576,1768,1860,1933,1976,1883,1853,1864,1851,1842,1785,1729,1704,1697,1695,1671,1596,1553,1533,1497,1466,1430,1403,1376,1410,1333,1301,1255,1234,1213,1238,1271,1272,1327,1321,1309,1336,1349,1359,1343,1337,1360,1396,1355,1383,1438,1386,1333,1364,1376,1378,1374,1351,1430,1496,1470,1473,1481,1401,1403,434,435,436,438,440,476,516,589,628,700,682,672,661,674,641,651,620,610,599,589,579,567,572,548,538,528,517,507,514,503,491,470,467,448,446,440,441,443,433,430,438,458,446,435,437,445,444,446,456,457,476,493,484,472,452,442,439,455,445,433,435,449,442,453,441,947,928,924,924,985,1072,1227,1362,1492,1548,1484,1522,1436,1401,1446,1436,1341,1307,1283,1260,1247,1223,1199,1166,1152,1188,1104,1081,1057,1033,1010,978,954,940,926,915,918,920,923,919,917,944,908,955,928,942,940,939,961,937,944,929,940,961,968,938,938,953,940,943,945,943,948,977,953,1125,1128,1151,1181,1295,1405,1618,1723,1821,1827,1896,1804,1775,1766,1743,1687,1658,1628,1623,1570,1540,1511,1482,1476,1423,1420,1364,1335,1326,1276,1247,1217,1189,1167,1154,1142,1145,1190,1181,1176,1192,1222,1195,1199,1191,1216,1204,1204,1205,1191,1208,1231,1254,1238,1223,1220,1189,1215,1198,1192,1189,1222,1206,1225,1192,1008,1043,983,998,1059,1180,1337,1525,1652,1685,1590,1616,1591,1514,1556,1513,1438,1412,1438,1506,1373,1340,1285,1260,1234,1252,1226,1158,1166,1107,1106,1162,1031,1009,1018,992,994,997,1017,1022,1008,1049,1030,1036,1032,1047,1038,1027,1026,1042,1035,1026,1022,1024,1034,1036,1031,1031,1019,1026,1028,1043,1044,1044,1022,1342,1368,1371,1427,1607,1900,2034,2182,2361,2270,2285,2225,2185,2226,2095,2104,2061,2091,1992,1900,1861,1822,1784,1889,1706,1758,1638,1614,1584,1545,1516,1473,1399,1416,1396,1358,1364,1370,1467,1435,1440,1456,1436,1476,1447,1470,1482,1498,1482,1466,1474,1476,1493,1504,1504,1481,1482,1483,1481,1482,1486,1491,1476,1506,1487,1663,1711,1725,1908,2256,2669,2953,3078,3129,3123,3042,3002,2962,2883,2798,2745,2757,2670,2566,2518,2439,2382,2304,2268,2195,2152,2103,2014,1951,1877,1842,1794,1769,1696,1764,1690,1702,1711,1957,1919,1935,1966,1933,1945,1952,1948,1975,2035,1965,1968,2060,2003,2015,2058,2009,1983,1952,1978,2014,2067,2077,2130,2111,2023,1989,1147,1168,1174,1207,1325,1463,1681,1757,1882,1887,1914,1862,1832,1798,1774,1741,1711,1681,1653,1620,1590,1560,1509,1523,1469,1465,1390,1379,1368,1300,1270,1241,1228,1206,1194,1164,1185,1221,1248,1236,1235,1239,1239,1249,1311,1311,1246,1274,1264,1245,1245,1294,1305,1323,1318,1325,1299,1318,1319,1297,1279,1285,1261,1267,1258,1625,1644,1691,1837,2137,2508,2802,2954,3021,3014,2979,2920,2862,2795,2756,2715,2627,2528,2572,2480,2392,2333,2268,2209,2157,2099,2076,1985,1926,1864,1832,1742,1696,1666,1710,1658,1705,1698,1854,1847,1846,1868,1923,1922,1903,1935,1901,1949,1958,1947,1988,1947,1949,1969,1955,1912,1957,1938,1931,1960,1950,1964,1976,2010,1979,614,616,618,620,630,716,810,904,992,983,1005,989,1012,995,943,928,912,929,881,866,851,835,846,829,789,773,758,763,727,712,696,697,680,650,637,623,625,659,629,628,621,630,629,654,629,638,644,702,632,633,625,633,638,617,633,637,632,639,625,628,639,638,629,637,629,0,0,0,0,0,0,0,0,0,0,0,0,0,0,0,0,0,0,0,0,0,0,0,0,0,0,0,0,0,0,0,0,0,0,0,0,0,0,0,0,0,0,0,0,0,0,0,0,0,0,0,0,0,0,0,0,0,0,0,0,0,0,0,0,0,1118,1086,1089,1137,1200,1375,1588,1748,1840,1865,1883,1850,1864,1755,1751,1690,1658,1626,1701,1561,1528,1496,1463,1493,1469,1435,1333,1359,1312,1257,1203,1191,1158,1111,1121,1157,1101,1161,1161,1173,1130,1133,1169,1153,1156,1162,1164,1162,1212,1166,1173,1192,1185,1182,1170,1195,1195,1199,1233,1188,1183,1198,1242,1185,1174,947,928,924,924,985,1072,1227,1362,1492,1548,1484,1522,1436,1401,1446,1436,1341,1307,1283,1260,1247,1223,1199,1166,1152,1188,1104,1081,1057,1033,1010,978,954,940,926,915,918,920,923,919,917,944,908,955,928,942,940,939,961,937,944,929,940,961,968,938,938,953,940,943,945,943,948,977,953,1057,1060,1038,1085,1140,1286,1505,1674,1644,1784,1730,1710,1680,1623,1669,1595,1584,1492,1522,1503,1432,1406,1386,1344,1327,1298,1269,1192,1299,1191,1136,1111,1113,1099,1075,1071,1075,1076,1093,1090,1099,1110,1092,1105,1110,1121,1112,1100,1113,1101,1107,1106,1112,1118,1118,1118,1105,1118,1123,1113,1107,1128,1108,1116,1111,568,570,572,574,584,639,724,809,891,935,941,926,911,896,914,866,851,836,852,805,790,775,760,745,730,715,700,685,670,664,640,625,610,595,604,577,579,580,577,569,583,598,587,584,580,584,592,596,598,586,596,624,645,624,618,601,582,600,587,584,577,601,591,608,583,1112,1119,1098,1155,1217,1336,1524,1694,1711,1794,1779,1756,1706,1668,1680,1664,1608,1580,1622,1494,1509,1489,1460,1392,1431,1393,1340,1253,1310,1284,1199,1199,1188,1117,1135,1103,1156,1136,1160,1173,1170,1200,1248,1225,1202,1244,1199,1268,1214,1248,1210,1190,1213,1237,1225,1208,1237,1233,1215,1223,1218,1246,1225,1220,1195,620,622,624,635,641,704,797,891,977,1019,1023,1021,991,988,958,942,925,909,905,876,860,844,827,822,795,778,772,745,729,722,696,680,664,647,634,630,632,633,638,652,648,731,683,668,655,647,656,683,663,668,677,663,641,644,657,669,649,647,668,661,660,648,671,649,645,1376,1361,1416,1429,1556,1762,1918,2069,2217,2238,2175,2116,2106,2022,1982,1954,1920,1886,1898,1799,1781,1827,1735,1683,1690,1655,1576,1548,1514,1516,1459,1438,1398,1393,1348,1390,1352,1386,1406,1459,1413,1427,1441,1434,1429,1444,1435,1436,1457,1427,1430,1451,1448,1459,1456,1472,1463,1456,1482,1445,1463,1482,1489,1466,1449,596,598,600,602,614,673,762,852,936,979,984,968,953,937,957,906,890,874,900,843,827,843,796,780,764,749,733,717,701,719,670,654,639,623,632,605,607,609,603,614,610,616,640,616,624,632,613,618,610,614,614,628,629,639,759,707,638,625,624,614,610,611,632,625,611,1317,1359,1278,1440,1450,1568,1773,1927,2136,2189,2232,2108,2090,1893,1854,1915,1882,1767,1882,1762,1756,1732,1676,1576,1614,1530,1475,1447,1511,1467,1367,1317,1307,1303,1275,1320,1272,1423,1353,1353,1359,1363,1386,1429,1378,1409,1402,1415,1427,1414,1398,1411,1401,1428,1383,1386,1407,1397,1387,1417,1405,1427,1395,1410,1410,1201,1204,1184,1253,1327,1457,1725,1889,1862,1960,1952,1899,1888,1828,1870,1755,1784,1689,1675,1693,1580,1585,1562,1500,1497,1452,1432,1349,1369,1344,1276,1258,1255,1244,1221,1189,1231,1195,1253,1246,1241,1258,1363,1348,1294,1334,1292,1398,1345,1359,1342,1296,1305,1353,1340,1294,1368,1333,1309,1374,1336,1398,1368,1396,1336,1085,1099,1091,1118,1251,1454,1694,1862,1936,1949,1951,1902,1882,1830,1790,1758,1722,1686,1650,1614,1580,1542,1508,1470,1428,1392,1362,1335,1290,1254,1212,1190,1157,1116,1118,1107,1114,1120,1142,1137,1159,1165,1172,1207,1165,1184,1181,1184,1211,1185,1190,1202,1202,1208,1179,1174,1176,1192,1179,1180,1183,1203,1180,1195,1193,0,0,0,0,0,0,0,0,0,0,0,0,0,0,0,0,0,0,0,0,0,0,0,0,0,0,0,0,0,0,0,0,0,0,0,0,0,0,0,0,0,0,0,0,0,0,0,0,0,0,0,0,0,0,0,0,0,0,0,0,0,0,0,0,0,1057,1060,1038,1085,1140,1286,1505,1674,1644,1784,1730,1710,1680,1623,1669,1595,1584,1492,1522,1503,1432,1406,1386,1344,1327,1298,1269,1192,1299,1191,1136,1111,1113,1099,1075,1071,1075,1076,1093,1090,1099,1110,1092,1105,1110,1121,1112,1100,1113,1101,1107,1106,1112,1118,1118,1118,1105,1118,1123,1113,1107,1128,1108,1116,1111,0,0,0,0,0,0,0,0,0,0,0,0,0,0,0,0,0,0,0,0,0,0,0,0,0,0,0,0,0,0,0,0,0,0,0,0,0,0,0,0,0,0,0,0,0,0,0,0,0,0,0,0,0,0,0,0,0,0,0,0,0,0,0,0,0,643,651,635,644,679,712,768,896,958,996,1012,986,975,994,981,944,943,909,893,852,866,820,817,789,787,784,767,725,742,725,710,695,670,682,670,646,665,667,662,656,652,655,653,651,656,668,656,709,657,651,659,661,670,651,667,664,657,667,651,656,660,662,654,664,662,202,202,203,203,204,212,240,268,296,324,338,332,327,321,316,311,305,300,294,289,284,278,273,268,262,257,251,246,241,235,230,225,219,214,208,205,205,206,219,184,185,185,205,204,195,187,187,193,233,200,218,218,231,208,208,196,203,239,247,222,195,201,241,227,193,983,994,1006,1006,1092,1170,1290,1461,1519,1548,1562,1563,1500,1499,1481,1442,1442,1421,1396,1317,1321,1267,1268,1221,1205,1196,1162,1136,1125,1102,1081,1055,1042,1021,1017,993,1007,1009,1012,1011,1027,1047,1027,1047,1019,1028,1017,1022,1037,1026,1026,1037,1036,1053,1042,1042,1030,1040,1044,1049,1039,1046,1023,1049,1047,1786,1877,1994,2205,2291,2507,2545,2742,2815,2798,2849,2840,2708,2724,2648,2611,2522,2638,2465,2441,2390,2268,2301,2211,2206,2146,2077,2029,1995,1947,1931,1936,1854,1829,1895,1775,1883,1828,2109,2124,2149,2179,2156,2167,2180,2218,2215,2218,2253,2226,2278,2272,2253,2280,2333,2321,2306,2316,2362,2324,2344,2358,2439,2376,2364,682,680,674,667,723,761,822,958,1021,1058,1046,1046,1034,1013,1013,1000,974,963,947,905,918,871,854,816,814,831,782,770,787,768,753,737,711,704,693,686,688,690,687,684,687,697,700,692,695,692,699,700,702,707,746,762,782,735,712,710,705,725,707,692,716,692,702,707,690,1684,1748,1778,1969,2152,2319,2492,2653,2619,2680,2663,2663,2518,2558,2511,2414,2411,2422,2315,2292,2234,2181,2121,2086,2048,2004,1982,1948,1886,1868,1848,1770,1777,1742,1732,1687,1714,1737,1911,1912,1912,1976,1924,1930,1919,1963,1957,2035,1920,1937,1947,1933,1986,1925,1949,1947,1961,1945,1933,1945,1958,1958,1950,1950,1941,336,337,352,351,340,360,423,472,521,565,576,567,558,549,520,531,522,494,503,494,485,476,467,458,449,440,431,422,413,404,395,372,376,367,358,354,354,355,340,340,342,345,341,347,343,362,345,346,341,343,345,342,345,347,340,351,343,341,343,342,343,345,347,347,342,807,809,812,815,861,950,1071,1191,1269,1320,1319,1299,1278,1234,1254,1217,1197,1176,1149,1136,1115,1095,1072,1054,1034,975,993,934,940,932,898,853,844,813,822,819,821,858,844,808,810,814,822,815,821,831,816,821,818,818,823,825,832,831,839,829,838,832,829,821,832,837,838,840,840,1204,1215,1201,1252,1366,1503,1596,1775,1810,1876,1835,1811,1817,1750,1733,1716,1706,1703,1622,1599,1591,1515,1540,1457,1500,1420,1429,1348,1340,1326,1306,1292,1257,1204,1187,1189,1201,1273,1234,1262,1268,1273,1282,1262,1268,1300,1266,1261,1291,1249,1274,1273,1287,1291,1451,1402,1309,1276,1280,1273,1260,1258,1274,1326,1253,0,0,0,0,0,0,0,0,0,0,0,0,0,0,0,0,0,0,0,0,0,0,0,0,0,0,0,0,0,0,0,0,0,0,0,0,0,0,0,0,0,0,0,0,0,0,0,0,0,0,0,0,0,0,0,0,0,0,0,0,0,0,0,0,0 ]);
