n = 10;
D = [70,186,295,62,289,149,149,268,126,149 ];
q = 0;
prec = array2d(1..0,1..2,[]);
steps = 64;
l = 360;
r = 0;
which = [];
interval = array2d(1..0,1..2,[]);
T = array3d(1..11,1..11,0..64,[0,0,0,0,0,0,0,0,0,0,0,0,0,0,0,0,0,0,0,0,0,0,0,0,0,0,0,0,0,0,0,0,0,0,0,0,0,0,0,0,0,0,0,0,0,0,0,0,0,0,0,0,0,0,0,0,0,0,0,0,0,0,0,0,0,567,570,571,572,584,834,1097,1221,1332,1379,1383,1365,1340,1321,1300,1273,1252,1234,1214,1192,1170,1149,1123,1106,1083,1058,1036,1018,992,975,925,831,607,592,581,578,577,544,537,537,539,544,570,572,575,565,556,574,571,567,568,549,552,597,566,556,574,556,547,569,562,607,568,579,558,1259,1267,1303,1406,2291,3133,3596,3684,3688,3778,3698,3646,3519,3460,3411,3364,3298,3267,3133,3007,2968,2811,2474,2232,2112,2030,1909,1830,1519,1515,1423,1370,1373,1336,1323,1332,1338,1396,1464,1420,1417,1438,1477,1505,1458,1489,1481,1506,1470,1478,1508,1463,1473,1513,1476,1462,1500,1470,1500,1510,1510,1511,1508,1501,1488,442,438,444,440,452,768,871,1010,1022,1125,1101,1116,1052,1046,1028,1011,993,1006,958,930,952,895,888,860,853,835,843,825,807,789,683,667,651,601,452,485,444,446,448,449,447,450,455,454,462,458,464,454,452,454,452,456,457,456,461,458,460,457,456,455,491,453,460,457,451,730,702,704,709,747,1283,1485,1618,1674,1783,1755,1762,1657,1623,1605,1579,1592,1587,1496,1468,1502,1413,1383,1356,1332,1302,1311,1267,1253,1109,927,926,740,723,713,743,706,705,709,706,708,708,724,719,727,727,718,738,720,723,723,717,721,733,727,723,725,721,714,724,734,725,727,731,720,499,511,516,515,516,837,931,1041,1174,1221,1226,1208,1220,1201,1179,1158,1110,1118,1098,1076,1036,1036,992,1010,990,933,913,895,908,855,867,749,531,620,533,524,505,507,509,502,504,508,520,524,514,550,512,516,516,515,517,512,513,530,523,516,514,516,508,525,519,519,522,535,521,776,761,757,757,799,1384,1593,1728,1785,1896,1868,1867,1758,1725,1700,1698,1716,1677,1585,1555,1582,1491,1468,1440,1411,1382,1407,1352,1336,1156,944,934,783,765,770,788,765,776,759,762,766,769,768,773,762,766,764,758,770,765,766,778,773,796,772,780,776,786,787,775,793,800,764,775,770,292,292,293,294,295,471,532,594,656,710,764,714,703,691,716,668,657,645,633,622,610,600,588,577,565,553,542,530,519,507,495,484,472,462,450,296,296,297,291,288,288,288,292,292,294,290,296,294,292,294,297,296,296,292,292,353,296,350,295,294,354,296,294,294,290,646,644,656,684,703,1155,1300,1461,1524,1607,1608,1582,1525,1507,1482,1478,1431,1443,1401,1375,1353,1328,1285,1258,1233,1224,1199,1172,1161,1101,950,835,755,676,660,667,659,638,641,636,637,645,655,650,656,653,649,656,655,656,660,653,651,655,658,657,653,652,647,650,644,652,653,650,637,882,879,882,903,995,1558,1851,2116,2097,2139,2188,2098,2195,2034,2001,2082,1917,1887,1854,1829,1795,1752,1714,1692,1656,1625,1580,1549,1348,1278,1044,1018,942,902,934,889,868,904,884,884,893,904,892,905,886,901,912,898,893,890,893,907,894,892,903,900,898,901,893,911,901,941,907,932,903,0,0,0,0,0,0,0,0,0,0,0,0,0,0,0,0,0,0,0,0,0,0,0,0,0,0,0,0,0,0,0,0,0,0,0,0,0,0,0,0,0,0,0,0,0,0,0,0,0,0,0,0,0,0,0,0,0,0,0,0,0,0,0,0,0,435,436,438,439,444,590,817,909,1001,1062,1071,1053,1036,1020,1025,1008,991,973,957,940,923,907,889,852,835,818,801,784,768,751,645,630,516,510,445,441,443,443,435,432,431,446,436,436,437,442,438,442,440,444,442,447,442,448,445,442,444,443,441,444,443,444,454,448,432,0,0,0,0,0,0,0,0,0,0,0,0,0,0,0,0,0,0,0,0,0,0,0,0,0,0,0,0,0,0,0,0,0,0,0,0,0,0,0,0,0,0,0,0,0,0,0,0,0,0,0,0,0,0,0,0,0,0,0,0,0,0,0,0,0,1282,1271,1281,1340,1549,2452,2871,3086,3219,3227,3196,3138,3089,3029,2966,2907,2883,2807,2750,2687,2652,2574,2474,2298,2241,2204,1953,1856,1496,1469,1421,1369,1333,1335,1297,1296,1301,1298,1269,1274,1285,1298,1295,1278,1302,1320,1297,1304,1305,1297,1319,1310,1331,1311,1319,1314,1309,1312,1337,1321,1320,1316,1302,1305,1301,418,420,418,420,427,572,759,846,976,1032,1059,1026,966,951,975,958,942,925,902,891,842,828,812,825,808,792,775,758,741,724,708,632,585,439,428,424,426,427,411,408,414,420,415,423,419,428,416,417,419,423,421,419,421,426,422,420,418,424,418,422,420,419,419,419,419,607,609,612,614,617,796,1180,1311,1442,1494,1500,1475,1451,1427,1405,1380,1356,1332,1306,1284,1260,1236,1213,1186,1164,1139,1116,1092,1067,942,819,723,674,635,622,619,620,587,541,533,536,542,563,571,552,583,561,568,562,560,570,553,556,573,562,553,568,557,546,573,564,569,569,569,569,921,924,933,943,1014,1554,1911,2130,2193,2267,2250,2220,2160,2148,2101,2090,2023,1990,1979,1931,1900,1863,1818,1776,1731,1628,1680,1480,1427,1214,1118,1003,966,958,948,939,935,941,925,923,935,945,948,943,952,954,954,954,945,961,954,950,957,960,960,952,960,951,949,960,962,966,965,965,954,683,684,685,689,708,976,1363,1488,1641,1690,1660,1600,1592,1611,1567,1541,1519,1486,1455,1409,1393,1362,1353,1304,1298,1286,1260,1207,1171,1017,808,817,748,714,696,702,695,684,624,617,620,640,657,659,636,667,649,674,662,660,669,652,651,671,653,647,669,656,644,660,654,659,659,659,659,409,411,412,413,426,489,811,856,948,1013,1015,998,982,966,950,933,918,902,885,870,853,837,820,805,789,792,757,777,724,524,512,654,512,448,419,416,469,439,420,416,420,426,417,431,425,431,430,426,434,426,425,426,424,436,436,428,424,430,426,429,431,430,429,442,435,396,396,398,399,404,497,741,823,908,973,984,968,952,937,921,906,889,874,858,843,828,812,796,780,765,749,733,718,701,686,654,640,549,495,424,403,404,405,367,358,361,365,366,375,368,387,374,369,371,373,372,373,371,376,371,372,368,375,366,374,370,369,369,369,369,600,603,597,606,626,934,1157,1311,1407,1474,1467,1440,1432,1388,1365,1342,1318,1279,1273,1249,1226,1203,1179,1156,1134,1110,1095,1064,1040,1017,805,786,632,616,612,609,611,583,571,565,579,590,594,572,584,594,594,586,593,588,597,581,590,601,592,590,592,588,583,596,604,603,594,600,594,435,436,438,439,444,590,817,909,1001,1062,1071,1053,1036,1020,1025,1008,991,973,957,940,923,907,889,852,835,818,801,784,768,751,645,630,516,510,445,441,443,443,435,432,431,446,436,436,437,442,438,442,440,444,442,447,442,448,445,442,444,443,441,444,443,444,454,448,432,1288,1298,1318,1496,1821,2748,3295,3512,3595,3566,3543,3478,3417,3356,3345,3223,3163,3107,3042,2982,2911,2877,2703,2380,2073,1897,1857,1702,1566,1516,1434,1406,1382,1374,1325,1287,1301,1336,1351,1342,1357,1361,1371,1356,1354,1374,1365,1380,1388,1373,1380,1457,1379,1374,1486,1383,1381,1384,1390,1383,1389,1385,1491,1492,1477,1000,1008,979,1009,1127,1756,2264,2515,2628,2607,2601,2550,2505,2461,2466,2359,2311,2262,2214,2181,2116,2095,2019,1971,1922,1942,1881,1777,1588,1228,1191,1055,1024,1008,989,991,997,1000,1030,1009,1011,1017,1032,1047,1031,1033,1039,1049,1047,1048,1050,1055,1040,1050,1048,1047,1049,1056,1058,1055,1059,1049,1059,1061,1051,0,0,0,0,0,0,0,0,0,0,0,0,0,0,0,0,0,0,0,0,0,0,0,0,0,0,0,0,0,0,0,0,0,0,0,0,0,0,0,0,0,0,0,0,0,0,0,0,0,0,0,0,0,0,0,0,0,0,0,0,0,0,0,0,0,1211,1206,1226,1253,1558,2342,2784,2939,3052,3137,3060,3004,2948,2954,2872,2786,2735,2677,2640,2571,2514,2467,2416,2386,2240,2058,1816,1672,1605,1463,1341,1278,1279,1238,1221,1221,1197,1206,1226,1220,1233,1227,1238,1243,1240,1240,1242,1256,1259,1260,1259,1260,1260,1254,1271,1267,1255,1250,1258,1255,1254,1262,1262,1273,1257,1075,1059,1080,1146,1405,2174,2492,2596,2716,2820,2736,2685,2635,2670,2575,2487,2441,2388,2382,2295,2248,2199,2152,2169,2050,2001,1986,1865,1613,1376,1206,1160,1130,1090,1073,1072,1068,1077,1088,1087,1107,1104,1110,1117,1167,1131,1110,1131,1125,1106,1119,1167,1128,1119,1181,1128,1114,1116,1117,1121,1116,1138,1119,1131,1114,1108,1123,1126,1198,2127,2530,2931,3099,3218,3243,3192,3116,3057,3010,2931,2875,2809,2755,2673,2630,2530,2491,2409,2343,2277,2220,2166,2010,1724,1600,1399,1213,1173,1168,1128,1136,1147,1152,1192,1208,1201,1221,1224,1220,1243,1248,1207,1244,1215,1204,1223,1226,1226,1221,1337,1335,1224,1215,1225,1214,1210,1227,1229,1346,1223,840,862,864,873,1007,1652,1954,2067,2194,2317,2232,2196,2155,2199,2113,2032,2038,1951,1954,1869,1828,1788,1747,1774,1662,1624,1653,1574,1402,1366,1274,939,911,872,852,852,855,882,891,883,879,888,902,906,920,929,901,921,926,913,917,917,927,921,963,917,914,916,913,923,918,928,926,925,921,1328,1352,1351,1456,1696,2632,3122,3286,3358,3401,3370,3296,3252,3196,3126,3058,3017,2946,2892,2807,2736,2712,2452,2154,2041,1857,1829,1579,1548,1540,1451,1421,1392,1357,1358,1344,1311,1316,1339,1332,1336,1330,1353,1362,1343,1343,1348,1359,1378,1373,1374,1375,1364,1379,1374,1370,1369,1379,1375,1376,1380,1365,1374,1376,1366,1111,1120,1122,1155,1210,2092,2439,2561,2643,2668,2674,2642,2620,2537,2545,2546,2433,2384,2384,2268,2226,2214,2143,2181,2088,2027,1867,1619,1501,1232,1232,1175,1150,1157,1136,1133,1112,1120,1136,1133,1143,1145,1140,1157,1138,1151,1144,1148,1165,1156,1161,1165,1165,1162,1158,1160,1160,1163,1164,1167,1151,1169,1157,1162,1156,820,821,824,836,978,1429,1872,2129,2231,2264,2247,2207,2167,2124,2097,2037,1994,1968,1908,1864,1822,1822,1724,1693,1635,1677,1620,1509,1331,1290,965,950,876,844,828,847,832,851,860,863,864,865,867,870,876,878,872,873,884,870,872,880,885,885,896,896,873,875,879,876,874,880,873,874,873,1288,1298,1318,1496,1821,2748,3295,3512,3595,3566,3543,3478,3417,3356,3345,3223,3163,3107,3042,2982,2911,2877,2703,2380,2073,1897,1857,1702,1566,1516,1434,1406,1382,1374,1325,1287,1301,1336,1351,1342,1357,1361,1371,1356,1354,1374,1365,1380,1388,1373,1380,1457,1379,1374,1486,1383,1381,1384,1390,1383,1389,1385,1491,1492,1477,496,476,500,500,504,586,908,970,1107,1191,1208,1191,1131,1120,1133,1114,1095,1039,1021,1024,984,1005,981,928,910,926,880,886,837,850,832,755,570,571,560,503,504,485,481,478,482,482,482,483,483,483,483,484,484,480,484,485,485,486,486,486,482,486,483,485,479,487,482,486,482,314,315,315,316,318,434,557,634,698,755,767,756,743,731,720,708,697,683,672,661,648,636,625,613,600,589,577,566,554,541,531,518,393,400,323,319,320,320,275,278,273,279,298,280,280,284,275,284,280,297,276,277,280,301,284,281,284,280,280,283,280,296,276,281,278,1181,1188,1193,1257,1503,2174,2730,2897,2985,3006,2980,2952,2890,2832,2780,2731,2688,2634,2585,2529,2486,2445,2363,2315,2257,2064,1939,1713,1497,1349,1299,1261,1249,1231,1205,1205,1210,1233,1208,1210,1209,1212,1250,1235,1221,1257,1222,1257,1232,1265,1264,1215,1219,1230,1224,1215,1254,1223,1215,1260,1229,1260,1263,1229,1224,0,0,0,0,0,0,0,0,0,0,0,0,0,0,0,0,0,0,0,0,0,0,0,0,0,0,0,0,0,0,0,0,0,0,0,0,0,0,0,0,0,0,0,0,0,0,0,0,0,0,0,0,0,0,0,0,0,0,0,0,0,0,0,0,0,306,307,308,308,309,435,564,630,696,753,764,752,740,728,716,703,691,679,667,655,643,630,618,606,594,582,568,556,544,494,483,464,454,442,401,395,395,397,303,301,303,304,304,306,304,303,304,306,302,304,304,306,306,304,306,306,304,306,304,322,307,307,308,304,304,744,744,760,752,782,867,1468,1629,1756,1863,1767,1758,1727,1681,1653,1616,1605,1579,1501,1519,1514,1456,1432,1392,1380,1309,1196,836,1201,841,780,762,764,764,740,728,757,760,726,726,733,737,741,728,742,742,742,743,743,743,744,744,744,745,745,738,745,745,745,745,746,746,746,745,744,388,389,405,407,426,541,686,766,937,955,943,984,931,951,864,867,903,888,841,837,811,824,738,793,777,734,745,729,714,680,656,586,548,515,396,409,410,431,396,399,402,411,399,408,402,411,408,400,408,398,405,402,404,410,402,404,402,414,406,402,404,414,404,410,403,239,240,240,241,242,373,421,468,516,564,594,584,577,567,557,548,538,530,520,511,501,492,482,474,464,454,445,435,426,417,408,398,388,379,369,312,313,315,218,218,219,219,219,220,220,220,220,221,221,221,222,222,222,223,223,223,223,223,223,223,224,224,224,223,223,241,242,242,243,244,338,381,487,537,601,615,612,603,594,584,566,564,555,513,504,495,486,476,468,458,448,448,439,430,382,373,366,356,348,292,244,245,324,224,222,220,220,226,230,227,228,228,225,229,225,226,224,225,228,225,226,223,225,224,224,225,225,225,229,227,616,607,616,630,636,755,1110,1302,1413,1454,1509,1428,1416,1376,1367,1346,1329,1287,1319,1284,1245,1232,1180,1210,1174,1113,1111,1081,903,802,799,659,632,614,595,644,616,594,583,587,590,606,601,604,593,604,596,605,601,593,598,603,606,613,609,606,608,601,598,602,605,604,595,601,587,496,476,500,500,504,586,908,970,1107,1191,1208,1191,1131,1120,1133,1114,1095,1039,1021,1024,984,1005,981,928,910,926,880,886,837,850,832,755,570,571,560,503,504,485,481,478,482,482,482,483,483,483,483,484,484,480,484,485,485,486,486,486,482,486,483,485,479,487,482,486,482,792,787,782,796,816,1236,1526,1771,1873,1898,1909,1840,1842,1835,1782,1774,1699,1711,1603,1652,1597,1590,1539,1514,1451,1447,1430,1401,1333,1101,956,954,827,802,790,787,783,779,776,777,778,783,792,782,789,793,787,793,790,791,788,799,789,793,804,785,791,787,786,793,790,791,789,797,789,558,559,561,564,566,808,1022,1201,1311,1359,1361,1340,1318,1298,1275,1253,1233,1212,1191,1170,1148,1126,1104,1084,1063,1042,1020,999,976,924,874,803,642,581,570,567,568,533,499,496,497,499,502,493,494,495,495,500,499,499,498,521,499,495,516,499,498,499,499,502,498,496,500,499,498,926,927,934,938,1005,1698,1977,2290,2428,2451,2427,2388,2340,2297,2251,2206,2163,2118,2074,2030,1984,1942,1925,1850,1805,1764,1722,1677,1529,1170,1030,1000,999,969,944,942,950,956,959,939,942,947,984,980,963,965,968,986,984,987,998,982,968,976,998,983,991,981,994,998,990,993,994,997,982,334,336,336,337,338,485,598,699,765,822,832,819,806,794,780,766,753,739,726,712,699,687,673,660,646,633,620,614,594,580,567,543,500,424,428,340,340,341,322,316,320,325,324,316,316,319,317,324,321,322,324,337,339,324,341,323,323,325,324,328,321,322,324,324,323,0,0,0,0,0,0,0,0,0,0,0,0,0,0,0,0,0,0,0,0,0,0,0,0,0,0,0,0,0,0,0,0,0,0,0,0,0,0,0,0,0,0,0,0,0,0,0,0,0,0,0,0,0,0,0,0,0,0,0,0,0,0,0,0,0,741,743,754,790,820,1324,1515,1670,1816,1852,1809,1809,1771,1722,1692,1677,1634,1641,1582,1645,1524,1508,1498,1447,1418,1451,1374,1321,1190,1086,1054,819,835,799,782,763,775,756,766,774,780,785,772,779,778,780,788,788,792,787,793,792,802,796,790,800,802,796,795,790,798,804,795,803,794,113,113,114,114,172,176,199,222,244,267,282,277,273,268,264,260,255,250,247,242,237,234,229,224,220,216,211,207,202,198,194,189,184,181,176,172,172,174,106,106,107,107,107,108,107,108,108,110,106,108,106,112,108,108,106,112,108,108,106,111,108,107,105,108,106,539,541,543,544,546,755,990,1171,1274,1325,1327,1288,1267,1264,1225,1222,1190,1178,1155,1137,1092,1093,1050,1038,1018,997,982,963,934,912,829,776,576,563,551,548,536,538,520,517,521,520,529,519,526,529,524,536,527,528,525,549,526,530,553,528,528,524,523,531,527,528,526,539,526,285,288,289,290,290,374,523,582,643,699,711,697,689,679,661,654,644,632,622,607,598,587,575,566,553,542,531,519,508,498,486,474,463,376,342,292,339,338,235,232,233,235,238,229,230,231,231,236,235,235,234,250,235,231,248,235,234,235,235,238,234,232,236,235,234,660,668,670,666,699,1000,1320,1477,1580,1632,1623,1610,1580,1538,1513,1494,1461,1434,1410,1382,1410,1330,1291,1293,1254,1281,1234,1164,1159,1039,808,797,700,682,672,698,671,650,649,646,654,660,661,653,655,656,656,657,660,660,659,671,660,656,666,660,657,660,660,656,659,657,661,660,658,792,787,782,796,816,1236,1526,1771,1873,1898,1909,1840,1842,1835,1782,1774,1699,1711,1603,1652,1597,1590,1539,1514,1451,1447,1430,1401,1333,1101,956,954,827,802,790,787,783,779,776,777,778,783,792,782,789,793,787,793,790,791,788,799,789,793,804,785,791,787,786,793,790,791,789,797,789,517,518,521,523,518,656,940,1110,1210,1266,1236,1216,1197,1177,1158,1138,1119,1099,1080,1060,1041,1021,1028,982,963,944,924,904,885,866,801,684,668,525,514,511,512,513,505,512,515,520,512,516,515,519,515,516,523,527,536,518,544,542,524,517,529,522,528,516,525,531,521,528,523,988,991,979,1003,1101,1618,1979,2276,2347,2416,2346,2328,2270,2236,2200,2158,2124,2087,2050,2022,1993,1947,1919,1874,1833,1788,1684,1502,1335,1233,1071,1046,1022,1008,992,991,969,951,931,936,947,954,933,948,942,947,970,936,934,939,939,956,946,959,943,953,953,952,942,959,965,962,960,973,953,1092,1097,1136,1193,2095,2547,2906,3135,3214,3212,3183,3084,3013,2947,2906,2817,2752,2688,2646,2608,2527,2428,2362,2318,2233,2168,2038,1867,1671,1434,1388,1197,1147,1141,1114,1120,1147,1148,1191,1197,1189,1212,1191,1210,1189,1212,1332,1361,1191,1208,1210,1207,1376,1196,1216,1385,1378,1215,1201,1210,1361,1362,1216,1216,1207,692,696,696,699,726,1044,1343,1559,1657,1737,1698,1669,1641,1620,1587,1550,1533,1506,1479,1446,1426,1398,1370,1343,1316,1288,1260,1225,1203,1069,920,917,817,708,699,702,705,687,662,661,669,706,677,682,677,679,703,690,685,686,676,679,675,684,677,683,678,676,676,680,685,704,694,703,685,836,839,842,844,905,1405,1662,1861,1984,1989,2030,1977,1944,1927,1886,1846,1814,1777,1778,1722,1713,1689,1600,1620,1552,1554,1499,1439,1402,1131,1072,890,963,851,846,848,849,843,839,846,835,851,843,871,847,849,855,851,866,852,844,847,844,892,893,854,847,852,845,854,853,884,869,905,854,0,0,0,0,0,0,0,0,0,0,0,0,0,0,0,0,0,0,0,0,0,0,0,0,0,0,0,0,0,0,0,0,0,0,0,0,0,0,0,0,0,0,0,0,0,0,0,0,0,0,0,0,0,0,0,0,0,0,0,0,0,0,0,0,0,862,866,860,868,895,1459,1752,1944,2084,2085,2082,2053,2008,2024,1969,1946,1885,1872,1803,1784,1779,1729,1670,1656,1611,1569,1537,1383,1339,1204,1055,1030,990,880,874,872,871,873,868,863,870,879,872,881,876,874,877,885,893,886,889,892,892,894,890,883,881,890,882,884,892,880,881,888,879,601,622,621,625,630,918,1156,1366,1471,1523,1489,1453,1475,1448,1424,1395,1352,1326,1323,1308,1282,1218,1233,1184,1185,1159,1136,1077,1064,1060,864,843,723,636,619,631,628,625,596,598,604,620,603,614,602,605,618,609,611,624,624,631,612,608,611,614,609,608,614,611,614,630,615,634,614,843,854,862,870,880,1468,1766,1906,2048,2025,2064,2013,1988,1994,1938,1892,1857,1851,1827,1760,1755,1725,1630,1668,1590,1570,1509,1470,1343,1114,948,908,960,872,877,865,837,795,784,782,792,806,782,809,789,789,802,801,822,797,797,797,794,824,827,801,798,804,796,803,800,818,799,830,803,1232,1248,1241,1271,1418,2309,2681,2898,2975,2977,2940,2918,2876,2844,2795,2667,2694,2618,2535,2551,2482,2418,2382,2362,2297,2022,1760,1529,1408,1475,1335,1352,1271,1287,1260,1227,1246,1214,1205,1211,1217,1236,1210,1238,1228,1225,1232,1233,1245,1226,1232,1223,1227,1259,1259,1233,1229,1238,1233,1240,1238,1256,1237,1249,1241,517,518,521,523,518,656,940,1110,1210,1266,1236,1216,1197,1177,1158,1138,1119,1099,1080,1060,1041,1021,1028,982,963,944,924,904,885,866,801,684,668,525,514,511,512,513,505,512,515,520,512,516,515,519,515,516,523,527,536,518,544,542,524,517,529,522,528,516,525,531,521,528,523,870,870,880,883,913,1304,1771,1934,2064,2092,2079,2059,2042,1996,1975,1912,1914,1861,1831,1808,1748,1746,1635,1677,1615,1590,1579,1503,1324,1252,944,948,928,882,895,884,876,883,845,842,847,850,852,867,861,867,867,866,863,861,862,860,859,867,867,855,864,865,857,860,862,867,867,867,867,643,645,647,650,653,973,1233,1374,1499,1561,1576,1541,1518,1493,1477,1442,1419,1393,1368,1343,1324,1295,1270,1245,1220,1197,1173,1147,1123,808,823,749,712,668,657,653,655,621,569,560,566,567,562,589,566,591,583,568,587,569,572,572,569,577,570,569,571,577,570,569,570,572,572,572,572,816,818,820,837,929,1542,1798,2021,2151,2197,2194,2138,2097,2058,2034,1977,1944,1897,1856,1816,1792,1736,1696,1656,1630,1575,1536,1495,1444,1169,1058,889,866,840,832,832,837,842,853,833,835,840,872,872,856,857,860,872,872,872,872,870,860,868,872,871,872,872,872,872,872,872,872,872,872,420,421,422,424,425,517,777,866,955,1026,1050,1024,1013,996,982,958,942,928,908,896,884,859,846,825,812,795,776,758,742,732,710,604,590,440,430,426,428,428,392,380,389,393,384,409,388,404,403,392,407,392,398,400,409,406,394,393,396,403,395,395,393,398,398,398,398,293,294,296,296,297,317,540,603,667,722,734,722,710,699,694,675,663,651,646,628,616,604,594,582,570,558,547,535,523,511,333,325,317,309,301,298,299,300,286,280,285,286,282,286,286,286,286,286,286,285,286,286,286,286,286,286,286,286,286,284,285,286,286,286,286,838,829,841,844,926,1287,1735,1879,2055,2046,2042,2042,1924,1952,1917,1876,1853,1810,1759,1718,1702,1656,1626,1591,1544,1553,1510,1439,1250,993,922,925,888,866,853,886,843,861,843,843,843,843,843,843,843,843,843,843,843,843,843,843,843,843,843,843,843,843,843,843,843,843,843,843,843,0,0,0,0,0,0,0,0,0,0,0,0,0,0,0,0,0,0,0,0,0,0,0,0,0,0,0,0,0,0,0,0,0,0,0,0,0,0,0,0,0,0,0,0,0,0,0,0,0,0,0,0,0,0,0,0,0,0,0,0,0,0,0,0,0,624,626,628,631,633,850,1193,1328,1449,1518,1527,1474,1480,1438,1418,1402,1377,1351,1327,1302,1274,1268,1233,1206,1182,1150,1132,1117,1077,1057,933,856,667,643,641,621,636,625,590,581,590,588,589,612,598,618,611,604,610,598,599,601,596,612,603,598,601,602,594,598,599,604,604,604,604,370,373,374,376,397,460,673,748,826,898,923,905,892,875,866,851,832,817,805,790,776,761,746,729,717,701,687,677,658,649,578,565,471,389,382,379,380,381,305,296,302,303,298,321,302,320,315,304,317,305,308,308,305,313,306,305,307,313,306,305,306,308,308,308,308,710,721,723,725,724,1024,1346,1569,1704,1767,1755,1732,1696,1670,1635,1597,1572,1553,1519,1494,1467,1448,1421,1376,1378,1338,1314,1271,1233,956,915,808,760,742,731,730,732,709,646,648,645,656,658,657,661,656,663,659,661,662,661,668,663,664,663,666,663,660,654,660,664,660,660,660,660,870,870,880,883,913,1304,1771,1934,2064,2092,2079,2059,2042,1996,1975,1912,1914,1861,1831,1808,1748,1746,1635,1677,1615,1590,1579,1503,1324,1252,944,948,928,882,895,884,876,883,845,842,847,850,852,867,861,867,867,866,863,861,862,860,859,867,867,855,864,865,857,860,862,867,867,867,867,272,273,274,275,276,402,493,548,604,657,670,660,650,639,628,619,608,597,588,577,566,555,546,535,524,514,504,493,483,472,462,432,423,412,334,276,330,331,268,269,268,269,273,271,271,271,270,271,269,272,272,274,273,276,276,274,270,269,275,279,269,273,273,276,272,515,516,518,520,526,822,971,1081,1180,1237,1252,1237,1219,1200,1180,1160,1135,1116,1101,1080,1061,1042,1021,1001,982,959,942,920,903,880,864,564,550,537,524,521,524,487,485,482,486,490,487,485,504,485,489,491,491,487,503,507,506,500,510,509,489,490,487,490,487,506,490,509,490,1337,1363,1351,1415,2046,2616,3162,3288,3366,3352,3316,3255,3241,3159,3119,3058,2989,2934,2874,2829,2763,2691,2451,2223,2007,1801,1610,1589,1598,1492,1479,1416,1395,1381,1367,1369,1380,1403,1394,1392,1420,1425,1417,1406,1418,1418,1430,1435,1436,1448,1434,1418,1430,1441,1435,1436,1437,1435,1432,1436,1431,1439,1432,1440,1428,292,292,293,295,296,373,536,600,663,718,732,720,708,696,685,673,661,649,638,626,614,602,591,579,567,555,544,532,520,508,496,397,389,379,300,296,297,298,285,289,287,295,300,299,300,302,295,300,294,296,296,294,297,312,305,295,297,295,294,298,299,295,296,313,296,551,552,554,565,572,848,1043,1177,1297,1358,1360,1339,1363,1292,1273,1242,1230,1206,1186,1165,1141,1122,1125,1077,1083,1034,1010,970,948,932,910,684,668,573,561,558,560,561,546,553,550,553,562,561,564,568,556,572,559,561,558,555,561,564,562,562,565,559,557,562,559,565,562,570,558,556,528,530,610,592,852,1065,1142,1248,1346,1348,1281,1255,1293,1219,1197,1232,1198,1188,1114,1116,1064,1047,1160,1011,990,969,990,927,850,830,813,679,647,538,535,536,595,546,548,548,560,551,554,549,604,555,549,560,548,552,553,551,555,552,555,552,559,555,556,551,595,551,558,552,595,600,601,596,638,861,1144,1285,1413,1461,1462,1438,1461,1392,1396,1365,1322,1305,1281,1246,1227,1206,1212,1182,1164,1113,1089,1066,1068,1020,937,823,709,703,604,604,618,620,596,601,606,616,606,608,599,607,602,595,609,603,601,615,611,612,607,617,613,615,617,613,610,610,600,613,608,0,0,0,0,0,0,0,0,0,0,0,0,0,0,0,0,0,0,0,0,0,0,0,0,0,0,0,0,0,0,0,0,0,0,0,0,0,0,0,0,0,0,0,0,0,0,0,0,0,0,0,0,0,0,0,0,0,0,0,0,0,0,0,0,0,512,514,512,517,511,666,962,1048,1194,1251,1248,1235,1198,1168,1156,1148,1134,1100,1100,1047,1040,1029,1015,1003,950,931,941,922,900,871,780,679,661,534,524,503,506,505,478,483,479,490,493,492,499,494,487,493,494,505,494,492,491,496,494,496,499,495,490,494,489,496,487,495,483,822,865,828,835,961,1363,1709,1917,2029,2001,1987,2047,1995,1903,1921,1849,1811,1772,1813,1712,1737,1654,1628,1585,1594,1528,1489,1343,1224,1163,1139,988,865,868,835,832,819,847,820,819,830,829,829,830,833,840,835,842,836,838,843,848,845,841,853,851,850,872,853,852,859,874,851,866,850,272,273,274,275,276,402,493,548,604,657,670,660,650,639,628,619,608,597,588,577,566,555,546,535,524,514,504,493,483,472,462,432,423,412,334,276,330,331,268,269,268,269,273,271,271,271,270,271,269,272,272,274,273,276,276,274,270,269,275,279,269,273,273,276,272,643,660,663,680,677,892,1252,1424,1543,1572,1569,1560,1498,1472,1448,1446,1451,1413,1392,1346,1338,1296,1272,1246,1249,1192,1172,1147,1140,1005,898,699,682,677,655,692,665,651,650,638,644,646,641,650,646,649,648,646,649,639,644,646,647,645,646,649,647,645,646,649,644,652,643,649,646,312,319,321,323,321,435,568,628,691,750,793,749,740,725,713,702,690,680,668,654,692,632,621,607,596,584,573,560,549,539,520,470,442,336,332,324,324,325,264,264,264,268,272,269,268,280,265,272,270,270,271,271,271,272,269,269,274,271,272,270,271,271,271,272,271,1146,1142,1147,1162,1232,1861,2401,2565,2703,2753,2740,2703,2655,2593,2540,2518,2494,2431,2418,2323,2307,2288,2239,2190,2152,2081,1872,1604,1508,1295,1280,1236,1181,1178,1177,1164,1156,1137,1106,1104,1109,1119,1119,1120,1116,1120,1115,1121,1119,1118,1128,1124,1125,1120,1120,1119,1120,1124,1119,1115,1119,1118,1114,1120,1113,222,223,223,224,224,293,396,443,487,534,554,546,536,528,519,510,501,493,483,475,475,458,458,440,441,422,414,405,396,387,379,369,361,352,295,225,226,289,197,190,191,193,192,192,193,193,190,194,193,193,194,196,196,192,193,194,194,195,193,194,194,193,193,194,194,276,276,278,279,280,325,489,545,605,661,687,680,667,657,644,632,620,614,602,591,576,566,559,544,536,525,512,504,492,478,468,371,363,328,284,280,281,282,230,223,223,225,234,232,232,236,231,237,233,229,233,228,229,234,236,230,235,229,228,232,233,239,234,238,232,796,778,802,804,863,1177,1561,1762,1888,1872,1911,1878,1872,1830,1816,1802,1741,1724,1688,1669,1626,1597,1574,1524,1498,1463,1250,1405,1237,1031,1021,896,850,820,806,817,812,791,756,754,759,764,766,765,769,760,759,778,775,776,777,778,778,775,777,775,774,777,773,777,774,773,775,775,774,358,375,362,363,366,370,648,696,800,845,885,865,839,782,812,818,786,775,767,745,752,701,711,690,679,642,651,652,639,613,581,370,477,372,363,356,369,369,327,306,307,309,332,326,320,320,315,325,339,329,333,327,328,329,334,321,329,330,327,330,320,329,324,328,322,430,397,404,434,435,598,744,834,916,973,981,966,950,934,919,900,899,872,856,841,825,810,794,778,763,747,787,716,700,685,621,536,425,415,405,436,403,404,395,385,385,390,387,392,390,393,388,390,390,386,391,391,393,390,390,393,392,391,391,391,391,395,390,392,390,0,0,0,0,0,0,0,0,0,0,0,0,0,0,0,0,0,0,0,0,0,0,0,0,0,0,0,0,0,0,0,0,0,0,0,0,0,0,0,0,0,0,0,0,0,0,0,0,0,0,0,0,0,0,0,0,0,0,0,0,0,0,0,0,0,450,451,452,454,462,584,844,953,1052,1149,1111,1138,1069,1065,1063,1038,988,998,964,952,948,935,907,882,867,854,825,798,790,673,699,629,511,496,452,463,458,442,428,433,433,445,447,443,447,444,447,447,448,444,445,448,452,454,456,449,451,450,455,455,451,457,448,452,449,643,660,663,680,677,892,1252,1424,1543,1572,1569,1560,1498,1472,1448,1446,1451,1413,1392,1346,1338,1296,1272,1246,1249,1192,1172,1147,1140,1005,898,699,682,677,655,692,665,651,650,638,644,646,641,650,646,649,648,646,649,639,644,646,647,645,646,649,647,645,646,649,644,652,643,649,646,912,915,925,930,1010,1406,1842,2035,2157,2221,2221,2173,2154,2102,2067,2032,2010,1974,1939,1892,1877,1832,1788,1764,1730,1693,1647,1431,1242,1028,1032,1008,974,954,947,928,948,940,889,890,904,898,900,903,904,902,899,901,902,904,898,902,904,904,904,904,904,904,904,904,904,904,904,904,904,495,496,498,499,510,614,907,1011,1115,1196,1212,1194,1174,1155,1136,1117,1099,1080,1060,1041,1030,1004,985,966,948,928,909,890,871,850,709,603,541,518,515,504,513,519,464,468,465,474,472,476,467,475,466,470,473,486,468,470,484,473,471,475,475,481,487,489,484,510,468,476,475,848,848,852,867,952,1455,1864,2004,2164,2216,2211,2177,2134,2122,2059,2043,2000,1934,1910,1895,1852,1819,1780,1710,1670,1635,1619,1570,1352,1071,1066,952,918,885,862,870,874,871,840,840,840,840,840,840,840,840,840,840,840,840,840,840,840,840,840,840,840,840,840,840,840,840,840,840,840,550,552,552,579,586,673,1103,1230,1323,1387,1360,1330,1297,1357,1255,1291,1288,1232,1227,1203,1140,1164,1100,1120,1099,1026,1015,1030,926,804,789,736,586,633,561,558,587,579,514,514,514,514,514,514,514,514,514,514,514,514,514,514,514,514,514,514,514,514,514,514,514,514,514,514,514,628,633,633,635,641,755,1114,1353,1480,1522,1528,1519,1484,1464,1437,1426,1405,1377,1361,1317,1310,1277,1256,1232,1200,1180,1099,1081,1058,863,816,780,703,655,646,639,641,606,555,555,555,555,555,555,555,555,555,555,555,555,555,555,555,555,555,555,555,555,555,555,555,555,555,555,555,1133,1157,1157,1193,1289,2122,2437,2643,2726,2711,2703,2661,2661,2620,2536,2504,2437,2421,2409,2306,2305,2257,2183,2122,1935,1745,1724,1506,1436,1339,1314,1253,1210,1151,1146,1148,1128,1142,1077,1077,1077,1077,1077,1077,1077,1077,1077,1077,1077,1077,1077,1077,1077,1077,1077,1077,1077,1077,1077,1077,1077,1077,1077,1077,1077,640,641,642,644,664,837,1148,1399,1503,1546,1551,1530,1506,1482,1459,1447,1421,1392,1371,1344,1322,1299,1268,1203,1180,1161,1078,1062,1041,876,847,744,682,666,649,650,652,614,522,522,522,522,522,522,522,522,522,522,522,522,522,522,522,522,522,522,522,522,522,522,522,522,522,522,522,682,684,685,692,728,1106,1331,1489,1604,1670,1671,1649,1618,1601,1574,1546,1512,1485,1459,1431,1413,1378,1352,1326,1298,1272,1252,1219,1192,1060,824,741,724,707,713,721,721,690,648,648,648,648,648,648,648,648,648,648,648,648,648,648,648,648,648,648,648,648,648,648,648,648,648,648,648,405,406,407,409,412,563,743,830,913,986,1005,990,973,958,942,926,910,894,878,862,847,830,814,799,782,768,751,736,718,703,635,567,535,457,416,412,413,415,356,356,356,356,356,356,356,356,356,356,356,356,356,356,356,356,356,356,356,356,356,356,356,356,356,356,356,0,0,0,0,0,0,0,0,0,0,0,0,0,0,0,0,0,0,0,0,0,0,0,0,0,0,0,0,0,0,0,0,0,0,0,0,0,0,0,0,0,0,0,0,0,0,0,0,0,0,0,0,0,0,0,0,0,0,0,0,0,0,0,0,0,912,915,925,930,1010,1406,1842,2035,2157,2221,2221,2173,2154,2102,2067,2032,2010,1974,1939,1892,1877,1832,1788,1764,1730,1693,1647,1431,1242,1028,1032,1008,974,954,947,928,948,940,889,890,904,898,900,903,904,902,899,901,902,904,898,902,904,904,904,904,904,904,904,904,904,904,904,904,904,0,0,0,0,0,0,0,0,0,0,0,0,0,0,0,0,0,0,0,0,0,0,0,0,0,0,0,0,0,0,0,0,0,0,0,0,0,0,0,0,0,0,0,0,0,0,0,0,0,0,0,0,0,0,0,0,0,0,0,0,0,0,0,0,0,567,570,571,572,584,834,1097,1221,1332,1379,1383,1365,1340,1321,1300,1273,1252,1234,1214,1192,1170,1149,1123,1106,1083,1058,1036,1018,992,975,925,831,607,592,581,578,577,544,537,537,539,544,570,572,575,565,556,574,571,567,568,549,552,597,566,556,574,556,547,569,562,607,568,579,558,1259,1267,1303,1406,2291,3133,3596,3684,3688,3778,3698,3646,3519,3460,3411,3364,3298,3267,3133,3007,2968,2811,2474,2232,2112,2030,1909,1830,1519,1515,1423,1370,1373,1336,1323,1332,1338,1396,1464,1420,1417,1438,1477,1505,1458,1489,1481,1506,1470,1478,1508,1463,1473,1513,1476,1462,1500,1470,1500,1510,1510,1511,1508,1501,1488,442,438,444,440,452,768,871,1010,1022,1125,1101,1116,1052,1046,1028,1011,993,1006,958,930,952,895,888,860,853,835,843,825,807,789,683,667,651,601,452,485,444,446,448,449,447,450,455,454,462,458,464,454,452,454,452,456,457,456,461,458,460,457,456,455,491,453,460,457,451,730,702,704,709,747,1283,1485,1618,1674,1783,1755,1762,1657,1623,1605,1579,1592,1587,1496,1468,1502,1413,1383,1356,1332,1302,1311,1267,1253,1109,927,926,740,723,713,743,706,705,709,706,708,708,724,719,727,727,718,738,720,723,723,717,721,733,727,723,725,721,714,724,734,725,727,731,720,499,511,516,515,516,837,931,1041,1174,1221,1226,1208,1220,1201,1179,1158,1110,1118,1098,1076,1036,1036,992,1010,990,933,913,895,908,855,867,749,531,620,533,524,505,507,509,502,504,508,520,524,514,550,512,516,516,515,517,512,513,530,523,516,514,516,508,525,519,519,522,535,521,776,761,757,757,799,1384,1593,1728,1785,1896,1868,1867,1758,1725,1700,1698,1716,1677,1585,1555,1582,1491,1468,1440,1411,1382,1407,1352,1336,1156,944,934,783,765,770,788,765,776,759,762,766,769,768,773,762,766,764,758,770,765,766,778,773,796,772,780,776,786,787,775,793,800,764,775,770,292,292,293,294,295,471,532,594,656,710,764,714,703,691,716,668,657,645,633,622,610,600,588,577,565,553,542,530,519,507,495,484,472,462,450,296,296,297,291,288,288,288,292,292,294,290,296,294,292,294,297,296,296,292,292,353,296,350,295,294,354,296,294,294,290,646,644,656,684,703,1155,1300,1461,1524,1607,1608,1582,1525,1507,1482,1478,1431,1443,1401,1375,1353,1328,1285,1258,1233,1224,1199,1172,1161,1101,950,835,755,676,660,667,659,638,641,636,637,645,655,650,656,653,649,656,655,656,660,653,651,655,658,657,653,652,647,650,644,652,653,650,637,882,879,882,903,995,1558,1851,2116,2097,2139,2188,2098,2195,2034,2001,2082,1917,1887,1854,1829,1795,1752,1714,1692,1656,1625,1580,1549,1348,1278,1044,1018,942,902,934,889,868,904,884,884,893,904,892,905,886,901,912,898,893,890,893,907,894,892,903,900,898,901,893,911,901,941,907,932,903,0,0,0,0,0,0,0,0,0,0,0,0,0,0,0,0,0,0,0,0,0,0,0,0,0,0,0,0,0,0,0,0,0,0,0,0,0,0,0,0,0,0,0,0,0,0,0,0,0,0,0,0,0,0,0,0,0,0,0,0,0,0,0,0,0 ]);
