n = 10;
D = [61,233,63,113,90,110,117,234,162,225 ];
q = 0;
prec = array2d(1..0,1..2,[]);
steps = 64;
l = 360;
r = 0;
which = [];
interval = array2d(1..0,1..2,[]);
T = array3d(1..11,1..11,0..64,[0,0,0,0,0,0,0,0,0,0,0,0,0,0,0,0,0,0,0,0,0,0,0,0,0,0,0,0,0,0,0,0,0,0,0,0,0,0,0,0,0,0,0,0,0,0,0,0,0,0,0,0,0,0,0,0,0,0,0,0,0,0,0,0,0,459,461,460,461,467,511,703,786,864,920,928,915,895,891,865,852,832,826,808,794,783,764,751,734,722,704,689,662,650,635,621,512,537,479,466,465,466,440,427,427,435,439,431,430,428,430,438,430,431,433,432,438,440,437,434,440,435,439,435,437,444,435,435,435,435,529,531,530,531,544,610,814,912,1007,1063,1067,1054,1029,1023,997,981,958,949,928,911,895,877,862,846,829,808,795,763,749,733,628,604,646,552,545,537,539,504,490,491,499,502,495,493,491,493,501,493,495,496,495,512,535,500,497,506,498,503,499,501,508,498,498,498,498,384,385,389,387,413,432,563,621,710,738,770,743,731,711,716,689,678,690,661,649,633,641,613,600,597,578,574,557,546,535,524,465,438,402,393,390,391,392,369,362,362,367,365,371,366,369,364,369,370,368,369,373,371,378,374,373,375,375,379,378,378,382,374,382,374,228,232,229,230,282,292,323,352,387,416,427,432,425,429,411,422,391,386,391,385,368,386,358,350,345,338,332,328,322,316,310,304,299,292,287,282,283,284,203,203,203,203,205,205,205,206,206,206,207,208,208,209,209,209,208,209,212,211,212,212,211,212,212,211,211,258,259,260,261,261,330,374,417,460,504,524,515,510,502,491,485,475,468,457,449,441,433,424,416,408,402,391,383,377,367,349,352,342,333,266,261,262,257,227,230,228,228,228,227,228,230,231,226,231,227,230,226,232,228,232,231,230,228,230,227,229,230,224,226,226,1138,1121,1155,1152,1292,1666,1944,2057,2187,2216,2283,2221,2165,2094,2104,2071,2038,2000,1990,1925,1884,1831,1822,1773,1750,1694,1655,1548,1522,1391,1224,1267,1199,1178,1137,1161,1169,1139,1154,1147,1153,1160,1148,1144,1157,1164,1154,1156,1165,1163,1164,1165,1168,1168,1170,1168,1166,1165,1172,1167,1176,1172,1172,1172,1172,394,395,396,405,422,507,575,634,699,752,806,772,745,739,721,733,691,680,681,708,658,661,627,613,613,598,579,580,558,566,543,528,516,438,402,399,400,408,378,379,380,379,384,380,387,387,385,388,386,387,389,389,387,389,389,387,394,391,389,388,391,395,395,394,393,256,257,257,258,259,323,367,411,454,497,524,515,507,499,490,482,474,465,457,448,440,432,423,414,409,398,390,381,372,365,356,347,342,331,321,260,261,261,215,218,214,218,216,216,214,218,219,217,219,218,218,223,222,236,223,219,221,219,218,225,221,220,217,217,217,341,342,343,344,345,446,514,569,655,657,744,665,645,649,628,665,627,614,627,616,603,597,564,552,533,522,512,501,490,484,469,463,456,438,350,348,347,429,322,321,323,323,323,322,324,326,325,324,325,324,325,324,325,327,327,329,327,327,327,328,331,330,329,329,327,0,0,0,0,0,0,0,0,0,0,0,0,0,0,0,0,0,0,0,0,0,0,0,0,0,0,0,0,0,0,0,0,0,0,0,0,0,0,0,0,0,0,0,0,0,0,0,0,0,0,0,0,0,0,0,0,0,0,0,0,0,0,0,0,0,463,465,463,464,472,528,706,765,853,926,952,925,920,905,875,860,861,840,818,805,794,774,762,750,735,711,700,679,677,658,641,529,504,489,493,468,468,450,377,382,377,382,389,386,383,391,384,384,384,384,384,385,385,384,384,384,385,385,386,387,385,386,383,383,382,0,0,0,0,0,0,0,0,0,0,0,0,0,0,0,0,0,0,0,0,0,0,0,0,0,0,0,0,0,0,0,0,0,0,0,0,0,0,0,0,0,0,0,0,0,0,0,0,0,0,0,0,0,0,0,0,0,0,0,0,0,0,0,0,0,137,138,152,152,152,173,195,219,241,265,283,279,274,270,266,260,255,252,248,242,239,233,229,223,220,216,211,207,201,197,194,189,184,178,175,171,171,172,80,79,80,80,78,79,79,79,79,79,79,79,78,79,90,96,79,79,82,78,79,78,78,78,78,78,78,379,379,381,382,402,414,537,614,691,754,770,759,746,732,728,708,695,666,673,659,647,635,610,610,602,573,562,529,547,426,459,449,429,418,407,404,411,386,355,352,343,346,364,363,360,371,358,364,364,362,362,366,366,364,364,360,366,366,370,366,364,366,364,364,362,327,330,331,332,336,374,471,528,591,644,671,661,652,640,628,618,605,596,584,575,565,553,542,532,522,511,501,489,479,469,456,447,359,350,343,337,338,339,215,216,215,216,229,226,219,223,218,228,222,220,221,220,219,222,222,220,226,219,223,226,223,229,220,222,219,515,518,519,532,529,589,780,872,963,1029,1042,1031,1015,997,975,959,942,926,909,893,876,860,843,827,810,793,776,760,747,731,710,652,582,540,529,525,530,528,469,469,474,476,469,481,474,484,476,476,476,476,476,477,477,476,476,476,477,477,478,479,477,478,475,475,474,825,839,856,828,843,1075,1309,1455,1622,1605,1615,1591,1605,1573,1521,1469,1458,1464,1416,1390,1379,1338,1328,1315,1271,1244,1211,1162,1062,1107,929,908,890,846,839,828,832,846,783,783,782,786,791,790,798,806,794,799,793,793,791,794,792,806,803,794,796,789,788,792,792,792,792,792,792,433,433,436,437,439,510,630,705,779,861,880,865,852,840,823,809,799,782,767,754,740,726,711,698,684,674,656,644,630,556,586,526,481,457,445,441,446,454,378,379,385,390,393,393,394,384,387,394,388,392,393,389,394,392,391,389,384,388,391,391,391,392,389,392,378,464,466,468,469,476,582,697,780,863,929,944,929,915,904,884,869,854,839,823,808,794,778,763,748,732,718,702,687,676,661,642,627,559,488,477,473,474,476,420,422,418,422,422,425,425,432,424,424,424,424,424,425,425,424,424,424,425,425,426,427,425,426,423,423,422,780,781,785,786,798,865,1208,1347,1486,1541,1548,1515,1492,1472,1440,1427,1408,1368,1356,1320,1306,1270,1262,1235,1211,1189,1169,1078,1058,1009,913,905,854,807,806,797,792,772,699,704,699,704,711,708,705,713,706,706,706,706,706,707,707,706,706,706,707,707,708,709,707,708,705,705,704,463,465,463,464,472,528,706,765,853,926,952,925,920,905,875,860,861,840,818,805,794,774,762,750,735,711,700,679,677,658,641,529,504,489,493,468,468,450,377,382,377,382,389,386,383,391,384,384,384,384,384,385,385,384,384,384,385,385,386,387,385,386,383,383,382,579,603,608,611,619,690,918,1055,1135,1183,1170,1160,1144,1130,1091,1128,1094,1060,1018,1022,1003,962,952,957,935,915,894,848,867,830,727,735,670,630,618,622,597,582,520,511,515,528,524,526,528,526,518,526,527,527,523,527,528,525,525,527,528,532,530,528,526,525,522,522,520,155,156,156,157,157,162,224,250,277,303,319,313,309,303,298,293,288,283,278,272,268,262,258,253,247,243,237,233,227,222,217,212,207,165,161,158,158,159,138,134,135,137,142,141,142,139,134,142,143,143,139,142,143,141,141,143,143,147,144,141,141,139,139,139,137,0,0,0,0,0,0,0,0,0,0,0,0,0,0,0,0,0,0,0,0,0,0,0,0,0,0,0,0,0,0,0,0,0,0,0,0,0,0,0,0,0,0,0,0,0,0,0,0,0,0,0,0,0,0,0,0,0,0,0,0,0,0,0,0,0,468,469,462,464,468,469,676,788,829,886,894,880,865,851,837,822,808,794,779,811,751,737,751,707,693,678,664,651,638,621,607,592,473,461,450,506,468,458,427,432,429,431,434,441,436,444,430,447,435,436,440,440,450,450,450,441,440,441,444,445,440,436,434,439,432,447,451,453,455,457,521,680,758,839,900,903,890,879,865,850,869,823,807,792,778,764,749,734,720,706,691,676,662,647,634,617,538,523,511,461,455,458,428,353,350,350,353,371,367,361,362,352,370,365,363,360,362,362,363,363,363,369,366,367,367,364,370,359,361,359,629,630,632,634,638,751,940,1079,1184,1245,1248,1218,1208,1180,1169,1150,1130,1111,1091,1072,1052,1032,1013,994,974,957,937,915,896,876,850,816,699,653,641,633,635,648,610,603,609,613,611,617,619,618,610,618,619,619,615,619,620,617,617,619,620,624,622,620,618,617,614,614,612,731,761,731,758,755,983,1101,1276,1436,1444,1464,1431,1400,1377,1354,1331,1314,1325,1288,1272,1273,1216,1199,1201,1160,1114,1090,1067,936,928,985,819,771,780,746,739,735,756,727,725,730,733,730,730,731,733,731,734,732,732,737,739,742,739,739,736,733,738,736,737,734,739,738,741,739,515,517,519,520,529,547,795,914,971,1027,1036,1019,998,1025,966,950,933,917,905,949,867,851,840,818,801,788,768,755,738,720,665,633,555,535,523,559,524,540,504,503,503,513,509,514,515,523,509,517,519,519,524,527,522,527,518,515,522,530,526,520,521,522,517,518,516,577,579,581,583,585,676,857,985,1082,1146,1151,1124,1115,1087,1079,1060,1042,1024,1006,988,970,952,933,916,897,880,854,843,825,807,711,697,646,601,589,581,583,601,560,552,555,561,563,569,567,566,558,566,567,566,563,567,568,565,565,567,568,572,570,568,566,565,562,562,560,902,901,908,907,926,1158,1446,1620,1742,1777,1763,1745,1721,1694,1664,1654,1608,1579,1553,1523,1500,1466,1438,1414,1387,1357,1333,1241,1215,1104,1098,997,999,927,919,916,904,901,842,833,837,850,846,848,850,848,840,848,849,849,845,849,850,847,847,849,850,854,852,850,848,847,844,844,842,579,603,608,611,619,690,918,1055,1135,1183,1170,1160,1144,1130,1091,1128,1094,1060,1018,1022,1003,962,952,957,935,915,894,848,867,830,727,735,670,630,618,622,597,582,520,511,515,528,524,526,528,526,518,526,527,527,523,527,528,525,525,527,528,532,530,528,526,525,522,522,520,443,441,447,448,452,554,647,712,778,855,867,826,815,837,827,778,766,754,742,762,718,706,694,682,671,685,671,655,641,627,570,564,538,459,454,450,477,449,440,426,426,425,425,425,425,425,425,425,425,425,425,425,425,425,425,425,425,425,425,425,425,425,425,425,425,300,301,303,303,304,392,445,496,561,612,611,601,591,581,573,562,552,543,532,522,513,504,494,491,475,465,454,445,436,425,416,406,396,316,308,305,306,306,272,270,273,273,272,273,273,273,273,273,273,273,272,271,271,271,271,271,271,271,271,271,271,271,271,271,271,369,371,372,373,374,491,556,620,697,756,753,741,729,717,704,691,680,668,655,643,633,621,607,602,585,572,559,547,535,523,512,499,485,474,378,376,377,378,336,333,337,337,335,337,336,336,336,336,336,337,335,334,334,334,334,334,334,334,334,334,334,334,334,334,334,0,0,0,0,0,0,0,0,0,0,0,0,0,0,0,0,0,0,0,0,0,0,0,0,0,0,0,0,0,0,0,0,0,0,0,0,0,0,0,0,0,0,0,0,0,0,0,0,0,0,0,0,0,0,0,0,0,0,0,0,0,0,0,0,0,268,269,270,270,271,311,394,441,485,531,546,537,530,521,512,503,495,486,477,468,459,451,442,433,424,416,408,399,390,381,372,364,325,317,309,272,304,305,241,244,244,244,244,244,244,244,244,244,244,244,244,244,244,244,244,244,244,244,244,244,244,244,244,244,244,655,657,662,662,655,849,1022,1142,1262,1315,1318,1300,1254,1256,1226,1214,1194,1155,1148,1129,1104,1083,1063,1042,1009,991,970,948,920,908,746,749,723,703,680,662,667,642,612,618,621,619,619,619,619,619,619,619,619,619,619,619,619,619,619,619,619,619,619,619,619,619,619,619,619,1040,1067,1062,1049,1241,1457,1782,1969,2042,2070,2062,2016,2008,1973,1915,1892,1897,1797,1819,1785,1713,1718,1650,1653,1611,1569,1515,1394,1444,1336,1144,1138,1080,1066,1049,1045,1071,1061,1037,1037,1041,1043,1048,1048,1050,1050,1050,1050,1050,1050,1048,1049,1049,1049,1049,1049,1049,1049,1049,1049,1049,1049,1049,1049,1049,93,94,94,94,95,117,133,148,162,178,189,187,183,180,178,174,171,169,166,162,160,157,154,151,148,145,143,139,136,134,130,127,125,122,118,95,95,95,82,80,81,81,85,85,82,82,82,82,85,85,85,85,85,83,85,85,85,85,85,85,84,85,85,85,85,634,636,639,640,643,784,978,1089,1194,1257,1274,1254,1230,1214,1193,1163,1160,1138,1100,1097,1077,1030,1034,1013,983,975,949,936,910,847,770,763,682,658,649,645,651,593,562,562,563,564,564,564,564,564,564,564,564,564,564,564,564,564,564,564,564,564,564,564,564,564,564,564,564,516,513,507,499,534,698,753,841,925,973,980,964,1010,933,918,903,909,873,858,842,867,811,797,792,766,768,735,720,735,719,702,673,659,559,522,519,520,496,467,471,472,472,475,472,473,472,472,470,473,472,471,470,470,470,470,470,470,470,470,470,470,470,470,470,470,443,441,447,448,452,554,647,712,778,855,867,826,815,837,827,778,766,754,742,762,718,706,694,682,671,685,671,655,641,627,570,564,538,459,454,450,477,449,440,426,426,425,425,425,425,425,425,425,425,425,425,425,425,425,425,425,425,425,425,425,425,425,425,425,425,284,284,284,284,284,289,297,305,314,322,325,324,322,321,319,317,315,314,312,311,309,308,305,304,302,301,299,298,295,294,292,291,289,288,286,284,286,286,216,221,217,222,223,227,221,222,217,220,220,218,217,229,223,227,225,227,225,227,287,227,225,229,218,223,221,334,336,335,336,338,375,491,546,604,663,682,667,661,645,640,628,613,602,588,579,570,562,548,537,526,515,506,498,471,460,399,389,380,372,360,341,342,355,271,268,272,273,272,272,271,273,270,270,270,270,270,270,270,270,270,270,270,270,270,270,270,270,270,270,270,403,405,405,406,410,461,595,669,740,806,822,807,797,782,771,756,743,730,711,699,687,676,662,647,634,621,611,599,570,558,494,481,469,422,413,411,420,411,335,331,336,337,335,336,334,336,333,333,333,333,333,333,333,333,333,333,333,333,333,333,333,333,333,333,333,274,277,276,277,278,353,400,447,494,541,564,553,544,539,528,517,508,499,489,480,471,463,454,445,435,426,418,409,400,390,381,372,364,355,302,293,295,296,251,249,254,256,249,257,257,253,259,259,256,259,259,255,257,255,254,255,253,254,257,259,259,255,257,259,252,0,0,0,0,0,0,0,0,0,0,0,0,0,0,0,0,0,0,0,0,0,0,0,0,0,0,0,0,0,0,0,0,0,0,0,0,0,0,0,0,0,0,0,0,0,0,0,0,0,0,0,0,0,0,0,0,0,0,0,0,0,0,0,0,0,409,411,421,422,415,506,622,695,767,812,814,804,789,777,776,753,748,728,723,710,691,684,687,655,643,631,618,605,591,581,565,552,493,481,420,424,417,418,411,403,401,405,415,408,404,411,406,420,412,411,411,412,415,414,414,415,408,422,413,415,416,411,416,412,407,1034,1027,1042,1067,1080,1391,1741,1927,2000,2008,2018,2022,2011,1915,1899,1886,1824,1773,1757,1708,1727,1656,1653,1648,1548,1560,1527,1394,1373,1284,1207,1084,1087,1066,1057,1048,1052,1039,1030,1028,1031,1032,1033,1031,1042,1046,1028,1028,1028,1028,1028,1028,1028,1028,1028,1028,1028,1028,1028,1028,1028,1028,1028,1028,1028,312,314,314,342,315,347,456,509,567,622,635,627,613,607,596,583,573,561,553,543,533,522,511,505,492,482,480,463,453,442,374,365,360,348,340,315,332,337,285,285,286,287,287,287,288,290,288,288,288,288,288,288,288,288,288,288,288,288,288,288,288,288,288,288,288,367,392,369,370,372,423,561,619,678,730,739,730,720,709,695,686,673,665,652,640,629,618,606,595,580,573,562,551,540,520,517,506,495,419,377,373,374,375,362,350,345,347,362,355,349,355,354,360,367,362,367,366,367,365,357,363,352,362,357,359,357,357,359,355,349,575,576,577,580,594,744,811,874,955,979,993,989,967,970,947,954,940,928,928,893,908,892,869,840,828,823,807,795,779,773,751,746,598,610,594,603,581,571,537,543,540,544,547,549,547,547,541,545,544,542,541,554,548,554,552,556,552,554,566,556,556,559,548,551,550,284,284,284,284,284,289,297,305,314,322,325,324,322,321,319,317,315,314,312,311,309,308,305,304,302,301,299,298,295,294,292,291,289,288,286,284,286,286,216,221,217,222,223,227,221,222,217,220,220,218,217,229,223,227,225,227,225,227,287,227,225,229,218,223,221,271,272,273,274,275,318,397,443,490,534,548,539,529,521,513,525,495,485,478,469,459,451,443,433,425,414,406,398,389,381,373,342,354,283,318,272,277,277,187,186,185,190,190,188,189,191,188,191,191,198,215,216,211,223,193,185,187,191,195,194,198,217,194,198,189,514,516,518,520,522,594,790,881,969,1030,1056,1028,1008,991,963,959,941,924,908,891,875,849,832,826,799,790,775,752,742,725,709,626,611,539,537,523,525,490,438,435,447,448,442,464,445,464,456,447,460,452,453,454,453,478,449,450,450,458,448,445,450,452,443,456,455,524,525,528,530,532,562,807,902,991,1053,1076,1049,1029,1012,995,977,961,943,927,909,893,875,859,841,827,808,790,774,756,739,722,640,563,549,548,534,535,528,466,463,474,482,493,497,476,491,488,491,494,493,498,495,493,524,486,485,498,509,491,486,487,509,485,492,488,637,638,644,653,661,740,982,1094,1201,1258,1261,1244,1225,1209,1189,1180,1162,1141,1120,1102,1081,1061,1037,1019,995,988,956,933,914,894,838,781,679,683,653,650,648,637,556,555,554,559,559,557,558,560,557,560,560,567,573,580,575,592,562,554,556,560,564,563,567,586,563,567,558,457,457,463,465,469,518,667,767,838,893,903,892,879,867,854,850,836,823,808,795,782,768,749,734,719,705,689,668,656,645,626,523,492,488,478,468,466,437,357,363,359,367,367,369,363,369,357,370,362,366,371,379,373,398,373,366,364,361,377,374,375,396,366,375,362,0,0,0,0,0,0,0,0,0,0,0,0,0,0,0,0,0,0,0,0,0,0,0,0,0,0,0,0,0,0,0,0,0,0,0,0,0,0,0,0,0,0,0,0,0,0,0,0,0,0,0,0,0,0,0,0,0,0,0,0,0,0,0,0,0,1117,1060,1073,1105,1186,1518,1840,1988,2062,2103,2101,2051,2072,1994,1970,1922,1894,1903,1811,1791,1796,1726,1735,1701,1626,1592,1554,1464,1442,1212,1182,1143,1139,1101,1087,1100,1109,1080,1082,1082,1084,1089,1084,1100,1090,1087,1086,1087,1085,1086,1088,1088,1091,1086,1091,1092,1091,1089,1094,1100,1095,1106,1093,1097,1094,654,656,659,663,671,843,983,1108,1231,1283,1279,1284,1239,1237,1215,1193,1175,1166,1135,1119,1104,1075,1053,1032,1018,988,969,948,926,905,888,791,740,697,663,665,658,670,565,564,563,568,568,566,567,569,566,569,569,576,597,598,595,601,571,563,565,569,573,572,576,595,572,576,567,43,43,53,53,53,53,61,69,75,83,90,89,86,85,84,82,81,80,78,77,75,73,72,71,70,68,67,66,63,62,61,59,58,57,55,53,53,53,17,17,17,17,17,17,17,17,17,17,17,17,17,17,17,17,17,17,17,17,17,17,17,17,16,16,17,520,522,542,521,530,687,822,894,984,1032,1037,1020,1004,987,976,955,943,922,911,889,888,872,844,832,807,790,774,765,752,729,709,693,685,544,528,527,548,515,501,495,497,502,503,504,508,513,508,505,511,502,506,497,504,504,506,507,505,500,495,504,506,509,505,520,506,271,272,273,274,275,318,397,443,490,534,548,539,529,521,513,525,495,485,478,469,459,451,443,433,425,414,406,398,389,381,373,342,354,283,318,272,277,277,187,186,185,190,190,188,189,191,188,191,191,198,215,216,211,223,193,185,187,191,195,194,198,217,194,198,189,1059,1062,1066,1104,1196,1624,1845,2113,2070,2100,2086,2051,2068,2059,1952,1922,1994,1854,1822,1788,1752,1719,1780,1650,1618,1622,1551,1517,1465,1192,1165,1133,1156,1087,1117,1074,1019,1020,1033,1056,1051,1061,1050,1065,1059,1074,1057,1072,1069,1075,1074,1069,1074,1070,1077,1076,1058,1049,1069,1072,1069,1079,1058,1065,1057,770,765,790,800,841,1143,1247,1397,1489,1539,1568,1512,1485,1464,1439,1444,1420,1366,1344,1316,1291,1260,1245,1210,1193,1169,1136,1112,1095,1070,850,944,817,805,784,792,783,739,714,713,723,749,724,731,723,736,736,730,739,722,735,746,760,782,742,738,732,749,734,728,728,761,733,746,728,686,664,712,701,791,981,1069,1189,1302,1337,1381,1316,1295,1274,1287,1270,1242,1191,1159,1197,1109,1105,1084,1053,1041,1028,1000,968,955,934,937,938,715,702,694,683,679,682,662,659,672,711,669,672,670,680,681,669,677,666,678,689,701,718,684,678,666,690,676,670,670,726,676,687,669,1047,1052,1070,1078,1250,1625,1814,1959,2066,2094,2100,2048,2012,1972,1959,1929,1907,1839,1823,1789,1722,1711,1664,1630,1571,1584,1526,1510,1452,1239,1209,1141,1106,1090,1073,1065,1057,1035,1011,1008,1018,1041,1023,1029,1019,1044,1032,1023,1033,1025,1041,1053,1070,1079,1039,1032,1031,1045,1037,1027,1022,1060,1029,1041,1023,984,998,1002,996,1102,1491,1663,1916,1972,1961,1952,1931,1902,1871,1840,1807,1843,1744,1712,1711,1635,1610,1644,1562,1528,1526,1470,1389,1400,1342,1093,1076,1068,1048,1012,1010,933,908,914,911,942,967,943,954,941,960,958,950,960,942,942,949,960,954,949,953,946,944,957,959,948,966,953,968,950,970,966,976,995,1078,1461,1660,1934,1893,1914,1914,1884,1854,1823,1793,1761,1837,1701,1661,1639,1609,1580,1633,1519,1478,1458,1428,1390,1422,1101,1076,1043,1058,998,1058,985,939,941,963,964,962,961,959,961,958,961,961,987,962,964,964,969,1008,962,965,965,963,1020,959,961,964,967,968,969,968,0,0,0,0,0,0,0,0,0,0,0,0,0,0,0,0,0,0,0,0,0,0,0,0,0,0,0,0,0,0,0,0,0,0,0,0,0,0,0,0,0,0,0,0,0,0,0,0,0,0,0,0,0,0,0,0,0,0,0,0,0,0,0,0,0,1102,1105,1107,1117,1288,1706,1924,2070,2184,2183,2167,2133,2097,2062,2026,1990,2023,1923,1888,1888,1827,1790,1750,1750,1688,1654,1606,1560,1521,1333,1251,1179,1180,1134,1120,1139,1096,1071,1084,1085,1093,1114,1102,1108,1098,1113,1116,1106,1124,1111,1117,1119,1129,1123,1107,1121,1114,1109,1118,1113,1105,1137,1112,1125,1107,986,981,992,1013,1099,1492,1695,1969,1928,1948,1948,1917,1886,1855,1823,1792,1867,1729,1688,1667,1635,1607,1658,1544,1502,1481,1451,1412,1445,1159,1093,1059,1074,1014,1068,1000,951,952,975,976,974,972,971,973,970,973,973,999,973,976,976,981,1019,974,977,977,974,1032,971,973,976,979,980,981,980,1395,1406,1398,1471,1739,2253,2510,2758,2711,2728,2718,2671,2651,2633,2528,2479,2540,2402,2373,2327,2260,2236,2288,2151,2075,2053,1875,1817,1692,1549,1512,1472,1492,1425,1454,1402,1341,1342,1355,1378,1373,1383,1372,1387,1381,1396,1379,1394,1393,1400,1399,1391,1396,1392,1399,1398,1380,1371,1391,1394,1391,1401,1380,1387,1379,1059,1062,1066,1104,1196,1624,1845,2113,2070,2100,2086,2051,2068,2059,1952,1922,1994,1854,1822,1788,1752,1719,1780,1650,1618,1622,1551,1517,1465,1192,1165,1133,1156,1087,1117,1074,1019,1020,1033,1056,1051,1061,1050,1065,1059,1074,1057,1072,1069,1075,1074,1069,1074,1070,1077,1076,1058,1049,1069,1072,1069,1079,1058,1065,1057,419,421,433,424,423,553,592,671,731,809,820,811,800,792,783,735,754,742,701,690,678,667,656,645,633,648,621,647,594,595,580,566,544,441,431,434,428,429,409,393,394,395,398,399,400,402,397,399,402,403,401,404,406,407,410,410,409,410,410,410,411,410,410,410,410,435,437,439,440,442,526,641,716,798,868,884,867,860,845,829,817,802,787,770,755,741,727,716,699,685,671,657,645,632,615,572,542,489,477,446,443,445,418,395,396,397,402,404,404,405,404,400,406,407,401,404,406,404,409,404,404,405,400,406,411,402,409,405,405,403,505,507,509,509,513,625,752,840,936,1009,1023,1008,994,975,959,942,926,909,891,874,858,844,827,808,795,776,763,746,731,711,668,636,578,539,522,513,516,482,458,460,461,465,468,467,468,467,463,469,471,464,467,480,485,472,467,470,468,464,470,475,466,472,468,468,466,136,136,137,137,138,173,196,220,243,266,281,277,272,267,262,258,254,249,245,240,236,232,227,222,217,213,209,204,200,195,191,187,182,177,172,138,139,139,139,126,125,125,132,134,132,129,129,133,163,134,135,138,139,140,127,133,140,140,177,177,131,133,173,128,127,250,251,252,247,248,317,360,402,442,485,499,491,484,476,467,467,452,444,435,427,420,412,411,396,388,380,378,370,363,354,341,333,324,322,309,248,304,305,216,219,218,219,220,220,220,221,218,220,217,218,219,224,223,224,222,223,221,219,225,228,223,223,220,219,219,627,632,640,639,632,812,969,1100,1216,1271,1268,1246,1224,1209,1186,1152,1131,1132,1107,1088,1065,1032,1025,1005,974,981,918,938,880,805,778,765,746,673,653,642,651,618,581,585,589,589,590,585,593,588,586,587,587,589,589,590,593,593,594,594,593,594,596,595,595,593,593,593,593,1123,1126,1160,1159,1184,1677,1956,2069,2185,2231,2223,2193,2184,2142,2065,2048,1996,2008,1979,1924,1901,1885,1842,1795,1713,1721,1655,1550,1541,1415,1300,1232,1206,1152,1155,1140,1143,1170,1153,1154,1156,1159,1161,1160,1171,1176,1160,1161,1167,1161,1165,1167,1169,1177,1173,1168,1173,1167,1174,1169,1175,1173,1162,1175,1175,0,0,0,0,0,0,0,0,0,0,0,0,0,0,0,0,0,0,0,0,0,0,0,0,0,0,0,0,0,0,0,0,0,0,0,0,0,0,0,0,0,0,0,0,0,0,0,0,0,0,0,0,0,0,0,0,0,0,0,0,0,0,0,0,0,616,617,619,615,620,755,939,1050,1151,1210,1229,1211,1170,1155,1149,1120,1114,1083,1075,1056,1024,1018,990,974,952,940,897,908,874,758,731,716,680,639,623,620,621,569,531,529,531,534,534,537,543,536,534,535,535,537,537,538,541,541,542,542,541,542,544,543,543,541,541,541,541,448,449,443,435,439,581,649,722,795,845,907,840,827,814,849,837,774,761,748,734,721,708,695,719,668,655,674,629,646,632,618,591,576,469,459,438,456,431,424,418,422,436,429,425,430,441,423,423,434,438,464,459,459,515,424,426,432,435,431,421,432,433,430,431,430,419,421,433,424,423,553,592,671,731,809,820,811,800,792,783,735,754,742,701,690,678,667,656,645,633,648,621,647,594,595,580,566,544,441,431,434,428,429,409,393,394,395,398,399,400,402,397,399,402,403,401,404,406,407,410,410,409,410,410,410,411,410,410,410,410,234,234,235,236,236,296,337,376,418,457,482,475,466,459,451,443,435,429,422,414,406,398,387,379,371,364,355,347,341,332,325,317,309,302,294,237,290,291,170,169,168,173,173,171,172,174,171,174,174,181,198,199,194,206,176,168,170,174,178,177,181,200,178,182,174,471,473,473,475,477,604,729,812,894,947,968,939,924,908,892,878,863,847,834,817,802,788,770,755,739,722,710,686,679,663,650,633,619,494,482,478,480,445,421,418,430,431,425,447,428,447,439,430,443,435,436,437,436,461,432,433,433,441,431,428,433,435,427,440,440,481,482,483,485,487,572,746,833,916,970,990,960,944,929,916,897,882,867,853,836,819,804,788,773,757,741,725,710,694,677,663,647,601,504,493,489,490,483,449,446,457,465,476,480,459,474,471,474,477,476,481,478,476,507,469,468,481,492,474,469,470,492,469,476,473,594,595,607,608,616,687,921,1015,1116,1175,1174,1182,1141,1124,1107,1117,1100,1061,1042,1044,1006,990,965,974,928,938,889,870,872,832,787,756,673,657,605,603,604,592,539,538,537,542,542,540,541,543,540,543,543,550,560,561,559,575,545,537,539,543,547,546,550,569,547,551,543,413,414,416,417,420,496,626,698,756,812,817,805,795,783,773,772,757,744,730,718,707,696,677,663,650,637,624,611,598,583,565,555,445,443,423,420,421,392,340,346,342,350,350,352,346,352,340,353,345,349,354,362,356,381,356,349,347,344,360,357,358,382,350,359,347,106,106,106,130,130,133,150,167,184,201,213,210,206,203,200,196,193,190,187,183,180,177,173,170,167,163,160,157,154,150,147,144,140,137,134,130,132,132,80,78,78,78,81,79,80,82,78,79,79,79,80,80,80,82,82,82,81,81,80,80,81,80,80,80,80,1074,1017,1020,1052,1133,1563,1785,1919,1987,2052,2019,1962,1988,1909,1927,1894,1813,1828,1749,1717,1721,1653,1668,1635,1556,1524,1492,1401,1380,1150,1149,1109,1089,1044,1032,1059,1064,1063,1065,1065,1067,1072,1067,1083,1073,1070,1069,1070,1068,1069,1071,1071,1074,1069,1074,1075,1074,1072,1077,1083,1078,1089,1077,1081,1079,616,621,606,618,625,807,923,1046,1156,1200,1189,1197,1155,1174,1134,1130,1113,1087,1078,1061,1031,1002,1000,991,951,920,902,882,863,843,836,774,682,666,622,612,613,630,548,547,546,551,551,549,550,552,549,552,552,559,580,581,578,584,554,546,548,552,556,555,559,578,556,560,552,0,0,0,0,0,0,0,0,0,0,0,0,0,0,0,0,0,0,0,0,0,0,0,0,0,0,0,0,0,0,0,0,0,0,0,0,0,0,0,0,0,0,0,0,0,0,0,0,0,0,0,0,0,0,0,0,0,0,0,0,0,0,0,0,0,575,576,571,580,581,673,851,964,1047,1119,1147,1120,1115,1087,1087,1070,1049,1009,996,971,955,946,909,912,874,876,860,841,800,768,726,713,682,629,563,585,561,576,492,491,490,495,495,493,494,496,493,496,496,503,522,524,519,528,498,490,492,496,500,499,503,522,500,504,496,234,234,235,236,236,296,337,376,418,457,482,475,466,459,451,443,435,429,422,414,406,398,387,379,371,364,355,347,341,332,325,317,309,302,294,237,290,291,170,169,168,173,173,171,172,174,171,174,174,181,198,199,194,206,176,168,170,174,178,177,181,200,178,182,174,406,393,394,395,425,423,585,638,701,715,723,713,722,694,683,673,679,673,663,653,643,632,623,613,605,595,585,575,589,545,534,523,419,452,442,423,426,389,381,379,391,390,395,410,393,399,408,405,395,402,396,399,399,394,396,395,403,407,392,396,398,401,396,407,394,736,709,711,713,715,944,1130,1277,1377,1368,1358,1337,1321,1303,1276,1271,1252,1269,1245,1229,1206,1188,1163,1143,1095,1071,1033,1015,921,916,907,841,795,751,720,714,720,665,648,660,660,662,663,664,662,663,661,671,658,661,668,675,684,693,694,671,674,664,676,672,677,677,666,678,666,805,778,781,783,790,1050,1256,1421,1519,1506,1497,1473,1452,1433,1402,1397,1376,1390,1363,1346,1319,1299,1272,1250,1200,1177,1134,1114,1018,1010,998,939,896,817,792,786,784,729,711,724,724,725,727,727,725,726,724,734,722,724,731,749,767,756,757,737,737,728,740,736,741,740,729,741,729,463,452,458,459,464,512,686,739,806,908,878,866,881,873,830,823,811,768,780,744,732,794,708,696,684,671,658,646,653,640,610,489,479,477,466,509,458,465,452,454,455,470,464,459,458,468,460,466,469,474,477,478,478,496,469,466,467,478,470,467,467,470,466,471,465,445,389,390,391,393,517,585,677,735,723,731,720,710,699,689,694,682,709,722,687,676,666,655,644,608,595,583,570,558,543,531,520,508,497,397,392,395,394,380,388,387,390,391,393,389,393,386,401,387,388,393,395,446,447,450,397,399,391,402,399,400,402,395,441,395,587,574,582,583,594,766,886,969,1020,1048,1060,1045,1028,1017,1002,976,969,948,940,966,951,935,922,905,889,876,858,842,818,801,784,730,717,647,590,588,580,575,568,566,576,577,581,594,580,586,580,592,581,591,582,587,584,582,585,581,590,593,578,581,585,585,583,590,580,1409,1402,1400,1413,1736,2167,2415,2619,2664,2647,2605,2586,2563,2534,2447,2468,2378,2427,2371,2322,2262,2248,2168,2137,2088,1965,1910,1816,1660,1555,1577,1446,1437,1398,1418,1415,1391,1395,1390,1397,1402,1389,1393,1395,1406,1400,1397,1406,1404,1402,1408,1409,1418,1419,1427,1409,1407,1408,1414,1430,1417,1418,1416,1415,1414,465,473,468,468,474,522,679,752,830,895,893,929,869,889,858,838,838,795,815,757,784,774,720,719,707,716,671,658,670,634,621,609,597,504,475,472,467,475,435,432,432,434,450,448,448,450,446,454,447,445,453,443,441,453,444,442,455,440,439,453,453,480,454,455,455,591,578,579,581,596,781,885,969,1054,1083,1089,1073,1061,1041,1026,1018,999,988,972,965,950,933,919,903,887,875,855,840,816,799,782,752,683,598,587,585,632,563,549,546,546,547,550,548,557,549,545,545,542,544,549,548,551,553,563,548,544,543,551,561,547,548,546,545,544,0,0,0,0,0,0,0,0,0,0,0,0,0,0,0,0,0,0,0,0,0,0,0,0,0,0,0,0,0,0,0,0,0,0,0,0,0,0,0,0,0,0,0,0,0,0,0,0,0,0,0,0,0,0,0,0,0,0,0,0,0,0,0,0,0,406,393,394,395,425,423,585,638,701,715,723,713,722,694,683,673,679,673,663,653,643,632,623,613,605,595,585,575,589,545,534,523,419,452,442,423,426,389,381,379,391,390,395,410,393,399,408,405,395,402,396,399,399,394,396,395,403,407,392,396,398,401,396,407,394,0,0,0,0,0,0,0,0,0,0,0,0,0,0,0,0,0,0,0,0,0,0,0,0,0,0,0,0,0,0,0,0,0,0,0,0,0,0,0,0,0,0,0,0,0,0,0,0,0,0,0,0,0,0,0,0,0,0,0,0,0,0,0,0,0,459,461,460,461,467,511,703,786,864,920,928,915,895,891,865,852,832,826,808,794,783,764,751,734,722,704,689,662,650,635,621,512,537,479,466,465,466,440,427,427,435,439,431,430,428,430,438,430,431,433,432,438,440,437,434,440,435,439,435,437,444,435,435,435,435,529,531,530,531,544,610,814,912,1007,1063,1067,1054,1029,1023,997,981,958,949,928,911,895,877,862,846,829,808,795,763,749,733,628,604,646,552,545,537,539,504,490,491,499,502,495,493,491,493,501,493,495,496,495,512,535,500,497,506,498,503,499,501,508,498,498,498,498,384,385,389,387,413,432,563,621,710,738,770,743,731,711,716,689,678,690,661,649,633,641,613,600,597,578,574,557,546,535,524,465,438,402,393,390,391,392,369,362,362,367,365,371,366,369,364,369,370,368,369,373,371,378,374,373,375,375,379,378,378,382,374,382,374,228,232,229,230,282,292,323,352,387,416,427,432,425,429,411,422,391,386,391,385,368,386,358,350,345,338,332,328,322,316,310,304,299,292,287,282,283,284,203,203,203,203,205,205,205,206,206,206,207,208,208,209,209,209,208,209,212,211,212,212,211,212,212,211,211,258,259,260,261,261,330,374,417,460,504,524,515,510,502,491,485,475,468,457,449,441,433,424,416,408,402,391,383,377,367,349,352,342,333,266,261,262,257,227,230,228,228,228,227,228,230,231,226,231,227,230,226,232,228,232,231,230,228,230,227,229,230,224,226,226,1138,1121,1155,1152,1292,1666,1944,2057,2187,2216,2283,2221,2165,2094,2104,2071,2038,2000,1990,1925,1884,1831,1822,1773,1750,1694,1655,1548,1522,1391,1224,1267,1199,1178,1137,1161,1169,1139,1154,1147,1153,1160,1148,1144,1157,1164,1154,1156,1165,1163,1164,1165,1168,1168,1170,1168,1166,1165,1172,1167,1176,1172,1172,1172,1172,394,395,396,405,422,507,575,634,699,752,806,772,745,739,721,733,691,680,681,708,658,661,627,613,613,598,579,580,558,566,543,528,516,438,402,399,400,408,378,379,380,379,384,380,387,387,385,388,386,387,389,389,387,389,389,387,394,391,389,388,391,395,395,394,393,256,257,257,258,259,323,367,411,454,497,524,515,507,499,490,482,474,465,457,448,440,432,423,414,409,398,390,381,372,365,356,347,342,331,321,260,261,261,215,218,214,218,216,216,214,218,219,217,219,218,218,223,222,236,223,219,221,219,218,225,221,220,217,217,217,341,342,343,344,345,446,514,569,655,657,744,665,645,649,628,665,627,614,627,616,603,597,564,552,533,522,512,501,490,484,469,463,456,438,350,348,347,429,322,321,323,323,323,322,324,326,325,324,325,324,325,324,325,327,327,329,327,327,327,328,331,330,329,329,327,0,0,0,0,0,0,0,0,0,0,0,0,0,0,0,0,0,0,0,0,0,0,0,0,0,0,0,0,0,0,0,0,0,0,0,0,0,0,0,0,0,0,0,0,0,0,0,0,0,0,0,0,0,0,0,0,0,0,0,0,0,0,0,0,0 ]);
