n = 10;
D = [67,273,284,295,220,223,68,71,219,120 ];
q = 0;
prec = array2d(1..0,1..2,[]);
steps = 64;
l = 360;
r = 0;
which = [];
interval = array2d(1..0,1..2,[]);
T = array3d(1..11,1..11,0..64,[0,0,0,0,0,0,0,0,0,0,0,0,0,0,0,0,0,0,0,0,0,0,0,0,0,0,0,0,0,0,0,0,0,0,0,0,0,0,0,0,0,0,0,0,0,0,0,0,0,0,0,0,0,0,0,0,0,0,0,0,0,0,0,0,0,513,512,507,507,517,729,909,1054,1149,1195,1195,1182,1168,1144,1127,1130,1112,1087,1069,1022,1039,984,968,946,923,940,886,870,890,796,716,675,587,525,518,516,510,487,485,480,485,488,496,496,491,494,493,489,497,496,489,496,495,496,496,496,497,497,489,489,489,489,489,489,489,161,161,162,162,163,169,288,321,355,388,405,398,392,385,379,373,366,360,352,346,340,333,327,321,314,308,301,295,289,282,276,270,175,171,166,164,164,164,159,147,148,148,160,160,156,149,149,154,160,160,160,160,160,160,160,156,160,160,160,160,156,160,160,160,154,786,786,782,782,809,1146,1509,1708,1816,1852,1839,1817,1792,1757,1732,1723,1692,1662,1630,1578,1581,1517,1496,1461,1428,1435,1227,1215,1184,964,960,912,833,806,799,794,779,722,719,715,719,724,730,729,725,728,730,728,731,730,726,730,731,731,730,731,730,730,725,722,722,722,722,722,722,1426,1438,1409,1474,1818,2678,3054,3235,3323,3323,3253,3233,3181,3134,3090,3052,2985,2941,2884,2532,2172,1948,1909,1768,1764,1716,1661,1623,1596,1557,1544,1517,1483,1455,1451,1420,1437,1392,1384,1379,1380,1402,1408,1407,1403,1406,1408,1406,1409,1408,1404,1408,1409,1409,1408,1409,1408,1407,1403,1400,1400,1400,1400,1400,1400,531,539,534,533,549,761,973,1123,1214,1259,1255,1254,1231,1204,1187,1189,1168,1147,1126,1075,1091,1035,1015,979,966,988,931,920,935,901,746,656,568,543,536,548,542,511,508,503,505,509,517,517,511,517,514,514,517,517,511,518,515,519,521,517,518,517,511,509,509,509,509,509,509,1347,1344,1335,1398,1707,2495,2914,3055,3117,3132,3084,3089,3012,2951,2920,2882,2813,2774,2765,2663,2359,2242,2139,1865,1929,1710,1663,1558,1508,1494,1478,1416,1417,1386,1356,1334,1350,1308,1306,1301,1306,1317,1328,1322,1313,1323,1331,1320,1325,1329,1325,1324,1332,1332,1334,1335,1328,1332,1329,1319,1319,1319,1319,1319,1319,268,269,281,280,272,426,504,562,596,676,672,663,669,658,624,637,626,592,589,592,582,557,560,549,538,515,517,506,495,484,474,446,451,431,415,308,309,310,255,262,252,262,272,265,261,267,257,261,262,270,258,256,258,261,260,261,262,264,260,260,260,260,260,260,260,645,647,649,652,678,1126,1285,1411,1522,1584,1582,1558,1533,1480,1494,1460,1436,1411,1378,1363,1318,1274,1286,1264,1240,1170,1191,1120,1105,1015,927,783,774,650,657,655,656,642,629,616,623,630,621,642,630,639,634,631,647,638,631,632,629,656,658,637,633,641,634,634,634,634,634,634,634,939,936,938,940,1053,1688,1866,2088,2170,2214,2200,2168,2123,2098,2060,2052,2011,1971,1939,1899,1876,1798,1773,1736,1550,1518,1511,1427,1205,1167,1099,1085,977,959,949,951,936,920,907,903,905,918,924,911,923,915,927,922,922,922,922,922,922,922,922,922,922,922,922,922,922,922,922,922,922,0,0,0,0,0,0,0,0,0,0,0,0,0,0,0,0,0,0,0,0,0,0,0,0,0,0,0,0,0,0,0,0,0,0,0,0,0,0,0,0,0,0,0,0,0,0,0,0,0,0,0,0,0,0,0,0,0,0,0,0,0,0,0,0,0,441,493,442,445,499,530,832,933,1016,1039,1105,1046,997,981,964,949,967,956,950,937,866,898,837,864,850,828,812,794,776,733,708,623,588,593,523,446,447,431,439,435,435,438,442,442,443,437,445,444,444,442,474,448,467,442,442,467,448,470,441,448,472,448,447,444,440,0,0,0,0,0,0,0,0,0,0,0,0,0,0,0,0,0,0,0,0,0,0,0,0,0,0,0,0,0,0,0,0,0,0,0,0,0,0,0,0,0,0,0,0,0,0,0,0,0,0,0,0,0,0,0,0,0,0,0,0,0,0,0,0,0,465,444,453,454,450,462,781,914,1004,1027,1034,1039,1041,969,954,938,940,945,930,896,859,882,828,852,837,819,804,793,771,756,535,515,447,468,529,449,494,425,445,447,453,466,460,463,462,479,463,460,473,466,478,475,479,481,457,457,468,467,467,456,464,468,457,467,460,299,300,300,303,302,361,536,598,660,728,749,737,726,712,700,688,676,664,653,641,630,617,605,592,580,567,555,543,410,400,391,381,374,363,308,304,306,306,250,255,254,258,259,258,254,257,253,259,257,256,255,258,261,262,257,259,261,256,251,261,257,258,253,260,255,939,940,943,930,979,1504,1887,2093,2212,2217,2268,2246,2204,2168,2116,2091,2055,2022,1985,1944,1908,1837,1833,1798,1771,1679,1625,1526,1166,1056,1032,1031,1038,974,958,952,957,971,922,926,918,919,937,936,932,935,931,937,935,934,933,936,939,940,935,937,939,934,928,939,935,936,931,938,933,108,109,109,109,165,169,192,213,236,258,273,268,264,260,255,252,247,242,238,234,230,225,220,217,212,208,204,199,195,190,187,182,177,174,169,165,166,166,81,81,81,81,79,81,81,82,81,81,81,81,81,81,81,81,81,81,81,80,81,80,81,81,80,79,79,848,854,861,870,906,1228,1737,1890,2036,2052,2107,2080,2018,1986,1972,1915,1898,1836,1828,1773,1752,1707,1696,1681,1606,1602,1552,1434,1244,1035,1037,938,898,891,876,875,853,881,839,838,842,847,847,851,852,844,845,850,859,849,851,859,858,858,856,856,865,860,848,859,861,856,856,859,854,548,611,552,554,576,926,1049,1202,1340,1398,1350,1329,1308,1278,1264,1244,1220,1199,1178,1156,1134,1113,1098,1077,1055,1034,1012,989,969,946,757,739,714,576,560,556,558,559,544,540,541,574,558,555,547,550,547,548,564,560,562,571,556,574,560,565,569,572,573,561,563,576,556,572,566,840,829,850,849,969,1477,1667,1852,2053,2070,2091,1978,1995,1963,1932,1891,1819,1834,1755,1771,1692,1706,1675,1630,1563,1578,1546,1485,1382,1148,1086,893,891,873,906,857,850,844,855,854,859,865,857,870,861,872,884,867,876,873,877,882,882,885,869,870,874,874,864,889,872,870,866,873,868,517,529,516,510,541,695,984,1049,1162,1251,1255,1230,1219,1195,1160,1174,1152,1134,1115,1127,1056,1037,1036,997,977,953,937,883,861,845,784,667,642,532,533,520,521,511,502,505,512,518,520,519,510,518,507,519,519,519,520,519,521,528,524,519,521,520,523,523,516,528,512,517,511,441,493,442,445,499,530,832,933,1016,1039,1105,1046,997,981,964,949,967,956,950,937,866,898,837,864,850,828,812,794,776,733,708,623,588,593,523,446,447,431,439,435,435,438,442,442,443,437,445,444,444,442,474,448,467,442,442,467,448,470,441,448,472,448,447,444,440,205,205,206,207,208,324,369,412,456,498,513,506,506,498,481,481,464,453,448,440,432,423,416,408,399,398,380,375,367,358,350,342,331,326,274,208,208,209,199,195,198,199,202,199,201,201,201,200,202,200,206,204,204,201,205,200,200,204,205,198,200,201,204,206,201,463,465,481,469,527,560,856,955,1031,1108,1111,1080,1063,1051,1052,1030,1010,983,976,960,943,925,908,894,874,867,831,817,799,782,594,549,552,483,472,456,462,432,431,439,440,444,436,436,447,443,446,443,450,442,445,440,457,444,458,450,458,445,446,451,449,443,436,449,436,0,0,0,0,0,0,0,0,0,0,0,0,0,0,0,0,0,0,0,0,0,0,0,0,0,0,0,0,0,0,0,0,0,0,0,0,0,0,0,0,0,0,0,0,0,0,0,0,0,0,0,0,0,0,0,0,0,0,0,0,0,0,0,0,0,737,738,751,749,826,1067,1432,1595,1710,1768,1755,1727,1690,1672,1662,1633,1596,1563,1548,1515,1494,1465,1431,1411,1383,1360,1237,1217,1160,1089,901,857,835,761,750,733,737,667,665,677,681,680,670,669,681,681,683,682,684,676,682,679,694,684,689,685,688,679,682,684,687,679,669,681,668,1379,1389,1383,1436,1830,2498,2993,3090,3216,3244,3169,3107,3075,3060,3028,2962,2910,2839,2826,2532,2313,2172,2050,1990,1740,1884,1623,1603,1635,1521,1480,1464,1468,1409,1391,1384,1389,1339,1336,1341,1342,1358,1348,1347,1359,1359,1361,1360,1362,1354,1360,1357,1372,1362,1367,1363,1366,1356,1360,1362,1365,1357,1347,1359,1346,481,492,507,544,565,592,911,1009,1073,1150,1174,1140,1123,1105,1121,1084,1068,1035,1030,1012,978,960,968,940,926,924,883,863,845,827,621,578,585,565,491,474,494,456,454,466,467,465,457,457,467,470,467,468,470,463,467,462,477,467,484,471,479,465,468,471,471,468,457,470,457,1297,1294,1309,1366,1709,2357,2777,2930,3024,3070,3000,2962,2930,2897,2859,2816,2753,2676,2649,2602,2445,2460,2278,2272,2015,1993,1794,1605,1500,1430,1417,1352,1351,1330,1324,1274,1302,1256,1248,1265,1270,1268,1263,1267,1268,1277,1274,1276,1277,1272,1283,1272,1292,1286,1293,1289,1286,1278,1286,1281,1287,1282,1268,1280,1267,473,464,464,466,480,615,880,986,1076,1124,1129,1122,1104,1086,1070,1046,1032,1014,974,956,939,942,924,907,889,871,886,861,814,796,781,756,588,546,462,479,469,477,454,457,450,461,472,464,462,468,458,461,464,470,464,460,462,462,465,461,461,465,465,463,461,462,465,467,462,770,795,779,813,827,1182,1549,1704,1735,1780,1778,1753,1788,1701,1791,1641,1626,1600,1632,1549,1524,1545,1473,1447,1413,1458,1371,1259,1177,931,846,829,812,797,809,784,802,831,815,806,806,813,800,816,815,812,829,827,816,828,833,828,829,836,833,827,819,822,823,831,824,829,825,839,827,889,889,912,903,946,1488,1824,1965,2064,2127,2117,2074,2034,1990,1974,1963,1921,1876,1863,1821,1788,1738,1716,1687,1636,1601,1585,1445,1308,1124,975,1025,968,924,908,892,887,872,849,851,856,870,881,872,882,874,872,882,881,869,878,877,884,879,880,889,882,882,881,883,883,885,887,886,881,205,205,206,207,208,324,369,412,456,498,513,506,506,498,481,481,464,453,448,440,432,423,416,408,399,398,380,375,367,358,350,342,331,326,274,208,208,209,199,195,198,199,202,199,201,201,201,200,202,200,206,204,204,201,205,200,200,204,205,198,200,201,204,206,201,702,702,707,707,712,974,1366,1513,1649,1700,1717,1677,1640,1620,1594,1564,1543,1516,1480,1456,1473,1405,1378,1345,1357,1306,1284,1109,1017,1009,925,899,760,740,712,709,728,702,623,623,623,623,623,623,623,623,623,623,623,623,623,623,623,623,623,623,623,623,623,623,623,623,623,623,623,275,276,276,277,278,312,495,553,611,668,690,680,667,656,645,635,625,612,601,590,579,568,556,546,535,524,513,501,490,482,329,322,317,307,301,279,297,297,200,200,200,200,200,200,200,200,200,200,200,200,200,200,200,200,200,200,200,200,200,200,200,200,200,200,200,697,699,701,701,710,774,1354,1556,1637,1702,1713,1669,1629,1610,1583,1554,1532,1505,1471,1449,1461,1396,1370,1339,1348,1297,1231,1160,1078,925,851,779,756,751,706,704,722,713,643,643,643,643,643,643,643,643,643,643,643,643,643,643,643,643,643,643,643,643,643,643,643,643,643,643,643,0,0,0,0,0,0,0,0,0,0,0,0,0,0,0,0,0,0,0,0,0,0,0,0,0,0,0,0,0,0,0,0,0,0,0,0,0,0,0,0,0,0,0,0,0,0,0,0,0,0,0,0,0,0,0,0,0,0,0,0,0,0,0,0,0,670,663,664,668,681,1058,1328,1479,1583,1618,1617,1614,1567,1561,1515,1560,1464,1443,1412,1386,1379,1353,1326,1284,1311,1232,1206,1225,1192,1071,935,802,699,682,673,700,705,707,678,683,677,680,678,691,691,703,691,691,693,696,696,681,685,692,690,687,692,690,687,682,681,691,689,716,707,297,298,299,300,300,365,537,600,661,722,742,731,718,706,694,685,673,660,648,638,624,612,600,589,577,565,553,541,529,520,506,473,375,313,305,302,303,304,221,221,221,221,221,221,221,221,221,221,221,221,221,221,221,221,221,221,221,221,221,221,221,221,221,221,221,603,602,608,602,612,804,1161,1309,1402,1478,1490,1454,1422,1399,1376,1361,1328,1312,1290,1267,1234,1219,1174,1152,1127,1115,1091,1082,1057,846,755,762,719,612,623,613,615,596,592,595,596,595,601,602,604,609,595,607,609,606,605,604,608,604,609,606,619,618,604,605,616,603,605,613,600,802,811,817,815,854,1261,1633,1849,1933,1959,1943,1961,1906,1873,1860,1809,1765,1733,1708,1690,1650,1621,1598,1572,1526,1495,1459,1422,1204,1089,926,905,858,842,830,820,825,814,735,735,735,735,735,735,735,735,735,735,735,735,735,735,735,735,735,735,735,735,735,735,735,735,735,735,735,1040,1043,1051,1067,1183,1801,2367,2557,2681,2698,2668,2620,2613,2561,2511,2454,2408,2357,2307,2258,2227,2170,2121,2072,2022,1972,1874,1742,1469,1287,1167,1134,1092,1067,1057,1059,1057,1063,987,987,987,987,987,987,987,987,987,987,987,987,987,987,987,987,987,987,987,987,987,987,987,987,987,987,987,563,559,572,583,588,711,1071,1173,1314,1325,1394,1371,1350,1320,1304,1262,1254,1183,1217,1201,1186,1163,1139,1117,1094,1075,987,963,944,904,815,698,604,588,609,545,553,586,483,483,483,483,483,483,483,483,483,483,483,483,483,483,483,483,483,483,483,483,483,483,483,483,483,483,483,702,702,707,707,712,974,1366,1513,1649,1700,1717,1677,1640,1620,1594,1564,1543,1516,1480,1456,1473,1405,1378,1345,1357,1306,1284,1109,1017,1009,925,899,760,740,712,709,728,702,623,623,623,623,623,623,623,623,623,623,623,623,623,623,623,623,623,623,623,623,623,623,623,623,623,623,623,1385,1387,1410,1449,1849,2671,2995,3176,3224,3302,3255,3213,3150,3095,3063,2997,2965,2925,2862,2785,2508,2322,2114,1904,1822,1696,1694,1581,1606,1576,1520,1465,1452,1410,1405,1370,1343,1335,1316,1325,1329,1342,1334,1348,1333,1343,1344,1340,1342,1335,1332,1342,1339,1342,1343,1350,1348,1346,1346,1346,1341,1357,1337,1368,1341,974,977,987,986,1120,1685,2018,2195,2283,2374,2334,2304,2253,2244,2204,2160,2119,2094,2040,1986,1969,1955,1911,1873,1827,1803,1731,1546,1298,1211,1184,1059,1014,992,986,986,920,906,893,896,896,911,903,912,903,913,914,910,911,905,902,912,909,912,913,920,918,916,916,916,910,927,907,938,911,1391,1384,1420,1448,1571,2699,3005,3164,3213,3287,3237,3223,3139,3136,3063,2992,2958,2919,2854,2779,2623,2263,2139,1871,1724,1705,1688,1583,1595,1564,1528,1460,1446,1416,1402,1410,1363,1353,1342,1354,1351,1366,1362,1369,1356,1369,1366,1358,1361,1361,1359,1369,1366,1369,1370,1376,1373,1371,1373,1372,1367,1385,1365,1396,1369,699,701,715,708,721,1151,1404,1524,1663,1744,1738,1710,1658,1648,1603,1597,1549,1526,1494,1440,1440,1443,1415,1388,1387,1358,1284,1257,1141,924,904,836,740,747,712,709,712,707,696,698,696,707,704,715,705,712,712,707,709,704,701,709,706,711,711,715,712,711,715,714,711,729,709,740,713,0,0,0,0,0,0,0,0,0,0,0,0,0,0,0,0,0,0,0,0,0,0,0,0,0,0,0,0,0,0,0,0,0,0,0,0,0,0,0,0,0,0,0,0,0,0,0,0,0,0,0,0,0,0,0,0,0,0,0,0,0,0,0,0,0,997,1000,1009,1008,1054,1734,2072,2246,2336,2424,2383,2353,2301,2296,2250,2206,2165,2138,2083,2029,2011,1997,1956,1913,1866,1842,1790,1475,1449,1130,1113,1082,1036,1014,1008,1007,941,929,916,924,917,932,927,936,925,935,936,932,934,927,924,934,931,934,935,942,940,938,938,938,933,949,929,960,933,157,158,158,226,238,247,279,310,343,375,392,386,380,373,367,361,355,349,343,337,331,324,318,312,306,300,294,288,282,274,268,262,256,250,244,240,241,241,150,156,150,155,156,154,154,155,152,152,152,153,151,150,151,152,152,153,152,152,152,154,150,156,151,153,151,1494,1488,1524,1630,1918,2914,3242,3413,3470,3509,3473,3427,3367,3297,3258,3201,3174,3119,3071,2958,2598,2268,2182,1882,1828,1828,1813,1694,1702,1682,1636,1584,1564,1512,1513,1482,1455,1447,1428,1437,1441,1454,1446,1460,1445,1455,1456,1452,1454,1447,1444,1454,1451,1454,1455,1462,1460,1458,1458,1458,1453,1469,1449,1480,1453,1304,1306,1348,1504,2582,3065,3423,3584,3679,3658,3694,3507,3477,3361,3345,3216,3165,3078,3002,2923,2871,2515,2463,2317,2181,2048,1765,1724,1510,1461,1417,1365,1340,1305,1306,1336,1376,1370,1429,1427,1461,1457,1463,1456,1445,1442,1434,1447,1478,1449,1459,1520,1525,1556,1540,1515,1450,1452,1465,1460,1455,1457,1448,1473,1470,1068,1076,1081,1112,1274,1877,2231,2425,2533,2584,2576,2542,2496,2467,2426,2374,2339,2303,2268,2221,2178,2136,2101,2032,1913,1868,1655,1511,1397,1426,1182,1144,1124,1100,1101,1080,1063,1042,1049,1048,1048,1051,1048,1051,1057,1063,1069,1058,1048,1057,1057,1071,1073,1102,1060,1063,1070,1068,1068,1088,1081,1067,1073,1086,1070,1385,1387,1410,1449,1849,2671,2995,3176,3224,3302,3255,3213,3150,3095,3063,2997,2965,2925,2862,2785,2508,2322,2114,1904,1822,1696,1694,1581,1606,1576,1520,1465,1452,1410,1405,1370,1343,1335,1316,1325,1329,1342,1334,1348,1333,1343,1344,1340,1342,1335,1332,1342,1339,1342,1343,1350,1348,1346,1346,1346,1341,1357,1337,1368,1341,490,491,491,494,484,605,918,993,1122,1155,1215,1162,1118,1101,1081,1060,1077,1024,1008,1036,971,998,937,958,897,922,898,882,802,808,793,705,524,510,500,479,500,499,471,467,467,470,474,474,475,469,477,476,478,476,519,492,510,477,474,499,481,503,473,480,506,480,480,480,480,49,49,49,49,75,75,86,96,106,116,126,123,121,120,117,115,114,111,109,108,105,103,100,99,97,94,93,91,88,87,85,82,81,79,76,75,75,75,32,32,32,32,32,32,32,32,32,32,34,34,45,44,45,35,32,32,33,33,32,32,34,32,32,32,32,494,493,502,500,479,537,867,985,1110,1143,1155,1152,1117,1089,1071,1050,1051,1015,997,1004,964,982,928,949,890,913,897,871,734,837,620,597,528,520,481,474,508,500,477,479,485,498,492,495,494,511,495,492,507,500,520,519,524,516,489,489,501,500,499,488,498,500,500,500,500,259,260,261,262,264,286,459,512,570,622,648,639,628,618,606,596,586,575,566,555,546,536,526,516,506,492,486,475,464,454,443,298,292,275,268,264,265,266,211,211,212,214,215,213,212,214,211,216,214,214,213,215,217,217,217,216,214,214,214,214,213,216,211,211,211,899,900,913,889,940,1414,1776,2010,2119,2135,2176,2145,2104,2076,2036,1999,1976,1942,1895,1858,1826,1790,1762,1736,1697,1658,1553,1526,1251,1122,1068,976,946,932,917,913,924,930,883,882,876,875,893,891,890,892,889,894,892,892,891,893,895,895,895,894,892,892,891,892,891,894,889,889,889,0,0,0,0,0,0,0,0,0,0,0,0,0,0,0,0,0,0,0,0,0,0,0,0,0,0,0,0,0,0,0,0,0,0,0,0,0,0,0,0,0,0,0,0,0,0,0,0,0,0,0,0,0,0,0,0,0,0,0,0,0,0,0,0,0,835,815,818,829,867,1130,1635,1808,1969,1961,1984,1944,1945,1897,1878,1860,1814,1772,1768,1703,1669,1666,1615,1566,1535,1515,1476,1434,1256,1070,1084,889,872,887,853,835,848,841,800,794,800,803,803,806,810,801,803,807,816,807,809,816,814,813,816,813,818,818,811,812,817,814,814,814,814,598,602,596,604,633,995,1176,1298,1446,1476,1473,1451,1429,1398,1378,1355,1331,1308,1285,1261,1237,1214,1190,1165,1142,1121,1094,1071,1051,1012,804,784,631,626,611,608,609,609,568,574,572,606,586,587,575,582,581,585,596,596,605,615,601,609,592,597,602,605,605,593,597,608,608,608,608,876,878,899,898,1019,1552,1823,1993,2138,2186,2176,2101,2102,2074,2041,1999,1933,1939,1864,1870,1797,1756,1768,1729,1660,1666,1618,1548,1382,1166,1101,969,940,904,908,910,892,895,887,886,891,897,889,902,893,904,907,899,913,907,929,917,922,920,901,902,907,907,896,921,906,902,902,902,902,477,473,475,501,484,581,896,968,1072,1152,1158,1123,1105,1098,1085,1061,1033,1044,1012,1012,961,972,954,965,917,898,865,812,791,776,769,712,557,492,491,479,478,483,460,465,469,475,479,479,467,480,466,472,479,479,475,478,480,500,484,480,478,478,481,482,473,488,471,478,471,490,491,491,494,484,605,918,993,1122,1155,1215,1162,1118,1101,1081,1060,1077,1024,1008,1036,971,998,937,958,897,922,898,882,802,808,793,705,524,510,500,479,500,499,471,467,467,470,474,474,475,469,477,476,478,476,519,492,510,477,474,499,481,503,473,480,506,480,480,480,480,1319,1340,1346,1380,1711,2078,2932,3040,3129,3164,3112,3072,3040,3000,2955,2895,2858,2795,2712,2719,2564,2385,2161,2044,1816,1790,1726,1548,1687,1492,1455,1408,1376,1361,1341,1335,1293,1275,1246,1241,1258,1267,1262,1279,1249,1265,1265,1256,1267,1268,1260,1266,1273,1296,1280,1299,1263,1276,1271,1276,1281,1296,1281,1285,1280,882,911,914,914,946,1182,1900,2043,2165,2215,2166,2142,2132,2096,2070,2029,1993,1959,1891,1896,1833,1788,1765,1729,1693,1674,1642,1435,1298,1173,1099,994,945,928,910,911,870,846,823,812,825,836,831,843,819,835,835,826,836,838,830,836,843,866,850,869,833,846,841,846,850,866,851,855,850,1313,1334,1344,1376,1493,2066,2908,3006,3084,3145,3101,3061,2999,2956,2898,2888,2851,2773,2704,2697,2623,2435,2231,2084,1838,1781,1702,1542,1559,1476,1456,1408,1389,1360,1336,1336,1313,1293,1272,1270,1281,1291,1289,1300,1272,1291,1287,1274,1286,1294,1287,1293,1300,1323,1307,1325,1289,1301,1296,1303,1307,1324,1309,1313,1308,610,636,639,640,643,678,1232,1368,1507,1569,1532,1508,1516,1492,1507,1442,1415,1390,1336,1340,1287,1265,1241,1216,1192,1195,1161,1107,1093,856,838,818,672,654,635,632,634,647,626,615,625,632,632,642,621,637,634,623,634,637,629,633,640,665,648,665,628,642,638,645,651,665,652,656,652,136,136,136,137,137,212,240,268,295,322,342,336,331,325,320,314,309,303,298,292,288,282,276,271,265,260,254,249,243,238,232,228,222,217,140,138,138,139,112,108,109,130,123,115,108,109,110,115,124,114,124,120,121,111,120,116,113,121,122,114,112,114,124,131,112,904,933,933,937,976,1225,1954,2095,2215,2266,2216,2192,2180,2143,2116,2075,2039,2003,1935,1940,1875,1830,1806,1769,1733,1713,1680,1439,1421,1128,1032,1002,968,950,931,929,891,869,846,840,846,857,855,867,841,857,857,848,859,860,852,858,865,888,872,891,855,868,863,868,873,888,873,877,872,0,0,0,0,0,0,0,0,0,0,0,0,0,0,0,0,0,0,0,0,0,0,0,0,0,0,0,0,0,0,0,0,0,0,0,0,0,0,0,0,0,0,0,0,0,0,0,0,0,0,0,0,0,0,0,0,0,0,0,0,0,0,0,0,0,1421,1445,1471,1548,1795,2370,3191,3297,3407,3408,3351,3309,3280,3223,3184,3122,3067,3027,2936,2929,2598,2323,2182,1822,1784,1744,1709,1699,1676,1604,1570,1533,1486,1464,1454,1444,1405,1387,1358,1353,1370,1379,1374,1391,1361,1377,1377,1368,1379,1380,1372,1378,1385,1408,1392,1411,1375,1388,1383,1388,1393,1408,1393,1397,1392,1300,1305,1344,1470,2488,3059,3417,3647,3703,3733,3662,3572,3513,3452,3342,3296,3216,3128,3067,2992,2875,2515,2460,2319,2159,2034,1857,1659,1649,1492,1449,1408,1363,1345,1329,1360,1367,1378,1427,1419,1455,1451,1464,1456,1438,1433,1428,1439,1493,1447,1463,1503,1508,1550,1516,1507,1449,1460,1469,1458,1452,1457,1455,1520,1468,1059,1056,1058,1076,1135,1768,2240,2420,2541,2515,2540,2496,2465,2436,2360,2354,2303,2266,2221,2163,2148,2102,2057,2013,1865,1826,1655,1391,1424,1370,1168,1142,1092,1084,1072,1080,1055,1038,1023,1028,1036,1056,1023,1033,1027,1038,1045,1020,1021,1026,1022,1043,1036,1061,1031,1062,1040,1042,1060,1051,1049,1049,1039,1039,1035,1319,1340,1346,1380,1711,2078,2932,3040,3129,3164,3112,3072,3040,3000,2955,2895,2858,2795,2712,2719,2564,2385,2161,2044,1816,1790,1726,1548,1687,1492,1455,1408,1376,1361,1341,1335,1293,1275,1246,1241,1258,1267,1262,1279,1249,1265,1265,1256,1267,1268,1260,1266,1273,1296,1280,1299,1263,1276,1271,1276,1281,1296,1281,1285,1280,339,340,341,342,352,559,619,702,753,837,818,806,793,807,769,781,744,732,718,706,694,680,685,657,645,633,620,608,604,590,577,563,548,358,356,352,352,354,297,294,298,298,291,297,299,298,301,305,313,303,302,302,300,306,303,301,298,303,300,298,303,298,299,302,301,553,556,557,559,611,753,1028,1147,1244,1290,1291,1272,1276,1231,1210,1215,1171,1150,1130,1140,1090,1100,1093,1057,1010,991,995,974,930,795,777,747,567,553,564,561,563,564,528,531,533,543,542,538,540,544,537,542,540,540,545,567,578,564,548,542,548,552,553,547,547,587,548,553,547,400,404,403,407,412,569,742,837,910,957,1005,951,961,921,914,898,877,867,848,841,820,806,790,789,771,744,759,728,712,693,595,586,514,423,424,409,411,412,408,405,412,419,416,413,415,412,415,417,421,416,417,427,425,433,413,412,414,421,414,416,410,420,418,420,410,824,830,831,840,918,1290,1647,1810,1911,1945,1937,1909,1901,1845,1819,1804,1760,1723,1692,1691,1631,1630,1618,1573,1515,1476,1401,1370,1145,1117,882,941,847,830,836,839,800,810,773,775,783,791,789,786,786,789,786,792,785,785,791,798,805,808,797,790,791,795,796,791,791,808,791,793,787,1475,1458,1485,1538,1903,2785,3206,3329,3406,3416,3376,3316,3290,3210,3156,3126,3060,3003,2892,2532,2361,2312,2142,1872,1812,1769,1740,1690,1634,1591,1542,1553,1496,1478,1473,1499,1469,1480,1437,1436,1452,1469,1467,1464,1464,1467,1464,1470,1463,1461,1469,1476,1483,1486,1475,1468,1469,1471,1474,1469,1469,1486,1469,1471,1465,583,573,587,590,634,774,1095,1218,1320,1364,1364,1311,1340,1300,1250,1282,1208,1210,1195,1185,1153,1147,1145,1116,1068,1047,1051,1029,961,962,833,813,670,584,577,593,595,596,562,568,571,581,582,575,579,578,571,577,575,575,582,591,588,592,585,579,580,590,591,584,584,603,583,584,578,1389,1391,1417,1458,1881,2582,3024,3161,3262,3226,3235,3153,3108,3075,3001,2956,2896,2846,2777,2774,2655,2497,2310,2020,1660,1671,1647,1587,1536,1555,1494,1495,1423,1405,1384,1406,1384,1396,1361,1361,1373,1384,1388,1379,1374,1384,1387,1384,1379,1384,1390,1392,1406,1409,1401,1394,1389,1397,1400,1388,1391,1411,1390,1392,1386,0,0,0,0,0,0,0,0,0,0,0,0,0,0,0,0,0,0,0,0,0,0,0,0,0,0,0,0,0,0,0,0,0,0,0,0,0,0,0,0,0,0,0,0,0,0,0,0,0,0,0,0,0,0,0,0,0,0,0,0,0,0,0,0,0,438,457,459,442,516,635,872,968,1062,1116,1129,1112,1094,1077,1060,1042,1026,1009,982,974,956,939,922,894,841,824,853,836,819,801,769,768,545,477,467,463,464,447,452,449,452,459,458,461,453,461,455,455,458,458,459,461,464,469,467,467,464,465,466,463,470,482,467,476,472,979,985,989,1005,1133,1742,2035,2192,2259,2309,2257,2221,2225,2199,2143,2108,2072,2038,2004,1969,1944,1895,1861,1837,1786,1753,1674,1460,1100,1217,1066,1031,1004,987,970,990,985,974,946,945,958,972,961,967,963,974,966,969,969,962,971,971,978,977,974,968,973,972,975,968,967,988,970,972,966,339,340,341,342,352,559,619,702,753,837,818,806,793,807,769,781,744,732,718,706,694,680,685,657,645,633,620,608,604,590,577,563,548,358,356,352,352,354,297,294,298,298,291,297,299,298,301,305,313,303,302,302,300,306,303,301,298,303,300,298,303,298,299,302,301,749,722,724,739,794,1224,1460,1618,1752,1829,1762,1796,1706,1681,1735,1697,1608,1568,1539,1512,1482,1454,1425,1398,1369,1404,1312,1284,1195,1063,829,803,784,752,740,732,734,693,706,681,683,684,707,707,699,699,701,720,705,693,707,690,693,702,706,697,708,690,690,706,701,722,707,711,708,900,902,916,939,975,1600,1928,2067,2185,2192,2228,2164,2130,2119,2091,2024,1989,1953,1938,1884,1848,1813,1778,1765,1707,1704,1636,1566,1263,1108,1097,973,951,933,923,913,899,919,904,910,901,918,912,919,918,956,923,915,914,923,919,916,912,915,923,923,920,920,914,920,922,954,958,976,920,806,821,786,798,865,1351,1604,1811,1952,1981,1908,1939,1909,1816,1867,1815,1725,1694,1707,1702,1647,1608,1542,1512,1480,1502,1471,1389,1246,1131,972,939,824,807,814,793,795,797,813,806,806,806,824,828,825,822,822,821,820,818,828,815,817,819,827,818,824,815,815,820,822,847,836,837,817,1072,1075,1079,1141,1308,2019,2376,2593,2694,2716,2693,2645,2605,2559,2510,2523,2469,2422,2388,2274,2227,2186,2140,2134,2046,1997,1950,1616,1544,1283,1282,1178,1119,1121,1114,1080,1052,1057,1060,1066,1076,1086,1079,1094,1085,1107,1085,1092,1100,1092,1097,1094,1093,1102,1099,1100,1097,1101,1096,1094,1101,1129,1101,1110,1100,1330,1346,1380,1499,2376,2889,3415,3685,3754,3744,3650,3602,3554,3459,3357,3294,3271,3195,3079,3021,2926,2823,2602,2449,2132,2046,1953,1865,1560,1501,1473,1435,1415,1356,1411,1352,1361,1368,1432,1427,1425,1426,1442,1444,1433,1437,1437,1445,1442,1461,1461,1461,1449,1446,1454,1441,1447,1449,1459,1456,1452,1467,1466,1469,1453,917,934,934,956,997,1638,1970,2108,2258,2260,2296,2234,2198,2157,2128,2083,2053,2017,1983,1944,1908,1872,1810,1822,1762,1752,1668,1654,1400,1040,1016,992,982,964,955,931,933,942,942,948,939,958,947,958,952,977,958,950,951,960,961,958,953,952,961,955,958,958,951,957,952,975,979,1007,951,1300,1315,1352,1435,2388,2833,3289,3544,3625,3616,3574,3504,3434,3354,3307,3258,3152,3033,3050,2967,2870,2580,2469,2448,2191,2064,1986,1856,1540,1491,1465,1393,1356,1332,1368,1311,1331,1340,1389,1387,1383,1384,1400,1402,1391,1395,1395,1403,1400,1419,1419,1419,1407,1404,1412,1399,1405,1407,1421,1419,1410,1425,1428,1431,1411,491,492,494,496,504,795,972,1071,1179,1179,1206,1186,1214,1194,1131,1113,1094,1114,1057,1039,1021,1002,1015,994,946,927,909,915,872,854,835,719,704,603,509,498,500,531,503,502,496,504,503,530,503,510,533,532,505,506,500,506,510,493,506,509,505,511,500,502,511,510,503,509,503,0,0,0,0,0,0,0,0,0,0,0,0,0,0,0,0,0,0,0,0,0,0,0,0,0,0,0,0,0,0,0,0,0,0,0,0,0,0,0,0,0,0,0,0,0,0,0,0,0,0,0,0,0,0,0,0,0,0,0,0,0,0,0,0,0,892,868,871,909,978,1573,1861,2089,2206,2236,2234,2195,2216,2104,2081,2026,1987,1949,2008,1871,1831,1793,1753,1789,1747,1705,1597,1537,1339,1251,1088,950,926,888,896,925,868,883,899,891,898,891,901,898,907,914,910,911,920,912,906,920,923,927,926,926,917,921,915,916,928,941,913,925,916,749,722,724,739,794,1224,1460,1618,1752,1829,1762,1796,1706,1681,1735,1697,1608,1568,1539,1512,1482,1454,1425,1398,1369,1404,1312,1284,1195,1063,829,803,784,752,740,732,734,693,706,681,683,684,707,707,699,699,701,720,705,693,707,690,693,702,706,697,708,690,690,706,701,722,707,711,708,843,827,829,839,896,1304,1668,1836,1958,2040,2026,2013,1977,1905,1883,1857,1818,1756,1764,1702,1711,1680,1637,1580,1551,1553,1426,1306,1237,1123,1050,888,890,879,852,825,852,796,782,779,784,784,783,784,784,784,786,785,784,784,784,784,784,784,784,784,784,784,784,784,784,784,784,784,784,454,456,457,459,467,646,862,964,1061,1122,1129,1111,1093,1075,1061,1039,1021,1003,988,966,948,930,912,894,876,858,840,822,804,743,728,620,606,476,483,461,463,454,418,414,416,420,420,420,420,420,420,420,420,420,420,420,420,420,420,420,420,420,420,420,420,420,420,420,420,875,877,858,888,929,1383,1720,1915,2053,2110,2098,2065,2031,1986,1965,1948,1916,1824,1835,1792,1774,1755,1702,1642,1636,1601,1520,1321,1281,1115,959,959,938,893,891,864,888,850,836,833,838,838,837,838,838,838,840,839,838,838,838,838,838,838,838,838,838,838,838,838,838,838,838,838,838,496,497,499,501,501,677,953,1069,1163,1222,1227,1213,1189,1174,1149,1130,1110,1090,1074,1051,1032,1012,992,975,954,933,917,894,874,855,731,676,531,517,507,503,505,479,433,431,430,430,430,430,430,430,430,430,430,430,430,430,430,430,430,430,430,430,430,430,430,430,430,430,430,1090,1088,1092,1107,1187,1731,2243,2392,2572,2611,2593,2539,2500,2426,2378,2340,2304,2263,2261,2158,2137,2107,2078,2019,1999,1794,1683,1661,1482,1332,1167,1143,1118,1114,1078,1097,1081,1106,1051,1049,1048,1048,1048,1048,1048,1048,1048,1048,1048,1048,1048,1048,1048,1048,1048,1048,1048,1048,1048,1048,1048,1048,1048,1048,1048,476,478,480,481,491,644,905,1013,1114,1174,1180,1161,1143,1124,1110,1087,1068,1048,1033,1011,992,976,955,936,916,898,879,860,841,777,764,539,527,498,491,484,485,475,439,437,439,443,443,443,443,443,443,443,443,443,443,443,443,443,443,443,443,443,443,443,443,443,443,443,443,1025,1021,1016,1039,1088,1621,2047,2237,2406,2440,2441,2383,2362,2266,2217,2228,2196,2119,2136,2032,2011,1973,1972,1887,1877,1836,1701,1578,1316,1312,1093,1053,1045,1040,1020,1033,1010,1042,986,984,983,983,983,983,983,983,983,983,983,983,983,983,983,983,983,983,983,983,983,983,983,983,983,983,983,940,937,926,960,987,1534,1943,2088,2185,2271,2260,2230,2197,2117,2106,2088,2047,1957,1964,1887,1886,1889,1836,1762,1732,1727,1691,1366,1344,1075,1020,1001,1004,989,957,934,962,908,894,891,896,896,895,896,896,896,898,897,896,896,896,896,896,896,896,896,896,896,896,896,896,896,896,896,896,868,879,872,894,997,1550,1966,2195,2323,2338,2341,2282,2258,2196,2148,2109,2066,2023,1980,1936,1896,1850,1809,1764,1713,1670,1634,1602,1493,1178,1094,952,925,892,894,885,883,888,887,887,887,887,887,887,887,887,887,887,887,887,887,887,887,887,887,887,887,887,887,887,887,887,887,887,887,0,0,0,0,0,0,0,0,0,0,0,0,0,0,0,0,0,0,0,0,0,0,0,0,0,0,0,0,0,0,0,0,0,0,0,0,0,0,0,0,0,0,0,0,0,0,0,0,0,0,0,0,0,0,0,0,0,0,0,0,0,0,0,0,0,843,827,829,839,896,1304,1668,1836,1958,2040,2026,2013,1977,1905,1883,1857,1818,1756,1764,1702,1711,1680,1637,1580,1551,1553,1426,1306,1237,1123,1050,888,890,879,852,825,852,796,782,779,784,784,783,784,784,784,786,785,784,784,784,784,784,784,784,784,784,784,784,784,784,784,784,784,784,0,0,0,0,0,0,0,0,0,0,0,0,0,0,0,0,0,0,0,0,0,0,0,0,0,0,0,0,0,0,0,0,0,0,0,0,0,0,0,0,0,0,0,0,0,0,0,0,0,0,0,0,0,0,0,0,0,0,0,0,0,0,0,0,0,513,512,507,507,517,729,909,1054,1149,1195,1195,1182,1168,1144,1127,1130,1112,1087,1069,1022,1039,984,968,946,923,940,886,870,890,796,716,675,587,525,518,516,510,487,485,480,485,488,496,496,491,494,493,489,497,496,489,496,495,496,496,496,497,497,489,489,489,489,489,489,489,161,161,162,162,163,169,288,321,355,388,405,398,392,385,379,373,366,360,352,346,340,333,327,321,314,308,301,295,289,282,276,270,175,171,166,164,164,164,159,147,148,148,160,160,156,149,149,154,160,160,160,160,160,160,160,156,160,160,160,160,156,160,160,160,154,786,786,782,782,809,1146,1509,1708,1816,1852,1839,1817,1792,1757,1732,1723,1692,1662,1630,1578,1581,1517,1496,1461,1428,1435,1227,1215,1184,964,960,912,833,806,799,794,779,722,719,715,719,724,730,729,725,728,730,728,731,730,726,730,731,731,730,731,730,730,725,722,722,722,722,722,722,1426,1438,1409,1474,1818,2678,3054,3235,3323,3323,3253,3233,3181,3134,3090,3052,2985,2941,2884,2532,2172,1948,1909,1768,1764,1716,1661,1623,1596,1557,1544,1517,1483,1455,1451,1420,1437,1392,1384,1379,1380,1402,1408,1407,1403,1406,1408,1406,1409,1408,1404,1408,1409,1409,1408,1409,1408,1407,1403,1400,1400,1400,1400,1400,1400,531,539,534,533,549,761,973,1123,1214,1259,1255,1254,1231,1204,1187,1189,1168,1147,1126,1075,1091,1035,1015,979,966,988,931,920,935,901,746,656,568,543,536,548,542,511,508,503,505,509,517,517,511,517,514,514,517,517,511,518,515,519,521,517,518,517,511,509,509,509,509,509,509,1347,1344,1335,1398,1707,2495,2914,3055,3117,3132,3084,3089,3012,2951,2920,2882,2813,2774,2765,2663,2359,2242,2139,1865,1929,1710,1663,1558,1508,1494,1478,1416,1417,1386,1356,1334,1350,1308,1306,1301,1306,1317,1328,1322,1313,1323,1331,1320,1325,1329,1325,1324,1332,1332,1334,1335,1328,1332,1329,1319,1319,1319,1319,1319,1319,268,269,281,280,272,426,504,562,596,676,672,663,669,658,624,637,626,592,589,592,582,557,560,549,538,515,517,506,495,484,474,446,451,431,415,308,309,310,255,262,252,262,272,265,261,267,257,261,262,270,258,256,258,261,260,261,262,264,260,260,260,260,260,260,260,645,647,649,652,678,1126,1285,1411,1522,1584,1582,1558,1533,1480,1494,1460,1436,1411,1378,1363,1318,1274,1286,1264,1240,1170,1191,1120,1105,1015,927,783,774,650,657,655,656,642,629,616,623,630,621,642,630,639,634,631,647,638,631,632,629,656,658,637,633,641,634,634,634,634,634,634,634,939,936,938,940,1053,1688,1866,2088,2170,2214,2200,2168,2123,2098,2060,2052,2011,1971,1939,1899,1876,1798,1773,1736,1550,1518,1511,1427,1205,1167,1099,1085,977,959,949,951,936,920,907,903,905,918,924,911,923,915,927,922,922,922,922,922,922,922,922,922,922,922,922,922,922,922,922,922,922,0,0,0,0,0,0,0,0,0,0,0,0,0,0,0,0,0,0,0,0,0,0,0,0,0,0,0,0,0,0,0,0,0,0,0,0,0,0,0,0,0,0,0,0,0,0,0,0,0,0,0,0,0,0,0,0,0,0,0,0,0,0,0,0,0 ]);
