n = 10;
D = [202,200,141,80,151,228,101,292,160,246 ];
q = 0;
prec = array2d(1..0,1..2,[]);
steps = 64;
l = 360;
r = 0;
which = [];
interval = array2d(1..0,1..2,[]);
T = array3d(1..11,1..11,0..64,[0,0,0,0,0,0,0,0,0,0,0,0,0,0,0,0,0,0,0,0,0,0,0,0,0,0,0,0,0,0,0,0,0,0,0,0,0,0,0,0,0,0,0,0,0,0,0,0,0,0,0,0,0,0,0,0,0,0,0,0,0,0,0,0,0,660,657,646,665,680,931,1301,1415,1547,1587,1575,1550,1548,1502,1504,1461,1429,1422,1379,1371,1352,1321,1296,1275,1228,1223,1199,1131,1105,815,893,775,710,690,654,672,671,638,586,587,585,584,599,597,611,602,593,601,602,614,600,596,598,605,599,601,603,605,599,601,596,601,597,601,590,683,682,669,690,718,887,1358,1466,1612,1643,1631,1610,1604,1559,1560,1517,1486,1474,1431,1428,1405,1371,1345,1326,1269,1269,1244,1134,1034,842,921,750,749,722,678,681,696,680,629,629,626,626,638,640,651,642,633,641,642,654,640,636,638,645,639,641,643,645,639,641,636,641,637,641,630,1280,1255,1298,1344,1737,2354,3031,3135,3241,3196,3213,3175,3129,3082,2982,2934,2841,2732,2699,2671,2614,2582,2462,2387,2274,2045,1697,1693,1468,1436,1372,1357,1290,1305,1299,1306,1294,1291,1272,1284,1281,1287,1289,1301,1290,1307,1300,1302,1294,1285,1306,1296,1311,1308,1317,1302,1303,1309,1330,1299,1309,1310,1295,1303,1298,734,728,723,736,752,885,1442,1559,1689,1738,1725,1689,1692,1652,1654,1612,1551,1557,1513,1504,1480,1447,1419,1402,1351,1344,1320,1222,1032,810,1000,786,789,759,729,733,733,709,659,659,656,668,673,671,686,674,673,674,674,688,669,666,671,678,669,678,673,674,673,674,676,677,671,675,664,640,644,642,651,682,862,1253,1411,1520,1577,1576,1538,1533,1494,1475,1448,1422,1401,1370,1349,1328,1302,1276,1251,1218,1200,1174,1153,1122,958,984,777,684,690,654,650,653,624,573,572,573,572,584,583,599,581,579,584,584,597,586,582,586,590,584,585,588,593,583,585,582,584,582,586,575,110,111,111,112,112,171,192,214,236,259,277,272,267,264,259,255,250,246,242,237,232,229,224,219,216,211,207,202,198,194,189,184,181,176,171,112,169,169,73,74,74,73,73,77,74,73,74,75,74,74,73,74,73,73,74,74,73,74,74,73,73,73,73,74,73,703,712,728,746,776,1092,1429,1592,1666,1696,1725,1706,1680,1677,1616,1606,1556,1533,1478,1477,1429,1419,1396,1375,1354,1314,1286,1278,1126,960,957,823,745,736,736,730,717,703,701,688,688,692,695,693,710,721,705,714,709,695,702,725,727,739,712,712,720,716,709,722,715,707,697,696,687,476,478,480,480,490,692,900,1006,1110,1173,1182,1162,1143,1125,1106,1087,1068,1050,1030,1011,992,974,955,936,916,903,882,860,846,826,804,643,564,497,487,484,485,507,457,469,466,472,490,474,475,476,464,479,466,470,469,479,478,494,500,482,476,475,478,470,469,470,479,478,465,737,747,767,780,806,1154,1480,1644,1727,1748,1777,1757,1741,1728,1668,1658,1608,1585,1530,1528,1481,1471,1458,1427,1406,1376,1348,1295,1157,973,951,884,785,775,776,769,756,743,720,727,730,725,741,739,746,744,747,759,745,736,744,746,744,743,757,748,733,737,747,742,736,745,743,742,733,0,0,0,0,0,0,0,0,0,0,0,0,0,0,0,0,0,0,0,0,0,0,0,0,0,0,0,0,0,0,0,0,0,0,0,0,0,0,0,0,0,0,0,0,0,0,0,0,0,0,0,0,0,0,0,0,0,0,0,0,0,0,0,0,0,792,801,801,832,881,1360,1641,1787,1886,1913,1900,1929,1838,1809,1788,1758,1728,1690,1660,1632,1608,1573,1549,1529,1501,1458,1428,1409,1340,1210,1077,919,832,836,827,832,806,794,771,762,765,767,780,780,785,778,781,781,775,774,785,767,771,781,781,773,785,768,767,782,779,791,786,785,785,0,0,0,0,0,0,0,0,0,0,0,0,0,0,0,0,0,0,0,0,0,0,0,0,0,0,0,0,0,0,0,0,0,0,0,0,0,0,0,0,0,0,0,0,0,0,0,0,0,0,0,0,0,0,0,0,0,0,0,0,0,0,0,0,0,110,110,110,110,110,110,110,110,110,110,110,110,110,110,110,110,110,110,110,110,110,110,110,110,110,110,110,110,110,110,110,110,110,110,110,110,110,110,53,53,53,53,53,53,53,55,53,55,55,55,55,55,55,55,55,55,55,56,56,56,56,56,56,56,56,791,813,815,829,844,1142,1665,1821,1942,1960,1999,1920,1891,1862,1835,1806,1777,1799,1719,1695,1654,1642,1615,1581,1548,1530,1420,1376,1236,986,1016,947,881,858,839,843,846,812,779,785,789,792,790,792,788,791,788,792,789,788,789,789,791,792,791,790,791,789,791,791,790,792,787,789,788,110,111,111,111,168,171,188,204,204,205,204,204,205,205,205,204,204,204,204,204,204,205,205,205,202,200,196,193,189,187,183,180,176,174,170,168,168,168,88,88,88,89,100,94,92,98,92,101,95,94,96,91,92,95,95,92,99,91,91,91,91,91,91,91,91,363,365,366,367,369,469,646,741,809,865,870,857,845,832,819,804,791,778,766,753,740,726,712,700,687,674,661,647,635,624,504,470,451,387,388,371,371,372,304,307,308,313,312,311,311,312,304,318,312,306,312,314,321,318,330,315,311,307,312,312,312,315,307,310,310,685,694,689,725,759,1139,1365,1519,1621,1650,1642,1675,1591,1566,1540,1515,1490,1465,1440,1413,1388,1363,1338,1323,1304,1261,1236,1220,1185,1067,892,826,722,706,696,695,696,692,668,659,662,664,680,672,682,675,678,675,675,671,683,664,668,678,678,670,682,665,664,679,676,683,683,682,682,279,280,281,303,303,258,408,478,507,535,554,547,542,537,532,530,523,517,512,506,501,495,490,449,479,435,429,422,417,407,369,263,259,255,250,304,304,304,210,211,212,214,218,214,213,213,213,214,212,217,214,215,216,215,217,215,215,216,218,217,215,216,214,216,214,434,455,458,442,444,566,806,921,1006,1053,1059,1027,1057,1008,1022,980,960,949,960,913,884,876,867,856,823,808,816,778,768,751,751,552,540,486,462,475,448,444,425,424,430,429,440,424,436,451,440,433,442,446,433,434,440,451,451,439,444,436,434,442,429,438,435,431,431,317,327,322,327,358,287,459,530,562,587,605,599,594,589,584,581,574,568,564,558,553,547,541,501,531,487,480,474,469,458,302,356,293,295,289,343,345,345,254,254,255,257,263,259,258,258,258,259,258,260,260,261,261,260,265,261,260,261,263,265,262,268,269,272,270,792,801,801,832,881,1360,1641,1787,1886,1913,1900,1929,1838,1809,1788,1758,1728,1690,1660,1632,1608,1573,1549,1529,1501,1458,1428,1409,1340,1210,1077,919,832,836,827,832,806,794,771,762,765,767,780,780,785,778,781,781,775,774,785,767,771,781,781,773,785,768,767,782,779,791,786,785,785,810,818,828,823,878,1472,1659,1825,1920,1960,1945,1922,1886,1855,1827,1803,1768,1742,1712,1681,1644,1615,1592,1562,1541,1492,1468,1422,1340,1159,1052,892,848,832,850,823,852,816,795,790,789,790,791,792,812,805,790,807,799,790,789,794,798,808,809,800,812,795,794,809,802,795,791,791,789,127,127,123,123,127,127,123,123,123,123,123,123,123,123,123,123,123,123,123,123,123,123,123,123,123,123,123,123,123,123,123,123,123,123,123,127,127,127,46,43,40,41,42,43,50,50,41,50,50,41,40,50,50,49,49,50,50,50,50,50,51,46,42,42,40,0,0,0,0,0,0,0,0,0,0,0,0,0,0,0,0,0,0,0,0,0,0,0,0,0,0,0,0,0,0,0,0,0,0,0,0,0,0,0,0,0,0,0,0,0,0,0,0,0,0,0,0,0,0,0,0,0,0,0,0,0,0,0,0,0,777,780,786,820,832,1032,1575,1732,1831,1889,1894,1865,1835,1790,1763,1746,1717,1689,1654,1622,1594,1561,1534,1501,1470,1447,1401,1297,1236,876,967,865,837,818,840,796,810,805,751,751,751,751,751,751,751,751,751,751,751,751,751,751,751,751,751,751,751,751,751,751,751,751,751,751,751,64,64,64,64,64,98,104,104,103,104,103,103,104,104,104,103,103,103,103,103,103,104,104,104,104,104,104,104,104,104,104,103,102,99,98,64,64,64,35,35,35,35,35,35,35,35,35,35,35,35,35,35,35,35,35,35,35,35,35,35,35,35,35,35,35,336,338,340,340,342,413,599,669,754,803,789,781,774,773,761,748,737,725,714,702,692,682,669,661,651,638,627,617,596,583,523,434,425,414,349,343,344,345,284,284,284,284,284,284,284,284,284,284,284,284,284,284,284,284,284,284,284,284,284,284,284,284,284,284,284,703,713,716,714,786,1207,1394,1554,1654,1698,1686,1668,1639,1610,1584,1558,1530,1508,1482,1456,1431,1406,1380,1354,1340,1311,1286,1248,1213,974,914,813,814,724,713,714,755,714,690,687,686,687,688,689,709,702,687,702,696,687,686,691,695,705,706,697,709,692,691,706,699,692,688,688,686,260,260,320,263,264,345,448,529,580,609,637,628,619,605,603,598,564,585,581,574,569,547,559,518,489,480,471,463,454,445,436,343,337,331,268,264,265,266,224,223,225,226,224,227,226,229,228,227,228,227,226,226,228,228,227,227,228,228,227,227,227,230,226,229,227,460,476,471,463,504,632,843,997,1044,1116,1100,1107,1078,1062,1028,1021,1010,992,967,966,921,920,906,897,868,836,823,810,794,781,739,649,581,515,454,453,468,454,449,446,447,449,446,447,463,465,446,460,454,445,444,460,461,467,468,469,467,463,461,464,457,450,446,446,444,299,300,317,301,303,348,499,581,632,660,688,680,671,657,655,649,615,637,633,626,621,598,610,570,541,532,523,514,506,496,397,453,391,313,307,304,304,305,268,266,268,269,269,272,271,274,273,272,274,270,272,272,273,273,275,273,273,273,272,275,274,282,281,285,283,810,818,828,823,878,1472,1659,1825,1920,1960,1945,1922,1886,1855,1827,1803,1768,1742,1712,1681,1644,1615,1592,1562,1541,1492,1468,1422,1340,1159,1052,892,848,832,850,823,852,816,795,790,789,790,791,792,812,805,790,807,799,790,789,794,798,808,809,800,812,795,794,809,802,795,791,791,789,1327,1295,1334,1406,1666,2722,3041,3234,3331,3382,3337,3270,3215,3157,3077,3033,2976,2915,2857,2839,2729,2547,2309,2297,2062,1870,1808,1720,1525,1505,1476,1418,1390,1349,1344,1349,1315,1299,1261,1261,1261,1261,1261,1261,1261,1261,1261,1261,1261,1261,1261,1261,1261,1261,1261,1261,1261,1261,1261,1261,1261,1261,1261,1261,1261,778,780,783,790,833,1355,1558,1725,1818,1885,1917,1845,1822,1807,1756,1713,1692,1706,1681,1615,1598,1557,1525,1485,1470,1434,1400,1362,1333,1184,984,943,813,808,792,789,777,774,771,771,771,771,771,771,771,771,771,771,771,771,771,771,771,771,771,771,771,771,771,771,771,771,771,771,771,757,738,739,748,810,1288,1497,1658,1756,1818,1856,1779,1754,1722,1680,1652,1623,1653,1587,1552,1524,1495,1449,1423,1394,1365,1358,1298,1269,1186,898,875,853,760,749,747,747,744,736,735,736,741,742,744,748,748,748,752,749,750,753,755,755,751,762,762,763,773,762,760,771,775,764,780,770,0,0,0,0,0,0,0,0,0,0,0,0,0,0,0,0,0,0,0,0,0,0,0,0,0,0,0,0,0,0,0,0,0,0,0,0,0,0,0,0,0,0,0,0,0,0,0,0,0,0,0,0,0,0,0,0,0,0,0,0,0,0,0,0,0,698,700,715,708,748,1216,1436,1564,1664,1728,1766,1723,1668,1641,1597,1569,1566,1552,1529,1501,1449,1422,1380,1352,1326,1298,1272,1233,1207,1190,1000,807,732,734,724,708,723,694,710,701,697,708,715,727,711,712,723,723,713,714,713,717,717,699,709,723,717,722,706,707,725,727,721,723,710,807,799,801,840,854,1429,1618,1809,1931,1956,1973,1916,1885,1854,1840,1815,1760,1729,1698,1754,1636,1605,1597,1565,1512,1502,1449,1438,1369,1241,1133,862,841,847,811,808,810,812,803,798,805,817,830,806,798,805,802,853,824,824,823,854,838,853,853,831,830,825,835,835,836,836,834,833,833,1220,1183,1226,1266,1539,2452,2778,2982,3084,3136,3100,3036,2976,2924,2846,2811,2761,2703,2647,2626,2522,2471,2455,2374,2247,2003,1839,1641,1412,1372,1368,1288,1279,1240,1235,1247,1212,1196,1158,1158,1158,1158,1158,1158,1158,1158,1158,1158,1158,1158,1158,1158,1158,1158,1158,1158,1158,1158,1158,1158,1158,1158,1158,1158,1158,672,658,703,697,720,1026,1397,1653,1771,1827,1801,1770,1738,1752,1694,1644,1653,1592,1573,1542,1525,1462,1426,1389,1360,1317,1281,1263,1209,1028,958,848,769,685,691,705,694,680,659,659,659,659,659,659,659,659,659,659,659,659,659,659,659,659,659,659,659,659,659,659,659,659,659,659,659,825,821,843,880,920,1553,1826,2104,2202,2254,2219,2175,2139,2143,2069,2018,2017,1940,1902,1862,1834,1791,1758,1704,1667,1624,1586,1540,1490,1246,1138,903,900,848,862,863,848,831,795,795,795,795,795,795,795,795,795,795,795,795,795,795,795,795,795,795,795,795,795,795,795,795,795,795,795,637,641,673,662,685,999,1354,1610,1730,1780,1762,1732,1702,1715,1641,1611,1600,1539,1520,1489,1497,1431,1400,1363,1333,1281,1255,1210,1183,1002,944,909,702,668,673,680,676,662,640,640,640,640,640,640,640,640,640,640,640,640,640,640,640,640,640,640,640,640,640,640,640,640,640,640,640,1327,1295,1334,1406,1666,2722,3041,3234,3331,3382,3337,3270,3215,3157,3077,3033,2976,2915,2857,2839,2729,2547,2309,2297,2062,1870,1808,1720,1525,1505,1476,1418,1390,1349,1344,1349,1315,1299,1261,1261,1261,1261,1261,1261,1261,1261,1261,1261,1261,1261,1261,1261,1261,1261,1261,1261,1261,1261,1261,1261,1261,1261,1261,1261,1261,844,843,849,854,911,1413,1718,1898,2032,2045,2052,2017,1985,1953,1921,1885,1840,1818,1786,1743,1720,1686,1654,1627,1582,1565,1542,1466,1344,1076,948,984,916,886,876,881,855,843,824,829,826,829,829,829,829,829,829,829,828,827,827,827,827,827,827,827,827,827,827,827,827,827,827,827,827,171,147,215,147,147,226,226,231,236,241,247,246,244,243,242,241,240,240,238,237,236,235,234,232,232,231,230,229,236,226,226,225,224,223,148,196,147,225,104,101,101,101,101,101,101,101,101,101,101,101,101,101,101,101,101,101,101,101,101,101,101,101,101,101,101,126,126,126,126,126,126,132,136,141,146,152,151,150,148,147,146,145,145,144,142,141,140,139,138,138,136,135,134,133,132,132,130,129,128,127,126,126,126,69,69,71,74,70,70,72,75,71,71,71,71,74,71,73,72,70,71,71,75,74,70,73,76,73,73,72,773,775,777,775,810,1130,1466,1719,1827,1881,1863,1845,1813,1783,1755,1725,1696,1657,1631,1608,1569,1554,1528,1496,1460,1437,1391,1287,1236,1008,863,830,815,792,782,792,784,758,722,726,729,731,736,735,732,735,732,735,734,736,733,731,732,733,732,732,735,733,731,735,733,739,734,734,732,0,0,0,0,0,0,0,0,0,0,0,0,0,0,0,0,0,0,0,0,0,0,0,0,0,0,0,0,0,0,0,0,0,0,0,0,0,0,0,0,0,0,0,0,0,0,0,0,0,0,0,0,0,0,0,0,0,0,0,0,0,0,0,0,0,322,323,325,326,330,437,572,639,706,754,756,748,740,733,724,724,709,707,694,685,674,660,648,635,623,610,598,586,572,560,523,457,450,346,337,330,332,332,281,280,279,290,280,282,283,285,279,284,287,280,285,284,287,284,292,286,284,283,283,278,281,286,283,284,281,733,736,737,745,780,1198,1440,1626,1766,1785,1795,1765,1738,1709,1686,1648,1611,1595,1555,1527,1498,1471,1454,1426,1386,1370,1350,1302,1260,1069,903,848,826,756,746,775,746,740,721,726,723,724,724,724,724,724,724,724,724,724,724,724,724,724,724,724,724,724,724,724,724,724,724,724,724,304,320,306,309,352,360,536,636,696,726,733,748,748,724,693,716,709,698,686,674,662,650,643,628,599,586,575,573,554,549,516,445,435,361,313,352,312,312,267,268,269,270,270,270,269,271,270,271,272,274,274,275,276,276,275,273,276,274,272,276,274,280,275,275,273,501,477,506,491,496,663,909,1045,1087,1190,1208,1191,1161,1151,1159,1097,1072,1068,1051,1028,1011,967,974,960,932,900,902,877,880,844,841,705,558,493,553,524,500,497,480,475,481,473,472,472,472,472,472,472,472,472,472,472,472,472,472,472,472,472,472,472,472,472,472,472,472,343,356,346,347,359,361,587,687,748,777,784,800,800,776,745,767,760,750,738,726,718,702,701,680,651,637,627,625,605,566,500,497,368,422,352,364,365,351,311,311,312,313,315,315,314,316,315,316,318,317,318,318,318,318,318,318,318,318,318,318,318,318,318,318,318,844,843,849,854,911,1413,1718,1898,2032,2045,2052,2017,1985,1953,1921,1885,1840,1818,1786,1743,1720,1686,1654,1627,1582,1565,1542,1466,1344,1076,948,984,916,886,876,881,855,843,824,829,826,829,829,829,829,829,829,829,828,827,827,827,827,827,827,827,827,827,827,827,827,827,827,827,827,785,767,781,776,814,1084,1533,1755,1846,1878,1870,1849,1818,1792,1755,1742,1705,1668,1636,1606,1577,1552,1516,1491,1453,1449,1392,1370,1262,1171,953,922,807,814,800,784,785,766,753,748,751,758,754,760,759,765,757,759,759,759,759,760,761,762,759,760,764,760,758,757,759,762,757,765,761,311,312,312,315,318,396,554,616,678,742,770,753,745,733,721,709,693,681,669,657,645,639,626,615,597,585,573,568,556,538,532,415,404,396,319,315,326,316,237,237,237,237,237,237,237,237,237,237,237,237,237,237,237,237,237,237,237,237,237,237,237,237,237,237,237,300,296,297,292,292,399,525,590,678,723,744,734,704,699,687,675,664,652,640,628,618,592,593,570,571,559,548,524,526,513,501,418,408,311,303,300,300,301,264,264,264,264,264,264,264,264,264,264,264,264,264,264,264,264,264,264,264,264,264,264,264,264,264,264,264,830,825,828,843,891,1462,1656,1818,1942,2012,2002,1966,1941,1910,1879,1848,1816,1777,1744,1729,1682,1662,1630,1599,1568,1527,1506,1474,1394,1276,1169,900,868,850,839,846,824,825,825,825,825,825,825,825,825,825,825,825,825,825,825,825,825,825,825,825,825,825,825,825,825,825,825,825,825,285,281,282,282,283,388,490,552,605,639,660,650,645,637,627,619,608,598,587,578,568,558,549,539,529,519,510,503,490,481,470,460,453,389,364,284,300,300,249,249,249,249,249,249,249,249,249,249,249,249,249,249,249,249,249,249,249,249,249,249,249,249,249,249,249,0,0,0,0,0,0,0,0,0,0,0,0,0,0,0,0,0,0,0,0,0,0,0,0,0,0,0,0,0,0,0,0,0,0,0,0,0,0,0,0,0,0,0,0,0,0,0,0,0,0,0,0,0,0,0,0,0,0,0,0,0,0,0,0,0,663,654,667,665,674,759,1252,1467,1581,1616,1612,1578,1561,1527,1509,1500,1467,1425,1399,1381,1362,1325,1310,1284,1243,1222,1201,1166,1071,1037,816,734,697,677,675,673,669,663,640,641,643,649,648,654,656,651,650,656,659,653,654,651,652,654,656,656,655,651,646,654,653,657,654,658,654,457,459,461,463,479,515,841,938,1035,1118,1136,1111,1099,1079,1062,1043,1021,1003,985,967,949,937,920,896,878,870,842,824,811,790,598,541,489,509,467,464,465,450,419,419,419,419,419,419,419,419,419,419,419,419,419,419,419,419,419,419,419,419,419,419,419,419,419,419,419,412,413,415,438,420,592,781,873,974,1072,1027,1009,992,978,960,946,935,921,902,877,870,854,828,819,795,786,763,747,668,729,638,623,521,508,422,418,420,444,408,408,408,413,413,414,414,445,415,415,419,411,411,413,413,417,413,413,415,414,414,412,411,414,411,418,412,492,493,500,503,520,625,892,990,1086,1169,1188,1162,1151,1136,1119,1095,1072,1054,1042,1018,1000,988,972,948,934,921,894,876,865,813,603,554,599,543,506,503,500,494,461,461,461,461,461,461,461,461,461,461,461,461,461,461,461,461,461,461,461,461,461,461,461,461,461,461,461,785,767,781,776,814,1084,1533,1755,1846,1878,1870,1849,1818,1792,1755,1742,1705,1668,1636,1606,1577,1552,1516,1491,1453,1449,1392,1370,1262,1171,953,922,807,814,800,784,785,766,753,748,751,758,754,760,759,765,757,759,759,759,759,760,761,762,759,760,764,760,758,757,759,762,757,765,761,165,166,166,167,252,260,295,330,364,399,417,411,404,398,391,385,378,370,364,357,351,344,337,331,324,318,310,304,297,290,284,277,271,264,256,252,253,254,221,155,156,155,160,161,156,162,156,156,160,160,158,160,162,165,166,166,158,163,162,162,165,165,167,229,167,632,627,634,636,674,898,1246,1365,1504,1561,1535,1526,1501,1472,1453,1405,1381,1374,1354,1326,1300,1255,1252,1229,1218,1187,1158,1090,1065,998,771,688,687,656,647,642,649,615,566,565,569,568,577,580,581,590,582,578,595,582,581,579,581,583,577,581,584,587,582,583,581,584,578,578,578,657,650,659,662,700,923,1300,1427,1566,1616,1592,1582,1558,1528,1503,1461,1437,1430,1408,1378,1357,1305,1299,1285,1270,1234,1202,1093,994,995,846,714,711,680,672,667,674,656,609,607,610,610,616,623,621,630,622,618,635,622,621,619,621,623,617,621,624,627,622,623,621,624,618,618,618,1252,1234,1262,1287,1727,2461,2903,3131,3174,3150,3172,3156,3055,3017,2929,2887,2799,2736,2676,2611,2599,2555,2464,2373,2133,2045,1797,1744,1425,1411,1352,1328,1276,1283,1276,1280,1252,1285,1257,1261,1269,1266,1272,1285,1285,1276,1272,1281,1276,1273,1284,1287,1293,1300,1284,1286,1288,1292,1302,1284,1295,1270,1278,1278,1278,703,701,709,710,748,921,1395,1521,1651,1708,1685,1659,1617,1623,1597,1556,1498,1504,1484,1454,1433,1380,1385,1350,1346,1310,1278,1181,992,1007,894,816,756,727,718,718,720,686,639,637,640,652,651,654,656,662,662,651,667,656,650,649,654,656,647,658,654,656,656,656,661,660,652,652,652,618,618,623,626,664,898,1209,1359,1473,1545,1519,1500,1474,1452,1425,1392,1369,1353,1331,1306,1281,1248,1233,1208,1183,1158,1124,1099,1084,912,818,755,668,652,632,629,630,601,553,550,557,556,562,566,569,569,568,561,578,565,567,565,569,568,562,565,569,575,566,567,567,567,563,563,563,0,0,0,0,0,0,0,0,0,0,0,0,0,0,0,0,0,0,0,0,0,0,0,0,0,0,0,0,0,0,0,0,0,0,0,0,0,0,0,0,0,0,0,0,0,0,0,0,0,0,0,0,0,0,0,0,0,0,0,0,0,0,0,0,0,683,692,684,688,731,1119,1355,1589,1638,1651,1676,1694,1617,1591,1633,1553,1529,1486,1452,1432,1404,1392,1395,1325,1344,1286,1222,1220,1126,833,890,743,750,734,720,720,725,678,675,675,687,697,684,662,687,695,692,693,694,691,684,697,691,706,702,668,689,690,694,696,675,703,688,683,683,454,456,456,458,466,728,867,964,1063,1122,1128,1110,1092,1074,1056,1038,1018,1000,982,976,988,928,910,892,874,856,838,820,802,784,766,643,601,475,464,460,462,464,440,442,436,454,442,447,442,439,447,441,454,461,468,440,442,442,451,448,451,440,452,457,469,442,431,464,464,717,726,723,728,765,1171,1407,1641,1690,1702,1728,1756,1669,1642,1681,1604,1581,1538,1503,1484,1455,1443,1447,1376,1395,1337,1274,1272,1157,846,895,853,777,768,760,760,748,717,718,701,706,706,711,708,710,717,709,713,723,731,727,725,730,736,739,715,725,736,735,732,724,748,734,729,729,165,166,166,167,252,260,295,330,364,399,417,411,404,398,391,385,378,370,364,357,351,344,337,331,324,318,310,304,297,290,284,277,271,264,256,252,253,254,221,155,156,155,160,161,156,162,156,156,160,160,158,160,162,165,166,166,158,163,162,162,165,165,167,229,167,852,855,904,861,947,1402,1783,1918,2008,2037,2013,1988,1956,1922,1896,1865,1843,1813,1780,1741,1719,1718,1695,1620,1606,1558,1425,1284,1340,1203,1030,980,886,891,860,882,884,849,844,839,850,859,840,869,845,851,847,845,859,848,842,849,847,888,857,855,847,854,853,855,854,857,847,876,854,213,213,214,214,273,316,376,382,398,414,420,417,414,411,408,405,402,399,396,393,390,409,403,398,393,391,388,363,358,352,328,324,319,326,322,273,310,276,184,182,185,190,188,189,189,196,189,190,189,195,189,195,192,209,192,187,189,194,189,191,189,189,189,189,189,256,256,257,258,258,256,379,465,489,505,511,508,524,502,499,496,493,490,487,484,481,474,468,462,454,448,447,420,368,359,345,345,256,323,365,259,316,260,207,206,207,211,210,210,211,218,210,211,211,217,210,214,211,235,210,208,211,215,211,213,211,211,211,211,211,662,691,699,671,712,1127,1370,1636,1804,1883,1886,1786,1853,1720,1686,1694,1704,1599,1566,1518,1489,1466,1407,1397,1342,1328,1275,1252,1211,1177,1040,871,732,733,710,704,715,685,675,678,681,687,684,688,695,694,687,691,690,693,699,695,700,701,687,688,694,689,690,691,690,688,690,681,681,252,252,253,253,254,342,449,486,523,558,578,571,564,556,548,543,535,529,522,515,508,495,489,482,475,472,466,439,366,361,380,352,347,376,371,255,327,256,207,206,207,211,210,212,211,219,212,213,212,218,211,216,213,236,212,210,214,217,213,215,213,213,213,213,213,540,542,543,546,557,634,1023,1143,1244,1266,1260,1262,1246,1212,1196,1190,1170,1152,1133,1115,1100,1105,1088,1040,1022,1003,990,954,863,847,739,640,628,564,551,549,551,512,465,469,472,479,476,480,475,484,472,486,473,481,479,486,485,517,485,476,477,478,478,480,480,480,480,480,480,740,749,791,753,832,1183,1508,1645,1754,1773,1768,1732,1707,1681,1654,1628,1610,1583,1550,1524,1497,1501,1482,1419,1405,1366,1370,1329,1156,1124,921,902,777,835,752,751,753,746,741,736,747,768,737,767,742,748,744,742,759,745,739,746,744,776,754,752,744,751,750,752,751,754,744,773,751,0,0,0,0,0,0,0,0,0,0,0,0,0,0,0,0,0,0,0,0,0,0,0,0,0,0,0,0,0,0,0,0,0,0,0,0,0,0,0,0,0,0,0,0,0,0,0,0,0,0,0,0,0,0,0,0,0,0,0,0,0,0,0,0,0,510,512,517,496,528,618,931,1040,1112,1167,1178,1131,1151,1150,1118,1100,1087,1067,1042,1000,1012,1029,1007,987,944,952,914,898,856,847,792,592,520,514,519,517,526,503,480,473,484,494,490,476,478,487,484,492,495,486,494,497,497,487,491,500,485,484,486,486,486,486,486,486,486,110,110,110,110,110,110,110,110,110,110,110,110,110,110,110,110,110,110,110,110,110,110,110,110,110,110,110,110,110,110,110,110,110,110,110,110,110,110,52,52,52,52,52,53,53,53,53,53,53,53,55,55,55,55,55,55,55,55,56,56,56,56,56,56,56,852,855,904,861,947,1402,1783,1918,2008,2037,2013,1988,1956,1922,1896,1865,1843,1813,1780,1741,1719,1718,1695,1620,1606,1558,1425,1284,1340,1203,1030,980,886,891,860,882,884,849,844,839,850,859,840,869,845,851,847,845,859,848,842,849,847,888,857,855,847,854,853,855,854,857,847,876,854,529,535,537,539,542,590,1041,1160,1252,1304,1310,1295,1268,1254,1222,1237,1216,1169,1142,1128,1105,1108,1113,1059,1019,999,977,984,963,941,921,886,735,536,540,560,572,552,519,523,526,528,528,527,525,528,522,532,523,525,528,528,537,555,537,530,531,523,531,530,531,535,524,531,524,429,439,432,433,438,536,771,862,943,1000,1027,1012,951,982,951,966,950,908,892,878,886,868,853,838,820,804,808,774,754,739,581,568,531,496,439,440,437,437,395,389,390,395,396,395,396,404,391,398,399,405,394,396,398,400,398,401,402,408,399,397,400,400,400,401,400,457,459,460,462,478,557,844,954,1034,1104,1118,1104,1042,1074,1042,1049,1032,1015,996,979,959,935,915,898,883,861,863,796,761,744,691,623,500,478,468,464,466,475,434,430,430,433,434,431,436,433,431,433,433,433,434,437,438,435,441,440,435,437,436,435,439,439,438,438,439,828,830,825,818,938,1586,1926,2116,2157,2254,2234,2157,2151,2074,2068,1993,2002,1958,1902,1860,1839,1777,1735,1693,1605,1552,1524,1526,1437,1232,1148,960,879,828,808,836,846,839,840,833,845,855,850,875,859,876,865,852,871,864,867,874,880,891,860,860,865,868,867,856,865,864,854,872,857,468,470,472,472,481,642,886,1005,1097,1152,1177,1158,1092,1120,1085,1066,1048,1030,1011,993,975,954,936,918,898,880,882,840,823,760,720,635,547,489,479,476,476,483,435,432,432,433,436,431,437,435,436,434,434,434,439,440,439,437,443,443,437,439,438,438,441,443,440,441,442,457,458,460,463,468,644,832,939,1051,1114,1136,1117,1103,1080,1062,1043,1025,1008,991,973,955,937,925,901,883,865,848,828,810,792,594,573,562,534,514,466,467,468,408,410,409,416,416,417,416,419,417,416,418,417,417,417,418,419,420,420,419,420,419,419,419,421,419,421,420,423,424,425,427,432,572,824,884,976,1032,1048,1032,1015,998,972,1003,974,931,914,898,882,888,903,853,806,790,774,784,768,751,733,706,583,426,432,429,442,443,416,418,423,425,423,423,422,425,419,425,420,422,425,425,432,429,430,426,428,420,428,427,428,432,421,428,421,333,335,336,336,338,500,618,688,760,817,846,832,772,806,775,762,748,758,722,709,697,684,670,657,644,631,637,604,591,579,566,509,498,416,385,366,367,368,309,310,311,315,316,321,311,334,308,328,320,308,312,318,329,332,320,317,313,311,323,327,311,312,308,317,310,0,0,0,0,0,0,0,0,0,0,0,0,0,0,0,0,0,0,0,0,0,0,0,0,0,0,0,0,0,0,0,0,0,0,0,0,0,0,0,0,0,0,0,0,0,0,0,0,0,0,0,0,0,0,0,0,0,0,0,0,0,0,0,0,0,372,373,375,371,378,551,669,740,812,868,897,884,824,858,826,813,800,809,774,760,748,735,722,709,696,682,689,656,643,631,589,514,559,500,426,373,379,375,345,339,344,353,346,350,340,351,348,342,349,353,353,355,350,359,358,352,344,358,355,359,358,361,356,363,356,529,535,537,539,542,590,1041,1160,1252,1304,1310,1295,1268,1254,1222,1237,1216,1169,1142,1128,1105,1108,1113,1059,1019,999,977,984,963,941,921,886,735,536,540,560,572,552,519,523,526,528,528,527,525,528,522,532,523,525,528,528,537,555,537,530,531,523,531,530,531,535,524,531,524,841,844,846,854,912,1446,1742,1908,2002,2042,2037,2014,1979,1947,1920,1884,1852,1818,1793,1767,1721,1689,1656,1652,1579,1566,1425,1237,1340,1093,960,904,910,892,876,875,883,854,826,823,828,833,832,838,840,847,838,839,838,835,833,835,835,840,834,832,840,840,840,831,833,838,828,838,833,206,207,207,208,208,216,357,372,400,425,445,440,433,429,424,419,415,409,405,400,395,391,404,397,368,376,357,363,357,350,344,337,317,216,212,208,240,240,165,167,167,170,174,169,170,170,168,171,169,170,168,172,171,173,171,169,171,169,170,172,169,172,166,171,167,249,250,250,251,252,249,360,454,491,516,536,531,524,520,515,511,506,500,496,491,487,482,469,461,449,436,433,373,367,303,263,257,265,260,255,252,252,253,188,191,189,191,196,190,192,192,189,192,191,192,189,191,190,192,189,190,193,190,192,194,191,193,188,191,189,638,672,640,670,704,1092,1331,1594,1749,1812,1818,1739,1713,1732,1660,1613,1629,1527,1540,1518,1436,1417,1431,1350,1351,1285,1240,1267,1141,1130,1040,819,798,684,683,666,706,676,644,647,651,657,653,656,663,662,656,659,658,660,666,662,667,667,653,655,661,656,656,659,657,654,652,647,646,244,245,246,247,248,289,370,475,525,569,599,593,583,575,565,557,549,539,530,522,514,504,491,481,469,456,452,371,365,360,310,303,297,306,301,248,248,280,188,191,189,191,196,192,192,193,191,194,192,193,190,193,192,193,191,192,196,192,194,196,193,195,191,193,192,533,535,536,539,549,655,901,1132,1243,1279,1285,1267,1249,1231,1213,1205,1185,1164,1143,1123,1105,1088,1061,1040,1011,995,974,879,811,793,739,663,624,591,546,542,542,513,447,453,452,460,462,457,458,459,449,467,458,453,457,463,464,474,464,460,459,453,459,461,458,463,451,460,450,734,736,738,746,790,1148,1468,1635,1744,1782,1784,1760,1730,1703,1680,1647,1620,1591,1563,1540,1508,1479,1451,1444,1383,1379,1328,1299,1223,1039,811,792,773,756,746,744,777,751,721,720,725,730,729,736,737,744,730,736,738,728,730,732,732,737,731,729,734,736,737,728,730,735,725,735,730,67,67,67,67,67,67,67,67,67,67,67,67,67,67,67,67,67,67,67,67,67,67,67,67,67,67,67,67,67,67,67,67,67,67,67,67,67,67,19,19,19,19,19,19,19,19,19,19,19,19,19,19,19,19,19,19,19,19,19,19,19,19,19,19,19,459,460,462,466,471,595,854,947,1042,1104,1118,1100,1083,1074,1048,1031,1023,997,981,964,946,937,912,904,879,862,845,827,811,794,776,543,532,529,468,466,470,468,428,421,432,443,438,423,425,434,431,442,444,433,443,442,441,432,437,446,430,429,432,430,434,432,439,439,439,0,0,0,0,0,0,0,0,0,0,0,0,0,0,0,0,0,0,0,0,0,0,0,0,0,0,0,0,0,0,0,0,0,0,0,0,0,0,0,0,0,0,0,0,0,0,0,0,0,0,0,0,0,0,0,0,0,0,0,0,0,0,0,0,0,841,844,846,854,912,1446,1742,1908,2002,2042,2037,2014,1979,1947,1920,1884,1852,1818,1793,1767,1721,1689,1656,1652,1579,1566,1425,1237,1340,1093,960,904,910,892,876,875,883,854,826,823,828,833,832,838,840,847,838,839,838,835,833,835,835,840,834,832,840,840,840,831,833,838,828,838,833,0,0,0,0,0,0,0,0,0,0,0,0,0,0,0,0,0,0,0,0,0,0,0,0,0,0,0,0,0,0,0,0,0,0,0,0,0,0,0,0,0,0,0,0,0,0,0,0,0,0,0,0,0,0,0,0,0,0,0,0,0,0,0,0,0,660,657,646,665,680,931,1301,1415,1547,1587,1575,1550,1548,1502,1504,1461,1429,1422,1379,1371,1352,1321,1296,1275,1228,1223,1199,1131,1105,815,893,775,710,690,654,672,671,638,586,587,585,584,599,597,611,602,593,601,602,614,600,596,598,605,599,601,603,605,599,601,596,601,597,601,590,683,682,669,690,718,887,1358,1466,1612,1643,1631,1610,1604,1559,1560,1517,1486,1474,1431,1428,1405,1371,1345,1326,1269,1269,1244,1134,1034,842,921,750,749,722,678,681,696,680,629,629,626,626,638,640,651,642,633,641,642,654,640,636,638,645,639,641,643,645,639,641,636,641,637,641,630,1280,1255,1298,1344,1737,2354,3031,3135,3241,3196,3213,3175,3129,3082,2982,2934,2841,2732,2699,2671,2614,2582,2462,2387,2274,2045,1697,1693,1468,1436,1372,1357,1290,1305,1299,1306,1294,1291,1272,1284,1281,1287,1289,1301,1290,1307,1300,1302,1294,1285,1306,1296,1311,1308,1317,1302,1303,1309,1330,1299,1309,1310,1295,1303,1298,734,728,723,736,752,885,1442,1559,1689,1738,1725,1689,1692,1652,1654,1612,1551,1557,1513,1504,1480,1447,1419,1402,1351,1344,1320,1222,1032,810,1000,786,789,759,729,733,733,709,659,659,656,668,673,671,686,674,673,674,674,688,669,666,671,678,669,678,673,674,673,674,676,677,671,675,664,640,644,642,651,682,862,1253,1411,1520,1577,1576,1538,1533,1494,1475,1448,1422,1401,1370,1349,1328,1302,1276,1251,1218,1200,1174,1153,1122,958,984,777,684,690,654,650,653,624,573,572,573,572,584,583,599,581,579,584,584,597,586,582,586,590,584,585,588,593,583,585,582,584,582,586,575,110,111,111,112,112,171,192,214,236,259,277,272,267,264,259,255,250,246,242,237,232,229,224,219,216,211,207,202,198,194,189,184,181,176,171,112,169,169,73,74,74,73,73,77,74,73,74,75,74,74,73,74,73,73,74,74,73,74,74,73,73,73,73,74,73,703,712,728,746,776,1092,1429,1592,1666,1696,1725,1706,1680,1677,1616,1606,1556,1533,1478,1477,1429,1419,1396,1375,1354,1314,1286,1278,1126,960,957,823,745,736,736,730,717,703,701,688,688,692,695,693,710,721,705,714,709,695,702,725,727,739,712,712,720,716,709,722,715,707,697,696,687,476,478,480,480,490,692,900,1006,1110,1173,1182,1162,1143,1125,1106,1087,1068,1050,1030,1011,992,974,955,936,916,903,882,860,846,826,804,643,564,497,487,484,485,507,457,469,466,472,490,474,475,476,464,479,466,470,469,479,478,494,500,482,476,475,478,470,469,470,479,478,465,737,747,767,780,806,1154,1480,1644,1727,1748,1777,1757,1741,1728,1668,1658,1608,1585,1530,1528,1481,1471,1458,1427,1406,1376,1348,1295,1157,973,951,884,785,775,776,769,756,743,720,727,730,725,741,739,746,744,747,759,745,736,744,746,744,743,757,748,733,737,747,742,736,745,743,742,733,0,0,0,0,0,0,0,0,0,0,0,0,0,0,0,0,0,0,0,0,0,0,0,0,0,0,0,0,0,0,0,0,0,0,0,0,0,0,0,0,0,0,0,0,0,0,0,0,0,0,0,0,0,0,0,0,0,0,0,0,0,0,0,0,0 ]);
