n = 10;
D = [221,122,154,259,126,167,141,278,203,176 ];
q = 0;
prec = array2d(1..0,1..2,[]);
steps = 64;
l = 360;
r = 0;
which = [];
interval = array2d(1..0,1..2,[]);
T = array3d(1..11,1..11,0..64,[0,0,0,0,0,0,0,0,0,0,0,0,0,0,0,0,0,0,0,0,0,0,0,0,0,0,0,0,0,0,0,0,0,0,0,0,0,0,0,0,0,0,0,0,0,0,0,0,0,0,0,0,0,0,0,0,0,0,0,0,0,0,0,0,0,337,337,362,339,340,432,485,530,571,610,620,612,605,597,589,581,574,566,558,551,543,535,532,525,513,509,498,476,468,460,454,446,438,431,371,341,365,366,311,308,305,306,308,309,313,315,307,312,313,307,306,315,315,315,315,315,315,315,317,320,315,319,315,315,312,1059,1063,1084,1102,1137,1562,1783,1942,2023,2054,2032,2013,1977,1941,1916,1884,1859,1837,1799,1770,1739,1719,1682,1646,1626,1584,1564,1441,1458,1221,1175,1133,1124,1125,1082,1082,1077,1071,1052,1047,1048,1049,1051,1052,1056,1058,1050,1055,1056,1050,1049,1054,1058,1058,1058,1058,1058,1055,1054,1063,1058,1062,1058,1058,1055,485,487,489,490,494,571,717,791,867,941,939,937,916,912,901,886,873,858,844,830,816,801,786,773,758,743,731,717,702,691,654,635,596,575,502,495,496,483,416,416,425,453,418,421,421,426,419,417,420,422,420,417,419,421,421,420,419,421,417,420,417,420,420,420,417,480,481,483,484,491,632,723,796,869,926,926,914,898,913,872,858,844,830,817,803,789,775,762,748,734,720,706,693,679,665,652,621,608,586,489,487,488,481,471,465,471,479,471,474,473,473,474,479,480,481,473,475,486,473,483,482,486,485,480,483,484,502,492,511,487,1043,1064,1073,1086,1142,1543,1749,1907,1993,2041,1991,1984,1943,1924,1874,1864,1823,1804,1763,1745,1714,1684,1669,1622,1582,1545,1522,1504,1281,1263,1149,1148,1120,1071,1071,1058,1057,1064,1043,1044,1043,1045,1048,1047,1051,1053,1045,1050,1051,1047,1044,1053,1053,1053,1053,1053,1053,1054,1053,1057,1053,1057,1054,1054,1051,359,360,360,361,362,420,526,577,628,674,678,669,660,650,640,630,621,611,601,591,583,573,577,553,544,534,524,514,506,496,486,476,426,374,366,363,364,365,332,331,332,332,332,332,332,336,333,332,332,332,331,331,331,332,333,332,332,333,331,332,331,331,331,331,331,569,571,588,574,604,755,856,943,1043,1079,1077,1059,1044,1029,1015,1005,985,975,959,945,931,920,910,902,876,862,837,828,794,796,770,732,687,639,580,578,579,569,541,538,535,536,538,539,543,545,537,542,543,537,536,545,545,545,545,545,545,545,547,550,545,549,545,545,542,143,190,143,144,144,146,227,235,238,272,260,243,256,262,261,260,244,257,240,237,237,251,237,234,233,236,234,236,235,226,235,235,234,234,193,144,191,144,147,149,147,150,153,152,150,153,148,149,152,156,147,152,153,153,149,152,153,157,153,153,150,155,148,152,149,589,590,608,594,616,786,891,982,1088,1123,1121,1102,1086,1070,1054,1045,1023,1013,997,981,966,955,947,935,908,892,867,858,842,826,694,687,676,623,600,608,627,586,558,555,552,553,555,556,560,562,554,559,560,554,553,562,562,562,562,562,562,562,564,567,562,566,562,562,559,0,0,0,0,0,0,0,0,0,0,0,0,0,0,0,0,0,0,0,0,0,0,0,0,0,0,0,0,0,0,0,0,0,0,0,0,0,0,0,0,0,0,0,0,0,0,0,0,0,0,0,0,0,0,0,0,0,0,0,0,0,0,0,0,0,260,261,261,261,262,336,372,425,449,505,519,511,503,492,473,478,457,464,457,433,424,416,423,415,407,385,391,382,360,352,359,350,343,335,309,263,264,264,235,232,233,236,236,236,236,236,234,237,235,235,231,235,233,229,232,235,236,236,231,230,236,235,232,233,230,0,0,0,0,0,0,0,0,0,0,0,0,0,0,0,0,0,0,0,0,0,0,0,0,0,0,0,0,0,0,0,0,0,0,0,0,0,0,0,0,0,0,0,0,0,0,0,0,0,0,0,0,0,0,0,0,0,0,0,0,0,0,0,0,0,859,855,857,869,912,1238,1389,1541,1672,1701,1695,1667,1641,1613,1586,1563,1532,1509,1475,1450,1443,1400,1387,1360,1333,1289,1265,1234,1207,1180,1056,1007,978,879,867,864,886,860,852,853,855,855,855,853,855,854,856,855,854,855,860,862,859,861,883,860,861,862,862,880,883,881,861,859,858,522,524,525,527,533,567,730,856,971,1040,1058,1040,1019,1007,990,973,914,915,922,905,864,854,855,816,799,793,775,772,744,708,634,610,568,561,542,535,522,524,386,386,397,418,389,392,391,395,390,391,391,390,392,398,397,394,393,394,391,390,394,396,391,390,388,392,389,478,480,481,483,485,563,753,845,932,987,992,975,953,942,926,909,893,876,860,843,827,810,794,777,761,744,728,711,696,680,606,529,512,502,489,486,487,489,478,471,466,473,475,511,501,510,508,504,506,480,475,514,507,538,519,510,522,511,528,507,499,492,479,482,470,848,851,850,854,900,1180,1339,1527,1634,1686,1645,1628,1631,1585,1576,1552,1520,1498,1432,1444,1411,1387,1328,1353,1304,1265,1254,1197,1185,1070,953,903,882,897,850,859,858,842,843,851,853,854,854,852,853,853,849,854,853,854,858,860,858,860,874,859,860,860,861,868,874,874,860,858,857,522,523,525,527,546,603,803,895,980,1047,1051,1050,1018,1019,1012,990,974,935,918,900,909,883,851,834,817,800,784,767,764,733,717,661,610,545,533,530,531,524,494,488,490,497,496,496,494,496,494,501,498,499,507,507,507,498,497,496,498,501,492,490,498,496,492,496,490,362,360,364,364,366,412,535,620,678,729,740,728,699,688,694,683,671,650,648,637,626,614,603,592,584,573,547,549,524,524,502,500,427,390,383,367,369,369,347,345,351,362,380,375,370,385,371,382,375,366,428,405,411,421,376,360,387,397,360,376,375,395,386,386,371,336,337,336,339,340,442,497,552,603,672,668,658,647,638,628,617,607,597,586,576,562,555,545,535,524,514,504,493,484,474,463,449,443,432,345,341,342,342,318,312,314,321,320,320,318,320,318,325,322,323,328,332,330,322,321,320,322,325,316,314,322,320,316,320,314,381,382,383,384,386,438,566,659,723,774,784,772,742,747,735,722,711,698,686,673,661,649,637,625,617,605,577,576,554,557,530,531,450,440,402,387,413,390,364,363,365,370,408,405,383,397,389,406,389,380,407,373,375,398,384,373,403,373,371,405,390,410,406,395,387,260,261,261,261,262,336,372,425,449,505,519,511,503,492,473,478,457,464,457,433,424,416,423,415,407,385,391,382,360,352,359,350,343,335,309,263,264,264,235,232,233,236,236,236,236,236,234,237,235,235,231,235,233,229,232,235,236,236,231,230,236,235,232,233,230,999,1001,993,1001,1069,1409,1597,1864,1951,1981,1962,1959,1914,1904,1859,1812,1794,1746,1726,1700,1661,1629,1605,1554,1546,1505,1474,1337,1210,1192,1109,1082,1051,1069,1012,1018,1006,981,930,936,929,940,961,973,965,981,958,975,975,985,963,951,950,967,956,956,971,965,950,957,954,1018,956,962,944,795,807,785,792,799,1111,1208,1425,1526,1570,1607,1544,1498,1494,1453,1424,1422,1380,1367,1347,1322,1297,1273,1229,1222,1197,1196,1133,1116,1098,934,912,828,873,800,792,787,808,769,771,777,783,811,812,802,831,807,820,817,817,808,795,800,815,803,793,820,805,787,802,807,846,811,816,805,0,0,0,0,0,0,0,0,0,0,0,0,0,0,0,0,0,0,0,0,0,0,0,0,0,0,0,0,0,0,0,0,0,0,0,0,0,0,0,0,0,0,0,0,0,0,0,0,0,0,0,0,0,0,0,0,0,0,0,0,0,0,0,0,0,855,859,861,868,889,1181,1325,1584,1673,1727,1706,1679,1660,1624,1599,1563,1543,1515,1488,1461,1438,1411,1379,1347,1323,1296,1272,1244,1206,1134,1115,962,906,928,874,872,857,864,813,819,824,837,843,862,828,858,838,842,855,851,835,843,838,853,835,841,852,860,848,842,841,921,831,847,835,1218,1229,1244,1284,1463,1821,2066,2318,2380,2429,2420,2370,2348,2297,2267,2218,2184,2113,2073,2047,2021,1984,1953,1901,1863,1819,1788,1701,1645,1516,1335,1306,1293,1303,1243,1252,1230,1237,1192,1208,1205,1231,1220,1259,1246,1263,1259,1261,1257,1239,1241,1230,1235,1246,1239,1237,1247,1242,1254,1236,1236,1297,1235,1263,1248,265,266,267,268,269,298,392,438,485,530,544,535,526,518,509,500,491,482,474,466,457,448,440,431,422,413,404,396,387,378,369,360,304,296,289,270,270,287,262,261,261,261,269,261,266,332,263,270,266,263,269,269,265,267,332,270,270,270,265,267,265,270,270,270,270,1320,1324,1320,1361,1460,1987,2234,2470,2544,2575,2558,2505,2465,2429,2371,2339,2305,2279,2225,2198,2143,2102,2073,2012,1979,1938,1929,1769,1686,1618,1424,1413,1361,1381,1331,1316,1281,1295,1244,1253,1250,1259,1281,1298,1286,1302,1279,1296,1296,1306,1284,1272,1271,1288,1277,1277,1292,1286,1271,1278,1275,1339,1277,1283,1265,858,860,867,873,922,1144,1380,1544,1650,1695,1695,1665,1639,1622,1587,1568,1536,1500,1486,1458,1428,1405,1370,1335,1328,1285,1254,1245,1218,1191,951,932,908,888,875,868,858,839,831,832,844,841,842,855,845,847,843,847,874,848,844,847,854,869,848,846,846,847,846,847,847,849,837,869,851,1092,1091,1079,1092,1136,1552,1755,2025,2097,2129,2116,2102,2050,2037,1990,1953,1932,1885,1863,1835,1811,1758,1732,1674,1672,1624,1596,1555,1379,1356,1296,1174,1143,1173,1100,1095,1097,1067,1016,1024,1019,1030,1049,1062,1051,1067,1044,1061,1061,1071,1049,1037,1036,1053,1042,1042,1057,1051,1036,1043,1040,1104,1042,1048,1030,972,972,976,985,1059,1346,1583,1771,1876,1916,1914,1882,1852,1833,1792,1773,1739,1699,1681,1651,1618,1589,1551,1511,1493,1448,1385,1393,1330,1270,1170,1067,1017,1004,990,985,955,934,925,933,956,933,937,944,934,942,941,945,969,942,936,938,946,967,943,942,948,937,940,939,946,946,933,974,945,999,1001,993,1001,1069,1409,1597,1864,1951,1981,1962,1959,1914,1904,1859,1812,1794,1746,1726,1700,1661,1629,1605,1554,1546,1505,1474,1337,1210,1192,1109,1082,1051,1069,1012,1018,1006,981,930,936,929,940,961,973,965,981,958,975,975,985,963,951,950,967,956,956,971,965,950,957,954,1018,956,962,944,546,538,548,541,553,680,804,912,1022,1082,1093,1089,1063,1045,1028,1007,997,972,958,928,922,906,887,870,843,832,806,800,781,767,748,612,575,573,555,546,554,544,483,484,488,491,491,492,490,488,491,496,490,492,496,503,505,508,500,499,499,498,498,503,503,500,498,495,494,560,561,562,563,578,660,863,958,1055,1128,1125,1106,1088,1068,1072,1039,1022,1018,1001,984,949,931,910,891,893,859,862,823,802,784,768,715,617,585,572,568,582,547,502,493,500,503,496,513,498,518,509,508,512,502,507,505,507,516,506,504,509,511,504,506,508,513,503,512,505,918,924,924,931,1031,1362,1552,1675,1822,1881,1827,1804,1772,1783,1762,1690,1696,1619,1659,1579,1551,1525,1425,1447,1444,1389,1384,1329,1334,1278,1176,1043,1017,970,938,935,937,938,922,911,919,918,922,920,921,921,921,920,924,923,921,924,923,923,918,922,923,923,925,920,920,920,922,919,918,0,0,0,0,0,0,0,0,0,0,0,0,0,0,0,0,0,0,0,0,0,0,0,0,0,0,0,0,0,0,0,0,0,0,0,0,0,0,0,0,0,0,0,0,0,0,0,0,0,0,0,0,0,0,0,0,0,0,0,0,0,0,0,0,0,915,918,921,924,942,1253,1468,1675,1792,1845,1844,1821,1785,1753,1721,1687,1662,1631,1597,1570,1539,1508,1479,1449,1422,1387,1357,1341,1302,1259,1012,992,1003,951,935,930,932,924,851,849,868,883,884,879,882,884,867,890,871,868,867,875,885,889,877,885,876,869,867,879,886,883,881,873,872,970,976,976,986,1049,1443,1668,1775,1915,1981,1928,1901,1864,1870,1850,1749,1766,1744,1731,1656,1632,1589,1488,1547,1516,1460,1443,1383,1365,1304,1148,1117,1059,1010,996,986,989,995,981,976,979,975,982,980,981,981,981,980,984,983,981,984,983,983,978,982,983,983,985,980,980,980,982,979,978,713,716,718,720,728,885,1087,1207,1319,1388,1396,1375,1349,1327,1305,1284,1268,1246,1221,1200,1180,1158,1139,1124,1093,1077,1058,1036,1014,991,934,893,756,744,727,723,726,719,668,662,668,673,678,676,676,671,677,699,677,672,692,685,687,682,673,694,681,697,670,674,705,706,700,701,695,749,762,756,756,766,1008,1187,1319,1444,1504,1505,1465,1445,1416,1417,1380,1362,1347,1327,1306,1265,1248,1213,1191,1173,1134,1142,1098,1080,946,930,850,815,779,765,762,764,743,698,689,696,699,692,709,694,714,705,704,708,698,703,701,703,712,702,700,705,707,700,702,704,709,699,708,701,484,483,485,486,489,537,693,779,857,928,943,933,916,900,886,872,862,847,829,815,800,787,776,759,744,730,716,701,687,673,562,550,538,526,493,488,490,491,438,434,440,444,452,454,440,448,440,452,447,447,450,452,460,475,457,458,449,449,448,462,461,462,456,457,456,806,808,810,813,831,1091,1292,1432,1569,1614,1603,1577,1550,1524,1518,1479,1459,1446,1426,1393,1349,1330,1300,1275,1263,1226,1221,1171,1104,1024,998,891,870,834,821,817,818,791,746,737,744,747,740,757,742,762,753,752,756,746,751,749,751,760,750,748,753,755,748,750,752,757,747,756,749,546,538,548,541,553,680,804,912,1022,1082,1093,1089,1063,1045,1028,1007,997,972,958,928,922,906,887,870,843,832,806,800,781,767,748,612,575,573,555,546,554,544,483,484,488,491,491,492,490,488,491,496,490,492,496,503,505,508,500,499,499,498,498,503,503,500,498,495,494,536,537,541,576,552,706,783,869,958,1016,1054,1024,996,996,977,965,949,930,917,902,888,871,855,840,816,812,794,777,762,746,731,716,628,569,549,543,547,540,499,499,499,501,500,499,499,500,500,503,500,500,502,499,501,501,501,501,500,504,501,502,501,501,501,502,501,670,679,682,684,688,898,1021,1144,1234,1284,1288,1278,1260,1234,1227,1200,1185,1168,1151,1139,1121,1098,1086,1062,1047,1019,1015,977,925,907,880,864,819,695,699,687,682,700,653,657,660,662,661,660,660,661,661,664,661,661,663,660,662,662,662,662,661,665,662,663,662,662,662,663,662,1289,1287,1298,1322,1499,1836,2181,2401,2520,2545,2523,2465,2443,2384,2362,2304,2264,2240,2198,2157,2104,2076,2025,1995,1956,1904,1878,1712,1507,1520,1434,1361,1355,1330,1304,1302,1303,1297,1274,1266,1279,1298,1290,1283,1271,1281,1284,1296,1304,1281,1288,1293,1293,1304,1296,1297,1281,1293,1287,1289,1294,1291,1285,1291,1283,942,949,948,983,1003,1313,1519,1678,1784,1843,1856,1825,1780,1750,1721,1692,1664,1634,1619,1591,1563,1524,1494,1465,1452,1425,1383,1354,1305,1216,1055,1031,989,979,959,974,945,896,855,855,855,857,856,855,855,856,856,859,856,856,858,855,857,857,857,857,856,860,857,858,857,857,857,858,857,0,0,0,0,0,0,0,0,0,0,0,0,0,0,0,0,0,0,0,0,0,0,0,0,0,0,0,0,0,0,0,0,0,0,0,0,0,0,0,0,0,0,0,0,0,0,0,0,0,0,0,0,0,0,0,0,0,0,0,0,0,0,0,0,0,1109,1106,1112,1126,1189,1509,1818,2045,2174,2206,2192,2137,2121,2068,2050,1997,1963,1944,1908,1859,1823,1801,1754,1731,1697,1650,1629,1586,1453,1354,1232,1179,1173,1148,1121,1119,1122,1125,1096,1099,1104,1123,1121,1106,1118,1111,1110,1127,1133,1121,1124,1131,1130,1125,1137,1129,1122,1126,1124,1136,1126,1135,1140,1130,1116,568,570,574,566,586,754,844,938,1029,1068,1094,1079,1076,1042,1026,1026,982,992,950,933,918,928,907,891,866,825,840,817,801,784,759,746,604,591,581,576,577,571,526,526,526,528,527,526,526,527,527,530,527,527,529,526,528,528,528,528,527,531,528,529,528,528,528,529,528,532,534,536,538,547,598,797,902,1013,1063,1068,1051,1034,1017,1001,983,966,950,932,916,899,882,865,862,831,815,798,797,764,748,598,584,570,557,544,540,542,543,527,529,533,536,551,541,534,573,538,575,576,541,543,553,547,624,575,549,543,540,541,545,541,625,532,548,535,601,606,602,647,641,793,889,983,1082,1145,1169,1151,1120,1103,1087,1070,1050,1035,1028,1011,994,965,946,930,922,905,881,866,844,832,816,793,661,662,609,627,623,574,563,547,552,557,548,555,558,560,563,561,560,553,559,557,556,557,560,559,559,562,558,555,556,561,557,566,561,558,568,557,572,569,670,854,955,1053,1136,1139,1121,1103,1085,1061,1037,1031,1013,995,955,959,940,893,875,882,865,831,813,811,777,616,738,593,591,578,576,576,572,558,550,561,567,563,566,555,560,562,563,570,563,566,572,568,570,568,573,556,564,563,565,567,562,562,572,566,536,537,541,576,552,706,783,869,958,1016,1054,1024,996,996,977,965,949,930,917,902,888,871,855,840,816,812,794,777,762,746,731,716,628,569,549,543,547,540,499,499,499,501,500,499,499,500,500,503,500,500,502,499,501,501,501,501,500,504,501,502,501,501,501,502,501,959,955,966,965,1072,1455,1635,1810,1879,1912,1919,1894,1835,1796,1804,1759,1728,1703,1661,1634,1609,1569,1553,1491,1481,1461,1423,1314,1262,1240,1104,1024,1051,992,977,987,970,942,941,944,943,947,947,947,947,947,947,947,947,947,947,947,947,947,947,947,947,947,947,947,947,947,947,947,947,754,756,760,762,780,1082,1208,1364,1470,1483,1491,1467,1417,1395,1402,1348,1354,1317,1294,1279,1260,1236,1185,1191,1139,1128,1128,1101,1057,1036,842,795,803,769,770,766,756,757,736,736,736,736,736,736,736,736,736,736,736,736,736,736,736,736,736,736,736,736,736,736,736,736,736,736,736,242,243,243,244,271,313,355,397,437,479,495,487,479,470,463,455,447,440,432,423,415,408,400,392,385,377,368,360,353,345,337,330,321,313,305,300,301,302,222,222,222,222,222,222,222,222,222,222,222,222,222,222,222,222,222,222,222,222,222,222,222,222,222,222,222,820,823,862,834,876,1201,1431,1514,1644,1692,1633,1608,1642,1555,1530,1503,1477,1443,1416,1404,1378,1347,1321,1323,1269,1290,1279,1210,1164,1138,996,980,902,851,855,847,863,825,842,840,837,842,838,845,845,845,845,841,840,840,840,840,840,840,840,840,840,840,840,840,840,840,840,840,840,1084,1048,1092,1109,1267,1480,1830,1984,2130,2092,2083,2049,2075,1981,2013,1912,1879,1844,1811,1777,1748,1710,1672,1689,1608,1630,1594,1507,1471,1423,1154,1121,1094,1074,1062,1062,1053,1057,1054,1054,1054,1054,1054,1054,1054,1054,1054,1054,1054,1054,1054,1054,1054,1054,1054,1054,1054,1054,1054,1054,1054,1054,1054,1054,1054,0,0,0,0,0,0,0,0,0,0,0,0,0,0,0,0,0,0,0,0,0,0,0,0,0,0,0,0,0,0,0,0,0,0,0,0,0,0,0,0,0,0,0,0,0,0,0,0,0,0,0,0,0,0,0,0,0,0,0,0,0,0,0,0,0,1279,1264,1283,1315,1523,1946,2240,2378,2481,2475,2462,2421,2367,2350,2301,2252,2233,2172,2150,2108,2074,2033,1978,1970,1906,1892,1861,1736,1691,1394,1394,1340,1315,1283,1272,1271,1217,1217,1226,1226,1226,1226,1226,1226,1226,1226,1226,1226,1226,1226,1226,1226,1226,1226,1226,1226,1226,1226,1226,1226,1226,1226,1226,1226,1226,674,676,678,683,697,815,1074,1195,1302,1332,1344,1322,1312,1284,1261,1239,1219,1198,1176,1155,1133,1112,1091,1075,1047,1027,1006,982,962,941,860,791,721,704,687,684,688,656,648,648,648,648,648,648,648,648,648,648,648,648,648,648,648,648,648,648,648,648,648,648,648,648,648,648,648,1045,1041,1056,1056,1214,1601,1793,1964,2026,2065,2060,2027,1972,1930,1936,1895,1863,1840,1804,1769,1750,1709,1684,1620,1608,1585,1540,1485,1468,1335,1163,1144,1126,1083,1067,1069,1060,1033,1027,1032,1033,1037,1037,1037,1037,1037,1037,1037,1037,1037,1037,1037,1037,1037,1037,1037,1037,1037,1037,1037,1037,1037,1037,1037,1037,788,789,790,797,843,1001,1290,1426,1531,1555,1563,1541,1529,1498,1472,1446,1424,1401,1375,1350,1326,1301,1278,1254,1225,1192,1169,1113,1090,1066,892,874,848,819,803,801,778,753,742,742,742,742,742,742,742,742,742,742,742,742,742,742,742,742,742,742,742,742,742,742,742,742,742,742,742,959,955,966,965,1072,1455,1635,1810,1879,1912,1919,1894,1835,1796,1804,1759,1728,1703,1661,1634,1609,1569,1553,1491,1481,1461,1423,1314,1262,1240,1104,1024,1051,992,977,987,970,942,941,944,943,947,947,947,947,947,947,947,947,947,947,947,947,947,947,947,947,947,947,947,947,947,947,947,947,435,437,441,440,455,594,655,727,792,839,845,833,821,809,797,785,772,756,748,734,722,709,687,685,672,660,646,632,621,601,590,577,564,467,457,441,442,439,427,424,428,431,428,425,429,436,429,428,432,430,427,431,431,436,432,437,432,435,434,431,432,430,427,434,430,694,696,698,699,729,920,1079,1230,1304,1346,1344,1325,1306,1289,1267,1247,1231,1208,1189,1167,1146,1126,1104,1082,1068,1049,1028,1008,979,964,935,750,732,716,705,702,705,691,677,672,680,684,674,692,686,704,684,690,688,683,686,689,689,691,685,687,689,688,685,684,684,688,686,694,686,1421,1432,1437,1486,1788,2227,2489,2676,2726,2743,2715,2678,2635,2595,2551,2506,2471,2426,2382,2337,2294,2250,2206,2161,2133,1999,1812,1819,1597,1696,1525,1494,1467,1449,1446,1439,1434,1432,1418,1402,1416,1420,1416,1432,1427,1448,1427,1421,1431,1419,1426,1423,1421,1431,1428,1426,1423,1429,1423,1418,1418,1422,1420,1428,1420,823,841,827,846,876,1162,1291,1464,1557,1596,1588,1563,1529,1516,1491,1467,1441,1415,1393,1366,1340,1320,1293,1269,1246,1224,1199,1178,1154,1127,904,884,865,868,836,833,836,823,784,777,790,775,780,791,783,799,794,787,791,782,784,785,785,790,788,787,785,790,781,782,782,786,784,792,784,622,624,625,627,737,843,930,1016,1232,1219,1141,1126,1111,1094,1079,994,1048,1032,948,1078,986,988,955,940,925,909,894,877,862,847,831,816,800,752,700,630,590,688,672,621,621,620,617,623,627,628,624,623,624,622,625,622,627,625,630,630,624,625,629,630,624,693,628,631,630,1416,1405,1421,1502,1744,2191,2452,2663,2679,2714,2703,2649,2587,2568,2524,2480,2443,2396,2357,2295,2269,2242,2175,2154,2105,2081,1924,1767,1580,1573,1531,1476,1439,1432,1423,1417,1427,1423,1411,1401,1409,1419,1415,1429,1424,1440,1422,1415,1428,1413,1425,1421,1415,1430,1427,1424,1422,1426,1422,1417,1417,1421,1419,1427,1419,0,0,0,0,0,0,0,0,0,0,0,0,0,0,0,0,0,0,0,0,0,0,0,0,0,0,0,0,0,0,0,0,0,0,0,0,0,0,0,0,0,0,0,0,0,0,0,0,0,0,0,0,0,0,0,0,0,0,0,0,0,0,0,0,0,929,930,930,940,970,1304,1497,1689,1759,1804,1802,1758,1739,1709,1684,1659,1633,1602,1579,1548,1520,1492,1460,1451,1414,1396,1364,1336,1296,1276,1051,995,968,952,938,936,931,921,907,912,914,918,914,922,916,933,914,920,918,913,916,919,919,926,923,921,919,918,918,917,917,920,916,924,918,450,467,453,470,457,596,659,727,808,849,853,841,823,817,804,792,778,766,754,741,726,716,703,691,678,666,656,645,633,620,608,596,479,592,459,457,458,454,429,416,421,423,418,434,425,457,434,425,453,422,425,424,423,429,425,424,425,428,424,422,423,427,425,433,425,948,950,954,958,992,1339,1550,1746,1803,1847,1844,1799,1778,1749,1724,1697,1671,1639,1614,1583,1554,1525,1507,1481,1445,1426,1394,1369,1323,1214,1049,1043,1004,972,972,964,948,938,924,920,927,935,931,943,933,946,931,937,935,930,933,936,936,943,940,938,936,935,935,934,934,937,933,941,935,435,437,441,440,455,594,655,727,792,839,845,833,821,809,797,785,772,756,748,734,722,709,687,685,672,660,646,632,621,601,590,577,564,467,457,441,442,439,427,424,428,431,428,425,429,436,429,428,432,430,427,431,431,436,432,437,432,435,434,431,432,430,427,434,430,535,529,530,531,532,664,812,907,973,1063,1026,1013,999,1028,972,979,955,938,921,905,916,870,854,821,807,820,763,763,746,729,713,706,612,573,557,553,558,524,500,498,501,512,503,512,503,506,508,509,505,510,508,505,513,514,514,505,508,518,508,514,509,507,510,509,507,309,310,311,312,313,355,452,502,554,605,627,617,607,597,587,577,567,557,547,546,528,518,508,498,488,486,468,458,448,438,388,379,372,361,318,314,347,348,285,274,275,285,273,284,274,281,280,279,280,279,282,277,281,286,286,278,280,282,278,284,278,276,279,278,276,758,761,775,767,802,958,1194,1332,1455,1516,1515,1491,1467,1443,1419,1394,1370,1346,1350,1298,1273,1249,1225,1201,1177,1152,1128,1104,1080,1056,911,891,804,785,773,770,790,792,764,768,760,764,768,769,768,772,769,773,772,773,775,770,776,778,780,771,774,775,773,779,773,773,774,774,772,672,663,673,680,686,900,1032,1116,1263,1324,1311,1322,1263,1278,1272,1238,1216,1178,1179,1156,1108,1115,1094,1072,1024,1022,1002,988,958,912,836,813,732,710,692,690,692,670,594,586,587,607,598,607,589,597,601,603,602,603,605,600,606,608,610,601,604,605,603,609,602,600,603,602,600,549,550,552,554,574,686,862,960,1056,1098,1101,1083,1067,1049,1031,1014,1002,984,962,948,928,910,893,876,859,841,823,807,789,772,754,669,654,637,560,558,558,560,558,559,561,558,555,557,598,614,555,559,565,560,558,593,563,562,565,560,562,563,561,557,596,560,563,561,585,578,580,595,584,606,662,886,988,1091,1162,1168,1149,1130,1112,1093,1074,1056,1037,1043,999,981,962,943,925,906,887,869,850,831,812,689,634,619,603,591,587,607,609,585,577,578,579,589,597,582,595,585,581,591,592,589,592,595,598,595,606,591,599,603,597,602,609,596,617,596,777,783,786,790,799,1009,1263,1439,1515,1594,1554,1533,1509,1507,1464,1438,1413,1389,1364,1340,1351,1269,1264,1237,1212,1216,1172,1153,1137,1073,1021,962,849,820,809,808,815,753,728,732,731,746,738,755,731,753,733,751,733,735,741,740,752,749,753,737,735,742,750,749,732,731,737,736,729,0,0,0,0,0,0,0,0,0,0,0,0,0,0,0,0,0,0,0,0,0,0,0,0,0,0,0,0,0,0,0,0,0,0,0,0,0,0,0,0,0,0,0,0,0,0,0,0,0,0,0,0,0,0,0,0,0,0,0,0,0,0,0,0,0,610,613,613,615,627,797,954,1057,1148,1227,1214,1194,1175,1191,1136,1122,1102,1083,1064,1041,1050,1006,987,969,947,948,908,917,889,878,837,720,675,654,645,641,635,605,590,588,590,599,590,594,592,590,595,596,593,606,601,609,607,603,604,596,596,604,592,600,596,598,601,593,593,178,179,179,179,182,223,259,277,305,331,361,349,343,338,332,328,323,317,311,307,302,296,290,285,281,275,270,265,258,256,248,242,237,231,227,183,221,222,145,141,143,143,149,147,145,149,146,145,157,151,150,147,150,148,152,149,146,149,152,146,146,147,151,155,147,535,529,530,531,532,664,812,907,973,1063,1026,1013,999,1028,972,979,955,938,921,905,916,870,854,821,807,820,763,763,746,729,713,706,612,573,557,553,558,524,500,498,501,512,503,512,503,506,508,509,505,510,508,505,513,514,514,505,508,518,508,514,509,507,510,509,507,169,170,170,209,209,185,242,270,298,347,322,321,320,350,325,319,349,308,302,298,292,286,268,275,269,264,258,253,247,243,236,231,225,220,186,182,183,183,134,134,134,134,134,134,134,134,134,134,134,134,134,134,134,134,134,134,134,134,134,134,134,134,134,134,134,352,353,355,356,357,452,511,570,628,689,713,701,690,679,668,656,645,634,623,614,600,591,579,566,555,544,535,521,510,499,487,476,466,384,361,358,359,362,303,303,303,303,303,303,303,303,303,303,303,303,303,303,303,303,303,303,303,303,303,303,303,303,303,303,303,1075,1077,1083,1095,1146,1575,1805,1979,2096,2133,2139,2086,2052,2018,1985,1951,1917,1892,1858,1824,1782,1763,1720,1687,1662,1612,1595,1472,1458,1338,1180,1170,1141,1116,1112,1099,1095,1091,1037,1037,1037,1037,1037,1037,1037,1037,1037,1037,1037,1037,1037,1037,1037,1037,1037,1037,1037,1037,1037,1037,1037,1037,1037,1037,1037,375,376,378,378,380,484,547,610,675,737,760,748,735,723,711,699,687,675,663,651,639,627,614,602,590,578,566,560,548,531,519,507,495,446,385,380,382,383,369,372,376,387,374,380,374,393,387,375,386,378,381,379,374,381,377,380,375,379,377,376,378,377,381,381,375,569,570,573,575,577,692,874,980,1084,1105,1169,1090,1131,1058,1084,1074,1012,996,981,996,937,921,906,923,874,859,859,842,826,801,765,718,692,594,585,578,580,576,516,516,516,516,516,516,516,516,516,516,516,516,516,516,516,516,516,516,516,516,516,516,516,516,516,516,516,1059,1073,1066,1080,1191,1550,1771,1943,2084,2083,2091,2058,2025,1991,1958,1923,1890,1855,1840,1796,1772,1723,1706,1663,1626,1603,1562,1522,1394,1190,1175,1153,1124,1089,1103,1076,1074,1082,1035,1035,1035,1035,1035,1035,1035,1035,1035,1035,1035,1035,1035,1035,1035,1035,1035,1035,1035,1035,1035,1035,1035,1035,1035,1035,1035,324,324,325,326,327,412,457,502,558,601,609,612,592,584,575,566,558,550,541,532,527,515,511,498,490,481,473,464,462,453,443,434,424,413,331,328,329,330,310,306,305,310,307,308,306,310,305,311,306,306,307,306,311,313,307,308,308,310,310,309,308,315,307,309,307,585,587,589,591,600,749,893,988,1084,1182,1184,1155,1132,1120,1110,1091,1068,1049,1021,1004,982,983,949,935,913,896,892,857,840,824,806,778,703,626,598,595,596,589,530,530,530,530,530,530,530,530,530,530,530,530,530,530,530,530,530,530,530,530,530,530,530,530,530,530,530,0,0,0,0,0,0,0,0,0,0,0,0,0,0,0,0,0,0,0,0,0,0,0,0,0,0,0,0,0,0,0,0,0,0,0,0,0,0,0,0,0,0,0,0,0,0,0,0,0,0,0,0,0,0,0,0,0,0,0,0,0,0,0,0,0,605,606,609,611,637,780,928,1041,1129,1226,1228,1198,1174,1170,1149,1131,1111,1092,1057,1039,1017,1017,982,968,945,926,924,887,868,852,790,667,671,641,618,641,643,606,548,548,548,548,548,548,548,548,548,548,548,548,548,548,548,548,548,548,548,548,548,548,548,548,548,548,548,169,170,170,209,209,185,242,270,298,347,322,321,320,350,325,319,349,308,302,298,292,286,268,275,269,264,258,253,247,243,236,231,225,220,186,182,183,183,134,134,134,134,134,134,134,134,134,134,134,134,134,134,134,134,134,134,134,134,134,134,134,134,134,134,134,582,584,585,585,586,705,866,971,1040,1123,1135,1120,1105,1090,1082,1079,1061,1042,1013,994,975,957,941,908,891,860,845,811,792,774,655,640,630,606,594,589,592,557,532,532,532,532,532,532,532,532,532,532,532,532,532,532,532,532,532,532,532,532,532,532,532,532,532,532,532,406,407,409,410,400,447,596,638,703,801,799,786,774,756,744,735,719,707,697,686,669,680,648,655,642,629,616,581,572,560,544,535,537,414,405,414,415,403,376,376,376,376,376,376,376,376,376,376,376,376,376,376,376,376,376,376,376,376,376,376,376,376,376,376,376,927,930,933,947,965,1190,1447,1662,1787,1846,1839,1809,1780,1751,1721,1692,1663,1633,1603,1575,1545,1515,1487,1457,1443,1418,1388,1339,1310,1221,1032,1022,975,955,957,951,943,943,923,923,920,923,921,921,921,921,921,921,921,921,921,921,921,921,921,921,921,921,921,921,921,921,921,921,921,812,800,803,791,837,1070,1259,1421,1545,1620,1565,1529,1561,1503,1512,1479,1462,1413,1408,1349,1357,1298,1300,1255,1233,1234,1192,1176,1126,1036,884,879,864,847,844,818,805,782,738,738,738,738,738,738,738,738,738,738,738,738,738,738,738,738,738,738,738,738,738,738,738,738,738,738,738,503,504,505,507,514,688,779,871,960,1010,1016,999,984,968,951,969,919,903,886,870,854,838,821,805,789,773,756,740,723,708,691,675,658,526,513,510,512,513,504,501,504,504,504,504,504,504,504,504,504,504,504,504,504,504,504,504,504,504,504,504,504,504,504,504,504,747,749,752,756,769,848,1120,1301,1426,1498,1496,1472,1448,1424,1400,1376,1353,1328,1304,1280,1257,1233,1208,1184,1160,1155,1131,1089,1064,941,879,862,792,774,775,768,760,763,749,740,743,741,741,741,741,741,741,741,741,741,741,741,741,741,741,741,741,741,741,741,741,741,741,741,741,827,836,839,843,872,1089,1321,1476,1589,1651,1664,1631,1611,1580,1558,1530,1504,1473,1447,1420,1391,1374,1329,1312,1292,1271,1244,1209,1186,1137,1021,923,873,864,842,839,838,786,766,765,763,766,766,766,766,766,766,766,766,766,766,766,766,766,766,766,766,766,766,766,766,766,766,766,766,178,178,179,180,180,186,255,282,311,339,355,349,345,339,334,328,323,317,312,306,301,295,290,284,279,273,268,262,257,251,246,240,193,189,184,181,181,182,164,164,165,165,165,165,165,165,165,165,165,165,165,165,165,165,165,165,165,165,165,165,165,165,165,165,165,664,666,667,668,680,854,1005,1117,1240,1308,1322,1302,1281,1256,1235,1217,1192,1177,1155,1137,1113,1092,1074,1048,1034,1009,992,971,947,924,839,820,706,732,678,675,676,638,612,612,612,612,612,612,612,612,612,612,612,612,612,612,612,612,612,612,612,612,612,612,612,612,612,612,612,0,0,0,0,0,0,0,0,0,0,0,0,0,0,0,0,0,0,0,0,0,0,0,0,0,0,0,0,0,0,0,0,0,0,0,0,0,0,0,0,0,0,0,0,0,0,0,0,0,0,0,0,0,0,0,0,0,0,0,0,0,0,0,0,0,582,584,585,585,586,705,866,971,1040,1123,1135,1120,1105,1090,1082,1079,1061,1042,1013,994,975,957,941,908,891,860,845,811,792,774,655,640,630,606,594,589,592,557,532,532,532,532,532,532,532,532,532,532,532,532,532,532,532,532,532,532,532,532,532,532,532,532,532,532,532,0,0,0,0,0,0,0,0,0,0,0,0,0,0,0,0,0,0,0,0,0,0,0,0,0,0,0,0,0,0,0,0,0,0,0,0,0,0,0,0,0,0,0,0,0,0,0,0,0,0,0,0,0,0,0,0,0,0,0,0,0,0,0,0,0,337,337,362,339,340,432,485,530,571,610,620,612,605,597,589,581,574,566,558,551,543,535,532,525,513,509,498,476,468,460,454,446,438,431,371,341,365,366,311,308,305,306,308,309,313,315,307,312,313,307,306,315,315,315,315,315,315,315,317,320,315,319,315,315,312,1059,1063,1084,1102,1137,1562,1783,1942,2023,2054,2032,2013,1977,1941,1916,1884,1859,1837,1799,1770,1739,1719,1682,1646,1626,1584,1564,1441,1458,1221,1175,1133,1124,1125,1082,1082,1077,1071,1052,1047,1048,1049,1051,1052,1056,1058,1050,1055,1056,1050,1049,1054,1058,1058,1058,1058,1058,1055,1054,1063,1058,1062,1058,1058,1055,485,487,489,490,494,571,717,791,867,941,939,937,916,912,901,886,873,858,844,830,816,801,786,773,758,743,731,717,702,691,654,635,596,575,502,495,496,483,416,416,425,453,418,421,421,426,419,417,420,422,420,417,419,421,421,420,419,421,417,420,417,420,420,420,417,480,481,483,484,491,632,723,796,869,926,926,914,898,913,872,858,844,830,817,803,789,775,762,748,734,720,706,693,679,665,652,621,608,586,489,487,488,481,471,465,471,479,471,474,473,473,474,479,480,481,473,475,486,473,483,482,486,485,480,483,484,502,492,511,487,1043,1064,1073,1086,1142,1543,1749,1907,1993,2041,1991,1984,1943,1924,1874,1864,1823,1804,1763,1745,1714,1684,1669,1622,1582,1545,1522,1504,1281,1263,1149,1148,1120,1071,1071,1058,1057,1064,1043,1044,1043,1045,1048,1047,1051,1053,1045,1050,1051,1047,1044,1053,1053,1053,1053,1053,1053,1054,1053,1057,1053,1057,1054,1054,1051,359,360,360,361,362,420,526,577,628,674,678,669,660,650,640,630,621,611,601,591,583,573,577,553,544,534,524,514,506,496,486,476,426,374,366,363,364,365,332,331,332,332,332,332,332,336,333,332,332,332,331,331,331,332,333,332,332,333,331,332,331,331,331,331,331,569,571,588,574,604,755,856,943,1043,1079,1077,1059,1044,1029,1015,1005,985,975,959,945,931,920,910,902,876,862,837,828,794,796,770,732,687,639,580,578,579,569,541,538,535,536,538,539,543,545,537,542,543,537,536,545,545,545,545,545,545,545,547,550,545,549,545,545,542,143,190,143,144,144,146,227,235,238,272,260,243,256,262,261,260,244,257,240,237,237,251,237,234,233,236,234,236,235,226,235,235,234,234,193,144,191,144,147,149,147,150,153,152,150,153,148,149,152,156,147,152,153,153,149,152,153,157,153,153,150,155,148,152,149,589,590,608,594,616,786,891,982,1088,1123,1121,1102,1086,1070,1054,1045,1023,1013,997,981,966,955,947,935,908,892,867,858,842,826,694,687,676,623,600,608,627,586,558,555,552,553,555,556,560,562,554,559,560,554,553,562,562,562,562,562,562,562,564,567,562,566,562,562,559,0,0,0,0,0,0,0,0,0,0,0,0,0,0,0,0,0,0,0,0,0,0,0,0,0,0,0,0,0,0,0,0,0,0,0,0,0,0,0,0,0,0,0,0,0,0,0,0,0,0,0,0,0,0,0,0,0,0,0,0,0,0,0,0,0 ]);
