n = 10;
D = [213,133,253,145,207,102,267,113,137,246 ];
q = 0;
prec = array2d(1..0,1..2,[]);
steps = 64;
l = 360;
r = 0;
which = [];
interval = array2d(1..0,1..2,[]);
T = array3d(1..11,1..11,0..64,[0,0,0,0,0,0,0,0,0,0,0,0,0,0,0,0,0,0,0,0,0,0,0,0,0,0,0,0,0,0,0,0,0,0,0,0,0,0,0,0,0,0,0,0,0,0,0,0,0,0,0,0,0,0,0,0,0,0,0,0,0,0,0,0,0,652,654,656,659,663,1144,1285,1424,1549,1599,1596,1572,1550,1525,1498,1473,1448,1426,1398,1372,1349,1321,1298,1270,1245,1219,1194,1168,1143,1102,870,844,731,754,667,662,666,649,602,607,602,607,612,619,639,620,613,621,619,631,617,631,614,625,618,621,621,619,615,618,615,616,615,616,605,1394,1422,1460,1581,2576,3497,3767,3879,3929,3972,3900,3809,3739,3676,3602,3550,3501,3430,3361,3296,2978,2777,2493,2313,2291,2099,1788,1732,1657,1618,1573,1512,1544,1464,1483,1429,1447,1468,1544,1543,1541,1551,1569,1601,1562,1590,1584,1608,1628,1599,1577,1592,1583,1630,1576,1580,1591,1587,1575,1612,1586,1591,1584,1641,1586,589,590,593,595,612,1006,1132,1260,1365,1416,1456,1410,1371,1353,1330,1309,1287,1266,1244,1222,1201,1217,1158,1171,1113,1092,1065,1046,1027,1005,1013,945,808,612,601,596,600,601,605,592,594,605,607,609,595,608,606,611,621,616,615,610,604,619,610,613,604,613,613,612,615,611,618,618,610,1073,1088,1087,1134,1200,2067,2326,2481,2570,2614,2593,2579,2533,2482,2453,2394,2346,2290,2268,2209,2185,2144,2108,2073,2024,1981,1765,1659,1568,1208,1183,1156,1142,1149,1131,1113,1077,1082,1046,1054,1071,1075,1082,1085,1104,1074,1076,1097,1066,1056,1064,1088,1071,1071,1090,1078,1059,1058,1069,1069,1058,1068,1070,1083,1055,626,628,631,632,636,1096,1232,1367,1493,1543,1542,1518,1496,1472,1447,1422,1398,1375,1348,1323,1301,1274,1251,1224,1200,1174,1150,1125,1100,1021,828,803,668,698,640,636,640,641,601,592,595,596,603,615,613,609,601,603,610,614,602,625,612,631,618,618,606,614,612,616,621,620,620,621,610,923,924,920,940,970,1758,1920,2116,2200,2224,2244,2184,2159,2134,2092,2063,2030,1987,1973,1926,1897,1854,1826,1765,1726,1718,1598,1366,1288,1247,1036,1014,973,1008,940,934,946,916,870,875,871,876,882,890,911,890,883,891,890,902,887,901,884,895,888,891,892,891,887,888,886,885,884,885,874,590,592,594,596,598,1012,1141,1274,1381,1443,1443,1420,1404,1376,1354,1323,1299,1285,1257,1238,1214,1194,1172,1140,1125,1102,1078,1055,1032,990,923,894,754,615,604,599,603,584,541,544,542,543,550,552,582,575,550,552,550,578,552,566,553,562,552,554,550,554,550,553,550,549,551,550,539,675,677,679,683,687,1196,1344,1488,1600,1660,1656,1631,1605,1579,1552,1524,1498,1479,1449,1422,1398,1371,1344,1316,1290,1263,1237,1210,1182,1047,908,880,724,707,696,692,695,635,588,593,588,594,599,605,625,606,599,607,606,618,603,617,600,611,604,607,608,606,601,604,601,602,601,602,591,1031,1042,1046,1076,1255,1985,2244,2400,2476,2533,2514,2501,2456,2403,2377,2319,2269,2208,2194,2137,2111,2073,2037,2011,1951,1905,1814,1588,1488,1254,1136,1108,1085,1100,1083,1060,1045,1050,1008,1020,1039,1053,1023,1060,1047,1076,1051,1049,1068,1028,1040,1061,1048,1046,1073,1042,1042,1060,1062,1071,1059,1070,1051,1071,1057,0,0,0,0,0,0,0,0,0,0,0,0,0,0,0,0,0,0,0,0,0,0,0,0,0,0,0,0,0,0,0,0,0,0,0,0,0,0,0,0,0,0,0,0,0,0,0,0,0,0,0,0,0,0,0,0,0,0,0,0,0,0,0,0,0,658,659,663,636,680,960,1272,1420,1553,1596,1592,1582,1542,1530,1509,1466,1458,1427,1406,1364,1339,1306,1303,1277,1241,1215,1190,1164,1148,1087,1005,716,753,682,676,664,662,666,624,624,624,624,624,624,624,624,624,624,624,624,624,624,624,624,624,624,624,624,624,624,624,624,624,624,624,0,0,0,0,0,0,0,0,0,0,0,0,0,0,0,0,0,0,0,0,0,0,0,0,0,0,0,0,0,0,0,0,0,0,0,0,0,0,0,0,0,0,0,0,0,0,0,0,0,0,0,0,0,0,0,0,0,0,0,0,0,0,0,0,0,1194,1204,1186,1213,1501,2158,2716,2932,3012,3022,3010,2946,2905,2842,2810,2743,2706,2612,2593,2500,2483,2431,2349,2319,2192,1936,1897,1658,1372,1340,1322,1300,1255,1223,1205,1193,1209,1231,1164,1164,1164,1164,1164,1164,1164,1164,1164,1164,1164,1164,1164,1164,1164,1164,1164,1164,1164,1164,1164,1164,1164,1164,1164,1164,1164,861,856,867,866,897,1307,1712,1914,2034,2036,2027,2009,1972,1949,1935,1865,1840,1837,1788,1741,1711,1690,1671,1628,1603,1555,1529,1490,1297,1125,1084,920,905,902,856,875,878,880,838,838,838,838,838,838,838,838,838,838,838,838,838,838,838,838,838,838,838,838,838,838,838,838,838,838,838,589,590,592,597,616,806,1116,1249,1370,1445,1453,1434,1406,1382,1359,1340,1312,1290,1272,1243,1220,1196,1176,1156,1133,1104,1081,1057,981,937,871,731,690,626,600,598,600,601,508,508,508,508,508,508,508,508,508,508,508,508,508,508,508,508,508,508,508,508,508,508,508,508,508,508,508,92,92,92,92,140,142,162,181,200,219,234,230,226,223,218,214,211,207,204,200,196,193,188,184,181,177,174,170,166,163,158,154,151,147,144,140,141,141,20,20,20,20,20,20,20,20,20,20,20,20,20,20,20,20,20,20,20,20,20,20,20,20,20,20,20,364,365,367,367,372,441,654,730,799,868,904,885,872,859,843,834,820,806,793,778,760,752,739,721,703,694,682,666,649,577,563,499,453,399,388,370,372,385,281,281,281,281,281,281,281,281,281,281,281,281,281,281,281,281,281,281,281,281,281,281,281,281,281,281,281,92,92,92,105,105,143,162,182,200,219,234,230,226,223,219,214,211,207,204,200,196,193,189,184,181,177,174,170,166,163,159,154,151,147,144,140,141,141,57,57,57,57,57,57,57,57,57,57,57,57,57,57,57,57,57,57,57,57,57,57,57,57,57,57,57,31,31,31,31,48,48,54,60,66,72,76,75,74,73,73,72,70,69,68,67,66,64,63,62,61,60,58,57,56,55,54,52,51,50,49,48,48,48,0,0,0,0,0,0,0,0,0,0,0,0,0,0,0,0,0,0,0,0,0,0,0,0,0,0,0,552,553,554,556,582,700,1056,1187,1310,1378,1396,1376,1355,1333,1310,1287,1263,1235,1212,1193,1164,1147,1121,1091,1076,1046,1023,1007,982,846,798,671,590,584,574,572,574,565,478,478,478,478,478,478,478,478,478,478,478,478,478,478,478,478,478,478,478,478,478,478,478,478,478,478,478,658,659,663,636,680,960,1272,1420,1553,1596,1592,1582,1542,1530,1509,1466,1458,1427,1406,1364,1339,1306,1303,1277,1241,1215,1190,1164,1148,1087,1005,716,753,682,676,664,662,666,624,624,624,624,624,624,624,624,624,624,624,624,624,624,624,624,624,624,624,624,624,624,624,624,624,624,624,1423,1446,1434,1678,2433,3287,3616,3817,3901,3877,3828,3786,3700,3620,3560,3494,3396,3308,3253,2964,2863,2758,2604,2487,2205,2104,1784,1720,1708,1625,1587,1528,1503,1451,1451,1443,1467,1478,1539,1527,1532,1552,1579,1607,1547,1575,1598,1586,1608,1581,1583,1618,1586,1613,1570,1554,1571,1566,1566,1606,1575,1604,1564,1573,1567,1212,1235,1219,1258,1365,2421,2725,2846,2938,2949,2877,2913,2873,2829,2767,2747,2684,2586,2600,2516,2489,2438,2365,2253,2002,1959,1698,1541,1527,1345,1360,1289,1261,1232,1212,1179,1208,1172,1207,1205,1205,1217,1206,1227,1207,1223,1240,1232,1225,1221,1234,1226,1236,1233,1236,1232,1227,1237,1225,1232,1249,1236,1234,1233,1233,0,0,0,0,0,0,0,0,0,0,0,0,0,0,0,0,0,0,0,0,0,0,0,0,0,0,0,0,0,0,0,0,0,0,0,0,0,0,0,0,0,0,0,0,0,0,0,0,0,0,0,0,0,0,0,0,0,0,0,0,0,0,0,0,0,1274,1292,1315,1488,2554,3202,3645,3741,3799,3814,3744,3663,3574,3494,3418,3333,3262,3234,3094,3013,2874,2698,2644,2610,2493,2437,2298,2017,1823,1475,1435,1372,1345,1308,1301,1312,1325,1334,1458,1472,1460,1478,1484,1479,1480,1496,1476,1491,1484,1498,1489,1492,1494,1542,1530,1510,1505,1499,1504,1492,1515,1515,1507,1507,1507,921,924,926,935,1010,1733,1998,2251,2326,2323,2307,2299,2257,2243,2184,2155,2136,2071,2029,1987,1971,1900,1861,1830,1790,1735,1693,1684,1400,1040,1026,999,970,966,936,937,936,933,918,928,945,951,942,940,935,945,934,931,932,929,926,942,933,937,940,950,948,951,955,947,950,988,940,947,943,1219,1250,1221,1269,1436,2452,2755,2874,2967,2975,2903,2940,2900,2853,2791,2770,2705,2633,2632,2537,2510,2419,2384,2271,2049,2005,1654,1498,1489,1356,1386,1295,1270,1247,1221,1185,1214,1178,1213,1211,1211,1223,1212,1233,1213,1229,1246,1238,1231,1227,1240,1232,1242,1239,1242,1238,1233,1243,1231,1238,1255,1242,1240,1239,1239,964,986,973,1008,1058,1736,1970,2221,2310,2400,2347,2292,2301,2214,2220,2140,2106,2053,2029,1992,1957,1921,1869,1878,1840,1730,1727,1632,1272,1172,1057,1032,1008,990,981,979,998,983,998,994,1002,1011,1005,1009,1002,1007,1004,1026,1008,1014,1012,1014,1012,1034,1015,1015,1011,1017,1012,1007,1016,1027,1016,1023,1014,1205,1259,1224,1313,1476,2494,2779,2989,3078,3106,3019,3041,2959,2914,2854,2803,2800,2725,2674,2616,2512,2475,2433,2280,2005,1964,1753,1596,1585,1411,1334,1305,1261,1240,1227,1222,1250,1215,1250,1247,1248,1259,1248,1269,1249,1265,1283,1274,1267,1273,1295,1268,1278,1278,1278,1275,1270,1280,1268,1274,1291,1278,1276,1275,1275,1173,1198,1162,1248,1403,2371,2658,2842,2935,2978,2878,2907,2844,2782,2776,2722,2676,2634,2590,2518,2427,2374,2322,2216,1941,1899,1658,1582,1467,1308,1324,1243,1234,1188,1176,1165,1194,1158,1193,1191,1191,1203,1192,1213,1193,1209,1226,1218,1211,1207,1220,1212,1222,1219,1222,1218,1213,1223,1211,1218,1235,1222,1220,1219,1219,844,847,849,854,920,1564,1801,2052,2133,2132,2119,2115,2077,2038,2011,1982,1943,1905,1867,1825,1786,1751,1711,1674,1647,1598,1560,1553,1448,1088,1072,1044,893,872,860,859,858,854,845,850,855,874,852,861,848,855,849,843,852,849,843,862,852,855,855,865,861,870,874,860,860,908,850,859,855,1423,1446,1434,1678,2433,3287,3616,3817,3901,3877,3828,3786,3700,3620,3560,3494,3396,3308,3253,2964,2863,2758,2604,2487,2205,2104,1784,1720,1708,1625,1587,1528,1503,1451,1451,1443,1467,1478,1539,1527,1532,1552,1579,1607,1547,1575,1598,1586,1608,1581,1583,1618,1586,1613,1570,1554,1571,1566,1566,1606,1575,1604,1564,1573,1567,456,457,459,460,467,764,862,962,1059,1114,1122,1104,1087,1069,1051,1149,1016,998,980,963,945,927,909,992,874,856,840,822,894,805,769,835,488,477,626,534,464,465,480,482,486,482,488,507,493,487,490,486,491,487,488,487,492,510,511,510,492,492,494,492,492,491,493,494,486,806,808,811,814,836,1365,1679,1846,1980,1973,1971,1924,1893,1855,1836,1794,1802,1747,1715,1683,1651,1619,1590,1557,1549,1493,1452,1453,1359,1092,1063,1016,863,853,830,824,821,805,793,796,797,799,805,795,799,812,800,803,799,799,803,805,802,802,805,805,801,800,804,804,801,799,798,797,797,1260,1264,1298,1396,2243,2795,3388,3799,3800,3789,3730,3657,3570,3496,3410,3330,3255,3206,3096,3030,2957,2848,2649,2531,2332,2214,2145,1961,1803,1471,1456,1366,1327,1294,1320,1296,1297,1322,1361,1373,1368,1376,1452,1455,1397,1423,1394,1463,1414,1410,1453,1445,1416,1418,1418,1424,1444,1431,1437,1436,1427,1448,1438,1572,1414,0,0,0,0,0,0,0,0,0,0,0,0,0,0,0,0,0,0,0,0,0,0,0,0,0,0,0,0,0,0,0,0,0,0,0,0,0,0,0,0,0,0,0,0,0,0,0,0,0,0,0,0,0,0,0,0,0,0,0,0,0,0,0,0,0,1112,1115,1119,1128,1187,1856,2436,2583,2648,2686,2669,2641,2573,2530,2486,2449,2413,2371,2324,2280,2238,2197,2170,2108,2078,2036,1910,1685,1560,1259,1230,1195,1177,1155,1130,1135,1110,1113,1098,1101,1106,1108,1115,1106,1111,1119,1108,1111,1108,1107,1110,1112,1114,1110,1112,1109,1109,1108,1111,1110,1110,1112,1110,1109,1109,780,781,785,787,807,1317,1622,1791,1924,1918,1917,1872,1840,1803,1784,1742,1752,1697,1666,1635,1604,1573,1543,1511,1503,1449,1409,1411,1326,1060,1031,975,836,827,804,798,800,802,779,777,779,787,792,786,792,799,787,795,792,792,794,796,796,795,796,795,793,793,797,797,794,794,793,792,792,1079,1072,1086,1099,1266,1850,2373,2485,2567,2614,2600,2528,2485,2437,2426,2368,2367,2305,2265,2219,2186,2132,2083,2052,2021,1898,1726,1582,1388,1302,1215,1199,1143,1121,1106,1102,1080,1073,1061,1065,1066,1069,1076,1067,1069,1082,1067,1071,1069,1068,1070,1072,1072,1071,1072,1071,1069,1069,1073,1073,1070,1068,1067,1066,1066,758,735,776,740,749,1243,1512,1700,1764,1813,1810,1771,1746,1718,1681,1665,1626,1596,1578,1550,1520,1492,1485,1433,1427,1397,1343,1315,1287,1038,1011,994,799,788,773,759,762,743,732,733,732,734,738,732,736,746,732,736,733,733,735,737,737,736,737,736,734,734,738,738,735,735,734,733,733,829,830,833,842,864,1414,1741,1896,1984,2029,2025,1977,1945,1908,1885,1848,1828,1792,1764,1732,1700,1666,1635,1601,1591,1535,1491,1459,1298,1034,1006,1000,887,877,853,847,807,791,779,782,784,786,791,781,785,798,786,790,786,785,789,791,788,788,791,792,788,786,790,790,787,785,784,783,783,1034,1036,1048,1127,1242,1765,2354,2516,2569,2608,2591,2611,2497,2453,2413,2373,2336,2294,2251,2207,2164,2116,2101,2035,2014,1975,1908,1733,1606,1305,1183,1114,1080,1063,1056,1060,1068,1076,1071,1074,1082,1084,1088,1083,1086,1096,1082,1086,1084,1076,1081,1087,1087,1079,1087,1081,1076,1084,1088,1088,1085,1085,1084,1083,1083,456,457,459,460,467,764,862,962,1059,1114,1122,1104,1087,1069,1051,1149,1016,998,980,963,945,927,909,992,874,856,840,822,894,805,769,835,488,477,626,534,464,465,480,482,486,482,488,507,493,487,490,486,491,487,488,487,492,510,511,510,492,492,494,492,492,491,493,494,486,1027,1009,1032,1040,1244,1625,2162,2321,2444,2469,2415,2418,2356,2338,2300,2227,2207,2185,2136,2069,2035,2016,1975,1912,1873,1862,1762,1476,1440,1113,1264,1106,1094,1049,1023,1026,1022,1000,959,953,958,962,965,965,957,964,966,957,961,961,961,964,964,990,964,970,961,974,966,970,971,969,971,963,963,586,587,602,591,616,788,1149,1282,1382,1447,1454,1431,1409,1386,1363,1341,1317,1294,1271,1236,1207,1200,1178,1154,1115,1109,1077,1038,1027,1015,883,754,623,622,597,601,604,577,556,546,552,554,567,567,559,566,567,559,563,559,563,554,559,570,566,561,563,557,554,569,568,571,571,565,565,838,840,842,845,857,1546,1752,2014,2133,2187,2178,2144,2110,2068,2025,1990,1948,1912,1871,1835,1793,1752,1714,1676,1638,1606,1459,1423,1387,1267,1121,1102,891,885,858,850,852,828,814,817,823,824,826,834,866,831,832,838,835,841,872,864,864,873,843,838,843,842,838,842,840,833,834,827,829,1012,1031,1026,1021,1081,1741,2133,2268,2402,2437,2433,2382,2334,2322,2282,2230,2196,2156,2131,2061,2043,2016,1984,1950,1893,1860,1826,1668,1538,1395,1133,1107,1057,1044,1022,1037,1020,1033,1014,1013,1023,1017,1025,1054,1029,1024,1038,1034,1026,1027,1050,1041,1042,1067,1052,1051,1036,1043,1055,1054,1037,1037,1031,1029,1029,0,0,0,0,0,0,0,0,0,0,0,0,0,0,0,0,0,0,0,0,0,0,0,0,0,0,0,0,0,0,0,0,0,0,0,0,0,0,0,0,0,0,0,0,0,0,0,0,0,0,0,0,0,0,0,0,0,0,0,0,0,0,0,0,0,559,561,576,564,590,743,1097,1226,1327,1391,1400,1376,1356,1333,1311,1289,1267,1244,1222,1199,1158,1154,1132,1110,1070,1065,1042,1003,996,973,895,722,596,596,571,575,591,543,522,512,518,530,533,533,525,532,534,525,529,529,529,524,532,542,532,537,529,525,529,538,537,537,537,531,531,401,403,404,404,409,470,734,819,904,985,994,978,963,946,937,915,900,884,868,836,834,826,805,794,772,744,741,731,633,619,597,549,450,458,409,406,408,410,349,352,348,353,358,354,353,358,349,359,352,354,352,354,355,356,355,354,353,352,358,355,352,352,351,353,353,617,619,635,623,650,849,1226,1370,1471,1533,1539,1513,1490,1465,1442,1417,1392,1367,1343,1317,1275,1269,1244,1219,1177,1169,1145,1104,1094,1069,867,797,656,654,629,626,642,611,581,571,577,598,601,601,593,600,599,593,597,597,597,592,599,606,598,601,597,599,598,601,599,605,599,599,599,609,610,625,615,640,832,1204,1346,1446,1510,1514,1491,1468,1444,1419,1396,1371,1347,1324,1288,1256,1248,1226,1200,1160,1154,1120,1080,1000,978,827,696,647,645,620,617,633,577,556,546,552,554,567,567,559,566,567,559,563,559,563,554,559,570,566,561,563,557,554,569,568,571,569,565,565,43,43,43,43,43,44,49,55,61,67,72,70,70,69,68,67,66,64,63,62,61,60,58,57,56,55,54,52,51,50,49,48,46,45,44,43,44,44,2,1,2,2,2,2,2,2,2,2,2,2,2,2,2,2,1,2,2,2,2,2,2,2,1,2,2,1027,1009,1032,1040,1244,1625,2162,2321,2444,2469,2415,2418,2356,2338,2300,2227,2207,2185,2136,2069,2035,2016,1975,1912,1873,1862,1762,1476,1440,1113,1264,1106,1094,1049,1023,1026,1022,1000,959,953,958,962,965,965,957,964,966,957,961,961,961,964,964,990,964,970,961,974,966,970,971,969,971,963,963,641,644,646,647,660,923,1242,1385,1511,1569,1558,1542,1518,1492,1468,1443,1400,1382,1368,1344,1320,1280,1269,1229,1220,1194,1170,1144,1112,1075,1005,839,731,665,655,652,653,649,626,623,624,629,625,638,631,634,630,635,640,630,630,634,634,638,633,638,634,637,636,635,637,637,636,637,637,85,85,85,129,129,132,147,163,178,195,207,204,201,198,195,192,188,186,182,180,176,172,170,166,164,160,157,154,151,148,145,141,139,135,133,129,130,130,76,76,73,75,73,82,74,76,76,78,76,80,82,74,80,80,95,75,75,83,78,82,76,73,82,76,74,1161,1177,1180,1207,1531,2119,2711,2901,2989,3009,2970,2933,2853,2798,2732,2710,2624,2602,2530,2494,2456,2387,2331,2283,2192,1971,1897,1691,1523,1293,1298,1257,1220,1241,1213,1183,1188,1191,1181,1178,1181,1180,1180,1180,1181,1182,1181,1209,1182,1181,1181,1182,1181,1180,1181,1182,1180,1182,1180,1181,1180,1180,1180,1179,1179,844,848,840,848,879,1282,1708,1881,1978,2008,1999,1967,1948,1908,1899,1842,1794,1778,1752,1721,1692,1663,1608,1600,1582,1534,1509,1470,1297,1095,1074,988,962,870,896,848,860,862,839,849,850,851,857,860,852,855,851,853,858,853,858,858,857,874,859,857,852,878,855,863,858,855,854,860,859,605,598,609,602,617,792,1150,1286,1412,1456,1450,1432,1412,1400,1376,1363,1360,1297,1313,1257,1225,1200,1211,1164,1130,1132,1089,1069,981,907,848,763,682,624,618,615,610,603,566,575,575,580,580,585,582,584,574,575,574,572,572,573,574,576,572,574,573,573,574,576,574,575,575,575,575,0,0,0,0,0,0,0,0,0,0,0,0,0,0,0,0,0,0,0,0,0,0,0,0,0,0,0,0,0,0,0,0,0,0,0,0,0,0,0,0,0,0,0,0,0,0,0,0,0,0,0,0,0,0,0,0,0,0,0,0,0,0,0,0,0,382,384,385,388,391,445,688,767,847,927,954,930,916,905,888,881,860,847,833,818,810,787,772,758,747,731,717,697,683,672,586,551,483,404,403,398,392,392,339,340,341,342,341,340,343,345,343,343,343,342,342,342,343,343,342,343,343,342,344,344,342,344,342,342,342,75,75,114,114,114,116,132,147,163,178,190,188,184,182,178,175,172,169,166,163,160,157,154,151,147,145,141,139,135,133,129,127,123,120,117,115,115,115,68,59,59,59,65,63,63,59,59,62,72,64,66,66,68,66,64,63,64,71,74,69,62,62,72,62,60,91,91,115,115,115,117,159,177,196,214,229,225,222,218,214,211,207,204,200,196,193,189,186,182,178,174,170,166,163,159,156,152,148,145,118,115,115,116,76,76,73,75,73,80,74,76,76,78,76,80,82,74,80,80,81,75,75,83,78,82,76,73,82,76,74,560,553,565,560,568,748,1090,1224,1334,1376,1370,1353,1330,1304,1294,1274,1273,1219,1234,1178,1147,1125,1136,1088,1058,1062,1017,997,975,846,776,701,681,573,563,564,560,563,536,541,542,560,551,555,555,560,564,558,550,562,542,545,559,552,542,567,545,541,561,560,563,565,561,561,561,641,644,646,647,660,923,1242,1385,1511,1569,1558,1542,1518,1492,1468,1443,1400,1382,1368,1344,1320,1280,1269,1229,1220,1194,1170,1144,1112,1075,1005,839,731,665,655,652,653,649,626,623,624,629,625,638,631,634,630,635,640,630,630,634,634,638,633,638,634,637,636,635,637,637,636,637,637,924,928,943,937,1058,1696,1919,2092,2182,2216,2196,2171,2132,2095,2064,2029,1992,1962,1928,1902,1861,1828,1795,1767,1740,1690,1658,1452,1196,1086,1008,986,963,948,941,939,946,933,910,907,906,907,908,909,927,924,907,924,916,907,906,911,915,925,926,917,929,912,911,926,919,912,908,908,906,366,368,368,369,382,539,679,754,826,869,871,861,847,840,826,810,796,786,774,762,749,738,725,713,705,689,692,664,644,631,618,576,475,384,374,372,372,373,352,352,352,352,352,352,352,352,352,352,352,352,352,352,352,352,352,352,352,352,352,352,352,352,352,352,352,967,970,973,1013,1054,1401,2046,2211,2293,2342,2338,2302,2264,2210,2174,2149,2111,2074,2044,1996,1958,1920,1882,1846,1810,1673,1472,1390,1261,1181,1071,1070,1034,997,1015,1015,993,987,912,912,912,912,912,912,912,912,912,912,912,912,912,912,912,912,912,912,912,912,912,912,912,912,912,912,912,1109,1103,1145,1156,1272,2013,2335,2491,2574,2606,2581,2565,2472,2476,2455,2390,2340,2330,2278,2242,2203,2202,2134,2108,1889,2007,1816,1650,1394,1215,1192,1162,1177,1127,1144,1119,1149,1140,1127,1123,1124,1123,1126,1127,1147,1142,1125,1142,1134,1125,1124,1129,1133,1143,1144,1135,1147,1130,1129,1144,1137,1130,1126,1126,1124,285,286,287,288,288,463,522,580,639,692,734,691,680,669,658,717,637,626,614,603,592,582,597,560,549,562,526,540,505,494,507,518,462,403,350,289,290,291,288,290,286,294,292,291,316,323,294,291,291,322,295,289,289,324,292,292,292,323,288,295,289,294,292,294,288,375,376,377,379,410,528,702,780,858,900,901,888,876,868,852,837,822,812,800,786,772,760,747,735,724,722,711,683,662,648,633,557,517,410,394,380,392,390,358,355,352,353,354,355,365,365,353,365,362,353,352,365,365,365,365,365,365,365,365,365,365,358,354,354,352,0,0,0,0,0,0,0,0,0,0,0,0,0,0,0,0,0,0,0,0,0,0,0,0,0,0,0,0,0,0,0,0,0,0,0,0,0,0,0,0,0,0,0,0,0,0,0,0,0,0,0,0,0,0,0,0,0,0,0,0,0,0,0,0,0,449,452,453,456,461,585,847,942,1033,1083,1078,1064,1051,1040,1024,1005,986,972,957,941,926,909,894,878,865,850,837,742,723,707,691,609,566,515,459,458,460,430,409,409,409,409,409,409,409,409,409,409,409,409,409,409,409,409,409,409,409,409,409,409,409,409,409,409,409,388,389,391,393,394,477,725,805,875,928,926,914,904,896,884,866,849,839,825,812,798,785,772,759,748,732,724,632,615,600,587,518,417,405,397,394,397,373,352,352,352,352,352,352,352,352,352,352,352,352,352,352,352,352,352,352,352,352,352,352,352,352,352,352,352,315,316,316,317,319,465,577,641,706,764,804,761,749,737,725,783,700,688,676,664,652,640,654,616,604,616,578,591,555,543,518,510,396,388,380,319,320,321,290,291,288,296,294,293,318,325,296,293,293,324,297,291,291,326,293,294,294,325,290,297,291,296,293,296,290,924,928,943,937,1058,1696,1919,2092,2182,2216,2196,2171,2132,2095,2064,2029,1992,1962,1928,1902,1861,1828,1795,1767,1740,1690,1658,1452,1196,1086,1008,986,963,948,941,939,946,933,910,907,906,907,908,909,927,924,907,924,916,907,906,911,915,925,926,917,929,912,911,926,919,912,908,908,906,614,609,610,613,615,909,1137,1307,1419,1461,1477,1475,1437,1413,1390,1360,1323,1314,1291,1267,1250,1220,1202,1173,1150,1126,1104,1081,1057,958,936,815,642,637,626,624,625,627,587,581,587,591,588,589,589,591,589,592,590,590,595,597,599,597,597,594,592,596,594,595,593,597,596,599,597,174,174,175,196,196,201,307,342,377,411,348,342,416,410,403,397,390,384,376,369,363,356,350,343,337,330,324,316,309,303,296,290,283,205,201,197,197,198,136,133,134,136,139,138,140,138,133,140,141,140,136,140,141,139,139,141,141,143,141,139,139,137,137,137,135,1170,1176,1188,1246,1641,2318,2690,2898,2969,2998,2990,2928,2894,2813,2759,2705,2656,2603,2548,2495,2458,2404,2332,2283,2192,2074,1910,1732,1611,1324,1286,1256,1216,1210,1192,1216,1186,1201,1169,1169,1169,1171,1171,1171,1171,1173,1168,1172,1171,1171,1169,1172,1171,1169,1171,1172,1171,1172,1172,1171,1171,1169,1169,1171,1169,811,810,817,825,852,1276,1534,1763,1883,1940,1945,1904,1872,1854,1845,1785,1760,1755,1703,1664,1645,1631,1599,1570,1538,1491,1467,1430,1269,1078,1049,1007,855,832,834,820,825,834,805,803,806,809,806,807,807,809,807,810,808,808,813,815,817,815,815,812,810,814,812,813,811,815,814,817,815,651,652,654,652,669,835,1205,1409,1532,1542,1580,1566,1530,1506,1476,1456,1426,1404,1406,1361,1358,1329,1308,1274,1249,1222,1198,1155,981,882,827,771,727,676,672,672,666,641,630,635,636,639,644,646,648,642,634,641,642,640,637,641,642,642,639,642,641,645,643,643,641,639,639,638,636,115,115,116,116,116,120,204,228,252,276,291,286,282,277,272,267,262,258,254,249,244,240,235,230,225,220,216,212,207,202,198,193,188,183,119,116,117,117,106,108,107,108,146,145,116,118,114,146,117,115,143,112,112,118,114,110,147,111,110,145,117,143,120,116,114,441,461,464,467,469,539,837,951,1018,1074,1087,1064,1050,1054,1017,1038,1006,991,952,957,918,900,883,888,848,828,845,796,807,779,669,643,571,461,487,468,449,483,403,401,402,405,408,408,411,410,403,410,411,411,407,410,411,409,409,411,411,414,413,411,409,408,406,406,404,0,0,0,0,0,0,0,0,0,0,0,0,0,0,0,0,0,0,0,0,0,0,0,0,0,0,0,0,0,0,0,0,0,0,0,0,0,0,0,0,0,0,0,0,0,0,0,0,0,0,0,0,0,0,0,0,0,0,0,0,0,0,0,0,0,138,139,139,140,140,144,244,273,302,331,348,342,337,331,325,320,314,309,303,297,292,286,282,276,270,265,259,254,248,242,237,231,226,147,143,140,140,141,122,119,120,122,126,125,126,124,119,126,127,127,123,126,127,125,125,127,127,130,128,125,125,123,123,123,121,606,608,612,612,628,732,1118,1327,1449,1460,1532,1472,1452,1428,1398,1379,1349,1330,1329,1281,1275,1250,1232,1198,1176,1146,1125,1095,1030,862,789,733,642,626,622,623,629,609,595,595,600,620,617,618,619,624,624,624,618,622,607,613,627,618,609,632,613,613,633,623,629,624,625,617,615,614,609,610,613,615,909,1137,1307,1419,1461,1477,1475,1437,1413,1390,1360,1323,1314,1291,1267,1250,1220,1202,1173,1150,1126,1104,1081,1057,958,936,815,642,637,626,624,625,627,587,581,587,591,588,589,589,591,589,592,590,590,595,597,599,597,597,594,592,596,594,595,593,597,596,599,597,688,691,709,692,710,1006,1323,1477,1616,1676,1678,1660,1614,1606,1579,1534,1524,1499,1474,1439,1413,1364,1364,1337,1298,1271,1244,1218,1201,1150,1005,777,740,730,719,708,708,712,638,635,638,638,643,642,649,649,646,654,645,645,643,646,644,654,655,646,647,641,640,644,644,644,644,644,644,56,56,56,56,56,57,63,69,75,80,86,85,84,82,81,80,79,78,76,75,74,73,72,70,69,68,67,66,64,63,62,61,60,58,58,57,57,57,14,14,14,14,13,13,14,14,14,14,14,13,13,14,14,14,14,14,14,13,13,14,14,14,14,14,14,1161,1166,1155,1165,1471,2163,2666,2841,2954,2965,2947,2906,2858,2804,2751,2682,2639,2564,2534,2442,2417,2376,2311,2283,2192,1880,1844,1628,1436,1310,1271,1248,1233,1201,1188,1171,1188,1193,1164,1161,1156,1167,1173,1172,1178,1178,1167,1178,1178,1176,1173,1178,1178,1178,1178,1178,1178,1177,1177,1176,1176,1176,1176,1176,1175,891,885,903,911,932,1364,1775,1974,2097,2116,2113,2085,2044,2021,2005,1933,1918,1909,1859,1808,1785,1751,1731,1686,1660,1611,1583,1544,1297,1179,1090,968,936,922,914,913,915,915,852,856,859,856,861,856,867,873,864,873,863,863,861,864,862,873,873,863,865,859,858,862,862,862,862,862,862,560,561,563,568,584,783,1063,1190,1306,1374,1382,1387,1350,1323,1304,1272,1249,1227,1204,1183,1160,1138,1117,1094,1072,1050,1028,1024,981,909,827,682,669,582,571,568,572,587,508,517,516,521,521,521,522,522,515,516,515,514,514,515,515,517,514,515,514,515,515,518,516,516,516,515,514,63,63,63,63,96,97,110,123,135,148,159,157,154,152,150,147,144,141,139,136,134,132,129,126,123,121,118,116,114,111,108,105,103,100,98,96,96,96,20,20,20,20,20,20,20,20,20,20,20,20,20,20,20,20,20,20,20,20,20,20,20,20,19,19,18,334,336,338,338,340,395,601,671,735,797,835,820,801,789,777,765,753,741,728,717,700,690,676,662,650,636,627,615,597,583,571,548,405,395,344,341,342,342,281,282,282,283,282,283,285,286,284,284,284,284,284,284,284,284,284,284,284,284,285,286,284,285,283,283,282,122,123,140,140,150,189,212,239,263,289,309,305,299,294,290,284,279,275,270,264,261,254,250,244,240,236,230,226,220,216,211,206,201,195,191,187,187,188,71,70,71,71,69,70,70,70,70,70,70,70,69,70,80,86,70,70,73,69,70,69,69,69,69,69,69,0,0,0,0,0,0,0,0,0,0,0,0,0,0,0,0,0,0,0,0,0,0,0,0,0,0,0,0,0,0,0,0,0,0,0,0,0,0,0,0,0,0,0,0,0,0,0,0,0,0,0,0,0,0,0,0,0,0,0,0,0,0,0,0,0,522,524,525,527,538,688,1003,1128,1246,1313,1329,1306,1284,1263,1241,1219,1197,1167,1152,1130,1103,1086,1058,1041,1018,997,969,953,929,831,748,622,603,558,544,534,536,535,478,483,483,501,492,498,497,501,505,499,491,504,484,487,500,493,484,506,486,483,505,502,504,504,502,494,493,688,691,709,692,710,1006,1323,1477,1616,1676,1678,1660,1614,1606,1579,1534,1524,1499,1474,1439,1413,1364,1364,1337,1298,1271,1244,1218,1201,1150,1005,777,740,730,719,708,708,712,638,635,638,638,643,642,649,649,646,654,645,645,643,646,644,654,655,646,647,641,640,644,644,644,644,644,644,990,977,1012,1019,1063,1809,2122,2264,2405,2421,2359,2363,2305,2314,2252,2212,2187,2131,2093,2026,2006,1957,1956,1871,1833,1813,1762,1430,1417,1317,1229,1058,1081,1037,1031,1021,1011,990,957,952,955,960,963,963,955,962,964,955,959,959,959,962,962,988,963,968,959,972,964,968,969,967,970,963,963,564,567,568,570,588,852,1100,1227,1330,1380,1382,1361,1339,1317,1295,1274,1251,1230,1208,1174,1164,1140,1120,1097,1076,1054,1023,1011,994,972,861,706,689,587,576,572,575,592,554,545,550,552,565,565,557,564,565,557,561,557,561,552,557,568,565,559,561,555,552,567,566,569,570,565,565,952,957,958,969,1049,1790,2121,2262,2387,2455,2420,2396,2351,2304,2261,2228,2182,2131,2096,2057,2017,1970,1931,1884,1840,1689,1655,1619,1478,1392,1072,1054,1035,984,970,967,949,937,945,931,938,941,950,949,954,948,955,953,962,963,960,991,993,1000,956,958,992,1031,967,959,955,979,949,949,946,991,995,1010,1001,1060,1837,2091,2222,2362,2386,2361,2334,2318,2253,2238,2188,2182,2123,2089,2040,2028,1974,1944,1893,1866,1823,1791,1668,1502,1373,1084,1059,1046,1028,1008,999,1008,1016,1012,1012,1021,1015,1023,1052,1027,1022,1036,1032,1024,1025,1048,1039,1040,1065,1051,1049,1034,1041,1053,1052,1035,1035,1030,1029,1022,125,125,126,126,127,195,222,248,274,301,316,312,307,301,296,291,286,280,276,271,266,261,255,250,246,241,235,230,225,220,214,210,205,200,129,127,128,128,196,115,116,116,124,120,121,116,117,120,200,121,126,127,129,127,121,120,123,199,206,195,119,119,202,119,117,538,540,541,544,560,806,1048,1171,1275,1324,1328,1306,1286,1264,1243,1222,1201,1180,1159,1137,1116,1094,1074,1053,1031,1010,988,968,951,929,852,674,575,560,550,570,548,558,520,511,516,528,531,531,523,530,532,523,527,527,527,522,530,540,531,535,527,523,527,536,535,535,536,531,531,395,396,412,413,421,457,706,831,895,943,956,945,936,925,914,903,892,881,870,860,841,823,824,801,760,745,732,714,596,583,558,516,485,413,461,453,454,421,347,351,346,351,356,352,351,356,347,357,350,352,350,352,353,354,354,352,351,350,356,353,350,350,350,353,350,596,599,600,602,615,911,1177,1315,1419,1466,1467,1443,1420,1396,1374,1350,1326,1303,1280,1255,1232,1209,1186,1162,1138,1114,1091,1069,1052,1027,853,749,635,621,608,605,607,626,579,570,575,596,599,599,591,598,597,591,595,595,595,590,597,604,597,599,595,597,596,599,597,603,598,599,594,588,590,591,593,616,898,1155,1291,1394,1443,1442,1421,1398,1375,1351,1329,1305,1283,1261,1226,1214,1188,1168,1143,1121,1099,1066,1053,964,947,832,648,632,610,600,596,598,592,554,545,550,552,565,565,557,564,565,557,561,557,561,552,557,568,565,559,561,555,552,567,566,569,568,565,565,0,0,0,0,0,0,0,0,0,0,0,0,0,0,0,0,0,0,0,0,0,0,0,0,0,0,0,0,0,0,0,0,0,0,0,0,0,0,0,0,0,0,0,0,0,0,0,0,0,0,0,0,0,0,0,0,0,0,0,0,0,0,0,0,0,990,977,1012,1019,1063,1809,2122,2264,2405,2421,2359,2363,2305,2314,2252,2212,2187,2131,2093,2026,2006,1957,1956,1871,1833,1813,1762,1430,1417,1317,1229,1058,1081,1037,1031,1021,1011,990,957,952,955,960,963,963,955,962,964,955,959,959,959,962,962,988,963,968,959,972,964,968,969,967,970,963,963,0,0,0,0,0,0,0,0,0,0,0,0,0,0,0,0,0,0,0,0,0,0,0,0,0,0,0,0,0,0,0,0,0,0,0,0,0,0,0,0,0,0,0,0,0,0,0,0,0,0,0,0,0,0,0,0,0,0,0,0,0,0,0,0,0,652,654,656,659,663,1144,1285,1424,1549,1599,1596,1572,1550,1525,1498,1473,1448,1426,1398,1372,1349,1321,1298,1270,1245,1219,1194,1168,1143,1102,870,844,731,754,667,662,666,649,602,607,602,607,612,619,639,620,613,621,619,631,617,631,614,625,618,621,621,619,615,618,615,616,615,616,605,1394,1422,1460,1581,2576,3497,3767,3879,3929,3972,3900,3809,3739,3676,3602,3550,3501,3430,3361,3296,2978,2777,2493,2313,2291,2099,1788,1732,1657,1618,1573,1512,1544,1464,1483,1429,1447,1468,1544,1543,1541,1551,1569,1601,1562,1590,1584,1608,1628,1599,1577,1592,1583,1630,1576,1580,1591,1587,1575,1612,1586,1591,1584,1641,1586,589,590,593,595,612,1006,1132,1260,1365,1416,1456,1410,1371,1353,1330,1309,1287,1266,1244,1222,1201,1217,1158,1171,1113,1092,1065,1046,1027,1005,1013,945,808,612,601,596,600,601,605,592,594,605,607,609,595,608,606,611,621,616,615,610,604,619,610,613,604,613,613,612,615,611,618,618,610,1073,1088,1087,1134,1200,2067,2326,2481,2570,2614,2593,2579,2533,2482,2453,2394,2346,2290,2268,2209,2185,2144,2108,2073,2024,1981,1765,1659,1568,1208,1183,1156,1142,1149,1131,1113,1077,1082,1046,1054,1071,1075,1082,1085,1104,1074,1076,1097,1066,1056,1064,1088,1071,1071,1090,1078,1059,1058,1069,1069,1058,1068,1070,1083,1055,626,628,631,632,636,1096,1232,1367,1493,1543,1542,1518,1496,1472,1447,1422,1398,1375,1348,1323,1301,1274,1251,1224,1200,1174,1150,1125,1100,1021,828,803,668,698,640,636,640,641,601,592,595,596,603,615,613,609,601,603,610,614,602,625,612,631,618,618,606,614,612,616,621,620,620,621,610,923,924,920,940,970,1758,1920,2116,2200,2224,2244,2184,2159,2134,2092,2063,2030,1987,1973,1926,1897,1854,1826,1765,1726,1718,1598,1366,1288,1247,1036,1014,973,1008,940,934,946,916,870,875,871,876,882,890,911,890,883,891,890,902,887,901,884,895,888,891,892,891,887,888,886,885,884,885,874,590,592,594,596,598,1012,1141,1274,1381,1443,1443,1420,1404,1376,1354,1323,1299,1285,1257,1238,1214,1194,1172,1140,1125,1102,1078,1055,1032,990,923,894,754,615,604,599,603,584,541,544,542,543,550,552,582,575,550,552,550,578,552,566,553,562,552,554,550,554,550,553,550,549,551,550,539,675,677,679,683,687,1196,1344,1488,1600,1660,1656,1631,1605,1579,1552,1524,1498,1479,1449,1422,1398,1371,1344,1316,1290,1263,1237,1210,1182,1047,908,880,724,707,696,692,695,635,588,593,588,594,599,605,625,606,599,607,606,618,603,617,600,611,604,607,608,606,601,604,601,602,601,602,591,1031,1042,1046,1076,1255,1985,2244,2400,2476,2533,2514,2501,2456,2403,2377,2319,2269,2208,2194,2137,2111,2073,2037,2011,1951,1905,1814,1588,1488,1254,1136,1108,1085,1100,1083,1060,1045,1050,1008,1020,1039,1053,1023,1060,1047,1076,1051,1049,1068,1028,1040,1061,1048,1046,1073,1042,1042,1060,1062,1071,1059,1070,1051,1071,1057,0,0,0,0,0,0,0,0,0,0,0,0,0,0,0,0,0,0,0,0,0,0,0,0,0,0,0,0,0,0,0,0,0,0,0,0,0,0,0,0,0,0,0,0,0,0,0,0,0,0,0,0,0,0,0,0,0,0,0,0,0,0,0,0,0 ]);
