n = 10;
D = [172,190,136,86,266,182,117,161,201,249 ];
q = 0;
prec = array2d(1..0,1..2,[]);
steps = 64;
l = 360;
r = 0;
which = [];
interval = array2d(1..0,1..2,[]);
T = array3d(1..11,1..11,0..64,[0,0,0,0,0,0,0,0,0,0,0,0,0,0,0,0,0,0,0,0,0,0,0,0,0,0,0,0,0,0,0,0,0,0,0,0,0,0,0,0,0,0,0,0,0,0,0,0,0,0,0,0,0,0,0,0,0,0,0,0,0,0,0,0,0,539,555,542,557,546,709,1030,1168,1250,1344,1337,1328,1297,1296,1266,1251,1199,1188,1159,1136,1125,1120,1095,1054,1051,1033,1013,992,800,797,797,729,634,576,572,563,552,558,492,489,485,492,497,492,497,499,493,495,496,506,514,514,516,503,500,494,497,500,491,492,491,494,495,494,485,425,428,436,432,438,493,773,890,965,1041,1064,1048,1032,990,992,975,975,959,918,888,875,859,873,848,823,806,793,775,757,740,588,471,561,457,436,432,443,436,405,389,379,387,396,393,389,405,387,392,392,390,387,384,386,389,391,388,388,388,388,388,388,388,388,388,388,644,648,650,652,666,976,1259,1386,1519,1583,1568,1551,1528,1509,1488,1452,1418,1414,1384,1347,1313,1303,1281,1257,1242,1206,1181,1156,1125,1023,824,806,750,692,660,651,658,667,601,598,594,601,606,601,606,608,602,604,605,615,623,623,623,612,609,603,606,609,600,601,600,603,604,603,594,667,670,671,677,698,969,1257,1444,1572,1639,1641,1622,1588,1561,1535,1509,1483,1456,1429,1405,1376,1350,1341,1296,1274,1248,1250,1195,1050,912,900,877,709,692,682,676,679,682,633,632,628,635,640,635,640,642,635,638,639,636,641,645,652,646,643,637,640,640,634,635,634,637,638,637,628,1087,1088,1095,1108,1181,1717,2357,2551,2622,2647,2610,2567,2570,2518,2474,2413,2355,2359,2298,2244,2210,2178,2134,2081,2027,1998,1872,1660,1396,1208,1198,1176,1164,1116,1111,1105,1090,1067,1039,1036,1042,1049,1054,1049,1054,1056,1050,1052,1053,1062,1066,1064,1070,1060,1057,1051,1054,1057,1048,1049,1048,1049,1052,1051,1042,304,304,312,307,308,373,557,622,687,744,752,743,730,734,706,696,684,671,659,646,648,622,623,599,587,575,562,552,538,527,515,389,380,320,312,308,309,310,276,276,277,278,280,276,277,278,280,283,284,284,284,288,284,284,290,286,285,288,288,288,288,288,292,292,288,204,204,205,206,207,272,371,411,454,496,512,504,495,487,480,471,463,454,447,439,430,422,414,406,398,390,381,373,366,357,349,340,332,319,271,265,268,268,184,185,183,186,203,196,190,204,189,205,196,203,194,189,191,193,194,190,196,199,188,196,190,206,196,193,191,514,516,515,519,522,570,967,1076,1192,1267,1274,1245,1220,1208,1188,1168,1151,1065,1107,1090,1069,1047,1028,950,928,966,945,925,906,879,807,634,606,534,523,522,523,524,492,489,493,503,520,507,507,521,504,521,513,520,511,506,508,510,511,507,513,516,505,513,507,523,513,510,508,655,673,660,653,671,881,1209,1415,1528,1554,1529,1483,1485,1463,1395,1428,1459,1377,1359,1382,1346,1329,1296,1277,1241,1244,1166,1049,1007,901,882,823,715,668,665,684,672,672,606,603,599,606,611,606,611,613,607,609,610,620,628,627,628,617,614,608,611,614,605,606,605,608,609,608,599,0,0,0,0,0,0,0,0,0,0,0,0,0,0,0,0,0,0,0,0,0,0,0,0,0,0,0,0,0,0,0,0,0,0,0,0,0,0,0,0,0,0,0,0,0,0,0,0,0,0,0,0,0,0,0,0,0,0,0,0,0,0,0,0,0,613,615,644,655,675,850,1170,1359,1429,1439,1450,1427,1404,1393,1367,1360,1337,1350,1329,1305,1282,1259,1232,1219,1173,1149,1125,1079,1018,1025,870,769,644,664,620,657,660,650,580,580,588,581,586,581,584,587,588,586,580,583,593,589,592,593,602,587,585,592,595,596,583,589,587,588,587,0,0,0,0,0,0,0,0,0,0,0,0,0,0,0,0,0,0,0,0,0,0,0,0,0,0,0,0,0,0,0,0,0,0,0,0,0,0,0,0,0,0,0,0,0,0,0,0,0,0,0,0,0,0,0,0,0,0,0,0,0,0,0,0,0,683,686,721,721,741,854,1347,1534,1615,1621,1615,1591,1573,1565,1528,1521,1495,1511,1474,1454,1433,1397,1372,1350,1306,1285,1166,1070,997,959,938,819,721,742,696,719,732,687,670,665,670,685,673,672,673,673,679,678,686,676,682,673,673,670,680,677,669,673,665,672,676,685,674,667,661,425,428,417,430,424,621,782,872,963,1036,1053,1036,993,997,981,946,928,934,918,901,864,867,832,832,800,798,782,751,751,741,704,639,563,444,435,432,423,424,400,406,397,407,410,410,407,415,404,407,409,416,404,402,405,408,407,408,409,411,408,415,405,423,409,412,406,146,146,147,147,148,152,260,290,320,350,367,361,355,350,344,338,332,326,320,314,308,303,297,291,285,279,273,267,261,256,250,244,159,155,151,148,148,149,143,144,140,141,145,145,145,149,144,148,149,237,240,244,150,250,156,140,141,150,232,232,226,237,233,247,160,782,784,772,788,810,1326,1537,1644,1725,1770,1802,1775,1755,1690,1702,1756,1645,1660,1563,1570,1540,1514,1489,1462,1436,1411,1359,1372,1258,1219,873,856,818,788,795,777,782,787,788,784,778,808,805,805,801,804,798,812,800,809,893,805,821,818,802,814,810,800,799,803,806,804,807,804,788,643,645,675,685,708,905,1234,1415,1499,1508,1517,1493,1470,1453,1430,1422,1399,1411,1388,1362,1339,1317,1287,1273,1226,1202,1174,1093,1028,942,904,691,675,702,650,688,690,668,590,587,586,591,601,597,595,596,597,601,599,598,608,604,615,596,614,601,601,607,611,608,598,599,595,593,593,768,771,800,814,852,995,1517,1759,1803,1810,1812,1784,1755,1733,1706,1692,1662,1674,1644,1613,1587,1560,1522,1508,1458,1431,1202,1109,1029,1069,912,822,816,838,777,818,799,766,702,709,711,715,713,714,714,715,713,722,712,711,718,722,733,741,741,721,723,715,725,720,727,725,716,728,715,1079,1082,1091,1129,1238,1638,2290,2493,2541,2536,2464,2483,2430,2411,2371,2349,2247,2292,2263,2191,2182,2150,2100,2052,2011,1892,1532,1439,1230,1205,1208,1137,1121,1150,1080,1109,1107,1072,1006,1019,1018,1023,1023,1024,1025,1027,1026,1037,1026,1027,1034,1039,1050,1056,1058,1038,1040,1032,1042,1037,1044,1042,1033,1045,1032,120,120,121,121,183,188,212,237,262,286,303,298,294,289,284,279,274,270,265,260,255,250,246,241,236,231,226,222,217,212,207,202,198,193,188,183,184,184,114,112,113,114,114,112,113,114,112,114,114,114,113,114,113,112,112,114,115,115,113,112,113,113,113,112,112,613,615,644,655,675,850,1170,1359,1429,1439,1450,1427,1404,1393,1367,1360,1337,1350,1329,1305,1282,1259,1232,1219,1173,1149,1125,1079,1018,1025,870,769,644,664,620,657,660,650,580,580,588,581,586,581,584,587,588,586,580,583,593,589,592,593,602,587,585,592,595,596,583,589,587,588,587,458,462,463,465,478,559,870,971,1069,1138,1144,1125,1106,1089,1077,1058,1032,1021,1006,972,964,946,928,908,891,872,854,836,817,753,630,608,497,485,474,472,480,469,416,412,413,416,418,419,420,417,419,421,422,422,422,423,422,423,423,423,426,426,425,423,426,424,422,423,423,615,616,618,619,627,732,1160,1291,1431,1506,1498,1484,1440,1426,1403,1380,1382,1323,1308,1298,1271,1230,1222,1191,1160,1159,1121,1093,954,998,858,742,719,663,641,622,625,638,562,561,565,569,566,567,573,576,572,571,572,572,577,582,578,577,574,573,591,579,575,569,577,578,576,576,576,0,0,0,0,0,0,0,0,0,0,0,0,0,0,0,0,0,0,0,0,0,0,0,0,0,0,0,0,0,0,0,0,0,0,0,0,0,0,0,0,0,0,0,0,0,0,0,0,0,0,0,0,0,0,0,0,0,0,0,0,0,0,0,0,0,733,736,736,744,778,1015,1436,1591,1738,1806,1805,1780,1741,1712,1693,1649,1628,1595,1560,1550,1509,1480,1451,1436,1401,1371,1342,1315,1148,1118,938,892,862,764,750,748,749,750,670,673,674,709,688,687,683,691,687,706,700,701,707,715,701,724,698,701,708,723,712,695,700,715,713,713,713,578,580,586,578,601,830,1136,1273,1444,1446,1414,1389,1370,1345,1354,1354,1327,1255,1255,1231,1180,1165,1170,1121,1117,1093,1051,1029,1029,1002,839,775,711,600,597,585,601,596,580,574,584,584,584,584,584,584,584,584,584,584,584,584,584,584,584,584,584,584,584,584,584,584,584,584,584,823,824,829,840,898,1551,1792,2032,2163,2214,2211,2151,2110,2070,2030,2007,1950,1909,1885,1845,1795,1764,1709,1687,1641,1592,1545,1519,1471,1169,1008,899,884,860,837,849,852,848,856,856,856,856,856,856,856,856,856,856,856,856,856,856,856,856,856,856,856,856,856,856,856,856,856,856,856,636,611,640,624,647,896,1224,1367,1507,1545,1544,1472,1495,1500,1472,1398,1412,1375,1356,1329,1277,1274,1249,1241,1203,1189,1154,1092,1062,988,837,815,754,652,627,644,645,637,608,606,606,624,613,622,619,623,620,617,627,620,624,629,624,622,621,630,621,624,622,621,629,626,624,624,611,326,328,328,333,331,467,602,672,742,805,806,801,790,776,765,745,738,726,712,691,679,666,660,648,634,621,602,595,582,569,539,526,471,435,331,340,333,332,301,304,303,304,307,306,307,308,308,308,309,310,308,310,308,310,310,309,313,312,311,312,312,314,312,312,312,467,468,468,471,479,603,891,992,1095,1167,1158,1137,1143,1106,1077,1014,1046,965,1024,1004,972,952,934,921,897,879,859,842,824,807,784,516,502,495,477,443,473,484,466,457,465,466,466,466,466,466,466,466,466,466,466,466,466,466,466,466,466,466,466,466,466,466,466,466,466,618,617,623,616,633,858,1170,1333,1428,1501,1446,1420,1425,1425,1385,1384,1369,1332,1286,1306,1236,1236,1220,1151,1162,1151,1082,1066,1066,1010,672,797,723,636,638,623,649,625,599,604,601,605,605,609,612,609,608,607,610,606,607,607,607,607,607,607,607,607,607,607,607,607,607,607,607,458,462,463,465,478,559,870,971,1069,1138,1144,1125,1106,1089,1077,1058,1032,1021,1006,972,964,946,928,908,891,872,854,836,817,753,630,608,497,485,474,472,480,469,416,412,413,416,418,419,420,417,419,421,422,422,422,423,422,423,423,423,426,426,425,423,426,424,422,423,423,660,661,663,666,709,1151,1263,1396,1490,1548,1513,1490,1489,1466,1446,1420,1399,1375,1353,1333,1302,1279,1251,1236,1206,1182,1150,1125,1105,1019,929,854,675,660,649,668,670,661,634,634,644,647,648,637,643,649,645,650,646,647,648,661,666,667,649,641,655,650,658,644,644,668,644,649,643,356,360,358,362,364,581,650,720,795,844,865,841,853,816,811,796,777,769,751,738,728,715,733,703,674,660,661,648,633,609,607,556,542,413,368,364,365,366,333,330,333,334,327,332,335,334,335,338,348,339,338,338,336,343,338,335,334,341,336,337,339,334,337,342,340,821,821,823,827,860,1296,1589,1728,1829,1876,1865,1839,1814,1816,1762,1735,1709,1684,1664,1633,1606,1588,1556,1514,1460,1433,1429,1400,1287,998,975,856,852,818,810,811,796,793,774,773,776,790,793,788,789,791,787,794,788,792,792,797,797,806,795,793,792,795,795,789,789,811,789,794,788,0,0,0,0,0,0,0,0,0,0,0,0,0,0,0,0,0,0,0,0,0,0,0,0,0,0,0,0,0,0,0,0,0,0,0,0,0,0,0,0,0,0,0,0,0,0,0,0,0,0,0,0,0,0,0,0,0,0,0,0,0,0,0,0,0,427,428,429,430,437,671,811,903,993,1054,1063,1045,1030,1011,994,978,961,943,926,910,892,875,859,840,824,807,789,773,640,624,611,596,459,448,440,434,434,435,416,419,419,434,448,440,439,451,443,455,463,441,462,441,445,447,445,429,456,444,430,451,453,448,441,456,441,584,609,612,613,669,987,1204,1332,1387,1491,1497,1473,1456,1425,1401,1377,1353,1302,1305,1281,1240,1234,1215,1165,1119,1138,1114,1095,1052,1042,980,918,670,631,612,617,619,614,616,610,605,619,628,637,627,622,627,635,625,628,620,626,631,614,618,629,630,627,620,620,625,629,631,632,625,648,651,652,653,706,1052,1200,1338,1467,1511,1514,1492,1446,1411,1387,1363,1342,1319,1345,1275,1253,1232,1204,1181,1157,1135,1158,1115,974,712,716,697,681,650,639,657,659,642,628,626,636,640,632,639,638,633,628,636,628,627,627,636,641,641,642,641,638,640,647,631,643,630,643,639,627,812,817,818,825,898,1263,1615,1778,1879,1914,1906,1879,1871,1816,1790,1776,1732,1695,1666,1666,1605,1606,1594,1549,1491,1453,1378,1349,1123,1095,912,920,834,816,823,826,800,810,773,775,783,791,789,786,786,789,786,792,785,785,791,798,805,808,797,790,791,795,796,791,791,808,791,793,787,1122,1109,1132,1140,1258,1928,2381,2529,2617,2640,2618,2551,2559,2492,2431,2418,2376,2328,2234,2273,2200,2191,2164,2114,2044,1979,1865,1564,1463,1293,1194,1217,1150,1128,1108,1139,1108,1116,1079,1085,1091,1101,1099,1097,1098,1102,1101,1106,1101,1101,1108,1115,1122,1123,1114,1107,1108,1112,1113,1108,1108,1125,1108,1110,1104,419,420,421,424,429,582,794,885,973,1035,1044,1027,1012,993,976,960,943,926,910,893,877,859,843,826,809,792,776,759,742,725,681,658,451,440,490,458,428,428,404,404,411,423,413,407,409,418,410,411,424,414,419,418,417,417,411,409,415,409,408,404,409,408,405,412,411,660,661,663,666,709,1151,1263,1396,1490,1548,1513,1490,1489,1466,1446,1420,1399,1375,1353,1333,1302,1279,1251,1236,1206,1182,1150,1125,1105,1019,929,854,675,660,649,668,670,661,634,634,644,647,648,637,643,649,645,650,646,647,648,661,666,667,649,641,655,650,658,644,644,668,644,649,643,715,717,732,722,755,856,1078,1475,1581,1632,1630,1604,1579,1550,1524,1501,1488,1448,1423,1397,1369,1343,1318,1290,1275,1084,1065,916,895,870,967,906,714,688,731,736,744,702,664,667,674,673,718,708,684,691,685,721,683,681,727,682,685,698,700,675,714,686,679,711,688,717,719,687,683,200,200,201,201,202,208,355,400,441,483,500,492,483,476,468,460,452,444,432,423,416,408,400,392,385,381,373,364,357,349,342,333,325,318,206,203,204,204,193,194,193,198,261,205,200,253,199,258,208,245,204,199,203,206,202,200,210,236,200,205,204,286,205,202,202,696,698,707,713,738,702,1133,1328,1450,1523,1476,1510,1428,1437,1393,1369,1378,1362,1306,1282,1267,1234,1219,1203,1198,1159,1047,806,736,703,1020,854,660,631,727,713,716,691,644,641,648,666,651,650,646,652,646,648,652,653,652,655,656,656,660,664,657,660,655,658,661,672,667,704,667,417,433,435,421,472,702,768,979,1006,1062,1068,1040,980,1017,1000,930,1026,937,932,884,898,882,865,848,819,771,787,752,763,708,704,668,440,442,442,545,440,435,438,435,438,437,445,447,444,448,442,448,444,441,448,444,443,459,453,445,441,461,440,470,443,443,441,447,456,0,0,0,0,0,0,0,0,0,0,0,0,0,0,0,0,0,0,0,0,0,0,0,0,0,0,0,0,0,0,0,0,0,0,0,0,0,0,0,0,0,0,0,0,0,0,0,0,0,0,0,0,0,0,0,0,0,0,0,0,0,0,0,0,0,773,776,779,783,828,1188,1451,1621,1743,1786,1783,1762,1699,1752,1680,1654,1628,1635,1576,1551,1558,1560,1447,1499,1430,1399,1371,1320,1312,1156,1029,816,816,796,789,770,786,779,763,761,754,783,774,788,773,778,773,788,782,781,785,783,800,887,787,795,790,790,793,789,789,798,796,798,783,745,747,763,752,788,825,1138,1545,1650,1700,1697,1670,1644,1615,1587,1562,1549,1509,1482,1454,1426,1401,1373,1345,1328,1137,1116,826,808,821,971,896,736,718,762,766,757,723,674,673,672,686,736,726,695,700,695,745,699,703,740,701,698,701,712,690,738,699,690,723,699,727,724,693,689,793,797,803,805,867,843,1334,1580,1676,1747,1723,1728,1662,1657,1599,1570,1583,1579,1526,1485,1464,1417,1407,1386,1396,1328,1202,842,832,813,1051,959,754,725,810,832,810,783,744,745,758,771,758,753,751,756,749,751,755,753,752,755,760,762,763,765,757,759,759,762,767,775,776,781,774,1104,1092,1118,1120,1253,1486,2086,2342,2414,2475,2441,2440,2356,2335,2266,2237,2234,2183,2153,2099,2036,2012,1985,1957,1954,1864,1532,1172,1183,1157,1259,1200,1059,1041,1094,1143,1118,1089,1050,1055,1065,1079,1068,1063,1062,1068,1062,1066,1069,1069,1068,1072,1077,1077,1080,1082,1074,1076,1076,1079,1084,1092,1093,1098,1091,148,148,148,149,150,155,262,294,324,355,372,366,360,354,348,342,336,330,324,319,313,307,301,295,289,283,277,278,272,266,253,165,161,157,153,150,151,151,141,143,143,144,252,252,157,163,156,255,160,155,252,149,150,163,156,147,256,148,147,252,161,254,252,160,156,715,717,732,722,755,856,1078,1475,1581,1632,1630,1604,1579,1550,1524,1501,1488,1448,1423,1397,1369,1343,1318,1290,1275,1084,1065,916,895,870,967,906,714,688,731,736,744,702,664,667,674,673,718,708,684,691,685,721,683,681,727,682,685,698,700,675,714,686,679,711,688,717,719,687,683,1004,1032,1014,1086,1171,1896,2348,2511,2603,2627,2590,2548,2541,2498,2486,2436,2385,2324,2286,2234,2185,2157,2113,2034,2028,1986,1939,1668,1408,1332,1215,1194,1083,1032,1047,1024,1058,1037,1079,1073,1069,1081,1072,1102,1076,1084,1105,1109,1087,1104,1104,1106,1101,1105,1108,1103,1095,1100,1104,1102,1107,1101,1111,1113,1103,818,821,839,856,897,1426,1613,1823,1969,2031,1995,2000,1914,1935,1877,1819,1830,1798,1743,1734,1718,1688,1615,1583,1543,1557,1473,1464,1297,1233,1004,898,887,859,828,846,832,851,837,827,824,828,828,829,830,835,841,853,839,853,864,857,850,852,867,842,838,845,862,866,861,857,854,854,854,820,838,822,840,941,1566,1864,1978,2108,2232,2148,2108,2068,2114,2030,1951,1915,1872,1876,1792,1753,1713,1677,1704,1596,1556,1586,1508,1437,1355,1160,1012,871,831,813,812,816,824,839,836,849,846,850,856,967,875,853,870,865,853,864,869,869,862,1008,872,860,858,862,860,857,869,865,877,860,573,576,582,579,611,842,1105,1227,1333,1383,1386,1364,1342,1322,1353,1331,1257,1236,1247,1194,1172,1150,1129,1107,1087,1065,1047,1022,1000,979,810,658,644,630,585,582,584,584,573,580,584,592,589,585,583,592,584,584,584,586,578,588,582,591,591,592,590,588,583,592,588,626,580,590,585,723,735,737,740,783,1196,1419,1584,1658,1778,1733,1721,1732,1645,1617,1614,1545,1575,1552,1525,1490,1476,1382,1390,1298,1354,1274,1279,1226,1049,1037,975,771,742,742,744,742,732,713,710,708,713,724,712,717,716,721,720,730,733,735,747,742,768,710,726,734,742,729,719,733,719,720,720,720,0,0,0,0,0,0,0,0,0,0,0,0,0,0,0,0,0,0,0,0,0,0,0,0,0,0,0,0,0,0,0,0,0,0,0,0,0,0,0,0,0,0,0,0,0,0,0,0,0,0,0,0,0,0,0,0,0,0,0,0,0,0,0,0,0,857,860,870,879,998,1520,1988,2238,2329,2361,2341,2293,2253,2224,2166,2131,2074,2060,2001,1958,1901,1880,1832,1761,1764,1751,1700,1599,1457,1254,1089,1052,929,883,885,887,899,907,906,904,902,912,902,917,904,911,916,928,915,915,919,916,920,930,926,919,917,924,928,924,930,912,930,931,921,1095,1094,1102,1145,1460,2194,2492,2672,2760,2907,2776,2727,2712,2666,2581,2529,2526,2425,2379,2363,2277,2233,2187,2163,2108,2066,1960,1687,1501,1388,1214,1156,1130,1106,1092,1132,1094,1116,1122,1120,1129,1126,1157,1144,1196,1155,1134,1178,1174,1156,1154,1151,1152,1172,1209,1154,1146,1150,1146,1151,1153,1183,1146,1191,1174,1232,1233,1237,1320,1738,2529,2824,2993,3072,3216,3078,3024,3009,2958,2857,2806,2768,2698,2664,2644,2541,2479,2431,2355,2238,2072,1764,1404,1616,1400,1377,1306,1273,1248,1228,1218,1234,1247,1263,1275,1284,1266,1273,1287,1325,1308,1294,1313,1331,1312,1312,1310,1306,1328,1342,1308,1298,1300,1296,1310,1300,1307,1288,1335,1326,764,766,768,778,826,1308,1498,1672,1796,1866,1861,1852,1801,1771,1741,1729,1665,1653,1623,1593,1580,1534,1489,1476,1416,1416,1371,1372,1334,1214,1057,825,827,788,777,775,799,779,777,768,772,766,788,777,775,772,776,788,792,797,800,837,897,798,779,790,776,801,780,789,792,785,780,780,780,1004,1032,1014,1086,1171,1896,2348,2511,2603,2627,2590,2548,2541,2498,2486,2436,2385,2324,2286,2234,2185,2157,2113,2034,2028,1986,1939,1668,1408,1332,1215,1194,1083,1032,1047,1024,1058,1037,1079,1073,1069,1081,1072,1102,1076,1084,1105,1109,1087,1104,1104,1106,1101,1105,1108,1103,1095,1100,1104,1102,1107,1101,1111,1113,1103,296,296,297,299,300,396,539,598,665,725,740,728,716,704,693,681,669,657,645,633,612,609,598,586,574,554,550,538,526,516,504,419,410,312,377,300,301,302,281,279,282,286,282,294,286,299,304,288,297,292,296,293,288,295,292,286,286,294,294,294,291,297,295,338,293,509,509,504,512,500,621,934,1028,1113,1228,1241,1214,1198,1178,1177,1154,1099,1090,1071,1054,1023,1038,1005,967,959,941,921,891,783,674,660,697,544,527,520,509,505,512,434,437,435,441,446,439,440,442,439,444,444,451,469,468,463,452,447,438,441,445,446,449,445,450,444,471,443,666,667,669,672,684,883,1273,1424,1564,1604,1602,1561,1557,1543,1530,1494,1478,1451,1424,1399,1365,1351,1318,1251,1227,1216,1180,1153,1046,932,836,789,702,697,680,675,685,644,591,600,597,604,612,611,607,613,601,618,610,612,618,618,615,618,620,608,612,605,613,620,613,624,608,638,607,604,604,607,607,620,688,1133,1281,1388,1493,1463,1466,1432,1408,1384,1362,1318,1319,1296,1251,1219,1206,1212,1170,1154,1113,1099,1075,992,872,816,651,692,636,616,612,613,619,543,546,544,550,555,548,549,551,548,553,553,560,578,577,570,561,556,547,550,554,555,558,554,559,553,580,552,652,652,648,656,652,881,1230,1363,1474,1579,1586,1557,1536,1510,1498,1471,1413,1396,1371,1354,1320,1321,1284,1240,1230,1204,1179,1142,1033,860,769,751,699,672,668,655,651,655,577,580,578,584,589,582,583,585,582,587,587,594,612,611,608,595,590,581,584,588,589,592,588,593,587,614,586,869,870,872,889,967,1608,1902,2046,2211,2301,2289,2264,2209,2172,2098,2071,2058,1986,1952,1937,1899,1827,1788,1754,1714,1678,1656,1609,1352,1241,1075,1036,928,922,886,894,931,893,871,872,883,893,878,895,898,905,898,899,903,891,898,890,897,901,899,900,901,897,902,894,900,918,892,897,895,0,0,0,0,0,0,0,0,0,0,0,0,0,0,0,0,0,0,0,0,0,0,0,0,0,0,0,0,0,0,0,0,0,0,0,0,0,0,0,0,0,0,0,0,0,0,0,0,0,0,0,0,0,0,0,0,0,0,0,0,0,0,0,0,0,500,500,502,505,507,767,950,1052,1161,1229,1235,1215,1198,1178,1159,1138,1123,1104,1084,1063,1030,1021,1004,984,961,932,921,902,882,862,802,663,577,522,550,508,509,497,465,464,464,472,483,486,477,488,491,481,489,493,490,482,478,491,484,474,486,489,484,488,481,503,490,518,484,810,802,812,818,831,1363,1647,1812,1923,1970,1960,1936,1908,1878,1844,1785,1734,1755,1723,1701,1656,1635,1548,1514,1480,1494,1474,1374,1184,1136,1098,889,854,834,866,821,824,805,771,773,781,788,797,803,794,803,807,797,806,810,807,799,795,808,801,791,803,806,801,805,798,820,807,835,801,627,630,622,631,625,761,1175,1302,1410,1517,1524,1496,1477,1451,1439,1414,1359,1342,1318,1300,1269,1271,1235,1191,1182,1157,1133,1084,990,832,791,724,665,646,646,629,625,615,548,551,549,555,560,553,554,556,553,558,558,565,583,581,575,566,561,552,555,559,560,563,559,564,558,585,557,296,296,297,299,300,396,539,598,665,725,740,728,716,704,693,681,669,657,645,633,612,609,598,586,574,554,550,538,526,516,504,419,410,312,377,300,301,302,281,279,282,286,282,294,286,299,304,288,297,292,296,293,288,295,292,286,286,294,294,294,291,297,295,338,293,272,272,274,275,276,382,522,548,603,654,667,656,646,636,625,615,604,595,584,574,564,553,543,532,523,512,501,492,481,471,407,398,388,380,280,276,276,277,243,243,243,243,243,243,243,243,243,243,243,243,243,243,243,243,243,243,243,243,243,243,243,243,243,243,243,713,711,715,718,724,802,1343,1547,1675,1727,1720,1699,1672,1635,1613,1586,1553,1537,1509,1483,1468,1426,1399,1380,1345,1326,1288,1122,1045,966,845,809,772,742,728,727,728,716,626,626,626,626,626,626,626,626,626,626,626,626,626,626,626,626,626,626,626,626,626,626,626,626,626,626,626,252,253,254,255,256,406,460,514,568,619,645,624,624,614,603,593,572,562,553,542,532,522,512,501,492,481,480,470,451,441,430,421,410,400,260,256,257,258,237,237,237,237,237,237,237,237,237,237,237,237,237,237,237,237,237,237,237,237,237,237,237,237,237,237,237,814,823,822,824,864,1242,1599,1801,1943,1980,1967,1960,1929,1901,1858,1837,1795,1757,1720,1691,1670,1651,1605,1590,1553,1510,1469,1435,1228,1092,950,928,873,856,844,829,822,825,735,735,735,735,735,735,735,735,735,735,735,735,735,735,735,735,735,735,735,735,735,735,735,735,735,735,735,737,746,742,745,788,1091,1419,1588,1752,1811,1812,1775,1748,1719,1694,1662,1638,1606,1577,1548,1519,1494,1463,1432,1404,1375,1346,1316,1257,1151,1003,847,781,779,768,752,763,756,669,669,669,669,669,669,669,669,669,669,669,669,669,669,669,669,669,669,669,669,669,669,669,669,669,669,669,1032,1034,1056,1046,1111,2120,2406,2586,2680,2684,2671,2610,2590,2542,2481,2443,2384,2335,2299,2255,2206,2187,2116,2058,2008,1962,1872,1713,1529,1171,1148,1121,1089,1075,1056,1051,1057,1063,1068,1068,1068,1068,1068,1068,1068,1068,1068,1068,1068,1068,1068,1068,1068,1068,1068,1068,1068,1068,1068,1068,1068,1068,1068,1068,1068,525,514,518,521,530,641,974,1088,1211,1260,1280,1229,1214,1195,1171,1159,1135,1127,1101,1085,1061,1034,1020,1003,980,956,948,916,904,892,646,631,616,538,525,524,521,524,450,450,450,450,450,450,450,450,450,450,450,450,450,450,450,450,450,450,450,450,450,450,450,450,450,450,450,0,0,0,0,0,0,0,0,0,0,0,0,0,0,0,0,0,0,0,0,0,0,0,0,0,0,0,0,0,0,0,0,0,0,0,0,0,0,0,0,0,0,0,0,0,0,0,0,0,0,0,0,0,0,0,0,0,0,0,0,0,0,0,0,0,311,312,312,313,315,508,576,643,704,760,781,762,750,744,732,712,700,688,676,687,651,639,627,614,608,590,578,565,553,541,529,516,367,328,320,316,316,320,308,306,309,317,316,316,316,317,315,317,316,317,317,317,317,317,317,315,317,317,317,317,317,317,317,317,317,760,774,764,777,787,1025,1503,1623,1792,1842,1842,1806,1812,1750,1728,1692,1702,1631,1630,1580,1551,1551,1493,1465,1435,1405,1342,1288,1229,941,884,852,841,820,790,784,790,788,701,701,701,701,701,701,701,701,701,701,701,701,701,701,701,701,701,701,701,701,701,701,701,701,701,701,701,272,272,274,275,276,382,522,548,603,654,667,656,646,636,625,615,604,595,584,574,564,553,543,532,523,512,501,492,481,471,407,398,388,380,280,276,276,277,243,243,243,243,243,243,243,243,243,243,243,243,243,243,243,243,243,243,243,243,243,243,243,243,243,243,243,537,540,558,543,563,780,1021,1139,1266,1318,1322,1308,1279,1258,1238,1217,1195,1175,1155,1135,1117,1095,1078,1052,1030,1015,988,968,917,818,797,692,574,560,550,564,548,549,536,529,536,541,540,558,551,538,540,545,560,559,562,565,552,567,557,553,548,561,560,559,551,554,552,552,550,1026,1017,1029,1045,1080,1702,2138,2342,2440,2454,2438,2414,2374,2328,2286,2272,2225,2190,2152,2091,2059,2040,1976,1955,1921,1788,1666,1539,1404,1273,1103,1100,1053,1062,1041,1043,1013,986,942,936,944,955,960,959,966,954,951,961,961,963,956,961,961,968,958,955,968,963,963,960,960,960,953,953,953,510,512,520,511,524,843,979,1124,1200,1275,1255,1233,1219,1199,1174,1176,1135,1114,1094,1075,1059,1034,1012,999,974,958,937,930,892,873,852,715,672,586,518,515,516,510,519,512,515,519,516,519,519,523,516,518,521,513,515,520,524,522,523,524,518,520,522,525,518,522,516,518,511,1131,1119,1135,1163,1240,1938,2402,2580,2685,2723,2660,2656,2600,2572,2503,2486,2437,2391,2360,2280,2265,2238,2166,2146,2100,2059,1804,1668,1448,1268,1219,1213,1166,1169,1143,1145,1122,1095,1051,1045,1053,1064,1069,1068,1075,1063,1060,1070,1070,1072,1065,1070,1070,1077,1067,1064,1077,1072,1072,1069,1069,1069,1062,1062,1062,1048,1056,1060,1080,1143,1812,2228,2426,2529,2545,2490,2510,2421,2390,2378,2340,2292,2260,2205,2164,2124,2064,2043,2003,1962,1928,1859,1566,1388,1250,1156,1146,1118,1084,1071,1069,1075,1029,978,982,995,996,1007,1006,1011,995,1000,1011,1004,1008,995,1003,1011,1015,1004,1003,1008,1003,1007,1006,1009,1007,1004,1004,1004,1239,1242,1246,1307,1947,2609,2955,3072,3161,3149,3132,3060,3029,2962,2950,2854,2810,2738,2704,2624,2578,2539,2470,2273,2015,1984,1836,1675,1426,1378,1356,1404,1288,1303,1264,1262,1269,1276,1286,1294,1288,1299,1287,1309,1311,1324,1309,1318,1330,1341,1330,1312,1323,1354,1325,1324,1319,1327,1374,1318,1322,1376,1324,1347,1337,784,784,787,791,796,1173,1549,1735,1863,1913,1906,1880,1819,1811,1779,1748,1714,1698,1656,1626,1578,1571,1545,1471,1477,1467,1419,1400,1265,1050,1027,953,820,816,773,796,778,768,769,767,775,780,776,785,785,776,773,779,783,782,775,783,783,790,780,777,782,785,785,782,782,782,775,775,775,328,330,331,332,333,493,608,680,751,808,820,807,794,775,768,754,741,728,715,703,690,676,663,645,637,624,610,597,537,526,514,502,492,435,337,334,335,336,313,315,316,321,323,328,326,324,320,327,326,327,322,327,326,332,325,320,332,324,325,326,325,327,320,320,320,0,0,0,0,0,0,0,0,0,0,0,0,0,0,0,0,0,0,0,0,0,0,0,0,0,0,0,0,0,0,0,0,0,0,0,0,0,0,0,0,0,0,0,0,0,0,0,0,0,0,0,0,0,0,0,0,0,0,0,0,0,0,0,0,0,1071,1079,1096,1108,1170,1881,2262,2457,2560,2576,2574,2542,2488,2420,2420,2373,2319,2290,2235,2210,2154,2115,2079,2033,2000,1890,1679,1604,1352,1289,1193,1173,1131,1108,1087,1089,1081,1061,1016,1020,1028,1032,1036,1036,1043,1027,1024,1038,1039,1041,1038,1043,1043,1050,1040,1037,1049,1043,1043,1042,1041,1043,1036,1036,1036,537,540,558,543,563,780,1021,1139,1266,1318,1322,1308,1279,1258,1238,1217,1195,1175,1155,1135,1117,1095,1078,1052,1030,1015,988,968,917,818,797,692,574,560,550,564,548,549,536,529,536,541,540,558,551,538,540,545,560,559,562,565,552,567,557,553,548,561,560,559,551,554,552,552,550,566,568,584,571,605,811,1077,1233,1340,1337,1339,1320,1298,1279,1258,1253,1232,1211,1232,1212,1190,1170,1150,1130,1086,1059,1036,1010,992,838,834,741,689,588,579,588,593,567,523,523,523,530,532,523,523,527,526,529,526,524,530,535,535,536,544,530,530,530,530,530,530,530,530,530,530,124,124,125,125,189,193,219,243,268,293,310,306,301,296,291,286,280,276,271,266,261,256,252,247,242,237,232,228,223,218,213,207,202,198,193,189,189,190,87,88,88,91,88,90,89,90,89,91,89,90,91,93,90,94,93,88,88,88,88,88,88,88,88,88,88,643,644,663,644,682,898,1239,1429,1534,1512,1507,1484,1462,1438,1415,1408,1385,1360,1402,1354,1331,1303,1281,1264,1216,1200,1166,1082,1009,793,783,689,680,662,648,661,664,638,608,610,607,628,617,617,616,612,616,621,628,616,625,621,614,610,619,623,623,623,623,623,623,623,623,623,623,379,381,388,382,389,611,702,781,846,927,938,922,908,895,855,841,848,841,798,804,789,775,759,747,733,696,706,691,670,657,640,629,396,416,388,395,391,387,342,349,340,350,354,353,350,356,346,350,351,359,347,346,348,350,349,349,349,349,349,349,349,349,349,349,349,152,152,153,153,154,240,271,302,334,366,384,376,370,364,358,352,346,340,334,328,322,316,309,303,297,291,285,279,273,267,261,255,249,242,226,222,223,223,147,148,147,148,148,149,148,150,148,148,147,148,148,151,150,150,150,149,149,149,154,181,149,154,148,150,151,788,791,793,795,817,1185,1551,1694,1781,1820,1816,1790,1763,1737,1711,1684,1628,1602,1606,1638,1554,1566,1501,1474,1422,1424,1395,1345,1172,1148,1073,843,832,795,801,822,788,788,797,796,791,808,812,825,812,818,808,825,815,816,820,834,841,830,820,829,823,820,827,823,820,832,822,824,819,596,598,614,602,619,867,1138,1303,1417,1407,1407,1387,1364,1344,1323,1316,1294,1271,1291,1270,1248,1227,1205,1183,1139,1115,1089,1060,1028,887,867,779,720,619,610,619,624,586,544,533,529,528,545,541,541,538,535,539,550,540,552,548,554,558,547,542,542,542,542,542,542,542,542,542,542,723,724,741,728,749,1049,1435,1611,1722,1714,1707,1676,1658,1633,1601,1593,1571,1541,1557,1534,1499,1471,1448,1426,1368,1342,1202,1121,1029,994,798,794,778,744,743,746,760,681,644,652,654,658,657,657,656,657,655,665,654,654,661,666,676,681,683,662,662,662,662,662,662,662,662,662,662,1032,1035,1031,1044,1104,1673,2185,2341,2460,2444,2371,2339,2319,2310,2266,2254,2195,2126,2182,2148,2083,2061,2015,1962,1923,1872,1532,1451,1421,1235,1132,1112,1089,1060,1055,1030,1048,989,948,962,961,966,967,967,967,969,968,980,968,970,977,983,993,997,1000,979,979,979,979,979,979,979,979,979,979,0,0,0,0,0,0,0,0,0,0,0,0,0,0,0,0,0,0,0,0,0,0,0,0,0,0,0,0,0,0,0,0,0,0,0,0,0,0,0,0,0,0,0,0,0,0,0,0,0,0,0,0,0,0,0,0,0,0,0,0,0,0,0,0,0,566,568,584,571,605,811,1077,1233,1340,1337,1339,1320,1298,1279,1258,1253,1232,1211,1232,1212,1190,1170,1150,1130,1086,1059,1036,1010,992,838,834,741,689,588,579,588,593,567,523,523,523,530,532,523,523,527,526,529,526,524,530,535,535,536,544,530,530,530,530,530,530,530,530,530,530,0,0,0,0,0,0,0,0,0,0,0,0,0,0,0,0,0,0,0,0,0,0,0,0,0,0,0,0,0,0,0,0,0,0,0,0,0,0,0,0,0,0,0,0,0,0,0,0,0,0,0,0,0,0,0,0,0,0,0,0,0,0,0,0,0,539,555,542,557,546,709,1030,1168,1250,1344,1337,1328,1297,1296,1266,1251,1199,1188,1159,1136,1125,1120,1095,1054,1051,1033,1013,992,800,797,797,729,634,576,572,563,552,558,492,489,485,492,497,492,497,499,493,495,496,506,514,514,516,503,500,494,497,500,491,492,491,494,495,494,485,425,428,436,432,438,493,773,890,965,1041,1064,1048,1032,990,992,975,975,959,918,888,875,859,873,848,823,806,793,775,757,740,588,471,561,457,436,432,443,436,405,389,379,387,396,393,389,405,387,392,392,390,387,384,386,389,391,388,388,388,388,388,388,388,388,388,388,644,648,650,652,666,976,1259,1386,1519,1583,1568,1551,1528,1509,1488,1452,1418,1414,1384,1347,1313,1303,1281,1257,1242,1206,1181,1156,1125,1023,824,806,750,692,660,651,658,667,601,598,594,601,606,601,606,608,602,604,605,615,623,623,623,612,609,603,606,609,600,601,600,603,604,603,594,667,670,671,677,698,969,1257,1444,1572,1639,1641,1622,1588,1561,1535,1509,1483,1456,1429,1405,1376,1350,1341,1296,1274,1248,1250,1195,1050,912,900,877,709,692,682,676,679,682,633,632,628,635,640,635,640,642,635,638,639,636,641,645,652,646,643,637,640,640,634,635,634,637,638,637,628,1087,1088,1095,1108,1181,1717,2357,2551,2622,2647,2610,2567,2570,2518,2474,2413,2355,2359,2298,2244,2210,2178,2134,2081,2027,1998,1872,1660,1396,1208,1198,1176,1164,1116,1111,1105,1090,1067,1039,1036,1042,1049,1054,1049,1054,1056,1050,1052,1053,1062,1066,1064,1070,1060,1057,1051,1054,1057,1048,1049,1048,1049,1052,1051,1042,304,304,312,307,308,373,557,622,687,744,752,743,730,734,706,696,684,671,659,646,648,622,623,599,587,575,562,552,538,527,515,389,380,320,312,308,309,310,276,276,277,278,280,276,277,278,280,283,284,284,284,288,284,284,290,286,285,288,288,288,288,288,292,292,288,204,204,205,206,207,272,371,411,454,496,512,504,495,487,480,471,463,454,447,439,430,422,414,406,398,390,381,373,366,357,349,340,332,319,271,265,268,268,184,185,183,186,203,196,190,204,189,205,196,203,194,189,191,193,194,190,196,199,188,196,190,206,196,193,191,514,516,515,519,522,570,967,1076,1192,1267,1274,1245,1220,1208,1188,1168,1151,1065,1107,1090,1069,1047,1028,950,928,966,945,925,906,879,807,634,606,534,523,522,523,524,492,489,493,503,520,507,507,521,504,521,513,520,511,506,508,510,511,507,513,516,505,513,507,523,513,510,508,655,673,660,653,671,881,1209,1415,1528,1554,1529,1483,1485,1463,1395,1428,1459,1377,1359,1382,1346,1329,1296,1277,1241,1244,1166,1049,1007,901,882,823,715,668,665,684,672,672,606,603,599,606,611,606,611,613,607,609,610,620,628,627,628,617,614,608,611,614,605,606,605,608,609,608,599,0,0,0,0,0,0,0,0,0,0,0,0,0,0,0,0,0,0,0,0,0,0,0,0,0,0,0,0,0,0,0,0,0,0,0,0,0,0,0,0,0,0,0,0,0,0,0,0,0,0,0,0,0,0,0,0,0,0,0,0,0,0,0,0,0 ]);
