n = 20;
D = [106,93,105,170,189,161,120,108,162,142,166,218,279,277,267,118,129,123,80,295 ];
q = 0;
prec = array2d(1..0,1..2,[]);
steps = 64;
l = 360;
r = 0;
which = [];
interval = array2d(1..0,1..2,[]);
T = array3d(1..21,1..21,0..64,[0,0,0,0,0,0,0,0,0,0,0,0,0,0,0,0,0,0,0,0,0,0,0,0,0,0,0,0,0,0,0,0,0,0,0,0,0,0,0,0,0,0,0,0,0,0,0,0,0,0,0,0,0,0,0,0,0,0,0,0,0,0,0,0,0,805,807,809,811,874,1025,1233,1387,1485,1533,1505,1476,1463,1417,1404,1359,1330,1319,1272,1243,1214,1184,1155,1142,1097,1068,1039,1010,981,952,922,893,864,859,820,820,826,843,859,854,843,851,832,848,843,847,866,920,853,864,870,867,861,890,891,860,851,847,861,873,855,866,870,866,859,797,770,791,767,840,927,1057,1200,1283,1345,1305,1280,1379,1267,1206,1186,1180,1185,1125,1088,1120,1073,1048,1051,997,1036,934,918,933,917,918,866,937,815,793,798,811,813,825,823,825,825,814,835,840,836,827,844,855,829,820,820,835,831,832,839,846,839,867,843,828,829,828,837,812,589,590,592,594,603,658,796,830,913,1018,964,949,967,975,903,888,873,858,843,828,812,797,782,767,752,736,721,706,691,676,661,645,630,615,602,597,599,601,587,584,588,595,596,595,598,594,596,606,599,600,605,626,640,624,629,614,605,621,608,602,614,610,610,616,605,1053,1054,1079,1131,1225,1288,1422,1551,1634,1662,1679,1712,1760,1634,1580,1558,1545,1536,1481,1470,1513,1405,1371,1403,1365,1325,1247,1257,1219,1240,1186,1174,1153,1127,1052,1093,1071,1074,1137,1101,1099,1115,1098,1131,1112,1114,1139,1188,1118,1133,1179,1131,1133,1180,1142,1128,1121,1124,1165,1223,1246,1269,1264,1156,1147,291,292,293,294,295,310,319,404,383,508,520,503,505,467,460,452,445,438,431,443,417,410,403,395,388,381,391,367,360,353,295,288,331,344,300,296,296,297,284,282,288,293,288,292,285,291,288,285,289,289,287,288,291,297,294,295,287,293,291,293,296,296,297,302,297,1049,1086,1074,1099,1196,1333,1465,1603,1680,1759,1701,1674,1735,1617,1592,1565,1538,1510,1483,1534,1427,1446,1375,1347,1332,1293,1287,1239,1254,1184,1157,1177,1103,1156,1068,1065,1068,1071,1097,1097,1097,1108,1111,1103,1133,1128,1118,1124,1143,1131,1208,1211,1227,1180,1131,1129,1128,1130,1129,1130,1130,1128,1121,1172,1123,367,368,369,370,374,401,454,518,561,607,610,600,597,587,577,567,557,542,537,528,518,508,498,488,478,468,459,449,434,429,419,409,397,389,380,375,376,377,369,365,369,369,368,366,369,373,369,369,368,369,372,374,376,373,370,369,373,371,374,381,372,379,371,371,374,209,210,211,211,212,219,262,287,336,363,349,344,339,334,329,324,344,315,310,305,300,296,291,286,281,276,272,267,262,257,252,248,243,238,216,212,213,213,222,213,204,205,223,224,222,226,217,235,233,264,255,269,228,262,243,218,225,232,263,284,265,280,274,269,251,490,491,492,537,496,531,594,657,720,768,776,831,844,741,730,718,707,695,684,672,661,649,638,627,615,604,592,581,569,568,546,535,578,512,501,496,497,499,493,486,491,492,485,503,496,502,501,500,517,494,494,498,493,506,498,500,496,496,495,494,500,499,498,525,503,257,257,258,259,260,272,307,342,378,413,426,419,412,406,399,392,385,379,372,365,359,352,345,338,332,325,318,312,305,298,292,285,278,271,265,260,261,262,248,251,248,251,305,280,281,282,264,309,274,276,281,256,261,278,269,258,291,262,256,281,271,302,282,281,266,709,723,725,727,782,836,932,1070,1182,1216,1184,1161,1144,1129,1112,1087,1024,1050,1021,984,962,996,946,927,921,857,834,886,841,830,811,793,774,749,742,725,727,715,732,725,735,746,739,744,749,760,747,745,759,747,775,769,772,761,739,738,749,747,752,733,743,753,739,752,746,782,785,787,790,881,910,1040,1149,1240,1279,1278,1252,1237,1217,1197,1176,1156,1154,1115,1095,1075,1055,1026,1030,994,973,953,933,913,892,872,852,831,824,797,794,791,798,797,813,799,790,809,829,812,827,820,847,828,862,875,855,838,847,860,828,837,847,919,912,873,877,885,894,874,595,596,598,600,612,672,761,850,934,977,980,966,965,935,918,903,888,872,856,892,825,809,794,777,761,747,731,715,699,694,719,652,637,620,608,604,605,607,603,610,606,623,646,639,625,645,619,641,645,669,663,666,661,641,636,632,653,652,641,633,639,654,629,631,626,788,801,803,811,849,941,1052,1177,1313,1344,1310,1301,1273,1263,1231,1213,1138,1171,1131,1112,1100,1080,1047,1065,1021,967,941,960,941,917,897,876,854,828,824,804,806,810,813,809,821,833,828,827,827,823,825,835,838,828,832,869,888,869,859,837,828,841,833,829,821,844,830,844,825,730,732,814,736,759,836,962,1008,1073,1180,1134,1148,1109,1116,1072,1057,1070,1070,1097,1015,983,968,960,958,923,893,886,868,849,885,813,794,776,771,744,755,742,744,751,749,751,809,764,758,790,763,758,778,798,767,768,782,760,767,763,771,763,760,760,763,764,761,767,768,758,677,678,681,684,701,771,867,970,1067,1098,1099,1098,1095,1049,1045,1015,998,980,957,946,929,911,894,876,859,843,825,858,791,784,756,739,722,704,705,687,689,691,680,694,683,716,682,703,690,709,697,706,698,689,706,697,708,703,703,706,709,705,714,701,706,713,705,713,714,810,813,815,818,850,935,1093,1278,1377,1393,1307,1304,1378,1310,1286,1301,1207,1222,1169,1132,1130,1075,1055,1156,1016,1082,976,957,937,928,930,878,886,880,825,863,824,842,843,836,846,864,851,854,846,855,855,858,867,847,862,890,909,893,889,866,846,873,854,851,844,878,861,879,853,867,936,873,879,927,1032,1313,1330,1465,1418,1418,1418,1465,1350,1352,1446,1282,1259,1265,1214,1299,1209,1146,1123,1100,1176,1055,1127,1028,1077,1016,959,936,954,899,929,895,885,921,923,920,932,931,935,927,951,921,932,928,925,923,943,939,937,934,938,939,932,943,946,930,944,923,934,929,507,518,510,514,517,575,651,734,787,849,838,840,816,813,787,786,761,759,752,781,705,704,690,667,669,650,636,622,582,601,582,558,544,541,518,508,525,527,521,524,509,537,529,522,532,545,522,521,524,539,534,521,521,525,527,526,525,526,516,519,516,522,529,521,508,0,0,0,0,0,0,0,0,0,0,0,0,0,0,0,0,0,0,0,0,0,0,0,0,0,0,0,0,0,0,0,0,0,0,0,0,0,0,0,0,0,0,0,0,0,0,0,0,0,0,0,0,0,0,0,0,0,0,0,0,0,0,0,0,0,1028,938,941,980,1044,1310,1342,1572,1654,1745,1677,1647,1617,1587,1589,1628,1534,1516,1438,1408,1391,1390,1318,1293,1261,1240,1186,1137,1108,1078,1066,1031,991,964,951,946,951,955,986,950,947,997,951,970,1043,1080,1062,996,970,952,975,977,1011,999,1069,1003,997,1014,1000,1008,1014,978,954,973,954,0,0,0,0,0,0,0,0,0,0,0,0,0,0,0,0,0,0,0,0,0,0,0,0,0,0,0,0,0,0,0,0,0,0,0,0,0,0,0,0,0,0,0,0,0,0,0,0,0,0,0,0,0,0,0,0,0,0,0,0,0,0,0,0,0,874,877,880,896,923,1036,1173,1358,1401,1425,1423,1450,1377,1349,1346,1357,1287,1254,1242,1219,1197,1174,1151,1129,1106,1084,1061,1038,1016,993,971,948,925,904,891,880,911,892,902,888,899,920,907,913,900,911,909,913,914,901,916,947,967,953,950,919,898,928,911,906,897,930,913,937,906,1547,1443,1468,1598,1892,1932,2162,2359,2503,2516,2437,2513,2406,2312,2270,2229,2291,2240,2104,2091,2085,2052,1937,1943,1856,1811,1827,1738,1656,1695,1693,1570,1498,1551,1551,1456,1462,1510,1632,1614,1632,1636,1625,1621,1698,1700,1633,1664,1652,1620,1624,1681,1694,1721,1694,1687,1678,1701,1706,1703,1658,1664,1626,1642,1651,1080,1086,1089,1117,1151,1263,1423,1529,1614,1686,1631,1608,1584,1560,1641,1613,1489,1465,1441,1417,1394,1370,1355,1347,1299,1275,1259,1227,1211,1180,1156,1162,1117,1114,1078,1099,1077,1112,1135,1107,1098,1112,1121,1152,1181,1177,1141,1166,1138,1122,1116,1173,1177,1169,1174,1196,1181,1196,1169,1151,1161,1151,1129,1130,1112,853,837,842,861,937,1035,1186,1390,1515,1551,1543,1523,1488,1460,1433,1405,1377,1350,1322,1294,1267,1231,1186,1188,1158,1128,1068,1018,1014,971,977,933,911,880,867,861,851,856,863,870,877,901,891,893,875,900,876,879,879,882,874,889,879,901,902,898,886,888,879,900,890,904,879,896,884,1089,1048,1051,1074,1164,1278,1440,1545,1630,1737,1682,1623,1599,1608,1586,1558,1503,1478,1485,1430,1406,1382,1367,1347,1310,1288,1268,1234,1222,1190,1152,1125,1126,1076,1087,1060,1087,1073,1111,1111,1095,1111,1093,1133,1100,1111,1136,1184,1113,1128,1122,1124,1121,1137,1144,1119,1110,1108,1114,1123,1116,1124,1122,1121,1107,1137,1140,1153,1179,1340,1547,1675,1881,1973,2011,1985,1950,1916,1930,1908,1812,1777,1742,1708,1684,1690,1702,1615,1611,1552,1514,1397,1412,1329,1295,1278,1227,1194,1204,1189,1159,1195,1161,1238,1244,1216,1235,1227,1271,1235,1253,1271,1333,1256,1306,1296,1306,1266,1325,1310,1253,1250,1253,1296,1328,1303,1328,1315,1315,1289,989,952,954,1009,1101,1170,1357,1570,1669,1702,1692,1662,1632,1602,1572,1542,1568,1530,1452,1422,1460,1438,1333,1307,1275,1242,1180,1151,1121,1092,1080,1050,1021,977,965,959,964,969,1029,997,989,1073,1043,1039,1027,1006,1022,1051,1061,1038,1050,1045,1024,1022,1012,1044,1049,1043,1076,1081,1021,1008,1065,1001,999,926,928,912,936,955,1117,1285,1467,1569,1630,1622,1576,1567,1538,1510,1482,1455,1440,1399,1370,1343,1325,1261,1288,1234,1179,1111,1111,1065,1062,1051,985,958,932,920,914,918,925,939,931,944,943,934,960,945,945,950,955,969,959,937,944,959,962,959,974,974,958,959,961,953,950,969,1029,978,1136,1124,1127,1158,1248,1451,1643,1854,1945,1971,1957,1922,1888,1855,1822,1818,1789,1721,1683,1649,1601,1591,1594,1549,1501,1444,1378,1344,1311,1265,1254,1227,1177,1151,1172,1133,1152,1174,1182,1183,1193,1206,1210,1220,1205,1223,1196,1236,1213,1196,1208,1206,1215,1233,1221,1216,1218,1199,1212,1218,1215,1221,1206,1235,1207,1354,1371,1333,1394,1568,1767,1964,2125,2192,2209,2192,2161,2125,2089,2054,2029,2037,1994,1936,1880,1850,1811,1806,1741,1712,1707,1637,1597,1562,1548,1522,1448,1409,1375,1337,1361,1350,1391,1426,1425,1430,1430,1430,1424,1440,1448,1434,1434,1443,1447,1514,1519,1472,1445,1458,1481,1493,1556,1551,1448,1491,1567,1572,1541,1483,840,836,844,847,871,1008,1168,1375,1475,1512,1471,1558,1452,1417,1399,1373,1346,1311,1293,1267,1240,1223,1179,1146,1198,1107,1047,1016,978,1026,961,918,876,867,832,832,852,840,863,876,874,958,906,898,899,876,883,908,891,898,902,899,869,876,885,898,877,876,897,890,890,874,897,875,873,987,990,992,1042,1112,1236,1457,1658,1716,1785,1724,1708,1713,1648,1617,1587,1605,1526,1496,1490,1498,1461,1423,1348,1316,1283,1244,1211,1160,1181,1153,1071,1042,1015,1003,997,1047,1056,1090,1053,1044,1129,1100,1097,1088,1063,1078,1108,1123,1097,1110,1107,1085,1083,1069,1103,1108,1105,1139,1142,1080,1066,1127,1058,1054,1281,1327,1254,1304,1521,1679,1943,2077,2171,2189,2195,2142,2122,2079,2038,1997,2009,1967,1896,1874,1829,1798,1789,1716,1632,1632,1551,1549,1470,1468,1426,1348,1310,1279,1263,1265,1275,1317,1327,1321,1318,1327,1322,1356,1326,1327,1356,1417,1333,1349,1351,1356,1361,1363,1381,1369,1353,1357,1355,1367,1368,1366,1364,1379,1369,716,771,719,720,744,837,989,1152,1328,1260,1260,1240,1220,1200,1180,1160,1158,1136,1100,1079,1096,1039,1019,1003,979,952,905,874,866,847,828,785,763,741,728,722,725,729,736,740,739,740,787,795,770,756,749,791,763,758,764,752,746,756,753,752,761,743,740,761,759,778,770,756,752,1116,1056,1041,1086,1143,1294,1480,1685,1739,1727,1709,1779,1721,1627,1665,1646,1552,1519,1516,1511,1448,1443,1394,1369,1340,1313,1286,1255,1228,1229,1183,1121,1108,1064,1053,1039,1082,1103,1069,1060,1075,1098,1103,1072,1068,1083,1075,1116,1104,1096,1121,1246,1149,1130,1236,1110,1104,1115,1115,1106,1116,1126,1118,1126,1119,1026,1037,1027,1053,1127,1253,1403,1575,1638,1660,1644,1656,1601,1537,1545,1553,1481,1446,1452,1398,1405,1381,1319,1311,1301,1274,1223,1199,1174,1149,1133,1114,1088,1052,1052,1038,1050,1041,1082,1093,1068,1078,1069,1100,1082,1096,1107,1164,1088,1122,1112,1120,1098,1167,1128,1088,1083,1077,1101,1120,1110,1137,1123,1127,1099,1779,1805,1889,2033,2252,2515,2775,3019,3006,2983,2941,2828,2799,2713,2799,2665,2685,2612,2562,2502,2433,2448,2412,2377,2308,2192,2141,2074,2028,1968,1896,1866,1847,1816,1816,1824,1831,1807,2126,2106,2085,2142,2175,2167,2127,2164,2215,2183,2236,2197,2239,2291,2255,2287,2241,2255,2294,2276,2329,2282,2294,2341,2323,2317,2280,1141,1127,1143,1220,1253,1468,1687,1881,1962,1978,1936,1942,1918,1874,1840,1805,1757,1737,1681,1687,1663,1625,1610,1531,1500,1444,1403,1366,1312,1281,1289,1214,1197,1154,1160,1136,1182,1188,1210,1211,1212,1226,1229,1220,1218,1234,1210,1223,1220,1215,1218,1246,1237,1231,1233,1238,1219,1220,1233,1234,1210,1223,1213,1234,1219,1028,938,941,980,1044,1310,1342,1572,1654,1745,1677,1647,1617,1587,1589,1628,1534,1516,1438,1408,1391,1390,1318,1293,1261,1240,1186,1137,1108,1078,1066,1031,991,964,951,946,951,955,986,950,947,997,951,970,1043,1080,1062,996,970,952,975,977,1011,999,1069,1003,997,1014,1000,1008,1014,978,954,973,954,888,896,904,916,990,1071,1221,1362,1432,1495,1464,1440,1418,1389,1353,1332,1322,1296,1277,1249,1256,1236,1194,1203,1159,1114,1090,1087,1063,1003,1027,975,938,973,922,909,916,918,943,911,917,916,936,942,927,928,927,942,973,958,959,966,971,967,967,963,953,978,984,978,969,965,990,1003,983,921,929,931,941,976,1102,1280,1408,1513,1468,1507,1463,1422,1427,1416,1393,1351,1328,1306,1306,1242,1219,1210,1174,1151,1128,1129,1098,1060,1049,1031,1015,984,955,944,945,951,957,959,973,981,990,971,999,985,983,977,982,1106,1067,1004,1017,1096,1078,1069,978,983,1005,1024,997,976,991,1005,971,952,0,0,0,0,0,0,0,0,0,0,0,0,0,0,0,0,0,0,0,0,0,0,0,0,0,0,0,0,0,0,0,0,0,0,0,0,0,0,0,0,0,0,0,0,0,0,0,0,0,0,0,0,0,0,0,0,0,0,0,0,0,0,0,0,0,1384,1403,1394,1492,1656,1791,2172,2154,2229,2293,2200,2123,2207,2109,2042,2023,2045,1971,1934,1890,1872,1809,1791,1768,1744,1678,1729,1680,1580,1549,1535,1590,1438,1430,1440,1417,1449,1425,1509,1511,1513,1518,1528,1535,1554,1543,1537,1541,1563,1551,1625,1628,1652,1610,1540,1560,1556,1567,1563,1550,1562,1541,1548,1596,1537,345,386,347,348,349,371,418,465,610,555,565,556,548,539,530,521,513,504,495,486,477,469,511,451,442,502,474,416,411,399,451,441,372,405,355,406,351,392,372,372,370,384,381,373,371,376,377,383,389,397,471,475,487,423,384,376,384,386,377,385,379,377,377,384,377,913,909,919,928,985,1093,1239,1369,1451,1462,1480,1432,1389,1388,1367,1346,1339,1303,1291,1268,1251,1215,1208,1174,1156,1128,1088,1081,1068,1035,1011,967,950,933,930,927,939,933,939,943,939,946,955,946,957,961,959,953,965,970,1044,1043,1058,1007,955,968,970,982,965,959,977,947,963,962,950,377,395,379,381,382,408,460,512,564,609,618,608,599,589,580,570,560,551,541,531,522,512,524,551,483,474,484,508,448,435,444,416,406,414,404,399,384,401,389,395,389,403,404,408,396,404,394,395,407,420,432,446,441,414,401,408,412,420,418,402,406,414,394,400,399,690,722,694,718,740,828,903,1049,1144,1182,1129,1157,1093,1079,1094,1039,1021,1039,985,971,953,1001,1005,898,878,867,849,849,807,789,771,789,770,754,703,703,702,710,708,707,715,722,720,731,725,740,735,724,743,724,725,733,731,741,729,721,737,735,733,732,730,741,721,736,725,1014,976,984,988,1066,1187,1366,1478,1550,1613,1572,1532,1555,1503,1459,1442,1429,1403,1382,1352,1337,1311,1284,1276,1247,1201,1181,1194,1150,1089,1095,1058,1019,1051,987,990,1039,988,1047,1006,1015,1008,1040,1075,1031,1034,1038,1049,1091,1053,1061,1074,1070,1078,1030,1043,1052,1077,1074,1078,1047,1054,1076,1040,1055,523,555,555,557,563,606,638,704,771,817,823,828,819,862,798,787,751,739,766,714,702,690,678,666,654,642,665,618,606,626,611,570,558,576,564,560,561,562,541,547,549,561,557,555,553,560,552,567,556,556,578,586,601,591,577,564,563,567,569,561,567,572,562,576,561,721,707,737,745,799,808,914,1060,1155,1194,1187,1129,1155,1112,1137,1120,1079,1046,1026,1018,964,1007,1010,910,929,877,859,860,854,823,862,797,779,760,826,713,745,735,760,743,747,743,768,795,758,763,762,779,794,781,781,786,782,787,760,769,775,778,776,792,774,784,787,771,778,747,780,760,802,787,924,1030,1109,1174,1205,1113,1136,1080,1064,1123,1127,1081,1095,1045,1115,1072,1031,975,993,941,985,903,890,922,891,864,814,795,805,754,751,797,805,785,795,790,805,801,815,793,821,798,802,795,795,795,823,810,810,806,818,810,805,817,824,805,816,791,810,801,815,803,871,823,905,954,1104,1202,1289,1326,1348,1301,1281,1260,1239,1218,1168,1199,1147,1126,1095,1114,1076,1051,1026,1010,989,968,947,926,899,885,864,843,810,821,829,817,816,815,816,818,820,818,820,822,818,827,828,827,828,829,829,830,832,836,833,840,833,835,838,840,840,840,838,348,349,350,351,371,376,424,509,521,564,573,564,555,546,572,528,519,510,501,503,483,485,518,456,447,438,429,429,411,402,402,384,375,367,358,353,354,355,345,342,347,350,347,346,347,353,348,348,347,347,351,358,362,356,354,350,348,353,351,351,348,357,349,353,349,825,841,839,847,880,973,1074,1216,1275,1373,1240,1207,1203,1185,1242,1243,1187,1207,1155,1170,1107,1135,1076,1074,1038,1007,996,982,1010,954,917,896,876,846,833,830,831,834,839,844,846,853,848,862,858,856,852,852,858,851,855,852,862,871,866,875,864,863,869,861,862,862,864,869,859,477,432,433,497,436,468,530,587,640,683,784,678,669,659,649,639,629,619,609,600,590,568,559,549,550,529,519,509,499,500,489,551,532,449,440,436,437,438,438,444,442,455,454,455,448,469,441,463,460,492,453,453,465,470,453,453,463,472,462,453,455,461,447,448,446,337,338,332,340,341,356,393,435,477,532,528,520,507,504,523,488,480,473,465,457,449,441,433,425,417,410,404,394,390,382,375,368,360,353,388,342,342,343,335,341,338,337,340,338,342,345,337,341,335,339,342,343,347,343,346,340,338,337,346,350,338,342,341,343,342,228,229,229,230,231,238,266,294,322,350,279,276,272,269,344,338,333,328,322,317,311,306,300,295,290,284,279,273,268,294,257,252,276,241,235,231,260,232,224,227,228,234,231,233,227,235,225,236,228,227,232,231,238,243,233,231,233,231,235,233,233,238,227,231,227,1322,1437,1374,1520,1589,1727,1963,2190,2217,2205,2139,2087,2101,2079,2030,1939,1950,1914,1908,1861,1878,1823,1775,1703,1727,1641,1584,1573,1529,1498,1466,1462,1432,1404,1405,1379,1417,1363,1434,1412,1429,1433,1426,1443,1435,1435,1438,1452,1478,1459,1465,1471,1470,1482,1467,1473,1463,1489,1493,1491,1487,1478,1498,1511,1516,502,487,505,506,531,537,607,714,773,819,823,784,797,759,807,759,746,733,720,707,694,707,720,633,642,608,596,603,590,577,564,551,548,525,513,492,511,495,496,499,499,501,538,539,539,536,521,553,536,522,536,514,522,545,531,519,546,517,521,539,536,548,541,563,536,888,896,904,916,990,1071,1221,1362,1432,1495,1464,1440,1418,1389,1353,1332,1322,1296,1277,1249,1256,1236,1194,1203,1159,1114,1090,1087,1063,1003,1027,975,938,973,922,909,916,918,943,911,917,916,936,942,927,928,927,942,973,958,959,966,971,967,967,963,953,978,984,978,969,965,990,1003,983,699,700,706,705,730,805,913,1020,1109,1147,1150,1136,1114,1099,1080,1058,1040,1025,1007,988,970,951,930,914,896,874,856,840,819,799,785,764,748,730,716,712,711,716,706,716,713,732,720,730,717,723,717,717,721,717,730,745,740,732,728,733,733,733,743,732,731,748,725,738,731,1472,1483,1559,1706,1879,2156,2370,2448,2533,2529,2504,2472,2396,2372,2331,2261,2248,2182,2154,2109,2092,2011,1970,1921,1882,1859,1800,1745,1697,1646,1609,1557,1514,1537,1530,1508,1525,1505,1644,1609,1617,1656,1620,1647,1623,1672,1657,1649,1656,1643,1677,1663,1696,1673,1647,1640,1671,1655,1644,1635,1657,1657,1643,1651,1639,1332,1348,1384,1470,1540,1789,1998,2182,2115,2228,2164,2096,2065,2052,2018,2004,1964,1931,1914,1862,1819,1795,1765,1715,1704,1628,1600,1589,1553,1525,1477,1443,1402,1381,1366,1363,1358,1368,1424,1449,1457,1434,1434,1451,1470,1464,1455,1456,1482,1442,1466,1452,1466,1467,1484,1498,1489,1465,1468,1458,1452,1448,1457,1510,1434,0,0,0,0,0,0,0,0,0,0,0,0,0,0,0,0,0,0,0,0,0,0,0,0,0,0,0,0,0,0,0,0,0,0,0,0,0,0,0,0,0,0,0,0,0,0,0,0,0,0,0,0,0,0,0,0,0,0,0,0,0,0,0,0,0,1580,1582,1687,1767,1986,2094,2349,2445,2457,2557,2567,2448,2363,2352,2308,2282,2267,2259,2250,2125,2114,2093,1978,1959,1976,1945,1909,1872,1827,1798,1739,1664,1637,1603,1603,1640,1618,1616,1741,1793,1759,1790,1820,1809,1824,1795,1789,1816,1805,1762,1779,1793,1794,1793,1808,1816,1790,1779,1815,1759,1777,1797,1828,1809,1771,946,956,947,955,985,1143,1289,1440,1493,1558,1555,1507,1486,1466,1477,1406,1391,1380,1377,1278,1397,1274,1248,1227,1219,1125,1181,1139,1104,1079,1043,990,1025,992,1024,930,956,935,992,989,990,1040,1030,1003,1009,1027,1009,1037,1070,1026,1030,1034,1034,1031,1026,1021,1009,1012,1005,1003,998,1015,1012,1021,985,1552,1533,1660,1720,1923,2067,2303,2430,2412,2512,2467,2402,2337,2394,2425,2300,2205,2233,2165,2090,2138,2060,2002,1976,2010,1905,1870,1833,1756,1745,1701,1681,1591,1575,1576,1593,1573,1568,1695,1693,1704,1766,1720,1732,1725,1713,1721,1823,1728,1710,1719,1751,1784,1761,1751,1732,1711,1736,1712,1706,1711,1742,1717,1750,1710,731,727,736,775,766,870,986,1179,1149,1229,1204,1212,1215,1145,1126,1106,1087,1093,1049,1021,1034,1054,972,944,933,954,932,896,877,857,818,798,779,760,746,761,738,740,758,748,748,756,755,767,754,764,755,752,758,749,758,754,760,770,767,762,753,764,762,764,762,774,763,774,763,857,858,864,886,930,1026,1156,1277,1367,1466,1401,1376,1358,1340,1354,1284,1271,1253,1262,1210,1188,1166,1141,1123,1101,1076,1080,1036,1012,988,955,970,927,889,904,910,872,908,899,913,922,935,919,948,934,925,920,927,1035,1008,943,954,1032,1016,1004,916,923,946,966,936,921,931,947,916,893,1091,1082,1063,1077,1179,1273,1435,1660,1653,1723,1702,1655,1697,1603,1638,1624,1558,1500,1474,1448,1453,1427,1398,1361,1318,1309,1294,1268,1252,1234,1162,1162,1110,1103,1128,1072,1100,1124,1111,1150,1110,1116,1141,1118,1129,1135,1135,1135,1146,1136,1154,1137,1139,1147,1153,1151,1149,1151,1187,1149,1173,1181,1199,1160,1153,749,724,744,729,774,854,999,1080,1168,1243,1212,1192,1146,1154,1138,1115,1080,1106,1057,1038,1019,1029,966,961,928,941,927,908,888,868,826,807,787,768,743,751,753,737,745,738,749,746,756,790,752,762,762,770,787,768,770,774,770,774,762,767,760,769,758,766,774,778,774,783,783,984,966,961,962,1021,1193,1357,1463,1511,1603,1579,1578,1487,1459,1438,1435,1450,1417,1340,1315,1338,1262,1242,1217,1193,1168,1190,1143,1142,1114,1046,1037,993,971,977,999,971,985,986,975,973,978,1038,1045,1015,1023,1011,1067,1043,1022,1043,1014,1015,1053,1053,1011,1054,1028,1024,1072,1042,1075,1069,1107,1050,1394,1373,1389,1456,1602,1805,2013,2220,2203,2221,2266,2173,2212,2094,2061,2103,1991,1958,1914,1911,1851,1809,1783,1768,1700,1663,1633,1593,1562,1578,1493,1454,1419,1398,1439,1391,1393,1483,1482,1468,1470,1489,1497,1526,1513,1534,1509,1520,1549,1542,1590,1594,1597,1590,1563,1514,1533,1554,1550,1566,1543,1552,1572,1624,1554,1130,1103,1135,1172,1301,1456,1612,1762,1754,1880,1832,1812,1723,1700,1672,1663,1658,1665,1607,1572,1553,1508,1446,1407,1414,1372,1362,1407,1333,1278,1257,1209,1216,1150,1153,1165,1117,1123,1153,1196,1156,1154,1176,1159,1174,1183,1179,1179,1203,1174,1180,1188,1189,1195,1191,1203,1203,1197,1211,1177,1204,1213,1233,1196,1198,970,952,951,947,1004,1174,1336,1502,1490,1634,1604,1558,1516,1435,1466,1416,1431,1399,1322,1341,1326,1249,1225,1201,1176,1240,1179,1132,1127,1099,1066,1026,1015,961,996,988,990,975,973,965,962,963,1000,997,980,986,993,1004,1011,1030,1030,1011,1034,1014,1082,1009,1016,1044,1037,1049,1027,1029,1059,1051,1030,1358,1372,1349,1413,1521,1619,1802,2011,2010,2064,2177,2104,2113,1969,1969,2020,1930,1880,1847,1830,1786,1707,1698,1688,1670,1638,1588,1556,1519,1512,1434,1409,1388,1367,1441,1354,1355,1410,1428,1429,1440,1467,1449,1456,1455,1450,1457,1547,1464,1448,1452,1464,1511,1464,1487,1457,1438,1474,1449,1445,1450,1478,1456,1470,1445,1187,1187,1218,1331,1417,1569,1735,1882,1873,1997,2008,1925,1836,1811,1781,1771,1761,1770,1711,1673,1653,1616,1544,1503,1509,1465,1454,1455,1421,1365,1315,1307,1300,1233,1251,1246,1201,1207,1260,1262,1274,1304,1294,1306,1268,1284,1273,1264,1298,1284,1299,1321,1322,1321,1305,1323,1292,1313,1307,1305,1318,1323,1304,1325,1305,1360,1393,1399,1524,1584,1845,2042,2189,2211,2185,2178,2214,2086,2098,2057,2061,1969,1974,1946,1871,1837,1803,1744,1708,1732,1677,1645,1600,1564,1578,1539,1473,1435,1473,1411,1399,1377,1428,1474,1491,1497,1526,1535,1517,1517,1522,1509,1521,1502,1490,1510,1511,1517,1521,1536,1521,1504,1496,1509,1496,1501,1516,1521,1534,1506,488,490,491,493,497,539,612,684,756,803,811,798,785,772,759,746,733,720,707,694,681,668,654,642,629,616,603,590,577,564,551,539,526,513,500,496,497,499,486,483,493,521,507,494,493,506,501,508,523,527,680,712,816,591,516,503,506,521,511,494,500,514,507,519,506,963,986,998,1037,1079,1203,1415,1569,1565,1639,1613,1584,1531,1491,1501,1495,1453,1468,1448,1381,1352,1358,1269,1262,1219,1234,1235,1200,1165,1151,1105,1041,1054,1031,983,1000,1003,1013,1019,1028,1021,1026,1043,1053,1049,1054,1031,1051,1042,1050,1040,1038,1037,1046,1039,1039,1042,1038,1038,1042,1034,1049,1038,1034,1021,699,700,706,705,730,805,913,1020,1109,1147,1150,1136,1114,1099,1080,1058,1040,1025,1007,988,970,951,930,914,896,874,856,840,819,799,785,764,748,730,716,712,711,716,706,716,713,732,720,730,717,723,717,717,721,717,730,745,740,732,728,733,733,733,743,732,731,748,725,738,731,1035,1022,1064,1050,1208,1236,1409,1571,1653,1637,1600,1636,1552,1554,1501,1483,1478,1442,1452,1440,1391,1419,1395,1309,1293,1254,1220,1180,1159,1159,1131,1139,1103,1045,1052,1081,1064,1037,1095,1073,1082,1080,1113,1149,1091,1110,1123,1141,1135,1161,1153,1164,1123,1144,1136,1122,1128,1136,1143,1211,1167,1180,1168,1162,1185,1029,1047,1035,1086,1137,1246,1389,1509,1646,1639,1595,1520,1536,1475,1511,1452,1463,1432,1390,1375,1384,1328,1324,1275,1229,1207,1227,1179,1197,1157,1137,1113,1097,1031,1020,1072,1063,1062,1049,1045,1052,1054,1058,1055,1065,1063,1065,1070,1068,1070,1075,1076,1077,1075,1088,1088,1085,1095,1091,1084,1098,1095,1092,1097,1091,319,320,307,322,351,336,374,411,391,416,428,424,419,414,409,410,399,394,390,433,426,419,412,404,397,390,383,376,369,362,355,348,341,362,327,323,324,325,312,315,317,319,324,320,317,317,318,317,338,323,314,322,335,330,374,349,326,324,318,318,317,324,330,316,314,1518,1539,1572,1752,1928,1998,2209,2337,2604,2380,2347,2323,2261,2243,2220,2183,2145,2122,2144,2037,2028,2015,1962,1934,1869,1860,1787,1731,1767,1688,1651,1627,1593,1533,1593,1697,1561,1530,1690,1693,1688,1706,1728,1750,1732,1744,1727,1755,1767,1740,1754,1738,1753,1780,1765,1747,1754,1769,1763,1782,1772,1757,1774,1800,1789,0,0,0,0,0,0,0,0,0,0,0,0,0,0,0,0,0,0,0,0,0,0,0,0,0,0,0,0,0,0,0,0,0,0,0,0,0,0,0,0,0,0,0,0,0,0,0,0,0,0,0,0,0,0,0,0,0,0,0,0,0,0,0,0,0,1033,1018,1040,1075,1253,1236,1402,1584,1656,1639,1618,1598,1568,1544,1498,1487,1481,1463,1464,1421,1396,1394,1392,1339,1314,1248,1239,1192,1191,1176,1135,1146,1119,1059,1050,1088,1068,1050,1087,1077,1090,1111,1097,1100,1095,1104,1101,1106,1114,1093,1107,1137,1159,1139,1137,1120,1097,1122,1104,1098,1093,1129,1113,1128,1103,191,191,192,192,193,200,226,252,279,305,320,314,309,304,299,294,289,284,279,274,269,264,258,253,248,243,238,233,228,223,218,213,208,202,197,194,194,195,184,186,184,186,186,187,185,188,185,185,184,185,185,189,188,188,188,187,187,187,193,200,187,193,186,188,189,836,823,860,829,906,991,1147,1217,1291,1278,1358,1249,1255,1261,1192,1190,1189,1181,1205,1170,1121,1102,1111,1104,1109,1036,1017,956,936,935,893,937,892,833,844,852,856,837,835,833,839,838,971,845,847,852,853,868,920,945,860,864,868,861,989,899,871,864,896,866,869,870,878,869,878,1147,1094,1122,1193,1364,1370,1535,1695,1774,1748,1711,1711,1680,1621,1606,1593,1586,1548,1545,1521,1491,1497,1461,1405,1387,1346,1317,1269,1247,1244,1214,1220,1217,1148,1133,1162,1172,1115,1187,1177,1188,1200,1191,1210,1195,1199,1198,1211,1231,1229,1285,1288,1312,1241,1198,1223,1236,1231,1215,1212,1223,1191,1225,1218,1192,694,669,689,708,889,744,836,948,1022,1008,1009,997,982,967,954,953,938,923,944,929,915,981,886,870,857,818,802,783,769,752,804,764,747,692,707,738,713,679,691,697,706,722,713,714,702,717,700,730,712,717,718,714,738,756,721,717,728,720,721,715,729,740,714,721,712,846,877,870,839,916,999,1174,1309,1350,1287,1357,1337,1292,1272,1252,1200,1199,1159,1253,1177,1175,1155,1121,1114,1089,1046,1027,988,983,963,938,940,902,875,852,895,897,892,889,876,891,902,919,925,883,920,885,890,906,908,905,912,923,951,931,937,900,919,921,938,937,932,925,946,932,728,730,770,735,814,838,1018,1125,1178,1143,1143,1126,1109,1091,1074,1070,1052,1034,1084,1034,1016,993,981,964,945,926,886,863,848,877,809,838,773,755,788,778,793,742,756,771,764,778,771,768,781,786,767,767,769,776,771,769,769,774,776,776,777,774,772,776,774,802,799,809,792,1121,1138,1095,1146,1258,1404,1572,1691,1815,1755,1745,1671,1774,1696,1620,1618,1569,1511,1518,1529,1503,1545,1432,1424,1398,1399,1403,1320,1294,1257,1232,1203,1229,1148,1143,1156,1159,1187,1211,1192,1193,1197,1233,1277,1215,1237,1243,1261,1275,1282,1276,1284,1245,1267,1251,1238,1252,1253,1267,1325,1276,1296,1284,1276,1282,463,464,484,467,516,507,575,662,720,710,717,707,696,686,675,678,667,656,680,670,659,648,638,627,616,581,568,552,544,530,518,549,536,484,474,512,506,472,478,488,485,487,486,483,492,492,491,492,483,487,483,492,492,496,498,502,486,485,494,496,496,496,492,493,488,751,749,756,795,798,871,983,1069,1160,1218,1210,1209,1159,1169,1155,1267,1113,1084,1065,1015,998,1097,963,994,928,909,892,895,877,856,830,817,788,778,766,763,778,766,776,791,787,870,821,807,804,791,795,821,804,807,816,804,781,784,798,809,790,787,808,800,800,787,810,792,785,772,746,797,750,858,903,962,1052,1071,1099,1101,1082,1072,1057,1043,1007,1013,999,973,1026,1003,1025,1034,1020,920,922,961,937,938,894,872,810,855,825,769,752,756,758,793,802,758,754,792,776,779,784,784,800,837,789,795,812,810,801,789,812,809,821,853,810,799,805,846,790,782,447,448,467,450,497,479,568,615,663,653,662,653,644,635,626,631,621,612,638,629,620,611,602,593,584,550,539,555,518,505,495,486,476,466,457,487,488,455,461,458,462,467,468,470,469,463,467,471,480,469,468,477,478,470,480,478,471,469,468,478,467,472,471,476,467,192,193,194,194,195,201,227,253,278,304,318,313,308,303,298,293,288,283,278,273,268,263,258,253,248,243,239,234,229,224,219,214,209,204,199,195,196,196,182,182,185,189,188,188,189,193,186,188,192,197,197,204,200,196,187,188,190,193,190,188,189,189,187,188,188,1492,1562,1550,1606,1767,2002,2180,2244,2324,2337,2324,2251,2304,2272,2217,2138,2091,2051,2129,1998,1969,1991,1954,1899,1894,1819,1786,1693,1650,1606,1596,1559,1579,1536,1599,1505,1547,1522,1660,1644,1627,1651,1670,1675,1677,1693,1666,1686,1724,1677,1709,1721,1724,1702,1728,1692,1710,1723,1719,1706,1687,1712,1741,1724,1683,626,619,648,615,696,708,813,902,978,936,981,952,937,937,908,883,916,853,897,882,868,853,838,836,809,781,765,734,721,703,688,690,674,642,629,660,662,622,625,625,630,646,630,649,631,639,653,637,639,632,632,636,632,632,637,639,637,637,633,634,641,652,645,656,644,1035,1022,1064,1050,1208,1236,1409,1571,1653,1637,1600,1636,1552,1554,1501,1483,1478,1442,1452,1440,1391,1419,1395,1309,1293,1254,1220,1180,1159,1159,1131,1139,1103,1045,1052,1081,1064,1037,1095,1073,1082,1080,1113,1149,1091,1110,1123,1141,1135,1161,1153,1164,1123,1144,1136,1122,1128,1136,1143,1211,1167,1180,1168,1162,1185,294,295,296,297,298,313,355,397,439,479,492,484,476,468,460,452,445,437,429,421,413,405,397,390,382,374,366,358,350,342,335,327,319,311,303,298,299,300,291,295,284,288,297,295,312,310,291,295,296,305,301,291,293,299,297,295,297,295,291,294,289,297,297,299,286,745,747,748,750,796,934,1108,1278,1387,1420,1412,1384,1356,1329,1317,1289,1246,1218,1191,1178,1135,1108,1080,1053,1025,997,982,955,914,887,859,843,804,787,759,770,765,770,766,769,776,809,784,795,769,779,771,763,782,779,809,824,820,801,787,797,787,797,798,795,792,804,778,794,786,812,818,861,814,859,978,1105,1229,1374,1374,1400,1383,1329,1324,1260,1254,1185,1180,1133,1140,1159,1158,1076,1064,1052,1035,980,1041,958,949,933,905,854,852,831,866,849,841,840,847,850,863,868,864,858,878,859,871,858,853,862,871,866,867,877,875,878,870,879,876,869,894,892,899,896,795,797,800,802,837,925,1046,1167,1254,1295,1420,1274,1253,1233,1213,1192,1172,1151,1131,1110,1090,1069,1049,1028,1008,987,967,947,971,906,885,865,844,824,810,807,809,811,813,814,816,835,843,825,838,848,836,831,844,852,945,945,966,898,829,824,835,832,828,832,830,835,829,852,833,1126,1123,1110,1135,1256,1319,1483,1700,1714,1861,1796,1689,1730,1707,1636,1640,1603,1576,1506,1536,1476,1455,1451,1464,1420,1340,1292,1333,1312,1308,1199,1171,1190,1102,1089,1140,1109,1112,1158,1152,1154,1162,1154,1162,1167,1167,1172,1164,1172,1162,1170,1173,1181,1183,1179,1188,1170,1183,1177,1174,1179,1197,1167,1175,1164,0,0,0,0,0,0,0,0,0,0,0,0,0,0,0,0,0,0,0,0,0,0,0,0,0,0,0,0,0,0,0,0,0,0,0,0,0,0,0,0,0,0,0,0,0,0,0,0,0,0,0,0,0,0,0,0,0,0,0,0,0,0,0,0,0,1143,1163,1151,1160,1279,1455,1649,1753,1870,1877,1871,1828,1802,1754,1727,1698,1632,1642,1565,1549,1560,1542,1462,1475,1452,1378,1329,1369,1333,1302,1232,1204,1213,1134,1122,1172,1159,1145,1196,1195,1190,1206,1188,1204,1193,1202,1221,1282,1200,1213,1213,1219,1218,1234,1239,1223,1214,1210,1214,1225,1213,1222,1216,1226,1212,531,524,526,528,546,583,672,753,816,861,867,853,839,825,825,798,796,791,756,742,739,714,700,686,682,659,645,631,627,613,589,575,579,548,535,548,544,554,538,531,529,533,569,560,569,565,552,578,556,547,562,537,540,555,550,542,562,539,533,557,557,572,563,563,556,195,196,196,197,198,203,229,254,280,305,321,316,311,306,301,296,291,286,281,276,271,266,261,256,251,246,241,236,232,227,222,217,212,207,202,198,199,199,185,187,185,190,284,235,208,230,210,288,223,215,239,194,201,224,212,195,253,200,194,238,223,276,240,232,215,527,528,573,531,534,575,644,713,782,829,836,824,811,799,787,774,762,749,737,724,712,699,687,675,662,650,637,625,612,600,587,575,563,550,538,534,535,536,533,545,537,542,547,544,546,548,538,542,538,540,537,547,547,548,542,542,545,540,550,557,541,549,537,542,542,464,466,467,468,491,511,608,645,712,760,767,755,743,731,719,706,694,682,670,658,645,633,621,609,597,585,572,560,548,536,524,512,499,531,475,490,484,493,485,470,479,495,471,476,473,491,484,509,516,498,492,478,507,491,496,491,500,499,492,502,494,488,511,487,476,882,879,871,876,970,1059,1213,1329,1417,1446,1448,1445,1368,1306,1351,1315,1309,1300,1247,1241,1252,1192,1149,1133,1120,1087,1052,1053,1029,1013,973,943,945,904,894,907,933,905,909,892,893,900,924,931,915,915,917,936,959,929,946,928,934,947,952,927,940,951,942,960,945,943,965,974,959,631,633,635,637,668,715,810,905,994,1026,1042,1026,1009,992,976,959,942,926,909,892,876,859,863,816,809,792,776,759,742,726,701,693,676,659,645,650,659,661,644,633,636,638,693,654,647,644,647,647,676,683,678,666,679,656,705,664,664,684,712,670,660,666,685,692,663,632,634,636,638,653,718,814,910,996,1039,1042,1025,1008,992,975,959,942,925,909,892,875,859,842,825,809,791,775,759,742,724,709,692,676,659,645,641,643,645,639,640,641,656,645,642,641,651,640,642,646,639,640,647,642,644,645,651,646,652,651,651,646,656,644,652,647,973,975,966,987,1090,1169,1339,1468,1546,1600,1646,1528,1524,1491,1469,1430,1422,1410,1372,1348,1333,1288,1255,1232,1221,1209,1145,1133,1127,1084,1083,1007,1028,984,974,996,1008,997,993,996,992,1040,1011,1023,1011,996,1020,1008,1019,1026,1154,994,1008,1008,1023,1009,1015,999,1020,1030,1051,1007,989,1038,1013,670,672,674,676,692,758,855,952,1039,1082,1084,1067,1051,1106,1017,1000,983,998,949,933,916,899,882,865,848,832,815,798,781,764,800,730,714,697,683,679,681,683,694,680,682,685,692,686,691,683,694,690,690,686,703,697,698,690,692,695,695,702,687,701,701,700,692,686,689,715,717,719,721,743,818,921,1044,1175,1159,1174,1142,1124,1106,1088,1063,1048,1030,1015,994,979,961,942,924,903,884,884,851,833,814,841,779,761,742,729,725,727,726,731,728,726,725,725,728,725,725,726,769,729,733,731,733,733,729,728,733,732,736,728,730,732,736,738,736,741,848,850,879,857,894,985,1218,1247,1430,1467,1473,1437,1342,1322,1302,1341,1227,1206,1185,1165,1272,1160,1103,1082,1062,1093,1020,1081,979,978,938,917,896,876,902,890,862,864,864,863,878,898,870,898,874,893,873,883,897,871,871,882,882,901,894,883,874,878,889,888,878,877,871,908,881,1174,1176,1227,1199,1318,1422,1673,1746,1865,1807,1807,1778,1753,1810,1788,1748,1707,1650,1562,1594,1504,1489,1535,1488,1445,1444,1387,1332,1376,1304,1275,1194,1192,1145,1133,1202,1181,1154,1228,1235,1222,1246,1277,1274,1252,1251,1262,1296,1259,1290,1289,1280,1241,1259,1259,1277,1282,1246,1283,1328,1287,1283,1291,1265,1262,599,570,572,573,620,666,766,843,927,970,974,959,943,891,912,931,881,855,850,801,829,803,788,763,766,741,725,710,694,679,663,648,640,594,581,607,612,614,598,592,603,618,611,608,603,609,607,618,622,619,616,651,671,652,642,621,610,629,617,611,603,626,614,626,607,294,295,296,297,298,313,355,397,439,479,492,484,476,468,460,452,445,437,429,421,413,405,397,390,382,374,366,358,350,342,335,327,319,311,303,298,299,300,291,295,284,288,297,295,312,310,291,295,296,305,301,291,293,299,297,295,297,295,291,294,289,297,297,299,286,1165,1226,1173,1215,1354,1428,1487,1621,1760,1808,1745,1694,1771,1638,1686,1583,1565,1562,1500,1473,1495,1419,1418,1429,1373,1307,1280,1289,1225,1269,1280,1248,1154,1094,1185,1222,1226,1225,1216,1210,1226,1279,1249,1256,1249,1223,1234,1253,1245,1237,1234,1273,1302,1295,1264,1243,1237,1241,1236,1231,1226,1246,1231,1256,1223,1000,1029,1017,1035,1116,1190,1296,1454,1482,1549,1578,1584,1521,1486,1464,1405,1383,1389,1398,1370,1390,1372,1252,1357,1262,1186,1211,1170,1142,1105,1106,1080,1039,1053,1003,1039,1017,1004,1030,1029,1037,1054,1066,1066,1040,1069,1034,1039,1043,1053,1043,1065,1070,1097,1121,1120,1050,1067,1069,1065,1076,1066,1092,1101,1069,465,466,487,469,471,512,550,619,670,736,725,715,698,696,678,667,657,647,633,623,613,603,593,583,573,566,556,546,536,526,516,505,495,485,509,471,472,473,458,464,471,479,475,484,464,481,464,494,472,469,475,477,491,506,487,479,486,473,487,488,483,490,469,477,471,1650,1674,1765,1948,2081,2107,2273,2425,2454,2473,2458,2410,2375,2364,2258,2255,2226,2183,2122,2116,2120,2022,1973,1962,1942,1866,1826,1788,1749,1727,1773,1773,1646,1582,1675,1691,1685,1709,1823,1827,1782,1787,1827,1813,1820,1832,1827,1836,1886,1838,1847,1859,1859,1864,1845,1872,1884,1884,1918,1873,1866,1872,1927,1863,1870,185,186,186,187,188,194,219,245,270,296,310,305,300,295,290,285,280,275,270,266,261,256,251,246,241,236,231,232,227,222,211,207,202,197,192,188,189,189,177,179,179,181,233,210,197,204,195,233,200,194,210,187,188,204,195,184,218,186,184,210,202,231,210,201,195,1257,1233,1257,1334,1406,1461,1632,1742,1834,1869,1842,1843,1797,1784,1738,1708,1684,1630,1626,1604,1560,1545,1523,1474,1433,1412,1383,1365,1323,1314,1376,1331,1217,1169,1260,1231,1261,1328,1298,1297,1289,1299,1296,1302,1310,1315,1311,1303,1312,1307,1314,1312,1321,1323,1319,1328,1310,1325,1315,1314,1315,1336,1309,1313,1299,0,0,0,0,0,0,0,0,0,0,0,0,0,0,0,0,0,0,0,0,0,0,0,0,0,0,0,0,0,0,0,0,0,0,0,0,0,0,0,0,0,0,0,0,0,0,0,0,0,0,0,0,0,0,0,0,0,0,0,0,0,0,0,0,0,896,899,931,910,999,931,1055,1226,1348,1301,1346,1324,1335,1238,1257,1238,1234,1264,1174,1152,1092,1111,1051,1068,1048,1023,1001,980,958,905,1026,1001,866,851,913,941,941,914,890,905,912,929,912,916,908,925,909,924,907,905,905,920,924,935,928,929,915,907,927,929,923,925,911,919,909,1275,1295,1310,1432,1458,1610,1790,1808,1881,1952,1934,1855,1886,1846,1824,1747,1715,1720,1652,1626,1596,1566,1551,1524,1565,1445,1415,1481,1419,1413,1402,1369,1234,1204,1305,1354,1355,1370,1349,1336,1344,1361,1359,1381,1356,1368,1355,1386,1402,1375,1382,1375,1386,1411,1390,1382,1382,1395,1392,1407,1395,1390,1396,1410,1409,901,893,896,901,940,904,1017,1127,1216,1255,1257,1237,1218,1199,1178,1161,1190,1123,1102,1085,1064,1125,1106,1008,998,970,951,932,913,933,980,970,836,817,907,876,906,986,904,889,891,894,892,894,962,959,896,928,911,898,897,950,955,967,961,967,957,969,973,948,929,927,904,901,901,935,937,940,951,1009,1030,1110,1238,1322,1359,1357,1336,1502,1292,1348,1249,1238,1241,1184,1163,1141,1119,1125,1096,1094,1033,1011,990,968,964,1035,1011,882,861,952,949,967,954,937,934,929,940,940,960,971,973,948,963,969,968,983,976,981,1005,992,955,955,962,940,969,953,954,959,981,951,803,806,808,812,831,785,889,988,1081,1148,1116,1137,1081,1095,1045,1027,1050,1035,982,964,966,928,930,916,913,874,861,838,820,802,878,878,747,713,819,815,818,804,792,792,790,790,804,810,828,823,800,804,808,809,810,800,804,823,813,806,802,809,800,814,802,807,804,820,808,1262,1266,1359,1341,1434,1662,1772,2046,2033,2026,2042,2009,1907,1912,1909,1817,1768,1810,1777,1694,1664,1634,1605,1558,1591,1586,1489,1455,1429,1417,1369,1340,1297,1292,1341,1265,1283,1286,1336,1312,1312,1321,1401,1404,1366,1387,1363,1402,1413,1396,1428,1379,1402,1410,1440,1368,1411,1419,1428,1442,1411,1444,1464,1513,1412,696,689,691,693,711,659,746,834,917,960,965,950,935,919,904,888,894,857,842,827,811,796,780,765,758,734,719,703,688,713,763,757,626,611,700,670,699,749,667,669,672,676,664,669,715,709,675,700,685,671,672,694,715,729,722,724,729,729,717,706,702,689,678,686,678,772,776,777,781,815,768,870,972,1234,1133,1095,1117,1060,1051,1025,1008,1009,1016,963,945,928,910,893,899,896,861,844,804,787,769,863,863,715,698,789,785,786,790,797,764,767,781,755,763,769,763,792,759,769,791,852,790,804,861,813,784,783,781,845,898,912,938,938,818,815,876,879,978,887,938,1156,1133,1288,1356,1410,1420,1370,1304,1359,1302,1257,1238,1266,1242,1177,1146,1122,1108,1089,1081,1054,1101,1102,996,1052,958,942,919,901,988,955,958,950,947,939,937,939,946,945,950,943,952,945,950,940,957,947,952,947,947,957,945,954,944,950,952,963,947,951,944,680,672,674,676,687,628,705,782,859,904,911,897,883,870,856,842,838,814,800,787,773,759,745,731,726,704,690,676,662,689,733,737,607,593,684,652,681,692,651,655,649,657,666,655,657,663,649,657,655,657,652,661,660,661,657,657,661,655,662,670,657,667,653,659,657,371,373,374,375,376,398,496,506,558,625,614,604,615,585,575,566,604,594,532,523,513,521,511,501,475,469,459,464,440,430,461,424,414,431,382,377,378,379,378,378,379,381,379,380,380,380,379,377,380,378,379,387,385,383,379,383,385,386,389,385,383,388,379,381,384,1540,1616,1679,1716,1881,1985,2161,2332,2293,2298,2329,2252,2245,2207,2106,2071,2107,2130,1976,1939,1913,1900,1836,1842,1824,1760,1702,1672,1728,1632,1732,1673,1510,1448,1564,1641,1562,1597,1690,1667,1671,1710,1659,1689,1763,1787,1777,1701,1688,1669,1685,1688,1721,1726,1790,1723,1728,1733,1723,1729,1740,1705,1679,1697,1675,799,800,840,845,860,847,960,1073,1099,1200,1142,1182,1173,1144,1125,1051,1096,1076,1034,1029,978,990,979,952,949,893,851,875,815,811,922,907,779,760,814,847,850,814,799,805,793,813,807,817,812,825,818,806,805,818,812,806,805,804,812,812,810,812,801,808,809,824,821,823,806,1165,1226,1173,1215,1354,1428,1487,1621,1760,1808,1745,1694,1771,1638,1686,1583,1565,1562,1500,1473,1495,1419,1418,1429,1373,1307,1280,1289,1225,1269,1280,1248,1154,1094,1185,1222,1226,1225,1216,1210,1226,1279,1249,1256,1249,1223,1234,1253,1245,1237,1234,1273,1302,1295,1264,1243,1237,1241,1236,1231,1226,1246,1231,1256,1223,459,461,463,463,466,506,573,641,708,756,763,750,738,726,714,702,689,677,665,653,649,624,616,599,592,580,568,555,543,531,519,507,494,482,470,466,467,475,460,472,469,478,479,481,473,491,465,490,477,502,472,479,491,500,487,481,481,488,487,480,477,483,469,479,470,1089,1082,1102,1132,1261,1467,1702,1856,1921,1973,1914,1882,1847,1807,1782,1748,1729,1672,1682,1601,1559,1537,1519,1459,1417,1407,1361,1315,1280,1268,1206,1171,1160,1110,1101,1112,1106,1128,1149,1137,1153,1213,1174,1184,1169,1152,1159,1176,1170,1162,1162,1196,1254,1273,1190,1172,1162,1174,1158,1152,1153,1180,1162,1187,1147,730,733,767,727,773,900,954,1095,1175,1224,1221,1229,1161,1179,1166,1121,1116,1049,1059,1025,1010,977,968,996,943,956,899,868,872,840,824,835,796,783,764,753,731,745,754,756,755,762,767,760,775,770,759,766,761,768,768,770,770,772,776,766,776,770,776,778,772,781,764,769,768,756,769,771,773,774,892,1004,1140,1169,1245,1202,1228,1204,1184,1166,1145,1101,1097,1059,1068,1048,1038,980,996,972,968,952,930,885,874,871,850,831,796,781,778,780,782,791,779,795,810,809,815,808,791,801,831,807,799,802,786,800,794,800,802,801,824,799,808,805,797,800,807,792,910,943,929,937,1043,1091,1274,1354,1452,1530,1532,1477,1456,1458,1374,1392,1367,1321,1352,1291,1251,1223,1213,1181,1213,1179,1111,1102,1090,1045,1040,997,992,990,957,954,956,948,982,969,973,978,977,976,1043,1038,977,1007,992,981,982,1029,1036,1049,1038,1043,1038,1047,1055,1029,1012,1012,985,983,985,580,568,585,571,579,655,714,829,873,916,920,906,892,876,886,849,865,820,834,791,777,763,774,734,720,728,691,677,662,672,634,619,605,591,578,574,576,593,572,584,575,602,584,603,578,610,584,593,592,586,596,592,606,611,606,606,598,600,611,599,605,608,608,622,614,882,897,900,989,998,1052,1245,1327,1426,1462,1486,1435,1430,1433,1348,1326,1302,1295,1290,1248,1225,1187,1179,1155,1157,1117,1085,1062,1039,1016,991,969,946,924,911,907,909,902,917,919,913,923,924,924,944,935,923,929,927,932,932,934,935,937,940,931,940,937,938,940,935,945,931,932,924,0,0,0,0,0,0,0,0,0,0,0,0,0,0,0,0,0,0,0,0,0,0,0,0,0,0,0,0,0,0,0,0,0,0,0,0,0,0,0,0,0,0,0,0,0,0,0,0,0,0,0,0,0,0,0,0,0,0,0,0,0,0,0,0,0,590,585,622,584,593,638,727,812,891,934,958,923,904,894,875,853,869,840,850,825,806,778,785,790,758,732,705,700,700,676,647,644,618,601,591,587,652,595,603,598,599,605,614,631,624,631,622,618,633,615,615,617,610,630,617,613,619,613,608,621,623,619,613,625,615,548,522,523,524,527,600,634,701,768,804,822,810,798,768,774,762,741,737,718,713,701,689,689,664,648,636,628,613,604,591,579,567,555,543,531,527,528,529,529,529,518,541,534,533,546,554,533,530,539,548,544,531,531,539,537,538,536,537,526,527,526,532,537,533,518,259,260,233,234,235,243,272,328,330,359,372,423,361,356,403,396,370,362,375,322,343,311,348,300,295,328,283,298,272,301,261,272,250,274,239,235,264,236,234,231,231,231,238,233,235,240,232,273,235,232,236,236,234,235,240,240,236,239,233,236,234,236,235,238,238,363,376,377,378,379,414,488,512,565,610,620,611,584,573,548,572,545,552,526,533,523,522,503,517,483,459,463,454,443,404,424,386,405,394,385,380,381,382,393,365,366,366,365,369,368,370,366,372,369,365,368,369,368,366,374,371,370,369,370,372,369,376,374,377,377,984,977,1019,997,1060,1188,1348,1496,1592,1599,1577,1557,1530,1510,1518,1471,1454,1411,1409,1364,1331,1305,1307,1253,1242,1238,1180,1157,1156,1118,1078,1052,1029,1003,991,1038,990,1008,1027,1013,1016,1020,1024,1020,1029,1017,1030,1022,1024,1020,1037,1035,1035,1028,1023,1030,1031,1038,1024,1036,1036,1038,1026,1020,1026,491,493,494,496,500,545,617,706,762,846,832,801,789,792,762,766,736,723,739,698,699,671,659,645,646,633,620,594,593,567,554,571,540,516,514,510,500,501,507,513,527,508,511,526,511,504,508,540,534,534,534,531,531,524,526,526,510,525,542,527,529,517,519,519,545,442,454,456,457,463,486,594,636,702,742,750,754,711,699,686,697,664,668,641,644,632,605,607,596,585,558,563,552,536,494,522,484,491,479,464,459,461,462,468,440,446,447,445,456,450,462,457,452,462,449,453,453,450,457,456,456,456,457,454,452,454,458,456,462,460,919,902,888,892,942,1059,1087,1200,1303,1315,1436,1306,1287,1250,1280,1279,1221,1232,1274,1173,1176,1186,1122,1098,1103,1112,1067,1014,997,976,959,919,947,911,910,915,897,899,907,892,896,893,908,929,907,912,915,938,947,954,955,960,944,958,940,932,937,945,959,984,955,963,960,984,973,574,576,577,579,601,638,723,829,885,967,962,919,902,907,876,878,847,832,846,800,798,771,760,759,744,729,715,687,682,657,643,658,623,614,598,594,584,583,585,585,594,595,579,596,588,591,592,603,618,603,603,601,599,607,603,602,590,603,624,607,609,596,598,621,616,765,794,751,774,813,875,955,1112,1152,1233,1210,1191,1199,1182,1164,1147,1110,1108,1059,1059,1050,981,1015,995,970,954,930,919,870,864,861,857,835,778,777,741,747,804,786,784,783,785,789,791,787,791,791,783,791,786,791,789,792,800,800,799,786,793,793,801,798,810,799,808,802,671,660,693,656,682,758,851,951,1026,1082,1085,1055,1070,1038,1038,1037,980,952,994,928,911,894,867,859,863,824,807,787,865,771,729,717,715,699,685,674,669,683,674,664,666,672,716,702,699,701,691,712,705,683,697,675,677,698,685,679,698,680,672,693,693,712,698,707,690,344,345,346,347,348,354,401,467,494,578,568,563,550,541,532,523,496,505,496,470,478,452,460,451,442,433,423,414,405,383,390,378,369,362,351,346,350,348,328,328,334,350,327,337,328,337,332,327,333,330,326,328,330,332,330,337,332,333,332,333,330,341,328,334,331,459,461,463,463,466,506,573,641,708,756,763,750,738,726,714,702,689,677,665,653,649,624,616,599,592,580,568,555,543,531,519,507,494,482,470,466,467,475,460,472,469,478,479,481,473,491,465,490,477,502,472,479,491,500,487,481,481,488,487,480,477,483,469,479,470,206,207,208,208,209,217,246,275,304,332,346,341,335,330,324,318,313,307,302,296,291,285,280,274,269,263,258,252,247,241,236,230,224,219,213,210,210,211,198,200,201,208,207,201,201,202,201,205,209,213,286,273,291,226,203,201,205,201,201,198,202,202,200,202,202,895,897,900,906,1011,1184,1371,1544,1629,1652,1639,1608,1577,1546,1515,1484,1453,1422,1391,1360,1329,1298,1267,1225,1205,1163,1143,1112,1070,1049,1030,988,957,927,913,916,931,929,919,909,927,930,916,936,925,928,930,938,954,940,938,942,943,953,945,947,934,947,946,947,953,946,943,969,969,878,922,922,943,929,1033,1219,1353,1375,1442,1468,1494,1423,1419,1353,1358,1409,1287,1291,1233,1238,1166,1156,1164,1168,1107,1062,1087,1024,977,967,941,930,882,914,939,913,890,893,889,909,929,899,929,899,917,900,920,927,900,902,909,913,938,924,912,907,906,914,919,912,913,898,934,907,707,709,711,713,735,809,915,1021,1110,1152,1154,1136,1179,1155,1081,1063,1045,1026,1008,990,972,954,935,968,899,925,863,844,826,808,790,771,753,772,758,717,719,721,720,716,733,756,744,752,738,760,758,753,775,753,781,814,843,814,770,747,746,769,754,736,739,762,744,770,740,1137,1175,1209,1225,1256,1407,1640,1782,1792,1854,1805,1858,1811,1789,1720,1666,1738,1676,1611,1612,1562,1533,1494,1496,1525,1407,1364,1378,1345,1315,1239,1217,1225,1141,1173,1168,1173,1151,1197,1210,1204,1233,1211,1244,1216,1238,1220,1225,1228,1216,1233,1222,1245,1258,1250,1257,1243,1242,1254,1238,1243,1252,1253,1268,1254,194,195,195,196,197,203,229,255,281,307,322,317,312,307,302,297,292,287,282,277,272,267,262,256,251,246,241,236,231,226,221,216,211,206,201,197,198,198,184,181,185,188,184,186,181,188,194,182,185,181,182,186,184,189,185,185,182,193,185,190,187,186,185,188,190,1125,1128,1159,1203,1254,1406,1591,1726,1801,1828,1817,1788,1759,1763,1701,1704,1674,1614,1686,1556,1527,1498,1469,1440,1464,1382,1353,1324,1295,1266,1237,1208,1249,1157,1167,1186,1206,1148,1190,1196,1212,1234,1231,1225,1214,1236,1207,1216,1220,1204,1204,1226,1223,1245,1357,1306,1233,1222,1225,1214,1207,1210,1222,1238,1212,475,476,478,479,483,525,595,665,736,782,789,776,777,751,738,726,713,700,688,675,674,650,637,625,612,599,587,574,561,549,536,524,511,498,495,482,492,494,509,479,475,483,471,476,472,483,477,517,473,473,473,477,504,477,490,480,479,484,481,477,490,487,478,490,485,0,0,0,0,0,0,0,0,0,0,0,0,0,0,0,0,0,0,0,0,0,0,0,0,0,0,0,0,0,0,0,0,0,0,0,0,0,0,0,0,0,0,0,0,0,0,0,0,0,0,0,0,0,0,0,0,0,0,0,0,0,0,0,0,0,589,591,641,643,601,651,730,809,846,892,938,924,910,896,882,868,921,900,825,811,797,750,769,817,741,727,713,699,656,671,629,643,628,589,601,619,599,575,588,582,593,617,600,600,591,600,598,605,602,595,608,640,660,641,634,609,591,618,601,593,588,618,602,622,593,411,412,414,415,416,504,514,573,625,680,689,678,659,648,645,626,616,605,601,583,572,569,558,547,536,519,508,497,486,481,470,459,443,438,422,423,424,425,412,416,417,422,430,437,434,431,425,429,431,431,425,435,429,444,430,422,431,424,426,431,430,427,420,422,420,829,836,833,830,867,994,1126,1255,1303,1375,1353,1314,1323,1331,1312,1245,1262,1228,1182,1175,1149,1116,1104,1069,1068,1016,977,987,948,940,922,909,898,870,871,837,849,859,843,837,841,847,853,852,853,848,859,864,858,861,868,888,902,885,882,878,868,889,870,866,883,874,871,878,864,798,816,803,806,841,932,1056,1179,1269,1308,1307,1312,1254,1245,1213,1203,1219,1161,1176,1155,1099,1111,1090,1036,1015,1025,973,952,961,910,890,869,864,846,840,810,812,814,827,818,823,830,864,860,850,874,848,881,862,859,850,835,837,856,850,835,862,841,835,851,845,869,848,854,847,689,691,687,695,718,785,898,1004,1117,1101,1133,1105,1097,1079,1061,1042,1024,998,996,970,944,909,908,913,880,868,843,825,785,782,750,746,735,697,703,680,695,684,689,685,695,710,707,701,697,699,700,710,714,703,707,744,762,745,736,712,703,716,708,705,695,720,706,721,700,907,911,912,913,962,1148,1257,1389,1465,1501,1500,1438,1445,1451,1403,1374,1375,1318,1306,1282,1255,1219,1204,1168,1135,1130,1122,1077,1038,1049,1007,973,978,949,924,917,918,947,950,932,928,938,952,966,940,954,951,952,948,945,944,948,947,942,954,955,947,957,939,954,955,954,946,957,945,820,823,825,829,864,959,1067,1167,1262,1253,1319,1275,1278,1240,1237,1205,1246,1176,1156,1136,1115,1068,1075,1044,1034,1003,993,973,941,931,912,892,871,851,835,835,834,839,851,846,848,860,854,869,871,874,855,879,875,856,860,912,917,929,935,869,868,902,913,883,862,877,863,863,836,767,772,770,779,807,887,1007,1122,1221,1221,1251,1222,1212,1192,1173,1153,1134,1102,1102,1075,1043,1007,1026,1011,977,959,937,915,876,886,838,833,820,781,784,764,779,765,784,772,767,772,787,814,776,790,791,828,782,781,781,784,785,783,793,791,782,787,778,795,791,790,784,797,785,910,934,963,955,969,1071,1307,1369,1495,1445,1554,1555,1422,1446,1395,1373,1413,1391,1341,1250,1263,1173,1183,1258,1196,1116,1094,1142,1070,1027,979,983,961,915,927,984,926,919,923,913,932,940,936,915,921,934,930,986,1026,940,1021,1026,974,938,950,996,976,1039,1039,940,978,1059,1059,1045,970,1119,1087,1096,1049,1136,1254,1502,1643,1689,1696,1661,1720,1625,1623,1571,1528,1667,1538,1544,1422,1410,1369,1342,1315,1289,1319,1236,1209,1201,1238,1147,1103,1093,1054,1072,1033,1072,1044,1075,1068,1075,1093,1068,1097,1082,1092,1087,1097,1116,1092,1077,1081,1098,1101,1097,1107,1111,1093,1101,1100,1096,1093,1134,1098,1077,542,544,569,547,555,607,687,768,847,892,896,919,868,899,839,869,854,796,782,768,753,739,725,710,696,682,668,653,639,625,610,596,582,567,577,551,552,577,571,549,554,559,552,561,554,561,554,562,559,555,553,554,556,561,562,559,557,556,557,561,554,563,552,560,556,206,207,208,208,209,217,246,275,304,332,346,341,335,330,324,318,313,307,302,296,291,285,280,274,269,263,258,252,247,241,236,230,224,219,213,210,210,211,198,200,201,208,207,201,201,202,201,205,209,213,286,273,291,226,203,201,205,201,201,198,202,202,200,202,202,513,510,531,505,516,615,641,705,802,815,849,806,821,781,770,754,772,723,724,731,698,678,727,651,647,626,623,659,599,580,552,576,549,534,526,516,529,519,538,503,508,509,515,521,519,530,519,527,523,513,519,507,510,516,519,515,517,510,508,513,514,522,518,526,522,835,837,856,864,915,1067,1246,1414,1502,1525,1511,1483,1455,1427,1398,1400,1357,1336,1286,1272,1229,1201,1173,1144,1116,1088,1078,1031,1003,975,958,951,890,862,850,851,857,862,902,878,867,876,859,874,869,875,888,913,877,889,894,891,885,915,919,886,879,874,889,898,879,889,894,889,884,458,458,460,462,426,457,556,597,673,729,766,722,707,695,686,661,658,638,691,640,629,627,608,569,568,560,530,510,526,516,508,491,457,458,449,446,464,462,444,446,448,446,452,464,458,453,450,450,455,450,452,452,457,463,457,469,458,463,463,455,456,448,460,457,447,1067,996,1012,1014,1078,1219,1418,1483,1575,1608,1579,1570,1511,1506,1495,1457,1443,1454,1384,1376,1335,1311,1271,1275,1253,1361,1189,1150,1140,1116,1091,1087,1107,1020,1009,1022,1010,1013,1019,1034,1040,1051,1047,1065,1046,1054,1036,1043,1040,1035,1039,1051,1057,1063,1057,1068,1049,1057,1066,1050,1043,1036,1052,1058,1037,713,714,678,719,763,818,898,1020,1102,1167,1157,1054,1039,1028,1074,994,979,1045,973,1021,980,929,954,932,899,874,851,868,823,806,773,765,753,718,717,735,724,726,706,705,708,713,738,710,715,721,721,723,720,720,721,732,746,752,885,821,759,747,733,729,738,729,740,736,730,525,526,514,529,535,583,660,723,792,811,837,832,819,799,786,753,768,749,723,723,711,698,667,655,643,648,618,606,610,581,584,572,559,532,521,515,533,540,536,511,519,523,514,532,523,530,527,523,541,522,521,523,521,533,526,527,523,525,524,524,527,529,525,548,534,745,746,765,751,769,871,966,1064,1156,1204,1232,1181,1159,1140,1122,1154,1118,1091,1080,1061,1023,1012,1015,972,939,933,927,868,859,841,823,816,786,751,749,767,756,759,733,733,735,737,738,739,740,743,744,749,747,748,748,749,752,753,754,755,756,759,759,760,761,762,763,764,766,386,387,388,390,391,419,469,518,567,609,615,620,597,588,590,569,560,551,542,545,523,526,505,496,487,478,468,459,450,441,432,422,413,404,395,392,393,394,374,380,380,380,379,377,385,383,387,385,379,384,379,386,384,387,391,396,384,384,386,391,394,394,388,387,386,592,590,595,605,607,705,737,821,903,936,937,919,909,895,899,938,853,832,830,815,802,825,810,750,763,721,717,725,684,668,651,637,632,615,606,613,626,599,613,590,588,591,623,624,608,606,610,609,630,637,670,645,641,641,646,625,641,649,684,690,653,670,672,687,644,0,0,0,0,0,0,0,0,0,0,0,0,0,0,0,0,0,0,0,0,0,0,0,0,0,0,0,0,0,0,0,0,0,0,0,0,0,0,0,0,0,0,0,0,0,0,0,0,0,0,0,0,0,0,0,0,0,0,0,0,0,0,0,0,0,370,371,372,373,374,399,445,491,537,578,584,576,567,559,550,541,533,524,516,507,499,490,481,473,464,456,447,439,430,421,413,404,396,387,379,375,376,377,363,363,371,374,389,394,389,370,372,384,365,369,376,368,364,368,364,368,365,366,368,368,374,369,369,377,368,667,658,671,673,673,761,853,949,999,1082,1067,1025,1063,1018,1001,986,945,923,937,892,881,861,858,855,832,809,786,790,773,764,741,742,708,692,668,664,651,663,660,703,663,662,676,664,670,677,676,692,695,667,674,676,682,682,685,695,684,684,697,677,693,698,712,683,684,724,719,745,746,753,813,924,1013,1117,1159,1238,1117,1099,1103,1065,1105,1050,1036,1015,997,979,962,944,926,891,874,885,855,831,805,802,843,762,743,736,734,736,731,749,740,738,743,752,746,749,741,749,748,746,741,760,751,755,747,747,753,749,755,743,754,755,753,747,741,741,243,244,244,271,246,256,284,341,368,395,403,398,393,388,382,377,372,367,362,357,352,346,341,336,303,298,292,287,281,276,271,265,260,255,249,246,247,247,240,232,230,248,231,241,242,256,258,236,232,233,230,228,231,231,251,233,231,239,238,239,243,235,231,232,231,746,731,751,740,762,867,970,1082,1131,1187,1196,1150,1159,1141,1122,1103,1059,1098,1052,1001,987,965,960,955,929,919,880,860,864,851,823,809,789,790,747,743,742,742,749,754,751,764,764,760,768,776,749,766,762,754,763,772,771,766,791,772,755,755,767,758,746,759,760,768,755,525,527,497,529,533,552,634,687,710,715,721,712,789,694,685,676,667,716,707,697,687,677,690,658,619,609,629,619,609,600,590,550,570,561,535,532,533,534,525,531,529,542,579,564,546,582,542,588,563,584,557,541,555,572,555,544,575,557,547,562,557,582,556,550,546,326,327,327,328,329,346,383,419,456,518,499,492,485,479,472,465,458,451,444,437,430,423,416,409,402,395,389,382,372,368,361,354,344,340,333,330,330,345,320,325,320,327,327,330,325,338,320,327,324,323,324,333,331,328,330,328,327,327,339,341,325,331,324,328,327,484,472,487,488,492,510,563,616,732,789,757,799,788,773,733,703,742,731,677,673,700,635,639,587,578,568,558,548,538,529,519,527,499,504,495,477,478,479,473,476,472,476,475,481,477,483,478,476,480,472,476,477,478,480,483,481,477,479,484,486,476,490,479,488,483,1016,1019,1022,1050,1137,1276,1438,1532,1665,1646,1659,1671,1633,1614,1617,1475,1476,1497,1534,1404,1377,1384,1326,1279,1296,1293,1255,1247,1167,1148,1139,1099,1074,1056,1038,1039,1070,1044,1085,1066,1082,1085,1081,1074,1150,1145,1080,1120,1110,1077,1078,1149,1153,1172,1165,1164,1135,1159,1159,1133,1108,1103,1081,1085,1082,359,376,375,376,362,403,453,497,547,561,568,559,574,565,556,526,517,509,521,513,484,495,486,478,469,460,451,445,434,425,419,408,384,390,381,378,381,382,357,360,366,386,361,369,360,366,360,358,363,362,356,363,362,364,364,369,365,366,369,366,363,372,358,364,362,513,510,531,505,516,615,641,705,802,815,849,806,821,781,770,754,772,723,724,731,698,678,727,651,647,626,623,659,599,580,552,576,549,534,526,516,529,519,538,503,508,509,515,521,519,530,519,527,523,513,519,507,510,516,519,515,517,510,508,513,514,522,518,526,522,319,320,359,323,323,386,434,433,479,521,532,524,515,507,498,490,513,473,535,472,500,506,444,468,413,442,397,434,379,384,362,354,345,338,328,376,377,362,334,339,339,342,348,353,357,348,341,346,347,353,343,356,348,362,349,342,350,343,348,350,349,346,340,340,340,942,936,935,949,1066,1228,1449,1628,1713,1727,1717,1680,1651,1619,1616,1550,1526,1493,1452,1419,1403,1364,1332,1328,1267,1235,1185,1156,1123,1091,1066,1026,1010,968,978,956,962,969,986,985,984,985,1006,1005,1026,1030,994,1012,1005,1004,1009,998,1000,1021,1016,1006,1006,1011,998,1014,1000,1007,1004,1020,1011,667,624,636,617,641,719,811,990,967,1042,1016,1013,989,1012,982,947,927,934,920,872,864,832,832,816,800,784,761,741,737,718,711,690,680,638,666,621,637,634,636,636,644,656,649,653,659,668,656,653,667,657,684,678,682,670,646,646,657,656,660,641,652,661,647,659,653,779,775,805,797,800,1000,1011,1129,1250,1291,1255,1258,1205,1417,1208,1158,1136,1147,1089,1098,1087,1067,1048,1006,1043,958,938,946,956,900,890,858,819,827,813,808,810,812,815,795,799,797,807,807,802,813,800,805,810,816,815,818,823,829,831,833,817,827,823,824,830,833,831,836,835,844,839,852,854,875,965,1131,1212,1297,1325,1350,1332,1290,1312,1248,1226,1251,1204,1201,1180,1158,1122,1081,1156,1090,1019,1025,966,984,960,937,960,895,923,829,856,851,895,881,854,856,856,898,892,873,869,877,889,923,914,942,924,939,906,928,902,913,946,970,950,921,931,965,980,925,424,425,427,428,430,462,546,584,645,693,702,690,679,668,657,646,677,624,647,601,611,579,568,557,590,555,524,512,500,490,478,468,457,446,435,430,431,433,433,433,432,432,435,432,434,437,433,433,433,432,438,437,438,439,440,438,434,434,439,440,438,440,437,437,438,798,800,821,806,843,936,1088,1184,1271,1308,1304,1285,1264,1243,1265,1202,1226,1160,1137,1118,1097,1075,1056,1131,1057,993,971,951,930,910,887,887,865,915,831,810,812,814,836,835,829,838,824,836,833,839,851,920,841,869,879,874,862,890,884,844,837,850,869,883,873,889,882,885,866,119,119,120,120,121,123,140,156,173,189,201,198,195,191,188,185,182,179,175,172,169,166,162,159,156,153,149,146,143,140,137,133,130,127,124,121,121,122,106,106,109,112,109,108,111,115,109,108,110,110,112,109,111,111,108,109,110,115,113,106,112,116,111,112,111,429,457,439,441,443,477,536,601,664,711,740,708,696,685,674,662,651,640,644,639,606,594,597,568,577,546,538,527,515,516,492,481,470,459,463,440,442,443,437,439,442,453,450,445,448,453,444,449,447,447,452,461,467,463,454,447,452,456,457,448,448,461,448,455,448,373,386,387,388,389,409,440,484,548,571,602,574,585,576,549,559,550,542,533,524,499,507,498,490,481,472,464,455,447,438,429,421,412,403,395,416,417,392,392,388,392,394,396,403,391,402,402,393,400,397,400,402,403,411,406,408,399,410,406,407,411,423,422,429,420,0,0,0,0,0,0,0,0,0,0,0,0,0,0,0,0,0,0,0,0,0,0,0,0,0,0,0,0,0,0,0,0,0,0,0,0,0,0,0,0,0,0,0,0,0,0,0,0,0,0,0,0,0,0,0,0,0,0,0,0,0,0,0,0,0,476,496,478,499,503,537,587,663,717,779,781,773,761,777,736,724,739,710,681,674,661,632,635,606,615,615,581,574,579,558,534,524,531,493,474,484,471,485,485,463,464,468,469,467,478,473,476,471,480,484,526,480,486,517,480,480,485,493,537,552,562,572,573,514,514,837,831,831,858,880,982,1123,1254,1347,1406,1374,1357,1354,1316,1280,1267,1244,1230,1199,1176,1164,1141,1119,1097,1088,1052,1012,993,969,948,950,903,915,863,841,833,847,850,844,839,843,862,835,870,851,862,861,859,882,853,856,852,855,875,868,860,859,862,861,858,866,867,863,898,876,429,383,385,386,387,415,500,599,581,627,636,626,616,606,596,585,575,565,555,545,535,524,514,564,494,542,474,464,453,443,433,423,413,403,392,388,389,390,386,380,397,384,384,396,385,392,400,393,408,394,396,399,397,403,393,394,386,403,389,394,395,391,386,396,417,554,544,558,547,554,655,696,769,851,913,910,902,886,876,857,844,825,803,793,785,753,768,739,708,714,691,676,667,652,647,620,617,597,585,553,545,569,575,557,550,557,561,550,577,564,577,575,568,592,562,563,565,561,578,565,569,565,567,564,562,568,568,565,598,571,735,749,751,771,776,854,931,1025,1064,1102,1126,1161,1078,1062,1046,1030,1073,1056,982,1023,1012,935,973,957,941,905,877,903,867,857,810,793,807,775,744,768,785,761,761,753,766,778,770,769,763,763,771,777,782,768,775,810,832,808,801,784,767,783,770,771,761,786,776,786,768,512,466,468,469,472,509,600,727,698,749,757,745,733,722,703,698,686,675,663,645,640,628,616,618,593,581,569,572,560,534,522,508,499,487,476,486,473,474,471,477,476,483,484,484,488,481,475,487,484,476,483,490,486,486,508,498,485,485,485,479,486,488,484,485,477,644,684,677,688,656,715,878,970,987,1056,1032,1048,1032,984,1007,984,968,909,936,920,875,890,843,844,841,824,808,759,775,758,733,725,698,708,636,632,634,636,660,652,654,708,664,682,656,672,678,672,698,675,682,668,661,684,699,672,662,677,671,675,674,662,679,699,667,769,778,752,779,804,891,996,1113,1188,1256,1251,1235,1210,1170,1191,1077,1092,1130,1071,1002,1060,1049,976,994,988,967,933,913,913,861,865,845,817,805,785,780,782,792,770,766,782,873,793,775,790,821,799,789,795,793,791,790,799,792,799,791,795,793,802,807,795,807,797,804,808,256,266,267,268,269,282,307,343,394,431,443,436,429,422,415,408,401,394,387,366,373,366,358,351,344,337,330,323,316,309,291,295,278,281,274,270,270,261,249,248,249,250,250,250,251,253,251,254,254,254,254,255,255,255,256,257,258,259,258,258,261,261,261,261,261,319,320,359,323,323,386,434,433,479,521,532,524,515,507,498,490,513,473,535,472,500,506,444,468,413,442,397,434,379,384,362,354,345,338,328,376,377,362,334,339,339,342,348,353,357,348,341,346,347,353,343,356,348,362,349,342,350,343,348,350,349,346,340,340,340,812,808,818,814,852,972,1102,1202,1313,1340,1320,1310,1278,1256,1252,1214,1193,1185,1177,1157,1118,1087,1074,1045,1040,1003,1006,961,947,919,911,901,869,835,821,818,825,822,841,812,843,817,822,823,854,825,818,859,864,840,848,845,841,847,858,858,831,852,850,844,833,840,845,869,829,1258,1262,1269,1356,1476,1725,2014,2088,2214,2255,2194,2153,2173,2071,2064,1990,2029,1908,1868,1848,1811,1745,1704,1664,1646,1582,1541,1500,1460,1419,1431,1337,1329,1287,1262,1264,1272,1281,1340,1314,1327,1332,1335,1349,1361,1356,1343,1356,1372,1374,1379,1386,1355,1355,1371,1379,1387,1411,1420,1383,1392,1422,1433,1405,1398,668,618,620,622,635,697,789,881,1002,1037,1042,996,981,964,948,932,916,935,884,868,851,836,820,804,788,772,755,740,724,707,752,675,660,649,630,679,698,629,644,642,638,642,687,664,677,667,653,680,661,660,664,646,647,662,655,652,667,651,644,662,656,675,664,660,651,1089,1092,1114,1145,1219,1335,1609,1669,1789,1843,1779,1782,1700,1693,1750,1697,1587,1623,1578,1570,1468,1430,1338,1393,1394,1371,1350,1246,1250,1198,1207,1189,1168,1114,1135,1105,1137,1154,1157,1173,1130,1126,1174,1151,1158,1162,1156,1154,1195,1165,1182,1185,1188,1189,1174,1187,1193,1200,1241,1170,1174,1189,1245,1188,1160,748,782,743,760,789,837,985,1053,1139,1228,1232,1180,1171,1125,1122,1110,1110,1116,1205,1032,1040,1001,1015,949,934,945,885,902,862,875,831,816,787,777,763,781,767,764,775,787,748,751,775,772,766,776,791,790,784,781,782,789,808,791,772,792,801,805,809,795,797,791,800,770,779,898,900,1034,911,996,1091,1329,1365,1450,1486,1511,1471,1418,1387,1452,1346,1343,1316,1379,1268,1228,1279,1183,1264,1150,1135,1172,1066,1043,1020,1057,992,968,928,915,911,1043,916,980,928,938,951,936,971,946,976,963,951,978,948,950,954,961,967,955,946,960,963,958,947,955,967,945,966,953,702,705,762,709,732,809,916,1023,1113,1154,1154,1134,1145,1099,1081,1098,1044,1051,1179,989,1015,975,1053,915,909,890,860,862,823,824,805,767,749,731,735,713,715,717,724,717,722,721,722,717,722,729,725,726,717,725,729,738,733,735,730,733,729,729,729,745,735,738,725,728,732,439,438,442,423,443,492,563,624,661,709,726,688,708,696,697,668,657,659,649,637,610,598,587,575,572,531,565,529,497,505,519,501,489,459,430,443,444,445,448,442,449,444,456,457,449,455,454,462,456,449,458,456,454,464,460,456,450,463,452,465,455,454,450,458,469,930,929,937,948,993,1171,1283,1406,1500,1528,1594,1487,1459,1400,1488,1386,1355,1438,1335,1311,1270,1279,1222,1268,1172,1174,1174,1099,1078,1106,1027,1038,981,960,928,944,945,949,965,953,945,954,986,1016,975,991,990,1017,1011,1006,1015,998,990,1026,1024,985,1014,1001,999,1052,1019,1036,1035,1069,1028,783,741,749,763,747,859,917,1075,1114,1201,1184,1131,1150,1132,1079,1063,1099,1076,1009,1038,1006,959,969,952,947,889,872,880,842,819,802,790,791,772,759,767,769,741,739,753,752,763,760,767,756,771,755,763,754,752,758,769,769,770,770,769,764,767,778,769,767,772,772,787,774,563,565,587,568,606,680,732,814,899,943,973,957,901,879,930,916,880,842,825,812,781,821,751,754,782,741,766,710,663,648,654,637,622,631,576,571,573,574,580,580,582,590,585,592,585,594,586,583,587,582,588,585,591,599,592,594,584,595,592,592,593,607,595,605,595,0,0,0,0,0,0,0,0,0,0,0,0,0,0,0,0,0,0,0,0,0,0,0,0,0,0,0,0,0,0,0,0,0,0,0,0,0,0,0,0,0,0,0,0,0,0,0,0,0,0,0,0,0,0,0,0,0,0,0,0,0,0,0,0,0,1247,1213,1217,1319,1350,1571,1715,1928,1960,1994,2063,1958,1948,1878,1914,1782,1801,1765,1712,1715,1653,1593,1589,1551,1537,1467,1436,1454,1377,1396,1303,1283,1324,1247,1236,1257,1250,1236,1298,1315,1285,1298,1319,1290,1357,1298,1298,1336,1365,1365,1391,1342,1363,1355,1378,1299,1306,1349,1392,1319,1327,1311,1310,1295,1282,560,561,555,557,608,619,701,783,862,908,913,902,884,869,855,840,829,845,796,782,818,753,738,723,757,694,689,666,651,636,622,607,601,584,573,560,562,563,549,553,563,582,559,565,553,563,557,554,560,561,554,564,563,568,565,572,567,570,571,571,571,588,575,583,578,119,119,120,120,120,123,139,155,171,188,199,196,193,190,187,183,180,177,174,171,168,164,161,158,155,152,149,145,142,139,136,133,130,126,123,121,121,121,106,108,106,109,136,123,116,119,115,138,118,115,121,111,111,118,115,110,126,111,110,123,118,133,121,117,115,944,942,1008,960,1075,1186,1274,1472,1480,1515,1538,1576,1493,1490,1414,1433,1372,1384,1384,1293,1383,1292,1234,1272,1178,1185,1134,1110,1091,1136,1036,1120,1046,1036,1020,957,1080,1033,1032,1016,1027,1024,1049,1090,1040,1057,1057,1061,1097,1065,1063,1072,1067,1083,1043,1050,1061,1066,1058,1073,1057,1069,1065,1060,1062,636,537,539,540,545,589,661,733,804,851,858,849,833,819,806,793,784,820,754,741,728,716,751,690,677,664,651,638,625,612,599,586,573,566,548,543,545,546,557,539,540,547,540,547,545,550,542,545,545,539,544,541,546,549,545,546,545,548,548,544,544,557,544,548,545,647,589,623,592,647,703,794,877,925,993,977,991,935,929,914,931,916,939,853,870,843,843,793,778,795,780,764,750,734,718,703,687,672,652,600,642,597,632,625,628,631,628,633,644,642,636,637,632,638,633,636,633,640,651,646,654,640,640,644,642,641,638,640,642,632,800,755,769,772,896,972,1106,1137,1224,1358,1315,1311,1285,1275,1200,1263,1230,1237,1153,1082,1161,1140,1036,1015,960,1000,992,904,965,927,894,873,831,829,818,822,858,840,829,823,832,833,829,836,843,836,831,848,859,861,856,854,854,861,852,858,843,856,850,851,853,847,847,861,871,438,440,441,449,451,480,544,608,681,719,728,739,715,704,680,670,658,646,635,623,641,609,590,589,565,553,553,540,519,515,502,484,479,470,455,451,453,454,447,449,442,446,465,460,473,464,455,470,460,460,462,450,450,458,456,454,463,452,447,458,454,464,460,458,450,812,808,818,814,852,972,1102,1202,1313,1340,1320,1310,1278,1256,1252,1214,1193,1185,1177,1157,1118,1087,1074,1045,1040,1003,1006,961,947,919,911,901,869,835,821,818,825,822,841,812,843,817,822,823,854,825,818,859,864,840,848,845,841,847,858,858,831,852,850,844,833,840,845,869,829,761,745,730,732,771,889,1042,1122,1220,1269,1278,1242,1222,1220,1182,1162,1136,1114,1092,1070,1082,1038,1003,980,958,936,913,891,913,847,824,802,780,757,741,764,741,744,746,736,738,744,736,747,759,759,758,738,745,737,745,740,746,738,763,743,751,761,744,751,767,747,736,746,741,780,781,783,784,855,1011,1224,1465,1535,1595,1559,1527,1510,1462,1467,1397,1423,1332,1347,1317,1235,1203,1170,1138,1105,1073,1053,1008,976,943,911,878,846,814,794,795,803,810,808,827,815,839,840,833,831,846,823,832,824,823,827,839,840,846,932,896,841,835,843,823,821,824,844,840,825,967,1014,993,1006,1017,1156,1320,1415,1497,1574,1577,1552,1509,1497,1429,1488,1419,1370,1333,1388,1323,1321,1311,1248,1188,1226,1235,1150,1159,1067,1043,1029,987,1001,978,1027,994,972,980,976,981,985,985,983,993,994,994,999,996,997,1000,1001,1003,999,1011,1014,1014,1017,1015,1008,1024,1017,1013,1020,1016,1264,1291,1238,1284,1387,1656,1792,1940,2022,2057,2038,2005,1973,2018,1908,1876,1839,1804,1800,1736,1767,1767,1632,1598,1564,1529,1495,1460,1453,1392,1383,1323,1290,1265,1249,1307,1333,1257,1305,1307,1322,1349,1328,1342,1323,1321,1318,1318,1342,1326,1353,1369,1358,1343,1334,1342,1340,1351,1349,1330,1351,1350,1318,1343,1337,1264,1271,1274,1384,1389,1592,1793,1882,1972,2022,2079,1990,1935,1946,1900,1887,1828,1762,1717,1730,1696,1736,1682,1616,1529,1563,1529,1439,1451,1373,1344,1320,1302,1259,1305,1314,1285,1274,1322,1318,1337,1336,1348,1384,1345,1360,1358,1361,1386,1361,1364,1373,1371,1379,1356,1355,1361,1372,1361,1371,1371,1386,1361,1372,1381,629,630,646,648,664,727,863,980,1055,1131,1126,1102,1069,1072,1038,1023,1014,994,961,954,934,895,900,873,853,816,813,799,773,759,733,713,693,673,656,658,647,659,663,666,659,702,697,675,683,689,676,692,713,690,689,680,670,680,678,682,677,668,667,671,671,669,676,670,653,1296,1303,1329,1391,1439,1667,1873,1935,2024,2072,2128,2038,1983,1990,1912,1938,1861,1805,1760,1793,1737,1747,1721,1655,1567,1600,1566,1474,1508,1407,1377,1353,1321,1292,1334,1332,1318,1342,1376,1394,1360,1380,1369,1418,1380,1410,1424,1481,1399,1430,1414,1422,1409,1460,1432,1397,1410,1389,1409,1441,1417,1445,1426,1440,1406,981,930,932,1055,1000,1130,1316,1512,1545,1657,1644,1552,1527,1506,1536,1451,1467,1406,1366,1339,1315,1285,1258,1230,1203,1176,1149,1121,1094,1067,1049,1014,995,960,944,941,945,958,945,965,953,975,955,971,965,988,973,978,967,963,975,974,982,985,989,992,988,980,992,982,989,1008,997,1005,1005,774,800,744,746,773,939,1004,1138,1235,1284,1278,1257,1237,1270,1196,1176,1151,1151,1106,1084,1120,1039,1017,994,972,950,927,905,883,878,838,816,793,771,754,810,754,758,752,748,753,759,761,760,764,762,762,772,767,769,774,786,791,784,793,783,778,792,783,776,790,784,784,790,782,722,680,725,727,697,776,951,1005,1107,1156,1160,1140,1121,1101,1081,1062,1061,1030,1003,984,1020,944,928,958,886,917,852,876,855,835,814,794,728,709,692,688,755,695,702,699,703,710,713,712,714,710,714,724,716,718,724,745,759,745,748,732,725,741,731,724,737,731,731,740,729,922,913,946,925,979,1104,1274,1461,1518,1562,1547,1526,1498,1479,1452,1425,1441,1369,1373,1315,1291,1262,1237,1210,1182,1155,1129,1102,1075,1049,1022,996,990,944,932,954,929,932,936,947,957,948,963,951,953,958,953,955,967,962,974,975,974,968,954,965,968,963,962,961,971,969,967,963,966,1198,1213,1221,1240,1367,1543,1799,1881,1983,2031,2020,1986,1944,1943,1875,1850,1841,1757,1723,1702,1660,1652,1590,1562,1563,1488,1474,1440,1382,1370,1336,1303,1249,1246,1229,1215,1231,1242,1305,1288,1285,1288,1288,1299,1363,1359,1296,1326,1314,1292,1296,1342,1352,1368,1368,1371,1350,1365,1368,1345,1322,1330,1304,1309,1303,0,0,0,0,0,0,0,0,0,0,0,0,0,0,0,0,0,0,0,0,0,0,0,0,0,0,0,0,0,0,0,0,0,0,0,0,0,0,0,0,0,0,0,0,0,0,0,0,0,0,0,0,0,0,0,0,0,0,0,0,0,0,0,0,0,783,786,788,791,826,932,1076,1218,1318,1361,1422,1338,1314,1289,1265,1295,1219,1195,1170,1148,1175,1100,1077,1053,1028,1005,982,958,933,909,887,863,839,816,799,796,799,803,802,794,807,824,817,815,810,810,818,827,823,823,848,852,874,851,841,827,809,825,816,818,808,828,814,835,807,1269,1278,1305,1350,1478,1671,1900,2020,2109,2129,2144,2106,2061,2033,2022,1961,1903,1865,1829,1863,1761,1752,1688,1657,1636,1589,1564,1528,1468,1434,1427,1363,1328,1304,1309,1318,1297,1319,1365,1366,1366,1374,1391,1390,1395,1395,1388,1381,1395,1398,1471,1470,1487,1449,1384,1398,1398,1412,1399,1390,1405,1379,1391,1411,1380,702,704,706,758,815,786,886,987,1075,1132,1119,1120,1084,1084,1137,1032,1031,1013,996,1043,960,943,925,907,890,872,854,893,874,855,783,766,748,730,705,712,714,716,701,703,715,726,728,732,713,736,713,749,726,737,726,724,740,758,737,730,743,732,735,741,738,748,724,731,728,863,867,912,877,920,1033,1192,1341,1438,1547,1479,1454,1425,1402,1391,1353,1327,1299,1276,1248,1225,1201,1176,1148,1124,1097,1075,1047,1023,998,974,949,924,897,880,880,883,885,911,889,886,897,899,917,958,955,904,936,919,901,907,947,952,957,948,969,955,974,953,936,934,919,904,901,891,1000,1032,1031,1018,1136,1211,1435,1538,1663,1783,1682,1745,1724,1656,1590,1563,1604,1567,1445,1419,1402,1362,1338,1306,1280,1263,1230,1196,1248,1172,1144,1104,1118,1033,1017,1056,1077,1022,1045,1043,1052,1147,1075,1077,1066,1100,1092,1072,1070,1073,1063,1068,1077,1065,1095,1082,1077,1072,1076,1084,1080,1097,1084,1093,1090,1614,1591,1643,1744,1898,2140,2457,2521,2540,2628,2529,2526,2407,2612,2495,2376,2276,2305,2208,2171,2151,2104,2064,2021,2016,1914,1852,1785,1808,1765,1706,1659,1609,1599,1584,1594,1572,1625,1717,1721,1675,1681,1717,1706,1712,1724,1719,1727,1777,1726,1738,1750,1751,1756,1731,1761,1773,1773,1807,1762,1754,1762,1815,1747,1751,913,916,919,931,965,1110,1278,1434,1533,1572,1569,1542,1515,1487,1460,1430,1383,1380,1384,1339,1296,1272,1224,1218,1190,1164,1137,1110,1079,1055,1029,1002,958,933,933,928,931,921,924,932,937,961,948,945,940,963,943,946,940,945,938,953,942,957,962,961,958,952,945,958,954,993,968,980,971,761,745,730,732,771,889,1042,1122,1220,1269,1278,1242,1222,1220,1182,1162,1136,1114,1092,1070,1082,1038,1003,980,958,936,913,891,913,847,824,802,780,757,741,764,741,744,746,736,738,744,736,747,759,759,758,738,745,737,745,740,746,738,763,743,751,761,744,751,767,747,736,746,741,569,545,543,555,610,624,726,781,854,917,915,902,878,871,848,840,809,851,794,782,763,774,771,725,702,688,674,664,670,636,640,650,575,577,584,558,588,565,587,559,563,564,567,577,573,584,576,579,582,572,569,565,565,571,572,569,572,569,567,568,565,575,569,578,573,778,780,782,784,839,1091,1168,1432,1447,1478,1468,1440,1411,1382,1354,1325,1296,1268,1239,1256,1182,1153,1124,1096,1067,1039,1010,994,953,924,907,867,838,810,793,793,810,805,812,793,793,799,824,817,814,818,827,850,838,861,885,853,844,851,855,833,841,860,899,912,899,917,927,902,869,352,371,355,356,367,387,468,482,542,594,593,584,584,575,601,568,564,541,549,550,555,485,492,467,473,482,473,433,442,419,398,396,391,371,372,366,374,370,355,356,362,371,365,365,363,366,363,364,368,364,378,387,387,379,369,369,370,381,378,363,370,377,368,371,368,1034,1159,1040,1074,1146,1263,1428,1568,1679,1868,1671,1659,1618,1606,1578,1537,1559,1485,1459,1447,1406,1365,1353,1341,1313,1415,1247,1235,1208,1246,1155,1103,1101,1079,1061,1050,1053,1066,1072,1085,1092,1104,1099,1118,1100,1111,1089,1096,1095,1088,1092,1104,1110,1118,1110,1122,1101,1111,1121,1105,1097,1089,1105,1112,1090,617,673,638,628,636,699,782,831,958,1004,950,937,1004,965,921,955,961,853,839,851,913,851,842,812,810,828,728,767,700,708,713,701,660,644,630,690,636,634,667,632,632,637,640,634,653,648,647,645,651,670,740,664,661,728,653,644,648,666,743,785,807,835,825,710,706,552,553,569,571,570,634,718,802,883,928,917,895,888,887,873,858,843,828,785,758,765,742,736,746,707,710,695,680,665,651,636,602,591,580,598,574,576,582,569,576,577,569,580,588,599,578,576,605,590,583,580,583,577,583,584,591,580,578,582,580,579,583,585,587,577,649,675,670,684,672,741,875,996,1073,1072,1073,1104,1069,1022,1040,1000,992,990,972,955,948,891,874,853,857,848,822,805,793,744,748,735,693,693,662,688,668,662,690,695,678,690,686,700,692,710,703,705,693,740,731,732,718,790,726,687,695,686,724,753,739,767,740,746,722,427,429,430,440,433,468,543,593,670,703,711,700,688,677,666,654,643,632,632,671,597,586,634,563,552,540,529,518,506,495,483,523,461,494,438,434,435,436,438,437,439,441,441,449,448,453,450,447,453,442,440,439,440,447,442,441,442,439,440,440,438,445,438,449,444,670,625,623,635,649,716,814,900,980,1040,1025,1022,996,983,962,953,989,937,901,885,877,867,867,827,799,783,767,756,758,721,707,691,707,670,643,639,681,640,654,646,654,656,660,656,663,657,660,662,664,661,670,683,691,684,693,682,655,668,667,659,655,669,666,671,655,205,206,206,207,207,211,231,251,270,290,303,299,295,291,287,284,280,276,272,268,264,261,257,253,249,245,241,237,234,230,226,222,218,214,211,208,208,208,201,189,190,192,189,194,192,194,193,193,194,190,192,192,192,193,195,193,193,193,193,194,192,194,193,195,195,411,412,429,415,432,448,507,566,625,672,680,670,659,648,637,627,639,605,594,583,573,562,551,540,529,519,508,497,486,476,465,454,443,432,422,417,418,420,414,415,417,417,418,420,417,424,418,420,415,419,416,435,424,425,420,431,426,426,426,430,424,427,412,422,418,558,551,561,564,591,634,704,810,900,944,948,933,918,902,858,849,857,843,821,813,798,782,758,733,721,722,684,692,665,658,628,631,617,594,588,558,586,582,569,575,572,587,575,584,576,595,585,575,588,577,579,579,577,583,579,582,579,587,582,584,576,591,578,587,576,673,669,677,679,696,864,873,1071,1085,1119,1128,1180,1091,1072,1053,1058,1000,991,979,961,936,924,905,893,868,844,831,813,794,776,757,739,720,702,699,683,681,688,689,693,679,697,702,702,710,709,697,697,702,710,701,695,697,708,700,700,705,700,693,695,691,702,695,699,680,0,0,0,0,0,0,0,0,0,0,0,0,0,0,0,0,0,0,0,0,0,0,0,0,0,0,0,0,0,0,0,0,0,0,0,0,0,0,0,0,0,0,0,0,0,0,0,0,0,0,0,0,0,0,0,0,0,0,0,0,0,0,0,0,0,636,695,640,661,679,734,819,948,1033,1077,1078,1059,1044,997,979,967,973,961,932,922,906,887,861,836,820,819,778,785,755,746,714,716,699,673,668,660,665,685,672,654,661,666,663,672,675,680,672,671,678,667,664,666,666,674,668,664,672,668,672,662,666,674,662,675,669,572,537,539,540,562,616,684,682,816,775,781,771,761,751,741,792,721,770,725,748,737,760,714,703,676,632,670,658,647,636,625,614,603,592,582,578,566,532,546,548,549,564,552,563,549,553,567,554,550,552,549,554,550,548,555,557,555,554,552,555,561,570,564,572,563,199,199,200,200,201,207,231,255,280,304,317,313,308,303,299,294,289,285,280,275,271,266,261,257,252,247,242,238,233,228,224,219,214,210,205,201,202,202,189,193,188,190,204,198,196,204,194,203,198,198,196,192,194,200,198,193,202,193,193,200,196,204,197,200,194,418,444,403,404,406,437,479,581,631,674,636,626,617,656,601,598,590,619,564,555,560,582,537,548,517,501,483,474,505,489,480,471,463,445,435,423,440,408,427,429,427,427,440,439,460,467,438,449,441,442,440,438,437,454,450,440,445,434,432,442,439,448,439,450,437,1021,1068,1064,1097,1198,1381,1540,1628,1745,1759,1715,1778,1660,1644,1633,1555,1605,1568,1458,1494,1393,1445,1386,1365,1303,1329,1289,1280,1245,1194,1166,1196,1111,1212,1076,1095,1082,1110,1118,1115,1113,1121,1126,1139,1121,1123,1139,1131,1120,1126,1124,1133,1128,1123,1137,1136,1130,1131,1127,1145,1139,1162,1166,1165,1154,284,285,286,287,287,313,343,383,423,462,474,466,459,451,443,436,428,421,413,406,398,391,383,376,368,361,353,345,318,330,323,315,308,310,293,288,289,290,296,292,279,281,305,312,300,311,300,324,312,363,355,365,315,357,338,297,307,317,355,389,363,388,373,380,349,569,545,543,555,610,624,726,781,854,917,915,902,878,871,848,840,809,851,794,782,763,774,771,725,702,688,674,664,670,636,640,650,575,577,584,558,588,565,587,559,563,564,567,577,573,584,576,579,582,572,569,565,565,571,572,569,572,569,567,568,565,575,569,578,573,864,864,870,864,911,1003,1134,1284,1356,1404,1429,1363,1340,1333,1311,1273,1257,1221,1212,1212,1171,1150,1132,1116,1085,1057,1031,1034,990,975,946,930,901,876,865,866,877,871,892,901,850,850,883,877,873,885,897,909,936,890,885,900,909,900,875,917,931,914,943,927,897,899,934,873,874,1121,1123,1242,1161,1292,1515,1766,1933,2018,2037,2121,1979,1941,1903,1865,1827,1789,1751,1791,1675,1637,1668,1707,1712,1486,1448,1410,1372,1334,1296,1258,1220,1182,1152,1140,1143,1170,1158,1198,1212,1162,1174,1202,1191,1192,1204,1198,1204,1251,1203,1213,1227,1227,1221,1207,1229,1236,1239,1272,1218,1218,1228,1269,1213,1206,619,685,623,625,638,701,793,886,1008,1261,1095,1001,985,1012,1000,969,920,904,919,961,856,840,864,807,791,813,759,773,756,757,718,678,685,646,632,659,657,654,642,646,640,648,651,655,675,683,653,652,655,660,656,646,649,663,660,652,654,656,647,655,649,657,654,666,648,1101,1189,1158,1256,1316,1451,1568,1755,1791,1809,1825,1889,1766,1783,1796,1726,1672,1651,1630,1524,1515,1545,1440,1447,1452,1419,1285,1396,1313,1301,1274,1184,1214,1145,1178,1199,1144,1186,1223,1234,1216,1241,1275,1271,1246,1245,1257,1290,1253,1285,1282,1273,1234,1253,1253,1274,1276,1239,1277,1322,1280,1279,1284,1261,1257,668,681,691,715,704,786,854,980,1358,1143,1146,1064,1093,1031,1055,1016,1000,982,946,990,913,906,877,899,877,887,827,810,783,850,748,750,762,714,699,678,699,706,697,693,694,695,703,698,706,710,702,703,706,707,710,712,709,715,716,712,721,716,713,708,716,722,724,723,724,945,1002,991,1022,1090,1290,1355,1460,1668,1554,1613,1587,1546,1528,1494,1488,1460,1438,1337,1368,1430,1335,1316,1266,1258,1221,1183,1205,1144,1129,1059,1063,1042,999,1058,1009,1016,965,1003,1003,1009,1045,1012,1032,1015,1016,1011,1006,1035,1014,1022,1031,1027,1032,1029,1036,1017,1016,1030,1019,1017,1026,1009,1038,1021,641,643,645,647,662,727,825,951,1244,1053,1102,1039,1022,1005,986,971,954,938,921,928,887,870,852,873,820,825,786,769,752,768,718,702,715,668,653,650,652,654,659,661,661,676,666,662,661,672,661,662,667,660,661,667,662,664,666,670,666,671,670,671,666,676,664,671,667,487,477,492,491,496,532,607,683,743,803,792,786,774,766,758,729,722,685,701,710,675,662,658,626,627,586,602,601,569,563,543,537,518,500,491,495,496,477,484,475,480,481,471,500,483,486,488,490,509,488,485,485,484,503,510,487,480,493,484,490,490,484,488,516,492,982,965,1016,986,1066,1172,1326,1449,1523,1655,1573,1602,1582,1521,1453,1464,1426,1394,1364,1348,1320,1339,1284,1291,1217,1189,1228,1176,1111,1100,1075,1081,1025,1003,975,1006,996,978,1019,990,1007,1000,991,1020,1040,1019,1007,1006,1039,1020,1013,1008,1009,1029,1032,1024,1024,1028,1020,1031,1016,1016,1030,1065,1020,759,754,755,782,781,866,960,1068,1168,1272,1205,1250,1161,1186,1157,1155,1104,1083,1059,1034,1016,1168,979,961,943,929,907,914,876,852,866,816,801,803,766,800,764,771,761,772,766,799,761,792,772,799,785,790,790,772,789,777,790,791,787,787,793,789,798,783,787,798,790,806,805,610,617,619,625,669,687,781,876,998,1013,1003,998,994,958,939,976,905,887,874,877,859,828,816,798,836,770,755,749,718,719,683,708,653,637,623,656,665,623,624,624,637,642,619,636,628,629,630,642,656,642,642,640,638,646,642,640,628,642,663,646,647,634,636,657,655,146,147,147,148,148,152,171,191,210,230,242,239,235,231,227,223,220,216,212,208,205,201,197,193,189,186,182,178,174,170,167,163,159,155,151,148,149,149,138,135,136,136,143,139,139,143,138,139,140,140,141,141,141,144,146,144,143,143,142,143,143,147,148,148,148,1229,1238,1230,1313,1391,1666,1773,1904,1987,2117,1985,2097,1920,1899,1887,1855,1807,1771,1734,1759,1730,1630,1598,1552,1534,1507,1506,1456,1503,1432,1371,1328,1281,1285,1231,1308,1245,1254,1315,1320,1303,1319,1302,1343,1311,1321,1350,1397,1326,1343,1338,1341,1338,1357,1365,1338,1329,1329,1337,1348,1341,1350,1348,1348,1335,555,564,558,607,613,622,705,788,868,1221,966,903,888,873,906,877,829,815,842,785,781,756,741,727,712,736,683,699,683,639,648,610,618,620,567,594,565,597,582,568,571,573,602,598,596,602,592,616,596,583,598,573,578,590,590,580,596,576,572,591,588,608,598,603,594,0,0,0,0,0,0,0,0,0,0,0,0,0,0,0,0,0,0,0,0,0,0,0,0,0,0,0,0,0,0,0,0,0,0,0,0,0,0,0,0,0,0,0,0,0,0,0,0,0,0,0,0,0,0,0,0,0,0,0,0,0,0,0,0,0,1014,949,948,1028,1130,1182,1272,1493,1485,1779,1563,1493,1470,1527,1470,1469,1460,1376,1397,1297,1274,1251,1285,1204,1257,1203,1210,1228,1184,1145,1069,1082,1016,995,963,987,1034,1046,1047,1022,1029,1028,1062,1105,1047,1067,1074,1095,1104,1115,1112,1118,1078,1097,1085,1072,1084,1087,1099,1157,1112,1127,1120,1107,1116,539,540,542,543,548,664,665,737,810,1043,911,850,837,824,858,830,814,771,789,745,732,719,706,693,680,706,654,702,688,677,626,589,599,563,550,577,548,571,570,562,560,562,567,569,573,569,572,575,576,570,576,579,584,582,578,586,577,585,577,571,582,584,569,568,561,590,609,627,595,640,676,785,888,931,1101,1070,1002,948,971,958,968,877,932,888,842,870,812,785,784,828,789,736,783,731,739,699,660,667,658,603,643,600,683,623,629,636,657,642,640,638,660,631,653,648,659,690,684,701,693,645,641,655,657,652,644,654,666,644,646,640,844,885,859,867,900,1001,1108,1214,1270,1333,1424,1316,1363,1335,1375,1303,1207,1230,1234,1195,1171,1141,1055,1097,1075,996,995,1080,957,1004,942,919,942,876,888,809,832,833,864,861,873,890,885,877,876,879,882,892,890,881,886,919,940,923,912,892,882,891,888,882,873,898,879,901,875,473,480,476,483,489,521,591,687,729,791,784,783,775,745,733,746,731,713,682,697,676,654,633,628,620,596,590,571,561,655,534,528,508,496,484,481,487,482,484,488,487,496,499,493,501,501,490,494,494,498,496,501,504,504,495,492,501,500,503,496,495,506,493,499,493,864,864,870,864,911,1003,1134,1284,1356,1404,1429,1363,1340,1333,1311,1273,1257,1221,1212,1212,1171,1150,1132,1116,1085,1057,1031,1034,990,975,946,930,901,876,865,866,877,871,892,901,850,850,883,877,873,885,897,909,936,890,885,900,909,900,875,917,931,914,943,927,897,899,934,873,874,833,836,941,885,885,981,1107,1242,1365,1331,1324,1305,1287,1268,1267,1248,1212,1207,1174,1156,1137,1127,1100,1093,1051,1044,1008,987,977,945,950,903,908,861,874,845,847,860,860,853,862,874,877,908,882,917,899,884,921,897,890,891,889,928,890,878,896,899,885,891,896,902,888,905,888,692,704,706,696,728,861,1005,1125,1246,1274,1241,1221,1218,1194,1171,1148,1124,1101,1078,1055,1031,1008,985,961,948,915,898,873,860,822,797,772,747,722,713,714,709,735,722,720,730,746,747,751,741,724,739,753,758,749,787,779,783,764,752,746,729,739,731,739,731,739,740,748,726,496,497,499,500,504,547,612,679,746,809,815,764,774,762,750,738,726,713,701,729,680,665,652,640,631,616,604,594,552,540,591,543,531,519,507,503,504,526,500,491,499,504,491,521,502,511,513,504,534,504,503,504,501,523,515,507,502,510,504,507,510,508,507,539,513,1373,1340,1427,1467,1538,1724,2051,2056,2181,2239,2218,2066,2136,2004,2068,1959,1911,2029,1850,1819,1817,1765,1726,1707,1653,1620,1586,1553,1520,1487,1479,1500,1430,1369,1409,1381,1359,1363,1448,1438,1427,1437,1451,1494,1473,1498,1474,1495,1498,1516,1537,1534,1516,1548,1529,1475,1495,1501,1511,1564,1518,1532,1535,1595,1526,793,780,783,787,819,908,1094,1162,1220,1305,1271,1214,1216,1197,1177,1214,1142,1134,1118,1094,1063,1040,1034,1001,984,962,942,925,879,872,926,844,881,805,795,789,791,814,799,794,816,817,810,831,816,837,832,825,856,829,831,839,839,850,827,820,827,836,828,822,824,838,814,839,836,736,752,795,798,785,848,977,1075,1167,1193,1188,1179,1124,1139,1122,1101,1090,1067,1041,1041,1024,1016,991,987,947,917,892,890,852,852,860,815,781,763,750,761,763,765,763,762,763,782,790,772,785,797,784,774,793,801,901,894,912,840,772,771,783,783,778,779,778,781,777,799,782,825,812,815,837,857,951,1070,1217,1273,1357,1323,1265,1266,1246,1225,1229,1188,1202,1162,1137,1106,1082,1075,1041,1024,1000,980,962,915,908,925,878,923,838,828,822,824,846,847,816,824,829,821,838,833,841,837,832,852,832,833,836,831,847,839,838,838,838,836,832,841,844,841,863,850,836,839,839,866,877,982,1064,1165,1232,1268,1249,1232,1214,1197,1179,1218,1165,1127,1144,1092,1084,1057,1118,1022,1004,987,969,952,934,917,960,882,864,862,838,837,853,841,840,839,847,840,846,855,877,854,846,868,878,874,870,866,868,885,866,870,860,867,862,867,867,867,861,884,886,846,849,968,899,899,996,1122,1257,1380,1346,1339,1345,1301,1283,1315,1262,1226,1221,1189,1171,1151,1141,1114,1107,1065,1043,1022,1001,980,959,964,916,936,875,919,859,861,863,871,874,876,896,905,893,894,913,894,912,916,921,994,994,1001,937,904,891,916,906,896,893,909,908,900,901,900,498,499,500,501,502,528,567,607,646,677,682,674,667,659,652,682,637,630,658,615,608,600,593,585,578,571,563,556,548,541,534,526,519,511,504,502,503,504,478,484,488,495,492,498,484,491,484,511,490,487,495,494,511,529,508,500,507,494,503,506,509,516,494,501,495,811,813,815,875,856,938,1036,1133,1201,1238,1219,1203,1186,1169,1152,1191,1139,1101,1119,1067,1050,1033,1084,1000,983,966,949,932,915,898,898,864,848,831,822,821,822,824,806,810,822,844,830,831,822,843,816,848,833,841,863,853,882,882,838,836,850,846,845,832,851,866,833,839,831,915,928,925,953,1022,1100,1261,1401,1482,1481,1524,1545,1460,1438,1405,1383,1342,1338,1319,1329,1313,1224,1252,1195,1199,1140,1122,1091,1142,1058,1068,1010,964,954,935,932,952,944,953,966,955,951,957,985,966,977,974,999,990,1006,1011,993,985,1001,1019,985,991,1000,1060,1051,1017,1008,1022,1037,1021,652,705,682,642,672,802,829,933,1005,1009,1030,1006,1002,988,974,985,947,933,900,906,883,873,864,821,817,808,792,835,752,743,747,711,694,678,665,655,663,649,680,657,678,670,663,661,693,675,662,655,676,668,667,667,667,663,656,669,668,674,671,661,662,671,669,666,663,490,491,492,494,507,540,609,677,746,790,814,848,773,761,748,736,724,746,699,722,709,661,675,637,624,612,599,587,638,562,585,537,525,512,501,497,498,499,494,507,501,514,540,532,521,547,508,549,529,563,523,517,531,546,530,519,537,533,525,533,523,545,522,527,515,993,1007,1004,1040,1132,1214,1393,1536,1603,1608,1650,1673,1583,1573,1522,1497,1484,1448,1427,1436,1417,1326,1351,1293,1295,1235,1214,1196,1231,1192,1151,1093,1044,1058,1015,1012,1033,1024,1037,1034,1050,1061,1060,1074,1052,1070,1046,1093,1067,1049,1061,1055,1069,1092,1073,1066,1075,1052,1062,1070,1070,1080,1058,1087,1062,0,0,0,0,0,0,0,0,0,0,0,0,0,0,0,0,0,0,0,0,0,0,0,0,0,0,0,0,0,0,0,0,0,0,0,0,0,0,0,0,0,0,0,0,0,0,0,0,0,0,0,0,0,0,0,0,0,0,0,0,0,0,0,0,0,556,540,559,560,548,613,684,750,813,849,903,932,836,831,814,787,795,776,771,759,744,734,722,716,709,694,668,655,661,611,652,586,592,572,567,546,564,566,559,561,557,590,570,561,572,578,562,584,587,577,575,565,560,568,569,577,561,562,556,557,555,559,564,563,547,649,634,652,696,649,724,809,949,973,1014,1035,1060,1074,974,959,919,929,914,899,884,867,854,839,824,809,794,779,764,767,715,754,686,733,674,661,641,659,661,657,661,655,656,670,675,699,709,672,683,679,683,680,676,672,699,686,675,679,671,663,679,670,682,674,685,666,1437,1473,1585,1588,1756,1946,2114,2233,2324,2263,2274,2272,2195,2145,2106,2126,2059,2006,2032,1939,1931,1872,1939,1805,1788,1735,1670,1715,1590,1620,1652,1537,1522,1491,1486,1479,1494,1511,1597,1570,1585,1594,1600,1612,1624,1617,1603,1619,1634,1640,1649,1658,1628,1617,1633,1644,1649,1671,1682,1654,1652,1682,1692,1669,1654,653,629,647,649,669,731,825,918,1003,1043,1035,1092,1013,997,981,964,948,966,892,934,917,866,875,812,817,780,784,768,814,735,735,684,686,669,656,653,638,656,646,633,637,637,676,659,647,647,651,654,677,674,679,675,682,660,700,671,674,690,700,687,674,678,706,716,693,833,836,941,885,885,981,1107,1242,1365,1331,1324,1305,1287,1268,1267,1248,1212,1207,1174,1156,1137,1127,1100,1093,1051,1044,1008,987,977,945,950,903,908,861,874,845,847,860,860,853,862,874,877,908,882,917,899,884,921,897,890,891,889,928,890,878,896,899,885,891,896,902,888,905,888,704,688,681,679,717,790,889,974,1085,1131,1156,1116,1093,1102,1065,1037,1061,1009,989,1003,967,1008,958,916,884,850,863,849,823,781,813,761,731,731,718,714,737,706,729,735,730,814,771,759,741,737,752,774,756,758,766,751,731,732,744,764,756,739,758,768,747,735,762,736,732,913,915,917,925,1022,1211,1406,1563,1676,1690,1667,1660,1612,1580,1582,1516,1509,1452,1420,1388,1356,1324,1333,1260,1228,1196,1164,1145,1100,1068,1048,1005,1019,942,931,932,938,1007,976,971,968,978,965,986,973,976,1001,1052,978,999,1004,1003,994,1006,1021,994,983,990,994,1005,993,999,1007,1013,996,210,211,252,212,237,243,268,307,295,333,332,329,335,323,326,322,318,310,295,291,319,297,278,278,267,262,267,264,261,242,237,259,254,222,217,213,214,214,203,210,205,223,204,217,204,218,208,216,211,204,213,209,215,215,211,210,216,211,217,211,210,215,208,213,213,1170,1294,1191,1243,1309,1482,1636,1977,1878,1892,1880,1850,1820,1790,1760,1730,1701,1670,1731,1634,1595,1589,1555,1534,1548,1446,1464,1373,1380,1313,1296,1397,1242,1202,1255,1187,1313,1211,1276,1273,1266,1280,1271,1305,1275,1287,1306,1368,1289,1319,1323,1322,1311,1341,1337,1298,1292,1300,1319,1337,1332,1349,1336,1342,1318,461,466,449,469,512,539,565,593,704,703,756,701,668,658,727,639,629,620,610,671,591,607,624,611,594,582,584,574,560,532,522,529,518,540,475,471,473,474,475,473,477,484,485,485,488,481,481,488,492,487,501,504,504,487,498,491,487,484,483,492,484,486,484,491,480,686,702,705,693,714,812,912,1019,1084,1133,1148,1108,1098,1080,1075,1036,1039,1020,982,1014,966,955,952,911,881,874,863,821,791,801,783,743,747,714,719,716,718,732,705,707,709,710,723,710,722,729,716,724,718,718,725,725,723,729,733,726,739,731,726,722,728,736,737,736,738,517,498,520,501,527,575,651,727,758,806,808,797,791,775,764,753,774,731,713,701,719,687,660,653,635,642,619,608,597,571,558,563,552,536,508,504,505,506,508,500,502,506,502,507,504,506,510,506,507,502,506,507,503,506,510,510,507,506,508,509,510,519,516,524,516,509,484,503,540,488,558,601,669,739,786,792,831,767,773,740,732,720,711,691,678,671,694,643,627,621,675,588,576,564,551,543,526,516,505,516,483,485,487,478,484,479,493,480,487,486,493,487,494,487,486,492,488,491,491,490,488,496,491,488,480,491,495,494,495,494,768,766,761,759,799,930,1002,1112,1210,1242,1307,1228,1208,1188,1164,1149,1190,1117,1090,1108,1093,1057,1033,991,980,939,974,939,893,913,881,852,822,783,818,776,793,787,775,782,791,827,790,800,785,793,789,782,794,789,795,820,810,806,798,810,806,822,820,801,806,837,807,821,813,339,340,340,341,343,358,397,437,476,514,526,519,511,502,496,489,482,474,467,459,452,443,472,430,422,415,407,400,393,385,378,370,428,355,348,344,344,407,353,353,358,366,363,360,362,365,358,362,362,362,366,376,381,377,368,362,365,371,372,363,364,374,363,369,363,546,493,522,524,498,565,649,708,805,834,839,843,871,834,780,743,731,722,733,734,682,702,654,680,631,653,622,625,612,598,551,567,526,513,501,513,528,530,548,493,499,500,494,507,499,504,499,504,508,503,501,504,507,506,510,504,506,504,506,507,507,508,503,511,511,417,418,420,421,423,455,515,575,635,683,691,680,669,658,647,636,625,614,603,592,581,570,559,548,537,526,515,534,546,483,472,461,450,439,428,423,425,426,411,415,418,431,416,423,418,432,430,417,429,422,424,422,419,426,422,423,424,429,420,424,424,439,437,440,433,808,810,813,815,854,954,1086,1217,1321,1340,1365,1320,1298,1266,1254,1245,1234,1188,1166,1144,1122,1100,1112,1056,1034,1012,990,969,947,925,897,914,900,837,823,820,812,893,839,845,852,876,863,864,850,876,853,856,854,859,850,867,858,875,875,874,862,863,854,873,866,881,856,873,863,135,136,136,137,137,141,159,178,196,215,227,224,220,216,213,209,205,202,198,195,191,187,194,180,177,173,169,166,162,159,155,151,148,144,140,138,138,138,127,128,125,127,132,132,129,133,129,132,131,129,131,127,128,129,129,127,131,128,126,129,128,131,129,129,127,495,497,498,500,504,549,622,695,768,815,821,807,795,781,768,755,742,729,716,734,690,676,663,679,637,624,611,599,585,572,558,545,532,519,530,503,504,505,502,499,508,527,508,500,510,523,518,502,506,503,504,500,509,503,511,502,499,501,509,509,503,504,498,502,500,563,558,513,514,519,618,699,701,812,806,883,797,881,774,801,834,739,728,716,783,682,670,658,715,635,624,626,600,631,582,569,629,544,583,520,576,612,519,547,544,547,552,552,553,552,553,548,563,553,553,554,560,563,563,568,561,567,560,561,556,564,568,557,564,557,0,0,0,0,0,0,0,0,0,0,0,0,0,0,0,0,0,0,0,0,0,0,0,0,0,0,0,0,0,0,0,0,0,0,0,0,0,0,0,0,0,0,0,0,0,0,0,0,0,0,0,0,0,0,0,0,0,0,0,0,0,0,0,0,0,223,239,224,225,225,232,256,279,303,326,338,333,329,324,320,315,311,306,302,297,293,311,284,279,274,270,265,261,256,270,247,243,238,250,229,241,226,227,226,212,212,212,215,216,213,216,211,219,215,212,216,216,215,213,218,216,216,215,215,218,215,216,216,218,217,1160,1146,1147,1216,1282,1350,1733,1819,1841,1843,1792,1919,1756,1765,1710,1686,1657,1598,1590,1571,1541,1526,1559,1453,1430,1432,1350,1338,1298,1278,1262,1211,1188,1173,1132,1153,1169,1122,1162,1207,1170,1179,1191,1179,1180,1195,1190,1191,1210,1180,1187,1197,1198,1205,1203,1216,1211,1202,1222,1191,1213,1230,1243,1213,1207,289,273,291,291,276,308,349,390,430,470,482,474,466,477,451,418,436,404,420,413,382,397,367,382,353,380,359,351,344,336,310,321,295,288,281,293,294,295,274,270,278,288,279,278,278,284,280,281,282,279,288,301,308,299,296,285,278,294,285,280,278,294,286,294,281,704,688,681,679,717,790,889,974,1085,1131,1156,1116,1093,1102,1065,1037,1061,1009,989,1003,967,1008,958,916,884,850,863,849,823,781,813,761,731,731,718,714,737,706,729,735,730,814,771,759,741,737,752,774,756,758,766,751,731,732,744,764,756,739,758,768,747,735,762,736,732,921,895,890,914,1014,1059,1202,1316,1402,1411,1418,1369,1350,1342,1318,1306,1330,1255,1239,1233,1255,1176,1153,1130,1128,1112,1073,1083,1043,1054,1005,986,924,951,941,956,928,920,922,937,942,952,951,952,948,953,939,943,943,937,942,953,959,965,958,970,950,958,966,948,945,938,954,960,939,1059,1060,1070,1106,1150,1263,1486,1561,1683,1662,1644,1644,1645,1600,1558,1571,1507,1464,1472,1473,1391,1400,1362,1352,1333,1294,1272,1232,1234,1186,1167,1162,1130,1096,1106,1089,1091,1077,1100,1095,1106,1128,1111,1113,1108,1120,1120,1191,1123,1115,1135,1172,1203,1167,1156,1130,1108,1147,1119,1112,1111,1141,1120,1147,1116,158,159,159,159,159,161,170,179,188,197,212,201,199,198,196,194,198,191,189,187,185,184,182,180,178,177,175,173,171,170,168,166,164,163,161,159,160,160,150,142,143,143,150,152,144,151,146,144,149,152,148,149,155,162,157,159,147,154,151,154,161,156,161,165,158,1388,1413,1467,1543,1659,1820,2065,2124,2215,2166,2190,2187,2089,2149,2032,2008,1986,1920,1953,1902,1829,1794,1789,1747,1843,1671,1661,1599,1543,1506,1492,1486,1435,1427,1422,1436,1411,1424,1465,1463,1473,1474,1475,1464,1482,1497,1476,1480,1487,1489,1568,1562,1510,1490,1511,1539,1532,1600,1595,1495,1536,1614,1619,1586,1527,299,333,317,318,319,291,398,415,465,511,490,520,507,501,463,489,449,442,451,434,436,419,421,413,397,390,403,395,387,360,372,364,338,331,323,278,279,279,291,292,289,293,296,297,315,302,292,296,297,302,300,292,294,303,297,296,296,296,291,295,292,297,296,299,293,918,903,892,914,999,1092,1197,1343,1422,1432,1422,1396,1375,1332,1338,1317,1307,1285,1248,1243,1203,1199,1176,1128,1130,1094,1068,1051,1023,998,984,990,939,938,937,959,933,918,920,939,938,953,989,970,958,996,952,1013,968,1008,966,958,977,1007,983,969,988,969,966,983,980,1003,968,966,954,364,382,383,367,385,412,440,507,533,574,608,572,564,555,571,538,553,580,571,561,551,541,516,507,499,491,462,433,425,435,407,399,390,422,373,369,387,371,358,366,364,379,374,370,371,376,366,371,370,369,369,362,363,366,365,363,370,365,361,366,362,372,368,369,363,708,700,702,682,717,798,930,1028,1058,1078,1095,1099,1034,1068,1008,1010,977,1005,995,944,994,907,933,905,856,879,826,804,848,822,782,750,752,729,747,697,703,737,713,700,706,705,707,716,707,713,710,721,735,731,724,732,732,741,731,738,723,736,738,738,745,738,740,759,753,984,971,970,991,1080,1167,1323,1441,1522,1532,1513,1486,1490,1447,1430,1416,1410,1361,1411,1316,1336,1276,1251,1228,1247,1186,1164,1131,1137,1085,1073,1113,1004,1036,1008,1031,1009,1017,1005,1020,1020,1028,1024,1016,1023,1030,1021,1030,1026,1030,1038,1036,1058,1061,1040,1037,1031,1021,1034,1028,1032,1040,1020,1036,1023,539,540,542,551,575,603,660,720,785,808,808,793,783,772,767,771,746,740,740,726,716,704,692,672,667,655,643,631,619,604,601,625,571,571,597,591,574,562,550,556,570,585,568,576,559,577,556,579,563,556,562,568,575,583,573,569,569,562,575,573,564,569,555,564,559,715,710,729,725,749,809,940,1039,1123,1089,1129,1107,1096,1079,1063,1021,1035,1016,1011,954,974,961,943,915,903,876,835,852,830,843,792,761,761,738,733,739,727,747,726,728,728,737,728,726,730,730,736,726,730,728,733,731,733,735,737,740,732,738,733,741,738,749,736,739,738,624,601,666,676,616,690,766,845,925,945,942,924,911,924,889,889,862,852,849,832,819,837,820,766,789,743,757,804,759,680,674,651,637,634,696,618,609,625,619,617,611,619,626,645,622,631,633,663,622,624,618,625,625,613,626,630,629,629,619,621,626,628,624,628,623,958,976,977,1008,1050,1135,1378,1416,1471,1480,1491,1469,1430,1426,1404,1374,1385,1311,1318,1356,1277,1258,1297,1232,1180,1188,1146,1141,1103,1074,1057,1036,1014,995,985,964,987,989,977,998,993,1005,1024,999,1003,1034,997,1012,1017,1020,1016,1011,1034,1045,1185,1130,1043,1023,1016,1007,1005,1003,1011,1036,990,335,336,336,345,346,373,408,447,489,508,512,501,494,487,486,494,473,470,474,464,458,449,441,425,424,416,408,399,391,380,381,409,358,361,356,349,340,355,341,340,339,339,342,339,342,339,342,339,338,340,342,343,343,343,347,346,343,349,345,342,349,343,343,346,343,649,651,717,679,684,749,853,899,1020,1009,1002,987,975,961,962,930,920,907,933,874,859,876,830,845,800,785,772,756,743,729,743,698,685,671,672,655,659,660,676,655,660,667,663,663,682,674,661,657,676,674,667,671,667,661,659,668,662,671,668,661,662,667,668,664,663,583,584,605,587,660,719,783,787,845,882,860,866,859,928,899,824,791,825,789,766,754,742,828,719,707,695,684,685,730,737,679,706,620,668,591,651,623,592,603,605,608,607,621,607,619,624,613,619,615,615,622,622,618,624,629,623,633,626,622,619,623,630,632,630,632,319,319,320,321,321,348,375,404,438,450,456,446,441,436,436,446,427,425,461,423,418,411,404,390,391,384,378,371,364,385,357,343,338,343,339,333,323,337,319,316,318,318,318,316,320,319,318,320,317,319,323,326,326,325,331,324,322,322,323,330,322,327,323,323,324,0,0,0,0,0,0,0,0,0,0,0,0,0,0,0,0,0,0,0,0,0,0,0,0,0,0,0,0,0,0,0,0,0,0,0,0,0,0,0,0,0,0,0,0,0,0,0,0,0,0,0,0,0,0,0,0,0,0,0,0,0,0,0,0,0,1402,1355,1325,1404,1598,1767,1935,2222,2128,2131,2205,2060,2050,1993,1994,1968,1883,1922,1932,1841,1858,1755,1755,1698,1645,1588,1588,1565,1558,1476,1506,1425,1482,1401,1356,1337,1422,1378,1471,1436,1472,1512,1476,1482,1501,1460,1463,1474,1486,1470,1466,1494,1501,1503,1488,1479,1463,1473,1460,1457,1448,1474,1468,1484,1450,488,490,491,492,506,534,612,689,741,736,764,749,738,727,721,700,700,693,693,656,682,656,644,636,619,607,575,582,570,574,552,550,531,537,511,505,528,511,513,504,504,510,516,515,517,508,519,518,518,513,525,519,522,511,514,523,521,527,510,516,524,519,518,515,510,921,895,890,914,1014,1059,1202,1316,1402,1411,1418,1369,1350,1342,1318,1306,1330,1255,1239,1233,1255,1176,1153,1130,1128,1112,1073,1083,1043,1054,1005,986,924,951,941,956,928,920,922,937,942,952,951,952,948,953,939,943,943,937,942,953,959,965,958,970,950,958,966,948,945,938,954,960,939,927,930,933,944,1001,1149,1309,1447,1454,1562,1557,1520,1507,1482,1457,1403,1407,1377,1352,1333,1308,1279,1258,1228,1208,1228,1155,1125,1105,1075,1056,1031,1006,984,1013,942,944,947,950,991,954,958,984,970,966,975,976,993,993,966,974,981,988,986,996,998,992,992,1005,1001,1007,1016,1027,1012,1008,1695,1631,1727,1880,2164,2487,2651,2760,2750,2813,2768,2707,2770,2578,2568,2511,2466,2486,2384,2273,2295,2237,2172,2125,2081,2025,1976,1955,1868,1834,1818,1749,1713,1680,1672,1648,1659,1697,1838,1820,1822,1836,1861,1872,1868,1874,1855,1870,1910,1893,1970,1961,1978,1928,1930,1874,1888,1903,1897,1905,1894,1881,1911,1960,1901,1362,1349,1384,1371,1521,1711,1900,2042,2160,2105,2094,2067,2091,2020,1953,2001,1964,1838,1828,1788,1778,1707,1711,1644,1652,1586,1536,1534,1489,1480,1439,1415,1405,1351,1364,1373,1369,1352,1421,1419,1409,1447,1432,1420,1433,1437,1430,1441,1447,1435,1449,1428,1427,1426,1435,1444,1425,1440,1412,1427,1424,1436,1429,1425,1405,622,624,649,628,640,712,805,937,985,1028,1031,1015,998,982,988,950,955,917,901,874,868,852,836,820,804,787,789,793,739,722,706,690,674,657,644,632,656,635,637,640,637,653,651,645,648,661,644,656,647,644,653,649,651,652,657,653,666,656,652,641,651,659,656,657,660,1499,1453,1513,1593,1763,1895,2104,2280,2263,2275,2324,2344,2259,2285,2159,2349,2160,2076,2073,1970,1917,1913,1854,1807,1781,1772,1758,1649,1676,1591,1580,1539,1557,1542,1484,1525,1465,1483,1613,1587,1578,1597,1590,1629,1654,1651,1633,1712,1623,1623,1628,1673,1671,1679,1689,1682,1660,1682,1664,1656,1649,1637,1625,1632,1603,1127,1104,1093,1101,1293,1398,1592,1703,1736,1845,1934,1891,1893,1792,1703,1640,1630,1620,1590,1505,1531,1505,1473,1517,1416,1405,1355,1360,1296,1279,1309,1216,1169,1148,1190,1107,1117,1222,1204,1207,1197,1283,1250,1252,1237,1226,1237,1273,1235,1267,1266,1265,1213,1238,1237,1254,1257,1221,1257,1305,1264,1256,1268,1238,1238,1453,1598,1484,1532,1721,1912,2027,2207,2217,2249,2279,2299,2180,2419,2133,2114,2098,2033,2012,1910,1892,1855,1812,1782,1741,1719,1707,1619,1694,1685,1528,1488,1511,1491,1432,1474,1426,1444,1532,1527,1551,1572,1543,1580,1550,1573,1544,1566,1589,1558,1540,1559,1574,1590,1573,1586,1572,1572,1582,1575,1563,1550,1603,1581,1548,706,685,675,645,661,727,824,921,1040,1052,1056,1039,1076,1058,988,1030,954,937,920,903,887,870,853,836,819,802,785,768,850,747,730,739,684,667,683,649,651,653,675,667,675,677,680,677,684,678,680,683,685,682,691,703,712,705,714,702,676,689,687,679,676,690,686,692,676,1104,1075,1082,1071,1182,1469,1597,1705,1678,1835,1828,1764,1747,1648,1691,1615,1587,1602,1542,1479,1523,1462,1467,1398,1384,1426,1321,1335,1295,1262,1222,1258,1147,1146,1122,1083,1086,1124,1145,1135,1127,1133,1147,1190,1170,1181,1165,1185,1191,1204,1207,1199,1181,1216,1220,1170,1187,1191,1206,1248,1210,1225,1228,1287,1219,1106,1085,1076,1126,1190,1358,1485,1622,1651,1734,1726,1741,1732,1695,1620,1580,1559,1526,1507,1487,1460,1433,1402,1414,1353,1327,1300,1277,1293,1233,1206,1161,1141,1124,1143,1085,1105,1090,1118,1131,1139,1141,1156,1141,1139,1153,1141,1146,1159,1158,1167,1184,1173,1168,1144,1160,1161,1156,1146,1162,1161,1157,1167,1160,1154,749,751,754,724,785,895,1056,1145,1223,1250,1250,1273,1231,1163,1212,1141,1085,1151,1110,1046,1090,1077,1026,1005,988,948,969,912,871,881,832,829,818,804,746,760,754,764,751,753,758,790,759,768,753,759,758,749,762,762,791,808,800,774,764,777,777,778,782,771,775,809,784,795,790,834,809,811,817,864,916,1044,1197,1244,1301,1321,1304,1279,1258,1231,1217,1215,1155,1136,1108,1110,1089,1062,1023,1003,975,980,941,934,900,884,866,858,812,824,819,815,817,821,828,820,833,836,831,833,844,818,830,828,827,822,837,835,831,828,832,835,830,843,841,825,833,822,830,828,1568,1538,1580,1639,1880,2125,2325,2449,2437,2543,2467,2406,2457,2400,2305,2297,2222,2208,2160,2087,2061,2051,2010,1980,1908,1866,1833,1857,1751,1713,1691,1632,1621,1603,1626,1560,1572,1566,1731,1729,1729,1766,1790,1786,1757,1757,1774,1818,1782,1801,1807,1830,1811,1809,1804,1803,1792,1771,1797,1839,1789,1809,1809,1793,1770,1140,1082,1102,1090,1292,1306,1477,1615,1739,1724,1716,1759,1727,1641,1606,1636,1552,1524,1503,1468,1442,1414,1387,1359,1332,1305,1277,1333,1238,1207,1179,1168,1117,1237,1106,1074,1220,1081,1166,1129,1133,1138,1131,1143,1137,1137,1146,1191,1142,1152,1161,1164,1166,1174,1192,1176,1164,1164,1164,1174,1168,1166,1168,1180,1179,820,794,801,802,853,898,1024,1246,1230,1280,1300,1284,1259,1269,1217,1313,1258,1180,1167,1095,1093,1071,1051,1006,986,997,963,925,955,885,869,856,869,830,809,883,800,802,816,812,825,853,840,848,836,828,833,845,844,833,859,867,893,869,862,844,821,848,831,827,825,852,839,854,821,1470,1450,1471,1573,1626,1912,2079,2131,2364,2271,2211,2217,2221,2178,2134,2103,2059,2009,1981,1929,1948,1895,1856,1830,1763,1753,1711,1693,1680,1621,1587,1556,1507,1461,1496,1454,1476,1477,1591,1547,1550,1580,1578,1597,1581,1611,1598,1613,1593,1577,1604,1573,1606,1596,1594,1581,1616,1580,1565,1586,1601,1608,1598,1598,1585,1186,1161,1200,1246,1337,1419,1600,1736,1858,1841,1831,1802,1840,1752,1710,1741,1655,1643,1604,1570,1543,1510,1485,1453,1427,1399,1369,1371,1341,1294,1265,1253,1201,1269,1186,1157,1256,1165,1212,1205,1214,1220,1204,1237,1223,1236,1234,1231,1258,1228,1233,1234,1231,1254,1250,1241,1241,1245,1239,1241,1250,1250,1250,1282,1259,1375,1325,1371,1366,1526,1672,1895,2045,2134,2118,2116,2060,2140,2048,1945,1985,1936,1852,1865,1816,1751,1750,1686,1681,1654,1582,1581,1520,1571,1474,1432,1440,1367,1321,1384,1330,1355,1312,1390,1396,1410,1422,1409,1447,1413,1429,1407,1425,1425,1412,1405,1418,1428,1434,1426,1442,1428,1441,1436,1421,1411,1404,1425,1426,1399,0,0,0,0,0,0,0,0,0,0,0,0,0,0,0,0,0,0,0,0,0,0,0,0,0,0,0,0,0,0,0,0,0,0,0,0,0,0,0,0,0,0,0,0,0,0,0,0,0,0,0,0,0,0,0,0,0,0,0,0,0,0,0,0,0,941,944,934,913,965,1070,1217,1345,1465,1465,1474,1625,1483,1400,1367,1405,1344,1297,1283,1251,1228,1208,1186,1157,1142,1111,1087,1068,1058,1032,1006,980,956,927,943,911,912,914,921,906,916,919,917,936,920,928,929,938,957,946,943,948,947,960,944,950,944,953,955,966,957,951,954,974,970,927,930,933,944,1001,1149,1309,1447,1454,1562,1557,1520,1507,1482,1457,1403,1407,1377,1352,1333,1308,1279,1258,1228,1208,1228,1155,1125,1105,1075,1056,1031,1006,984,1013,942,944,947,950,991,954,958,984,970,966,975,976,993,993,966,974,981,988,986,996,998,992,992,1005,1001,1007,1016,1027,1012,1008,474,453,453,455,457,497,563,628,745,741,748,736,772,768,700,742,678,666,653,641,630,669,640,594,599,617,557,545,533,522,533,566,486,501,461,458,495,496,471,472,472,472,486,485,506,514,485,496,487,490,486,487,484,502,496,488,492,480,477,491,486,494,485,499,483,979,1076,984,1001,1130,1318,1526,1695,1770,1793,1777,1796,1710,1677,1643,1625,1576,1542,1509,1475,1441,1408,1403,1341,1307,1274,1240,1206,1173,1163,1106,1072,1038,1009,999,1000,1006,1013,1019,1012,1012,1016,1011,1044,1043,1055,1038,1038,1053,1038,1034,1034,1035,1066,1066,1039,1049,1046,1040,1059,1047,1043,1050,1090,1050,507,509,510,512,517,562,636,710,854,830,835,823,849,796,782,769,756,743,730,716,704,690,677,663,650,688,624,610,597,584,571,631,544,531,519,515,516,517,540,524,537,529,527,521,552,531,521,515,534,529,522,523,522,521,516,527,524,526,525,521,517,523,525,524,519,1008,1015,926,948,1032,1116,1279,1415,1483,1576,1511,1488,1524,1440,1639,1392,1368,1403,1303,1334,1272,1248,1253,1215,1201,1211,1175,1119,1091,1056,1056,1075,998,1043,937,977,949,952,970,965,960,970,1058,1037,1006,1029,1006,1082,1040,1026,1043,992,999,1049,1036,998,1057,1015,1000,1053,1037,1075,1052,1062,1042,698,718,712,728,726,827,873,973,1085,1108,1128,1073,1087,1040,1024,1040,991,1005,987,969,952,934,917,908,913,863,861,856,862,808,800,781,740,744,730,752,718,730,731,725,744,821,746,722,745,774,751,733,741,739,744,740,752,745,744,732,739,735,749,762,736,754,735,738,751,556,558,559,561,568,622,704,786,866,951,916,901,887,872,858,843,829,814,800,785,770,756,741,727,712,698,683,669,654,733,625,627,596,581,568,564,566,567,565,568,565,567,626,610,607,607,585,644,607,601,605,578,583,607,593,584,621,583,577,606,596,626,609,622,592,670,672,674,676,695,766,868,970,1059,1101,1102,1085,1067,1049,1032,1014,997,979,961,944,926,909,891,873,856,838,821,803,785,768,750,733,715,697,684,726,682,684,668,666,682,762,691,668,689,717,697,683,692,690,691,687,697,694,698,687,692,690,701,708,693,705,697,701,708,212,213,213,214,215,223,253,283,313,343,356,351,345,339,334,328,322,317,311,305,299,294,288,312,277,271,265,259,254,248,242,237,231,225,219,215,216,217,203,203,203,205,261,234,220,232,223,263,225,217,234,211,212,231,220,209,242,211,208,234,226,258,235,227,222,593,570,572,574,583,647,721,800,871,929,933,906,891,885,874,856,833,857,815,816,775,855,771,742,745,712,697,683,658,650,662,672,698,594,592,577,576,577,577,592,583,616,577,605,586,610,595,603,598,586,601,592,605,602,600,599,606,600,613,596,599,608,600,613,614,406,407,408,409,410,433,482,531,581,625,635,626,617,608,599,589,580,571,562,553,544,534,525,516,507,496,489,479,470,461,452,443,434,424,415,411,412,413,408,414,410,419,418,419,422,415,418,418,434,417,424,425,426,419,437,432,424,423,407,424,419,424,425,426,419,222,222,223,224,225,233,264,294,324,354,368,362,356,351,345,339,333,327,322,316,310,304,299,293,287,281,275,270,264,258,252,247,241,235,229,225,226,226,211,209,215,223,215,213,216,222,216,216,216,215,224,230,233,225,224,218,215,228,220,215,217,228,222,225,218,382,383,404,386,398,414,435,551,578,632,634,624,621,604,629,584,607,563,553,543,533,514,513,476,517,483,447,485,475,450,441,443,422,413,393,399,378,390,387,385,391,393,389,389,389,400,393,396,388,393,395,407,404,401,394,401,393,396,392,399,394,400,389,396,392,887,877,873,884,935,1046,1190,1332,1417,1451,1438,1445,1399,1375,1352,1351,1328,1281,1257,1234,1229,1186,1163,1139,1108,1092,1055,1045,1021,997,974,963,927,904,917,888,885,888,892,898,898,915,911,913,913,924,901,915,905,900,913,920,915,917,945,925,909,905,921,916,907,934,932,942,928,349,350,351,352,353,377,427,477,527,572,582,572,563,554,545,535,526,517,507,498,489,480,470,461,452,442,433,424,415,405,396,387,377,368,359,354,355,356,350,358,353,357,361,356,362,357,354,353,355,356,350,356,356,357,353,356,358,356,358,357,355,360,351,356,355,470,472,464,465,462,506,567,657,716,800,783,768,748,779,723,718,699,693,681,656,642,622,617,593,593,582,543,596,556,539,531,512,513,494,473,465,463,474,478,456,458,462,464,460,470,467,469,465,468,476,518,471,476,507,469,469,473,480,525,541,550,562,562,500,500,776,742,780,749,769,873,905,991,1069,1110,1186,1098,1157,1095,1052,1037,1063,1064,1014,1068,1015,998,966,921,933,965,916,900,869,867,819,834,817,801,757,751,788,789,767,771,762,784,775,772,783,797,777,772,775,791,786,776,776,783,784,785,783,786,775,782,779,800,804,800,787,427,433,434,435,426,460,470,503,535,566,579,572,566,560,554,548,542,535,529,523,517,511,519,498,492,486,480,474,468,461,477,449,443,447,431,438,433,435,417,419,419,419,440,433,448,432,426,445,435,431,437,430,434,445,434,434,445,431,437,444,438,453,442,471,439,478,512,540,499,486,572,643,675,770,822,796,817,803,792,780,735,755,711,698,721,709,691,683,674,625,612,632,620,576,592,582,612,556,559,489,485,532,520,522,516,533,614,540,515,538,563,541,529,533,532,537,534,542,538,548,527,529,525,537,549,524,540,527,532,538,881,847,849,896,1003,1005,1191,1376,1459,1383,1387,1359,1490,1368,1382,1359,1277,1237,1295,1187,1188,1217,1185,1093,1071,1059,1027,1005,1060,980,979,931,913,943,907,868,925,921,921,907,906,912,908,912,980,976,912,944,927,911,913,963,970,982,976,983,971,984,986,959,944,942,920,916,915,0,0,0,0,0,0,0,0,0,0,0,0,0,0,0,0,0,0,0,0,0,0,0,0,0,0,0,0,0,0,0,0,0,0,0,0,0,0,0,0,0,0,0,0,0,0,0,0,0,0,0,0,0,0,0,0,0,0,0,0,0,0,0,0,0,474,453,453,455,457,497,563,628,745,741,748,736,772,768,700,742,678,666,653,641,630,669,640,594,599,617,557,545,533,522,533,566,486,501,461,458,495,496,471,472,472,472,486,485,506,514,485,496,487,490,486,487,484,502,496,488,492,480,477,491,486,494,485,499,483,0,0,0,0,0,0,0,0,0,0,0,0,0,0,0,0,0,0,0,0,0,0,0,0,0,0,0,0,0,0,0,0,0,0,0,0,0,0,0,0,0,0,0,0,0,0,0,0,0,0,0,0,0,0,0,0,0,0,0,0,0,0,0,0,0,805,807,809,811,874,1025,1233,1387,1485,1533,1505,1476,1463,1417,1404,1359,1330,1319,1272,1243,1214,1184,1155,1142,1097,1068,1039,1010,981,952,922,893,864,859,820,820,826,843,859,854,843,851,832,848,843,847,866,920,853,864,870,867,861,890,891,860,851,847,861,873,855,866,870,866,859,797,770,791,767,840,927,1057,1200,1283,1345,1305,1280,1379,1267,1206,1186,1180,1185,1125,1088,1120,1073,1048,1051,997,1036,934,918,933,917,918,866,937,815,793,798,811,813,825,823,825,825,814,835,840,836,827,844,855,829,820,820,835,831,832,839,846,839,867,843,828,829,828,837,812,589,590,592,594,603,658,796,830,913,1018,964,949,967,975,903,888,873,858,843,828,812,797,782,767,752,736,721,706,691,676,661,645,630,615,602,597,599,601,587,584,588,595,596,595,598,594,596,606,599,600,605,626,640,624,629,614,605,621,608,602,614,610,610,616,605,1053,1054,1079,1131,1225,1288,1422,1551,1634,1662,1679,1712,1760,1634,1580,1558,1545,1536,1481,1470,1513,1405,1371,1403,1365,1325,1247,1257,1219,1240,1186,1174,1153,1127,1052,1093,1071,1074,1137,1101,1099,1115,1098,1131,1112,1114,1139,1188,1118,1133,1179,1131,1133,1180,1142,1128,1121,1124,1165,1223,1246,1269,1264,1156,1147,291,292,293,294,295,310,319,404,383,508,520,503,505,467,460,452,445,438,431,443,417,410,403,395,388,381,391,367,360,353,295,288,331,344,300,296,296,297,284,282,288,293,288,292,285,291,288,285,289,289,287,288,291,297,294,295,287,293,291,293,296,296,297,302,297,1049,1086,1074,1099,1196,1333,1465,1603,1680,1759,1701,1674,1735,1617,1592,1565,1538,1510,1483,1534,1427,1446,1375,1347,1332,1293,1287,1239,1254,1184,1157,1177,1103,1156,1068,1065,1068,1071,1097,1097,1097,1108,1111,1103,1133,1128,1118,1124,1143,1131,1208,1211,1227,1180,1131,1129,1128,1130,1129,1130,1130,1128,1121,1172,1123,367,368,369,370,374,401,454,518,561,607,610,600,597,587,577,567,557,542,537,528,518,508,498,488,478,468,459,449,434,429,419,409,397,389,380,375,376,377,369,365,369,369,368,366,369,373,369,369,368,369,372,374,376,373,370,369,373,371,374,381,372,379,371,371,374,209,210,211,211,212,219,262,287,336,363,349,344,339,334,329,324,344,315,310,305,300,296,291,286,281,276,272,267,262,257,252,248,243,238,216,212,213,213,222,213,204,205,223,224,222,226,217,235,233,264,255,269,228,262,243,218,225,232,263,284,265,280,274,269,251,490,491,492,537,496,531,594,657,720,768,776,831,844,741,730,718,707,695,684,672,661,649,638,627,615,604,592,581,569,568,546,535,578,512,501,496,497,499,493,486,491,492,485,503,496,502,501,500,517,494,494,498,493,506,498,500,496,496,495,494,500,499,498,525,503,257,257,258,259,260,272,307,342,378,413,426,419,412,406,399,392,385,379,372,365,359,352,345,338,332,325,318,312,305,298,292,285,278,271,265,260,261,262,248,251,248,251,305,280,281,282,264,309,274,276,281,256,261,278,269,258,291,262,256,281,271,302,282,281,266,709,723,725,727,782,836,932,1070,1182,1216,1184,1161,1144,1129,1112,1087,1024,1050,1021,984,962,996,946,927,921,857,834,886,841,830,811,793,774,749,742,725,727,715,732,725,735,746,739,744,749,760,747,745,759,747,775,769,772,761,739,738,749,747,752,733,743,753,739,752,746,782,785,787,790,881,910,1040,1149,1240,1279,1278,1252,1237,1217,1197,1176,1156,1154,1115,1095,1075,1055,1026,1030,994,973,953,933,913,892,872,852,831,824,797,794,791,798,797,813,799,790,809,829,812,827,820,847,828,862,875,855,838,847,860,828,837,847,919,912,873,877,885,894,874,595,596,598,600,612,672,761,850,934,977,980,966,965,935,918,903,888,872,856,892,825,809,794,777,761,747,731,715,699,694,719,652,637,620,608,604,605,607,603,610,606,623,646,639,625,645,619,641,645,669,663,666,661,641,636,632,653,652,641,633,639,654,629,631,626,788,801,803,811,849,941,1052,1177,1313,1344,1310,1301,1273,1263,1231,1213,1138,1171,1131,1112,1100,1080,1047,1065,1021,967,941,960,941,917,897,876,854,828,824,804,806,810,813,809,821,833,828,827,827,823,825,835,838,828,832,869,888,869,859,837,828,841,833,829,821,844,830,844,825,730,732,814,736,759,836,962,1008,1073,1180,1134,1148,1109,1116,1072,1057,1070,1070,1097,1015,983,968,960,958,923,893,886,868,849,885,813,794,776,771,744,755,742,744,751,749,751,809,764,758,790,763,758,778,798,767,768,782,760,767,763,771,763,760,760,763,764,761,767,768,758,677,678,681,684,701,771,867,970,1067,1098,1099,1098,1095,1049,1045,1015,998,980,957,946,929,911,894,876,859,843,825,858,791,784,756,739,722,704,705,687,689,691,680,694,683,716,682,703,690,709,697,706,698,689,706,697,708,703,703,706,709,705,714,701,706,713,705,713,714,810,813,815,818,850,935,1093,1278,1377,1393,1307,1304,1378,1310,1286,1301,1207,1222,1169,1132,1130,1075,1055,1156,1016,1082,976,957,937,928,930,878,886,880,825,863,824,842,843,836,846,864,851,854,846,855,855,858,867,847,862,890,909,893,889,866,846,873,854,851,844,878,861,879,853,867,936,873,879,927,1032,1313,1330,1465,1418,1418,1418,1465,1350,1352,1446,1282,1259,1265,1214,1299,1209,1146,1123,1100,1176,1055,1127,1028,1077,1016,959,936,954,899,929,895,885,921,923,920,932,931,935,927,951,921,932,928,925,923,943,939,937,934,938,939,932,943,946,930,944,923,934,929,507,518,510,514,517,575,651,734,787,849,838,840,816,813,787,786,761,759,752,781,705,704,690,667,669,650,636,622,582,601,582,558,544,541,518,508,525,527,521,524,509,537,529,522,532,545,522,521,524,539,534,521,521,525,527,526,525,526,516,519,516,522,529,521,508,0,0,0,0,0,0,0,0,0,0,0,0,0,0,0,0,0,0,0,0,0,0,0,0,0,0,0,0,0,0,0,0,0,0,0,0,0,0,0,0,0,0,0,0,0,0,0,0,0,0,0,0,0,0,0,0,0,0,0,0,0,0,0,0,0 ]);
