n = 30;
D = [65,129,294,124,138,285,254,63,225,173,83,81,298,112,88,134,203,77,233,142,134,279,187,69,181,81,182,105,235,164 ];
q = 0;
prec = array2d(1..0,1..2,[]);
steps = 64;
l = 360;
r = 0;
which = [];
interval = array2d(1..0,1..2,[]);
T = array3d(1..31,1..31,0..64,[0,0,0,0,0,0,0,0,0,0,0,0,0,0,0,0,0,0,0,0,0,0,0,0,0,0,0,0,0,0,0,0,0,0,0,0,0,0,0,0,0,0,0,0,0,0,0,0,0,0,0,0,0,0,0,0,0,0,0,0,0,0,0,0,0,1324,1337,1389,1403,1567,1923,2077,2140,2225,2257,2283,2189,2151,2112,2137,2082,2141,1959,1920,1934,1873,1887,1795,1739,1759,1733,1705,1575,1600,1535,1497,1421,1386,1360,1345,1345,1351,1451,1412,1407,1411,1411,1547,1430,1426,1433,1438,1451,1510,1543,1460,1452,1481,1463,1626,1491,1471,1481,1495,1480,1473,1463,1496,1471,1489,1400,1419,1460,1550,1668,2007,2118,2409,2348,2366,2346,2328,2441,2443,2277,2194,2178,2076,2136,2003,1962,1902,1943,1869,1781,1850,1737,1660,1746,1622,1533,1535,1479,1467,1513,1423,1470,1435,1514,1521,1541,1558,1550,1555,1540,1555,1535,1554,1565,1556,1547,1571,1572,1593,1627,1619,1559,1573,1577,1565,1560,1552,1568,1587,1573,1037,1019,1019,1040,1126,1208,1365,1502,1584,1630,1627,1615,1589,1563,1537,1500,1474,1449,1423,1398,1441,1355,1321,1336,1275,1251,1219,1194,1173,1147,1121,1095,1069,1061,1045,1028,1070,1062,1043,1088,1047,1051,1091,1051,1058,1061,1069,1088,1091,1083,1074,1066,1083,1069,1105,1089,1076,1083,1119,1066,1088,1085,1103,1083,1076,1005,1007,1010,1027,1106,1269,1471,1633,1728,1757,1747,1716,1685,1654,1623,1592,1561,1530,1499,1468,1437,1406,1375,1344,1313,1297,1251,1220,1189,1158,1127,1096,1065,1038,1022,1021,1027,1032,1051,1024,1036,1034,1070,1067,1045,1045,1049,1060,1108,1087,1089,1090,1099,1084,1106,1083,1073,1106,1116,1097,1084,1082,1112,1133,1104,837,840,842,867,898,1040,1198,1378,1450,1513,1473,1456,1456,1405,1379,1354,1344,1294,1277,1242,1232,1207,1164,1154,1106,1081,1068,1113,1017,976,947,923,915,890,856,872,856,860,856,900,862,860,878,861,874,882,878,878,898,871,877,881,883,889,891,898,894,890,901,875,898,906,923,891,893,1028,1010,1013,1031,1117,1215,1372,1509,1590,1623,1629,1606,1596,1570,1528,1502,1476,1454,1424,1398,1402,1346,1320,1327,1266,1242,1216,1188,1164,1138,1112,1086,1060,1052,1039,1022,1048,1053,1038,1044,1054,1082,1042,1067,1045,1050,1046,1054,1082,1066,1095,1106,1098,1077,1065,1074,1061,1076,1101,1073,1074,1075,1051,1083,1076,1227,1255,1295,1286,1424,1682,1947,2002,2087,2099,2141,2040,2034,1998,1967,1951,1889,1913,1795,1824,1742,1728,1701,1614,1597,1623,1523,1494,1425,1432,1397,1323,1289,1262,1266,1247,1246,1313,1313,1306,1318,1327,1309,1336,1319,1326,1325,1334,1349,1336,1319,1323,1341,1344,1340,1356,1359,1341,1344,1340,1336,1336,1355,1417,1367,1050,1053,1056,1122,1161,1329,1538,1846,1793,1822,1811,1779,1906,1715,1741,1652,1620,1588,1681,1524,1493,1461,1479,1397,1366,1397,1302,1270,1324,1207,1175,1143,1111,1084,1159,1068,1073,1078,1107,1085,1098,1097,1097,1114,1105,1105,1107,1120,1145,1124,1130,1135,1134,1144,1129,1134,1123,1147,1151,1149,1145,1134,1154,1167,1169,1622,1619,1710,1769,1934,2435,2508,2583,2658,2713,2644,2631,2612,2511,2522,2454,2418,2330,2311,2291,2223,2250,2132,2165,2060,2018,1961,1901,1871,1929,1780,1700,1757,1640,1681,1590,1672,1820,1917,1851,1880,1941,1900,1945,1902,1907,1909,1917,1938,1902,1897,1939,1996,2029,1935,1904,1912,1915,1902,1895,1893,1922,1891,1933,1887,989,992,995,1011,1077,1199,1336,1455,1526,1561,1559,1536,1527,1501,1468,1446,1453,1400,1408,1355,1333,1310,1287,1265,1242,1222,1196,1174,1144,1119,1093,1084,1042,1019,1006,1003,1006,1043,1019,1035,1034,1038,1054,1023,1042,1059,1044,1034,1077,1049,1127,1127,1134,1081,1105,1113,1097,1061,1044,1038,1054,1029,1043,1084,1026,774,776,778,780,821,937,1088,1276,1376,1413,1409,1384,1359,1334,1274,1249,1224,1200,1209,1150,1125,1134,1076,1051,1027,1002,1009,984,928,903,878,854,858,804,788,787,838,795,793,807,801,815,808,806,816,830,802,801,807,814,807,805,808,814,815,813,812,810,809,813,812,827,824,836,818,182,182,183,183,184,189,214,239,264,289,305,300,295,290,286,281,276,271,266,261,256,252,247,242,237,232,227,222,218,213,208,203,198,193,188,184,185,185,180,172,172,172,172,174,172,174,172,180,173,172,173,174,173,172,175,174,173,173,173,175,173,177,175,178,177,1034,1012,1040,1087,1143,1311,1518,1638,1774,1802,1791,1760,1764,1659,1652,1633,1601,1550,1504,1492,1475,1432,1394,1328,1331,1300,1256,1237,1227,1190,1158,1127,1095,1053,1013,1051,1057,1062,1066,1057,1085,1093,1083,1104,1081,1101,1104,1105,1141,1100,1106,1143,1159,1154,1127,1100,1095,1116,1097,1092,1089,1115,1089,1123,1104,1611,1607,1693,1749,1909,2253,2482,2558,2634,2689,2621,2608,2590,2489,2501,2434,2399,2311,2293,2273,2206,2213,2116,2150,2045,2003,1947,1888,1858,1906,1769,1689,1746,1629,1670,1579,1660,1706,1880,1864,1870,1914,1903,1874,1960,1973,1886,1938,1948,1901,1900,1947,1945,1975,1950,1966,1946,1963,1965,1945,1916,1912,1888,1887,1872,1065,1046,1074,1072,1164,1325,1435,1607,1678,1682,1726,1663,1637,1610,1583,1556,1563,1502,1509,1448,1475,1403,1384,1372,1313,1332,1293,1257,1213,1178,1151,1124,1097,1088,1110,1085,1086,1090,1104,1096,1106,1150,1126,1139,1129,1099,1112,1126,1129,1119,1105,1118,1158,1188,1119,1122,1126,1108,1111,1123,1114,1119,1113,1126,1104,1051,1054,1056,1079,1181,1336,1545,1723,1779,1854,1815,1783,1751,1756,1705,1673,1623,1625,1566,1527,1511,1478,1430,1414,1382,1368,1332,1284,1239,1207,1187,1143,1124,1084,1069,1083,1086,1103,1092,1126,1116,1128,1135,1119,1128,1160,1122,1121,1145,1107,1134,1128,1146,1145,1306,1256,1167,1133,1139,1123,1114,1113,1130,1176,1112,226,227,227,228,229,236,267,297,328,358,374,368,363,357,351,345,339,333,327,322,316,310,304,298,292,286,281,275,269,263,257,251,245,240,234,229,230,231,219,219,223,220,223,223,222,228,224,228,220,227,223,235,226,228,226,232,225,223,219,228,225,222,217,224,220,295,296,297,298,299,314,356,398,439,480,494,486,478,470,462,455,447,439,431,423,415,407,399,391,383,376,368,360,352,344,336,328,320,312,304,300,301,301,291,286,291,291,288,297,293,301,299,294,301,291,293,292,292,296,296,294,292,294,293,292,293,295,294,302,297,1029,992,988,1066,1110,1306,1446,1596,1676,1759,1717,1716,1664,1638,1612,1585,1544,1530,1484,1480,1456,1407,1377,1346,1290,1261,1294,1231,1186,1135,1109,1081,1070,1043,1009,1057,1010,1015,1036,1032,1052,1058,1065,1101,1062,1081,1074,1075,1106,1081,1089,1090,1087,1096,1063,1065,1072,1083,1073,1068,1080,1092,1073,1083,1087,704,706,709,711,779,807,914,1021,1110,1194,1155,1166,1147,1100,1082,1063,1045,1026,1008,1044,971,953,935,916,947,880,861,863,885,827,808,769,751,733,719,715,717,719,718,740,709,721,710,722,715,725,733,725,739,756,747,747,740,767,754,738,733,736,755,752,748,767,771,759,747,1165,1169,1218,1211,1388,1557,1819,1887,1977,2027,2044,1953,1919,1884,1913,1862,1824,1746,1711,1729,1642,1661,1572,1538,1572,1551,1466,1399,1365,1367,1333,1261,1246,1200,1226,1184,1190,1237,1237,1275,1238,1239,1269,1242,1259,1264,1262,1262,1277,1267,1285,1269,1271,1281,1284,1281,1282,1284,1318,1281,1305,1313,1333,1291,1287,934,936,939,975,1014,1161,1346,1509,1606,1638,1630,1601,1608,1544,1501,1486,1457,1408,1399,1355,1341,1300,1265,1232,1208,1179,1167,1122,1115,1080,1051,1022,993,952,936,949,954,959,962,971,985,1011,1024,1032,1034,991,996,1022,978,969,980,986,984,976,1009,997,970,968,978,974,969,978,989,1012,969,1031,1034,1049,1071,1157,1327,1536,1694,1769,1816,1806,1756,1742,1785,1679,1647,1598,1617,1584,1503,1487,1454,1422,1391,1359,1346,1324,1262,1232,1200,1167,1136,1104,1064,1062,1114,1066,1096,1114,1126,1113,1199,1162,1154,1143,1144,1151,1183,1153,1164,1158,1150,1124,1138,1137,1158,1162,1133,1152,1174,1147,1141,1158,1137,1129,1289,1301,1351,1361,1520,1869,2024,2088,2174,2207,2234,2140,2102,2065,2090,2036,1996,1914,1876,1891,1830,1845,1753,1698,1719,1694,1667,1537,1563,1498,1461,1386,1351,1324,1310,1309,1315,1415,1369,1378,1387,1412,1397,1402,1389,1404,1386,1386,1401,1391,1422,1437,1424,1404,1402,1414,1411,1422,1421,1397,1421,1421,1406,1406,1402,1326,1330,1338,1447,1536,1750,1985,2291,2221,2242,2233,2195,2325,2118,2127,2040,2002,1963,2047,1886,1848,1803,1813,1726,1688,1717,1611,1573,1623,1513,1458,1424,1389,1362,1438,1343,1353,1355,1430,1429,1438,1445,1465,1506,1458,1490,1481,1496,1506,1495,1483,1495,1488,1498,1466,1466,1489,1482,1473,1496,1487,1499,1478,1488,1482,761,763,767,769,815,925,1077,1226,1327,1391,1361,1336,1344,1294,1262,1235,1243,1186,1163,1139,1114,1089,1065,1058,1021,991,966,941,917,892,867,842,816,793,777,776,780,784,775,776,771,782,809,846,787,781,785,794,793,786,794,790,793,793,808,793,789,795,785,798,804,807,825,794,792,1340,1367,1430,1494,1584,1873,2027,2225,2259,2372,2260,2221,2248,2143,2141,2065,2040,1986,2010,1909,1869,1848,1846,1844,1712,1709,1650,1595,1584,1551,1494,1475,1408,1377,1393,1398,1368,1389,1448,1445,1452,1475,1473,1478,1476,1502,1473,1486,1486,1483,1484,1507,1529,1522,1502,1490,1472,1483,1472,1467,1458,1488,1474,1493,1453,1378,1391,1423,1474,1610,1784,1980,2138,2240,2240,2234,2177,2203,2144,2073,2157,2001,1976,1999,1949,1861,1825,1790,1755,1731,1684,1719,1661,1589,1558,1523,1493,1457,1414,1451,1402,1409,1425,1487,1520,1473,1489,1513,1501,1506,1531,1504,1512,1543,1503,1513,1534,1539,1539,1518,1541,1539,1537,1574,1506,1522,1528,1563,1521,1509,825,827,830,849,884,1025,1183,1362,1435,1497,1491,1441,1441,1390,1365,1339,1329,1279,1263,1228,1212,1186,1150,1178,1092,1085,1047,1101,995,979,935,932,892,867,841,854,844,848,844,864,852,885,851,870,860,882,869,875,864,862,871,869,881,883,883,888,879,874,889,878,886,892,882,891,890,0,0,0,0,0,0,0,0,0,0,0,0,0,0,0,0,0,0,0,0,0,0,0,0,0,0,0,0,0,0,0,0,0,0,0,0,0,0,0,0,0,0,0,0,0,0,0,0,0,0,0,0,0,0,0,0,0,0,0,0,0,0,0,0,0,1212,1238,1220,1304,1520,1720,1889,2030,2096,2114,2097,2133,2023,2051,1974,1933,1894,1892,1852,1812,1737,1694,1693,1620,1613,1547,1533,1494,1454,1414,1364,1327,1296,1268,1264,1265,1273,1335,1357,1344,1340,1430,1396,1391,1384,1368,1390,1430,1384,1448,1487,1451,1363,1410,1409,1409,1404,1383,1470,1567,1519,1510,1521,1437,1438,0,0,0,0,0,0,0,0,0,0,0,0,0,0,0,0,0,0,0,0,0,0,0,0,0,0,0,0,0,0,0,0,0,0,0,0,0,0,0,0,0,0,0,0,0,0,0,0,0,0,0,0,0,0,0,0,0,0,0,0,0,0,0,0,0,846,864,851,856,891,996,1128,1257,1344,1380,1379,1357,1358,1313,1291,1269,1247,1260,1203,1181,1180,1138,1115,1113,1071,1082,1033,1006,1001,962,941,935,897,876,862,884,877,863,905,859,848,861,919,965,888,874,885,897,924,888,897,905,906,901,877,900,923,920,932,950,896,905,953,878,877,506,508,509,511,516,616,655,724,799,845,852,835,836,810,837,785,773,760,732,732,705,692,698,665,651,692,638,611,598,584,571,557,558,531,518,514,547,531,516,516,518,530,516,517,516,519,519,514,516,513,517,518,518,519,519,519,521,524,522,529,521,532,519,524,522,940,923,915,940,996,1127,1238,1392,1451,1487,1479,1456,1433,1424,1386,1365,1347,1338,1300,1342,1246,1223,1206,1183,1152,1136,1108,1082,1065,1035,1017,995,970,951,927,933,941,910,959,921,925,930,980,961,963,963,948,982,957,942,958,929,934,951,948,938,959,935,930,952,950,974,959,962,954,648,650,652,654,672,739,836,934,1020,1062,1067,1048,1031,1014,997,982,963,946,931,912,895,878,863,845,828,811,794,777,760,743,726,709,694,675,662,658,660,663,664,670,664,671,678,669,671,678,662,670,668,668,666,675,674,675,671,671,674,669,677,684,671,680,666,672,671,513,515,516,518,523,577,646,715,790,836,843,826,827,801,789,776,764,751,739,723,712,699,689,672,658,652,629,618,605,591,578,564,549,538,525,521,538,522,521,522,513,524,524,525,539,545,524,522,527,540,534,523,525,533,530,531,529,531,521,524,521,527,530,525,516,244,244,245,246,247,258,292,327,361,395,409,403,396,389,383,376,370,363,357,350,344,337,330,324,317,311,301,298,291,285,278,272,265,258,252,248,248,249,236,239,240,240,239,240,241,240,240,241,241,241,241,239,240,241,241,241,240,242,241,243,242,243,242,240,240,498,499,501,502,506,548,619,691,762,809,817,804,791,779,766,753,740,727,714,702,689,676,663,650,637,624,616,599,586,573,560,547,535,522,510,505,506,508,501,510,499,529,500,519,503,526,509,518,511,503,516,513,521,517,517,516,521,515,529,514,515,531,525,534,533,461,463,464,466,469,506,573,637,707,757,765,753,741,729,713,704,692,680,668,655,640,628,619,604,594,582,570,558,546,534,521,509,497,485,473,468,470,471,447,450,460,479,454,454,449,454,453,450,454,457,452,456,456,460,458,462,457,461,458,461,463,473,471,475,472,914,917,920,929,1006,1144,1242,1361,1490,1517,1490,1465,1443,1419,1421,1371,1431,1324,1330,1300,1295,1228,1203,1179,1157,1119,1109,1086,1062,1053,1014,990,967,944,950,946,931,933,943,939,948,996,968,976,963,943,963,973,982,959,985,986,1009,991,1001,976,960,959,955,960,957,962,952,994,947,813,816,826,822,900,954,1080,1205,1291,1328,1326,1321,1284,1263,1242,1221,1200,1193,1158,1137,1116,1095,1074,1052,1031,1010,989,968,947,926,905,884,873,842,829,825,828,848,827,836,837,859,850,840,843,858,840,855,855,866,898,896,914,902,856,852,860,854,859,851,860,866,852,861,852,1237,1204,1210,1266,1479,1718,1844,1986,2052,2071,2054,2091,1981,1945,1933,1962,1836,1800,1754,1815,1691,1655,1619,1583,1546,1510,1474,1438,1393,1357,1329,1360,1277,1233,1223,1253,1229,1300,1296,1299,1302,1317,1329,1338,1325,1332,1317,1343,1338,1334,1329,1359,1375,1367,1357,1335,1319,1333,1319,1315,1306,1337,1326,1334,1298,800,806,809,812,849,995,1178,1135,1220,1297,1295,1237,1255,1355,1177,1194,1174,1168,1133,1091,1092,1072,1051,1031,1011,990,970,949,929,908,888,868,847,833,828,816,818,820,820,822,820,830,830,828,827,841,816,829,822,821,825,838,837,835,832,832,829,827,844,848,824,830,828,832,828,451,452,453,455,457,491,554,613,680,730,739,727,716,704,689,681,669,658,646,635,620,608,600,585,577,566,554,542,531,519,508,496,485,473,462,457,458,460,454,455,456,473,494,481,467,499,478,495,499,504,584,538,547,529,473,460,500,469,461,483,479,494,486,479,478,525,526,528,530,536,584,662,739,816,861,868,854,840,826,812,798,785,771,794,743,729,788,702,688,674,660,646,633,619,605,591,577,563,550,537,533,561,536,526,541,530,562,527,552,532,556,540,548,544,536,550,541,554,553,550,548,554,549,561,547,549,557,552,562,563,447,448,450,451,454,489,544,605,666,712,720,709,717,687,676,665,654,658,631,634,609,598,587,576,564,553,542,555,543,509,498,487,474,470,467,454,455,456,448,452,453,458,461,470,463,477,470,458,476,464,460,462,462,473,458,460,467,467,462,461,461,469,455,468,457,1139,1126,1129,1172,1367,1487,1710,1855,1924,1946,1930,1970,1862,1828,1817,1759,1725,1691,1647,1623,1589,1554,1520,1486,1452,1418,1383,1349,1307,1273,1247,1212,1178,1154,1144,1173,1150,1220,1184,1173,1188,1207,1184,1208,1185,1197,1192,1203,1222,1213,1204,1216,1214,1229,1212,1222,1214,1223,1228,1236,1223,1227,1218,1241,1237,1149,1152,1156,1208,1388,1534,1759,1903,1971,1991,1979,2014,1905,1870,1940,1800,1765,1730,1686,1663,1625,1590,1558,1520,1485,1450,1415,1383,1337,1305,1275,1240,1279,1181,1171,1171,1177,1247,1235,1234,1235,1267,1254,1273,1243,1249,1249,1248,1279,1257,1272,1268,1257,1269,1283,1273,1249,1254,1269,1259,1254,1253,1253,1281,1248,534,536,537,539,543,586,766,730,801,848,855,842,830,817,804,791,816,765,752,777,726,713,700,687,674,661,649,636,623,700,597,584,571,558,546,542,543,544,536,540,541,567,544,556,540,548,542,534,552,546,576,587,583,555,545,556,555,557,561,548,548,563,538,549,545,1495,1504,1542,1676,1885,2159,2459,2472,2527,2572,2530,2498,2480,2408,2332,2288,2257,2207,2155,2123,2161,2021,1978,1949,1915,1843,1843,1780,1743,1689,1644,1617,1539,1523,1537,1529,1549,1546,1635,1652,1658,1688,1708,1679,1683,1695,1671,1688,1665,1654,1678,1678,1683,1688,1710,1693,1679,1667,1678,1664,1667,1685,1692,1703,1679,270,271,272,273,274,287,324,361,398,435,448,441,434,427,420,413,406,399,392,385,378,371,364,356,349,342,335,328,321,314,307,300,293,286,279,275,275,276,268,271,269,269,271,270,272,274,269,271,266,269,271,274,276,274,276,272,270,269,278,284,270,273,271,273,273,725,706,708,710,732,858,979,1004,1090,1129,1130,1113,1096,1171,1061,1043,1025,1023,990,986,955,937,920,902,885,867,849,832,814,796,778,761,743,731,727,714,716,718,717,709,722,713,736,758,718,718,724,737,739,733,737,743,739,741,732,733,723,739,724,745,740,740,736,738,758,414,416,417,418,420,451,502,558,615,660,670,659,649,639,628,618,607,612,587,590,566,556,545,535,524,514,504,493,483,472,462,452,440,436,434,421,422,423,417,410,429,418,414,431,416,427,433,426,446,429,431,432,430,437,425,424,420,434,422,426,427,425,418,432,446,141,141,142,142,143,146,165,184,203,223,236,232,228,225,221,217,213,210,206,202,198,195,191,187,184,180,176,172,169,165,161,157,154,150,146,143,144,144,132,132,131,134,132,133,132,134,132,132,131,131,133,131,133,133,131,133,132,134,133,131,133,135,133,132,132,742,735,746,739,765,856,955,1066,1156,1196,1198,1179,1174,1141,1122,1103,1084,1065,1046,1027,1008,989,970,951,932,924,899,875,856,837,818,799,817,761,747,744,746,748,740,735,744,751,751,760,752,760,746,769,760,747,752,744,748,759,755,754,758,745,745,752,753,760,753,776,756,777,783,777,785,821,905,1013,1122,1211,1272,1263,1225,1227,1210,1176,1148,1136,1126,1090,1085,1065,1045,1018,1010,989,963,936,928,902,882,863,844,825,804,788,777,779,781,783,781,791,806,801,793,791,798,797,807,809,798,804,838,859,841,831,809,800,810,806,800,791,816,799,817,794,1061,1089,1031,1084,1160,1266,1406,1608,1647,1648,1710,1672,1663,1567,1601,1563,1520,1512,1491,1474,1402,1374,1388,1297,1327,1245,1272,1245,1190,1162,1135,1107,1103,1086,1073,1075,1043,1075,1087,1103,1085,1127,1105,1073,1139,1108,1100,1112,1129,1114,1081,1097,1127,1121,1133,1085,1100,1122,1169,1100,1097,1105,1098,1084,1087,333,334,335,336,337,357,385,430,474,541,552,544,535,503,517,486,478,491,461,453,445,436,447,419,430,402,412,386,395,386,377,369,344,336,342,338,323,324,322,325,323,333,333,335,327,334,325,327,338,351,365,376,372,343,332,337,341,349,346,331,335,338,325,328,330,637,647,641,643,669,737,822,933,1006,1048,1051,1034,1017,1000,984,967,950,933,916,900,883,866,849,832,815,799,782,765,748,731,714,698,681,664,650,647,648,659,644,652,638,654,649,651,656,674,648,644,651,659,655,647,649,653,654,654,651,656,651,656,644,661,653,654,642,1212,1238,1220,1304,1520,1720,1889,2030,2096,2114,2097,2133,2023,2051,1974,1933,1894,1892,1852,1812,1737,1694,1693,1620,1613,1547,1533,1494,1454,1414,1364,1327,1296,1268,1264,1265,1273,1335,1357,1344,1340,1430,1396,1391,1384,1368,1390,1430,1384,1448,1487,1451,1363,1410,1409,1409,1404,1383,1470,1567,1519,1510,1521,1437,1438,1335,1305,1327,1403,1550,1786,2055,2186,2199,2217,2210,2134,2187,2081,2053,2034,2058,1980,1978,1906,1870,1788,1741,1708,1682,1682,1615,1601,1516,1493,1417,1390,1337,1348,1355,1338,1362,1345,1382,1428,1386,1402,1417,1399,1405,1417,1413,1418,1424,1410,1424,1412,1421,1421,1432,1432,1434,1432,1458,1406,1432,1438,1455,1435,1429,743,760,718,718,738,813,935,1036,1116,1166,1218,1150,1127,1113,1090,1076,1057,1039,1020,1044,983,1006,961,928,905,891,869,853,832,851,795,779,761,742,729,725,727,761,731,735,730,737,746,745,770,778,744,756,753,760,775,771,771,782,761,748,754,745,738,756,745,755,748,760,743,0,0,0,0,0,0,0,0,0,0,0,0,0,0,0,0,0,0,0,0,0,0,0,0,0,0,0,0,0,0,0,0,0,0,0,0,0,0,0,0,0,0,0,0,0,0,0,0,0,0,0,0,0,0,0,0,0,0,0,0,0,0,0,0,0,882,899,909,925,958,1076,1199,1320,1407,1469,1477,1430,1394,1395,1361,1361,1326,1286,1263,1256,1232,1200,1177,1162,1138,1117,1093,1071,1026,1076,980,970,990,929,920,912,912,901,930,939,911,917,937,925,976,927,921,962,931,923,919,945,928,925,950,929,932,960,989,935,934,931,929,925,925,804,750,752,759,788,866,987,1143,1220,1234,1229,1215,1190,1176,1197,1136,1116,1097,1072,1128,1059,1018,1009,978,964,939,914,918,910,860,869,820,800,781,767,763,765,821,768,782,776,790,783,779,791,804,777,777,781,787,783,779,782,789,790,787,786,785,784,787,786,805,802,812,795,721,723,726,824,754,833,943,1053,1141,1181,1182,1163,1144,1125,1107,1088,1069,1050,1031,1013,994,975,956,937,919,900,881,862,843,858,837,787,768,749,736,732,734,736,735,738,737,753,741,748,741,763,749,739,756,740,744,745,741,749,744,747,744,754,747,748,741,755,741,752,743,889,890,900,916,949,1067,1190,1311,1398,1460,1468,1421,1398,1402,1352,1352,1333,1293,1270,1263,1239,1191,1168,1169,1145,1108,1100,1062,1033,1036,987,961,956,936,911,919,903,908,932,929,923,930,948,935,938,936,937,940,936,938,945,940,945,942,937,943,942,943,935,951,945,954,935,936,932,647,649,651,653,683,753,875,936,1023,1065,1067,1050,1071,1016,999,997,965,948,931,914,896,879,862,845,828,824,794,777,760,743,726,709,691,674,661,657,659,672,648,642,663,677,656,674,652,669,655,661,668,656,655,662,663,675,667,667,659,663,666,668,666,664,657,675,669,377,378,380,381,382,407,459,511,564,610,620,610,601,591,581,571,562,552,542,533,523,513,504,494,484,475,465,455,446,436,426,416,407,397,387,383,384,385,373,376,376,384,426,418,399,431,404,427,414,429,416,388,395,420,401,385,430,402,388,416,410,433,419,407,403,796,798,800,785,838,905,1025,1145,1253,1286,1292,1272,1232,1231,1192,1171,1151,1150,1129,1090,1070,1064,1029,1009,1007,991,1010,928,922,908,867,851,826,806,812,807,844,793,829,840,815,824,816,837,828,843,845,894,835,876,871,874,852,927,879,829,831,824,862,888,873,904,883,884,856,1356,1320,1334,1397,1535,1726,1927,2071,2132,2175,2153,2213,2116,2087,1976,1954,1933,1917,1841,1807,1880,1739,1706,1732,1638,1617,1614,1536,1503,1470,1532,1402,1371,1349,1373,1336,1340,1354,1440,1392,1394,1434,1390,1413,1388,1413,1414,1428,1418,1414,1427,1409,1443,1426,1457,1418,1428,1420,1405,1420,1428,1413,1425,1435,1412,886,885,878,888,933,1048,1188,1320,1388,1424,1435,1419,1376,1366,1344,1321,1285,1263,1240,1235,1226,1172,1161,1139,1116,1082,1070,1047,1014,1007,969,961,933,902,889,895,898,899,894,893,904,894,897,911,931,914,899,925,934,929,924,923,925,938,923,928,916,922,923,922,923,921,916,952,944,1297,1271,1305,1362,1509,1741,2010,2142,2155,2174,2168,2092,2079,2040,2036,1974,1964,1912,1914,1871,1777,1746,1703,1670,1636,1620,1577,1543,1480,1480,1401,1341,1327,1308,1346,1303,1328,1310,1352,1396,1351,1364,1373,1363,1371,1383,1378,1381,1402,1369,1381,1384,1388,1390,1387,1405,1404,1397,1407,1371,1404,1412,1427,1389,1386,555,557,558,560,567,618,698,740,858,883,912,897,883,869,817,820,825,811,797,782,768,754,722,725,710,696,682,667,624,638,597,595,595,581,568,563,552,566,559,578,547,547,568,557,559,565,570,569,598,590,605,595,578,582,585,586,569,587,618,602,600,601,624,607,591,814,791,790,773,803,886,1001,1117,1293,1246,1312,1257,1208,1217,1169,1149,1129,1136,1122,1070,1051,1031,1011,992,1022,975,995,913,893,895,854,839,815,795,800,797,833,782,802,790,786,793,791,797,818,821,809,799,797,795,792,799,804,794,831,797,807,804,800,816,833,808,792,805,794,901,904,922,931,967,1110,1247,1364,1463,1499,1494,1445,1421,1421,1374,1374,1351,1311,1287,1280,1304,1210,1187,1184,1160,1136,1158,1104,1046,1041,999,976,953,948,936,931,917,920,938,944,962,984,999,1000,1008,966,965,996,954,944,955,962,959,952,983,971,946,946,957,951,943,953,965,984,946,484,486,487,489,492,535,605,722,746,793,800,788,775,762,749,782,724,711,699,686,673,660,648,635,622,610,622,620,571,559,546,533,520,508,496,491,493,494,495,486,490,492,496,495,494,493,500,496,498,495,502,498,502,495,493,502,495,504,495,494,500,498,495,493,488,1218,1192,1221,1265,1396,1610,1877,2012,2028,2049,2045,1971,1960,1923,1898,1862,1854,1804,1807,1755,1674,1646,1605,1574,1542,1529,1518,1455,1394,1358,1319,1262,1248,1229,1236,1224,1248,1231,1267,1260,1282,1323,1292,1303,1290,1285,1296,1304,1304,1284,1296,1327,1350,1338,1320,1307,1285,1310,1289,1287,1283,1317,1302,1327,1287,1245,1219,1233,1299,1437,1658,1930,2060,2078,2094,2090,2015,2003,1966,1939,1902,1893,1820,1823,1758,1711,1684,1640,1608,1575,1563,1498,1486,1426,1387,1347,1289,1275,1256,1246,1251,1278,1258,1309,1318,1319,1333,1341,1369,1335,1356,1325,1360,1352,1371,1329,1337,1359,1374,1353,1367,1363,1380,1359,1349,1343,1346,1352,1349,1322,818,821,823,869,867,962,1124,1231,1333,1338,1421,1348,1327,1306,1286,1230,1244,1223,1202,1181,1123,1102,1119,1059,1038,1017,996,974,953,982,911,889,868,847,834,873,833,835,838,830,833,835,852,827,838,843,836,846,852,851,852,897,853,853,902,859,854,856,855,851,855,859,866,866,869,1795,1838,1956,2155,2449,2709,2935,3042,3044,3054,3062,2934,2999,2854,2915,2844,2736,2675,2730,2593,2496,2528,2395,2452,2323,2273,2306,2223,2103,2106,1986,1939,1887,1841,1857,1870,1878,1909,2244,2223,2206,2264,2322,2291,2253,2290,2343,2313,2370,2340,2371,2423,2389,2420,2397,2393,2429,2413,2475,2420,2431,2479,2463,2459,2421,603,605,607,609,621,681,771,861,945,989,992,976,961,945,929,913,983,882,866,850,835,819,803,787,772,756,740,724,709,693,677,661,646,630,616,612,614,616,661,603,601,606,599,606,600,608,599,619,602,595,601,603,617,598,617,605,605,603,605,606,606,605,598,606,605,629,643,645,647,631,691,805,875,1052,1025,1051,1035,1018,961,945,949,913,935,881,902,870,869,816,800,819,802,785,790,720,726,692,688,686,687,655,651,639,635,639,633,646,661,655,652,646,652,649,661,666,662,659,694,714,695,686,663,654,671,660,654,647,670,657,670,651,541,542,544,546,542,605,685,750,875,890,895,880,866,852,838,808,809,780,766,752,738,724,723,709,695,668,691,640,637,623,609,595,580,566,543,549,550,571,571,541,534,537,555,559,555,553,550,557,583,565,571,576,577,583,552,561,577,583,595,593,562,568,591,557,555,708,725,700,699,718,792,925,1011,1091,1141,1167,1126,1103,1089,1067,1053,1035,1016,998,999,962,962,940,907,885,870,848,834,812,813,776,761,742,724,710,706,708,725,710,707,706,715,710,733,744,733,715,724,737,726,722,717,718,741,741,725,724,722,720,724,723,723,726,762,722,189,189,190,190,191,196,219,243,266,290,304,299,295,290,286,281,277,272,268,263,259,254,249,245,240,236,231,227,222,218,213,208,204,199,195,191,192,192,179,178,182,186,181,181,180,182,181,186,181,181,186,188,193,190,186,182,184,186,185,188,185,190,184,185,185,848,851,853,960,904,1003,1140,1277,1350,1402,1408,1362,1339,1339,1298,1277,1254,1232,1209,1187,1165,1143,1121,1098,1076,1054,1032,1010,987,963,939,921,896,877,864,861,864,865,867,871,869,883,884,878,888,896,868,885,881,874,884,893,892,884,912,893,876,874,885,879,867,881,882,890,876,304,305,306,307,308,324,367,411,454,496,509,501,493,485,477,468,460,452,444,436,428,420,411,403,395,387,379,371,362,354,346,338,330,322,314,309,310,310,300,305,309,314,314,319,305,320,303,322,308,303,309,314,320,328,317,312,314,305,319,319,310,317,302,309,303,900,933,936,934,999,1170,1257,1368,1460,1485,1554,1488,1407,1429,1481,1395,1360,1332,1312,1290,1265,1242,1200,1192,1147,1147,1123,1096,1078,1036,991,991,967,960,947,944,938,915,931,946,946,963,970,959,957,969,950,958,951,950,952,969,966,976,1060,1023,970,963,971,959,951,960,977,974,959,710,720,714,812,742,820,930,1039,1127,1168,1168,1149,1131,1112,1093,1075,1056,1037,1019,1000,981,962,944,925,906,888,869,850,832,813,834,775,757,738,724,721,723,725,724,720,730,754,737,738,729,737,737,741,747,731,743,772,795,774,767,753,730,755,736,731,728,759,744,756,730,1335,1305,1327,1403,1550,1786,2055,2186,2199,2217,2210,2134,2187,2081,2053,2034,2058,1980,1978,1906,1870,1788,1741,1708,1682,1682,1615,1601,1516,1493,1417,1390,1337,1348,1355,1338,1362,1345,1382,1428,1386,1402,1417,1399,1405,1417,1413,1418,1424,1410,1424,1412,1421,1421,1432,1432,1434,1432,1458,1406,1432,1438,1455,1435,1429,906,897,922,948,990,1188,1307,1502,1533,1567,1554,1558,1500,1487,1437,1421,1454,1368,1331,1364,1298,1305,1235,1208,1215,1185,1124,1126,1108,1049,1007,1007,970,921,909,939,944,941,944,961,955,966,992,985,978,993,963,996,982,1006,975,976,994,1013,992,1000,994,1005,992,983,982,991,988,990,967,575,578,578,579,607,643,734,907,944,942,1015,924,914,954,890,944,929,845,880,817,782,789,755,742,731,715,704,708,674,661,671,652,620,607,594,582,584,585,580,579,583,585,585,582,587,593,594,583,584,583,584,583,587,586,610,599,586,587,590,588,590,587,586,588,585,1107,1115,1100,1158,1219,1326,1484,1633,1704,1743,1724,1747,1636,1610,1586,1612,1558,1598,1486,1514,1436,1445,1396,1370,1337,1337,1286,1250,1254,1229,1175,1221,1126,1131,1118,1091,1120,1097,1146,1139,1128,1144,1144,1150,1136,1167,1162,1158,1149,1218,1190,1193,1166,1228,1185,1200,1180,1161,1188,1229,1207,1195,1206,1195,1204,0,0,0,0,0,0,0,0,0,0,0,0,0,0,0,0,0,0,0,0,0,0,0,0,0,0,0,0,0,0,0,0,0,0,0,0,0,0,0,0,0,0,0,0,0,0,0,0,0,0,0,0,0,0,0,0,0,0,0,0,0,0,0,0,0,777,773,781,766,797,883,1003,1112,1192,1200,1191,1194,1157,1140,1123,1106,1089,1089,1054,1037,1020,1019,997,994,951,941,917,888,871,854,850,820,803,786,784,769,771,773,778,775,776,784,781,798,816,814,791,799,807,800,794,793,790,818,809,802,794,790,782,795,793,795,791,821,791,395,391,392,393,394,422,465,527,576,589,590,583,576,568,561,553,546,539,531,524,518,509,513,504,489,487,472,452,445,438,430,423,416,409,398,395,396,397,387,391,391,395,402,401,395,416,396,404,402,406,416,432,422,417,411,410,408,402,396,407,401,411,391,402,397,72,72,72,72,72,72,72,72,72,72,72,72,72,72,72,72,72,72,72,72,72,72,72,72,72,72,72,72,72,72,72,72,72,72,72,72,72,72,46,46,47,47,47,47,47,47,48,47,47,48,48,48,48,48,48,49,48,48,48,49,49,55,55,56,55,403,406,405,406,407,447,471,550,596,640,657,648,642,582,610,609,588,579,570,560,551,538,543,523,516,514,498,486,477,476,455,457,439,438,419,408,409,410,409,410,410,410,423,424,441,425,414,432,427,425,424,417,419,435,422,425,427,417,417,422,419,429,424,445,422,733,729,749,779,759,837,932,1051,1131,1141,1131,1205,1101,1084,1069,1106,1037,1021,1005,989,973,956,951,934,909,900,876,849,833,817,801,785,770,754,740,737,739,741,729,726,744,761,749,728,744,772,755,753,775,755,747,746,787,782,774,739,747,752,764,767,745,755,747,752,747,886,883,919,883,973,1044,1212,1351,1404,1456,1379,1428,1341,1323,1253,1281,1257,1239,1273,1251,1179,1154,1189,1112,1109,1122,1108,1030,1006,999,962,945,932,942,882,880,887,927,920,916,911,917,931,920,925,920,923,922,921,922,930,928,931,927,923,929,927,928,921,936,930,938,919,921,919,582,584,585,587,598,698,753,830,880,934,932,920,912,897,885,874,861,823,809,795,826,768,774,781,727,713,700,686,672,696,688,631,618,604,612,590,628,612,601,602,598,611,616,602,610,609,606,611,618,628,701,702,706,645,632,631,624,629,613,614,626,606,618,611,607,560,556,568,653,669,633,784,776,864,976,971,957,944,823,917,800,788,776,765,753,741,730,814,778,695,769,672,647,716,624,624,601,590,578,565,562,564,565,556,562,561,561,569,569,570,567,568,572,568,569,577,578,578,569,569,583,576,578,579,571,580,575,573,572,567,884,879,888,912,952,1070,1200,1322,1399,1524,1420,1398,1377,1356,1334,1312,1290,1269,1247,1233,1204,1183,1173,1136,1118,1096,1075,1053,1039,1013,987,954,935,910,890,898,902,926,898,915,913,921,944,920,921,952,919,925,927,909,921,930,946,948,1098,1043,952,935,936,928,915,915,930,947,912,755,765,810,781,807,909,1028,1145,1239,1206,1237,1197,1209,1191,1128,1148,1137,1112,1059,1023,1025,1041,1016,1015,987,959,917,921,904,876,868,851,815,801,776,785,806,757,777,774,790,816,800,797,782,797,791,821,804,802,859,879,920,881,836,807,805,820,806,798,804,828,800,823,793,875,872,907,871,956,1023,1186,1323,1377,1430,1353,1404,1317,1300,1230,1259,1235,1218,1253,1231,1160,1136,1171,1095,1092,1106,1093,1016,992,986,949,933,921,931,871,869,876,916,870,876,884,897,896,896,881,898,879,923,899,915,900,905,923,944,923,908,919,912,915,916,921,928,904,912,906,119,120,120,120,120,122,141,149,158,166,171,170,168,166,165,163,161,160,158,156,155,153,152,150,148,147,145,143,142,140,138,137,135,133,122,120,121,121,110,112,106,109,111,110,112,118,109,109,111,116,113,109,110,111,111,110,111,111,109,110,108,110,111,109,105,518,514,533,517,510,568,629,713,748,794,791,763,751,760,717,738,728,717,689,696,685,675,648,663,643,639,622,598,588,567,567,556,546,535,522,519,509,522,524,516,526,518,527,536,521,529,532,526,537,529,534,537,537,545,540,536,526,542,532,546,538,534,531,542,555,806,800,809,829,857,979,1136,1279,1357,1394,1383,1391,1335,1325,1276,1263,1263,1215,1181,1167,1134,1119,1095,1071,1047,1023,999,975,951,927,903,871,855,831,811,819,823,827,829,835,829,841,839,846,836,859,832,840,836,833,833,851,848,847,844,847,847,840,852,856,840,853,832,844,839,832,827,836,840,890,1003,1125,1243,1321,1352,1344,1324,1304,1284,1263,1242,1222,1202,1181,1168,1140,1120,1112,1076,1059,1038,1018,997,977,957,936,900,882,858,838,846,852,867,851,853,856,863,869,855,868,875,866,858,868,860,864,863,882,889,908,909,884,875,877,866,868,873,875,878,869,215,215,216,206,206,204,206,209,212,214,216,215,215,214,213,213,212,212,211,211,210,210,209,209,208,208,207,207,213,205,205,204,204,203,203,206,218,203,181,181,180,182,182,186,182,184,186,185,184,185,184,185,185,184,186,187,187,187,186,186,188,188,187,188,187,1289,1239,1246,1296,1420,1571,1866,1878,1975,1998,1958,2095,1886,2017,1826,1795,1765,1735,1705,1675,1656,1683,1596,1551,1541,1517,1464,1495,1425,1478,1403,1313,1322,1264,1268,1253,1256,1269,1297,1295,1302,1305,1300,1311,1309,1326,1321,1321,1333,1319,1327,1332,1325,1334,1343,1333,1336,1337,1335,1330,1340,1343,1332,1351,1340,415,416,417,406,419,451,473,559,623,664,659,649,623,583,616,611,585,593,568,574,564,541,546,522,489,517,504,499,489,480,459,461,441,442,423,417,410,410,409,411,414,426,419,417,417,434,416,426,425,438,462,462,470,458,420,416,425,430,424,424,425,429,420,420,418,680,690,710,680,692,775,875,973,1068,1078,1071,1034,1049,1034,1011,996,988,966,951,917,921,906,884,886,861,836,796,803,789,764,759,744,711,700,700,683,704,681,685,697,687,703,701,710,697,720,698,699,699,692,694,706,706,709,706,703,706,698,715,715,699,715,693,708,702,433,428,447,430,432,466,514,585,639,655,654,707,637,629,620,612,604,595,587,578,570,561,564,554,536,534,519,498,489,481,472,464,456,447,436,433,434,435,424,416,430,448,438,433,425,434,435,445,439,440,453,492,518,490,472,442,427,458,439,432,427,449,439,457,431,557,558,558,562,570,623,712,779,890,889,885,873,863,853,841,824,811,798,784,771,761,745,735,718,711,695,684,668,652,642,652,615,602,589,567,565,566,567,564,579,568,583,584,588,575,595,575,578,576,572,572,584,583,584,580,582,583,577,594,593,576,588,572,586,579,978,965,1022,1006,1041,1160,1296,1445,1519,1522,1521,1552,1464,1440,1419,1497,1375,1353,1331,1322,1287,1310,1296,1230,1199,1184,1154,1121,1099,1077,1055,1033,1011,991,1014,976,1015,1017,1047,1006,1006,1007,1038,1060,1032,1036,1035,1051,1089,1054,1061,1066,1050,1049,1029,1044,1054,1070,1073,1074,1038,1029,1078,1022,1013,365,366,367,368,369,394,437,480,523,555,560,558,544,542,528,526,518,510,502,494,480,478,470,462,453,445,437,429,421,413,405,393,389,381,373,370,371,372,360,363,363,376,369,365,365,374,362,366,369,376,371,366,378,383,363,366,370,374,369,361,370,379,368,370,365,1165,1056,1189,1081,1213,1364,1473,1675,1754,1769,1730,1750,1668,1614,1578,1538,1587,1560,1455,1435,1479,1449,1431,1420,1308,1341,1339,1247,1261,1181,1180,1134,1147,1130,1081,1116,1107,1116,1141,1138,1135,1180,1173,1146,1162,1174,1153,1181,1212,1170,1176,1165,1157,1161,1167,1168,1162,1156,1156,1159,1156,1165,1160,1160,1137,500,501,502,504,508,550,625,693,757,798,799,787,775,741,752,740,729,717,705,694,682,630,626,631,635,625,612,600,588,560,596,555,542,530,509,506,508,483,517,486,492,494,491,502,499,509,503,499,508,496,499,499,498,504,504,503,502,503,501,499,502,506,504,514,509,384,380,381,382,383,410,463,514,561,575,576,569,562,555,547,540,533,526,518,511,516,497,511,492,486,475,460,440,433,426,419,412,405,397,387,384,385,385,371,371,378,395,383,376,384,399,379,381,392,401,438,425,437,404,376,380,388,401,393,374,389,399,388,388,387,906,897,922,948,990,1188,1307,1502,1533,1567,1554,1558,1500,1487,1437,1421,1454,1368,1331,1364,1298,1305,1235,1208,1215,1185,1124,1126,1108,1049,1007,1007,970,921,909,939,944,941,944,961,955,966,992,985,978,993,963,996,982,1006,975,976,994,1013,992,1000,994,1005,992,983,982,991,988,990,967,869,876,892,879,973,1073,1272,1396,1508,1541,1586,1505,1477,1450,1478,1395,1367,1396,1303,1298,1304,1273,1243,1212,1147,1120,1120,1065,1058,1027,967,969,927,878,885,862,891,886,915,893,907,905,906,909,946,934,900,893,915,919,911,901,904,920,908,916,904,919,904,911,902,913,917,927,901,813,815,848,821,917,952,1126,1255,1285,1323,1322,1301,1293,1259,1238,1217,1196,1176,1230,1134,1113,1103,1071,1061,1029,1019,987,967,946,925,904,883,862,841,879,825,827,914,832,839,852,876,860,858,852,874,846,878,867,877,915,905,932,923,868,867,882,877,876,866,883,897,866,873,864,679,681,683,685,704,774,868,978,1068,1101,1113,1095,1078,1051,1042,1025,1007,989,972,954,951,933,915,883,866,848,830,813,795,778,760,742,725,707,717,689,691,693,700,712,694,723,713,709,713,728,707,720,722,720,714,706,700,709,710,717,706,707,699,703,695,709,705,708,685,755,752,740,756,738,866,921,1019,1167,1137,1209,1126,1110,1104,1145,1064,1048,1071,1054,1035,1015,1019,999,957,938,936,959,852,861,841,822,803,797,789,747,766,763,747,740,755,753,769,832,806,775,818,770,853,799,832,805,775,798,829,799,778,829,794,785,815,802,841,805,798,784,0,0,0,0,0,0,0,0,0,0,0,0,0,0,0,0,0,0,0,0,0,0,0,0,0,0,0,0,0,0,0,0,0,0,0,0,0,0,0,0,0,0,0,0,0,0,0,0,0,0,0,0,0,0,0,0,0,0,0,0,0,0,0,0,0,478,480,481,482,486,534,596,675,735,782,790,777,765,762,740,727,715,702,690,677,665,652,639,627,614,602,589,577,564,552,539,527,514,502,490,485,487,488,478,485,479,493,557,529,519,545,500,568,527,562,526,498,508,531,513,502,546,523,502,530,517,560,527,524,507,705,743,710,747,729,857,912,1010,1120,1128,1163,1117,1101,1095,1082,1055,1039,1062,1008,990,985,954,935,917,929,880,862,843,818,807,788,770,788,752,738,728,754,738,722,728,717,735,729,737,735,747,738,728,728,740,736,728,726,728,735,733,732,735,724,731,730,746,744,745,730,723,747,751,716,801,826,936,1073,1154,1194,1174,1155,1137,1109,1121,1081,1076,1043,1045,1016,987,990,954,940,943,902,875,860,830,819,793,781,756,744,772,727,729,730,732,733,733,749,760,737,747,749,743,743,764,769,856,868,868,787,829,794,772,768,753,731,755,739,748,741,739,559,561,562,545,571,592,704,746,823,870,917,864,850,836,822,808,795,816,760,761,789,726,712,828,715,670,686,671,657,643,628,614,599,585,567,548,569,570,550,556,563,571,567,571,559,568,557,587,564,563,572,569,588,606,583,575,583,572,579,582,586,595,571,577,571,1089,1093,1127,1123,1269,1379,1579,1717,1738,1768,1759,1731,1716,1675,1765,1619,1616,1563,1570,1507,1515,1462,1449,1406,1392,1349,1311,1283,1252,1227,1220,1133,1164,1121,1190,1126,1108,1130,1146,1151,1198,1456,1200,1137,1191,1285,1220,1161,1260,1229,1177,1183,1261,1239,1228,1146,1167,1167,1210,1214,1146,1202,1167,1172,1179,1198,1221,1203,1313,1393,1632,1749,1931,1938,2024,1965,2023,1949,1958,1830,1806,1779,1826,1753,1667,1666,1594,1602,1590,1547,1533,1512,1444,1406,1363,1305,1274,1281,1314,1227,1229,1300,1242,1314,1322,1314,1404,1368,1365,1349,1344,1351,1381,1358,1379,1381,1386,1344,1355,1348,1367,1371,1340,1367,1394,1360,1351,1366,1345,1342,439,440,442,443,445,480,542,605,668,715,724,713,701,690,679,667,656,644,633,621,610,598,587,576,564,553,541,530,518,507,496,484,473,461,450,446,447,448,426,427,427,430,434,439,433,433,434,435,435,437,438,439,439,440,441,442,442,444,445,446,447,449,450,449,450,835,904,858,844,897,1032,1202,1351,1464,1497,1570,1462,1435,1408,1380,1353,1424,1323,1350,1292,1218,1191,1164,1217,1110,1082,1055,1028,1001,974,947,920,893,866,898,850,876,851,870,864,875,896,881,884,877,883,885,889,896,875,890,917,940,920,915,898,875,901,882,877,871,907,891,906,878,178,179,179,180,180,185,210,234,258,282,297,292,288,283,278,274,269,264,259,255,250,245,241,236,231,227,222,217,213,208,203,198,194,189,184,181,181,182,165,166,166,167,167,170,167,169,171,169,167,169,169,169,167,169,169,169,170,167,167,166,170,171,171,172,170,1078,1082,1116,1109,1250,1356,1551,1690,1712,1743,1735,1707,1693,1652,1744,1598,1596,1543,1550,1488,1497,1444,1432,1389,1376,1334,1296,1269,1239,1214,1208,1121,1153,1110,1156,1115,1097,1118,1126,1136,1138,1159,1164,1164,1165,1166,1143,1162,1151,1138,1154,1162,1159,1159,1191,1174,1154,1149,1160,1158,1150,1180,1182,1188,1170,754,757,759,761,822,877,1024,1140,1195,1253,1237,1217,1218,1177,1156,1164,1146,1098,1079,1059,1039,1020,999,980,960,941,921,901,881,862,842,822,802,783,769,766,768,770,771,777,776,791,782,785,790,794,791,787,781,782,776,781,790,790,800,797,783,801,800,784,787,778,792,793,778,540,542,544,533,553,618,683,762,881,910,892,878,863,876,854,821,789,793,761,764,750,736,722,708,693,679,665,651,637,622,608,607,579,578,553,561,569,577,562,567,559,582,576,571,577,592,570,588,586,588,579,569,564,573,573,577,571,570,561,564,561,567,569,569,549,757,788,780,763,804,923,1077,1217,1332,1367,1407,1337,1312,1287,1262,1237,1212,1210,1152,1176,1112,1087,1062,1094,1012,987,962,937,912,887,862,837,812,788,772,770,797,772,777,792,792,795,805,805,805,807,793,798,795,791,795,806,812,817,810,822,802,810,818,802,797,791,807,812,792,783,786,806,790,837,962,1123,1266,1380,1415,1408,1383,1357,1331,1305,1279,1253,1227,1192,1176,1150,1124,1098,1072,1047,1021,998,969,943,917,972,868,840,814,799,797,824,799,801,821,810,843,805,825,816,836,825,832,820,814,823,822,831,831,832,837,831,824,839,829,832,841,829,837,838,629,631,633,650,643,775,844,945,988,1063,1034,1051,1035,1028,969,952,971,955,939,886,870,853,837,821,835,788,771,755,732,722,705,689,673,656,643,633,697,642,646,652,648,655,657,655,656,670,646,657,651,649,655,666,663,659,662,659,656,655,671,667,651,656,654,659,655,1420,1480,1483,1514,1666,1930,2170,2316,2390,2394,2372,2330,2289,2248,2207,2166,2203,2084,2159,2002,2033,2056,1879,1838,1887,1755,1717,1673,1632,1628,1581,1551,1531,1462,1469,1433,1477,1469,1539,1536,1543,1542,1542,1535,1551,1559,1547,1547,1555,1559,1628,1634,1586,1559,1571,1593,1608,1670,1666,1572,1605,1685,1686,1654,1601,655,657,689,661,743,745,842,986,1026,1069,1072,1055,1038,1021,1004,1015,970,980,981,919,902,885,868,851,835,818,801,784,767,750,733,716,699,701,712,665,666,668,668,662,677,670,683,715,675,685,689,692,710,694,697,699,694,698,683,685,680,693,679,692,693,698,691,694,708,236,237,238,238,239,248,279,310,342,373,388,382,376,370,364,358,352,346,340,334,328,322,316,310,304,298,292,286,280,274,268,262,256,250,244,240,240,241,224,224,223,225,226,230,226,227,228,228,227,228,226,228,227,226,227,227,230,228,227,226,230,231,230,231,228,521,522,524,526,532,595,674,753,872,917,863,868,854,867,826,812,780,784,752,756,742,727,713,699,685,671,657,643,629,615,657,586,571,558,545,541,596,569,552,552,549,562,553,555,555,559,556,559,559,555,562,560,562,560,560,565,565,564,562,557,567,567,564,564,564,777,780,813,785,876,907,1075,1202,1232,1271,1271,1250,1244,1210,1190,1170,1149,1129,1184,1089,1069,1060,1028,1019,988,978,947,927,907,887,866,846,826,806,843,789,791,878,794,797,804,801,814,805,810,816,802,812,809,806,815,815,807,810,824,820,814,820,817,810,827,820,831,817,817,744,746,748,750,776,885,972,1056,1173,1214,1211,1191,1177,1158,1139,1115,1096,1077,1062,1039,1034,1019,978,963,944,925,909,913,868,833,829,810,791,772,782,755,757,759,764,769,754,783,782,777,784,783,772,771,778,786,778,772,772,783,777,777,782,776,770,777,769,782,774,775,758,520,521,523,525,528,578,656,733,809,856,862,849,830,844,803,815,779,766,752,734,724,710,697,683,669,652,641,628,614,600,586,572,559,545,545,528,529,531,531,534,531,548,560,549,548,556,545,544,557,563,556,582,573,562,554,560,562,547,526,586,547,548,542,567,544,560,561,563,566,584,599,679,759,838,886,944,914,897,883,868,853,839,793,810,794,780,778,750,734,719,705,690,675,660,621,630,615,601,587,573,569,570,581,564,568,565,568,621,606,607,601,583,634,603,596,600,578,580,605,591,583,615,580,577,603,594,623,605,619,591,983,982,1035,998,1174,1208,1378,1526,1583,1598,1610,1556,1564,1458,1504,1460,1484,1384,1445,1379,1354,1327,1251,1257,1251,1203,1208,1162,1138,1123,1093,1057,1026,1021,1047,983,996,1014,1021,1019,1034,1035,1020,1038,1026,1044,1047,1031,1063,1036,1045,1042,1040,1052,1038,1038,1032,1046,1032,1040,1038,1053,1031,1051,1054,466,467,469,470,474,521,582,660,719,767,774,762,750,746,725,712,700,688,675,663,650,638,626,613,601,588,576,564,551,539,526,514,502,489,477,473,474,476,462,468,476,486,481,490,470,487,468,500,478,478,477,480,494,510,490,481,490,477,487,490,485,492,468,478,471,869,876,892,879,973,1073,1272,1396,1508,1541,1586,1505,1477,1450,1478,1395,1367,1396,1303,1298,1304,1273,1243,1212,1147,1120,1120,1065,1058,1027,967,969,927,878,885,862,891,886,915,893,907,905,906,909,946,934,900,893,915,919,911,901,904,920,908,916,904,919,904,911,902,913,917,927,901,723,724,726,755,759,940,1055,1206,1289,1321,1311,1282,1269,1244,1204,1224,1247,1163,1196,1171,1087,1097,1050,1006,1018,991,962,939,881,886,844,855,798,753,762,753,761,781,764,756,775,768,778,808,766,775,786,785,795,783,785,793,789,793,781,783,774,795,774,790,791,795,791,795,816,588,590,614,593,604,661,748,871,955,961,965,950,935,1045,904,889,874,858,855,859,812,797,793,767,751,736,721,706,690,675,660,644,629,614,601,597,607,600,595,595,603,615,610,613,617,628,615,614,625,618,640,638,639,631,606,607,618,616,618,603,613,619,606,617,611,984,1002,990,1004,1067,1191,1392,1469,1570,1682,1609,1609,1582,1617,1531,1609,1479,1453,1438,1401,1373,1316,1354,1265,1258,1202,1219,1145,1144,1118,1088,1062,1064,1040,996,993,1021,1013,1015,1019,1011,1063,1044,1027,1024,1043,1039,1051,1078,1040,1044,1031,1019,1020,1030,1043,1024,1022,1014,1021,1024,1036,1045,1046,1015,263,264,312,265,266,254,286,318,337,353,365,362,358,355,352,349,346,343,340,337,334,331,322,316,310,304,298,292,286,280,273,267,261,276,318,245,246,289,256,258,257,264,264,262,263,263,258,258,259,263,256,259,262,264,258,261,263,262,263,264,262,268,257,263,261,590,591,593,595,606,665,754,826,927,1003,989,985,971,958,944,923,917,903,850,876,831,803,787,772,756,728,725,697,702,666,663,647,632,616,597,605,594,609,595,591,593,601,598,608,599,601,606,606,602,600,596,601,596,592,600,605,603,602,599,596,606,615,607,615,606,0,0,0,0,0,0,0,0,0,0,0,0,0,0,0,0,0,0,0,0,0,0,0,0,0,0,0,0,0,0,0,0,0,0,0,0,0,0,0,0,0,0,0,0,0,0,0,0,0,0,0,0,0,0,0,0,0,0,0,0,0,0,0,0,0,254,255,277,256,257,245,277,309,328,344,356,353,349,346,343,340,337,334,331,328,325,322,313,307,301,295,289,283,277,271,264,258,252,267,280,236,237,256,257,241,239,241,245,242,250,249,246,247,250,263,297,262,255,293,251,242,243,255,294,320,333,351,341,282,277,491,493,516,496,494,545,627,690,816,809,815,802,789,776,784,750,737,724,711,689,706,672,659,677,625,612,606,593,573,587,576,534,522,509,521,499,522,495,515,486,488,491,492,490,502,498,500,494,504,509,564,506,511,553,502,503,508,517,571,599,615,631,628,542,544,635,637,639,641,655,719,813,890,994,1078,1054,1063,1045,1029,1012,995,978,961,908,927,888,859,876,826,810,781,807,748,732,716,711,695,679,688,643,639,641,642,638,641,644,657,672,669,669,697,671,675,678,689,683,656,666,694,667,655,677,669,656,671,675,680,670,674,670,864,888,892,875,918,1025,1161,1331,1449,1414,1454,1384,1365,1383,1320,1338,1272,1292,1242,1238,1185,1163,1151,1072,1140,1073,1083,1028,1005,983,960,899,936,893,890,905,971,879,912,911,908,915,924,927,968,954,919,942,944,938,1012,1043,1061,1005,954,983,980,991,967,947,957,917,927,928,913,764,766,785,770,781,873,971,1085,1199,1302,1258,1263,1233,1215,1158,1151,1137,1105,1136,1081,1076,1023,984,960,964,926,885,903,912,864,827,808,806,790,758,754,801,758,774,776,824,1070,828,758,813,902,838,787,882,856,802,808,886,864,852,767,789,791,832,835,771,814,792,787,799,303,304,305,306,307,323,365,407,527,532,535,529,523,517,511,505,499,493,509,480,452,414,406,398,391,383,375,367,359,351,343,336,328,320,312,307,308,309,299,304,299,304,311,307,312,309,302,304,305,310,302,305,305,310,305,304,309,305,307,305,304,309,301,305,301,711,713,782,739,742,851,1040,1112,1244,1277,1267,1239,1226,1201,1162,1157,1144,1122,1101,1118,1035,1012,1072,967,944,1000,933,876,894,871,809,786,763,741,723,719,727,727,721,730,735,752,812,789,749,793,748,840,779,810,785,751,779,817,778,755,814,774,759,793,785,828,779,771,760,605,621,609,600,638,702,795,832,951,1050,994,990,977,980,966,945,929,924,890,896,876,841,807,809,792,733,749,731,695,699,695,652,621,632,626,623,624,612,613,611,615,625,625,634,614,638,618,622,623,623,623,632,637,645,639,640,626,632,641,641,641,646,647,659,646,853,877,881,863,903,1005,1136,1304,1422,1388,1429,1359,1341,1359,1297,1316,1250,1271,1222,1219,1166,1144,1133,1055,1124,1057,1068,1013,991,969,947,887,924,882,878,894,960,868,917,871,859,864,930,976,901,889,898,906,939,904,911,921,924,920,892,914,940,935,948,960,908,917,966,890,889,336,359,338,339,377,335,393,432,445,475,484,478,472,467,461,455,449,443,437,432,426,420,430,423,416,408,388,409,386,363,355,364,338,355,342,342,343,319,343,320,338,326,324,324,355,337,320,318,335,331,327,325,324,324,320,331,326,328,327,323,320,326,331,332,319,446,431,449,439,453,476,554,618,683,730,738,727,715,684,673,680,668,656,645,633,621,609,598,563,574,562,551,539,527,516,504,482,480,469,457,453,454,444,445,446,449,449,449,452,450,446,452,453,468,447,450,454,460,453,460,464,454,453,450,456,452,458,460,455,453,633,635,653,638,654,748,893,979,1111,1146,1139,1113,1102,1079,1042,1040,1029,1009,990,1009,928,908,908,867,846,826,831,785,797,762,723,703,682,662,644,640,647,647,639,648,638,659,648,663,642,648,657,645,644,647,639,648,646,645,651,660,652,649,652,654,655,677,659,671,657,660,664,663,667,685,785,912,1032,1160,1194,1186,1163,1147,1127,1089,1082,1074,1050,1030,1009,966,945,924,902,884,860,830,817,795,774,753,731,710,689,674,667,674,677,691,697,683,697,687,698,692,708,712,713,695,755,743,747,728,778,745,693,699,695,739,774,754,775,749,759,738,178,179,179,180,180,163,184,205,261,280,292,288,284,281,277,273,270,266,263,259,255,252,211,207,203,199,195,191,187,183,179,175,171,187,184,159,160,160,156,159,155,161,170,166,164,169,161,169,165,171,163,158,161,165,162,161,167,164,159,166,163,173,164,164,162,1286,1306,1313,1369,1502,1678,1922,2160,2203,2137,2160,2135,2199,2020,1987,1972,1932,1977,1860,1821,1786,1749,1807,1675,1620,1667,1556,1616,1491,1454,1417,1401,1406,1335,1307,1302,1311,1375,1384,1367,1365,1375,1410,1437,1412,1424,1405,1414,1450,1438,1471,1458,1473,1460,1482,1417,1437,1467,1476,1471,1438,1447,1484,1558,1451,430,431,433,434,436,470,532,593,655,703,711,700,688,677,666,655,643,632,648,610,598,587,576,565,553,542,531,520,508,518,486,475,463,452,441,437,466,439,439,435,437,438,437,452,462,445,439,447,457,450,446,444,444,462,454,449,446,446,442,446,444,444,446,472,446,505,521,508,524,529,576,651,710,777,880,867,866,854,821,810,792,779,776,745,754,737,705,673,678,664,638,627,612,579,585,584,570,542,529,525,521,522,509,523,518,519,525,525,519,532,523,522,524,527,519,529,529,525,524,556,540,523,523,521,524,523,532,532,526,525,361,394,363,364,365,390,442,493,545,591,601,591,582,572,563,553,543,534,524,515,505,495,486,517,467,457,447,438,428,419,409,400,390,380,371,366,367,368,364,358,360,361,374,366,365,371,361,378,366,362,371,369,366,372,376,372,372,371,369,377,369,371,371,374,373,553,554,579,558,566,619,702,819,902,908,913,899,884,883,855,840,826,811,809,813,768,753,750,724,709,695,680,666,651,636,622,607,593,578,565,561,571,564,559,572,568,583,598,594,577,607,569,614,590,613,584,583,601,619,598,588,601,596,595,598,592,610,582,590,578,896,913,915,909,959,1076,1208,1334,1426,1460,1482,1433,1409,1387,1364,1341,1365,1294,1271,1248,1237,1202,1179,1166,1132,1107,1086,1062,1039,1016,1004,971,948,926,912,910,916,914,934,901,906,911,961,942,945,944,929,962,938,922,938,909,915,931,929,919,939,915,911,932,930,954,940,943,935,178,179,179,180,180,186,206,227,247,278,289,286,280,279,273,270,255,251,247,243,240,235,231,227,223,219,215,211,207,203,202,198,194,187,183,181,181,181,166,167,170,174,171,172,171,177,169,174,172,179,173,174,175,179,173,173,175,181,178,172,175,180,172,172,171,931,927,930,978,997,1178,1259,1381,1480,1545,1561,1531,1486,1464,1456,1423,1397,1375,1314,1355,1357,1241,1224,1194,1169,1157,1121,1085,1062,1037,1075,1010,995,961,1032,932,934,937,960,958,966,978,973,980,985,998,982,982,992,983,1001,1001,1001,1001,981,977,989,988,989,976,983,993,980,991,986,681,698,685,687,724,825,905,1006,1100,1086,1122,1106,1090,1052,1058,1054,1026,986,996,978,921,945,891,903,869,892,814,863,814,795,790,760,726,723,710,706,708,710,693,695,706,718,733,731,713,737,707,755,724,738,725,716,733,754,731,720,743,725,724,738,732,749,722,726,720,117,118,118,118,119,121,138,154,200,210,198,195,192,189,209,207,205,203,201,199,197,163,160,157,154,151,147,144,141,138,135,131,128,125,122,119,120,120,111,104,104,104,104,104,104,105,103,108,104,103,104,104,104,104,105,105,104,104,104,105,104,105,105,106,106,723,724,726,755,759,940,1055,1206,1289,1321,1311,1282,1269,1244,1204,1224,1247,1163,1196,1171,1087,1097,1050,1006,1018,991,962,939,881,886,844,855,798,753,762,753,761,781,764,756,775,768,778,808,766,775,786,785,795,783,785,793,789,793,781,783,774,795,774,790,791,795,791,795,816,862,876,851,855,955,1071,1306,1381,1490,1601,1535,1483,1456,1419,1403,1429,1410,1363,1297,1320,1234,1208,1211,1185,1137,1130,1112,1100,1052,1022,982,987,925,899,947,884,888,893,911,906,915,963,937,944,932,908,924,940,944,934,945,953,967,965,935,931,924,920,916,922,916,923,922,935,913,649,586,589,608,671,658,837,867,1009,948,1038,1034,1005,983,914,895,873,838,917,901,866,864,783,791,773,764,728,713,684,671,676,708,627,609,613,594,613,597,586,586,599,625,600,608,587,601,591,588,596,595,591,599,599,610,605,608,598,605,605,611,606,611,599,610,603,1033,1063,1078,1059,1151,1285,1537,1645,1745,1694,1665,1759,1591,1589,1564,1538,1492,1467,1441,1417,1384,1401,1361,1386,1310,1267,1260,1252,1220,1194,1131,1121,1152,1060,1105,1086,1050,1053,1115,1114,1104,1190,1157,1153,1138,1131,1146,1180,1142,1176,1185,1164,1119,1145,1143,1159,1160,1128,1173,1227,1189,1184,1198,1153,1151,17,17,17,17,17,17,17,17,17,17,17,17,17,17,17,17,17,17,17,17,17,17,17,17,17,17,17,17,17,17,17,17,17,17,17,17,17,17,0,0,0,0,0,0,0,0,0,0,0,0,0,0,0,0,0,0,0,0,0,0,0,0,0,0,0,716,718,732,722,747,842,923,1039,1118,1151,1165,1128,1111,1094,1077,1060,1043,1026,1009,991,974,957,940,923,906,889,871,842,825,808,791,774,757,740,728,726,728,729,724,717,729,749,736,733,730,736,739,744,745,732,745,770,794,774,764,751,729,753,737,729,726,755,740,758,730,347,349,361,350,351,372,410,463,502,538,543,536,528,521,514,506,499,493,484,477,471,462,455,449,440,434,427,407,398,392,383,376,369,362,354,352,352,354,331,334,337,355,332,341,333,340,334,331,338,333,328,333,334,337,334,341,338,338,338,339,335,348,331,340,335,0,0,0,0,0,0,0,0,0,0,0,0,0,0,0,0,0,0,0,0,0,0,0,0,0,0,0,0,0,0,0,0,0,0,0,0,0,0,0,0,0,0,0,0,0,0,0,0,0,0,0,0,0,0,0,0,0,0,0,0,0,0,0,0,0,413,415,416,417,419,461,520,551,603,671,673,650,654,641,635,580,604,594,588,587,563,545,560,550,540,540,493,512,487,485,474,464,453,442,431,420,421,430,408,415,416,432,416,417,416,418,414,411,416,414,411,410,411,415,414,415,414,412,410,414,411,419,412,417,414,685,687,701,690,710,781,979,1063,1057,1091,1087,1176,1055,1039,1023,1007,991,975,958,943,927,911,895,931,863,847,831,852,787,771,755,739,781,708,758,732,695,697,699,712,712,724,736,722,721,732,710,718,714,713,713,731,728,737,820,783,729,724,730,720,708,712,729,723,709,877,885,895,932,937,1056,1128,1374,1389,1436,1455,1478,1360,1354,1330,1362,1274,1315,1236,1266,1220,1238,1211,1174,1151,1100,1077,1067,1019,1009,1018,950,973,917,892,896,960,907,937,945,900,897,944,928,924,935,929,946,985,939,944,961,965,962,945,970,958,974,1005,966,958,962,1007,954,940,558,562,561,598,652,645,706,787,914,909,938,910,895,894,854,852,861,827,831,794,779,754,763,725,711,697,682,668,654,640,625,666,614,599,605,624,639,650,608,608,607,616,633,631,638,642,623,629,624,628,629,615,619,642,632,624,628,628,616,634,628,642,634,645,629,512,523,527,516,521,631,629,708,788,827,811,911,889,776,765,753,844,730,718,707,695,683,672,660,648,637,625,601,589,657,566,555,603,542,521,519,530,521,527,527,529,524,521,523,533,532,521,526,531,527,527,529,533,527,536,526,530,533,527,523,533,526,533,527,533,828,874,840,844,942,1038,1172,1301,1397,1419,1426,1403,1381,1347,1333,1392,1291,1269,1256,1230,1195,1169,1147,1148,1102,1080,1047,1053,1038,961,962,952,890,865,913,849,854,858,863,905,864,868,889,869,878,883,883,890,893,878,891,882,892,888,896,899,896,899,928,883,899,899,917,898,891,728,723,723,752,765,845,916,1062,1109,1174,1151,1173,1117,1073,1099,1102,1048,1042,1025,1031,979,995,977,966,924,907,906,876,858,828,801,790,787,770,763,731,743,745,758,739,740,745,740,746,746,748,745,744,745,739,744,748,748,746,754,748,751,749,752,754,747,762,747,755,751,866,874,884,919,921,1036,1103,1347,1363,1410,1430,1453,1336,1330,1307,1340,1253,1294,1216,1246,1201,1220,1194,1157,1135,1084,1062,1053,1005,996,1005,938,962,905,881,885,949,896,909,913,913,931,929,923,948,950,937,929,952,958,1030,1042,1062,1008,932,934,946,943,943,940,940,943,937,985,944,138,138,131,131,131,135,150,176,174,196,187,186,184,197,194,179,177,176,174,172,171,183,180,178,175,173,170,167,152,158,155,143,140,137,134,132,132,132,124,120,123,124,124,123,124,123,121,125,125,123,124,124,123,120,121,124,124,125,121,121,125,123,123,121,121,459,471,485,462,477,516,573,646,704,743,745,734,724,713,702,692,665,655,660,649,639,628,617,607,596,586,575,552,541,518,520,560,499,477,479,476,466,478,472,477,471,470,477,480,491,490,475,493,484,490,481,477,475,481,481,487,476,478,472,472,470,475,477,476,464,750,776,761,763,824,921,1068,1202,1314,1372,1364,1314,1290,1255,1242,1248,1194,1211,1146,1122,1089,1065,1071,1047,1002,998,954,941,957,874,877,870,810,786,834,770,774,778,802,791,786,786,822,852,805,814,812,847,823,854,844,848,824,850,824,822,833,815,829,888,858,875,856,848,858,777,786,790,791,838,961,1097,1221,1319,1343,1350,1329,1308,1275,1262,1244,1223,1202,1180,1159,1127,1106,1085,1064,1037,1022,987,972,940,904,909,898,840,813,876,797,801,808,827,808,820,840,825,829,821,830,829,833,833,822,836,868,886,869,867,837,818,846,829,823,815,850,832,854,825,167,167,154,154,169,174,158,161,163,166,168,167,167,166,166,165,164,164,163,163,162,162,161,161,160,160,159,159,158,158,157,184,156,155,172,169,169,170,150,148,149,150,150,148,149,149,148,148,148,149,149,150,149,149,148,150,149,149,149,150,148,149,149,149,148,1224,1228,1236,1309,1416,1548,1728,1857,1955,1977,1972,1921,1890,1848,1868,1797,1834,1735,1704,1673,1642,1685,1571,1540,1526,1478,1448,1417,1401,1412,1339,1391,1328,1272,1279,1280,1287,1271,1302,1319,1313,1313,1318,1312,1317,1325,1327,1358,1349,1349,1369,1341,1336,1335,1368,1357,1344,1363,1373,1390,1380,1350,1394,1381,1391,454,432,428,429,420,464,551,553,584,680,674,665,655,642,644,582,618,593,583,589,565,548,574,550,553,543,496,509,499,512,478,467,453,446,435,432,422,434,419,419,422,424,422,427,423,442,424,425,422,425,425,423,435,448,422,432,426,423,425,424,426,427,429,429,423,628,647,647,651,650,713,802,894,978,1005,1025,1010,995,954,944,950,935,895,881,890,875,860,845,836,797,783,785,757,743,715,691,683,683,668,661,654,641,643,642,640,634,644,641,667,641,652,655,715,645,646,637,645,649,629,644,648,644,651,636,637,648,648,638,646,637,385,385,399,387,388,416,460,520,565,604,608,599,591,582,574,565,557,548,540,531,523,514,506,497,489,480,472,451,442,434,426,417,409,400,392,389,390,391,380,380,381,383,381,381,384,388,384,384,380,383,383,389,388,387,383,386,384,386,387,387,385,388,380,384,384,565,568,571,573,580,638,722,815,875,924,909,906,879,881,865,846,825,816,803,789,803,780,762,748,731,722,708,694,665,652,638,620,609,591,577,576,578,579,571,575,580,585,592,583,582,579,583,582,608,586,579,590,603,600,670,633,596,590,585,586,580,591,600,584,579,920,923,937,934,987,1098,1230,1430,1446,1473,1463,1454,1418,1396,1427,1404,1330,1355,1285,1264,1242,1264,1243,1219,1154,1132,1121,1076,1054,1042,1010,988,975,945,934,933,934,937,931,931,940,971,943,962,942,946,939,934,961,946,970,988,981,967,959,966,957,967,966,952,963,969,943,968,958,317,314,319,316,317,340,383,426,469,510,520,511,503,489,481,511,471,457,455,447,439,431,423,410,402,398,386,382,374,366,378,370,338,334,381,322,323,319,317,314,316,317,318,314,315,315,314,316,315,315,316,324,318,316,322,317,316,316,316,324,316,316,318,317,316,1059,1088,1026,1056,1166,1301,1392,1622,1608,1631,1624,1620,1558,1685,1581,1526,1478,1500,1483,1471,1374,1369,1426,1341,1323,1252,1222,1186,1180,1214,1147,1079,1076,1042,1075,1146,1076,1044,1105,1107,1093,1116,1152,1143,1121,1115,1137,1169,1138,1176,1173,1167,1112,1118,1147,1154,1154,1127,1170,1221,1166,1154,1177,1145,1146,480,512,513,515,520,564,639,724,776,828,773,803,791,793,780,756,744,689,721,709,697,699,686,674,661,649,600,624,596,586,594,533,531,519,522,503,519,490,506,507,504,516,671,583,542,577,544,663,568,565,587,519,531,568,547,522,609,538,522,587,562,648,590,582,552,336,337,350,339,347,360,398,450,489,524,529,522,527,508,500,493,486,479,471,475,457,450,442,447,428,421,413,393,395,379,372,373,357,350,343,340,341,342,335,330,335,331,339,343,333,338,340,337,340,334,340,340,339,348,342,339,333,345,338,349,341,338,335,343,350,862,876,851,855,955,1071,1306,1381,1490,1601,1535,1483,1456,1419,1403,1429,1410,1363,1297,1320,1234,1208,1211,1185,1137,1130,1112,1100,1052,1022,982,987,925,899,947,884,888,893,911,906,915,963,937,944,932,908,924,940,944,934,945,953,967,965,935,931,924,920,916,922,916,923,922,935,913,1030,1009,1035,1063,1215,1378,1530,1737,1774,1787,1777,1843,1721,1679,1658,1690,1635,1628,1614,1511,1509,1478,1405,1375,1340,1310,1300,1263,1259,1203,1159,1120,1081,1042,1045,1027,1054,1059,1078,1069,1060,1068,1139,1150,1110,1127,1111,1176,1139,1137,1159,1126,1115,1165,1159,1107,1158,1124,1130,1198,1153,1199,1180,1226,1160,262,263,264,264,265,277,313,349,384,420,432,425,419,412,405,398,392,385,378,371,365,358,351,344,341,331,324,317,311,304,297,293,287,277,270,266,267,270,259,253,256,257,254,265,258,269,266,259,270,257,259,258,258,263,259,261,259,262,259,257,258,262,261,266,262,829,790,813,821,847,932,1040,1161,1249,1287,1286,1265,1245,1247,1205,1184,1235,1228,1157,1102,1082,1062,1041,1020,1000,980,959,939,918,898,878,873,837,859,879,800,827,844,828,825,813,825,877,923,843,844,851,861,846,855,851,853,843,852,848,856,874,844,848,893,868,881,888,859,855,335,336,323,338,339,344,390,452,492,537,548,540,519,520,553,506,498,490,483,459,468,455,433,438,416,407,399,391,395,373,364,356,347,353,344,326,327,327,318,332,331,343,319,319,320,330,330,328,423,403,335,354,423,408,402,317,330,351,363,337,326,337,346,323,314,735,667,713,742,690,761,966,964,1053,1094,1095,1078,1169,1150,1025,1026,1092,1050,955,938,1015,995,885,867,850,918,899,797,780,762,745,727,710,692,750,675,677,723,698,695,697,705,703,700,699,710,692,701,699,697,699,708,703,700,701,703,701,701,707,707,695,698,699,700,697,444,445,446,448,450,487,551,615,679,726,734,722,711,699,687,676,664,679,641,629,617,606,594,583,571,559,582,536,524,513,501,489,499,466,455,450,452,453,455,445,453,456,445,470,447,460,452,462,465,461,448,450,455,454,453,457,464,476,458,464,454,452,461,453,448,326,327,330,329,330,351,397,443,483,528,539,531,526,511,504,497,489,481,474,466,459,446,440,429,423,414,406,398,386,380,371,363,354,344,335,333,334,334,320,323,323,327,378,357,342,362,348,378,349,347,354,333,337,360,343,328,365,335,331,355,350,374,355,347,343,0,0,0,0,0,0,0,0,0,0,0,0,0,0,0,0,0,0,0,0,0,0,0,0,0,0,0,0,0,0,0,0,0,0,0,0,0,0,0,0,0,0,0,0,0,0,0,0,0,0,0,0,0,0,0,0,0,0,0,0,0,0,0,0,0,481,441,453,444,446,480,542,604,667,714,722,711,700,688,677,666,728,730,632,620,609,598,586,574,564,552,541,530,518,507,496,484,473,462,501,446,448,449,447,444,447,449,452,461,457,465,461,461,465,456,453,448,449,456,455,450,454,452,449,450,449,457,452,461,455,537,559,559,542,549,599,678,758,836,884,933,874,892,842,832,817,803,789,775,757,747,733,718,704,693,676,662,658,633,619,605,594,580,584,550,546,547,551,545,552,556,575,565,557,559,570,553,571,568,576,598,587,613,607,567,561,571,565,569,556,567,575,561,568,560,717,737,721,742,748,874,936,1048,1138,1178,1178,1187,1138,1121,1102,1110,1065,1071,1068,1033,990,971,975,933,913,894,875,879,839,820,802,881,764,745,730,728,729,731,738,741,741,740,776,792,775,754,747,781,761,759,760,754,746,754,751,753,755,743,741,758,758,769,767,753,749,604,606,608,610,622,682,772,868,946,989,992,976,961,945,929,913,898,882,866,871,835,819,803,788,772,756,741,725,709,693,678,662,646,630,617,628,615,616,606,610,613,624,621,625,615,633,617,623,618,615,622,629,626,630,630,628,629,625,636,633,628,646,644,651,645,996,998,1001,1009,1145,1280,1541,1676,1730,1743,1733,1779,1679,1637,1616,1641,1594,1566,1546,1460,1425,1420,1420,1357,1304,1350,1238,1236,1204,1152,1140,1123,1047,1031,1011,1014,1019,1024,1049,1045,1044,1156,1091,1066,1068,1083,1070,1080,1080,1087,1089,1112,1121,1116,1106,1078,1068,1078,1065,1062,1052,1078,1073,1085,1040,592,569,596,598,608,668,756,845,970,1009,975,961,1000,930,914,899,883,978,817,837,821,805,790,774,759,743,728,712,696,681,638,623,634,619,605,601,577,604,590,591,594,602,617,594,594,601,596,593,602,616,642,602,618,634,716,656,619,602,606,603,610,599,600,596,591,527,549,548,531,536,583,658,733,808,857,907,848,867,818,808,794,781,767,754,737,727,713,700,686,676,659,646,643,619,605,592,581,568,572,538,534,536,540,532,531,524,531,537,564,532,538,554,544,533,539,531,539,539,529,542,544,540,538,537,540,549,564,560,568,555,339,340,341,343,344,365,414,462,510,554,564,555,547,538,529,520,511,502,493,484,475,466,457,448,439,430,421,413,403,394,385,376,367,359,349,345,345,346,331,342,339,342,346,345,342,342,335,349,335,340,340,345,353,361,353,350,343,342,347,341,343,343,342,349,338,236,237,259,238,239,249,309,314,347,379,392,386,380,374,368,361,355,349,343,337,330,324,318,312,306,300,293,287,281,275,269,262,256,250,244,240,240,241,227,234,232,233,235,234,236,236,231,235,231,232,234,238,238,239,242,235,233,232,240,240,232,235,233,238,234,918,920,922,923,1044,1164,1351,1544,1600,1616,1608,1612,1558,1518,1499,1539,1482,1431,1415,1354,1320,1332,1266,1237,1208,1179,1146,1146,1116,1067,1057,1004,967,952,932,935,940,944,939,959,955,966,984,961,963,994,960,961,974,953,975,973,985,988,1139,1087,996,974,977,969,957,953,970,997,951,944,947,952,953,1080,1209,1400,1565,1647,1662,1658,1636,1602,1561,1542,1519,1482,1447,1453,1392,1361,1332,1302,1362,1242,1212,1178,1177,1147,1175,1085,1032,994,979,959,962,967,972,981,984,984,977,1004,1005,989,989,990,1008,1034,1026,1036,1014,1026,1007,1069,1015,1009,1043,1103,1050,1030,1014,1055,1068,1038,361,362,351,364,365,370,413,456,499,540,552,543,535,527,519,511,503,495,487,479,471,463,455,447,439,431,422,415,406,398,390,399,374,367,358,354,367,368,370,346,364,354,349,349,379,360,347,343,362,356,351,350,349,347,346,355,351,355,351,347,346,350,356,350,347,1578,1511,1599,1641,1758,2092,2201,2451,2448,2408,2400,2370,2366,2308,2254,2227,2171,2233,2138,2048,2034,1960,2084,1905,1857,1841,1792,1759,1715,1678,1624,1568,1619,1533,1529,1504,1541,1524,1612,1634,1634,1646,1663,1670,1663,1683,1655,1694,1671,1651,1669,1664,1685,1692,1685,1683,1674,1655,1675,1680,1673,1686,1662,1696,1665,66,67,67,67,67,68,76,84,92,100,107,105,104,102,101,99,97,96,94,93,91,89,88,86,85,83,81,80,78,77,75,74,72,70,69,67,67,68,46,46,46,46,44,44,46,46,46,44,46,46,44,44,44,44,44,46,46,46,46,44,46,46,44,46,46,492,494,495,497,501,543,614,685,796,839,848,796,784,771,758,745,733,799,707,694,682,669,656,643,631,618,605,592,580,567,554,541,529,516,504,500,501,502,509,499,498,501,500,502,565,562,503,533,519,502,499,550,556,570,560,569,557,570,571,542,530,521,507,503,501,204,204,205,206,206,214,242,271,299,327,341,336,330,325,319,314,308,303,298,292,287,281,276,270,265,260,254,249,243,238,232,227,222,216,211,207,207,208,192,193,193,193,193,194,192,193,192,197,194,194,194,195,195,194,195,195,197,195,194,193,196,194,197,195,196,227,228,228,229,230,239,271,303,334,366,379,373,367,361,355,349,343,337,331,325,319,313,307,301,298,289,283,277,271,265,259,256,249,241,235,230,231,234,224,223,223,223,228,228,224,227,226,225,228,226,230,230,230,233,233,232,230,232,232,239,233,248,248,251,249,716,712,689,681,709,782,871,972,1076,1103,1105,1101,1070,1112,1035,1017,1072,1083,965,947,930,912,895,876,860,842,866,807,790,772,755,737,720,702,775,685,687,688,700,694,697,697,697,691,698,695,699,693,695,695,701,702,703,703,700,699,701,702,705,713,705,712,700,699,707,570,574,572,578,576,631,715,800,906,932,947,928,906,885,887,861,841,826,836,801,796,777,751,736,729,707,696,684,662,659,644,626,602,597,578,581,572,583,567,577,567,583,579,587,573,576,584,575,572,576,571,575,573,571,577,582,578,575,575,579,580,596,587,595,583,813,831,891,922,994,1013,1161,1271,1298,1416,1404,1387,1289,1322,1300,1278,1262,1182,1211,1225,1258,1097,1066,1100,1156,1060,981,1028,979,1003,905,923,919,882,857,825,843,872,867,874,864,900,890,879,885,898,878,900,905,897,886,884,877,886,883,890,883,878,876,884,873,885,877,882,862,325,326,327,328,329,348,394,441,485,528,539,530,522,449,487,496,488,479,470,462,465,447,436,428,419,411,388,394,385,377,368,360,351,316,334,329,330,331,315,317,317,322,376,353,337,356,342,374,343,342,349,327,332,355,338,323,361,330,325,350,346,370,350,342,338,433,434,435,437,439,475,538,601,665,712,720,708,697,685,674,662,651,666,639,616,605,593,592,570,559,547,570,524,522,501,489,478,466,455,444,439,440,450,435,427,429,434,463,462,452,465,455,472,462,442,460,435,440,456,449,440,457,440,433,452,452,469,458,464,450,1030,1009,1035,1063,1215,1378,1530,1737,1774,1787,1777,1843,1721,1679,1658,1690,1635,1628,1614,1511,1509,1478,1405,1375,1340,1310,1300,1263,1259,1203,1159,1120,1081,1042,1045,1027,1054,1059,1078,1069,1060,1068,1139,1150,1110,1127,1111,1176,1139,1137,1159,1126,1115,1165,1159,1107,1158,1124,1130,1198,1153,1199,1180,1226,1160,1136,1135,1138,1195,1295,1539,1708,1903,1972,1976,1935,1901,1907,1810,1833,1823,1783,1746,1649,1633,1642,1570,1531,1524,1487,1450,1386,1379,1344,1309,1258,1246,1164,1168,1145,1152,1139,1145,1235,1200,1189,1274,1250,1246,1238,1212,1226,1256,1275,1249,1258,1265,1236,1238,1215,1253,1260,1253,1291,1287,1228,1213,1273,1203,1199,581,583,585,587,596,652,737,822,904,962,951,952,925,910,895,880,865,850,830,819,804,791,774,755,744,729,714,698,683,666,653,638,623,605,595,590,592,593,575,582,588,599,594,600,584,600,580,622,595,613,596,595,618,640,611,602,613,605,606,608,613,619,593,600,593,371,378,379,374,381,406,459,512,565,611,622,612,602,583,583,573,563,553,544,534,524,514,504,495,485,475,465,455,446,436,426,416,406,397,387,382,383,384,377,380,379,377,379,379,384,387,379,383,379,381,385,384,388,386,387,385,383,383,388,387,383,387,385,386,386,735,722,724,781,759,837,947,1044,1147,1157,1174,1146,1130,1115,1111,1134,1087,1067,1034,1034,975,980,960,943,915,883,886,859,852,822,806,785,768,748,735,738,740,742,743,735,747,737,761,783,744,744,749,764,764,759,763,768,764,767,759,759,748,764,749,770,766,766,761,763,783,729,713,725,722,747,826,970,1115,1161,1184,1201,1258,1163,1110,1164,1073,1064,1045,1043,998,1037,970,951,932,951,894,898,886,867,861,800,781,776,744,738,726,728,730,733,746,754,776,754,738,752,747,758,762,859,833,782,792,867,844,838,747,747,770,785,756,741,766,771,762,724,545,547,549,550,557,608,688,769,847,893,899,885,870,856,842,828,813,799,785,770,756,742,728,713,699,685,670,656,676,628,613,599,585,571,558,553,555,556,538,547,549,570,559,552,550,555,548,553,550,555,553,549,550,556,555,555,557,555,550,560,559,577,573,575,569,726,713,715,743,750,828,954,1035,1105,1148,1165,1137,1121,1106,1102,1125,1078,1058,1041,1025,982,971,967,934,906,890,877,850,859,813,813,776,775,739,733,729,731,733,738,722,721,725,709,769,729,744,747,743,768,755,756,732,754,778,810,735,735,776,737,762,744,730,762,770,741,471,473,474,476,491,520,589,659,747,775,804,788,779,767,733,720,708,711,683,670,658,645,633,620,608,639,582,583,557,567,565,520,507,495,483,490,491,492,484,485,485,501,495,487,490,507,494,494,504,514,609,608,626,546,491,485,498,494,490,492,492,493,491,493,493,0,0,0,0,0,0,0,0,0,0,0,0,0,0,0,0,0,0,0,0,0,0,0,0,0,0,0,0,0,0,0,0,0,0,0,0,0,0,0,0,0,0,0,0,0,0,0,0,0,0,0,0,0,0,0,0,0,0,0,0,0,0,0,0,0,644,665,648,703,687,732,829,926,1014,1057,1061,1044,1057,1010,993,977,960,991,926,909,892,875,883,884,866,807,813,779,757,737,723,706,724,672,677,673,675,658,653,647,667,683,656,676,657,671,659,666,676,656,656,664,661,674,666,666,662,663,667,668,663,664,655,678,666,1138,1142,1146,1251,1289,1455,1614,1749,1869,1848,1840,1827,1917,1752,1722,1738,1664,1649,1605,1599,1605,1517,1530,1458,1427,1520,1370,1403,1354,1281,1283,1269,1194,1171,1235,1168,1171,1174,1231,1225,1250,1250,1249,1284,1237,1254,1249,1273,1298,1268,1272,1284,1275,1267,1253,1262,1244,1274,1248,1258,1259,1268,1248,1262,1291,706,699,701,703,725,799,918,1025,1113,1138,1155,1139,1119,1102,1069,1064,1052,1014,986,990,972,942,924,906,888,869,862,849,842,807,779,761,751,738,718,731,733,711,710,702,701,709,725,744,718,726,730,744,748,726,735,718,722,746,753,726,747,736,723,754,741,746,748,770,743,1114,1113,1099,1133,1256,1536,1663,1858,1990,1933,1892,1859,1865,1768,1792,1762,1765,1680,1609,1594,1560,1526,1492,1452,1452,1385,1349,1372,1310,1256,1222,1211,1152,1149,1122,1118,1192,1129,1197,1197,1185,1205,1243,1239,1215,1210,1230,1262,1233,1271,1265,1261,1207,1214,1241,1249,1250,1222,1268,1318,1260,1253,1269,1242,1241,567,585,590,605,588,656,741,848,956,956,962,967,931,898,897,901,871,874,820,840,823,769,764,739,724,710,731,715,703,673,658,643,628,612,579,575,577,578,586,586,585,598,606,588,598,595,593,595,605,613,689,689,694,625,633,630,615,615,599,592,613,592,605,599,593,633,654,637,658,673,714,807,900,987,1031,1035,1019,1032,986,970,954,938,969,905,889,872,856,864,866,849,791,797,763,742,724,710,693,712,661,666,662,664,646,651,656,653,661,668,670,679,677,662,669,671,678,675,683,676,683,668,666,671,666,664,666,666,667,659,661,656,740,727,729,746,776,863,974,1061,1175,1215,1189,1196,1151,1132,1137,1147,1099,1079,1059,1040,999,1002,983,952,924,905,907,867,873,829,826,791,787,753,754,751,753,756,752,754,756,762,760,758,767,761,763,760,766,760,766,761,771,779,774,784,772,770,774,764,769,770,774,778,768,308,309,310,311,312,329,372,415,458,500,512,504,496,488,480,472,464,456,447,439,431,423,415,407,399,391,383,374,366,358,350,342,334,326,318,313,314,315,303,309,305,310,315,309,310,312,307,308,308,309,305,310,311,314,309,309,314,310,314,314,310,317,307,311,309,1036,1035,1021,1043,1151,1311,1528,1727,1787,1806,1768,1736,1745,1649,1676,1648,1574,1566,1502,1488,1456,1425,1393,1354,1357,1292,1258,1253,1203,1171,1140,1131,1073,1067,1042,1039,1044,1049,1052,1065,1073,1074,1089,1074,1073,1087,1074,1078,1092,1089,1099,1114,1105,1097,1078,1092,1093,1089,1082,1092,1095,1092,1103,1093,1089,1046,1047,1048,1074,1188,1359,1578,1775,1807,1852,1813,1781,1789,1692,1718,1689,1615,1586,1540,1526,1493,1461,1431,1389,1391,1324,1290,1266,1233,1201,1168,1158,1100,1077,1070,1066,1073,1076,1098,1091,1090,1096,1105,1114,1099,1105,1107,1147,1099,1099,1105,1105,1103,1100,1111,1108,1103,1107,1096,1121,1105,1108,1107,1106,1100,672,644,646,648,664,729,862,955,1041,1067,1088,1072,1055,1039,988,971,990,973,921,984,887,871,854,875,820,804,787,770,753,736,720,703,686,669,656,652,653,655,649,652,649,656,663,661,684,698,666,669,663,668,666,659,657,678,674,662,667,663,653,668,660,670,662,672,659,1674,1697,1773,1884,2110,2422,2599,2879,2797,2812,2758,2711,2702,2654,2634,2589,2546,2553,2417,2429,2371,2241,2284,2150,2228,2121,1996,2035,1980,1893,1856,1793,1771,1721,1735,1736,1733,1743,1984,1976,1987,1980,1970,1972,2002,2002,1981,2009,2025,1989,1996,2009,2021,2021,2017,2017,2000,2017,2027,2000,2012,2027,1996,2003,2009,427,429,430,431,433,466,528,589,650,697,707,696,684,673,662,651,640,628,617,606,595,584,573,561,550,539,528,517,505,494,483,472,461,449,438,434,435,436,422,422,426,437,425,425,424,429,430,425,426,427,429,431,427,431,432,433,432,434,431,434,438,454,455,458,455,483,495,503,505,536,552,616,691,752,795,804,792,780,757,748,735,723,700,697,685,712,659,638,641,621,616,632,618,605,573,563,550,520,525,495,491,492,493,484,486,484,498,490,503,486,491,500,492,487,490,485,491,490,485,493,498,493,490,491,493,498,510,500,509,499,365,366,367,368,369,416,447,499,551,597,608,598,589,608,569,560,550,567,557,547,511,501,492,482,472,463,453,443,433,424,414,404,414,385,394,371,372,373,365,368,366,374,430,412,389,419,397,435,414,407,408,379,384,406,389,378,417,392,377,404,396,429,406,403,388,534,536,535,537,546,593,675,754,832,873,884,866,875,838,827,813,799,803,768,774,743,747,731,700,683,669,658,658,627,616,599,585,586,559,559,542,544,545,563,532,536,538,533,542,540,550,544,570,547,538,540,541,542,541,547,546,542,545,541,541,542,545,544,552,549,288,288,289,290,291,305,344,383,422,460,474,467,459,452,444,437,430,422,415,407,400,393,385,378,370,363,356,348,341,333,326,319,311,304,296,292,293,293,278,284,281,281,285,285,286,284,282,285,280,284,284,287,288,287,288,288,286,292,289,284,289,282,286,292,286,672,675,676,678,698,773,873,972,1064,1115,1108,1089,1071,1055,1036,1018,1004,980,965,947,933,912,894,874,859,839,823,809,786,770,755,735,713,699,687,682,684,684,671,680,685,699,717,715,697,724,687,740,708,720,708,698,718,738,716,703,724,707,708,721,714,730,702,709,699,564,565,567,569,577,631,715,799,881,944,984,919,904,897,874,859,844,829,828,799,798,769,754,739,724,709,694,680,665,650,635,620,605,600,576,572,574,575,571,579,570,602,575,596,573,602,580,588,586,579,593,585,599,602,599,598,598,595,605,593,598,608,605,616,614,750,748,720,755,787,852,969,1107,1180,1234,1202,1200,1195,1145,1150,1257,1095,1137,1065,1046,1030,1018,973,956,930,915,910,896,861,860,802,788,799,782,760,758,745,762,774,755,749,756,776,778,774,783,782,798,774,815,824,808,785,818,791,781,799,789,824,882,863,882,869,830,829,534,536,537,539,546,596,676,755,833,879,885,883,857,843,828,814,800,786,772,758,743,729,715,701,687,673,658,644,630,625,610,588,582,559,546,542,544,545,534,547,546,555,555,559,547,564,541,572,554,572,553,557,575,590,570,562,564,562,569,564,563,569,552,561,552,1136,1135,1138,1195,1295,1539,1708,1903,1972,1976,1935,1901,1907,1810,1833,1823,1783,1746,1649,1633,1642,1570,1531,1524,1487,1450,1386,1379,1344,1309,1258,1246,1164,1168,1145,1152,1139,1145,1235,1200,1189,1274,1250,1246,1238,1212,1226,1256,1275,1249,1258,1265,1236,1238,1215,1253,1260,1253,1291,1287,1228,1213,1273,1203,1199,1565,1565,1693,1772,1951,2251,2536,2627,2686,2603,2549,2525,2466,2507,2433,2407,2376,2261,2301,2176,2128,2138,2085,2011,1934,1908,1884,1836,1834,1764,1696,1683,1576,1589,1626,1616,1581,1622,1724,1772,1733,1749,1763,1739,1761,1767,1765,1757,1786,1756,1770,1761,1780,1792,1820,1812,1793,1788,1819,1758,1785,1794,1812,1789,1778,444,446,447,448,451,481,548,611,675,722,733,721,710,710,682,671,659,652,636,629,617,616,594,583,581,559,548,536,525,513,502,490,479,467,456,451,452,453,449,445,446,453,447,476,452,477,473,454,485,455,457,457,454,469,455,454,461,464,456,454,454,464,455,469,453,938,941,944,954,1011,1125,1300,1431,1493,1527,1524,1539,1475,1451,1497,1402,1370,1371,1330,1306,1281,1257,1225,1209,1184,1160,1150,1112,1088,1063,1039,1015,1003,968,955,952,955,994,971,974,970,983,982,977,1004,1001,991,989,1004,1004,1078,1078,1092,1053,1000,994,998,996,998,1003,994,998,993,1043,997,914,917,964,943,985,1149,1255,1390,1536,1543,1550,1506,1490,1512,1477,1386,1395,1341,1408,1331,1295,1242,1254,1235,1177,1158,1109,1085,1092,1096,1047,1013,1007,944,959,949,953,974,967,959,970,961,985,1009,969,973,982,990,993,991,993,999,993,999,992,991,978,996,983,1007,1003,1023,1020,1024,1042,1168,1172,1191,1225,1336,1494,1733,1805,1940,1898,1879,1947,1810,1805,1775,1744,1696,1690,1728,1636,1593,1597,1551,1463,1427,1524,1403,1366,1355,1371,1289,1300,1217,1255,1241,1228,1194,1232,1268,1256,1226,1222,1258,1250,1251,1252,1259,1266,1313,1269,1279,1287,1282,1288,1272,1298,1297,1309,1342,1318,1299,1289,1346,1288,1307,968,988,988,1005,1080,1196,1356,1483,1581,1607,1545,1583,1548,1651,1490,1447,1446,1421,1584,1347,1360,1313,1306,1228,1206,1214,1198,1181,1143,1115,1087,1064,1006,1014,1010,1000,1028,1003,1023,1043,1030,1122,1061,1049,1030,1055,1053,1114,1118,1100,1128,1095,1065,1070,1095,1073,1061,1072,1165,1143,1105,1097,1122,1127,1092,921,924,955,934,992,1111,1246,1381,1527,1534,1541,1497,1481,1503,1468,1377,1386,1332,1399,1322,1286,1233,1245,1226,1184,1165,1116,1092,1099,1103,1038,1020,998,951,966,940,960,965,980,958,950,980,1024,1063,982,980,998,1019,1008,1024,1027,1027,993,996,1014,1011,1023,1004,1023,1089,1039,1046,1069,1021,1020,620,622,618,620,634,725,788,883,1069,1010,1053,999,983,966,986,930,1011,986,918,902,853,836,828,834,817,771,755,739,750,706,760,699,661,641,634,625,625,674,646,642,637,646,645,669,644,653,657,718,648,647,640,648,652,630,646,651,647,654,637,639,653,651,640,647,639,701,703,706,708,730,803,908,1013,1101,1142,1146,1127,1109,1091,1073,1055,1037,1019,1001,983,959,941,928,910,887,874,851,833,820,802,784,766,747,729,716,712,714,716,714,721,715,724,728,725,725,738,714,724,718,718,721,731,732,728,729,730,723,728,737,724,720,716,722,731,720,0,0,0,0,0,0,0,0,0,0,0,0,0,0,0,0,0,0,0,0,0,0,0,0,0,0,0,0,0,0,0,0,0,0,0,0,0,0,0,0,0,0,0,0,0,0,0,0,0,0,0,0,0,0,0,0,0,0,0,0,0,0,0,0,0,1315,1458,1345,1395,1547,1730,1925,2031,2119,2162,2165,2140,2099,2037,2013,1985,1912,1896,1917,1881,1782,1803,1724,1702,1636,1637,1585,1536,1517,1510,1458,1460,1377,1416,1350,1334,1365,1342,1450,1441,1436,1465,1493,1488,1470,1463,1480,1517,1489,1522,1526,1525,1474,1476,1498,1501,1505,1487,1533,1559,1513,1512,1531,1496,1494,1129,1154,1155,1188,1250,1551,1622,1745,1837,1866,1794,1782,1738,1773,1723,1675,1677,1648,1627,1566,1532,1518,1513,1431,1399,1379,1350,1321,1322,1288,1256,1242,1168,1186,1173,1169,1132,1178,1169,1211,1182,1202,1196,1180,1187,1196,1198,1192,1215,1191,1190,1202,1202,1206,1207,1225,1216,1213,1227,1200,1222,1254,1271,1238,1236,1563,1595,1623,1732,1907,2206,2408,2577,2687,2560,2507,2483,2425,2466,2374,2313,2323,2221,2244,2138,2089,2076,2016,1945,1903,1871,1828,1802,1783,1716,1662,1638,1584,1576,1592,1637,1546,1621,1675,1685,1685,1694,1711,1694,1716,1725,1731,1739,1738,1743,1756,1763,1776,1788,1794,1799,1805,1812,1809,1831,1825,1838,1838,1889,1892,1049,1031,1067,1086,1162,1313,1494,1615,1775,1700,1672,1745,1598,1626,1599,1560,1531,1513,1512,1521,1442,1468,1407,1312,1286,1276,1241,1234,1227,1180,1168,1165,1099,1117,1082,1117,1149,1075,1096,1112,1116,1133,1142,1120,1119,1153,1118,1122,1128,1108,1120,1130,1145,1146,1298,1244,1152,1136,1136,1127,1115,1114,1133,1150,1114,103,104,104,104,104,106,119,132,145,159,170,167,165,162,159,157,154,152,149,146,144,141,139,136,133,131,128,125,123,120,118,115,112,110,107,105,105,105,89,89,88,89,90,92,89,90,92,90,89,90,89,90,89,89,90,90,90,89,89,89,90,90,90,90,89,933,936,969,950,1008,1122,1271,1406,1551,1558,1562,1563,1504,1525,1490,1397,1404,1349,1419,1341,1305,1252,1264,1244,1199,1180,1131,1106,1164,1116,1053,1032,1012,963,978,947,972,980,971,969,990,993,1001,1038,998,1015,1009,1011,1040,1013,1022,1026,1023,1029,1000,1001,1008,1020,1007,1000,1014,1027,1007,1019,1022,663,665,664,669,688,780,903,956,1056,1086,1113,1073,1055,1038,1021,1003,986,968,977,934,916,942,886,824,807,830,812,795,778,785,743,749,675,720,699,695,675,696,702,686,682,689,693,693,749,740,700,726,709,692,702,737,745,753,743,746,743,764,743,728,724,710,697,694,685,1448,1446,1529,1623,1782,2072,2278,2465,2519,2438,2386,2365,2308,2352,2262,2202,2216,2115,2135,2035,1989,1978,1919,1850,1811,1781,1740,1716,1699,1634,1582,1559,1514,1497,1512,1490,1466,1541,1588,1580,1596,1608,1594,1596,1601,1618,1598,1609,1612,1598,1608,1640,1664,1640,1631,1619,1597,1612,1601,1593,1596,1613,1610,1623,1601,1475,1473,1562,1665,1828,2121,2326,2470,2542,2457,2430,2408,2350,2352,2302,2242,2254,2153,2154,2072,2025,1992,1953,1883,1846,1813,1770,1728,1728,1662,1609,1586,1512,1600,1539,1517,1494,1554,1658,1623,1628,1664,1641,1669,1642,1694,1677,1670,1674,1663,1672,1659,1689,1693,1669,1655,1690,1670,1652,1659,1675,1673,1663,1667,1654,928,919,934,945,1021,1133,1259,1397,1539,1510,1517,1552,1482,1458,1434,1393,1404,1325,1361,1275,1273,1230,1269,1203,1158,1149,1134,1111,1064,1040,1031,1005,999,972,940,942,945,956,942,952,958,976,978,978,970,1003,971,1000,985,997,1009,978,1008,1054,991,983,1001,997,989,993,1003,1015,986,993,985,1657,1666,1816,2001,2154,2433,2725,2774,2786,2773,2744,2766,2657,2714,2559,2552,2455,2407,2385,2310,2262,2214,2172,2134,2075,2021,1970,1963,1924,1828,1827,1735,1714,1686,1688,1693,1689,1697,1866,1923,1873,1901,1934,1895,1908,1934,1904,1912,1915,1902,1928,1923,1930,1945,2070,2016,1947,1934,1976,1918,1939,1950,1988,1947,1926,635,637,686,641,656,720,900,909,995,1039,1078,1065,1010,994,977,961,944,928,911,894,878,861,873,855,838,795,778,762,745,729,712,695,711,662,649,645,646,670,657,661,655,660,668,659,663,662,659,659,657,662,659,664,666,669,664,662,664,660,666,676,666,674,659,663,666,952,955,966,977,1043,1166,1359,1444,1568,1541,1534,1542,1479,1481,1456,1442,1386,1388,1404,1373,1308,1303,1278,1210,1162,1184,1152,1118,1115,1098,1061,1073,997,1025,1005,981,1019,996,992,997,1004,1011,1005,1008,999,1011,997,1029,1011,1009,1021,1019,1039,1059,1037,1030,1030,1022,1030,1031,1038,1049,1019,1030,1024,689,682,693,695,707,791,896,985,1086,1115,1063,1101,1098,1065,1061,1064,1011,993,1011,958,940,964,961,846,829,862,844,826,808,790,787,743,692,717,694,699,708,703,698,706,700,715,714,712,720,726,700,717,713,702,713,720,717,709,743,728,706,705,715,707,699,710,714,715,703,426,428,429,430,432,461,526,588,650,698,708,697,686,674,659,647,636,629,614,607,595,584,573,561,550,539,528,516,505,494,482,471,460,449,437,433,434,435,417,418,424,447,417,429,418,426,419,416,424,419,415,418,420,425,422,429,423,423,424,425,422,434,417,429,423,663,675,667,680,686,754,869,952,1040,1081,1086,1134,1068,1034,1080,1000,983,965,948,931,914,897,880,862,858,828,811,794,776,759,753,725,719,690,677,673,675,724,675,678,674,676,710,746,692,682,686,691,686,685,689,687,690,691,697,691,689,692,685,697,702,709,724,693,692,1093,1116,1116,1153,1248,1388,1580,1706,1798,1824,1759,1778,1742,1712,1678,1631,1627,1598,1583,1517,1484,1477,1467,1386,1360,1365,1346,1323,1288,1253,1221,1196,1137,1143,1139,1129,1156,1133,1167,1177,1165,1174,1180,1188,1185,1191,1175,1184,1177,1185,1183,1173,1172,1180,1183,1188,1172,1179,1170,1179,1170,1190,1183,1176,1164,1099,1109,1121,1143,1220,1380,1555,1688,1759,1799,1780,1789,1794,1705,1692,1628,1609,1581,1543,1550,1495,1479,1453,1410,1381,1345,1324,1477,1275,1290,1210,1180,1147,1138,1118,1123,1119,1127,1146,1158,1161,1188,1184,1170,1170,1196,1170,1183,1167,1170,1168,1183,1169,1184,1199,1195,1196,1183,1176,1190,1183,1228,1205,1216,1211,703,703,737,707,730,803,930,1017,1109,1146,1149,1136,1113,1143,1151,1057,1133,1021,1006,985,967,951,930,911,892,875,857,842,820,809,787,764,750,729,717,713,743,715,707,699,716,733,701,728,708,715,712,715,735,712,707,712,710,729,724,716,710,715,713,717,717,716,709,740,717,957,977,977,993,1068,1183,1342,1482,1567,1593,1531,1570,1535,1637,1477,1433,1433,1408,1514,1334,1358,1300,1294,1216,1194,1202,1186,1170,1131,1103,1075,1053,995,1003,999,989,1024,992,999,997,1014,1013,1026,1063,1020,1035,1035,1036,1062,1037,1035,1045,1040,1050,1028,1029,1032,1042,1027,1032,1039,1050,1034,1045,1049,1565,1565,1693,1772,1951,2251,2536,2627,2686,2603,2549,2525,2466,2507,2433,2407,2376,2261,2301,2176,2128,2138,2085,2011,1934,1908,1884,1836,1834,1764,1696,1683,1576,1589,1626,1616,1581,1622,1724,1772,1733,1749,1763,1739,1761,1767,1765,1757,1786,1756,1770,1761,1780,1792,1820,1812,1793,1788,1819,1758,1785,1794,1812,1789,1778,1051,1081,1069,1091,1178,1257,1407,1528,1668,1620,1648,1654,1590,1588,1531,1472,1449,1453,1462,1434,1452,1433,1312,1417,1321,1270,1268,1227,1197,1159,1183,1133,1114,1105,1055,1091,1069,1057,1081,1126,1080,1091,1099,1090,1096,1111,1103,1106,1127,1096,1104,1107,1112,1115,1110,1126,1126,1118,1133,1093,1122,1131,1147,1112,1108,1016,1019,1039,1033,1091,1075,1227,1341,1423,1487,1462,1463,1411,1405,1355,1332,1368,1337,1365,1260,1248,1201,1194,1178,1206,1158,1108,1075,1060,1036,1103,1120,974,925,1031,1041,1034,1036,1024,1015,1029,1036,1027,1024,1030,1031,1027,1037,1039,1030,1036,1076,1096,1072,1069,1037,1027,1046,1032,1026,1023,1043,1035,1051,1032,1668,1607,1657,1753,1925,2053,2195,2276,2340,2367,2481,2303,2432,2264,2264,2271,2126,2133,2144,2043,2034,1930,1966,1968,1885,1774,1760,1735,1698,1720,1715,1687,1554,1576,1646,1613,1642,1615,1799,1731,1726,1747,1736,1771,1812,1801,1786,1857,1778,1774,1848,1818,1828,1895,1828,1833,1813,1838,1878,1927,1954,1968,1945,1805,1790,766,742,744,746,772,726,875,942,1018,1062,1088,1057,1005,1001,984,967,949,974,917,923,883,866,849,833,825,799,782,765,739,793,804,824,681,656,754,723,752,779,744,721,726,732,731,741,741,753,738,743,749,752,733,736,736,743,737,732,740,740,740,731,732,739,728,741,737,1343,1369,1350,1431,1536,1584,1764,1894,1982,2007,1978,1963,2085,1899,1851,1819,1813,1756,1725,1707,1661,1643,1620,1580,1543,1503,1471,1466,1408,1415,1456,1429,1294,1274,1353,1323,1354,1407,1381,1376,1384,1389,1379,1386,1399,1404,1399,1379,1389,1376,1391,1381,1394,1390,1405,1384,1387,1396,1388,1402,1410,1394,1375,1392,1388,970,963,966,979,1037,1017,1151,1284,1366,1401,1399,1379,1356,1332,1310,1288,1313,1243,1221,1198,1176,1235,1209,1109,1096,1066,1042,1020,998,1117,1059,1044,909,887,979,947,978,1023,954,968,958,991,960,983,965,992,975,980,973,973,977,977,993,1001,997,1004,984,984,998,990,1003,1005,999,1012,1004,760,749,751,753,779,733,837,935,1021,1069,1135,1049,1012,1008,991,974,956,948,924,914,890,873,856,840,832,806,789,772,746,784,811,819,688,663,761,730,759,773,722,722,724,737,738,728,733,733,732,739,747,751,828,824,833,764,737,740,747,741,733,739,746,736,733,743,737,844,843,849,855,900,855,969,1090,1177,1217,1218,1198,1211,1159,1173,1120,1111,1150,1062,1042,1017,1003,979,964,984,925,906,886,867,843,939,917,789,769,860,857,859,861,829,844,836,862,855,863,863,862,843,862,847,836,851,853,855,848,879,866,843,839,852,843,838,852,854,860,844,1293,1227,1234,1281,1385,1465,1575,1710,1784,1832,1949,1776,1810,1718,1742,1782,1642,1638,1680,1546,1532,1489,1487,1555,1442,1375,1346,1318,1289,1324,1340,1309,1175,1223,1245,1242,1285,1248,1256,1303,1261,1276,1285,1277,1275,1288,1285,1281,1298,1276,1285,1287,1289,1295,1300,1312,1305,1304,1335,1289,1307,1330,1334,1317,1305,1315,1357,1357,1385,1503,1582,1735,1894,1909,1972,1930,1977,1873,1844,1844,1771,1759,1800,1717,1700,1647,1594,1600,1547,1584,1486,1461,1380,1395,1366,1468,1408,1256,1233,1340,1382,1375,1347,1352,1373,1373,1380,1397,1378,1382,1414,1382,1382,1398,1367,1390,1391,1406,1410,1501,1510,1426,1397,1402,1392,1384,1397,1414,1455,1394,0,0,0,0,0,0,0,0,0,0,0,0,0,0,0,0,0,0,0,0,0,0,0,0,0,0,0,0,0,0,0,0,0,0,0,0,0,0,0,0,0,0,0,0,0,0,0,0,0,0,0,0,0,0,0,0,0,0,0,0,0,0,0,0,0,1135,1130,1133,1178,1250,1266,1416,1554,1632,1663,1657,1630,1604,1577,1551,1525,1546,1472,1446,1419,1393,1445,1417,1328,1308,1275,1235,1209,1182,1195,1232,1215,1077,1054,1164,1115,1146,1170,1134,1146,1156,1168,1166,1184,1160,1173,1152,1157,1158,1154,1156,1169,1177,1189,1179,1191,1165,1177,1185,1172,1168,1158,1177,1185,1161,990,938,940,931,1000,1064,1210,1340,1365,1431,1430,1409,1389,1368,1348,1356,1307,1314,1291,1246,1277,1252,1184,1207,1150,1102,1103,1082,1056,1093,1008,985,987,962,1007,947,950,952,988,951,959,952,983,1017,973,982,988,993,1034,996,1005,1015,1011,1019,973,985,994,1020,1012,1021,991,999,1015,988,1000,1338,1315,1373,1468,1522,1629,1811,1917,2005,2037,1969,2006,1920,1940,1892,1860,1798,1742,1770,1745,1698,1648,1624,1604,1561,1537,1505,1457,1440,1428,1487,1439,1324,1277,1368,1339,1370,1437,1410,1409,1409,1424,1432,1418,1407,1434,1405,1425,1421,1422,1436,1512,1458,1436,1467,1441,1427,1427,1436,1443,1415,1429,1417,1432,1424,1304,1346,1343,1369,1481,1557,1707,1868,1883,1947,1906,1953,1850,1822,1822,1750,1738,1780,1698,1681,1629,1576,1583,1531,1569,1470,1446,1366,1382,1353,1456,1397,1245,1222,1328,1370,1364,1336,1381,1386,1378,1405,1433,1429,1409,1410,1418,1453,1415,1447,1450,1443,1407,1422,1421,1434,1440,1407,1447,1486,1443,1447,1450,1426,1421,698,691,693,695,713,661,748,836,919,962,967,952,937,921,906,890,896,859,844,829,813,798,782,767,760,736,721,705,690,715,765,759,628,613,702,672,701,751,670,664,660,670,677,702,670,679,687,692,675,678,668,676,677,662,677,682,679,680,669,672,686,691,684,690,678,1019,1022,1025,1045,1116,1181,1243,1446,1460,1513,1515,1467,1542,1452,1472,1372,1358,1389,1300,1277,1253,1229,1232,1201,1197,1134,1110,1131,1063,1114,1125,1099,968,946,1059,1034,1077,1040,1037,1042,1028,1066,1050,1042,1051,1072,1039,1040,1047,1055,1052,1044,1040,1046,1049,1053,1046,1052,1043,1047,1038,1053,1049,1047,1031,1026,1004,1027,1004,1083,1158,1317,1450,1473,1537,1594,1512,1490,1468,1446,1455,1401,1409,1381,1335,1364,1338,1268,1292,1230,1181,1180,1160,1129,1148,1079,1054,1054,1028,1044,1015,1017,1019,1021,1017,1021,1024,1027,1030,1032,1047,1038,1038,1030,1034,1040,1037,1040,1036,1035,1054,1044,1052,1042,1036,1059,1045,1042,1043,1034,885,889,891,879,940,998,1135,1260,1287,1354,1354,1335,1316,1296,1277,1287,1239,1247,1225,1181,1213,1190,1123,1147,1090,1044,1046,1027,1001,979,956,934,937,912,901,898,900,902,890,890,901,904,893,905,894,898,897,904,921,912,907,911,912,921,913,915,901,915,913,915,919,914,911,934,932,817,803,839,831,844,916,962,1038,1145,1191,1194,1170,1157,1149,1096,1097,1059,1098,1042,1036,1005,971,953,951,941,899,881,878,880,881,880,862,786,772,823,811,813,815,799,807,805,822,825,825,832,828,805,827,815,805,815,822,820,812,844,831,807,807,816,808,802,814,818,821,805,1070,1075,1078,1102,1173,1307,1435,1591,1641,1653,1648,1624,1600,1739,1552,1528,1515,1518,1480,1431,1505,1430,1359,1378,1382,1287,1263,1239,1224,1181,1154,1127,1125,1099,1089,1086,1088,1091,1095,1091,1136,1409,1151,1087,1129,1227,1166,1111,1206,1181,1122,1134,1208,1184,1181,1096,1129,1123,1164,1160,1114,1146,1119,1121,1134,848,851,853,859,903,891,978,1092,1179,1218,1219,1200,1343,1161,1219,1122,1113,1119,1064,1045,1025,1006,1014,967,987,928,909,890,870,851,943,921,793,773,864,861,863,865,836,828,841,855,845,841,839,840,851,854,856,844,853,884,906,884,875,859,841,855,847,846,835,860,846,864,841,1263,1239,1263,1340,1412,1467,1638,1748,1840,1875,1848,1849,1803,1790,1744,1714,1690,1636,1632,1610,1566,1551,1529,1480,1439,1418,1389,1371,1329,1320,1382,1337,1223,1175,1266,1237,1267,1334,1294,1295,1298,1306,1315,1300,1311,1327,1307,1323,1334,1312,1315,1325,1320,1346,1361,1359,1314,1330,1323,1323,1312,1306,1329,1349,1311,986,989,992,1009,1086,1105,1213,1327,1409,1444,1441,1418,1414,1372,1423,1326,1313,1297,1274,1234,1227,1188,1203,1161,1142,1096,1073,1050,1040,1021,1091,1065,935,925,1015,985,1015,1007,1019,990,1006,996,1005,1009,1050,1027,997,996,1017,1015,1013,1001,1003,1020,1007,1013,1003,1016,1003,1012,997,1006,1009,1019,1004,998,1002,1021,1012,1071,1054,1204,1317,1400,1463,1439,1440,1388,1383,1333,1309,1321,1316,1320,1239,1227,1181,1173,1158,1164,1117,1088,1053,1041,1017,1085,1103,943,907,1013,1040,1016,1018,1005,1022,1013,1101,1039,1026,1008,1032,1031,1101,1113,1070,1095,1067,1043,1044,1066,1055,1040,1045,1134,1110,1076,1065,1089,1091,1066,1460,1464,1504,1578,1725,1845,1968,2093,2161,2252,2191,2133,2161,2064,2081,1995,1970,1972,1891,1856,1886,1788,1779,1738,1722,1650,1616,1581,1547,1575,1584,1556,1412,1391,1484,1522,1526,1489,1560,1567,1539,1555,1559,1605,1563,1587,1600,1665,1582,1629,1612,1624,1597,1658,1633,1586,1588,1581,1610,1643,1625,1656,1635,1647,1609,901,899,986,943,965,1099,1176,1409,1508,1462,1519,1515,1368,1382,1445,1305,1283,1292,1360,1211,1190,1174,1148,1127,1137,1163,1073,1052,1031,1023,989,967,942,961,976,913,915,913,940,922,914,919,981,1031,947,942,959,980,960,985,982,986,954,959,978,970,986,968,986,1052,1001,1012,1029,983,985,1592,1617,1801,1911,1990,2172,2312,2322,2384,2445,2485,2332,2453,2306,2276,2242,2238,2150,2121,2040,2047,1975,2002,1905,1937,1883,1858,1828,1820,1766,1725,1686,1552,1534,1635,1675,1676,1693,1792,1797,1784,1885,1805,1826,1809,1857,1848,1897,1822,1864,1850,1856,1836,1904,1885,1824,1819,1809,1850,1886,1861,1901,1871,1879,1851,871,873,876,883,912,874,989,1099,1192,1303,1224,1237,1185,1197,1185,1126,1147,1130,1075,1056,1055,1016,1017,1001,996,1011,941,916,896,876,951,982,816,781,887,883,885,873,851,847,852,870,855,871,858,875,874,861,871,861,860,862,856,858,859,864,864,871,856,856,863,876,869,878,864,959,960,963,968,1025,1004,1138,1268,1352,1387,1385,1363,1341,1319,1297,1274,1300,1230,1219,1186,1164,1221,1207,1097,1084,1053,1040,1008,986,1003,1046,1033,897,876,975,936,975,1041,951,957,961,983,967,955,970,970,973,963,1015,999,960,981,1021,1011,1027,977,970,989,1007,970,963,978,983,958,952,1051,1081,1069,1091,1178,1257,1407,1528,1668,1620,1648,1654,1590,1588,1531,1472,1449,1453,1462,1434,1452,1433,1312,1417,1321,1270,1268,1227,1197,1159,1183,1133,1114,1105,1055,1091,1069,1057,1081,1126,1080,1091,1099,1090,1096,1111,1103,1106,1127,1096,1104,1107,1112,1115,1110,1126,1126,1118,1133,1093,1122,1131,1147,1112,1108,681,705,714,709,729,873,953,1077,1179,1221,1214,1193,1172,1151,1130,1109,1078,1126,1102,1040,1004,1029,1019,941,941,932,875,851,859,834,780,765,744,737,690,713,727,721,718,717,721,726,736,726,732,722,731,733,739,740,782,795,818,775,746,751,741,761,743,725,747,725,739,745,723,747,749,752,837,783,866,993,1094,1181,1221,1220,1215,1182,1162,1143,1124,1104,1085,1066,1046,1027,1007,988,997,949,930,911,891,872,853,833,814,855,849,762,758,760,762,782,789,807,782,787,806,783,784,790,823,820,813,813,813,809,807,810,807,782,812,801,806,807,792,797,798,822,930,917,935,978,980,1092,1278,1371,1457,1491,1486,1547,1430,1415,1446,1368,1344,1321,1342,1294,1250,1274,1222,1222,1188,1173,1108,1085,1097,1037,1013,990,966,960,931,928,930,933,936,939,945,948,947,953,939,953,939,965,952,948,958,960,971,986,973,968,967,961,968,971,970,978,958,968,962,462,458,417,466,420,451,509,560,601,641,712,645,638,630,622,605,607,590,591,584,576,568,553,542,546,521,558,500,489,479,468,457,447,479,473,469,469,423,425,425,426,429,429,430,434,432,431,434,433,434,438,438,437,437,445,442,441,444,444,441,447,446,445,447,446,520,522,523,525,531,579,656,734,810,877,862,848,835,821,807,793,779,766,752,738,724,710,697,683,669,655,642,628,614,600,586,573,559,545,532,528,530,531,523,525,527,537,571,568,550,580,559,577,572,565,556,541,545,569,550,538,568,550,540,555,553,573,553,557,546,179,180,181,181,182,187,211,235,259,284,297,293,288,283,279,274,269,265,260,255,251,246,241,237,232,228,223,218,214,209,204,200,195,190,186,182,183,183,165,166,167,174,166,169,173,172,166,165,170,171,170,166,167,171,169,169,167,169,165,166,165,167,167,167,165,425,426,408,428,411,442,500,551,592,632,703,636,629,621,613,596,598,581,582,575,567,559,544,533,537,512,530,491,480,470,459,448,438,445,435,431,432,414,417,417,417,432,427,419,422,434,424,423,438,447,550,544,556,470,419,418,431,429,424,425,425,423,424,424,426,650,652,654,655,695,752,869,941,1028,1097,1070,1055,1049,1021,1001,1008,960,952,935,937,910,883,866,849,832,807,817,773,767,744,729,712,688,724,664,660,662,657,663,656,659,664,670,657,662,657,667,671,668,666,670,690,672,662,685,677,667,674,666,675,672,669,672,669,667,566,568,569,571,578,632,714,796,878,923,928,913,898,884,925,854,840,825,811,796,781,816,752,782,723,751,694,679,665,650,635,621,606,592,578,574,576,577,568,563,565,579,572,580,569,575,575,578,572,572,568,575,571,564,572,579,578,576,572,569,578,586,582,586,577,987,1027,1027,1173,1121,1252,1433,1558,1637,1668,1692,1647,1583,1581,1501,1527,1498,1474,1476,1421,1434,1365,1368,1343,1289,1262,1268,1209,1214,1198,1130,1103,1222,1054,1062,1036,1042,1044,1081,1080,1082,1090,1092,1085,1105,1105,1087,1092,1090,1097,1095,1100,1104,1107,1104,1098,1104,1104,1120,1110,1100,1113,1093,1095,1096,933,920,903,932,1006,1074,1239,1392,1460,1512,1542,1490,1448,1556,1426,1418,1397,1365,1327,1329,1284,1284,1202,1192,1169,1151,1108,1085,1089,1019,1033,1038,978,1011,931,930,932,981,943,947,937,961,952,954,960,973,959,951,951,967,962,952,948,955,960,961,959,959,947,954,954,970,973,973,953,0,0,0,0,0,0,0,0,0,0,0,0,0,0,0,0,0,0,0,0,0,0,0,0,0,0,0,0,0,0,0,0,0,0,0,0,0,0,0,0,0,0,0,0,0,0,0,0,0,0,0,0,0,0,0,0,0,0,0,0,0,0,0,0,0,669,671,673,675,693,789,936,1033,1134,1177,1171,1150,1129,1109,1088,1067,1037,1026,1045,985,964,944,1006,903,962,861,875,820,800,779,789,730,717,716,699,679,713,686,694,697,693,705,707,700,713,732,707,715,721,722,799,792,802,751,720,705,716,707,703,714,712,710,708,718,708,536,537,539,555,562,615,696,778,793,903,908,894,848,865,812,836,821,787,792,778,729,749,734,720,705,691,660,609,648,633,603,604,575,575,548,558,545,521,527,537,539,561,548,540,541,544,539,544,539,544,542,539,538,542,544,542,549,544,540,548,547,576,571,572,567,976,1016,1016,1158,1103,1230,1406,1531,1610,1643,1667,1623,1559,1558,1478,1506,1476,1454,1456,1402,1416,1347,1350,1327,1273,1247,1253,1195,1200,1185,1118,1092,1208,1043,1051,1025,1030,1033,1054,1060,1052,1065,1081,1052,1061,1089,1060,1089,1063,1101,1087,1095,1077,1096,1095,1120,1100,1090,1093,1104,1115,1098,1108,1097,1127,495,496,498,499,504,548,621,663,720,761,819,760,749,739,729,709,708,689,724,676,666,656,662,649,645,623,610,597,584,571,558,545,522,519,507,502,504,505,492,485,485,488,513,502,498,494,499,494,509,514,533,511,524,506,529,507,516,536,564,523,517,523,537,550,518,581,568,582,584,567,635,719,803,883,929,996,918,921,907,863,859,885,852,814,816,785,770,755,740,741,725,696,694,666,651,636,621,609,592,591,575,576,578,562,562,575,601,572,584,562,577,567,565,570,572,563,572,576,587,582,584,572,580,579,583,582,587,573,584,577,592,593,595,596,606,688,794,901,1000,1045,1042,1023,1005,986,968,949,920,912,934,875,857,839,842,802,804,765,781,728,709,691,704,646,636,634,617,600,625,607,603,614,616,633,694,669,632,677,629,717,659,691,664,631,656,691,655,633,690,651,637,670,660,701,656,647,634,618,620,621,623,636,724,837,949,1050,1094,1089,1069,1050,1031,1011,992,966,954,937,915,899,972,857,838,818,802,780,760,741,724,702,675,666,644,628,627,623,634,631,632,629,641,646,632,640,640,637,642,647,657,731,733,736,675,661,670,655,659,642,642,656,634,646,641,636,330,331,332,333,334,354,401,483,527,568,580,571,563,555,547,529,530,513,514,505,497,489,444,435,426,418,409,400,392,383,374,366,357,348,340,335,336,337,325,323,328,338,332,328,331,334,330,333,334,334,354,360,368,349,337,332,337,343,342,332,335,343,333,339,334,1258,1304,1261,1305,1413,1752,1836,1980,2062,2142,2067,2117,2078,1962,1927,2018,1906,1823,1791,1753,1721,1774,1750,1613,1578,1589,1509,1592,1490,1427,1369,1327,1303,1292,1274,1320,1286,1292,1332,1322,1323,1342,1343,1363,1343,1356,1341,1365,1387,1360,1366,1361,1367,1388,1373,1366,1363,1379,1380,1392,1376,1369,1383,1396,1395,589,591,593,595,605,663,751,838,921,965,969,984,968,923,908,892,877,861,846,831,815,800,785,769,754,738,723,708,692,694,661,646,631,615,602,598,600,601,594,596,599,611,610,613,611,625,611,610,618,615,616,622,628,630,615,607,615,621,617,608,608,623,608,618,603,436,437,438,454,456,492,556,620,661,732,740,728,685,705,693,682,670,638,647,635,623,612,600,588,577,565,537,518,530,519,491,495,469,472,447,456,443,445,440,442,444,449,456,456,456,462,449,458,453,457,452,468,454,471,454,447,458,454,455,461,458,458,452,452,453,520,521,523,524,530,578,655,732,808,855,860,909,833,819,854,792,778,843,806,737,723,709,695,682,668,654,641,627,613,599,586,572,558,544,532,527,529,530,541,524,529,530,529,534,546,537,533,540,542,548,531,532,526,525,538,532,529,538,538,540,537,537,544,527,540,712,714,716,819,743,822,944,1040,1128,1169,1169,1164,1132,1113,1094,1076,1057,1038,1020,1001,982,964,945,955,908,889,870,852,833,814,796,777,819,740,726,723,725,726,728,726,724,729,735,743,732,737,740,779,730,731,733,735,733,729,738,740,735,738,728,741,735,738,740,737,733,840,843,845,846,884,980,1108,1247,1323,1361,1358,1347,1315,1294,1327,1251,1229,1208,1195,1173,1151,1170,1120,1123,1058,1078,1015,999,978,956,930,908,887,870,852,849,851,853,855,854,866,883,884,866,868,871,870,881,885,879,875,885,897,894,892,877,882,882,881,874,864,893,882,888,866,218,219,220,220,221,230,261,292,322,389,367,361,355,375,343,338,332,326,320,314,308,302,296,290,285,279,273,267,261,255,249,243,238,232,226,222,222,223,215,210,217,210,212,210,216,217,211,218,220,213,211,219,217,222,217,222,220,236,223,219,218,215,211,211,213,817,820,822,838,877,1034,1171,1257,1353,1399,1398,1374,1365,1331,1302,1285,1264,1275,1207,1196,1174,1164,1141,1088,1064,1040,1016,1017,1013,945,921,897,905,850,846,830,833,869,848,854,837,841,867,879,863,890,876,909,882,915,897,908,885,921,889,873,898,886,899,935,909,939,917,940,904,824,827,860,866,909,1013,1124,1301,1372,1378,1371,1357,1359,1306,1284,1253,1233,1224,1217,1194,1219,1150,1125,1105,1115,1055,1039,1017,994,972,950,896,946,859,830,868,839,883,853,859,866,885,879,883,871,890,859,871,869,867,871,882,883,892,913,896,864,869,882,882,876,881,884,897,877,167,168,168,169,169,175,198,221,245,268,282,277,273,268,264,259,255,250,246,241,237,232,227,223,218,214,209,205,200,196,191,187,182,178,173,170,170,171,158,163,163,165,165,165,164,164,161,170,162,163,164,165,170,174,172,166,166,162,166,165,165,167,162,165,162,681,705,714,709,729,873,953,1077,1179,1221,1214,1193,1172,1151,1130,1109,1078,1126,1102,1040,1004,1029,1019,941,941,932,875,851,859,834,780,765,744,737,690,713,727,721,718,717,721,726,736,726,732,722,731,733,739,740,782,795,818,775,746,751,741,761,743,725,747,725,739,745,723,261,262,263,263,264,274,308,342,376,410,425,418,412,405,399,393,386,380,373,367,360,354,347,341,334,328,321,315,308,302,295,289,282,276,269,265,266,266,253,256,256,257,256,257,258,257,256,257,258,258,258,256,257,257,257,257,256,259,258,259,258,261,259,257,256,1201,1214,1210,1253,1384,1552,1779,1935,2027,2059,2077,2007,1972,1983,1975,1911,1830,1825,1813,1724,1729,1653,1654,1623,1608,1511,1476,1475,1485,1369,1366,1307,1264,1322,1272,1251,1226,1291,1292,1320,1305,1329,1336,1318,1323,1359,1322,1328,1333,1312,1341,1332,1349,1349,1503,1449,1361,1335,1338,1318,1319,1320,1340,1368,1321,1278,1297,1372,1344,1449,1663,1931,2168,2249,2204,2252,2219,2079,2103,2105,2058,1938,1913,1984,1891,1788,1751,1746,1676,1677,1601,1564,1526,1489,1451,1430,1377,1341,1342,1331,1313,1303,1309,1364,1360,1374,1398,1386,1396,1391,1383,1389,1464,1397,1381,1407,1420,1433,1409,1418,1402,1374,1407,1382,1381,1381,1410,1394,1415,1381,880,883,886,888,969,1043,1166,1338,1392,1429,1414,1392,1368,1347,1335,1312,1293,1272,1237,1225,1193,1180,1187,1126,1112,1083,1067,1052,1022,1017,972,950,929,907,894,905,896,895,894,909,906,923,967,936,928,962,915,954,931,960,927,932,944,969,1074,1014,966,952,934,934,927,947,945,937,919,882,885,887,907,944,1083,1280,1424,1526,1566,1558,1530,1502,1474,1446,1418,1390,1362,1334,1306,1278,1266,1222,1194,1166,1138,1125,1082,1054,1026,998,970,942,928,898,909,914,918,917,917,916,930,954,917,925,943,931,934,939,947,1017,1023,1040,984,1016,1020,974,962,937,935,947,923,943,934,927,715,738,719,724,748,874,1008,1139,1268,1286,1283,1260,1244,1222,1190,1181,1154,1146,1097,1073,1071,1042,1016,980,970,935,910,888,880,840,817,793,770,762,729,727,731,812,764,738,733,735,730,781,740,756,753,759,776,777,772,752,776,799,832,759,753,793,758,787,771,756,790,795,763,871,874,877,883,960,1034,1171,1345,1386,1423,1419,1396,1373,1351,1326,1303,1284,1279,1238,1216,1192,1171,1178,1123,1103,1080,1058,1035,1013,1008,967,945,920,900,887,912,887,889,897,897,898,912,937,898,907,923,911,913,921,930,1001,1006,1024,962,993,993,955,942,915,914,928,902,922,914,906,1103,1107,1104,1141,1218,1407,1637,1832,1891,1932,1899,1894,1843,1847,1845,1777,1691,1679,1651,1591,1566,1533,1498,1500,1468,1392,1422,1368,1300,1266,1249,1200,1160,1140,1138,1160,1127,1126,1162,1176,1175,1187,1216,1181,1193,1231,1198,1205,1234,1212,1302,1292,1315,1249,1365,1306,1256,1215,1196,1190,1204,1195,1202,1230,1183,928,931,968,941,997,1141,1325,1548,1651,1631,1767,1593,1564,1590,1565,1531,1449,1420,1462,1409,1334,1305,1277,1248,1219,1190,1161,1133,1104,1075,1046,1018,989,962,944,943,947,952,965,946,944,952,988,1011,971,981,981,1005,1015,996,1016,998,997,1015,1028,982,1007,1012,1009,1040,1015,1031,1046,1077,1022,1479,1513,1515,1603,1789,2044,2237,2382,2465,2432,2499,2453,2421,2354,2369,2311,2211,2151,2180,2085,2036,2000,1994,1963,1913,1831,1771,1781,1702,1692,1614,1644,1544,1576,1516,1495,1508,1603,1658,1643,1648,1665,1652,1678,1662,1673,1662,1671,1673,1663,1662,1660,1682,1682,1687,1690,1697,1692,1681,1667,1675,1679,1687,1686,1674,926,954,932,934,989,1104,1250,1344,1414,1449,1448,1473,1406,1395,1364,1377,1354,1302,1281,1260,1251,1218,1197,1177,1183,1143,1114,1107,1066,1066,1018,1010,970,955,935,932,935,960,971,937,939,951,965,985,975,991,976,1000,989,958,974,958,969,975,970,957,981,965,955,968,975,992,974,986,969,652,653,655,656,674,801,897,1026,1171,1218,1216,1158,1136,1115,1129,1072,1050,1028,1007,985,963,942,920,899,877,887,834,812,790,769,747,725,704,682,664,662,666,670,655,657,669,685,672,675,667,679,668,692,675,672,702,702,725,721,694,684,687,692,689,682,694,708,684,693,680,0,0,0,0,0,0,0,0,0,0,0,0,0,0,0,0,0,0,0,0,0,0,0,0,0,0,0,0,0,0,0,0,0,0,0,0,0,0,0,0,0,0,0,0,0,0,0,0,0,0,0,0,0,0,0,0,0,0,0,0,0,0,0,0,0,912,914,917,925,950,1294,1306,1470,1572,1612,1602,1552,1545,1479,1467,1459,1431,1402,1373,1345,1316,1288,1259,1230,1202,1179,1121,1121,1087,1058,1015,986,963,946,928,926,931,922,967,931,935,942,924,940,936,940,954,1012,942,947,953,954,951,966,977,957,948,946,948,958,945,947,954,958,955,1468,1502,1500,1584,1765,2017,2211,2357,2440,2408,2475,2430,2399,2333,2349,2291,2192,2131,2161,2067,2018,1983,1978,1948,1898,1817,1757,1768,1689,1680,1603,1632,1532,1565,1505,1484,1496,1561,1610,1600,1598,1611,1606,1643,1610,1614,1640,1706,1623,1637,1636,1644,1649,1647,1669,1659,1647,1651,1644,1655,1662,1659,1655,1671,1660,907,910,913,942,1008,1086,1267,1444,1447,1483,1490,1490,1431,1442,1430,1396,1337,1313,1289,1266,1242,1219,1225,1206,1148,1146,1101,1077,1053,1062,1026,983,959,956,924,921,923,966,944,939,963,959,957,997,948,960,967,981,1007,982,984,992,986,981,965,971,953,982,954,970,969,981,960,974,1004,941,949,946,957,1016,1187,1332,1526,1597,1656,1627,1598,1587,1558,1518,1486,1488,1422,1395,1349,1353,1324,1279,1273,1236,1192,1177,1151,1123,1089,1047,1005,989,967,957,955,960,952,1000,1000,975,984,988,1006,992,1009,1012,1077,1006,1047,1040,1046,1015,1089,1054,1003,1007,996,1031,1062,1035,1065,1052,1059,1027,104,105,105,105,106,107,120,134,147,160,170,168,165,163,160,157,155,152,150,147,145,142,139,137,134,132,129,126,124,121,119,116,113,111,108,106,106,106,90,90,92,92,90,92,94,94,94,92,93,92,92,93,92,94,92,92,92,92,92,92,92,92,92,92,93,173,174,175,175,176,181,205,229,253,277,291,287,282,277,273,268,263,259,254,249,245,240,236,231,226,222,217,212,208,203,198,194,189,184,180,176,177,177,163,163,163,166,178,175,171,180,172,180,178,180,173,167,170,175,170,167,177,172,166,172,172,178,172,174,170,867,960,871,880,920,1121,1298,1452,1472,1513,1545,1460,1437,1435,1412,1389,1390,1319,1370,1271,1253,1224,1261,1208,1183,1117,1088,1086,1067,1007,980,953,926,921,882,880,885,916,909,892,896,899,931,930,940,937,921,953,928,912,929,904,905,920,922,912,930,905,900,924,921,943,930,935,928,711,723,716,698,719,794,929,1085,1096,1137,1138,1120,1123,1113,1077,1047,1029,1031,1020,986,956,949,920,902,884,889,847,829,811,793,806,756,738,720,721,702,756,706,708,725,721,708,709,715,718,721,716,744,737,733,748,728,730,724,747,735,726,746,816,766,753,730,761,746,756,1043,1046,1049,1101,1144,1311,1549,1680,1807,1813,1801,1769,1737,1753,1772,1689,1611,1579,1590,1516,1484,1453,1421,1431,1420,1326,1295,1319,1231,1200,1201,1136,1105,1078,1112,1090,1064,1069,1092,1101,1092,1138,1113,1111,1107,1122,1118,1127,1124,1119,1115,1110,1098,1101,1113,1122,1105,1105,1097,1103,1104,1118,1120,1124,1097,812,814,816,819,857,1182,1142,1298,1403,1446,1440,1392,1388,1362,1315,1310,1284,1259,1233,1207,1181,1155,1129,1103,1077,1057,1002,1005,973,948,906,881,860,844,826,825,829,819,820,829,832,855,840,839,832,855,836,839,835,839,831,841,837,848,853,846,846,840,836,850,846,870,848,860,853,921,948,926,962,992,1173,1323,1486,1588,1666,1598,1589,1597,1531,1491,1508,1467,1414,1386,1341,1328,1299,1271,1242,1213,1184,1155,1125,1115,1068,1026,998,969,960,937,936,940,944,945,986,947,958,984,969,962,970,967,978,980,959,970,973,983,985,982,986,983,976,989,981,996,1004,1009,1000,994,1166,1178,1174,1213,1339,1501,1726,1883,1976,2008,2027,1958,1923,1935,1928,1865,1784,1780,1769,1680,1685,1610,1613,1582,1567,1471,1436,1436,1367,1332,1330,1272,1229,1286,1237,1215,1190,1255,1254,1295,1254,1266,1284,1265,1275,1283,1281,1283,1294,1282,1302,1284,1288,1295,1299,1297,1298,1299,1334,1291,1319,1328,1345,1306,1299,1200,1207,1244,1247,1346,1554,1783,1987,2081,2065,2181,2013,1968,1995,1954,1922,1827,1799,1832,1774,1686,1650,1615,1580,1544,1509,1474,1438,1403,1372,1337,1297,1263,1236,1219,1234,1224,1229,1288,1261,1275,1299,1279,1290,1280,1309,1289,1295,1294,1277,1296,1320,1341,1326,1315,1307,1275,1303,1287,1276,1273,1307,1306,1313,1279,640,663,644,645,662,778,885,1022,1146,1167,1168,1154,1125,1103,1082,1060,1038,1047,993,972,952,930,909,885,866,844,822,801,784,758,734,714,691,688,653,651,655,659,656,648,654,652,661,671,670,674,666,683,677,660,667,656,659,670,667,664,668,656,656,661,664,671,668,691,671,1217,1276,1264,1274,1415,1656,1851,2027,2111,2108,2076,2050,2003,2020,1942,1895,1888,1822,1814,1808,1715,1704,1654,1605,1588,1589,1498,1504,1440,1389,1389,1316,1295,1269,1261,1262,1257,1255,1340,1295,1295,1310,1294,1323,1310,1310,1336,1388,1319,1335,1406,1333,1343,1413,1348,1332,1327,1333,1396,1466,1493,1524,1511,1376,1371,1290,1279,1262,1383,1487,1714,1866,2066,2078,2159,2069,2070,1981,2004,1982,1938,1871,1838,1805,1732,1720,1681,1702,1667,1571,1595,1506,1507,1459,1452,1413,1350,1371,1418,1297,1309,1283,1354,1380,1351,1366,1389,1369,1381,1371,1399,1379,1387,1384,1367,1387,1411,1432,1417,1409,1399,1366,1394,1378,1368,1364,1398,1397,1405,1371,703,726,707,709,772,876,978,1123,1252,1271,1268,1245,1229,1207,1175,1162,1140,1132,1082,1059,1050,1028,995,966,943,920,897,912,850,827,887,781,758,750,717,714,718,723,721,733,725,760,720,753,732,761,745,749,749,731,747,736,748,751,746,746,751,746,758,740,744,754,746,763,761,261,262,263,263,264,274,308,342,376,410,425,418,412,405,399,393,386,380,373,367,360,354,347,341,334,328,321,315,308,302,295,289,282,276,269,265,266,266,253,256,256,257,256,257,258,257,256,257,258,258,258,256,257,257,257,257,256,259,258,259,258,261,259,257,256,906,909,934,943,1037,1163,1348,1513,1605,1635,1626,1630,1568,1607,1499,1543,1510,1440,1394,1377,1382,1349,1317,1298,1233,1220,1188,1156,1124,1103,1059,1038,988,937,954,945,930,936,959,955,974,973,985,1022,978,993,992,993,1020,994,993,1003,999,1006,983,985,989,998,984,990,994,1007,989,1000,1004,746,739,750,744,772,852,990,1119,1206,1204,1205,1186,1167,1161,1151,1109,1090,1082,1063,1033,1014,1017,986,967,957,928,918,880,861,861,823,804,793,765,752,748,750,752,771,759,759,762,761,763,827,821,766,793,778,766,766,812,817,829,828,831,821,831,833,806,794,789,772,771,769,546,547,549,551,558,607,686,766,845,892,898,884,870,856,841,827,813,799,785,770,756,742,728,713,699,685,664,657,642,628,614,600,585,571,558,554,555,557,550,555,548,556,559,560,584,587,554,560,561,569,563,553,556,565,564,559,563,559,555,559,555,563,562,570,550,723,725,723,739,755,831,941,1024,1141,1181,1156,1140,1153,1109,1119,1086,1081,1062,1030,1025,1043,974,970,949,971,953,882,863,844,836,807,789,765,747,738,744,746,734,721,724,743,760,737,751,730,751,731,759,741,730,739,740,753,767,751,746,751,738,751,751,746,753,732,744,737,233,234,235,235,236,241,274,306,338,370,391,385,379,372,366,360,354,347,341,335,329,322,316,310,304,297,291,285,279,272,266,260,254,247,241,237,238,238,220,242,231,245,219,219,219,228,234,247,217,217,220,219,284,220,235,215,225,230,232,216,240,239,217,233,225,538,540,541,543,550,600,679,758,836,881,887,873,859,850,831,817,803,789,783,760,746,732,718,704,690,676,662,648,634,620,605,595,577,563,550,546,551,549,540,544,546,550,554,553,560,550,548,559,553,548,555,556,554,554,575,561,556,556,556,553,560,560,556,562,555,714,716,730,730,746,838,948,1015,1099,1143,1147,1131,1144,1100,1110,1077,1072,1053,1037,1016,1003,981,961,940,931,913,873,854,835,827,798,780,772,754,729,735,737,741,733,745,736,752,749,758,745,763,746,745,747,739,740,752,752,754,752,751,754,746,762,762,746,760,740,755,751,640,642,644,646,671,730,852,955,1053,1053,1046,1040,1034,1006,999,983,976,960,967,904,879,893,864,837,838,812,827,769,752,754,718,701,684,668,654,650,652,661,649,644,655,648,645,656,655,649,651,664,679,671,670,670,671,680,667,674,656,670,666,666,670,663,661,679,691,436,438,439,440,442,474,536,597,658,707,717,706,695,683,672,661,650,638,627,616,605,593,582,571,560,548,537,526,515,503,492,481,470,459,447,443,444,445,431,430,431,432,433,433,437,434,438,438,437,438,440,440,441,440,442,446,444,446,442,445,449,448,447,446,446,1029,1013,1029,1020,1108,1275,1431,1562,1640,1593,1645,1618,1592,1498,1562,1522,1487,1421,1445,1419,1361,1491,1333,1283,1273,1250,1206,1180,1154,1164,1120,1059,1051,1047,985,992,1032,997,1022,1019,1036,1037,1049,1085,1043,1059,1058,1058,1085,1061,1061,1067,1062,1073,1047,1049,1052,1061,1049,1058,1060,1073,1053,1066,1069,1226,1264,1259,1300,1436,1600,1797,1949,2027,2033,2002,2018,1977,1931,1893,1805,1833,1806,1728,1734,1632,1630,1590,1622,1523,1469,1448,1450,1422,1414,1369,1310,1283,1259,1261,1271,1238,1289,1325,1305,1310,1307,1341,1383,1328,1351,1356,1386,1369,1392,1397,1388,1356,1398,1358,1350,1359,1360,1378,1452,1430,1455,1432,1397,1412,499,500,502,503,508,551,623,696,768,815,822,809,796,783,770,757,744,731,718,705,692,679,666,653,640,627,614,601,588,575,562,549,536,523,511,506,508,509,498,496,501,498,504,502,525,508,508,516,525,509,510,513,523,532,513,519,514,513,523,518,514,523,514,563,517,895,897,900,907,976,1122,1304,1468,1561,1591,1582,1554,1525,1496,1457,1439,1411,1382,1353,1325,1296,1290,1230,1211,1182,1153,1125,1137,1068,1039,1003,982,953,955,912,911,916,921,955,943,945,937,975,1009,954,968,970,993,978,996,988,994,981,1001,977,976,982,975,971,1026,996,1005,989,991,1012,0,0,0,0,0,0,0,0,0,0,0,0,0,0,0,0,0,0,0,0,0,0,0,0,0,0,0,0,0,0,0,0,0,0,0,0,0,0,0,0,0,0,0,0,0,0,0,0,0,0,0,0,0,0,0,0,0,0,0,0,0,0,0,0,0,1018,1002,1018,1006,1090,1252,1403,1535,1614,1568,1620,1594,1569,1475,1540,1500,1466,1401,1425,1400,1342,1473,1316,1266,1257,1234,1191,1165,1140,1151,1107,1047,1039,1036,974,980,1020,986,1000,997,1013,1024,1023,1038,1015,1035,1009,1057,1029,1012,1024,1017,1031,1054,1035,1028,1038,1014,1024,1034,1032,1043,1020,1049,1024,737,740,742,744,773,854,968,1081,1170,1209,1210,1190,1170,1150,1132,1113,1094,1075,1055,1036,1017,997,978,959,939,920,901,882,862,843,824,804,784,766,752,749,751,753,753,739,741,744,777,774,785,781,767,794,772,759,774,747,749,766,763,755,774,749,745,767,766,785,774,777,770,435,436,437,439,428,475,538,608,671,711,720,708,697,685,674,663,651,640,628,617,605,601,583,571,560,548,537,525,514,508,491,480,468,457,446,441,442,444,440,440,441,437,435,435,448,445,435,438,444,440,439,441,442,439,442,439,441,442,440,435,445,439,442,440,445,817,819,821,825,880,1010,1175,1334,1430,1463,1456,1429,1403,1376,1339,1323,1297,1270,1244,1218,1191,1186,1129,1112,1085,1059,1032,1006,979,953,919,900,873,876,833,832,836,841,847,836,831,839,864,890,855,867,867,891,885,874,882,866,863,894,896,864,891,876,869,913,889,899,900,929,899,844,848,848,853,914,1050,1226,1384,1478,1510,1502,1475,1451,1420,1382,1365,1338,1311,1283,1259,1229,1295,1165,1147,1119,1092,1065,1037,1010,983,948,928,901,874,860,859,863,868,870,874,869,883,894,874,883,896,889,882,896,907,973,980,989,943,940,931,908,912,892,890,902,879,899,888,882,638,640,690,644,660,725,839,950,1035,1078,1082,1066,1096,1033,1017,966,984,968,952,935,882,866,849,870,816,799,782,766,749,732,715,699,682,665,652,648,650,682,641,640,644,659,647,654,644,649,655,648,646,647,644,649,645,641,648,653,651,651,646,647,652,662,657,663,655,1523,1527,1549,1593,1776,2141,2288,2428,2572,2571,2461,2418,2379,2333,2281,2395,2206,2163,2213,2092,2036,2083,1942,1908,1933,1834,1857,1841,1696,1693,1658,1569,1551,1563,1509,1495,1535,1508,1646,1657,1631,1646,1640,1674,1650,1673,1689,1749,1664,1698,1681,1692,1673,1728,1698,1666,1674,1656,1671,1717,1681,1710,1698,1702,1669,579,581,583,585,595,651,761,862,947,948,953,938,923,937,905,878,863,859,843,817,802,810,782,781,762,736,731,696,681,685,651,636,620,605,611,588,590,591,593,585,588,590,595,594,594,592,600,596,598,596,603,600,603,598,595,605,598,607,599,598,603,602,600,598,593,138,138,139,139,140,142,159,177,194,211,224,221,217,214,211,207,204,200,197,194,190,187,183,180,177,173,170,167,163,160,156,153,150,146,143,140,140,141,128,134,129,133,138,132,133,133,131,132,132,134,128,131,132,134,131,131,133,129,131,133,131,132,128,132,129,415,416,418,419,421,453,536,599,662,681,690,679,668,657,646,635,624,613,602,591,580,592,558,547,536,525,514,503,492,500,470,459,448,437,426,421,423,424,429,412,409,409,433,435,424,426,426,432,447,445,455,456,452,446,446,434,448,457,468,473,447,458,478,473,446,711,704,715,708,732,809,942,1065,1153,1152,1153,1135,1117,1111,1103,1061,1043,1036,1017,988,969,973,943,925,916,887,878,840,822,823,785,767,757,730,716,713,715,716,717,712,724,748,740,747,737,726,733,745,744,735,760,768,793,769,762,743,720,748,730,725,726,749,740,754,721,610,612,614,616,630,685,773,862,923,992,997,981,965,950,934,919,903,887,872,856,840,825,809,793,778,762,730,731,715,700,684,668,653,637,624,619,621,623,602,615,614,636,625,617,628,626,615,621,617,619,619,615,615,623,624,619,626,618,616,626,622,648,641,647,636,580,582,583,585,595,653,737,827,906,950,959,944,929,913,898,883,863,852,841,821,806,790,775,760,744,729,714,698,683,668,652,637,621,606,593,589,590,592,578,586,586,580,583,578,588,588,588,583,583,583,588,586,591,585,592,596,585,584,587,590,590,593,583,588,584,427,428,429,431,432,497,564,630,696,746,711,699,688,677,665,654,642,631,634,608,610,599,574,563,551,540,529,523,506,506,483,472,460,449,438,433,434,435,432,424,426,430,440,417,419,422,423,434,435,432,431,487,433,424,485,433,426,432,432,433,429,425,435,435,435,915,910,931,933,963,1098,1297,1411,1501,1494,1521,1414,1429,1415,1421,1371,1296,1334,1294,1276,1202,1250,1223,1162,1180,1112,1119,1089,1049,1042,1015,976,983,948,932,930,934,941,939,946,940,965,988,982,997,1007,967,1000,1006,1004,1028,1009,1006,1007,988,977,998,981,971,985,988,992,984,1006,978,530,532,534,535,542,592,671,750,827,873,879,865,851,849,823,809,795,774,766,752,738,724,710,696,682,668,654,640,621,612,598,579,569,555,543,534,540,537,549,525,527,530,527,532,534,539,534,534,537,532,536,536,534,538,538,536,540,538,536,532,537,541,541,542,542,906,909,934,943,1037,1163,1348,1513,1605,1635,1626,1630,1568,1607,1499,1543,1510,1440,1394,1377,1382,1349,1317,1298,1233,1220,1188,1156,1124,1103,1059,1038,988,937,954,945,930,936,959,955,974,973,985,1022,978,993,992,993,1020,994,993,1003,999,1006,983,985,989,998,984,990,994,1007,989,1000,1004,1537,1556,1611,1696,2003,2229,2392,2507,2614,2589,2550,2465,2456,2418,2374,2337,2300,2310,2205,2131,2073,2113,2060,1998,1875,1892,1867,1839,1757,1697,1693,1646,1573,1586,1536,1586,1585,1607,1708,1711,1700,1709,1715,1721,1731,1736,1719,1735,1731,1731,1732,1726,1732,1736,1738,1751,1720,1736,1727,1725,1725,1748,1725,1723,1702,399,401,402,403,404,432,488,544,600,648,659,649,638,628,618,607,624,586,576,566,555,555,535,524,523,503,493,483,472,462,452,449,431,420,410,405,406,407,401,402,400,401,407,409,415,434,410,416,409,411,411,415,411,427,416,407,412,407,407,418,412,415,410,419,409,904,907,909,917,1004,1077,1219,1354,1438,1472,1470,1447,1491,1410,1423,1353,1347,1324,1353,1260,1236,1213,1190,1166,1143,1112,1096,1073,1049,1026,1003,979,950,934,921,917,969,959,942,937,935,945,948,970,980,980,954,969,975,973,969,968,965,1005,999,965,965,967,945,981,959,961,963,991,957,892,955,916,958,986,1065,1205,1354,1474,1466,1447,1414,1404,1381,1383,1360,1315,1276,1271,1313,1207,1260,1215,1192,1115,1120,1107,1046,1090,1038,991,1005,945,987,911,893,950,940,922,943,939,957,1058,1000,966,1016,968,1084,990,1023,1003,962,986,1026,997,977,1031,980,970,1017,1004,1067,1007,996,975,1160,1193,1116,1186,1322,1459,1642,1797,1856,1870,1810,1821,1814,1840,1745,1733,1691,1702,1631,1536,1535,1572,1510,1460,1372,1401,1460,1374,1296,1283,1329,1224,1163,1201,1153,1186,1276,1213,1236,1243,1197,1203,1249,1234,1229,1238,1234,1239,1296,1246,1264,1276,1279,1258,1257,1268,1277,1292,1326,1264,1258,1273,1326,1275,1245,949,962,925,969,1060,1139,1306,1435,1508,1538,1679,1551,1543,1472,1447,1396,1394,1373,1381,1280,1299,1315,1255,1228,1162,1210,1151,1134,1105,1078,1055,1114,976,982,967,965,973,967,1005,1008,997,1082,1050,1050,1032,1024,1037,1072,1034,1065,1065,1054,1012,1031,1034,1052,1054,1019,1053,1101,1060,1053,1068,1037,1035,899,922,907,926,977,1072,1206,1345,1427,1457,1438,1421,1395,1372,1374,1351,1306,1283,1262,1304,1214,1251,1166,1152,1122,1111,1098,1053,1054,1029,982,996,936,936,902,900,957,947,920,917,931,943,942,955,935,954,928,971,947,929,940,936,946,967,951,943,951,930,940,947,944,953,935,962,938,569,571,573,574,584,639,724,809,891,936,942,927,1030,897,882,962,890,837,912,807,791,847,761,746,731,716,701,686,671,656,679,633,610,595,594,589,579,644,586,590,586,591,657,636,630,639,608,677,636,645,631,602,607,632,617,607,651,615,602,632,621,657,637,647,617,667,669,671,673,691,759,858,957,1038,1086,1091,1074,1057,1039,1022,1005,988,970,953,930,919,902,884,867,850,833,815,798,781,764,747,729,712,695,681,677,679,681,675,675,678,692,692,693,691,702,692,693,700,697,695,710,718,717,706,690,695,701,697,691,686,705,689,702,684,154,155,155,155,156,159,180,201,221,242,257,253,249,245,241,237,233,229,225,221,217,213,209,205,200,196,192,188,184,180,176,172,168,164,160,156,157,157,147,150,147,148,161,155,167,163,151,161,156,155,156,150,151,158,157,151,158,150,150,157,154,162,156,161,152,1291,1316,1316,1434,1436,1651,1806,1991,2031,2029,2157,1995,1974,1920,1980,1873,1908,1797,1836,1775,1784,1748,1839,1615,1609,1538,1554,1517,1484,1409,1455,1362,1351,1323,1334,1314,1292,1281,1407,1374,1366,1453,1428,1422,1412,1391,1404,1432,1456,1428,1443,1453,1425,1422,1391,1430,1441,1432,1471,1461,1405,1392,1448,1380,1378,1115,1123,1102,1155,1238,1374,1592,1697,1773,1791,1794,1803,1739,1709,1680,1632,1626,1615,1559,1500,1465,1488,1686,1427,1316,1366,1337,1332,1255,1227,1225,1191,1111,1144,1094,1129,1137,1136,1160,1156,1153,1161,1157,1159,1167,1166,1168,1164,1167,1164,1170,1172,1181,1181,1179,1188,1169,1182,1177,1175,1177,1196,1168,1173,1164,1568,1538,1596,1657,1891,2141,2406,2490,2512,2546,2508,2473,2415,2377,2334,2354,2247,2203,2157,2050,2035,2040,1982,1919,1838,1851,1803,1775,1704,1713,1707,1609,1534,1543,1569,1572,1551,1605,1651,1692,1683,1694,1709,1685,1704,1739,1692,1697,1713,1675,1708,1700,1721,1732,1887,1833,1758,1708,1712,1692,1689,1695,1713,1759,1693,1082,1054,997,1048,1193,1243,1437,1571,1639,1647,1591,1643,1640,1575,1568,1547,1516,1495,1433,1423,1384,1374,1352,1318,1232,1279,1288,1201,1257,1146,1106,1080,1021,1065,998,1031,1109,1080,1063,1060,1065,1060,1054,1053,1070,1069,1057,1060,1065,1062,1066,1069,1074,1066,1067,1063,1070,1072,1072,1070,1074,1075,1070,1066,1077,0,0,0,0,0,0,0,0,0,0,0,0,0,0,0,0,0,0,0,0,0,0,0,0,0,0,0,0,0,0,0,0,0,0,0,0,0,0,0,0,0,0,0,0,0,0,0,0,0,0,0,0,0,0,0,0,0,0,0,0,0,0,0,0,0,910,918,921,978,985,1090,1234,1371,1452,1485,1465,1442,1418,1395,1395,1372,1377,1301,1278,1386,1231,1260,1184,1193,1138,1129,1115,1067,1108,1045,997,994,950,950,916,912,969,959,958,939,966,957,965,953,951,958,957,1023,1032,970,983,986,978,976,967,992,944,961,951,954,959,953,947,976,977,691,663,601,635,677,754,806,901,1030,1031,1035,1019,1052,986,1013,933,936,920,929,843,870,893,838,821,765,788,772,755,739,722,706,689,640,656,640,639,703,678,654,648,648,655,649,656,653,659,651,659,654,647,653,651,655,657,657,656,655,655,656,657,653,667,653,660,656,1424,1455,1504,1551,1767,2006,2217,2336,2387,2424,2387,2304,2298,2263,2221,2178,2138,2097,2053,1947,1934,1942,1885,1824,1746,1761,1715,1689,1620,1579,1589,1530,1455,1464,1422,1472,1471,1510,1504,1547,1512,1516,1547,1529,1533,1543,1543,1544,1562,1537,1545,1555,1558,1564,1572,1573,1577,1572,1585,1575,1589,1603,1618,1598,1598,1451,1465,1519,1592,1816,2056,2269,2383,2549,2447,2431,2347,2341,2304,2262,2195,2177,2135,2090,1984,1973,1977,1922,1858,1759,1792,1746,1718,1649,1610,1587,1540,1482,1491,1449,1482,1575,1508,1585,1578,1593,1608,1609,1648,1594,1625,1591,1602,1614,1616,1595,1614,1636,1660,1639,1663,1616,1644,1637,1629,1637,1617,1654,1663,1619,894,885,916,932,987,1087,1198,1357,1436,1474,1454,1432,1410,1386,1384,1333,1318,1294,1307,1229,1266,1221,1178,1140,1136,1163,1119,1062,1039,1002,980,957,934,912,911,936,898,900,907,904,906,922,914,922,909,914,916,914,912,913,909,916,914,908,914,921,917,915,913,920,917,932,922,928,916,1602,1594,1684,1821,2033,2369,2537,2650,2845,2705,2667,2630,2638,2519,2479,2425,2394,2384,2304,2234,2236,2144,2130,2103,2009,1967,1924,1878,1831,1793,1722,1683,1717,1627,1619,1678,1653,1688,1800,1804,1762,1758,1803,1787,1800,1808,1804,1811,1863,1815,1825,1840,1838,1846,1819,1848,1862,1863,1896,1854,1845,1851,1908,1839,1843,636,603,618,620,634,677,766,855,939,1007,989,973,957,996,926,914,895,879,863,848,832,838,800,785,781,774,780,722,706,691,722,680,643,628,614,610,625,613,618,615,622,625,634,630,632,619,632,636,634,633,641,670,693,675,656,653,637,662,641,625,645,626,639,646,621,950,964,913,940,1028,1126,1293,1435,1512,1522,1468,1484,1483,1454,1417,1419,1383,1381,1327,1254,1249,1268,1229,1191,1108,1184,1144,1110,1116,1049,1026,1001,945,980,922,955,973,969,959,973,981,990,971,999,985,983,977,982,1106,1067,1004,1017,1096,1078,1069,978,983,1005,1024,997,976,991,1005,971,952,655,680,617,651,709,747,832,945,1033,1060,1079,1106,1080,1027,1010,959,962,959,963,867,907,916,872,843,786,809,792,775,769,752,734,707,657,673,669,665,667,669,680,659,677,664,664,670,717,682,659,666,685,680,672,669,669,680,667,682,672,672,671,666,662,670,675,693,664,381,382,384,385,386,412,466,521,576,623,634,624,614,604,594,584,590,564,554,543,533,523,513,503,493,483,473,463,452,442,432,453,412,402,392,387,388,389,374,385,383,387,388,388,385,388,380,396,383,383,387,389,401,406,402,393,393,385,396,393,394,396,387,396,387,629,631,643,635,687,710,804,897,983,1026,1031,1015,1015,982,1013,950,948,917,901,884,868,852,835,832,816,799,770,754,737,733,705,689,672,667,642,638,676,678,668,651,648,660,637,648,644,646,664,685,645,656,661,661,676,675,686,660,657,653,663,663,659,657,661,664,660,1077,1092,1053,1113,1227,1328,1521,1658,1729,1753,1775,1760,1725,1660,1635,1583,1579,1555,1555,1452,1467,1488,1439,1391,1318,1323,1297,1279,1246,1216,1190,1192,1104,1110,1095,1094,1108,1097,1139,1139,1093,1090,1133,1118,1122,1129,1127,1146,1184,1133,1142,1154,1156,1157,1133,1164,1166,1173,1206,1168,1150,1153,1206,1138,1143,1112,1073,1071,1096,1220,1321,1499,1704,1704,1734,1727,1699,1729,1652,1652,1866,1561,1534,1565,1488,1486,1423,1587,1368,1340,1312,1285,1257,1235,1195,1174,1195,1119,1090,1084,1074,1120,1123,1122,1112,1108,1123,1111,1145,1115,1123,1146,1202,1126,1145,1143,1147,1139,1142,1161,1139,1129,1136,1136,1145,1139,1143,1144,1154,1134,644,646,645,682,666,728,824,921,1007,1050,1101,1038,1021,1004,992,971,995,941,920,912,948,874,857,836,823,810,793,769,752,739,727,705,693,679,666,654,699,684,661,653,664,661,671,705,666,676,676,684,700,680,683,686,682,685,674,678,671,680,668,676,683,687,683,692,692,938,951,914,958,1048,1126,1292,1421,1494,1537,1532,1538,1541,1458,1434,1383,1381,1360,1368,1267,1287,1313,1243,1216,1254,1198,1139,1122,1093,1066,1044,1014,965,970,955,954,962,956,957,959,962,974,959,963,969,978,969,1034,970,961,976,974,985,976,974,975,969,986,974,970,975,994,974,984,977,1537,1556,1611,1696,2003,2229,2392,2507,2614,2589,2550,2465,2456,2418,2374,2337,2300,2310,2205,2131,2073,2113,2060,1998,1875,1892,1867,1839,1757,1697,1693,1646,1573,1586,1536,1586,1585,1607,1708,1711,1700,1709,1715,1721,1731,1736,1719,1735,1731,1731,1732,1726,1732,1736,1738,1751,1720,1736,1727,1725,1725,1748,1725,1723,1702,866,838,868,872,940,1153,1301,1526,1497,1569,1521,1494,1466,1439,1437,1425,1416,1386,1317,1306,1257,1263,1231,1200,1171,1140,1074,1091,1017,1017,969,945,918,896,852,874,879,876,890,893,879,874,892,885,925,892,894,908,891,892,893,892,902,900,897,906,896,915,936,897,905,907,901,901,896,538,539,541,552,549,599,690,756,929,879,884,870,856,842,828,814,800,786,785,771,744,731,717,703,689,675,661,647,633,619,605,591,627,563,550,546,547,572,559,560,557,563,568,560,563,568,555,563,560,562,557,564,563,565,562,563,563,560,567,573,563,569,559,563,562,967,978,958,978,1037,1180,1390,1473,1589,1563,1589,1532,1530,1474,1449,1431,1459,1383,1359,1354,1402,1348,1365,1235,1254,1203,1208,1135,1111,1086,1099,1037,1090,1048,977,974,976,986,1003,986,989,991,1001,1029,1021,1019,1008,1019,1044,1022,1027,1021,1027,1038,1061,1023,1028,1042,1040,1046,1032,1029,1054,1099,1047,116,116,117,117,117,119,133,147,160,174,184,182,179,176,174,171,168,166,163,160,158,155,152,150,147,144,141,139,136,133,131,128,125,123,120,118,118,118,108,101,101,102,105,102,103,105,101,102,102,102,103,103,103,104,106,105,106,105,104,104,103,105,105,105,106,642,644,646,648,664,732,847,927,1035,1077,1059,1042,1025,1008,991,974,957,940,924,907,890,873,856,861,822,805,788,771,768,737,720,703,686,669,690,652,654,656,656,661,657,669,670,666,674,684,654,671,663,660,669,675,672,668,690,676,662,660,675,666,654,663,664,672,661,274,275,275,276,277,292,328,366,404,442,454,447,440,433,425,418,411,404,397,390,383,375,368,361,354,347,340,332,325,318,312,304,297,289,282,279,279,279,264,263,258,264,266,287,263,268,274,271,265,268,259,265,268,257,265,266,266,266,263,263,270,269,263,268,262,107,107,108,108,108,110,124,138,151,165,175,173,170,167,165,162,159,157,154,151,149,146,143,141,138,135,132,130,127,124,122,119,116,114,111,109,109,109,95,100,95,97,101,96,97,97,96,96,96,97,94,96,96,97,96,96,97,95,96,97,95,97,95,96,95,413,425,419,420,419,492,526,577,653,685,689,694,683,672,648,637,638,627,607,593,593,567,560,548,547,536,515,514,467,482,473,456,449,445,427,424,401,421,416,416,415,419,415,418,417,419,418,416,418,414,418,416,418,419,416,418,418,420,420,425,417,429,417,420,419,611,613,614,616,628,689,849,869,1013,997,1000,984,968,953,937,920,957,890,874,858,842,900,899,795,779,763,797,731,716,700,684,669,707,696,624,620,622,623,631,630,633,631,670,661,677,679,646,680,669,670,666,645,652,683,664,652,667,652,640,659,655,677,661,670,663,777,816,819,832,861,995,1262,1209,1311,1333,1331,1344,1288,1267,1246,1201,1200,1336,1123,1152,1070,1097,1076,1055,989,1009,988,993,949,927,906,914,864,871,829,824,828,854,850,843,839,845,854,847,852,850,851,850,850,856,859,856,860,854,851,859,853,861,851,863,859,864,848,848,847,649,675,670,684,672,741,875,996,1073,1072,1073,1104,1069,1022,1040,1000,992,990,972,955,948,891,874,853,857,848,822,805,793,744,748,735,693,693,662,688,668,662,671,670,678,693,694,699,692,672,687,700,706,695,726,715,722,705,697,693,679,685,680,689,682,686,690,694,677,438,440,441,442,444,502,542,620,667,732,723,712,700,689,677,666,655,643,632,620,609,611,586,575,563,552,540,529,518,506,495,483,472,461,449,445,446,447,446,444,441,446,442,448,445,447,445,446,446,439,442,442,445,448,446,447,445,445,447,447,444,454,442,448,444,825,827,866,906,885,1112,1189,1465,1453,1512,1478,1451,1424,1396,1369,1367,1315,1288,1309,1266,1295,1264,1167,1148,1099,1072,1037,1018,991,956,937,910,883,922,833,907,844,841,864,870,859,877,871,870,877,893,867,870,874,877,874,870,868,873,875,877,870,878,870,875,864,879,870,874,861,658,660,676,653,687,737,871,973,1020,1103,1090,1065,1055,1052,1034,1016,963,981,936,905,909,884,875,882,809,840,823,805,759,770,752,716,702,688,705,682,684,665,678,684,674,682,690,692,697,705,686,689,693,701,689,687,689,698,691,690,694,690,686,697,684,698,684,690,678,766,805,808,820,846,975,1201,1181,1284,1307,1305,1319,1264,1244,1223,1179,1178,1315,1102,1132,1051,1079,1058,1038,972,993,973,979,935,914,893,902,852,860,818,812,817,842,818,818,822,831,831,838,840,851,838,835,846,837,839,840,839,847,845,835,846,844,845,844,841,853,833,843,835,0,0,0,0,0,0,0,0,0,0,0,0,0,0,0,0,0,0,0,0,0,0,0,0,0,0,0,0,0,0,0,0,0,0,0,0,0,0,0,0,0,0,0,0,0,0,0,0,0,0,0,0,0,0,0,0,0,0,0,0,0,0,0,0,0,396,397,399,400,401,431,488,544,571,648,637,646,636,625,615,616,594,584,573,563,527,542,532,521,511,500,490,480,469,459,448,438,427,405,407,402,403,404,397,397,394,395,396,395,397,396,397,395,396,397,400,397,401,401,402,403,399,400,400,403,402,409,401,403,403,747,749,767,782,792,1001,1064,1331,1321,1383,1351,1326,1301,1276,1251,1268,1201,1176,1174,1158,1123,1098,1042,1063,1002,977,944,927,902,869,852,827,803,823,754,760,765,762,761,764,775,786,772,783,774,791,767,781,775,766,770,776,781,784,783,779,770,770,783,776,769,769,766,786,774,774,776,778,782,824,1041,1110,1352,1373,1404,1401,1371,1345,1320,1297,1268,1242,1217,1191,1197,1142,1114,1079,1062,1036,1013,976,962,933,899,884,856,830,804,781,787,792,789,793,789,804,843,822,825,820,799,813,830,831,809,840,844,863,843,845,829,805,818,805,808,802,818,812,850,795,157,157,157,158,158,161,176,191,206,221,232,229,226,223,220,217,214,211,208,205,202,199,196,193,190,187,185,182,179,176,173,170,167,164,161,159,159,159,148,146,146,151,144,154,147,147,149,150,156,149,149,148,147,154,159,148,147,151,148,151,149,147,150,158,148,1314,1328,1339,1378,1495,1682,1896,2131,2144,2209,2094,2101,2111,1994,2079,1939,1905,1872,1849,1817,1929,1867,1707,1662,1639,1621,1584,1580,1512,1511,1421,1388,1370,1408,1387,1330,1427,1425,1464,1433,1437,1444,1452,1478,1495,1498,1471,1501,1476,1451,1444,1509,1513,1501,1503,1518,1505,1522,1502,1496,1497,1481,1452,1459,1448,399,381,383,384,385,412,466,520,574,620,629,619,609,628,589,608,569,560,550,540,530,520,510,500,490,480,470,460,450,472,430,420,430,400,390,386,387,388,381,383,385,402,394,383,388,397,388,387,407,414,504,515,534,427,384,387,399,397,395,383,392,394,392,392,394,558,559,575,577,576,640,724,808,889,934,923,901,894,893,879,864,849,834,791,764,771,748,742,752,713,716,701,686,671,657,642,608,597,586,604,580,582,588,579,579,580,583,594,596,619,618,591,607,601,596,594,592,590,614,605,596,600,586,586,595,594,602,594,618,593,311,312,313,314,315,333,377,421,514,507,519,510,502,494,486,477,469,461,452,444,436,428,419,411,403,395,386,378,370,361,353,345,337,328,320,316,316,317,303,314,312,319,317,322,312,328,309,317,311,307,312,319,320,322,319,316,312,311,326,322,309,312,309,317,310,503,504,506,516,512,558,644,706,795,826,832,819,806,792,779,766,753,739,738,725,699,686,673,660,646,633,620,607,593,580,567,553,540,527,514,510,512,536,501,502,501,504,527,549,514,508,509,511,510,508,510,513,513,513,511,515,515,514,513,518,525,531,538,519,519,846,849,850,856,898,998,1128,1258,1403,1380,1377,1355,1333,1325,1290,1267,1297,1224,1202,1181,1159,1137,1115,1105,1119,1092,1028,1045,984,962,939,918,896,875,862,859,861,862,870,868,868,870,874,877,875,877,879,871,877,875,879,876,882,888,889,891,876,883,881,890,888,900,889,897,890,391,399,394,395,408,421,477,549,596,625,632,623,619,604,621,612,581,595,569,558,548,537,527,531,506,504,485,475,472,461,439,440,434,419,409,407,410,409,396,397,399,406,406,412,407,415,411,404,415,407,401,404,406,415,403,404,409,407,406,404,404,411,399,411,402,1010,986,1003,1000,1078,1142,1402,1454,1504,1631,1532,1519,1486,1464,1435,1581,1444,1385,1341,1365,1347,1328,1273,1225,1254,1233,1207,1122,1155,1086,1058,1059,1030,1024,998,983,1002,998,999,1006,1019,1029,1054,1027,1032,1024,1021,1026,1015,1008,1019,1022,1026,1029,1045,1032,1008,1007,1015,1014,1013,1020,1028,1035,1012,513,484,516,518,523,624,641,720,795,842,847,834,820,807,787,780,766,753,758,726,713,699,646,669,657,645,632,618,605,591,578,564,551,593,525,490,522,524,522,526,524,544,598,557,545,580,552,594,578,582,644,602,609,590,550,533,584,545,537,556,557,585,563,557,554,263,263,264,265,266,289,316,353,391,427,440,433,426,419,412,405,398,391,384,377,370,363,356,349,341,334,327,320,313,306,299,292,285,278,271,267,267,268,284,249,245,245,263,263,262,254,253,261,291,264,271,280,282,281,251,262,276,288,300,286,257,259,291,251,248,866,838,868,872,940,1153,1301,1526,1497,1569,1521,1494,1466,1439,1437,1425,1416,1386,1317,1306,1257,1263,1231,1200,1171,1140,1074,1091,1017,1017,969,945,918,896,852,874,879,876,890,893,879,874,892,885,925,892,894,908,891,892,893,892,902,900,897,906,896,915,936,897,905,907,901,901,896,960,935,960,975,1077,1237,1376,1541,1717,1677,1733,1693,1678,1566,1636,1546,1488,1476,1443,1411,1379,1382,1339,1320,1251,1221,1218,1181,1134,1103,1073,1053,1021,962,978,951,1018,1012,984,982,998,1009,1007,1022,999,1020,993,1040,1014,996,1008,1001,1016,1038,1020,1012,1021,998,1008,1016,1015,1024,1003,1031,1007,387,389,390,391,392,420,486,529,583,630,663,653,642,632,621,614,600,593,581,569,538,548,518,506,518,491,481,487,475,465,454,444,427,423,396,393,394,395,396,395,395,402,401,397,399,408,391,402,400,396,397,403,402,400,400,402,400,400,404,396,396,396,396,399,395,644,646,642,650,665,750,826,947,999,1054,1056,1039,1023,1006,989,972,977,939,922,905,889,872,855,838,822,805,781,771,754,768,721,721,687,671,657,653,655,682,651,662,651,684,649,675,654,680,663,672,668,660,675,666,679,679,677,676,680,676,689,674,678,685,680,691,692,477,510,493,495,499,534,605,690,761,812,803,797,788,775,763,750,754,716,715,715,673,665,647,635,622,637,624,597,584,564,538,546,527,506,488,484,485,539,485,488,498,511,500,507,488,509,491,494,495,493,493,502,503,509,504,504,496,500,508,510,502,502,502,509,503,581,584,597,586,616,636,711,805,887,949,962,947,931,916,900,897,870,853,839,823,813,793,788,766,747,736,714,708,685,668,654,639,624,608,611,591,592,616,584,587,594,616,590,603,590,600,588,590,595,590,585,596,594,602,598,602,596,599,605,598,595,606,586,600,594,386,388,389,390,391,419,474,573,584,631,642,631,756,611,601,591,581,570,560,550,540,530,520,509,499,489,479,503,459,448,438,428,418,408,398,392,393,394,391,388,394,389,391,396,410,394,388,396,404,406,401,399,401,409,399,402,394,399,392,393,394,393,394,401,406,484,501,484,486,490,541,612,681,752,803,794,788,779,766,754,741,745,707,722,706,680,656,654,642,629,628,615,588,575,555,545,537,518,513,495,491,492,530,507,480,486,487,484,495,492,501,496,492,500,490,492,493,490,496,494,493,496,496,492,488,492,496,495,500,496,299,300,301,302,303,321,363,406,470,502,501,493,485,467,490,482,453,455,447,439,419,432,403,406,379,373,363,357,348,342,341,333,325,317,307,304,305,328,299,299,304,317,307,307,305,316,304,310,307,303,316,319,327,324,317,310,305,319,314,303,309,322,311,317,305,296,297,298,299,300,315,355,395,435,474,486,478,471,463,456,448,441,433,426,418,411,403,395,388,380,373,365,358,350,343,335,328,320,312,305,300,301,302,293,291,292,291,291,291,294,293,292,292,291,293,294,296,295,294,299,295,297,296,299,299,296,300,295,295,296,595,597,598,600,611,713,823,919,1007,1080,1036,1039,950,934,1043,974,887,871,856,840,824,809,793,764,762,746,731,715,699,684,668,702,670,621,608,604,605,607,608,609,619,642,629,625,615,631,618,645,632,631,703,703,737,687,647,631,634,640,633,624,636,647,625,641,622,935,987,986,951,1009,1125,1275,1413,1494,1527,1585,1497,1473,1561,1489,1400,1376,1351,1327,1355,1279,1254,1230,1206,1237,1157,1133,1174,1186,1060,1035,1011,1037,1034,952,989,951,954,970,963,978,996,989,992,976,999,988,1011,984,988,994,1037,1068,1055,1035,1008,985,998,992,984,980,999,1003,1017,977,551,526,555,530,564,571,646,720,795,902,864,894,880,823,851,830,822,808,754,779,764,750,730,686,707,693,678,660,618,604,632,606,563,549,565,533,556,573,553,557,555,572,548,563,560,568,552,555,596,568,598,562,577,594,577,577,573,559,571,573,563,553,545,585,541,921,923,926,935,1011,1146,1416,1496,1689,1737,1736,1650,1589,1574,1569,1505,1447,1418,1388,1405,1330,1301,1287,1242,1213,1184,1225,1144,1096,1067,1038,1008,979,952,938,1005,997,965,977,990,989,1005,1032,991,980,990,994,1044,1076,1031,1057,1023,1022,992,1059,1029,1006,1031,1081,1047,1028,1006,1061,1055,1023,424,425,486,479,430,462,522,582,642,774,759,687,774,665,654,722,632,689,610,599,588,577,628,617,544,591,523,512,501,490,479,468,457,446,482,430,432,433,429,426,429,433,455,430,433,440,438,437,432,431,432,432,438,450,519,517,464,450,438,433,441,431,441,435,431,584,586,587,589,598,696,801,893,980,1054,1010,1014,925,910,1020,952,865,850,835,820,805,790,775,746,745,730,715,700,685,670,655,690,659,610,597,593,594,596,599,603,605,619,606,605,628,607,606,630,628,614,610,613,606,610,615,619,608,608,607,607,606,605,610,616,605,495,515,498,500,505,556,630,704,777,843,819,816,803,790,777,763,767,728,740,727,697,676,671,658,644,646,632,605,592,571,558,552,532,526,507,503,504,553,507,510,511,508,510,517,541,531,526,521,521,519,517,523,523,549,523,531,523,518,529,526,518,527,518,582,524,0,0,0,0,0,0,0,0,0,0,0,0,0,0,0,0,0,0,0,0,0,0,0,0,0,0,0,0,0,0,0,0,0,0,0,0,0,0,0,0,0,0,0,0,0,0,0,0,0,0,0,0,0,0,0,0,0,0,0,0,0,0,0,0,0,843,845,847,852,914,1034,1202,1362,1483,1505,1573,1526,1467,1404,1452,1390,1333,1306,1279,1252,1225,1198,1186,1143,1116,1089,1062,1054,1008,981,954,927,899,873,859,875,897,885,896,874,884,875,901,932,890,897,904,912,929,913,915,922,917,927,896,902,907,920,909,930,911,916,920,907,927,869,872,874,883,948,1075,1250,1412,1504,1556,1575,1571,1596,1448,1495,1431,1378,1346,1322,1290,1265,1234,1222,1178,1153,1125,1095,1069,1041,1011,983,955,927,902,889,885,908,915,904,902,914,936,939,938,931,915,922,940,934,929,942,961,984,965,954,930,920,934,925,924,917,938,925,943,913,444,445,446,448,450,526,550,614,715,758,766,760,710,737,687,692,664,652,679,629,656,606,594,635,571,559,548,536,524,513,501,489,478,466,455,450,452,453,444,447,448,456,456,463,460,475,464,455,471,460,458,458,458,468,454,454,462,463,458,453,456,467,454,463,450,1497,1514,1536,1697,1807,2054,2292,2436,2496,2529,2530,2539,2554,2371,2388,2312,2321,2234,2206,2196,2097,2025,2098,1939,1898,1855,1809,1769,1726,1781,1637,1617,1615,1580,1523,1540,1620,1555,1669,1677,1697,1726,1683,1710,1695,1715,1697,1718,1719,1700,1696,1706,1712,1721,1726,1720,1695,1724,1754,1717,1715,1694,1702,1731,1710,239,239,240,241,242,252,284,343,349,382,395,389,383,377,400,393,358,379,373,366,359,353,321,339,332,302,296,290,284,277,271,265,259,253,265,242,243,244,233,230,234,262,238,235,227,232,233,266,289,236,242,240,238,234,249,242,232,234,230,232,231,227,238,238,228,341,342,343,344,345,367,415,463,511,555,565,556,547,538,529,521,512,503,484,485,476,467,458,449,440,431,422,405,397,395,386,377,369,360,351,346,347,348,330,333,339,343,341,345,332,337,332,358,338,335,342,340,355,371,353,345,351,339,346,351,353,358,338,343,339,128,128,128,129,129,132,150,167,184,202,214,210,207,204,200,197,193,190,187,183,180,176,173,170,166,163,159,156,153,149,146,143,139,136,132,130,130,130,118,118,117,120,119,117,117,119,119,120,123,125,144,144,148,131,119,119,121,120,119,121,120,120,120,121,120,352,353,354,356,357,380,442,481,531,576,611,601,591,581,572,565,552,545,534,523,493,504,474,463,476,449,440,447,435,426,416,406,390,387,361,358,359,360,356,361,360,360,363,360,364,365,358,362,357,360,363,368,368,365,369,363,363,362,370,373,362,366,363,364,365,548,568,552,553,560,622,691,770,873,896,901,902,873,858,858,844,816,802,800,786,759,745,730,716,713,688,693,684,645,641,640,602,598,574,561,557,576,560,562,563,568,586,582,570,571,578,572,578,585,590,647,660,682,619,586,573,582,588,584,572,575,586,573,587,575,513,512,516,518,523,574,647,755,811,853,863,889,822,822,797,808,770,770,743,729,716,702,688,675,664,648,637,615,607,594,579,566,552,536,526,523,522,524,513,521,522,541,523,533,517,526,518,518,522,517,514,526,525,531,527,533,527,529,536,531,526,539,518,530,523,644,646,612,614,733,734,831,931,1018,1003,1005,1088,973,1012,1035,925,961,893,943,924,893,876,812,796,825,764,791,791,757,740,752,716,689,672,621,664,656,658,660,657,656,664,648,659,655,657,675,713,661,678,687,683,683,693,702,672,666,670,680,687,675,680,684,692,678,557,558,577,573,588,637,730,805,887,932,950,930,898,900,885,874,855,844,787,819,792,784,757,741,731,698,683,694,666,660,619,621,618,602,576,576,584,580,575,576,577,576,578,582,605,599,592,584,588,586,585,590,594,616,591,595,591,590,598,594,591,598,591,639,595,375,376,378,379,380,407,462,516,571,617,628,618,608,598,587,577,567,557,547,537,527,517,507,497,487,477,467,491,447,437,427,417,407,397,386,381,382,383,377,373,377,380,389,387,378,387,379,391,383,379,385,384,384,394,392,389,383,388,384,395,388,388,388,394,389,960,935,960,975,1077,1237,1376,1541,1717,1677,1733,1693,1678,1566,1636,1546,1488,1476,1443,1411,1379,1382,1339,1320,1251,1221,1218,1181,1134,1103,1073,1053,1021,962,978,951,1018,1012,984,982,998,1009,1007,1022,999,1020,993,1040,1014,996,1008,1001,1016,1038,1020,1012,1021,998,1008,1016,1015,1024,1003,1031,1007,210,211,211,212,212,218,245,271,298,324,340,335,330,325,320,314,309,304,299,294,289,284,279,273,268,263,258,253,248,243,237,232,227,222,217,213,214,214,200,201,198,209,198,202,200,204,200,203,202,200,203,201,203,203,202,203,205,204,204,200,203,205,203,204,205,1275,1182,1187,1226,1364,1563,1740,1983,2120,2023,2008,2007,1938,1903,1918,1834,1872,1764,1759,1694,1659,1635,1658,1555,1520,1485,1498,1453,1380,1370,1334,1276,1242,1215,1207,1197,1262,1208,1266,1272,1265,1277,1283,1277,1274,1295,1266,1275,1274,1272,1269,1290,1285,1285,1287,1280,1283,1277,1290,1300,1273,1285,1275,1285,1279,1291,1258,1266,1442,1425,1746,1857,2023,2139,2206,2151,2129,2054,2017,2002,1965,1976,1963,1825,1874,1818,1742,1735,1649,1612,1593,1538,1501,1464,1428,1391,1379,1354,1307,1302,1274,1280,1285,1338,1342,1340,1351,1378,1348,1381,1388,1367,1364,1373,1378,1445,1455,1475,1448,1451,1448,1407,1394,1380,1373,1379,1364,1376,1425,1363,913,885,955,904,935,1165,1224,1424,1496,1538,1547,1545,1480,1463,1464,1441,1374,1342,1329,1302,1274,1289,1220,1187,1168,1141,1122,1081,1044,1028,1006,1007,1007,926,908,896,907,911,934,919,921,922,923,952,951,945,936,947,967,946,950,944,946,968,977,948,952,963,963,971,961,953,976,1012,976,860,862,864,870,916,1049,1221,1384,1488,1530,1523,1495,1487,1441,1413,1386,1358,1331,1303,1276,1249,1221,1194,1166,1139,1126,1084,1057,1029,1002,974,947,920,893,875,873,878,883,889,892,888,901,913,893,901,915,906,901,915,927,991,998,1007,960,961,950,928,930,912,907,922,898,917,906,900,718,694,723,698,738,919,968,1219,1206,1255,1253,1231,1210,1188,1166,1144,1122,1091,1078,1043,1024,1019,997,952,930,906,883,882,855,815,811,770,767,727,709,780,708,712,736,724,729,726,732,731,735,731,738,733,732,735,744,743,744,740,739,746,737,747,744,746,743,748,739,736,736,905,876,946,895,932,1156,1230,1415,1503,1545,1538,1549,1484,1454,1471,1437,1376,1333,1320,1293,1265,1275,1211,1186,1159,1132,1129,1078,1040,1024,997,1002,1000,917,899,887,901,906,960,954,934,943,940,955,948,960,967,1031,965,1013,1007,1015,970,1038,1020,960,959,960,1004,1036,1005,1029,1023,1017,996,1112,1078,1087,1126,1259,1370,1594,1818,1868,1916,1865,1876,1810,1766,1805,1701,1689,1635,1603,1570,1529,1504,1526,1447,1428,1373,1379,1346,1275,1242,1209,1199,1184,1111,1137,1098,1119,1109,1161,1156,1153,1156,1188,1237,1173,1203,1199,1216,1221,1225,1219,1221,1197,1233,1193,1191,1206,1193,1199,1256,1225,1251,1222,1226,1229,905,908,910,981,968,1181,1286,1450,1553,1595,1587,1558,1530,1502,1474,1446,1467,1464,1361,1434,1305,1276,1299,1220,1192,1164,1135,1107,1079,1051,1023,994,1002,939,921,920,924,929,939,920,923,927,958,968,947,938,943,951,989,969,973,965,974,971,1015,963,966,989,992,986,968,967,1001,1043,984,1512,1460,1489,1573,1766,2022,2198,2420,2492,2485,2376,2493,2344,2346,2353,2223,2219,2139,2127,2056,2014,2018,2096,1889,1847,1806,1794,1759,1681,1748,1625,1556,1519,1495,1564,1478,1586,1488,1566,1609,1585,1609,1611,1598,1593,1603,1611,1608,1621,1600,1605,1618,1620,1624,1636,1643,1639,1635,1649,1646,1658,1694,1705,1690,1686,1112,1014,1061,1067,1106,1236,1372,1539,1564,1598,1594,1571,1548,1524,1501,1478,1484,1432,1444,1405,1391,1339,1316,1303,1269,1248,1223,1200,1169,1153,1117,1107,1064,1042,1029,1026,1029,1032,1044,1043,1042,1049,1054,1069,1050,1053,1069,1061,1050,1055,1054,1059,1057,1053,1065,1063,1059,1061,1054,1074,1068,1092,1093,1092,1082,629,630,632,634,648,737,862,1024,1132,1144,1181,1123,1138,1117,1095,1039,1018,996,975,954,933,912,891,870,849,828,807,786,765,744,723,732,681,660,641,639,643,646,648,645,645,682,657,649,676,655,654,661,663,663,663,659,653,656,667,662,654,655,651,654,654,649,662,661,647,86,86,86,87,87,88,100,111,123,134,144,142,140,137,135,133,130,128,126,124,121,119,117,114,112,110,108,105,103,101,98,96,94,92,89,87,87,88,67,67,67,67,67,67,67,69,67,69,67,67,69,72,69,69,69,69,69,69,69,70,70,69,69,69,69,875,892,874,901,951,1073,1267,1408,1567,1503,1528,1518,1490,1483,1455,1407,1406,1371,1343,1315,1268,1259,1231,1181,1144,1146,1124,1090,1062,1039,1006,963,950,923,905,903,908,913,914,912,928,928,940,978,935,950,950,950,978,954,950,957,951,963,940,942,943,952,938,946,951,961,944,955,959,1501,1449,1474,1555,1743,1994,2172,2394,2468,2461,2353,2470,2322,2324,2283,2202,2199,2120,2109,2038,1997,2001,2080,1873,1832,1791,1781,1746,1668,1736,1613,1545,1507,1484,1504,1467,1575,1477,1565,1552,1575,1594,1597,1608,1618,1636,1603,1618,1641,1627,1654,1652,1641,1652,1670,1637,1642,1658,1656,1673,1662,1652,1677,1678,1685,964,912,969,934,977,1194,1327,1491,1564,1632,1597,1637,1541,1513,1558,1497,1429,1387,1382,1344,1316,1323,1260,1257,1204,1175,1148,1155,1116,1064,1035,1039,1025,953,936,974,973,969,970,966,984,1008,989,996,982,1012,989,1011,996,984,1004,1028,1055,1049,1026,1013,985,1006,993,983,985,1014,1009,1014,980,906,908,910,945,972,1112,1313,1477,1579,1625,1619,1582,1553,1525,1478,1450,1438,1393,1381,1336,1307,1279,1263,1253,1194,1165,1137,1108,1107,1044,1023,1020,966,940,934,931,925,929,961,947,950,954,953,952,1023,1020,955,986,970,957,955,1009,1015,1028,1019,1026,1017,1029,1035,1008,990,989,963,962,962,0,0,0,0,0,0,0,0,0,0,0,0,0,0,0,0,0,0,0,0,0,0,0,0,0,0,0,0,0,0,0,0,0,0,0,0,0,0,0,0,0,0,0,0,0,0,0,0,0,0,0,0,0,0,0,0,0,0,0,0,0,0,0,0,0,161,162,162,163,163,168,190,212,234,257,271,266,262,258,253,249,245,240,236,232,228,223,219,215,210,206,202,197,193,189,184,180,176,171,167,164,164,164,154,154,155,155,154,155,157,161,157,156,157,156,155,154,155,157,157,155,156,155,155,154,155,156,155,156,157,865,868,870,853,960,1088,1250,1382,1474,1558,1532,1526,1500,1439,1446,1430,1405,1342,1321,1240,1226,1216,1209,1142,1116,1089,1062,1060,1026,976,1028,929,924,880,862,890,862,866,888,892,904,890,888,906,907,909,909,901,936,900,904,897,915,921,925,935,934,909,919,922,911,906,904,929,888,763,784,767,770,815,885,1046,1119,1207,1247,1297,1248,1208,1188,1168,1148,1129,1109,1089,1069,1049,1029,1061,1006,970,950,930,910,905,929,843,831,846,791,791,774,776,778,783,786,781,799,790,789,787,806,786,786,793,789,790,790,787,790,791,794,791,798,793,794,787,801,789,795,786,1051,1023,1026,1044,1154,1275,1478,1714,1784,1777,1766,1735,1704,1673,1691,1651,1659,1548,1517,1486,1455,1424,1433,1385,1331,1300,1308,1276,1207,1175,1144,1113,1082,1055,1065,1064,1082,1046,1075,1058,1059,1065,1152,1136,1101,1105,1095,1150,1149,1120,1142,1107,1121,1134,1172,1106,1143,1133,1134,1156,1127,1160,1170,1213,1139,775,791,773,796,830,933,1104,1234,1342,1377,1405,1357,1332,1329,1303,1257,1260,1227,1202,1176,1132,1126,1100,1053,1050,1024,1005,974,948,928,898,857,847,822,803,801,806,810,806,798,804,820,806,817,804,818,831,813,814,806,805,815,805,806,808,816,814,825,808,813,817,827,817,829,821,898,888,903,937,964,1195,1284,1447,1549,1616,1609,1554,1526,1497,1469,1441,1412,1384,1446,1327,1283,1271,1255,1244,1186,1157,1129,1101,1100,1036,1016,1013,959,932,914,911,917,922,921,924,930,932,944,930,936,945,932,939,945,946,1009,1000,1006,957,945,945,947,951,947,938,960,947,959,947,947,1240,1147,1150,1186,1319,1512,1686,1931,2069,1973,1958,1958,1890,1856,1871,1787,1826,1719,1715,1650,1616,1593,1616,1514,1479,1445,1459,1414,1342,1333,1298,1240,1206,1179,1171,1161,1227,1172,1221,1225,1229,1238,1250,1262,1291,1297,1233,1276,1252,1233,1241,1273,1287,1307,1292,1307,1288,1294,1291,1268,1256,1244,1252,1261,1235,1181,1180,1184,1298,1314,1597,1731,1892,1996,2019,2014,1979,1935,1900,1874,1839,1852,1841,1726,1790,1664,1629,1643,1552,1518,1488,1453,1413,1383,1344,1313,1274,1275,1217,1196,1195,1200,1206,1237,1275,1238,1239,1269,1242,1259,1264,1262,1262,1277,1267,1285,1269,1271,1281,1284,1281,1282,1284,1318,1281,1305,1313,1333,1291,1287,618,619,642,623,637,725,850,974,1079,1132,1132,1111,1090,1067,1048,1034,1006,982,962,943,920,901,880,859,844,815,801,792,754,733,710,691,670,649,630,628,632,635,636,645,636,651,640,634,652,659,648,653,642,641,636,638,648,646,653,659,640,652,657,651,654,655,646,641,639,1195,1246,1204,1273,1347,1568,1776,2040,2025,2132,2041,2016,1981,2004,1965,1863,1945,1857,1756,1721,1685,1649,1652,1583,1542,1507,1512,1435,1439,1381,1334,1293,1285,1232,1252,1261,1219,1252,1287,1285,1281,1297,1281,1298,1287,1295,1314,1378,1298,1315,1320,1322,1315,1334,1342,1317,1307,1310,1320,1332,1315,1329,1323,1338,1315,1360,1326,1336,1436,1483,1799,1919,2112,2132,2254,2185,2205,2110,2073,2177,2036,1940,1914,1912,1816,1772,1808,1738,1723,1626,1623,1558,1641,1550,1448,1450,1433,1348,1352,1399,1331,1321,1379,1436,1402,1417,1425,1440,1453,1441,1456,1450,1460,1465,1468,1490,1506,1506,1503,1444,1449,1464,1487,1484,1481,1459,1479,1480,1463,1458,706,759,711,686,716,806,953,1083,1190,1239,1238,1216,1195,1173,1151,1129,1107,1077,1064,1029,1010,998,984,938,916,893,870,905,833,802,789,757,744,737,694,691,695,699,701,694,709,729,717,716,713,714,721,728,724,718,752,752,772,752,744,729,708,730,718,715,712,732,718,738,709,210,211,211,212,212,218,245,271,298,324,340,335,330,325,320,314,309,304,299,294,289,284,279,273,268,263,258,253,248,243,237,232,227,222,217,213,214,214,200,201,198,209,198,202,200,204,200,203,202,200,203,201,203,203,202,203,205,204,204,200,203,205,203,204,205,317,318,319,320,321,337,379,422,464,505,518,510,502,553,486,545,470,462,454,446,438,490,422,414,406,398,390,382,374,366,358,350,342,334,326,322,323,323,311,317,311,317,323,318,317,318,314,315,316,319,311,318,318,320,316,316,320,316,319,325,317,325,312,318,316,1144,1147,1151,1342,1335,1458,1751,1891,1934,2021,1956,1921,1887,1913,1911,1832,1751,1717,1740,1649,1660,1625,1575,1567,1479,1445,1431,1377,1351,1344,1309,1241,1216,1181,1202,1162,1210,1222,1234,1251,1244,1273,1275,1271,1280,1285,1253,1281,1260,1246,1271,1271,1272,1268,1305,1284,1272,1260,1271,1257,1254,1275,1279,1283,1271,1343,1239,1267,1293,1398,1635,1807,1966,2083,2117,2183,2054,2093,1968,1981,1968,1852,1886,1834,1752,1708,1851,1711,1626,1571,1565,1510,1493,1421,1401,1355,1319,1309,1257,1240,1239,1291,1293,1295,1341,1303,1314,1332,1320,1318,1337,1327,1327,1338,1317,1335,1333,1334,1338,1343,1349,1344,1344,1380,1337,1350,1364,1379,1359,1346,813,816,816,819,860,951,1063,1183,1305,1322,1320,1342,1281,1260,1227,1235,1186,1180,1155,1135,1114,1097,1072,1057,1023,1009,982,962,946,926,900,880,863,842,829,826,828,826,831,838,838,840,864,885,858,851,841,862,854,858,848,853,847,854,848,848,845,840,843,848,851,854,851,840,839,825,828,842,833,874,999,1165,1325,1431,1476,1469,1443,1416,1389,1363,1336,1310,1300,1257,1247,1204,1177,1150,1124,1097,1071,1069,1018,991,965,938,911,894,859,841,838,852,857,875,839,846,844,854,847,852,866,852,855,859,855,859,862,866,864,873,862,869,866,866,861,867,875,870,877,875,658,660,665,663,681,774,904,1041,1144,1193,1199,1178,1150,1136,1115,1094,1078,1051,1018,1009,995,996,930,914,912,871,854,823,799,777,764,734,737,690,691,669,702,723,686,694,689,709,693,709,692,700,694,689,697,692,687,708,697,702,702,715,710,715,721,709,708,736,702,717,709,804,807,807,813,851,942,1070,1190,1274,1315,1327,1334,1272,1251,1228,1226,1186,1171,1146,1126,1105,1084,1063,1046,1021,1000,979,958,937,917,896,873,854,833,820,817,819,821,815,814,812,820,822,836,820,822,835,835,816,823,820,824,824,817,827,829,824,824,818,835,829,837,839,835,829,1064,1050,1046,1114,1197,1316,1623,1730,1824,1830,1840,1795,1762,1741,1682,1688,1620,1580,1561,1525,1503,1505,1421,1417,1357,1333,1323,1269,1230,1241,1215,1141,1141,1083,1123,1088,1093,1114,1130,1137,1128,1168,1144,1130,1142,1154,1139,1153,1159,1150,1152,1138,1135,1141,1146,1154,1135,1141,1133,1141,1131,1149,1143,1144,1126,908,873,911,881,926,1108,1229,1392,1496,1541,1533,1506,1567,1451,1475,1449,1369,1342,1362,1287,1260,1349,1205,1178,1150,1123,1106,1068,1041,1013,986,959,940,905,887,884,898,903,938,922,915,1000,975,963,942,934,950,984,971,959,971,955,935,937,939,965,973,951,977,998,947,940,977,931,929,1406,1509,1473,1553,1686,1905,2159,2415,2374,2451,2380,2335,2298,2303,2238,2198,2134,2045,2145,2012,2014,1973,1917,1881,1808,1792,1807,1685,1612,1723,1678,1522,1516,1444,1446,1406,1455,1505,1582,1582,1572,1600,1629,1624,1608,1609,1619,1662,1618,1657,1669,1646,1600,1627,1619,1635,1639,1612,1664,1720,1688,1695,1700,1641,1637,849,852,855,904,914,1012,1124,1234,1304,1338,1351,1331,1312,1281,1262,1243,1260,1204,1185,1166,1147,1162,1122,1090,1080,1065,1042,1025,998,975,944,930,900,879,865,870,864,867,854,852,869,958,878,856,877,907,886,874,883,882,883,879,890,888,892,883,888,885,898,905,891,902,894,901,908,595,625,598,599,641,691,810,967,1036,1090,1126,1069,1085,1064,1044,988,968,948,928,908,887,900,847,827,807,786,777,746,726,706,716,665,654,625,607,633,617,620,614,614,615,626,628,619,625,623,623,628,637,639,717,710,722,652,630,628,636,633,628,628,637,628,628,632,629,125,125,125,126,126,128,144,160,176,192,203,200,197,194,191,188,185,182,179,175,172,169,166,163,160,157,154,151,148,144,141,138,135,132,129,126,127,127,116,112,118,124,118,113,116,117,118,116,113,112,113,116,118,124,112,112,111,111,111,127,113,116,112,118,124,816,857,859,824,892,1039,1188,1372,1477,1522,1492,1487,1438,1419,1412,1365,1351,1288,1296,1250,1209,1182,1169,1160,1139,1076,1089,1041,1024,969,954,942,924,889,856,854,882,887,885,904,882,900,898,876,936,897,896,909,938,921,877,897,937,931,948,888,900,924,970,894,896,904,901,883,882,1395,1497,1459,1534,1663,1877,2133,2328,2349,2427,2356,2312,2276,2282,2217,2178,2115,2025,2126,1994,1997,1956,1901,1865,1792,1777,1777,1672,1600,1711,1668,1510,1505,1433,1434,1394,1443,1493,1528,1537,1563,1585,1601,1583,1574,1579,1567,1577,1556,1545,1562,1571,1566,1568,1596,1586,1556,1558,1571,1567,1565,1580,1602,1606,1572,848,843,846,879,895,1049,1188,1289,1361,1376,1373,1392,1329,1307,1312,1280,1242,1230,1198,1176,1154,1132,1110,1088,1101,1044,1048,1022,979,957,977,913,891,870,857,853,863,858,874,852,867,891,878,877,878,892,883,886,900,892,965,1001,1070,945,889,875,878,890,883,864,869,889,874,896,877,884,889,864,882,944,1088,1236,1418,1502,1566,1566,1548,1511,1455,1428,1399,1390,1345,1341,1306,1279,1238,1206,1195,1137,1125,1093,1087,1061,1028,987,976,941,893,875,872,899,908,921,925,879,878,930,912,906,911,911,930,974,922,939,952,957,932,932,944,944,967,1000,950,932,944,996,946,915,160,161,161,162,162,167,188,209,230,251,264,260,256,252,248,244,240,236,231,227,223,219,215,211,207,203,199,195,191,186,182,178,174,170,166,163,163,164,151,154,150,154,152,161,156,167,162,155,165,157,159,156,155,159,155,155,157,159,154,154,152,157,156,158,150,0,0,0,0,0,0,0,0,0,0,0,0,0,0,0,0,0,0,0,0,0,0,0,0,0,0,0,0,0,0,0,0,0,0,0,0,0,0,0,0,0,0,0,0,0,0,0,0,0,0,0,0,0,0,0,0,0,0,0,0,0,0,0,0,0,810,812,817,817,856,1008,1165,1260,1363,1382,1425,1403,1335,1335,1314,1286,1275,1236,1203,1207,1159,1137,1125,1143,1071,1054,1032,998,991,945,949,918,930,837,844,843,856,863,858,859,854,868,879,861,869,882,871,870,881,886,959,962,969,920,958,919,893,892,871,871,888,866,877,869,864,623,625,627,629,642,706,811,894,1073,1025,1028,1012,995,979,962,946,948,913,915,891,864,847,831,814,798,782,765,749,732,726,715,683,667,650,636,633,634,636,637,634,640,629,628,628,639,641,628,649,662,636,639,642,647,638,642,640,637,641,637,629,642,634,637,639,646,986,989,991,1043,1115,1222,1474,1635,1713,1775,1713,1683,1652,1670,1633,1602,1531,1501,1519,1441,1455,1424,1350,1364,1290,1259,1261,1199,1169,1174,1143,1078,1057,1021,1042,1001,1048,1051,1043,1032,1052,1103,1063,1034,1037,1054,1052,1113,1165,1065,1146,1149,1092,1058,1070,1118,1097,1159,1158,1060,1099,1176,1182,1165,1089,741,757,759,746,773,900,1028,1199,1307,1356,1328,1326,1280,1263,1260,1215,1204,1179,1155,1111,1106,1081,1039,1032,1014,983,969,924,910,885,846,836,821,787,755,752,780,784,779,772,767,778,784,809,781,785,797,804,783,784,777,785,784,767,784,791,787,789,775,778,794,797,787,792,781,864,882,856,874,921,1075,1226,1388,1492,1537,1527,1539,1474,1428,1401,1390,1364,1319,1333,1282,1254,1247,1198,1172,1129,1102,1085,1090,1053,1007,979,1006,921,885,867,865,891,901,896,889,899,924,912,927,892,912,894,890,907,914,900,919,925,948,927,940,912,928,925,923,937,940,923,947,925,1109,1112,1115,1301,1290,1408,1697,1839,1883,1971,1906,1872,1839,1865,1864,1785,1705,1672,1695,1605,1616,1582,1533,1526,1438,1405,1392,1338,1313,1307,1273,1205,1181,1145,1166,1126,1174,1186,1210,1215,1213,1208,1214,1204,1215,1222,1200,1226,1237,1211,1211,1223,1228,1219,1219,1219,1216,1218,1221,1220,1219,1220,1210,1219,1225,1183,1149,1189,1186,1276,1506,1671,1834,1940,1977,1952,1927,1971,1850,1866,1842,1756,1722,1727,1646,1613,1700,1551,1517,1477,1443,1425,1375,1341,1324,1273,1240,1219,1179,1161,1164,1178,1180,1191,1188,1197,1219,1294,1235,1205,1249,1211,1318,1259,1285,1256,1352,1258,1279,1376,1241,1280,1253,1246,1272,1264,1299,1272,1266,1260,584,590,585,588,604,680,798,925,1024,1078,1077,1057,1037,1014,995,975,957,943,914,894,873,876,836,815,795,775,766,735,713,695,674,654,666,619,617,593,606,631,618,611,626,613,617,628,615,618,624,623,632,623,628,630,630,636,633,628,616,633,622,632,628,626,623,636,654,1175,1206,1191,1206,1299,1490,1716,1884,1969,2078,2000,2026,1938,1886,1895,1815,1780,1811,1788,1677,1660,1645,1571,1598,1545,1467,1442,1397,1363,1338,1331,1288,1272,1198,1194,1185,1193,1198,1258,1260,1257,1271,1272,1268,1266,1282,1258,1265,1266,1260,1261,1277,1274,1274,1272,1271,1273,1265,1280,1289,1262,1276,1262,1271,1267,1198,1227,1278,1330,1399,1562,1757,1912,1977,1980,1970,1980,1904,1873,1867,1842,1756,1777,1708,1679,1649,1659,1582,1528,1568,1479,1485,1477,1402,1405,1371,1282,1278,1256,1244,1227,1230,1248,1269,1320,1276,1289,1302,1292,1290,1309,1298,1299,1320,1291,1294,1309,1310,1319,1314,1330,1321,1313,1337,1305,1323,1348,1352,1326,1318,646,648,675,651,668,800,890,1025,1128,1212,1184,1163,1135,1121,1100,1079,1047,1037,1030,995,1062,975,917,901,891,858,840,846,786,765,752,721,725,678,674,656,669,700,675,682,675,703,684,676,686,700,682,694,691,694,691,680,674,680,686,690,678,683,672,678,671,679,682,680,663,317,318,319,320,321,337,379,422,464,505,518,510,502,553,486,545,470,462,454,446,438,490,422,414,406,398,390,382,374,366,358,350,342,334,326,322,323,323,311,317,311,317,323,318,317,318,314,315,316,319,311,318,318,320,316,316,320,316,319,325,317,325,312,318,316,844,857,868,848,928,1052,1217,1348,1465,1481,1473,1447,1421,1409,1395,1406,1376,1290,1317,1288,1258,1185,1159,1170,1140,1124,1054,1052,1023,993,964,923,897,848,832,832,862,843,870,861,863,862,877,884,900,906,878,882,883,882,882,874,876,901,893,878,878,882,870,886,878,885,877,893,888,606,648,650,603,614,673,761,850,948,977,1112,965,949,934,918,903,887,872,856,942,837,810,794,779,823,748,732,717,701,740,723,664,689,623,610,606,608,642,609,615,613,626,618,625,616,623,621,619,617,616,616,624,618,623,624,630,628,625,628,625,626,647,633,641,632,1019,1038,1103,1095,1113,1281,1398,1537,1642,1697,1650,1670,1658,1571,1590,1519,1584,1479,1540,1413,1380,1403,1483,1360,1333,1274,1230,1204,1177,1211,1124,1114,1115,1081,1047,1034,1080,1040,1059,1097,1063,1066,1100,1080,1078,1084,1081,1091,1096,1076,1087,1091,1098,1103,1098,1101,1100,1095,1105,1098,1113,1121,1128,1116,1112,138,133,139,138,140,142,103,114,124,134,142,140,138,136,134,132,130,128,126,124,122,120,118,116,114,112,110,108,106,104,102,100,98,144,142,140,140,140,110,109,110,111,109,113,111,116,116,112,116,110,111,110,110,112,111,111,111,111,110,109,110,111,110,113,111,702,721,706,721,731,809,916,1024,1113,1154,1154,1155,1117,1099,1080,1062,1044,1025,1007,988,970,951,933,914,896,877,859,840,822,804,785,767,748,730,716,725,714,716,701,707,714,726,730,735,715,740,713,753,729,739,729,726,744,761,740,732,745,735,738,744,740,749,726,733,728,333,335,335,343,337,375,404,481,517,572,558,573,535,542,535,510,510,516,509,485,476,456,482,439,444,430,423,416,408,401,394,386,379,351,343,338,339,340,331,332,333,333,333,339,351,338,334,337,337,338,334,349,335,341,337,337,338,337,338,339,339,337,335,333,337,101,101,101,102,102,102,94,105,115,125,133,131,129,127,125,123,121,119,117,115,113,111,109,107,105,103,101,99,97,95,93,91,89,105,103,102,102,102,77,77,77,77,77,75,77,77,75,77,77,77,77,77,77,77,77,77,77,77,77,77,77,77,77,77,77,435,461,468,469,464,513,571,638,718,765,724,748,735,736,727,669,698,685,674,619,608,626,585,604,600,593,565,562,546,529,516,512,501,488,468,472,473,475,471,470,464,503,495,470,476,487,478,502,532,485,492,480,471,472,476,487,472,469,464,468,468,469,479,477,456,670,672,736,723,695,764,865,965,1052,1094,1095,1126,1124,1044,1026,1009,1086,974,1025,940,923,905,961,924,905,836,819,801,784,828,750,732,715,698,684,680,682,684,670,678,677,699,689,680,692,691,679,684,680,684,684,679,678,686,689,684,691,683,680,690,687,720,713,718,707,882,876,879,885,967,1067,1176,1249,1408,1429,1561,1402,1380,1302,1334,1311,1236,1262,1223,1220,1236,1201,1149,1154,1152,1193,1058,1038,1016,1013,970,986,922,940,890,850,917,891,904,896,907,898,922,946,905,907,917,925,928,923,925,935,930,932,929,928,915,932,917,938,938,957,955,960,976,610,610,595,613,626,666,752,887,944,956,949,952,937,919,948,918,926,856,821,806,812,799,783,772,756,747,806,756,717,689,643,647,632,620,604,600,582,603,596,602,606,626,616,607,607,621,605,621,621,630,662,656,677,667,616,609,623,617,619,610,618,625,611,619,613,498,499,571,502,571,550,622,695,767,813,820,807,794,781,768,755,742,729,716,703,690,677,664,651,638,625,612,600,587,574,561,548,545,560,509,505,578,508,510,511,514,523,517,521,516,523,519,519,518,517,521,523,522,525,527,527,529,525,527,526,529,548,546,550,546,806,824,833,833,891,1012,1209,1303,1420,1427,1430,1404,1378,1367,1370,1332,1275,1249,1223,1197,1195,1146,1120,1147,1060,1043,1017,991,965,939,906,888,862,894,821,839,891,828,838,878,837,833,861,847,847,861,854,868,881,853,855,862,870,877,869,888,868,873,888,863,884,888,907,876,864,717,738,736,713,749,847,959,1071,1160,1136,1160,1181,1123,1083,1072,1083,1065,1030,992,1008,1008,971,920,919,914,882,864,864,839,820,802,798,779,759,746,728,705,751,729,725,735,729,733,732,756,753,745,760,779,741,743,753,761,776,746,756,744,746,754,752,747,755,744,799,751,871,865,868,873,951,1046,1151,1221,1382,1403,1536,1378,1356,1278,1311,1289,1215,1242,1202,1201,1217,1183,1131,1136,1135,1178,1043,1024,1002,999,957,974,911,929,878,838,906,880,884,901,890,912,911,906,907,932,899,920,901,896,913,913,917,917,927,916,923,912,925,908,906,916,917,925,923,162,162,163,163,164,168,190,212,234,256,270,265,261,257,253,248,244,240,236,231,227,223,219,214,210,206,202,197,193,189,185,180,176,172,167,164,165,165,152,155,157,162,158,158,157,163,155,162,157,156,161,158,163,166,159,158,158,161,163,157,161,165,158,159,157,456,457,458,439,451,490,539,633,699,726,754,712,730,718,706,694,682,670,658,646,618,622,586,575,586,574,549,550,538,513,514,502,479,529,467,463,464,465,444,452,456,481,450,454,447,450,450,446,450,450,446,453,452,454,454,461,457,458,458,460,458,479,467,472,469,728,746,755,734,797,903,1049,1168,1288,1307,1302,1279,1255,1245,1221,1215,1160,1137,1113,1089,1088,1042,1018,1031,962,947,924,900,876,852,821,805,781,767,742,740,768,748,739,748,754,779,764,762,754,774,753,759,758,761,749,775,756,769,769,771,770,760,751,772,759,776,748,766,756,754,756,782,760,833,942,1069,1222,1313,1351,1349,1325,1305,1264,1244,1219,1202,1177,1156,1131,1104,1079,1054,1030,997,981,956,932,907,883,850,836,811,777,771,767,795,776,775,768,782,798,795,793,783,779,793,813,787,795,822,837,868,847,835,802,787,797,793,792,786,800,787,818,781,0,0,0,0,0,0,0,0,0,0,0,0,0,0,0,0,0,0,0,0,0,0,0,0,0,0,0,0,0,0,0,0,0,0,0,0,0,0,0,0,0,0,0,0,0,0,0,0,0,0,0,0,0,0,0,0,0,0,0,0,0,0,0,0,0,1225,1300,1235,1300,1388,1558,1767,1884,1946,1963,1973,1946,1887,1858,1856,1837,1769,1739,1710,1680,1694,1620,1615,1562,1598,1502,1468,1453,1406,1385,1397,1310,1337,1314,1245,1235,1350,1250,1309,1305,1300,1315,1303,1341,1307,1313,1337,1402,1317,1330,1335,1338,1345,1346,1364,1351,1338,1341,1340,1349,1350,1350,1345,1361,1355,440,441,442,444,446,481,545,608,671,718,725,715,703,692,680,697,657,646,634,623,611,637,588,577,565,554,542,531,521,508,496,485,473,462,451,446,447,449,435,435,438,444,446,444,449,442,442,448,448,445,464,462,462,447,457,450,450,452,448,445,456,449,448,452,448,617,638,635,637,635,715,809,902,988,1008,1034,1017,1001,963,955,931,915,919,883,867,870,835,819,821,787,789,772,745,724,708,692,691,674,658,644,626,628,649,676,619,626,629,619,646,624,642,641,632,641,628,630,633,639,638,639,630,632,642,633,636,637,637,629,640,645,370,371,372,412,375,401,454,507,561,607,616,655,597,587,577,567,557,548,538,528,518,508,539,529,479,469,459,449,439,429,420,410,400,390,380,376,377,378,361,368,373,379,376,381,366,374,365,396,372,372,377,376,393,412,389,380,388,373,383,386,388,394,371,378,372,571,564,566,567,576,631,715,799,894,924,1008,914,899,884,869,854,840,825,810,795,792,766,751,736,721,706,691,677,662,647,632,627,603,588,575,571,572,574,573,578,578,584,586,595,579,598,580,585,580,580,577,602,588,592,588,599,593,591,595,605,587,599,575,588,584,906,908,973,975,971,1079,1237,1357,1441,1476,1486,1495,1438,1401,1391,1368,1331,1308,1284,1306,1238,1258,1248,1229,1154,1121,1097,1074,1051,1027,1004,981,967,935,922,928,931,960,936,921,923,924,925,954,953,947,938,950,969,948,952,946,948,970,980,951,954,966,966,974,963,955,978,1014,978,284,285,309,290,311,307,343,389,424,463,482,474,460,459,451,437,435,428,420,412,405,397,389,381,374,366,358,351,343,331,327,315,312,300,297,292,316,294,293,286,281,286,285,286,341,333,286,318,301,286,286,324,331,345,335,345,335,348,337,320,309,299,289,289,285,1053,1045,1092,1154,1146,1242,1388,1617,1630,1710,1624,1608,1574,1612,1515,1554,1503,1458,1477,1488,1440,1340,1394,1306,1335,1236,1254,1184,1231,1186,1167,1084,1090,1037,1048,1059,1062,1021,1090,1062,1072,1067,1104,1144,1087,1103,1113,1134,1137,1153,1149,1157,1118,1136,1126,1112,1121,1128,1139,1200,1153,1164,1158,1145,1164,529,526,558,529,540,620,660,784,819,863,914,899,862,870,856,819,827,785,755,783,759,747,735,722,710,703,681,619,652,609,596,640,594,554,566,563,564,566,550,568,554,585,557,576,560,586,563,575,567,560,573,570,582,579,577,575,576,571,590,572,571,578,575,586,583,330,332,324,325,334,354,392,462,542,527,538,530,521,512,504,495,508,478,480,461,474,443,458,436,418,470,410,392,383,383,366,357,349,340,331,327,328,329,312,317,314,323,315,314,316,323,317,311,315,318,318,314,312,315,316,315,314,318,312,317,311,318,316,316,312,844,857,868,848,928,1052,1217,1348,1465,1481,1473,1447,1421,1409,1395,1406,1376,1290,1317,1288,1258,1185,1159,1170,1140,1124,1054,1052,1023,993,964,923,897,848,832,832,862,843,870,861,863,862,877,884,900,906,878,882,883,882,882,874,876,901,893,878,878,882,870,886,878,885,877,893,888,791,774,756,799,831,947,978,1158,1180,1275,1222,1229,1245,1165,1145,1150,1163,1088,1068,1049,1030,1038,1061,1043,1029,977,914,895,876,857,837,818,860,780,784,762,764,766,770,767,778,814,798,802,794,769,787,807,806,785,812,816,832,815,820,804,781,786,777,787,776,787,782,820,769,1478,1560,1486,1568,1825,1985,2228,2454,2510,2533,2563,2510,2385,2380,2298,2287,2276,2198,2154,2166,2036,2020,1977,1934,1862,1821,1902,1732,1712,1644,1627,1664,1521,1495,1477,1476,1512,1491,1604,1597,1582,1608,1634,1666,1643,1660,1637,1654,1673,1692,1689,1705,1680,1706,1696,1652,1674,1666,1660,1761,1682,1698,1700,1779,1688,1824,1857,1945,2217,2441,2647,2864,2963,3088,2988,2926,2923,2938,2902,2858,2729,2679,2801,2610,2517,2467,2417,2359,2447,2477,2265,2228,2244,2083,1989,2009,1955,1922,1878,1887,1880,1899,1922,2211,2203,2243,2261,2282,2268,2299,2312,2306,2336,2362,2382,2453,2381,2371,2421,2453,2430,2402,2456,2545,2554,2570,2615,2621,2548,2552,1214,1283,1222,1264,1371,1521,1711,1857,1932,2058,1949,1919,1980,1854,1864,1793,1753,1720,1693,1663,1632,1610,1567,1630,1543,1485,1449,1531,1388,1362,1331,1297,1268,1246,1236,1233,1333,1237,1296,1294,1304,1340,1305,1336,1312,1311,1309,1306,1340,1305,1313,1323,1320,1335,1332,1333,1307,1312,1319,1321,1312,1320,1310,1350,1314,1433,1434,1463,1568,1698,2004,2258,2350,2409,2373,2352,2360,2319,2352,2236,2194,2153,2111,2070,2018,1977,1936,1894,1862,1821,1780,1738,1718,1672,1592,1572,1531,1493,1468,1460,1459,1455,1477,1559,1562,1560,1570,1579,1582,1595,1604,1573,1596,1588,1593,1587,1586,1586,1595,1593,1593,1583,1589,1601,1588,1580,1597,1580,1578,1565,1265,1269,1315,1380,1450,1722,1952,2077,2255,2116,2090,2111,2102,2114,1993,1977,1942,1893,1935,1817,1781,1722,1711,1664,1641,1591,1547,1531,1490,1418,1418,1377,1324,1319,1311,1313,1304,1305,1353,1345,1343,1359,1456,1438,1394,1428,1390,1493,1442,1449,1436,1387,1397,1445,1435,1395,1463,1434,1409,1465,1436,1490,1468,1491,1448,1205,1274,1217,1261,1362,1526,1718,1851,1925,2051,1956,1910,1971,1845,1855,1784,1755,1711,1691,1660,1631,1601,1558,1628,1534,1476,1446,1526,1384,1353,1322,1291,1261,1238,1227,1224,1324,1229,1285,1287,1297,1309,1319,1342,1302,1327,1295,1299,1309,1313,1303,1320,1338,1364,1342,1361,1311,1335,1340,1328,1341,1322,1350,1367,1327,1511,1535,1531,1618,1762,1941,2261,2273,2385,2437,2304,2330,2320,2318,2218,2275,2151,2099,2123,2103,1990,1948,1930,1875,1902,1796,1757,1726,1724,1676,1664,1597,1531,1534,1519,1515,1568,1530,1648,1657,1660,1679,1650,1680,1710,1721,1735,1692,1678,1659,1674,1679,1715,1724,1781,1712,1718,1724,1713,1719,1729,1695,1667,1687,1664,1479,1480,1513,1673,1842,2072,2303,2415,2553,2436,2414,2421,2379,2411,2346,2252,2210,2292,2126,2073,2031,1989,1947,1956,1920,1872,1827,1810,1721,1627,1656,1634,1540,1515,1507,1505,1502,1565,1618,1609,1619,1720,1633,1643,1632,1667,1673,1711,1643,1662,1662,1660,1663,1666,1704,1663,1649,1651,1664,1681,1658,1673,1669,1682,1669,1513,1628,1598,1697,1870,2165,2382,2594,2713,2713,2634,2625,2551,2518,2382,2437,2416,2327,2327,2259,2155,2171,2106,2048,1974,1889,1931,1849,1790,1782,1761,1727,1617,1605,1574,1573,1620,1589,1744,1719,1744,1758,1774,1811,1759,1777,1784,1796,1831,1789,1796,1834,1850,1843,1799,1787,1786,1803,1789,1797,1773,1810,1790,1804,1784,759,761,764,771,796,832,997,1114,1201,1242,1182,1230,1202,1162,1163,1143,1123,1103,1084,1064,1044,1024,1005,985,971,945,932,906,886,866,847,813,769,774,774,770,772,761,766,763,760,770,776,768,772,770,777,777,784,792,870,863,877,800,768,782,791,802,782,775,806,776,775,776,771,1201,1231,1209,1274,1360,1648,1845,1967,2070,2040,2025,2004,2004,2009,1898,1863,1827,1792,1790,1711,1675,1640,1605,1580,1544,1509,1473,1459,1420,1332,1362,1296,1260,1264,1225,1252,1219,1269,1282,1279,1282,1321,1299,1287,1284,1304,1298,1353,1407,1303,1311,1310,1297,1287,1295,1321,1283,1283,1279,1281,1288,1302,1297,1319,1283,669,671,673,675,674,740,863,963,1051,1064,1069,1080,1062,1045,1028,1010,1091,975,958,941,923,906,888,871,854,836,900,874,784,809,749,732,714,766,683,679,681,683,684,693,693,705,703,707,698,717,697,705,698,694,702,710,710,714,714,710,708,705,720,714,706,725,723,733,724,1468,1425,1477,1606,1741,2060,2261,2395,2454,2357,2370,2365,2344,2357,2276,2199,2192,2098,2093,2005,1988,1950,1930,1850,1855,1813,1771,1722,1709,1569,1607,1549,1528,1489,1476,1463,1465,1493,1565,1560,1565,1627,1611,1590,1589,1623,1596,1618,1639,1608,1616,1629,1643,1636,1620,1617,1589,1596,1585,1582,1574,1602,1600,1612,1560,1502,1616,1582,1677,1845,2137,2356,2569,2689,2690,2611,2603,2529,2497,2362,2417,2397,2308,2309,2241,2137,2155,2090,2032,1959,1875,1917,1836,1778,1770,1749,1716,1606,1594,1563,1562,1608,1577,1706,1713,1710,1721,1746,1715,1753,1766,1743,1736,1771,1754,1807,1780,1816,1823,1918,1864,1790,1778,1762,1762,1765,1746,1758,1819,1740,1282,1288,1281,1332,1425,1586,1782,1912,1985,2000,2064,1972,1927,1903,1909,1846,1831,1762,1789,1758,1730,1647,1604,1653,1578,1520,1511,1524,1440,1392,1383,1362,1298,1292,1264,1261,1361,1268,1346,1357,1304,1317,1348,1342,1338,1359,1359,1357,1402,1353,1357,1367,1371,1372,1346,1388,1415,1384,1413,1388,1364,1374,1413,1348,1351,1489,1483,1516,1645,1785,2078,2327,2444,2495,2441,2419,2425,2406,2436,2315,2273,2213,2186,2135,2076,2048,2006,1964,1931,1902,1831,1794,1773,1733,1614,1632,1577,1558,1527,1507,1493,1507,1524,1594,1594,1611,1636,1613,1634,1611,1611,1609,1617,1646,1629,1655,1674,1664,1650,1639,1649,1637,1659,1657,1640,1662,1656,1625,1660,1656,735,737,740,742,751,826,961,1073,1161,1214,1175,1184,1165,1146,1127,1108,1144,1070,1050,1031,1012,993,977,955,936,917,960,951,859,899,821,802,783,802,750,746,750,750,746,754,756,777,768,760,761,775,758,775,775,784,816,812,833,823,774,767,779,774,778,768,776,783,770,779,772,620,622,624,626,620,679,794,886,972,987,992,1005,988,972,956,940,923,907,891,875,858,842,826,810,794,777,761,818,729,692,696,680,664,648,634,630,632,633,629,623,628,629,626,624,633,631,629,630,628,629,634,637,637,633,640,633,636,636,638,644,637,644,633,633,638,1283,1323,1260,1311,1430,1592,1806,1937,2050,2136,2016,1994,2044,1932,1944,1844,1844,1768,1775,1716,1689,1653,1609,1678,1565,1576,1493,1572,1429,1397,1368,1333,1307,1281,1269,1266,1374,1273,1321,1346,1348,1335,1358,1332,1356,1382,1360,1345,1389,1355,1452,1434,1458,1404,1522,1476,1414,1373,1352,1357,1366,1341,1356,1404,1333,0,0,0,0,0,0,0,0,0,0,0,0,0,0,0,0,0,0,0,0,0,0,0,0,0,0,0,0,0,0,0,0,0,0,0,0,0,0,0,0,0,0,0,0,0,0,0,0,0,0,0,0,0,0,0,0,0,0,0,0,0,0,0,0,0,1594,1561,1533,1745,1764,1942,2265,2275,2485,2438,2405,2426,2301,2313,2220,2239,2153,2186,2094,2141,1993,2013,1933,1878,1893,1800,1810,1729,1728,1676,1667,1601,1599,1565,1520,1512,1619,1560,1656,1635,1647,1660,1655,1677,1663,1666,1665,1685,1708,1680,1692,1675,1683,1712,1698,1690,1695,1705,1697,1723,1716,1709,1724,1739,1741,1367,1349,1363,1473,1588,1887,2092,2231,2292,2237,2213,2249,2193,2246,2131,2091,2052,1993,1958,1905,1890,1823,1805,1758,1736,1696,1657,1639,1601,1489,1504,1448,1427,1387,1374,1387,1362,1390,1478,1478,1472,1502,1528,1521,1503,1505,1514,1550,1512,1547,1560,1547,1510,1531,1519,1529,1534,1509,1555,1598,1559,1567,1570,1531,1524,1482,1498,1508,1620,1757,2068,2298,2411,2467,2413,2410,2398,2397,2349,2289,2247,2205,2161,2110,2052,2077,1983,1941,1908,1894,1809,1808,1752,1713,1607,1612,1570,1532,1508,1487,1486,1487,1517,1590,1581,1613,1629,1641,1682,1629,1629,1641,1657,1679,1646,1663,1685,1701,1690,1660,1640,1626,1651,1629,1637,1634,1663,1640,1665,1640,1460,1564,1488,1575,1778,2047,2239,2430,2516,2510,2520,2488,2394,2389,2307,2265,2254,2202,2162,2201,2080,2000,1980,1936,1870,1823,1864,1733,1693,1649,1628,1667,1525,1496,1482,1480,1513,1492,1571,1555,1582,1591,1784,1614,1624,1639,1612,1642,1734,1751,1654,1655,1640,1642,1845,1718,1651,1665,1720,1663,1670,1682,1683,1667,1694,1752,1768,1841,2055,2290,2515,2735,2847,2965,2853,2825,2815,2775,2791,2720,2621,2573,2652,2476,2424,2369,2327,2278,2274,2237,2177,2130,2107,2008,1913,1931,1907,1814,1790,1782,1782,1779,1843,2103,2099,2068,2079,2107,2095,2109,2119,2117,2125,2168,2119,2127,2146,2146,2153,2130,2167,2168,2167,2203,2159,2156,2164,2210,2142,2147,1190,1191,1216,1261,1355,1596,1833,1952,2022,1992,1978,1990,1989,1998,1884,1881,1845,1778,1767,1719,1691,1627,1612,1568,1550,1496,1460,1448,1408,1339,1321,1285,1249,1238,1214,1212,1208,1229,1280,1283,1260,1274,1268,1310,1274,1288,1304,1368,1295,1318,1312,1319,1312,1372,1332,1291,1292,1288,1313,1332,1313,1338,1327,1328,1298,1807,1790,1871,2096,2266,2624,2774,2875,2956,2898,2856,2918,2800,2905,2701,2652,2602,2563,2522,2453,2455,2422,2352,2265,2232,2159,2147,2113,2061,1976,1949,1893,1832,1808,1835,1800,1798,1868,2170,2170,2139,2162,2157,2208,2177,2197,2217,2283,2203,2222,2206,2223,2210,2261,2229,2210,2203,2200,2199,2221,2218,2252,2207,2224,2174,1274,1304,1277,1329,1433,1675,1922,2073,2167,2187,2189,2223,2111,2072,2065,2011,2002,1957,1922,1851,1798,1739,1719,1739,1627,1595,1556,1511,1469,1445,1459,1351,1343,1289,1286,1269,1328,1292,1366,1365,1358,1363,1371,1368,1381,1376,1375,1380,1381,1374,1378,1387,1397,1405,1392,1403,1382,1392,1394,1391,1391,1413,1373,1384,1372,1253,1279,1292,1358,1436,1706,1937,2061,2121,2090,2075,2096,2087,2099,1979,1963,1928,1879,1861,1808,1768,1708,1698,1651,1628,1578,1534,1518,1478,1405,1396,1365,1312,1340,1288,1301,1282,1293,1350,1352,1357,1375,1380,1381,1376,1387,1373,1401,1398,1389,1384,1413,1430,1421,1411,1392,1374,1387,1376,1369,1359,1390,1375,1389,1351,791,774,756,799,831,947,978,1158,1180,1275,1222,1229,1245,1165,1145,1150,1163,1088,1068,1049,1030,1038,1061,1043,1029,977,914,895,876,857,837,818,860,780,784,762,764,766,770,767,778,814,798,802,794,769,787,807,806,785,812,816,832,815,820,804,781,786,777,787,776,787,782,820,769,998,1036,1046,1049,1163,1372,1518,1784,1800,1779,1848,1735,1698,1673,1727,1618,1583,1551,1567,1536,1501,1425,1417,1362,1365,1328,1291,1259,1221,1190,1142,1097,1089,1049,1040,1046,1053,1062,1055,1062,1070,1088,1085,1080,1076,1093,1068,1076,1078,1073,1069,1085,1088,1101,1145,1135,1084,1084,1090,1075,1070,1068,1088,1092,1073,220,221,221,222,223,231,260,290,319,348,362,356,351,345,340,334,328,323,317,311,306,300,295,289,283,278,272,266,261,255,250,244,238,233,227,223,224,224,211,219,211,215,225,218,217,222,215,218,217,218,212,213,215,219,218,215,219,213,215,218,215,222,213,219,215,729,730,733,735,796,840,950,1175,1195,1192,1192,1173,1177,1135,1116,1097,1079,1081,1041,1022,1023,984,965,946,917,908,919,870,851,833,814,876,770,757,743,740,741,743,758,766,764,775,781,777,787,777,767,781,778,766,775,781,781,774,808,795,769,768,770,775,768,781,785,784,772,370,371,373,374,389,402,455,522,571,621,630,620,598,599,589,581,572,563,539,545,519,509,499,489,479,469,459,450,454,430,420,410,414,390,380,408,391,378,373,376,376,384,426,418,399,431,404,427,414,429,416,388,395,420,401,385,430,402,388,416,410,433,419,407,403,648,650,652,654,671,739,838,938,1024,1181,1081,1051,1043,1026,1031,982,968,957,939,922,905,880,897,846,874,812,797,784,761,750,735,728,692,747,667,658,660,667,663,666,669,677,662,674,670,678,678,668,678,669,674,670,674,678,675,676,672,677,675,678,672,689,675,683,677,435,436,438,439,441,479,542,601,664,759,719,754,697,681,693,666,651,640,624,617,605,598,589,571,562,554,534,525,511,503,491,485,468,454,446,442,443,444,438,430,430,432,435,435,439,439,440,447,442,460,476,461,445,463,454,445,445,452,478,506,509,519,516,477,476,377,378,380,381,380,409,462,513,562,612,621,611,605,590,580,572,563,554,546,536,526,516,506,496,486,476,466,457,445,437,427,417,405,397,387,399,382,385,374,377,381,396,386,381,384,397,380,391,394,404,444,434,448,417,385,385,393,399,394,381,393,399,388,388,387,123,124,124,125,125,128,145,184,201,218,208,205,202,219,216,213,209,206,182,178,196,193,190,186,162,158,177,151,148,145,163,138,135,131,128,125,126,126,115,118,119,121,121,123,117,123,116,127,118,116,119,120,126,132,125,120,121,117,124,123,121,123,116,119,116,381,382,383,384,385,411,464,618,570,616,626,616,606,596,586,577,567,557,547,538,528,518,508,498,489,479,469,459,450,440,430,505,410,401,391,386,387,388,399,394,395,396,397,393,399,395,399,396,395,396,402,402,402,403,410,402,399,401,401,407,403,406,401,401,403,495,497,498,500,504,547,620,692,761,753,820,807,794,780,767,785,741,728,715,702,689,703,663,650,637,624,635,598,617,572,558,545,532,519,507,503,504,505,494,496,507,516,508,518,501,516,501,524,509,510,507,509,517,523,516,513,519,509,516,515,515,523,500,509,502,790,792,826,849,832,923,1048,1200,1287,1324,1293,1315,1300,1258,1210,1216,1219,1191,1128,1132,1110,1066,1045,1023,1004,983,984,978,977,901,880,878,857,850,805,802,822,824,820,832,810,823,837,815,822,843,818,846,828,851,835,843,835,843,847,851,847,840,844,845,851,851,850,841,869,592,597,599,601,612,673,754,847,931,977,978,962,947,927,935,895,885,869,857,838,819,811,807,776,757,751,727,714,696,683,668,671,637,619,608,604,603,604,598,598,624,630,649,653,649,606,625,641,608,602,606,606,613,617,605,613,606,606,603,607,613,611,617,632,606,987,979,992,1007,1180,1275,1473,1634,1817,1736,1757,1692,1655,1631,1622,1577,1542,1511,1476,1449,1418,1386,1361,1324,1296,1286,1255,1192,1239,1209,1107,1081,1112,1015,1005,1005,1010,1015,1040,1031,1049,1103,1074,1078,1067,1045,1055,1076,1068,1060,1059,1096,1126,1119,1088,1067,1059,1065,1059,1054,1050,1070,1055,1080,1046,569,535,536,513,544,594,673,752,830,835,881,867,853,839,848,810,797,783,769,755,741,727,744,699,653,671,656,613,628,614,597,578,572,533,545,541,543,544,538,542,542,560,553,545,546,568,550,554,559,570,596,598,610,607,549,542,555,553,549,549,550,553,548,554,549,484,486,487,489,492,531,600,668,733,726,793,781,768,756,744,762,719,706,694,682,669,684,644,632,619,607,619,582,602,557,545,533,520,508,496,491,493,494,476,480,486,493,488,493,483,488,481,507,487,485,494,492,507,523,503,498,503,494,500,502,507,515,494,500,494,389,390,391,393,394,423,479,535,591,637,646,636,625,616,605,595,584,574,565,553,543,533,523,512,502,492,482,472,462,451,440,430,420,410,399,395,396,397,388,381,393,407,396,394,389,395,397,403,408,396,406,435,454,435,431,408,391,415,396,392,388,411,404,417,395,177,178,178,179,179,185,209,233,257,281,294,290,285,280,276,271,266,262,257,253,248,243,239,234,230,225,220,216,211,206,202,197,193,188,183,180,180,181,169,164,166,169,169,167,167,169,165,171,170,169,167,170,167,165,167,170,171,172,167,165,171,170,167,167,167,909,901,914,921,996,1159,1340,1501,1612,1608,1628,1569,1534,1512,1505,1462,1429,1400,1367,1342,1313,1283,1261,1226,1200,1193,1163,1102,1079,1053,1024,1000,966,936,926,926,930,935,937,934,945,963,958,962,952,969,967,967,984,961,965,998,1017,1008,990,967,962,975,963,957,948,977,957,981,948,935,927,940,951,1032,1204,1389,1554,1633,1655,1652,1614,1578,1555,1547,1507,1470,1440,1406,1380,1350,1320,1297,1264,1234,1228,1195,1134,1109,1082,1052,1028,993,963,953,953,960,963,954,952,961,1049,981,985,974,1008,1000,980,977,980,970,974,984,968,984,976,980,975,982,990,984,1001,988,998,993,376,377,379,380,381,401,461,553,584,646,656,646,637,627,618,608,602,572,583,573,563,554,505,495,502,469,465,456,485,430,426,416,427,396,386,382,383,384,376,373,378,384,392,392,377,389,383,386,380,378,379,377,385,392,426,427,399,388,384,384,380,379,381,383,378,1563,1615,1642,1730,1847,2144,2308,2527,2509,2475,2475,2508,2419,2335,2288,2384,2309,2227,2182,2190,2054,2058,2018,1993,1998,1947,1886,1845,1773,1702,1762,1665,1600,1596,1574,1589,1671,1612,1733,1738,1695,1690,1739,1719,1732,1740,1738,1743,1796,1748,1757,1771,1767,1776,1754,1779,1792,1793,1826,1784,1774,1780,1838,1771,1778,0,0,0,0,0,0,0,0,0,0,0,0,0,0,0,0,0,0,0,0,0,0,0,0,0,0,0,0,0,0,0,0,0,0,0,0,0,0,0,0,0,0,0,0,0,0,0,0,0,0,0,0,0,0,0,0,0,0,0,0,0,0,0,0,0,433,434,436,437,439,473,534,595,657,705,713,701,690,679,691,656,645,634,623,612,601,589,610,567,556,545,533,522,511,500,513,496,466,455,444,440,441,442,438,444,440,450,449,448,452,445,448,448,467,450,470,470,473,453,465,462,456,454,438,454,452,453,455,456,449,145,145,146,146,147,150,170,190,210,230,243,239,235,231,227,223,220,216,212,208,204,200,196,193,189,185,181,177,173,169,166,162,158,154,150,147,147,148,134,133,135,135,133,141,136,143,142,138,143,135,138,135,135,139,136,136,136,138,135,134,135,136,136,140,138,185,185,186,186,187,193,219,244,270,295,309,304,299,294,289,284,280,275,270,265,260,255,250,245,240,235,230,226,221,216,211,206,201,196,191,188,188,189,178,186,177,182,187,184,185,185,180,181,181,182,180,179,180,181,180,181,182,180,179,184,178,186,180,181,179,615,617,619,630,633,694,785,876,962,1006,1009,994,992,962,995,930,914,898,882,866,850,834,818,802,786,812,754,738,733,706,690,674,658,642,629,634,626,628,617,622,619,636,626,634,624,633,628,624,628,625,625,633,631,636,637,642,639,638,642,639,639,668,653,662,655,562,563,565,567,576,634,720,799,903,919,929,908,909,877,894,856,840,825,806,795,780,769,758,737,727,712,688,676,658,647,629,622,602,584,574,569,571,573,560,563,564,573,573,571,570,577,575,579,570,570,575,577,573,576,583,582,585,579,578,577,583,606,603,607,603,790,792,758,798,791,926,1077,1115,1259,1298,1295,1275,1199,1230,1319,1140,1171,1113,1130,1126,1105,1020,1000,1026,1038,984,921,974,932,879,833,860,839,841,768,802,804,769,806,782,790,799,793,804,806,815,801,804,810,798,806,804,805,808,799,795,804,802,807,791,798,808,794,807,801,405,406,407,409,410,412,499,544,615,662,658,660,650,639,616,606,575,596,558,575,564,543,543,522,520,511,491,490,443,459,449,447,439,430,415,396,412,413,401,393,404,418,409,407,401,406,409,416,420,409,417,448,467,447,442,419,403,425,409,407,401,423,416,427,407,424,425,426,428,430,467,530,588,650,745,706,752,695,667,691,653,638,626,611,615,593,585,576,559,550,542,522,513,499,491,480,474,457,443,435,430,431,433,418,430,429,433,434,435,430,435,426,446,429,427,433,437,447,460,447,441,439,430,444,442,442,445,432,440,432,998,1036,1046,1049,1163,1372,1518,1784,1800,1779,1848,1735,1698,1673,1727,1618,1583,1551,1567,1536,1501,1425,1417,1362,1365,1328,1291,1259,1221,1190,1142,1097,1089,1049,1040,1046,1053,1062,1055,1062,1070,1088,1085,1080,1076,1093,1068,1076,1078,1073,1069,1085,1088,1101,1145,1135,1084,1084,1090,1075,1070,1068,1088,1092,1073,830,848,857,861,899,1048,1286,1367,1470,1586,1507,1480,1453,1425,1398,1395,1404,1307,1343,1313,1283,1231,1225,1158,1161,1100,1073,1070,1040,1010,965,949,930,862,845,845,862,869,875,890,891,896,901,917,901,908,890,898,894,889,893,905,909,916,909,921,901,909,920,902,894,889,904,909,889,707,663,673,667,703,763,852,951,1038,1080,1095,1065,1048,1057,1056,997,1004,962,945,928,922,894,887,880,842,845,808,801,783,831,739,731,705,696,692,671,672,674,674,677,677,692,687,685,715,689,683,715,706,692,691,689,680,691,693,697,690,684,682,687,686,689,691,694,683,605,601,609,611,622,680,769,859,943,989,994,979,963,947,931,916,900,884,868,853,837,821,805,789,774,758,742,726,711,695,679,663,648,632,612,614,610,617,614,614,610,625,623,615,622,634,624,625,633,638,714,712,718,664,633,624,630,632,621,626,632,621,623,624,621,647,649,651,653,668,759,874,904,1025,1104,1032,1019,1005,991,1003,987,971,954,937,907,911,874,856,852,822,860,790,789,757,736,720,707,690,674,660,656,658,660,662,668,667,671,675,679,669,683,668,676,667,671,669,693,684,685,679,687,682,676,683,698,678,687,664,678,672,281,282,283,284,285,299,339,378,418,457,465,457,450,443,435,428,420,413,405,398,391,383,376,368,361,353,346,339,331,324,316,309,301,294,287,286,287,287,273,274,274,281,280,278,280,281,276,276,277,279,274,276,279,281,276,278,279,280,280,279,279,286,276,280,278,462,466,468,469,469,537,608,641,707,755,769,751,739,727,715,702,690,678,666,654,642,630,618,606,594,586,573,557,545,533,521,509,497,485,479,469,470,471,462,475,470,476,480,484,475,487,469,480,470,469,472,483,485,485,483,480,476,479,490,481,476,473,470,483,471,638,640,642,644,659,766,865,895,1016,1095,1023,1010,996,982,994,978,962,945,928,914,902,865,863,843,829,820,781,780,748,743,715,698,681,665,651,647,649,651,646,654,646,666,656,668,652,660,660,653,655,660,649,657,657,660,660,667,666,663,666,669,664,676,662,671,666,587,566,567,563,587,652,718,818,884,928,946,918,914,915,927,859,883,850,812,799,795,769,765,758,724,719,694,679,673,649,634,622,605,598,594,572,581,576,572,578,582,602,592,582,585,596,582,594,599,607,648,638,661,638,590,586,598,592,594,582,592,600,588,595,590,360,361,362,363,364,385,435,484,534,580,592,583,573,564,555,546,536,527,518,509,499,490,481,472,462,453,444,435,426,416,407,398,389,379,370,365,366,367,360,358,357,357,361,357,361,357,361,358,357,360,361,362,362,363,365,365,363,369,364,361,369,362,363,365,363,926,936,999,914,1007,1150,1277,1415,1542,1534,1480,1449,1522,1477,1469,1400,1375,1303,1330,1306,1277,1257,1243,1204,1164,1140,1131,1121,1095,1087,1034,1016,973,938,971,951,937,956,976,962,966,966,973,966,974,974,977,974,968,970,985,984,985,981,974,983,976,984,973,986,984,988,971,970,970,1164,1150,1191,1192,1308,1499,1696,1828,1896,1945,1899,1883,1831,1825,1789,1725,1772,1655,1624,1582,1607,1504,1519,1469,1436,1407,1390,1393,1324,1331,1234,1249,1203,1162,1166,1175,1186,1173,1256,1208,1206,1222,1206,1239,1223,1223,1252,1295,1230,1246,1314,1243,1249,1312,1252,1239,1233,1241,1303,1369,1396,1426,1417,1282,1275,422,424,425,426,428,460,520,580,640,688,697,686,675,664,653,642,631,620,609,598,587,576,565,554,543,532,521,510,499,488,477,466,455,444,433,429,430,431,425,426,427,429,429,432,427,434,430,432,426,431,427,446,435,435,431,440,435,437,439,440,435,439,424,432,430,818,813,823,826,877,1008,1175,1322,1528,1572,1463,1436,1410,1383,1356,1330,1303,1266,1273,1223,1196,1170,1187,1139,1090,1063,1036,1010,1004,956,929,972,905,879,834,825,837,834,855,860,854,868,871,871,867,893,858,868,867,869,862,877,876,876,879,874,876,871,883,885,866,883,866,875,869,161,162,162,163,163,167,189,211,233,255,270,265,261,257,253,248,244,240,235,231,227,223,218,214,210,206,201,197,193,189,184,180,176,172,167,164,164,165,155,152,154,162,159,156,166,158,154,159,161,155,162,162,154,155,187,170,155,154,152,152,151,159,162,158,154,915,925,928,901,990,1128,1251,1387,1515,1508,1455,1425,1452,1454,1447,1378,1354,1283,1310,1286,1258,1239,1226,1187,1148,1125,1116,1107,1082,1074,1022,1004,961,927,960,940,926,945,936,944,947,970,960,955,951,974,953,958,952,957,950,960,954,968,974,966,968,960,955,968,966,1001,980,991,983,661,662,665,667,685,783,887,953,1041,1120,1087,1070,1053,1034,1016,1001,983,966,949,931,913,897,879,862,845,827,810,792,775,757,740,722,705,688,675,671,673,675,670,656,662,662,661,671,670,679,675,670,678,668,672,672,670,677,675,672,678,677,672,669,674,679,678,683,680,358,359,361,362,379,386,437,488,539,584,595,585,576,574,564,547,545,529,519,510,483,491,481,456,463,453,444,434,425,415,406,397,387,378,373,380,381,382,361,363,362,370,381,377,395,386,368,383,377,378,379,365,368,383,376,370,380,369,365,376,370,385,378,381,368,740,735,744,746,784,900,1050,1187,1293,1414,1336,1311,1287,1262,1238,1213,1189,1154,1140,1115,1090,1066,1062,1017,992,968,943,918,894,869,845,838,825,800,755,746,758,755,758,748,769,786,756,785,760,775,763,770,787,762,760,768,764,783,777,769,764,769,770,774,768,767,760,792,770,767,762,773,773,816,938,1095,1237,1342,1388,1383,1357,1332,1306,1281,1255,1230,1194,1179,1154,1131,1103,1077,1052,1027,1001,976,950,925,899,877,849,823,798,782,773,785,782,779,789,791,812,802,794,795,810,793,810,809,818,851,848,869,860,809,802,814,808,813,804,812,817,805,815,807,562,563,565,567,575,656,779,829,962,994,958,944,930,915,901,887,873,858,844,793,866,764,749,735,720,705,690,676,661,680,632,617,602,587,574,570,572,573,561,568,573,583,578,583,569,578,568,601,576,577,583,580,601,621,595,586,595,583,591,593,598,606,580,587,580,1407,1427,1508,1525,1641,1888,2307,2258,2341,2426,2471,2326,2294,2253,2339,2290,2103,2052,2021,1981,1943,1924,1859,1818,1849,1778,1706,1655,1697,1574,1536,1502,1457,1461,1430,1455,1482,1421,1504,1535,1499,1502,1543,1493,1511,1522,1521,1539,1567,1534,1535,1667,1548,1541,1666,1565,1555,1557,1574,1540,1562,1565,1603,1562,1565,526,523,506,507,521,566,630,703,776,823,842,816,803,817,820,764,776,737,724,711,709,710,682,703,645,642,619,606,602,601,566,562,560,535,532,510,512,513,531,516,515,517,515,521,518,519,518,518,519,514,516,517,517,519,521,521,519,518,521,527,517,529,518,524,523,0,0,0,0,0,0,0,0,0,0,0,0,0,0,0,0,0,0,0,0,0,0,0,0,0,0,0,0,0,0,0,0,0,0,0,0,0,0,0,0,0,0,0,0,0,0,0,0,0,0,0,0,0,0,0,0,0,0,0,0,0,0,0,0,0,356,340,341,342,343,364,413,461,510,554,565,556,547,565,555,520,536,502,493,484,475,466,457,448,439,430,421,412,403,394,385,376,367,358,366,344,345,346,339,332,334,343,332,346,341,337,339,339,356,341,340,339,339,357,350,345,335,342,337,340,341,337,340,358,343,671,627,638,631,665,720,804,899,985,1027,1043,1014,998,1008,1007,948,957,916,899,883,877,850,844,837,800,804,767,761,744,793,702,694,669,660,656,635,637,638,664,628,633,633,641,636,638,649,637,639,642,638,641,645,649,646,655,646,649,648,648,645,648,654,651,657,656,634,636,638,636,653,708,810,904,990,1024,1039,1023,1007,990,974,957,941,924,908,891,867,859,842,819,809,787,776,754,743,727,706,694,678,657,647,643,645,647,632,647,642,657,666,667,651,678,644,683,662,684,657,660,678,695,674,667,675,674,674,674,669,685,659,667,656,503,505,506,508,513,558,633,707,781,829,836,822,856,795,811,764,755,742,729,715,702,688,671,662,648,635,622,605,595,581,568,555,541,528,515,511,512,514,502,503,514,529,516,519,510,522,510,534,515,511,529,530,549,557,536,524,525,530,526,521,531,547,522,531,517,486,487,489,490,494,536,608,679,750,816,808,795,782,769,756,744,744,717,718,691,678,665,652,640,627,614,601,588,575,563,549,536,523,510,498,493,495,496,491,493,491,494,491,494,494,496,492,493,493,494,496,493,500,498,499,500,496,496,500,501,496,509,498,500,500,863,849,841,809,913,1005,1120,1247,1351,1371,1381,1347,1330,1267,1333,1260,1231,1214,1195,1176,1143,1133,1121,1091,1049,1062,1023,995,1001,972,919,922,892,876,872,851,856,859,854,858,882,893,914,912,921,870,883,907,868,861,871,871,868,866,893,884,861,861,861,863,867,874,882,897,864,454,455,457,458,461,494,560,632,699,739,748,743,731,719,700,694,682,670,658,646,634,622,610,592,586,568,556,549,537,520,513,501,489,477,465,461,462,463,478,460,469,461,462,460,495,479,454,453,471,471,465,460,460,461,457,467,462,465,462,458,453,461,467,469,450,830,848,857,861,899,1048,1286,1367,1470,1586,1507,1480,1453,1425,1398,1395,1404,1307,1343,1313,1283,1231,1225,1158,1161,1100,1073,1070,1040,1010,965,949,930,862,845,845,862,869,875,890,891,896,901,917,901,908,890,898,894,889,893,905,909,916,909,921,901,909,920,902,894,889,904,909,889,986,993,998,1004,1083,1265,1441,1616,1698,1729,1720,1752,1656,1617,1598,1628,1537,1507,1517,1445,1415,1390,1354,1359,1321,1287,1248,1214,1167,1136,1135,1068,1025,1043,976,1013,1011,1017,1040,1028,1030,1036,1030,1046,1097,1100,1035,1066,1047,1037,1039,1088,1091,1104,1098,1074,1092,1103,1113,1091,1068,1066,1043,1040,1042,353,331,332,333,334,354,400,458,491,534,545,536,528,519,545,502,494,485,477,468,459,451,442,434,425,417,408,400,391,382,374,365,357,348,340,335,336,337,328,332,324,326,332,333,338,341,331,334,334,337,334,330,330,333,333,333,331,332,326,330,326,331,331,331,323,821,854,769,856,887,963,990,1242,1194,1258,1338,1214,1194,1175,1155,1275,1255,1212,1190,1147,1126,1018,1084,978,1041,1011,937,900,880,937,954,848,803,798,837,766,835,770,814,821,807,817,820,814,824,824,812,814,820,816,812,818,821,821,821,818,822,820,820,828,817,825,817,822,815,386,387,400,390,391,417,485,542,565,611,633,611,601,591,594,571,572,564,556,531,521,531,530,492,496,500,516,452,456,446,436,426,416,418,424,392,405,406,394,387,386,389,422,410,408,415,404,427,408,400,415,391,395,407,404,396,411,393,388,408,408,422,414,416,408,610,618,614,616,628,704,790,875,969,1013,1008,991,978,959,951,927,911,897,879,924,846,830,821,798,782,779,750,736,718,707,691,669,659,637,629,625,623,623,626,629,626,633,634,629,631,636,625,629,630,628,629,645,637,638,639,641,641,644,647,649,640,649,630,636,637,400,401,402,403,405,434,484,549,597,653,665,643,641,622,623,613,602,589,570,570,557,549,536,526,515,505,488,477,473,463,452,442,433,421,435,406,409,403,401,409,406,415,415,417,417,415,404,416,412,407,411,420,415,419,438,424,415,414,420,414,412,422,409,418,410,377,378,391,381,382,408,476,533,572,618,624,618,608,598,585,578,563,555,547,538,528,522,521,499,503,491,481,459,447,437,427,417,407,409,415,383,396,397,385,387,385,389,389,395,387,392,386,385,388,387,385,403,392,394,394,399,400,403,409,404,399,408,388,394,395,234,234,235,236,237,247,302,313,346,379,392,407,380,373,367,361,355,348,342,336,351,323,317,311,304,298,292,294,279,295,267,260,254,248,241,237,238,239,227,235,227,233,241,235,233,235,230,233,232,238,227,231,233,238,232,233,235,231,232,235,232,238,228,234,230,473,474,409,477,480,519,498,653,612,659,776,657,647,637,626,719,703,691,679,666,654,553,630,531,606,585,500,490,479,547,545,448,438,427,484,413,481,415,442,446,442,450,450,450,448,464,440,450,446,444,447,455,454,452,450,452,448,447,460,455,442,446,446,450,446,628,608,609,611,623,684,775,879,951,996,999,979,967,982,969,919,903,887,897,855,852,820,808,792,776,760,741,771,712,696,680,664,648,632,619,615,617,618,616,610,614,621,675,656,640,667,642,686,657,653,651,622,629,649,638,624,662,632,623,648,640,674,648,649,639,915,871,874,880,927,1033,1170,1302,1387,1422,1504,1395,1372,1350,1327,1304,1282,1259,1301,1214,1221,1169,1146,1123,1101,1078,1055,1033,1010,987,965,942,920,949,944,882,944,886,899,900,908,908,920,909,915,922,908,917,916,914,937,937,931,921,930,924,921,927,923,917,935,927,936,923,923,560,562,578,559,573,627,701,791,862,940,924,898,892,869,866,851,837,819,803,793,795,763,746,731,710,704,681,667,658,649,623,615,602,580,582,569,572,566,557,550,567,577,556,572,561,567,564,561,573,562,560,562,563,575,568,569,561,565,563,564,569,567,564,580,576,952,959,1022,968,1043,1211,1397,1572,1653,1685,1677,1635,1613,1575,1556,1587,1496,1555,1425,1405,1376,1335,1369,1285,1251,1209,1185,1147,1131,1100,1070,1033,1012,1004,964,969,976,993,1029,1036,1016,1106,1082,1074,1046,1057,1060,1097,1059,1095,1093,1073,1036,1057,1060,1075,1080,1044,1074,1124,1080,1080,1093,1062,1054,495,497,498,500,478,518,620,693,765,813,820,807,794,781,768,754,741,728,715,667,655,676,663,650,637,636,611,598,585,572,559,546,532,519,507,503,504,505,498,502,507,510,510,501,516,510,514,501,522,516,509,511,524,532,531,525,514,516,524,515,513,515,517,517,508,617,597,598,600,609,667,753,854,923,969,973,953,942,958,946,896,881,866,876,835,832,801,789,774,759,743,725,756,698,682,667,652,636,621,608,604,605,607,605,600,606,617,616,615,625,611,609,621,631,613,618,628,621,615,657,638,615,611,609,621,608,622,622,624,610,391,392,405,394,396,425,496,554,593,640,649,639,670,618,608,597,587,577,566,556,546,535,541,515,519,509,484,474,463,453,443,432,422,424,429,423,410,411,403,403,402,415,412,403,410,410,407,411,423,424,502,495,506,434,418,412,418,417,410,407,419,408,409,411,409,192,193,193,194,195,201,227,253,261,306,319,314,309,304,299,294,289,284,279,274,269,264,259,238,234,229,239,234,229,210,205,201,209,204,199,195,196,196,187,184,180,184,181,197,226,225,181,207,192,182,182,213,217,228,219,227,223,230,223,211,197,189,184,184,181,873,881,878,884,945,1097,1265,1438,1523,1557,1551,1512,1492,1456,1439,1434,1382,1355,1316,1298,1271,1233,1232,1187,1155,1114,1093,1056,1043,1015,987,951,933,926,885,890,896,894,879,917,908,889,892,914,905,907,901,929,912,921,932,906,916,909,939,920,908,931,1017,953,945,920,940,920,929,900,907,905,913,980,1138,1313,1487,1571,1608,1601,1557,1536,1499,1587,1452,1423,1395,1355,1336,1308,1269,1250,1379,1189,1150,1125,1088,1073,1044,1015,979,960,952,912,919,924,921,919,927,934,952,954,954,946,977,946,975,960,971,983,953,982,1028,965,957,975,970,962,966,976,988,960,965,958,333,334,335,336,337,358,404,490,536,578,590,581,573,526,556,509,538,491,518,512,504,493,448,478,469,421,413,404,395,387,378,369,360,352,343,338,339,340,331,340,334,338,341,340,341,351,333,342,335,335,338,345,346,342,346,341,335,335,349,341,333,335,337,342,335,1537,1533,1584,1668,1937,2151,2273,2500,2531,2523,2446,2391,2402,2418,2331,2367,2215,2158,2119,2274,2055,2027,2019,1925,1898,1859,1883,1770,1867,1692,1690,1686,1608,1563,1623,1555,1555,1625,1727,1687,1690,1723,1719,1732,1720,1755,1740,1757,1734,1718,1750,1713,1754,1734,1734,1721,1763,1725,1708,1729,1744,1754,1747,1744,1729,173,173,174,174,175,180,203,226,249,303,286,281,277,272,268,264,259,255,250,246,241,237,232,228,223,219,215,210,206,201,197,192,188,183,179,175,176,176,163,166,166,170,170,171,165,171,163,175,166,165,167,167,174,181,172,169,171,165,171,170,170,172,164,166,163,395,396,398,399,400,428,483,539,594,641,651,641,630,620,610,600,590,579,569,559,549,538,528,518,508,541,487,477,467,457,447,436,426,416,406,401,402,403,396,397,399,401,397,404,399,402,401,400,402,395,399,399,400,403,404,402,400,399,402,404,397,409,397,406,401,0,0,0,0,0,0,0,0,0,0,0,0,0,0,0,0,0,0,0,0,0,0,0,0,0,0,0,0,0,0,0,0,0,0,0,0,0,0,0,0,0,0,0,0,0,0,0,0,0,0,0,0,0,0,0,0,0,0,0,0,0,0,0,0,0,318,296,297,298,299,315,357,411,440,480,492,484,476,469,496,453,445,437,429,422,414,406,398,390,382,375,367,359,351,343,335,328,320,312,304,300,300,301,292,297,292,300,307,303,299,315,297,300,304,305,310,319,314,315,312,302,307,302,303,301,300,312,294,301,300,641,643,654,647,672,739,822,918,1005,1049,1051,1049,1069,1001,985,968,951,948,918,901,897,880,851,834,818,802,784,768,751,735,718,701,685,678,655,660,653,654,639,644,653,663,660,667,648,666,648,679,659,660,659,662,676,693,672,666,675,662,671,676,671,678,655,666,660,527,536,527,531,544,587,658,748,821,875,887,862,844,819,842,806,792,778,757,753,733,721,705,691,677,660,642,626,621,610,591,579,567,551,531,534,538,532,531,533,529,536,565,561,561,579,549,561,562,564,555,540,546,567,563,545,564,549,539,559,552,577,557,564,548,762,778,812,768,842,935,1094,1200,1262,1326,1274,1237,1225,1263,1169,1153,1150,1109,1089,1212,1049,1032,1009,1041,982,997,935,979,895,872,852,845,815,795,776,809,838,794,793,816,802,800,805,820,807,822,816,850,827,847,858,836,827,832,848,828,833,837,917,892,859,848,863,863,856,507,501,487,483,520,547,642,724,786,833,839,812,813,803,784,776,758,746,732,719,689,693,668,669,656,601,607,598,586,585,575,546,546,504,497,518,520,521,507,506,507,510,570,539,531,548,532,560,534,533,537,514,521,550,530,516,545,523,518,539,531,561,540,553,530,389,390,391,392,402,423,472,536,583,639,652,629,627,609,622,611,589,575,557,558,544,537,534,513,503,492,475,465,461,451,441,430,422,409,394,395,398,391,384,386,386,389,402,387,394,391,392,387,394,396,389,399,397,406,449,442,408,411,400,389,401,388,407,393,388,986,993,998,1004,1083,1265,1441,1616,1698,1729,1720,1752,1656,1617,1598,1628,1537,1507,1517,1445,1415,1390,1354,1359,1321,1287,1248,1214,1167,1136,1135,1068,1025,1043,976,1013,1011,1017,1040,1028,1030,1036,1030,1046,1097,1100,1035,1066,1047,1037,1039,1088,1091,1104,1098,1074,1092,1103,1113,1091,1068,1066,1043,1040,1042,1210,1243,1246,1306,1462,1619,1888,1998,2060,2124,2083,2058,1990,1979,1972,1945,1864,1820,1791,1821,1728,1683,1675,1660,1565,1510,1522,1474,1420,1388,1366,1292,1259,1258,1231,1224,1277,1250,1292,1290,1285,1302,1289,1326,1291,1300,1325,1388,1304,1323,1326,1328,1329,1342,1352,1323,1315,1317,1325,1336,1330,1336,1330,1344,1322,38,38,38,38,38,38,42,45,49,53,56,56,55,54,53,53,52,51,50,50,49,48,47,47,46,45,45,44,43,42,42,41,40,39,39,38,38,38,5,5,5,5,5,4,5,5,4,5,5,5,5,5,5,5,5,5,5,5,4,5,5,4,5,4,5,782,784,786,805,822,932,1031,1151,1239,1278,1291,1256,1236,1216,1218,1197,1177,1172,1135,1128,1074,1053,1053,1012,993,991,1019,949,912,885,871,850,830,836,797,793,795,797,806,798,809,801,825,846,807,810,815,828,830,825,830,833,829,832,822,822,812,828,815,839,830,831,825,829,847,528,530,532,534,554,590,684,758,831,883,886,870,847,833,831,818,804,792,776,750,736,721,721,708,733,720,650,638,624,610,594,610,598,554,541,568,538,539,539,545,544,544,552,552,553,549,550,555,550,552,560,561,561,552,552,565,559,561,562,554,563,557,556,555,549,863,854,851,856,901,1000,1159,1260,1414,1375,1398,1350,1328,1308,1339,1271,1242,1220,1199,1176,1155,1136,1112,1092,1075,1068,1025,1010,982,1008,945,923,895,875,867,859,866,869,869,868,871,883,883,871,885,881,882,879,888,882,878,882,891,888,914,904,886,894,899,882,884,888,886,878,875,647,632,637,641,650,717,839,901,992,1033,1050,1007,996,980,960,952,932,925,903,890,871,848,891,823,803,784,777,752,741,768,710,693,677,661,646,644,641,684,648,644,642,655,669,682,684,669,657,683,683,669,672,656,659,687,692,663,672,666,655,675,668,678,677,702,666,535,535,539,541,545,597,675,749,822,874,877,861,854,840,822,809,795,783,767,757,743,728,712,699,693,680,657,645,631,617,601,601,589,561,548,559,545,546,538,540,541,540,544,546,568,552,550,549,554,552,550,553,559,573,557,560,557,555,565,561,557,565,559,607,562,207,207,208,209,209,218,247,276,305,334,348,342,336,331,325,320,314,309,303,297,292,286,281,275,270,264,258,253,247,242,236,231,225,220,214,210,211,211,196,198,196,203,197,202,196,200,198,196,198,197,196,197,200,200,198,202,200,200,201,203,198,208,197,202,200,434,435,436,438,439,473,534,595,656,704,712,701,690,679,668,656,645,634,623,612,601,589,578,567,556,545,534,522,511,500,489,478,467,455,444,440,441,442,438,441,439,442,444,447,441,449,442,441,441,441,439,449,447,450,446,449,450,444,446,449,447,456,438,446,444,312,313,314,315,316,333,377,421,465,507,520,512,504,495,487,479,471,462,454,446,438,429,421,413,405,396,388,380,371,363,355,347,338,330,322,317,318,319,307,302,303,302,305,305,308,309,309,316,312,316,319,315,312,317,315,314,315,318,322,326,323,324,331,327,330,926,945,946,942,1018,1181,1286,1399,1543,1538,1533,1536,1484,1460,1435,1411,1476,1362,1337,1292,1266,1264,1399,1194,1193,1168,1123,1152,1118,1068,1043,1019,977,990,1074,940,1053,945,1000,1003,999,1011,1012,1012,1007,1029,1001,1007,1005,1004,1003,1017,1017,1017,1012,1014,1016,1007,1022,1026,1005,1021,1004,1014,1009,807,793,798,804,834,926,1068,1172,1243,1279,1328,1258,1242,1222,1205,1186,1162,1152,1126,1108,1078,1058,1044,1025,1001,978,972,938,918,913,889,863,843,823,808,807,804,809,801,809,809,830,823,815,815,832,814,831,828,839,869,873,890,888,830,820,833,825,830,828,830,833,824,833,827,1192,1228,1190,1250,1379,1576,1843,1953,2016,2081,2040,2066,1948,1937,1956,1846,1806,1867,1739,1782,1690,1626,1644,1633,1527,1473,1483,1418,1384,1353,1333,1297,1247,1244,1227,1210,1301,1216,1296,1288,1284,1290,1285,1309,1357,1358,1295,1323,1311,1294,1297,1336,1346,1361,1359,1334,1344,1356,1365,1343,1319,1329,1304,1309,1302,748,733,735,738,764,844,980,1062,1108,1187,1174,1169,1111,1130,1075,1093,1075,1057,1003,1019,1001,982,963,945,965,877,889,870,852,863,787,796,777,758,745,742,718,746,751,743,758,778,767,764,762,763,769,775,772,767,801,800,821,800,791,777,758,779,768,764,761,783,768,789,759,301,302,303,304,305,319,359,400,440,479,493,486,478,470,463,455,448,440,432,425,417,410,402,394,387,379,372,364,356,349,341,333,326,318,311,306,307,307,300,294,295,295,299,300,297,299,301,299,300,299,301,303,301,303,307,305,304,304,304,309,309,328,330,333,330,547,549,550,553,560,612,692,775,854,899,902,889,875,860,846,831,815,803,788,775,760,780,731,717,702,688,672,659,674,630,615,650,587,573,560,555,557,558,559,561,562,564,567,561,568,569,561,564,563,568,568,571,572,572,568,564,575,571,579,579,572,580,567,568,572,375,376,416,378,379,404,478,505,555,599,609,599,590,581,571,562,553,543,534,524,515,530,496,487,478,493,459,450,440,431,422,412,403,394,384,380,381,382,371,374,373,379,432,410,395,414,399,430,401,400,406,385,388,412,395,380,417,386,383,407,402,426,406,399,394,1114,1130,1110,1157,1271,1450,1709,1822,1888,1955,1916,1894,1829,1820,1816,1732,1695,1671,1632,1632,1587,1525,1502,1606,1433,1380,1372,1329,1297,1269,1249,1227,1169,1145,1145,1130,1171,1136,1172,1167,1188,1196,1203,1237,1196,1215,1212,1214,1243,1219,1236,1246,1249,1243,1207,1203,1208,1225,1210,1210,1216,1233,1208,1225,1223,1140,1157,1137,1189,1309,1496,1758,1870,1935,2001,1961,1938,1872,1838,1834,1773,1735,1710,1670,1669,1602,1561,1537,1518,1466,1415,1403,1360,1327,1298,1259,1225,1198,1172,1155,1157,1181,1163,1182,1179,1197,1210,1204,1221,1200,1219,1196,1245,1220,1199,1213,1207,1226,1244,1225,1220,1228,1206,1216,1226,1225,1235,1213,1241,1218,556,570,560,589,596,614,688,845,887,925,889,878,937,851,837,824,809,797,783,802,757,743,730,717,703,689,674,662,649,635,620,607,608,599,569,564,578,567,564,563,567,577,562,568,568,570,570,565,567,561,565,565,565,567,567,568,569,570,570,573,567,579,565,571,570,1379,1445,1416,1521,1702,1943,2195,2305,2442,2394,2393,2372,2291,2268,2225,2180,2101,2074,2035,1993,1949,1950,1866,1866,1771,1739,1714,1671,1611,1556,1526,1483,1449,1425,1419,1407,1415,1436,1505,1516,1465,1482,1504,1501,1497,1516,1505,1519,1562,1506,1525,1533,1537,1543,1514,1542,1556,1552,1591,1541,1532,1542,1589,1526,1529,252,253,253,254,255,266,301,335,370,404,417,410,404,397,391,384,378,371,365,358,352,345,338,361,325,346,312,306,299,293,286,279,273,266,260,256,256,257,245,241,245,246,243,250,247,254,253,248,254,246,248,246,246,250,249,248,247,248,247,246,247,249,249,255,251,647,633,635,637,650,713,829,894,977,1019,1048,1005,990,973,958,941,926,910,895,878,863,847,831,815,799,784,768,752,736,768,704,689,673,657,644,640,642,643,664,651,652,654,662,655,663,654,663,661,659,656,671,666,668,662,667,669,660,669,656,663,667,668,660,657,655,342,343,344,345,346,367,436,459,505,547,558,549,541,532,523,515,506,498,489,480,472,463,455,446,437,429,420,412,403,394,386,377,369,360,351,347,348,349,325,326,326,327,328,328,330,331,331,332,333,334,334,335,337,337,338,339,339,340,341,341,342,343,343,345,346,0,0,0,0,0,0,0,0,0,0,0,0,0,0,0,0,0,0,0,0,0,0,0,0,0,0,0,0,0,0,0,0,0,0,0,0,0,0,0,0,0,0,0,0,0,0,0,0,0,0,0,0,0,0,0,0,0,0,0,0,0,0,0,0,0,684,644,689,691,692,782,823,919,1066,1049,1120,1036,1060,1043,1050,1032,952,996,979,961,943,925,908,890,819,854,837,819,801,783,766,703,686,712,699,678,697,655,680,684,677,687,689,698,712,698,690,695,697,701,692,702,694,706,697,694,700,693,692,697,693,693,690,689,679,779,757,764,769,797,884,1034,1115,1207,1243,1268,1223,1197,1176,1156,1141,1118,1108,1082,1069,1043,1017,998,986,962,937,926,900,886,881,851,828,808,792,774,775,773,771,793,779,779,782,781,784,852,846,784,816,800,785,784,837,840,853,852,855,844,855,859,830,815,810,791,789,786,1003,952,996,1020,1027,1200,1364,1461,1549,1604,1539,1537,1491,1533,1442,1502,1456,1423,1340,1372,1340,1326,1237,1274,1256,1241,1208,1189,1141,1085,1115,1068,1043,1016,1007,1005,983,1010,1003,1007,1014,1027,997,1027,1013,1023,1023,1036,1051,1028,1035,1027,1030,1039,1034,1034,1023,1034,1059,1032,1040,1034,1031,1061,1057,345,331,347,348,364,371,400,469,518,562,597,564,578,569,559,550,519,510,500,512,482,473,464,435,446,437,409,436,410,417,391,382,373,364,339,351,351,352,346,340,342,343,342,339,343,343,345,341,341,342,347,346,347,347,349,346,346,348,347,353,348,353,347,346,349,635,621,625,630,639,705,826,887,978,1019,1036,994,982,966,946,938,918,912,890,877,858,835,878,810,791,772,765,740,730,756,698,682,666,650,634,633,630,673,630,636,637,649,647,651,640,660,642,646,644,639,646,654,651,654,656,655,656,653,662,659,652,674,669,676,671,1210,1243,1246,1306,1462,1619,1888,1998,2060,2124,2083,2058,1990,1979,1972,1945,1864,1820,1791,1821,1728,1683,1675,1660,1565,1510,1522,1474,1420,1388,1366,1292,1259,1258,1231,1224,1277,1250,1292,1290,1285,1302,1289,1326,1291,1300,1325,1388,1304,1323,1326,1328,1329,1342,1352,1323,1315,1317,1325,1336,1330,1336,1330,1344,1322,1387,1419,1413,1537,1717,2058,2186,2329,2343,2399,2363,2319,2279,2290,2178,2208,2167,2139,2095,2035,1991,1915,1921,1833,1842,1739,1696,1669,1625,1560,1524,1522,1443,1470,1441,1442,1456,1438,1493,1514,1529,1537,1536,1529,1529,1560,1525,1525,1565,1509,1532,1531,1544,1559,1712,1663,1567,1535,1539,1532,1521,1517,1528,1598,1514,544,546,547,549,556,605,684,755,842,928,890,920,905,848,875,855,841,796,816,768,756,732,718,740,697,676,698,648,640,626,612,598,648,640,554,552,554,555,565,573,568,578,584,588,577,587,576,579,580,583,573,598,580,592,584,594,593,583,575,596,580,596,569,588,577,377,378,379,380,381,405,457,510,563,610,623,613,604,594,584,574,564,573,545,535,525,515,505,496,486,476,466,456,446,437,427,417,407,397,388,383,384,385,369,371,374,386,370,381,372,381,384,371,384,371,373,374,373,380,376,378,376,381,377,379,374,387,374,385,377,985,988,991,979,1095,1171,1354,1499,1570,1630,1606,1608,1576,1570,1458,1510,1451,1466,1372,1365,1327,1302,1334,1290,1239,1239,1279,1137,1208,1136,1061,1092,1061,1032,1003,985,1023,1021,1013,1032,1026,1062,1028,1040,1038,1054,1045,1040,1053,1040,1049,1043,1066,1073,1070,1063,1059,1054,1075,1051,1051,1072,1068,1077,1069,941,904,946,919,961,1118,1251,1358,1430,1477,1498,1454,1431,1420,1378,1354,1336,1350,1321,1265,1241,1218,1194,1230,1210,1123,1100,1072,1048,1029,1047,981,971,952,922,919,910,915,960,922,923,925,930,924,928,939,923,930,930,934,936,939,950,945,957,951,947,947,946,943,950,953,947,955,955,823,826,828,832,873,984,1094,1245,1354,1368,1344,1323,1302,1280,1259,1237,1216,1211,1231,1152,1130,1109,1106,1066,1045,1023,1016,1041,959,938,916,908,873,853,839,866,838,840,847,848,841,908,876,850,853,874,860,877,905,875,882,862,853,859,875,874,856,861,847,856,855,866,885,876,851,976,979,982,986,1086,1162,1345,1490,1561,1621,1597,1599,1583,1528,1465,1501,1442,1457,1363,1356,1334,1309,1325,1281,1230,1230,1218,1144,1172,1127,1068,1099,1050,1039,994,992,1014,1028,1016,1023,1023,1040,1043,1044,1039,1055,1026,1040,1039,1029,1043,1050,1051,1055,1083,1066,1039,1039,1052,1050,1043,1063,1066,1074,1057,681,683,685,687,709,844,887,979,1067,1119,1122,1104,1137,1141,1050,1080,1104,996,978,960,942,996,907,889,872,853,835,817,799,782,764,780,727,760,696,691,693,695,710,702,692,698,751,794,722,725,732,746,722,745,740,740,723,739,731,738,759,724,737,799,766,781,779,748,749,479,480,482,483,486,539,592,682,728,802,787,774,762,750,737,725,713,697,705,676,663,651,657,626,614,601,586,574,564,549,537,525,515,503,491,486,487,489,484,485,485,501,495,487,490,507,494,494,504,514,609,608,626,546,491,485,498,494,490,492,492,493,491,493,493,607,628,611,631,624,704,795,886,951,1057,1001,1004,988,953,956,940,905,908,888,857,856,840,828,812,796,762,764,748,732,716,682,684,669,634,620,616,637,638,633,608,614,614,614,617,619,624,621,618,622,619,621,623,621,626,625,624,628,626,623,621,626,630,631,633,632,1434,1420,1429,1506,1719,1927,2119,2209,2230,2273,2241,2304,2216,2169,2097,2144,2039,1992,2006,1996,1896,1850,1842,1820,1742,1801,1669,1635,1648,1608,1554,1492,1459,1435,1520,1455,1427,1431,1486,1531,1496,1507,1531,1519,1512,1526,1527,1527,1540,1516,1524,1534,1536,1541,1551,1556,1554,1547,1563,1556,1567,1590,1600,1586,1580,984,987,984,995,1070,1196,1356,1510,1551,1623,1603,1589,1536,1506,1481,1468,1443,1427,1409,1367,1342,1316,1309,1255,1240,1215,1174,1163,1139,1101,1076,1075,1052,1014,993,999,1001,1004,1005,1009,1015,1024,1029,1039,1027,1045,1016,1049,1031,1016,1024,1024,1030,1040,1037,1030,1030,1019,1031,1031,1023,1029,1023,1055,1029,1376,1417,1399,1502,1675,1956,2141,2285,2300,2356,2417,2277,2237,2187,2137,2115,2075,2050,2010,1975,1913,1876,1849,1776,1854,1702,1659,1633,1589,1541,1501,1480,1432,1435,1400,1400,1409,1420,1463,1475,1499,1521,1537,1518,1511,1514,1504,1513,1491,1481,1498,1506,1501,1502,1531,1519,1493,1493,1506,1503,1499,1519,1540,1543,1510,683,710,699,701,708,778,917,1001,1071,1130,1158,1119,1122,1103,1085,1044,1029,995,977,972,957,957,918,903,902,883,865,828,828,810,777,773,755,737,723,705,693,697,699,693,710,800,724,700,717,747,724,715,722,718,716,715,722,717,739,725,723,718,724,729,718,728,720,723,728,596,598,600,602,611,709,828,870,924,1016,975,998,982,929,957,898,883,925,913,837,872,856,844,827,803,745,759,715,726,684,669,653,638,623,609,605,607,608,610,603,602,605,602,609,606,608,606,610,608,601,605,606,606,607,610,609,608,607,609,616,606,617,608,614,613,989,992,996,1000,1115,1183,1407,1515,1584,1645,1636,1623,1603,1596,1484,1522,1453,1473,1383,1376,1351,1325,1347,1302,1248,1261,1235,1158,1174,1153,1081,1111,1080,1051,1008,1004,1037,1040,1054,1058,1035,1050,1040,1085,1045,1059,1090,1134,1060,1082,1076,1077,1072,1095,1095,1067,1066,1054,1068,1096,1068,1081,1078,1078,1061,572,574,576,577,620,653,725,810,958,938,944,944,928,899,936,869,854,839,824,809,794,779,763,748,733,718,703,688,673,658,654,628,613,598,585,581,613,615,588,615,582,585,596,588,588,599,606,607,626,613,616,619,628,611,619,614,600,621,647,616,636,638,652,628,619,1298,1331,1313,1401,1557,1841,2009,2156,2173,2232,2199,2158,2119,2071,2023,2004,1965,1943,1904,1872,1812,1777,1752,1681,1719,1611,1570,1546,1504,1458,1420,1401,1353,1356,1320,1320,1330,1340,1392,1374,1390,1447,1410,1424,1410,1395,1402,1415,1413,1395,1403,1434,1464,1456,1434,1414,1397,1413,1398,1394,1389,1422,1405,1432,1392,1325,1328,1345,1437,1600,1965,2058,2203,2219,2277,2244,2201,2162,2113,2064,2044,2005,1985,1942,1890,1848,1815,1787,1805,1717,1643,1601,1577,1534,1487,1450,1428,1383,1383,1347,1347,1357,1367,1422,1417,1422,1499,1481,1459,1453,1455,1451,1488,1512,1468,1489,1489,1502,1489,1491,1466,1441,1455,1437,1441,1432,1452,1458,1467,1411,990,953,926,936,991,1155,1280,1439,1497,1557,1531,1507,1533,1460,1437,1413,1372,1383,1360,1283,1259,1235,1229,1187,1163,1140,1130,1122,1088,1044,1020,1009,973,951,937,934,937,939,973,939,936,950,924,954,935,948,947,994,967,948,951,946,976,960,1000,944,947,966,948,957,959,953,953,978,951,1829,1887,2055,2192,2491,2709,2894,3156,3097,3077,3007,2995,2937,2836,2812,2759,2833,2712,2619,2554,2477,2458,2418,2373,2311,2230,2196,2112,2068,2061,2079,1900,1944,1936,1852,1965,1897,1991,2248,2297,2260,2271,2302,2286,2297,2308,2328,2325,2347,2330,2343,2356,2377,2386,2391,2406,2404,2389,2404,2389,2398,2410,2440,2484,2432,703,694,752,687,733,775,910,969,1061,1144,1198,1099,1116,1156,1102,1056,1037,1001,983,965,965,936,928,893,893,864,846,815,810,802,783,756,746,715,719,743,693,694,692,699,705,737,706,714,699,705,701,694,709,708,737,753,746,721,710,723,721,724,728,717,720,744,720,731,725,761,763,766,768,823,891,1010,1144,1228,1292,1252,1226,1213,1194,1167,1155,1136,1118,1098,1078,1059,1031,1038,1001,976,954,952,930,904,882,847,835,814,834,782,773,775,777,775,815,774,776,793,778,786,790,792,805,806,786,801,791,799,798,801,807,801,807,833,795,812,813,829,805,799,629,631,696,635,639,749,808,933,1119,1033,1067,1036,1048,988,970,978,938,948,905,888,897,855,839,822,805,789,772,756,745,722,716,689,692,656,661,628,630,632,633,638,641,647,654,653,659,645,644,655,647,644,654,654,648,651,670,656,651,652,655,652,657,656,651,659,651,526,528,529,531,537,585,662,731,817,904,866,896,881,825,852,832,818,773,794,746,724,711,697,719,676,656,678,628,621,607,593,579,629,634,535,534,535,537,553,553,549,552,559,550,555,554,553,552,550,554,553,554,556,561,556,555,555,552,556,568,559,563,553,555,557,0,0,0,0,0,0,0,0,0,0,0,0,0,0,0,0,0,0,0,0,0,0,0,0,0,0,0,0,0,0,0,0,0,0,0,0,0,0,0,0,0,0,0,0,0,0,0,0,0,0,0,0,0,0,0,0,0,0,0,0,0,0,0,0,0,948,951,956,969,1033,1165,1313,1462,1513,1575,1548,1520,1512,1474,1450,1428,1396,1405,1407,1325,1347,1293,1272,1226,1201,1176,1166,1189,1102,1077,1052,1041,1003,981,966,995,967,983,988,994,986,1001,1004,998,996,1011,986,994,992,992,991,1005,1005,1003,997,1000,1000,996,1011,1020,992,1003,993,1000,997,544,546,547,549,556,605,686,767,846,960,903,888,874,859,905,830,816,801,857,772,758,744,729,715,700,686,671,704,689,628,614,599,585,570,557,552,554,555,548,562,550,583,552,572,555,579,562,571,564,556,572,563,575,573,573,570,578,571,582,567,570,588,583,593,593,800,803,830,809,883,937,1066,1180,1340,1348,1308,1336,1304,1251,1261,1240,1223,1221,1176,1142,1093,1092,1051,1070,1063,1028,1012,985,937,948,926,871,919,892,819,812,845,848,876,824,832,844,889,899,854,900,875,906,900,875,878,852,859,884,868,850,892,868,851,875,869,906,875,883,864,812,814,825,821,861,971,1081,1231,1292,1355,1343,1309,1288,1267,1246,1224,1203,1199,1229,1139,1118,1107,1094,1054,1033,1011,1004,1029,947,926,905,896,862,841,828,853,834,829,824,822,839,859,846,847,832,845,839,870,856,841,860,888,921,909,893,866,854,868,856,853,855,876,858,875,848,1387,1419,1413,1537,1717,2058,2186,2329,2343,2399,2363,2319,2279,2290,2178,2208,2167,2139,2095,2035,1991,1915,1921,1833,1842,1739,1696,1669,1625,1560,1524,1522,1443,1470,1441,1442,1456,1438,1493,1514,1529,1537,1536,1529,1529,1560,1525,1525,1565,1509,1532,1531,1544,1559,1712,1663,1567,1535,1539,1532,1521,1517,1528,1598,1514,606,634,646,637,620,756,853,977,1087,1143,1140,1119,1087,1077,1113,1035,1015,994,963,952,953,901,889,859,848,827,849,812,787,763,709,686,662,667,641,638,651,653,632,640,653,668,652,660,644,663,640,663,648,641,647,654,662,670,661,655,655,647,663,661,652,656,642,653,646,778,732,734,745,762,841,943,1057,1262,1216,1166,1149,1142,1123,1104,1082,1058,1048,1064,1016,999,1023,961,945,943,915,886,869,835,825,808,834,772,764,742,740,765,767,748,740,751,769,756,781,764,793,779,762,801,774,807,802,804,798,762,760,778,782,777,760,771,784,766,782,766,993,1011,999,1014,1098,1202,1356,1618,1594,1581,1628,1548,1546,1499,1488,1450,1414,1422,1376,1372,1422,1474,1317,1291,1265,1239,1231,1246,1143,1118,1200,1068,1044,1036,1003,1063,1025,1053,1075,1089,1069,1158,1122,1113,1093,1105,1107,1137,1111,1126,1119,1106,1083,1096,1096,1115,1118,1092,1108,1130,1101,1095,1115,1091,1081,431,426,433,434,435,412,457,508,540,678,572,568,573,602,560,550,537,540,536,531,527,522,506,499,508,488,468,460,434,434,425,417,408,400,439,436,389,438,391,394,395,399,399,400,396,399,396,409,400,400,403,403,411,418,411,408,410,406,410,411,414,416,408,412,410,598,600,602,604,615,675,761,874,908,949,1008,936,922,907,892,877,862,848,833,818,803,830,814,798,782,766,750,734,699,684,668,653,638,637,610,607,609,610,602,609,609,616,621,619,625,617,611,623,617,613,619,624,621,623,641,629,622,617,625,619,621,628,619,628,618,148,148,148,149,149,151,164,169,183,198,207,205,202,199,196,194,191,188,185,183,180,177,174,171,169,166,163,160,158,163,161,159,156,154,151,149,149,150,134,141,134,139,141,139,139,140,136,136,138,138,136,135,136,138,136,136,138,136,136,139,134,140,136,138,135,393,395,395,396,397,403,448,499,531,565,563,559,564,593,551,541,528,531,527,522,518,513,497,490,499,479,459,451,425,425,416,408,399,391,401,398,380,399,379,379,380,383,380,380,384,384,381,379,383,381,381,385,385,384,380,381,385,385,387,384,383,387,380,383,385,633,635,637,661,654,740,830,926,987,1018,1047,1003,998,972,965,945,922,906,901,887,894,858,861,817,814,800,795,758,726,718,703,752,691,704,645,635,643,667,637,639,649,677,649,663,639,653,642,637,647,646,638,655,651,662,659,664,652,662,664,662,661,668,649,662,655,644,646,648,650,664,729,820,1035,975,1015,1073,1001,985,970,954,938,923,907,892,876,860,989,870,853,836,819,802,845,749,733,799,701,685,683,656,694,655,657,657,671,654,671,671,679,667,672,675,667,663,669,663,664,664,661,668,672,669,666,664,668,669,685,676,685,670,1006,1009,975,1098,1095,1225,1378,1605,1538,1663,1639,1583,1513,1542,1546,1487,1455,1439,1446,1388,1368,1384,1313,1319,1282,1259,1209,1211,1106,1130,1105,1123,1055,1040,1022,1043,1046,1070,1037,1035,1044,1138,1062,1062,1055,1091,1078,1091,1061,1061,1053,1057,1070,1052,1083,1070,1063,1061,1063,1072,1065,1075,1062,1072,1070,807,789,791,794,839,919,1093,1210,1288,1321,1364,1297,1277,1290,1261,1181,1271,1191,1157,1127,1116,1096,1076,1044,1062,1032,1005,982,945,945,893,855,835,831,806,819,800,819,810,823,814,830,830,833,825,847,827,832,827,828,821,832,825,838,841,841,837,830,828,839,831,860,830,844,836,328,328,329,330,330,347,380,408,447,484,494,487,480,472,465,458,450,443,436,428,421,414,406,399,392,409,377,370,372,366,359,353,347,340,334,331,332,332,318,326,318,325,328,328,322,325,320,319,322,322,316,323,324,326,322,326,326,324,325,328,323,333,317,326,322,594,632,617,599,609,691,812,933,1042,1098,1096,1075,1044,1034,1109,994,973,953,922,912,938,861,850,821,809,868,760,748,728,699,687,666,684,642,607,603,607,628,617,608,622,619,622,636,619,623,622,622,637,624,631,628,630,644,634,630,621,630,625,637,632,629,625,644,646,589,630,612,634,648,712,782,898,955,973,1053,981,966,950,935,899,884,868,873,858,842,869,852,835,801,771,785,738,732,716,673,685,669,667,626,623,639,626,628,637,629,638,639,645,638,653,637,642,631,633,637,645,646,640,645,641,637,633,648,647,636,639,637,645,637,995,998,964,1084,1077,1202,1351,1578,1511,1638,1614,1558,1489,1519,1524,1465,1434,1418,1426,1369,1349,1366,1295,1302,1266,1243,1194,1197,1092,1116,1092,1111,1044,1029,1011,1031,1035,1058,1023,1020,1023,1029,1029,1029,1037,1038,1039,1043,1039,1040,1043,1045,1047,1042,1054,1058,1058,1061,1059,1051,1068,1061,1055,1063,1059,454,455,457,458,460,515,567,609,656,694,690,683,685,719,667,654,638,638,632,624,617,610,614,606,588,595,570,561,534,544,506,495,484,499,463,460,461,462,445,448,454,472,446,455,447,452,448,444,452,448,444,447,448,453,450,455,449,452,450,449,448,458,445,454,453,588,578,580,572,591,645,739,829,908,951,941,928,924,909,894,875,854,848,836,823,809,783,779,766,734,744,718,704,673,644,634,639,625,611,599,575,586,578,572,569,572,576,576,576,578,579,577,583,584,583,584,585,584,584,586,590,591,594,591,592,595,595,596,595,596,516,546,535,520,525,593,699,805,908,966,966,948,919,911,893,875,857,838,810,802,806,756,747,719,710,692,665,655,637,611,600,582,564,562,528,524,528,548,523,530,537,547,541,545,532,544,530,563,539,539,546,541,562,582,555,547,556,546,553,552,559,568,541,548,541,543,544,545,547,554,628,740,852,957,1015,1014,995,964,956,937,918,899,880,850,841,822,796,784,755,748,726,698,688,669,641,630,611,592,573,555,551,555,558,564,567,564,568,625,608,607,605,584,640,606,600,603,578,582,607,592,583,619,583,577,606,596,628,608,622,593,298,299,300,301,301,316,350,430,465,485,499,494,499,474,484,474,460,463,458,453,448,443,396,391,428,384,366,360,336,338,331,325,319,312,306,302,303,304,291,295,292,296,297,308,300,314,309,296,314,300,300,297,297,307,296,296,300,303,296,296,294,301,295,302,294,1182,1171,1247,1219,1321,1497,1724,1943,1986,2012,2015,1960,1915,1974,1884,1902,1832,1763,1726,1756,1648,1680,1578,1535,1512,1474,1453,1405,1370,1398,1301,1266,1232,1222,1188,1205,1223,1218,1261,1248,1265,1318,1284,1292,1279,1257,1271,1288,1282,1274,1269,1310,1366,1383,1300,1280,1275,1277,1268,1269,1261,1284,1268,1292,1260,572,574,575,577,586,640,716,833,880,923,914,901,898,883,869,850,857,824,812,800,787,774,757,745,760,723,698,685,655,649,665,657,608,595,583,580,581,583,584,591,585,590,592,591,593,598,590,587,590,591,586,593,595,596,593,591,594,588,598,606,591,600,587,594,595,514,529,511,532,538,586,638,735,782,802,886,817,804,791,779,745,733,721,728,716,703,732,718,705,673,677,663,649,616,603,590,577,564,565,525,521,537,524,519,534,537,531,540,522,536,556,539,527,562,523,545,527,548,544,674,618,573,533,532,534,529,529,525,576,522,502,504,505,565,511,555,621,698,767,812,805,794,792,779,766,750,731,727,717,706,694,683,668,658,690,639,616,604,575,571,559,547,536,524,512,568,549,550,521,521,525,537,534,529,530,534,527,534,532,531,534,552,560,554,547,532,534,539,540,533,529,545,531,542,531,695,697,699,709,723,797,895,1003,1088,1164,1114,1098,1092,1074,1056,1034,1010,1002,1018,970,954,980,918,903,901,874,846,830,796,787,770,797,736,728,707,704,729,731,721,721,720,728,714,712,740,751,716,730,778,730,762,741,744,758,759,770,748,743,759,746,739,724,710,748,707,915,921,924,928,985,1088,1225,1483,1429,1451,1511,1433,1410,1378,1365,1333,1319,1296,1266,1251,1221,1340,1216,1192,1169,1145,1127,1156,1055,1033,1095,987,965,957,930,972,934,933,953,955,953,962,966,959,960,974,948,962,955,954,961,978,970,965,973,966,962,960,977,980,955,961,961,965,961,0,0,0,0,0,0,0,0,0,0,0,0,0,0,0,0,0,0,0,0,0,0,0,0,0,0,0,0,0,0,0,0,0,0,0,0,0,0,0,0,0,0,0,0,0,0,0,0,0,0,0,0,0,0,0,0,0,0,0,0,0,0,0,0,0,940,935,948,948,1032,1151,1290,1460,1528,1514,1562,1539,1437,1415,1398,1388,1354,1347,1347,1294,1251,1268,1244,1265,1194,1230,1162,1144,1128,1054,1046,1023,983,976,949,953,1023,951,980,967,957,965,1013,1050,989,994,1004,1027,994,1027,1032,1020,994,1021,1006,1009,1029,1001,1030,1106,1080,1101,1097,1037,1038,822,850,822,842,900,1016,1138,1343,1277,1336,1322,1332,1297,1259,1238,1235,1210,1178,1141,1156,1114,1130,1141,1067,1079,1074,1040,1020,929,940,949,914,925,861,847,859,862,864,848,858,859,879,875,864,879,893,864,871,867,869,869,864,864,878,886,870,879,868,866,875,874,909,900,907,896,125,125,126,126,126,128,142,155,169,182,192,189,186,184,181,179,176,173,171,168,165,163,160,158,155,152,150,147,144,142,139,137,134,131,129,126,127,127,118,110,111,110,117,119,111,118,112,111,116,119,115,116,120,126,121,125,113,119,118,119,126,121,126,129,124,606,634,646,637,620,756,853,977,1087,1143,1140,1119,1087,1077,1113,1035,1015,994,963,952,953,901,889,859,848,827,849,812,787,763,709,686,662,667,641,638,651,653,632,640,653,668,652,660,644,663,640,663,648,641,647,654,662,670,661,655,655,647,663,661,652,656,642,653,646,1264,1263,1271,1360,1513,1840,2016,2243,2260,2239,2290,2177,2230,2095,2125,2032,1972,1982,1890,1971,1815,1768,1747,1685,1645,1630,1582,1551,1498,1470,1392,1465,1334,1293,1285,1275,1294,1397,1396,1364,1363,1365,1398,1397,1390,1398,1404,1433,1428,1452,1471,1435,1440,1458,1465,1437,1435,1456,1484,1505,1488,1531,1513,1505,1478,922,925,928,937,990,1102,1248,1383,1535,1502,1498,1474,1450,1427,1403,1379,1417,1331,1311,1294,1256,1236,1212,1182,1204,1141,1117,1093,1070,1046,1022,998,974,997,939,936,938,996,985,947,957,947,981,1011,969,971,977,989,1022,992,999,1011,1007,1013,970,981,989,1013,1007,1017,988,993,1012,981,998,216,217,218,218,219,227,255,284,313,342,357,351,346,340,335,329,324,318,312,307,301,296,290,285,279,274,268,262,257,251,246,240,235,229,223,219,220,221,201,201,204,205,204,207,202,203,203,212,205,205,208,207,212,218,211,209,212,208,210,211,213,216,209,210,209,1091,1150,1111,1157,1230,1396,1548,1717,1758,1787,1805,1749,1726,1721,1667,1637,1622,1618,1546,1511,1496,1455,1427,1471,1403,1377,1327,1299,1291,1301,1232,1236,1190,1136,1124,1121,1185,1142,1159,1196,1200,1183,1208,1191,1204,1229,1195,1195,1221,1179,1204,1198,1214,1221,1380,1332,1248,1203,1207,1200,1188,1185,1199,1253,1174,679,682,684,686,705,777,881,984,1075,1116,1120,1102,1084,1066,1048,1030,1007,994,1007,958,936,923,905,887,869,847,833,815,797,776,761,740,726,708,694,690,692,694,682,677,683,699,685,692,683,689,692,690,686,686,682,690,683,678,686,692,691,692,685,684,693,701,697,702,693,989,964,942,953,1011,1116,1274,1451,1532,1566,1561,1536,1463,1476,1462,1426,1412,1405,1388,1337,1336,1249,1309,1238,1213,1194,1198,1110,1113,1061,1064,1039,1014,1025,979,943,946,1014,993,991,986,1001,1003,996,1007,1019,1017,1004,1009,1017,1087,1066,1088,1049,1008,1011,1014,1027,1011,1009,1031,998,1008,1006,997,1098,1099,1102,1148,1237,1387,1539,1708,1749,1778,1796,1740,1717,1712,1658,1628,1629,1609,1553,1518,1487,1462,1434,1462,1410,1368,1318,1290,1282,1271,1239,1185,1189,1127,1115,1112,1148,1133,1164,1160,1150,1164,1156,1191,1161,1172,1193,1249,1172,1204,1205,1206,1189,1213,1215,1180,1170,1182,1198,1215,1208,1225,1216,1221,1197,855,858,860,936,926,1015,1172,1281,1365,1401,1398,1376,1370,1331,1309,1286,1278,1242,1219,1197,1174,1152,1130,1107,1115,1076,1062,1046,995,1011,973,928,916,884,893,868,870,873,873,869,877,877,870,878,882,886,884,885,890,883,885,885,885,890,891,894,888,891,891,889,890,896,888,899,898,585,586,588,590,597,655,741,822,909,953,958,943,928,913,898,882,867,852,837,822,807,792,777,762,747,732,716,701,686,671,656,641,626,611,595,593,595,597,591,594,598,594,600,611,608,600,605,600,606,600,603,601,608,618,613,621,608,608,610,608,608,606,609,611,601,1004,988,991,1025,1076,1194,1374,1492,1592,1626,1601,1594,1550,1524,1513,1492,1482,1441,1415,1390,1360,1320,1294,1269,1262,1217,1197,1185,1159,1115,1108,1083,1057,1035,1022,1019,1021,1024,1040,1049,1038,1074,1054,1045,1053,1075,1045,1062,1061,1060,1057,1052,1042,1050,1055,1063,1049,1054,1047,1051,1040,1054,1049,1053,1031,1638,1550,1610,1758,1846,2055,2248,2501,2429,2486,2472,2473,2364,2335,2270,2231,2206,2152,2139,2076,2100,2021,1960,1921,1883,1877,1943,1766,1772,1699,1684,1644,1610,1601,1600,1548,1551,1556,1700,1698,1706,1762,1750,1767,1748,1732,1725,1761,1744,1743,1732,1764,1790,1793,1761,1742,1727,1733,1721,1718,1711,1741,1727,1746,1696,949,952,946,967,1044,1093,1296,1526,1607,1631,1630,1601,1581,1454,1526,1405,1447,1337,1333,1364,1284,1305,1251,1254,1226,1147,1123,1152,1115,1051,1054,1030,1005,980,968,974,970,974,982,978,989,992,983,1008,994,1000,994,1006,1015,1003,989,994,1013,1019,1012,1021,1017,1006,1015,1013,1003,1000,1022,1020,993,1219,1229,1235,1302,1472,1732,1972,2116,2169,2196,2260,2134,2131,2053,2024,1972,1932,1891,1851,1932,1770,1729,1709,1648,1629,1586,1601,1518,1446,1405,1357,1424,1285,1259,1250,1330,1260,1363,1340,1348,1358,1369,1368,1378,1368,1388,1360,1401,1372,1358,1364,1368,1378,1398,1388,1386,1376,1357,1375,1383,1380,1388,1368,1397,1369,516,518,520,521,526,541,627,720,794,842,849,836,822,809,796,782,769,719,707,729,715,702,671,658,645,632,619,622,608,580,567,554,555,541,529,524,526,527,517,516,508,516,522,549,517,523,539,529,518,524,516,523,524,514,526,527,525,523,521,525,534,548,544,552,539,993,977,980,993,1059,1172,1357,1465,1617,1646,1576,1551,1526,1501,1504,1451,1461,1401,1382,1351,1389,1302,1277,1252,1250,1202,1182,1174,1172,1102,1097,1072,1047,1030,1011,989,991,1043,1057,1058,1030,1044,1030,1054,1042,1065,1072,1099,1055,1085,1072,1080,1077,1122,1092,1050,1068,1044,1070,1095,1073,1098,1080,1092,1061,1109,1113,1116,1175,1254,1410,1564,1852,1774,1802,1818,1764,1736,1734,1678,1650,1647,1630,1570,1535,1507,1478,1449,1480,1424,1385,1335,1306,1298,1288,1252,1200,1208,1141,1155,1126,1148,1147,1180,1168,1167,1169,1175,1213,1204,1215,1198,1207,1220,1208,1210,1211,1206,1235,1237,1208,1215,1218,1216,1241,1221,1221,1234,1283,1231,692,694,696,726,720,794,899,1004,1093,1134,1135,1117,1099,1081,1063,1045,1027,1009,991,973,952,934,918,900,882,864,846,828,810,803,774,756,738,720,706,702,704,706,693,710,707,716,712,716,714,730,713,723,708,707,709,721,724,730,729,730,715,709,731,729,721,723,714,722,714,1140,1150,1154,1207,1361,1602,1839,1986,2041,2071,2067,2014,2012,1937,1910,1860,1821,1783,1744,1828,1667,1629,1611,1552,1513,1494,1455,1439,1360,1321,1275,1345,1206,1180,1171,1227,1180,1283,1281,1264,1267,1267,1299,1345,1289,1315,1315,1346,1337,1353,1360,1349,1317,1359,1318,1310,1322,1319,1338,1409,1389,1417,1392,1359,1365,1167,1177,1182,1329,1401,1649,1888,2037,2088,2116,2086,2061,2030,1979,1951,1900,1861,1822,1782,1865,1704,1665,1628,1586,1547,1507,1468,1440,1389,1350,1303,1375,1233,1207,1201,1211,1207,1310,1269,1275,1287,1313,1299,1294,1288,1313,1285,1323,1310,1320,1355,1357,1373,1373,1323,1313,1329,1328,1326,1321,1335,1348,1320,1326,1320,1079,1061,1040,1060,1172,1274,1465,1644,1721,1753,1772,1719,1672,1637,1603,1601,1585,1582,1530,1467,1412,1374,1407,1396,1369,1303,1310,1220,1221,1167,1167,1139,1112,1118,1077,1042,1075,1088,1073,1069,1087,1106,1076,1098,1078,1088,1082,1090,1110,1100,1091,1104,1103,1114,1103,1112,1096,1111,1113,1110,1112,1114,1099,1128,1124,1845,1841,1913,2184,2483,2837,2978,3021,3053,3095,3096,3043,2932,2867,2932,2895,2804,2662,2597,2792,2489,2446,2384,2414,2354,2235,2188,2184,2073,2014,1974,2007,1876,1841,1847,1864,1885,2004,2283,2253,2252,2271,2269,2303,2328,2323,2307,2406,2301,2297,2306,2347,2361,2366,2378,2379,2354,2385,2352,2347,2351,2333,2314,2328,2308,811,814,816,889,859,952,1078,1203,1288,1326,1324,1303,1282,1261,1240,1219,1198,1177,1156,1135,1114,1093,1071,1050,1029,1008,987,966,945,935,903,882,861,840,827,823,826,828,821,835,830,848,908,881,853,893,847,929,874,905,877,854,875,902,876,861,900,874,863,888,879,917,876,874,856,590,592,607,596,606,646,746,838,922,967,972,956,941,901,910,871,921,844,829,833,796,781,784,769,756,739,723,709,694,677,662,647,632,617,603,599,601,602,596,603,607,602,599,608,624,606,600,625,626,626,624,617,618,625,619,622,610,617,640,621,618,610,614,634,626,748,769,753,784,786,870,986,1133,1189,1228,1228,1209,1189,1169,1150,1157,1111,1077,1057,1052,1030,1010,993,996,953,922,914,895,875,867,836,836,796,777,782,760,762,764,789,777,785,782,782,778,804,790,770,767,785,779,771,781,778,778,771,785,781,782,789,785,771,785,777,782,775,904,907,909,918,970,1080,1223,1358,1466,1478,1474,1450,1427,1403,1380,1356,1370,1309,1289,1262,1235,1215,1191,1161,1183,1121,1097,1074,1050,1027,1003,980,956,962,921,917,920,960,950,922,936,961,948,948,947,963,952,959,971,961,1035,1073,1141,1015,962,946,948,960,953,936,939,959,943,966,948,396,397,398,399,400,427,481,535,590,637,647,637,627,617,607,597,587,577,567,557,547,537,527,517,506,496,486,476,466,456,446,436,426,416,406,401,402,404,388,388,392,395,397,396,402,395,395,400,399,394,400,399,396,396,411,403,401,402,400,399,406,403,402,404,401,1031,1034,1028,1057,1176,1241,1435,1666,1750,1772,1792,1727,1658,1609,1651,1527,1593,1456,1447,1476,1390,1414,1356,1356,1326,1242,1216,1246,1210,1137,1141,1114,1107,1062,1050,1072,1074,1057,1065,1075,1075,1090,1108,1091,1083,1103,1082,1090,1081,1081,1083,1100,1100,1116,1200,1187,1113,1106,1108,1097,1092,1095,1118,1114,1098,0,0,0,0,0,0,0,0,0,0,0,0,0,0,0,0,0,0,0,0,0,0,0,0,0,0,0,0,0,0,0,0,0,0,0,0,0,0,0,0,0,0,0,0,0,0,0,0,0,0,0,0,0,0,0,0,0,0,0,0,0,0,0,0,0,1138,1125,1131,1149,1236,1419,1605,1744,1796,1834,1806,1798,1767,1718,1691,1660,1663,1631,1602,1564,1538,1519,1437,1401,1417,1363,1356,1329,1300,1257,1247,1221,1180,1132,1137,1096,1158,1162,1157,1175,1172,1190,1226,1237,1221,1243,1210,1254,1231,1215,1226,1206,1235,1253,1242,1219,1237,1219,1225,1239,1235,1242,1228,1257,1231,950,953,931,941,999,1135,1260,1437,1518,1552,1547,1523,1461,1499,1448,1449,1399,1392,1367,1325,1272,1237,1293,1235,1201,1176,1151,1098,1102,1050,1052,1027,1003,1008,967,932,935,969,950,974,966,978,970,955,969,983,977,994,965,965,976,975,1032,980,999,974,996,992,991,973,998,1005,989,1001,997,1264,1263,1271,1360,1513,1840,2016,2243,2260,2239,2290,2177,2230,2095,2125,2032,1972,1982,1890,1971,1815,1768,1747,1685,1645,1630,1582,1551,1498,1470,1392,1465,1334,1293,1285,1275,1294,1397,1396,1364,1363,1365,1398,1397,1390,1398,1404,1433,1428,1452,1471,1435,1440,1458,1465,1437,1435,1456,1484,1505,1488,1531,1513,1505,1478,1220,1266,1252,1359,1503,1823,1997,2083,2175,2128,2210,2072,2035,2062,2022,1982,1995,1902,1836,1777,1792,1747,1702,1642,1593,1618,1519,1527,1479,1454,1354,1396,1348,1276,1266,1266,1304,1330,1367,1369,1366,1396,1420,1413,1394,1392,1410,1443,1406,1448,1450,1450,1399,1402,1424,1428,1428,1405,1447,1491,1441,1440,1447,1425,1422,321,322,323,372,373,343,388,502,477,519,529,521,513,580,496,489,479,542,532,523,446,503,494,456,413,438,456,446,380,402,363,355,347,338,357,374,375,327,328,330,327,330,328,334,331,333,338,364,331,332,331,333,334,328,334,335,332,334,330,332,335,335,335,337,334,919,962,924,950,986,1158,1242,1377,1488,1498,1492,1469,1445,1458,1397,1396,1349,1326,1302,1299,1256,1231,1208,1235,1161,1127,1113,1089,1095,1041,1044,1035,970,964,935,978,935,952,954,943,946,950,984,981,993,990,973,1001,980,966,982,957,959,975,976,966,986,960,957,977,977,998,986,990,984,514,530,517,593,525,595,666,736,813,859,894,848,835,822,810,797,785,757,743,730,771,726,689,675,715,699,634,621,607,642,580,566,552,539,526,522,523,570,529,530,534,542,537,537,544,542,537,539,539,539,542,553,557,553,542,539,542,548,549,540,540,550,539,545,541,989,913,916,945,980,1206,1253,1386,1468,1502,1513,1473,1437,1413,1504,1443,1456,1318,1305,1376,1316,1291,1268,1240,1161,1140,1114,1090,1057,1067,1031,999,970,962,937,932,980,937,942,939,957,976,955,975,947,958,947,952,967,957,957,963,963,981,969,969,958,968,968,976,967,974,953,977,976,656,658,660,681,680,773,847,948,1034,1076,1107,1062,1043,1028,1009,994,1036,958,940,923,961,915,872,855,838,858,803,786,771,786,735,718,701,683,670,666,668,711,669,684,680,680,692,690,694,683,682,689,684,683,685,692,702,715,702,713,695,700,703,686,693,686,697,702,680,521,521,524,560,532,602,657,727,804,850,885,839,826,813,801,788,776,764,750,737,762,733,696,682,675,690,641,628,614,633,587,573,559,546,533,529,530,561,526,531,532,548,532,545,533,553,541,534,546,530,533,539,537,541,538,540,537,542,545,542,534,547,534,547,537,252,253,253,254,255,267,303,338,374,410,422,412,409,402,395,389,382,375,368,362,355,348,341,334,328,321,314,307,301,294,287,280,274,267,260,256,256,255,246,256,247,251,259,251,253,254,250,251,251,253,247,249,249,254,250,249,254,249,249,253,249,254,248,251,249,570,612,573,575,584,637,719,803,884,930,934,920,904,889,875,861,845,830,816,801,787,772,757,742,728,714,698,684,668,654,640,625,610,595,582,578,580,581,578,577,577,579,591,583,592,598,591,583,584,585,584,591,588,615,586,583,583,586,586,593,584,587,584,605,585,596,598,603,601,658,692,745,898,979,980,983,950,991,940,921,909,944,877,893,910,877,796,799,766,745,730,733,720,706,685,654,694,627,661,639,603,607,632,605,600,616,629,610,622,608,625,607,624,617,606,610,613,618,626,619,617,615,609,616,616,614,616,605,619,611,765,718,738,772,745,859,962,1075,1135,1176,1215,1234,1174,1119,1200,1108,1089,1044,1061,1007,988,969,973,932,944,953,875,886,893,846,800,781,763,744,730,756,758,730,743,736,743,748,749,743,746,741,749,753,748,756,776,790,784,770,758,762,746,755,746,752,744,758,751,756,751,868,824,826,849,870,991,1109,1219,1334,1341,1384,1318,1297,1275,1254,1233,1265,1190,1169,1148,1175,1220,1084,1063,1041,1065,999,977,956,969,914,892,881,850,837,844,846,875,840,875,831,827,863,843,846,862,853,862,886,854,854,868,871,879,860,886,870,873,892,858,875,882,906,869,862,1252,1241,1234,1301,1414,1586,1778,1919,2016,2036,2021,2029,1993,1957,1891,1864,1833,1811,1790,1735,1746,1667,1629,1592,1556,1541,1483,1471,1482,1406,1377,1323,1310,1264,1232,1232,1261,1285,1334,1318,1336,1340,1332,1322,1402,1405,1333,1371,1352,1326,1328,1389,1401,1426,1395,1388,1381,1403,1411,1404,1363,1356,1329,1338,1351,847,847,852,830,901,1002,1136,1353,1371,1341,1342,1361,1370,1317,1295,1273,1251,1229,1207,1185,1161,1139,1118,1096,1040,1051,1048,1051,1003,963,915,920,959,850,862,834,861,894,881,871,876,870,900,943,886,907,907,925,923,928,921,925,911,932,901,905,916,906,901,947,923,938,920,922,937,585,587,592,590,644,675,724,872,951,953,957,925,967,916,897,886,922,856,872,889,858,777,780,748,728,714,717,705,691,672,640,682,615,650,628,592,596,621,591,592,603,618,606,609,601,613,601,625,607,603,619,621,641,649,629,617,618,623,621,615,625,641,616,625,613,533,534,536,556,545,617,674,752,830,875,910,867,852,838,824,810,796,782,768,754,782,750,712,698,684,708,656,642,628,649,600,586,572,558,545,541,542,575,538,538,531,539,544,571,540,546,561,553,541,547,538,546,547,534,547,549,548,546,542,545,555,562,556,562,553,510,515,514,514,499,542,640,715,788,837,841,829,816,771,758,746,761,720,734,751,680,694,681,682,655,641,627,614,601,587,574,540,547,521,502,517,541,530,509,514,519,527,524,531,515,522,515,545,521,519,525,524,542,560,538,531,538,524,531,534,539,546,522,530,522,1147,1162,1153,1206,1308,1572,1819,1908,2004,1959,2045,1908,1874,1839,1805,1771,1790,1702,1690,1633,1651,1608,1530,1496,1461,1489,1392,1383,1342,1322,1255,1243,1231,1185,1152,1152,1181,1222,1199,1214,1214,1231,1248,1258,1243,1264,1235,1279,1256,1237,1249,1248,1262,1275,1262,1259,1259,1241,1257,1261,1258,1265,1250,1277,1252,1157,1160,1180,1242,1347,1511,1699,1842,1940,1961,1948,1952,1917,1885,1823,1796,1767,1734,1706,1672,1690,1606,1578,1533,1494,1485,1427,1414,1354,1357,1283,1271,1258,1212,1179,1179,1208,1235,1252,1251,1243,1252,1251,1253,1262,1266,1261,1256,1261,1261,1267,1264,1274,1275,1273,1281,1262,1276,1268,1268,1268,1289,1261,1265,1253,542,544,580,565,552,619,670,743,816,862,898,855,842,829,816,803,790,815,763,750,815,748,711,698,685,766,695,645,632,654,606,593,579,566,554,585,551,584,560,546,553,561,548,568,562,570,568,560,583,557,559,559,555,570,560,564,557,560,557,556,562,562,560,587,567,1285,1291,1285,1371,1538,1778,2012,2159,2219,2217,2215,2245,2136,2077,2056,2014,1977,1989,1897,1949,1818,1778,1783,1699,1659,1617,1580,1572,1497,1573,1460,1406,1326,1320,1311,1312,1320,1327,1373,1378,1401,1419,1426,1413,1417,1418,1399,1415,1395,1384,1397,1406,1398,1394,1425,1418,1390,1394,1401,1390,1390,1399,1424,1424,1391,320,341,322,323,324,343,387,432,477,514,528,522,545,505,496,488,480,471,463,455,445,436,430,421,409,405,396,388,379,371,363,354,346,338,329,325,326,347,316,326,320,324,327,328,327,334,320,327,322,322,324,332,332,332,335,330,325,324,338,337,323,328,324,331,326,747,772,751,753,782,865,978,1092,1201,1214,1217,1199,1211,1161,1142,1122,1103,1084,1064,1045,1024,1005,987,968,945,929,928,891,889,851,833,814,856,774,761,758,759,792,768,777,768,783,785,794,781,807,781,785,779,784,775,790,789,790,794,786,789,783,797,797,782,797,777,789,782,458,482,460,462,465,504,571,638,705,747,758,747,767,723,711,699,687,675,662,650,637,625,614,602,586,578,565,553,541,529,517,505,493,481,469,465,466,497,469,462,475,469,472,481,470,465,468,473,486,475,481,480,479,487,479,475,470,478,473,485,477,475,469,483,493,286,287,287,288,289,305,345,385,427,466,476,469,461,454,446,440,431,423,416,408,401,393,385,378,370,418,355,348,340,332,325,317,310,302,294,290,291,292,278,285,287,296,289,297,284,299,284,301,287,281,288,291,299,305,295,289,294,285,297,295,289,294,281,288,284,805,848,810,823,849,953,1064,1188,1276,1315,1312,1307,1271,1249,1229,1209,1187,1166,1146,1125,1105,1083,1074,1041,1022,1001,990,958,976,955,896,875,854,843,820,826,855,821,832,843,837,846,848,859,852,860,843,856,846,856,851,844,839,847,851,854,844,848,840,845,843,861,866,856,844,799,784,788,800,820,930,1026,1142,1258,1271,1286,1260,1235,1199,1185,1184,1140,1137,1123,1096,1133,1083,1026,1014,999,1013,949,929,904,917,863,855,830,809,799,797,798,830,816,823,776,775,816,805,798,800,807,829,866,816,829,843,854,822,821,833,832,858,892,836,827,835,884,837,805,1087,1094,1134,1123,1228,1375,1530,1727,1781,1801,1791,1793,1764,1727,1705,1593,1646,1633,1589,1580,1478,1488,1441,1405,1415,1376,1332,1326,1292,1280,1240,1164,1141,1174,1101,1145,1147,1165,1168,1173,1167,1174,1170,1180,1173,1182,1185,1318,1173,1172,1175,1179,1189,1165,1183,1182,1173,1185,1162,1181,1179,1182,1175,1177,1170,0,0,0,0,0,0,0,0,0,0,0,0,0,0,0,0,0,0,0,0,0,0,0,0,0,0,0,0,0,0,0,0,0,0,0,0,0,0,0,0,0,0,0,0,0,0,0,0,0,0,0,0,0,0,0,0,0,0,0,0,0,0,0,0,0,645,647,649,669,677,760,834,932,1033,1062,1093,1047,1042,1027,996,992,1034,945,928,911,949,900,859,842,825,846,791,774,768,775,723,706,689,672,659,655,657,707,651,654,666,679,667,670,662,674,661,689,667,663,682,678,699,712,686,678,684,684,684,682,691,707,679,686,677,1220,1266,1252,1359,1503,1823,1997,2083,2175,2128,2210,2072,2035,2062,2022,1982,1995,1902,1836,1777,1792,1747,1702,1642,1593,1618,1519,1527,1479,1454,1354,1396,1348,1276,1266,1266,1304,1330,1367,1369,1366,1396,1420,1413,1394,1392,1410,1443,1406,1448,1450,1450,1399,1402,1424,1428,1428,1405,1447,1491,1441,1440,1447,1425,1422,649,655,656,654,673,758,903,1023,1138,1192,1191,1169,1147,1125,1131,1081,1121,1096,1070,1045,1019,948,968,956,881,859,866,815,816,762,748,754,704,691,639,664,642,647,670,657,669,677,667,664,661,671,672,692,686,675,671,664,679,672,679,682,680,703,677,685,680,675,677,676,671,648,659,661,703,670,737,941,931,1017,1060,1062,1045,1029,1012,995,978,994,944,928,911,906,877,860,881,827,810,803,776,759,742,726,716,716,698,662,658,660,670,683,667,662,669,672,675,730,721,680,708,690,672,682,716,725,733,723,739,723,745,723,708,703,690,677,675,666,859,862,865,934,944,1015,1174,1306,1366,1404,1391,1401,1355,1393,1311,1289,1266,1244,1243,1233,1177,1207,1133,1111,1088,1066,1044,1022,999,994,955,1017,926,889,875,872,875,877,885,870,873,875,884,908,900,892,890,907,921,899,906,897,898,923,929,900,909,916,914,928,914,913,931,965,929,377,379,380,381,382,354,399,443,462,531,514,508,503,497,492,486,481,475,461,464,459,518,441,442,424,416,408,399,391,450,374,366,407,397,388,383,384,385,355,358,362,365,364,368,361,365,361,376,365,364,369,369,378,386,377,372,377,370,376,378,379,381,372,376,373,465,467,468,470,473,513,581,650,718,767,773,761,748,736,724,711,699,687,674,662,650,654,625,612,600,588,575,563,551,538,526,514,501,489,477,485,474,475,465,471,475,486,545,517,488,526,486,563,510,541,514,486,504,531,506,488,532,504,491,517,508,546,509,502,492,96,96,96,96,97,98,110,123,135,147,157,154,152,150,147,145,142,140,138,135,133,130,128,126,123,121,118,116,114,111,109,106,104,102,99,97,97,97,82,82,80,81,85,86,85,86,86,92,89,113,110,117,88,95,105,83,83,93,111,119,118,123,120,119,110,341,342,343,344,345,345,390,434,453,522,505,499,494,488,483,477,472,466,452,455,450,477,432,433,415,407,399,390,382,406,365,357,366,358,350,346,346,347,325,326,335,347,333,339,326,340,328,332,332,327,330,335,334,333,333,333,333,333,339,338,331,333,330,333,332,566,553,555,556,585,610,692,804,894,908,913,898,884,869,854,861,861,811,787,781,800,774,738,816,700,698,714,664,650,633,621,599,585,570,564,567,561,595,567,568,569,565,564,562,577,575,562,568,573,567,568,568,570,568,572,567,571,570,568,563,572,569,572,573,575,511,513,514,551,520,565,638,712,785,833,839,826,812,861,786,773,760,746,733,720,707,747,681,667,654,641,628,615,601,588,575,643,549,535,523,519,520,522,515,519,521,546,523,534,519,526,521,514,530,524,554,567,562,534,524,536,534,537,540,527,527,542,517,527,524,1060,936,936,980,996,1109,1257,1394,1476,1510,1505,1513,1457,1433,1409,1385,1393,1337,1313,1289,1276,1241,1214,1230,1169,1169,1131,1190,1083,1049,1022,1008,962,975,904,938,938,952,970,971,963,1050,1015,1012,997,985,1007,1039,1001,1045,1042,1035,976,985,1014,1024,1021,991,1031,1087,1037,1024,1043,1013,1015,830,850,835,842,884,1033,1152,1251,1337,1347,1414,1436,1350,1318,1323,1304,1263,1232,1222,1171,1171,1167,1099,1109,1023,1034,1030,1008,967,963,917,903,891,878,831,861,847,839,831,838,845,858,875,874,851,882,850,900,870,883,871,862,882,901,881,870,890,875,875,889,883,899,873,878,870,185,185,186,187,187,193,217,242,266,290,304,300,295,290,286,281,276,271,267,262,257,253,248,243,238,234,229,224,219,215,210,205,201,196,191,188,188,189,175,177,175,179,234,207,192,203,195,235,197,189,208,184,185,203,192,181,215,184,180,207,198,231,208,200,194,615,659,637,619,632,720,891,979,1093,1147,1147,1126,1104,1082,1060,1039,1017,995,1021,1039,930,993,886,865,843,821,799,778,756,726,712,736,669,647,628,624,696,633,645,653,645,657,660,657,654,669,646,655,653,653,649,662,661,660,657,657,660,655,669,670,652,662,651,660,655,481,496,498,500,489,548,621,693,766,772,804,792,793,758,767,740,728,728,695,689,689,657,663,617,637,593,610,597,574,571,558,545,517,510,507,477,504,505,486,492,491,507,493,502,491,499,494,494,495,493,492,498,498,501,500,504,502,501,507,504,501,519,503,513,507,941,925,925,967,979,1088,1231,1367,1450,1484,1480,1488,1433,1410,1386,1363,1372,1316,1293,1269,1257,1223,1196,1213,1152,1153,1116,1175,1069,1035,1009,996,951,963,893,927,927,941,931,938,938,955,958,958,954,970,940,955,950,945,957,963,962,970,994,976,953,953,967,963,957,975,976,989,971,396,397,399,400,401,431,508,545,601,648,632,624,616,607,599,604,595,584,558,564,553,543,549,520,530,520,511,501,469,459,448,438,427,417,407,402,403,404,395,401,402,412,408,403,402,407,400,414,409,414,416,415,431,442,411,404,411,403,408,403,407,412,402,410,403,506,508,509,521,508,562,636,691,752,830,836,823,817,796,765,800,757,726,713,717,703,674,653,649,650,637,624,590,597,584,576,576,531,536,507,503,515,517,504,506,499,506,513,539,507,515,526,524,508,514,506,511,514,503,515,517,513,513,508,513,521,527,522,530,518,537,555,540,541,546,621,776,850,959,1016,1018,999,979,959,940,920,901,881,885,865,822,803,783,764,744,724,705,685,666,638,626,625,587,568,549,545,549,553,549,550,554,569,554,559,553,565,556,554,562,550,553,559,555,559,557,561,557,562,562,561,556,568,554,564,556,563,565,566,568,576,656,776,897,1008,1064,1066,1045,1025,1008,984,963,943,922,902,881,864,840,820,799,779,759,741,718,697,669,656,636,615,597,578,572,576,580,575,575,585,602,596,593,580,588,588,613,593,593,608,651,684,661,641,603,588,608,599,591,586,606,592,621,585,246,247,248,248,249,260,294,364,387,395,440,434,428,422,416,410,404,398,384,386,380,374,331,362,318,312,306,299,293,286,280,273,267,261,254,250,251,251,238,236,240,242,238,250,242,251,251,243,253,240,243,242,241,247,243,242,242,246,242,241,241,246,243,249,245,1189,1192,1197,1297,1385,1552,1767,1928,2022,2059,2151,2038,2039,2005,1912,1892,1829,1911,1768,1721,1699,1673,1613,1621,1620,1516,1472,1443,1397,1354,1335,1335,1281,1229,1211,1252,1223,1240,1290,1298,1289,1295,1358,1330,1329,1337,1303,1368,1336,1365,1352,1332,1321,1367,1336,1342,1349,1325,1318,1356,1346,1369,1348,1341,1365,490,492,493,495,499,542,613,684,755,802,809,841,783,771,758,787,732,719,706,694,681,668,655,642,630,617,604,591,578,565,553,540,527,514,502,517,499,500,493,494,493,494,495,502,532,503,498,501,501,504,499,513,499,508,501,502,503,501,500,503,502,501,500,499,499,381,396,397,399,386,428,484,539,595,641,635,625,630,598,609,586,576,579,549,546,548,519,528,518,507,497,487,477,456,456,446,436,411,406,405,401,402,403,389,389,414,417,434,439,434,396,414,426,393,393,395,394,392,394,392,395,393,393,394,394,399,395,400,417,394,421,422,423,425,427,460,521,582,643,691,700,688,677,666,655,644,633,621,610,599,588,577,606,554,543,532,521,547,498,487,476,465,454,443,432,427,428,430,429,422,425,425,430,429,427,427,433,430,431,430,434,432,435,431,427,435,429,437,431,429,432,432,430,429,424,613,623,625,619,632,694,787,879,964,1007,1010,994,978,962,946,930,947,898,881,865,861,833,817,839,785,769,763,736,720,704,688,679,679,663,626,622,624,634,618,631,630,641,648,642,640,649,629,639,630,630,633,649,642,649,687,678,640,641,649,639,629,632,647,645,631,782,788,786,829,820,987,1035,1155,1243,1272,1271,1275,1231,1271,1191,1171,1159,1131,1119,1091,1071,1103,1031,1011,991,971,951,931,911,895,875,930,834,811,797,793,795,797,793,800,799,804,823,795,809,824,810,804,823,807,840,829,844,827,976,925,850,832,815,808,824,802,815,836,799,135,135,135,136,136,140,158,177,196,214,227,223,220,216,212,209,205,201,198,194,191,187,183,180,176,172,169,165,161,158,154,151,147,143,140,137,137,137,139,123,124,124,127,127,125,128,124,125,125,125,126,126,126,128,129,129,127,127,127,128,127,127,128,128,128,799,865,846,844,845,1024,1096,1189,1275,1313,1336,1289,1324,1280,1227,1206,1236,1164,1163,1122,1177,1120,1079,1068,1084,996,1030,996,939,912,924,892,850,828,830,812,814,816,843,810,812,810,825,825,829,828,828,832,848,860,906,850,861,888,875,856,846,873,915,927,931,951,948,909,899,725,758,760,748,794,839,950,1111,1199,1238,1237,1194,1198,1172,1201,1137,1098,1079,1078,1060,1040,1015,982,980,962,942,905,902,854,863,843,855,839,784,771,826,769,756,785,791,789,799,799,806,793,815,790,802,793,794,793,821,808,807,804,813,807,802,812,821,800,810,787,804,797,0,0,0,0,0,0,0,0,0,0,0,0,0,0,0,0,0,0,0,0,0,0,0,0,0,0,0,0,0,0,0,0,0,0,0,0,0,0,0,0,0,0,0,0,0,0,0,0,0,0,0,0,0,0,0,0,0,0,0,0,0,0,0,0,0,649,655,656,654,673,758,903,1023,1138,1192,1191,1169,1147,1125,1131,1081,1121,1096,1070,1045,1019,948,968,956,881,859,866,815,816,762,748,754,704,691,639,664,642,647,670,657,669,677,667,664,661,671,672,692,686,675,671,664,679,672,679,682,680,703,677,685,680,675,677,676,671,0,0,0,0,0,0,0,0,0,0,0,0,0,0,0,0,0,0,0,0,0,0,0,0,0,0,0,0,0,0,0,0,0,0,0,0,0,0,0,0,0,0,0,0,0,0,0,0,0,0,0,0,0,0,0,0,0,0,0,0,0,0,0,0,0,1324,1337,1389,1403,1567,1923,2077,2140,2225,2257,2283,2189,2151,2112,2137,2082,2141,1959,1920,1934,1873,1887,1795,1739,1759,1733,1705,1575,1600,1535,1497,1421,1386,1360,1345,1345,1351,1451,1412,1407,1411,1411,1547,1430,1426,1433,1438,1451,1510,1543,1460,1452,1481,1463,1626,1491,1471,1481,1495,1480,1473,1463,1496,1471,1489,1400,1419,1460,1550,1668,2007,2118,2409,2348,2366,2346,2328,2441,2443,2277,2194,2178,2076,2136,2003,1962,1902,1943,1869,1781,1850,1737,1660,1746,1622,1533,1535,1479,1467,1513,1423,1470,1435,1514,1521,1541,1558,1550,1555,1540,1555,1535,1554,1565,1556,1547,1571,1572,1593,1627,1619,1559,1573,1577,1565,1560,1552,1568,1587,1573,1037,1019,1019,1040,1126,1208,1365,1502,1584,1630,1627,1615,1589,1563,1537,1500,1474,1449,1423,1398,1441,1355,1321,1336,1275,1251,1219,1194,1173,1147,1121,1095,1069,1061,1045,1028,1070,1062,1043,1088,1047,1051,1091,1051,1058,1061,1069,1088,1091,1083,1074,1066,1083,1069,1105,1089,1076,1083,1119,1066,1088,1085,1103,1083,1076,1005,1007,1010,1027,1106,1269,1471,1633,1728,1757,1747,1716,1685,1654,1623,1592,1561,1530,1499,1468,1437,1406,1375,1344,1313,1297,1251,1220,1189,1158,1127,1096,1065,1038,1022,1021,1027,1032,1051,1024,1036,1034,1070,1067,1045,1045,1049,1060,1108,1087,1089,1090,1099,1084,1106,1083,1073,1106,1116,1097,1084,1082,1112,1133,1104,837,840,842,867,898,1040,1198,1378,1450,1513,1473,1456,1456,1405,1379,1354,1344,1294,1277,1242,1232,1207,1164,1154,1106,1081,1068,1113,1017,976,947,923,915,890,856,872,856,860,856,900,862,860,878,861,874,882,878,878,898,871,877,881,883,889,891,898,894,890,901,875,898,906,923,891,893,1028,1010,1013,1031,1117,1215,1372,1509,1590,1623,1629,1606,1596,1570,1528,1502,1476,1454,1424,1398,1402,1346,1320,1327,1266,1242,1216,1188,1164,1138,1112,1086,1060,1052,1039,1022,1048,1053,1038,1044,1054,1082,1042,1067,1045,1050,1046,1054,1082,1066,1095,1106,1098,1077,1065,1074,1061,1076,1101,1073,1074,1075,1051,1083,1076,1227,1255,1295,1286,1424,1682,1947,2002,2087,2099,2141,2040,2034,1998,1967,1951,1889,1913,1795,1824,1742,1728,1701,1614,1597,1623,1523,1494,1425,1432,1397,1323,1289,1262,1266,1247,1246,1313,1313,1306,1318,1327,1309,1336,1319,1326,1325,1334,1349,1336,1319,1323,1341,1344,1340,1356,1359,1341,1344,1340,1336,1336,1355,1417,1367,1050,1053,1056,1122,1161,1329,1538,1846,1793,1822,1811,1779,1906,1715,1741,1652,1620,1588,1681,1524,1493,1461,1479,1397,1366,1397,1302,1270,1324,1207,1175,1143,1111,1084,1159,1068,1073,1078,1107,1085,1098,1097,1097,1114,1105,1105,1107,1120,1145,1124,1130,1135,1134,1144,1129,1134,1123,1147,1151,1149,1145,1134,1154,1167,1169,1622,1619,1710,1769,1934,2435,2508,2583,2658,2713,2644,2631,2612,2511,2522,2454,2418,2330,2311,2291,2223,2250,2132,2165,2060,2018,1961,1901,1871,1929,1780,1700,1757,1640,1681,1590,1672,1820,1917,1851,1880,1941,1900,1945,1902,1907,1909,1917,1938,1902,1897,1939,1996,2029,1935,1904,1912,1915,1902,1895,1893,1922,1891,1933,1887,989,992,995,1011,1077,1199,1336,1455,1526,1561,1559,1536,1527,1501,1468,1446,1453,1400,1408,1355,1333,1310,1287,1265,1242,1222,1196,1174,1144,1119,1093,1084,1042,1019,1006,1003,1006,1043,1019,1035,1034,1038,1054,1023,1042,1059,1044,1034,1077,1049,1127,1127,1134,1081,1105,1113,1097,1061,1044,1038,1054,1029,1043,1084,1026,774,776,778,780,821,937,1088,1276,1376,1413,1409,1384,1359,1334,1274,1249,1224,1200,1209,1150,1125,1134,1076,1051,1027,1002,1009,984,928,903,878,854,858,804,788,787,838,795,793,807,801,815,808,806,816,830,802,801,807,814,807,805,808,814,815,813,812,810,809,813,812,827,824,836,818,182,182,183,183,184,189,214,239,264,289,305,300,295,290,286,281,276,271,266,261,256,252,247,242,237,232,227,222,218,213,208,203,198,193,188,184,185,185,180,172,172,172,172,174,172,174,172,180,173,172,173,174,173,172,175,174,173,173,173,175,173,177,175,178,177,1034,1012,1040,1087,1143,1311,1518,1638,1774,1802,1791,1760,1764,1659,1652,1633,1601,1550,1504,1492,1475,1432,1394,1328,1331,1300,1256,1237,1227,1190,1158,1127,1095,1053,1013,1051,1057,1062,1066,1057,1085,1093,1083,1104,1081,1101,1104,1105,1141,1100,1106,1143,1159,1154,1127,1100,1095,1116,1097,1092,1089,1115,1089,1123,1104,1611,1607,1693,1749,1909,2253,2482,2558,2634,2689,2621,2608,2590,2489,2501,2434,2399,2311,2293,2273,2206,2213,2116,2150,2045,2003,1947,1888,1858,1906,1769,1689,1746,1629,1670,1579,1660,1706,1880,1864,1870,1914,1903,1874,1960,1973,1886,1938,1948,1901,1900,1947,1945,1975,1950,1966,1946,1963,1965,1945,1916,1912,1888,1887,1872,1065,1046,1074,1072,1164,1325,1435,1607,1678,1682,1726,1663,1637,1610,1583,1556,1563,1502,1509,1448,1475,1403,1384,1372,1313,1332,1293,1257,1213,1178,1151,1124,1097,1088,1110,1085,1086,1090,1104,1096,1106,1150,1126,1139,1129,1099,1112,1126,1129,1119,1105,1118,1158,1188,1119,1122,1126,1108,1111,1123,1114,1119,1113,1126,1104,1051,1054,1056,1079,1181,1336,1545,1723,1779,1854,1815,1783,1751,1756,1705,1673,1623,1625,1566,1527,1511,1478,1430,1414,1382,1368,1332,1284,1239,1207,1187,1143,1124,1084,1069,1083,1086,1103,1092,1126,1116,1128,1135,1119,1128,1160,1122,1121,1145,1107,1134,1128,1146,1145,1306,1256,1167,1133,1139,1123,1114,1113,1130,1176,1112,226,227,227,228,229,236,267,297,328,358,374,368,363,357,351,345,339,333,327,322,316,310,304,298,292,286,281,275,269,263,257,251,245,240,234,229,230,231,219,219,223,220,223,223,222,228,224,228,220,227,223,235,226,228,226,232,225,223,219,228,225,222,217,224,220,295,296,297,298,299,314,356,398,439,480,494,486,478,470,462,455,447,439,431,423,415,407,399,391,383,376,368,360,352,344,336,328,320,312,304,300,301,301,291,286,291,291,288,297,293,301,299,294,301,291,293,292,292,296,296,294,292,294,293,292,293,295,294,302,297,1029,992,988,1066,1110,1306,1446,1596,1676,1759,1717,1716,1664,1638,1612,1585,1544,1530,1484,1480,1456,1407,1377,1346,1290,1261,1294,1231,1186,1135,1109,1081,1070,1043,1009,1057,1010,1015,1036,1032,1052,1058,1065,1101,1062,1081,1074,1075,1106,1081,1089,1090,1087,1096,1063,1065,1072,1083,1073,1068,1080,1092,1073,1083,1087,704,706,709,711,779,807,914,1021,1110,1194,1155,1166,1147,1100,1082,1063,1045,1026,1008,1044,971,953,935,916,947,880,861,863,885,827,808,769,751,733,719,715,717,719,718,740,709,721,710,722,715,725,733,725,739,756,747,747,740,767,754,738,733,736,755,752,748,767,771,759,747,1165,1169,1218,1211,1388,1557,1819,1887,1977,2027,2044,1953,1919,1884,1913,1862,1824,1746,1711,1729,1642,1661,1572,1538,1572,1551,1466,1399,1365,1367,1333,1261,1246,1200,1226,1184,1190,1237,1237,1275,1238,1239,1269,1242,1259,1264,1262,1262,1277,1267,1285,1269,1271,1281,1284,1281,1282,1284,1318,1281,1305,1313,1333,1291,1287,934,936,939,975,1014,1161,1346,1509,1606,1638,1630,1601,1608,1544,1501,1486,1457,1408,1399,1355,1341,1300,1265,1232,1208,1179,1167,1122,1115,1080,1051,1022,993,952,936,949,954,959,962,971,985,1011,1024,1032,1034,991,996,1022,978,969,980,986,984,976,1009,997,970,968,978,974,969,978,989,1012,969,1031,1034,1049,1071,1157,1327,1536,1694,1769,1816,1806,1756,1742,1785,1679,1647,1598,1617,1584,1503,1487,1454,1422,1391,1359,1346,1324,1262,1232,1200,1167,1136,1104,1064,1062,1114,1066,1096,1114,1126,1113,1199,1162,1154,1143,1144,1151,1183,1153,1164,1158,1150,1124,1138,1137,1158,1162,1133,1152,1174,1147,1141,1158,1137,1129,1289,1301,1351,1361,1520,1869,2024,2088,2174,2207,2234,2140,2102,2065,2090,2036,1996,1914,1876,1891,1830,1845,1753,1698,1719,1694,1667,1537,1563,1498,1461,1386,1351,1324,1310,1309,1315,1415,1369,1378,1387,1412,1397,1402,1389,1404,1386,1386,1401,1391,1422,1437,1424,1404,1402,1414,1411,1422,1421,1397,1421,1421,1406,1406,1402,1326,1330,1338,1447,1536,1750,1985,2291,2221,2242,2233,2195,2325,2118,2127,2040,2002,1963,2047,1886,1848,1803,1813,1726,1688,1717,1611,1573,1623,1513,1458,1424,1389,1362,1438,1343,1353,1355,1430,1429,1438,1445,1465,1506,1458,1490,1481,1496,1506,1495,1483,1495,1488,1498,1466,1466,1489,1482,1473,1496,1487,1499,1478,1488,1482,761,763,767,769,815,925,1077,1226,1327,1391,1361,1336,1344,1294,1262,1235,1243,1186,1163,1139,1114,1089,1065,1058,1021,991,966,941,917,892,867,842,816,793,777,776,780,784,775,776,771,782,809,846,787,781,785,794,793,786,794,790,793,793,808,793,789,795,785,798,804,807,825,794,792,1340,1367,1430,1494,1584,1873,2027,2225,2259,2372,2260,2221,2248,2143,2141,2065,2040,1986,2010,1909,1869,1848,1846,1844,1712,1709,1650,1595,1584,1551,1494,1475,1408,1377,1393,1398,1368,1389,1448,1445,1452,1475,1473,1478,1476,1502,1473,1486,1486,1483,1484,1507,1529,1522,1502,1490,1472,1483,1472,1467,1458,1488,1474,1493,1453,1378,1391,1423,1474,1610,1784,1980,2138,2240,2240,2234,2177,2203,2144,2073,2157,2001,1976,1999,1949,1861,1825,1790,1755,1731,1684,1719,1661,1589,1558,1523,1493,1457,1414,1451,1402,1409,1425,1487,1520,1473,1489,1513,1501,1506,1531,1504,1512,1543,1503,1513,1534,1539,1539,1518,1541,1539,1537,1574,1506,1522,1528,1563,1521,1509,825,827,830,849,884,1025,1183,1362,1435,1497,1491,1441,1441,1390,1365,1339,1329,1279,1263,1228,1212,1186,1150,1178,1092,1085,1047,1101,995,979,935,932,892,867,841,854,844,848,844,864,852,885,851,870,860,882,869,875,864,862,871,869,881,883,883,888,879,874,889,878,886,892,882,891,890,0,0,0,0,0,0,0,0,0,0,0,0,0,0,0,0,0,0,0,0,0,0,0,0,0,0,0,0,0,0,0,0,0,0,0,0,0,0,0,0,0,0,0,0,0,0,0,0,0,0,0,0,0,0,0,0,0,0,0,0,0,0,0,0,0 ]);
