n = 30;
D = [212,255,92,188,117,208,254,68,107,206,129,289,165,77,155,61,196,204,111,177,268,234,270,263,173,203,254,113,227,187 ];
q = 0;
prec = array2d(1..0,1..2,[]);
steps = 64;
l = 360;
r = 0;
which = [];
interval = array2d(1..0,1..2,[]);
T = array3d(1..31,1..31,0..64,[0,0,0,0,0,0,0,0,0,0,0,0,0,0,0,0,0,0,0,0,0,0,0,0,0,0,0,0,0,0,0,0,0,0,0,0,0,0,0,0,0,0,0,0,0,0,0,0,0,0,0,0,0,0,0,0,0,0,0,0,0,0,0,0,0,1022,1026,1029,1033,1175,1560,1736,1997,2032,2034,2032,1995,1956,1923,1900,1863,1891,1800,1763,1752,1710,1671,1692,1622,1584,1558,1524,1452,1458,1250,1222,1113,1118,1066,1040,1039,1031,1013,1016,1012,1028,1036,1032,1044,1032,1047,1043,1040,1055,1043,1041,1042,1043,1049,1042,1038,1042,1039,1042,1036,1044,1047,1037,1057,1046,744,740,765,769,808,1097,1253,1349,1432,1553,1513,1458,1435,1412,1388,1393,1369,1317,1342,1270,1247,1214,1200,1168,1152,1128,1097,1125,1059,1035,905,910,790,839,758,749,793,755,730,729,738,764,740,747,739,752,752,745,754,738,751,762,776,782,758,753,747,765,750,744,744,777,749,762,744,833,835,837,839,900,1220,1374,1611,1670,1666,1659,1633,1607,1580,1552,1525,1566,1475,1448,1457,1399,1368,1397,1354,1291,1309,1267,1240,1222,1155,999,901,924,882,848,867,832,807,815,812,829,852,840,850,838,849,851,845,855,840,843,848,855,851,840,852,844,837,852,850,843,860,847,862,844,487,489,490,492,498,666,754,842,896,980,985,970,954,938,922,907,891,875,860,816,828,812,797,781,765,724,709,695,702,687,671,655,505,494,498,495,496,497,461,466,473,505,470,479,464,474,468,467,469,467,462,474,472,570,476,479,474,478,512,478,476,565,466,476,471,919,938,929,937,995,1350,1523,1810,1763,1809,1791,1764,1736,1708,1680,1653,1731,1597,1609,1542,1514,1486,1563,1441,1439,1375,1357,1320,1366,1255,1236,995,1075,951,1006,932,921,924,930,942,946,951,949,953,946,952,951,968,952,954,955,961,974,951,956,956,955,970,950,954,955,959,958,959,958,683,705,688,691,719,971,1096,1306,1368,1369,1366,1345,1323,1302,1279,1257,1303,1215,1193,1207,1150,1128,1167,1119,1063,1087,1051,1027,1028,954,931,893,864,752,697,713,696,682,687,685,700,707,700,715,700,710,710,707,748,711,711,711,710,714,710,706,710,708,711,706,711,712,702,761,712,953,962,937,956,1078,1397,1590,1859,1828,1873,1854,1815,1785,1756,1727,1697,1773,1639,1653,1579,1551,1521,1595,1461,1470,1403,1373,1344,1398,1285,1245,1075,1085,959,1019,945,942,947,968,970,968,969,964,967,962,969,966,989,966,971,972,980,997,969,973,972,974,999,967,970,969,975,973,974,973,760,756,781,786,828,1139,1287,1389,1469,1590,1549,1493,1469,1445,1421,1425,1401,1348,1372,1300,1276,1243,1238,1194,1179,1153,1122,1148,1081,1057,838,930,806,833,774,779,793,755,730,729,738,764,740,747,739,752,752,745,754,738,751,762,776,782,758,753,747,765,750,744,744,777,749,762,744,923,930,958,942,1068,1369,1510,1663,1785,1840,1870,1744,1720,1688,1736,1670,1685,1575,1546,1581,1482,1461,1433,1404,1384,1357,1327,1332,1268,1274,1173,1107,982,925,927,907,909,920,897,895,915,927,904,908,911,919,915,909,917,902,916,928,939,933,923,922,908,930,913,911,911,940,915,928,910,1644,1652,1693,1825,2137,2749,2988,3229,3170,3188,3156,3098,3053,3045,2949,2897,2951,2841,2742,2690,2485,2125,2363,2043,2340,2073,1920,1880,1974,1862,1773,1734,1732,1678,1711,1668,1674,1679,1715,1727,1727,1724,1735,1743,1741,1749,1734,1750,1736,1739,1738,1761,1753,1783,1749,1754,1756,1751,1760,1761,1753,1759,1755,1751,1726,647,648,686,675,763,944,1034,1157,1261,1298,1340,1277,1257,1236,1249,1234,1206,1152,1131,1171,1083,1070,1049,1028,1004,995,970,946,925,900,908,906,686,675,689,654,653,664,643,640,650,671,648,654,650,662,659,651,661,643,657,667,683,748,663,657,648,668,655,649,649,682,656,669,651,471,473,477,476,564,641,706,810,871,947,953,1023,985,908,991,877,862,851,811,817,825,786,793,756,741,726,710,695,679,664,650,634,619,494,482,480,494,483,480,482,480,485,485,492,484,492,486,483,489,484,484,486,489,546,494,545,485,491,493,540,490,543,493,535,532,735,737,737,729,751,995,1102,1259,1433,1411,1487,1388,1365,1315,1365,1339,1336,1252,1294,1265,1184,1200,1139,1142,1094,1072,1049,1027,1004,961,990,821,747,729,776,744,746,735,714,714,715,715,715,718,716,720,718,720,720,718,718,716,718,720,721,717,721,716,717,720,720,722,720,727,720,809,814,817,820,879,1105,1332,1492,1575,1612,1607,1584,1561,1535,1498,1488,1529,1432,1413,1382,1363,1338,1391,1283,1267,1223,1202,1146,1135,991,969,945,921,841,826,821,802,775,783,785,804,777,790,789,784,793,796,811,796,787,797,793,796,821,797,795,794,804,788,820,796,793,788,795,794,896,909,916,925,1012,1338,1487,1742,1799,1791,1784,1766,1742,1712,1683,1654,1692,1600,1566,1573,1497,1471,1510,1429,1401,1399,1370,1331,1307,1252,1101,983,976,956,922,920,889,864,872,872,885,913,896,904,895,904,908,902,909,895,896,899,910,906,896,907,897,893,907,902,899,917,904,917,899,1345,1356,1346,1415,1656,2149,2412,2660,2612,2633,2642,2581,2555,2546,2441,2393,2453,2317,2291,2247,2183,2171,2214,2079,2017,1999,1895,1797,1802,1498,1468,1422,1442,1375,1403,1349,1288,1289,1302,1325,1320,1330,1319,1334,1328,1343,1326,1341,1342,1348,1349,1338,1343,1339,1346,1345,1327,1318,1338,1341,1338,1348,1327,1334,1326,1546,1552,1580,1679,2013,2592,2821,3061,3005,3015,2979,2947,2899,2848,2806,2767,2807,2670,2610,2552,2510,2473,2507,2374,2241,1881,1871,1776,1860,1725,1676,1634,1612,1587,1586,1564,1504,1511,1529,1542,1533,1528,1537,1535,1528,1538,1539,1561,1540,1542,1542,1545,1580,1533,1539,1538,1533,1571,1533,1532,1534,1537,1538,1539,1538,260,261,261,262,263,334,376,417,465,507,534,525,518,509,501,492,484,476,467,459,451,443,434,426,418,410,401,393,385,377,368,360,352,344,335,264,264,278,232,232,233,233,233,236,234,238,236,238,238,236,236,234,236,238,239,235,239,234,235,238,238,240,238,245,238,1457,1466,1487,1560,2037,2591,2869,3144,3072,3042,3045,2988,2934,2910,2854,2809,2784,2658,2629,2586,2549,2435,2482,2319,2280,2169,2007,1933,1925,1686,1641,1599,1509,1496,1488,1496,1499,1502,1507,1510,1520,1515,1520,1537,1538,1525,1527,1543,1527,1525,1533,1540,1541,1581,1530,1532,1525,1563,1548,1554,1537,1519,1517,1525,1524,205,206,207,207,207,265,299,334,369,404,433,425,419,412,405,398,391,385,378,370,364,357,349,343,336,330,322,315,309,302,294,288,281,273,267,208,209,209,201,201,202,202,202,205,203,207,205,207,207,205,205,203,205,207,208,204,208,203,204,207,207,209,207,214,207,1275,1278,1293,1355,1559,2044,2286,2545,2496,2513,2486,2463,2422,2381,2348,2309,2366,2229,2179,2128,2097,2067,2110,1986,1935,1905,1851,1811,1741,1442,1402,1361,1355,1314,1336,1294,1239,1241,1263,1264,1262,1261,1259,1261,1258,1261,1261,1287,1262,1264,1264,1269,1308,1262,1265,1265,1263,1297,1259,1261,1264,1267,1268,1269,1268,1350,1366,1371,1444,1807,2287,2580,2864,2789,2806,2777,2727,2680,2630,2581,2562,2614,2484,2414,2374,2324,2266,2314,2168,2111,2063,2020,1971,1821,1561,1512,1471,1422,1395,1386,1385,1392,1382,1376,1361,1367,1390,1380,1393,1396,1395,1399,1441,1398,1393,1407,1410,1417,1411,1420,1406,1414,1417,1397,1422,1407,1410,1385,1393,1392,881,909,886,899,1018,1303,1476,1754,1716,1762,1744,1717,1689,1661,1633,1606,1684,1549,1567,1494,1467,1438,1516,1383,1393,1327,1300,1272,1328,1217,1189,1013,1020,907,970,893,876,879,902,901,899,899,897,899,896,904,909,928,900,902,902,906,941,900,903,903,901,940,897,899,901,907,906,907,906,826,822,837,835,897,1212,1345,1596,1640,1650,1643,1618,1581,1566,1539,1513,1554,1465,1438,1440,1386,1332,1392,1294,1284,1269,1243,1223,1235,1137,1055,951,962,865,843,832,835,824,826,826,842,849,843,849,845,859,847,849,844,845,842,854,863,857,851,848,850,843,854,849,854,856,844,851,843,1014,1017,1021,1024,1119,1537,1711,1975,1983,2010,1992,1962,1933,1901,1880,1839,1874,1783,1744,1725,1692,1657,1677,1595,1562,1542,1475,1445,1448,1236,1121,1095,1107,1049,1031,1028,1010,1007,1008,1007,1024,1029,1028,1039,1025,1036,1032,1034,1039,1037,1035,1035,1040,1045,1036,1035,1036,1031,1036,1029,1041,1040,1028,1051,1037,1073,1076,1080,1119,1209,1647,1870,2138,2094,2123,2109,2074,2091,2082,1974,1944,2016,1875,1842,1809,1772,1738,1800,1670,1637,1641,1569,1535,1519,1202,1174,1146,1170,1100,1131,1087,1026,1027,1041,1064,1059,1069,1058,1073,1067,1082,1065,1080,1081,1087,1087,1076,1081,1078,1085,1084,1066,1057,1077,1080,1077,1087,1066,1073,1065,551,556,558,558,571,761,865,1094,1067,1111,1117,1095,1082,1063,1046,1028,1118,992,974,957,938,920,999,885,866,849,831,814,881,777,760,742,763,589,565,562,564,544,552,545,551,544,558,558,552,558,557,572,560,552,560,560,557,646,562,559,553,570,552,639,555,555,552,560,559,1268,1274,1279,1328,1623,2057,2386,2674,2605,2624,2599,2551,2506,2460,2412,2381,2431,2285,2254,2208,2152,2115,2165,2022,1975,1929,1882,1836,1799,1647,1409,1372,1320,1302,1290,1295,1306,1277,1283,1283,1290,1297,1313,1298,1304,1305,1326,1334,1308,1317,1336,1336,1335,1328,1329,1318,1321,1331,1310,1338,1330,1318,1313,1313,1312,282,283,284,285,286,368,416,465,513,561,574,565,556,546,537,529,520,510,501,492,482,474,465,456,474,437,454,419,435,425,392,405,374,365,377,350,352,352,274,273,274,276,277,277,278,277,279,279,279,279,282,282,282,282,282,283,284,285,283,350,286,286,286,286,286,0,0,0,0,0,0,0,0,0,0,0,0,0,0,0,0,0,0,0,0,0,0,0,0,0,0,0,0,0,0,0,0,0,0,0,0,0,0,0,0,0,0,0,0,0,0,0,0,0,0,0,0,0,0,0,0,0,0,0,0,0,0,0,0,0,1013,985,1019,1015,1173,1476,1711,1839,1987,1955,2007,1965,1882,1866,1843,1838,1862,1775,1747,1716,1679,1602,1617,1552,1553,1528,1487,1354,1335,1304,1196,1214,1102,1005,1025,1026,1031,1001,1035,1023,1029,1036,1024,1037,1035,1041,1030,1033,1042,1041,1037,1038,1040,1046,1045,1043,1040,1044,1044,1042,1048,1049,1048,1049,1049,0,0,0,0,0,0,0,0,0,0,0,0,0,0,0,0,0,0,0,0,0,0,0,0,0,0,0,0,0,0,0,0,0,0,0,0,0,0,0,0,0,0,0,0,0,0,0,0,0,0,0,0,0,0,0,0,0,0,0,0,0,0,0,0,0,413,414,415,417,420,513,602,700,772,824,833,820,806,794,781,767,754,739,729,714,701,688,673,662,649,640,622,609,548,554,540,528,516,500,489,420,421,419,387,390,389,401,398,404,392,406,391,396,395,393,391,400,398,397,397,398,397,397,408,404,392,398,390,396,394,313,312,331,315,316,376,468,523,578,628,639,629,650,608,598,588,607,567,554,546,536,526,515,506,496,482,475,465,397,405,396,386,378,378,322,316,317,319,310,312,311,311,318,317,318,330,315,324,327,330,331,331,331,331,319,319,326,330,327,315,325,331,322,322,321,548,549,551,552,564,757,859,959,1108,1101,1104,1086,1069,1051,1034,1016,998,981,963,946,928,910,893,875,858,840,822,805,787,770,751,733,670,571,559,556,558,542,549,540,544,547,547,558,562,563,561,552,563,549,545,547,546,567,551,548,551,548,549,547,546,553,544,570,549,300,301,307,308,309,362,432,476,521,564,577,569,566,552,544,535,528,519,521,502,493,486,487,479,460,463,444,435,438,429,412,380,371,353,308,339,338,340,283,276,271,272,289,289,287,282,280,288,289,289,293,295,298,298,284,287,295,293,298,295,290,296,292,291,281,369,370,371,373,374,476,537,622,686,739,748,737,724,712,700,689,677,664,653,641,629,618,605,594,581,570,558,546,534,523,511,499,487,466,379,375,375,377,357,355,359,375,368,378,352,381,359,378,373,361,374,371,370,367,378,370,360,366,383,386,357,358,362,366,354,313,321,315,315,317,387,465,532,575,631,643,625,630,614,606,595,585,565,555,545,534,524,514,504,495,496,488,464,466,444,435,423,413,402,387,319,319,319,300,309,305,307,309,309,309,310,304,311,304,306,307,311,311,311,311,311,311,309,311,311,311,311,306,311,306,428,430,431,432,434,531,628,731,807,862,870,855,842,822,809,800,782,771,760,744,731,718,702,688,676,664,650,634,570,574,560,550,535,528,456,435,436,419,387,390,389,401,398,404,392,406,391,396,395,393,391,400,398,397,397,398,397,397,408,404,392,398,390,396,394,461,435,464,466,470,559,684,792,834,881,890,878,866,853,865,828,842,828,822,798,784,768,710,735,722,709,695,679,665,650,596,609,534,545,472,441,469,471,458,462,468,472,464,481,463,472,463,465,467,463,459,468,467,474,469,474,470,470,474,469,467,474,459,470,464,1050,1024,1027,1034,1134,1491,1632,1911,1988,2002,2008,1959,1944,1909,1881,1849,1852,1788,1754,1721,1689,1658,1625,1594,1607,1585,1554,1435,1344,1298,1253,1096,1071,1060,1039,1036,1039,1042,1048,1045,1042,1053,1057,1075,1063,1064,1064,1068,1066,1066,1065,1070,1075,1075,1073,1075,1068,1075,1075,1075,1075,1075,1075,1075,1075,452,453,454,456,458,502,684,776,857,908,915,900,886,871,856,842,827,812,799,783,768,754,739,725,710,696,682,667,652,638,623,497,486,474,462,459,460,453,421,425,424,434,433,438,430,440,429,441,438,438,437,436,436,441,441,433,443,442,443,439,431,454,437,438,433,1099,1103,1092,1116,1212,1639,1892,2073,2173,2194,2174,2129,2104,2031,2026,1991,1971,1924,1901,1850,1818,1784,1749,1711,1679,1652,1618,1542,1454,1394,1220,1176,1149,1129,1141,1146,1119,1102,1104,1100,1104,1107,1107,1118,1122,1123,1121,1112,1123,1109,1105,1107,1106,1127,1111,1108,1111,1108,1109,1107,1106,1113,1104,1130,1109,782,816,816,821,836,1014,1297,1485,1593,1631,1625,1597,1573,1547,1521,1469,1413,1445,1375,1392,1312,1338,1260,1235,1212,1247,1205,1193,1065,1064,984,964,861,846,829,824,827,821,784,787,787,803,804,806,804,813,798,817,810,813,813,812,813,819,815,802,819,816,819,815,807,830,813,814,809,482,484,485,488,490,662,754,820,901,1018,990,957,960,943,928,912,897,881,850,831,834,814,788,772,773,756,741,726,710,680,679,660,546,520,527,491,516,495,472,477,482,490,485,496,476,494,481,501,484,477,485,487,501,501,496,490,491,482,494,495,491,501,479,493,483,255,256,257,258,258,281,377,421,465,508,521,512,504,496,487,479,470,463,454,446,437,430,421,413,404,397,388,379,286,297,290,283,277,279,263,259,260,261,259,257,251,252,258,280,265,279,270,277,277,277,277,277,277,277,277,267,276,277,277,277,277,277,277,277,277,455,463,473,475,463,527,697,774,855,919,925,928,900,900,879,865,862,852,844,813,821,770,755,737,722,720,704,691,675,593,554,585,544,503,466,478,470,452,406,411,406,409,418,411,410,413,408,408,408,408,408,408,408,408,408,408,408,408,408,408,408,408,408,408,408,686,697,692,694,697,835,1086,1205,1335,1384,1382,1360,1338,1316,1295,1287,1263,1243,1232,1212,1191,1157,1135,1100,1078,1067,1035,1004,993,960,931,879,729,714,711,706,708,726,650,655,651,666,666,657,667,666,657,657,657,657,657,657,657,657,657,657,657,657,657,657,657,657,657,657,657,930,950,936,948,1058,1358,1570,1724,1846,1863,1838,1805,1779,1766,1735,1690,1691,1633,1604,1591,1546,1501,1488,1475,1423,1416,1371,1358,1328,1167,1114,992,990,971,954,945,942,946,952,948,953,951,953,962,962,967,960,961,958,963,959,957,960,971,965,961,957,962,959,961,960,958,958,974,963,857,899,862,904,929,1180,1521,1724,1853,1896,1885,1852,1825,1795,1766,1749,1721,1691,1670,1631,1612,1568,1485,1503,1410,1376,1393,1339,1317,1109,1132,1003,916,888,912,910,909,899,889,886,893,896,905,898,897,900,895,895,895,895,895,895,895,895,895,895,895,895,895,895,895,895,895,895,895,945,966,951,964,1058,1386,1606,1759,1880,1896,1870,1837,1810,1797,1765,1719,1718,1661,1631,1630,1572,1526,1512,1498,1445,1438,1392,1379,1293,1145,1130,1008,1006,986,970,960,950,956,964,952,955,962,969,972,973,972,970,971,970,971,967,969,968,981,973,970,968,970,970,969,968,969,966,984,971,418,427,421,423,424,470,637,708,792,844,851,838,825,811,798,798,784,771,769,756,742,717,703,679,665,663,639,618,614,591,577,564,478,467,437,432,433,456,385,385,385,388,395,390,389,392,387,387,387,387,387,387,387,387,387,387,387,387,387,387,387,387,387,387,387,752,754,756,779,797,1150,1295,1528,1635,1686,1666,1643,1612,1582,1556,1525,1557,1524,1448,1436,1382,1388,1311,1298,1286,1254,1181,1200,1118,1118,1050,897,849,797,766,784,776,775,776,766,770,765,775,786,776,775,779,783,801,798,803,802,804,805,800,798,799,809,812,807,801,808,795,805,803,261,262,263,264,265,342,385,429,474,517,530,522,519,504,497,488,480,471,463,455,446,438,430,422,413,416,397,388,390,371,365,355,346,338,330,267,267,267,234,242,241,241,242,242,242,242,238,248,247,239,241,243,248,248,248,243,242,240,245,242,241,242,238,248,239,261,261,261,262,263,339,386,431,525,520,533,575,515,508,547,523,481,474,465,456,447,440,431,422,413,404,397,388,379,370,363,354,345,336,328,264,265,266,259,255,258,256,263,266,257,261,263,258,261,258,262,262,262,269,265,262,258,267,261,290,264,262,260,266,266,96,96,118,118,118,121,136,151,166,181,192,190,187,183,181,178,174,172,169,166,163,160,157,155,151,148,145,143,139,136,134,130,127,125,122,119,119,119,84,86,85,85,86,86,86,86,85,85,85,85,85,87,87,87,87,87,87,87,87,87,87,87,86,86,86,198,200,199,200,201,209,287,339,339,398,413,405,400,407,389,381,375,369,363,340,334,349,344,338,333,319,302,297,291,283,226,221,216,210,205,203,203,203,144,149,145,148,157,150,149,152,147,147,147,147,147,147,147,147,147,147,147,147,147,147,147,147,147,147,147,561,557,552,566,571,727,862,964,1069,1108,1111,1094,1075,1058,1040,1019,1022,984,968,951,932,914,896,879,862,843,827,806,792,730,727,710,613,613,561,571,559,538,522,520,525,533,529,528,529,533,535,531,543,543,535,539,538,542,536,537,537,543,540,546,562,547,542,558,542,671,673,676,678,698,1000,1073,1331,1440,1496,1478,1458,1431,1403,1376,1351,1321,1293,1267,1265,1235,1183,1146,1129,1101,1074,1038,1019,992,955,937,909,856,795,678,682,686,685,699,671,674,677,679,703,688,699,699,695,705,695,702,701,695,702,699,696,700,702,699,703,701,705,703,703,703,986,989,992,1000,1084,1460,1731,1843,1995,1963,1952,1920,1898,1859,1827,1801,1820,1738,1702,1675,1642,1611,1578,1546,1515,1483,1451,1418,1390,1266,1188,1160,1104,1067,1003,1001,1003,997,1005,981,990,1000,992,1011,994,1003,1007,1002,1019,1014,1019,1022,1020,1023,1022,1010,1017,1016,1005,1011,1025,1021,1057,1026,1017,1013,985,1019,1015,1173,1476,1711,1839,1987,1955,2007,1965,1882,1866,1843,1838,1862,1775,1747,1716,1679,1602,1617,1552,1553,1528,1487,1354,1335,1304,1196,1214,1102,1005,1025,1026,1031,1001,1035,1023,1029,1036,1024,1037,1035,1041,1030,1033,1042,1041,1037,1038,1040,1046,1045,1043,1040,1044,1044,1042,1048,1049,1048,1049,1049,791,806,809,787,799,1033,1259,1402,1567,1532,1548,1519,1539,1518,1453,1407,1398,1421,1346,1321,1311,1271,1273,1262,1218,1192,1161,1113,1043,1058,977,936,850,835,786,790,786,801,767,767,767,767,767,767,767,767,767,767,767,767,767,767,767,767,767,767,767,767,767,767,767,767,767,767,767,420,421,422,423,428,479,614,687,758,829,853,840,827,812,797,785,773,759,744,731,717,705,690,676,663,649,635,625,608,595,580,567,488,464,432,427,428,430,322,322,322,322,322,322,322,322,322,322,322,322,322,322,322,322,322,322,322,322,322,322,322,322,322,322,322,0,0,0,0,0,0,0,0,0,0,0,0,0,0,0,0,0,0,0,0,0,0,0,0,0,0,0,0,0,0,0,0,0,0,0,0,0,0,0,0,0,0,0,0,0,0,0,0,0,0,0,0,0,0,0,0,0,0,0,0,0,0,0,0,0,198,198,201,201,209,228,285,317,352,385,409,404,396,390,383,378,369,364,357,351,343,338,330,325,317,311,304,299,292,285,278,272,266,258,213,209,210,210,114,114,114,114,114,114,114,114,114,114,114,114,114,114,114,114,114,114,114,114,114,114,114,114,114,114,114,309,317,311,312,313,344,457,512,620,601,612,619,594,599,589,565,571,562,550,524,514,506,509,499,477,468,459,449,492,438,429,419,409,340,331,314,315,315,266,266,266,266,266,266,266,266,266,266,266,266,266,266,266,266,266,266,266,266,266,266,266,266,266,266,266,576,576,578,580,600,668,846,938,1032,1103,1124,1108,1091,1084,1056,1044,1028,1004,993,971,954,938,920,907,886,863,845,836,817,801,773,642,627,619,611,599,600,593,480,480,480,480,480,480,480,480,480,480,480,480,480,480,480,480,480,480,480,480,480,480,480,480,480,480,480,224,225,225,225,226,239,319,354,390,424,441,434,427,421,414,408,403,394,388,381,376,368,362,355,348,345,335,328,323,316,264,302,249,244,238,227,227,255,134,134,134,134,134,134,134,134,134,134,134,134,134,134,134,134,134,134,134,134,134,134,134,134,134,134,134,583,585,586,587,609,696,886,999,1099,1168,1181,1163,1154,1125,1107,1088,1068,1056,1031,1013,994,975,954,937,918,893,874,870,843,818,805,704,664,628,620,607,608,614,509,509,509,509,509,509,509,509,509,509,509,509,509,509,509,509,509,509,509,509,509,509,509,509,509,509,509,30,30,30,30,30,30,35,38,42,46,50,49,48,48,47,46,46,45,44,44,42,41,40,40,39,38,38,37,36,35,35,34,33,33,31,30,30,30,0,0,0,0,0,0,0,0,0,0,0,0,0,0,0,0,0,0,0,0,0,0,0,0,0,0,0,294,306,286,287,287,326,435,480,506,550,595,591,581,569,579,561,540,503,540,487,479,493,489,491,460,446,450,452,442,418,422,412,402,335,320,288,289,298,252,252,252,252,252,252,252,252,252,252,252,252,252,252,252,252,252,252,252,252,252,252,252,252,252,252,252,1293,1296,1304,1361,1482,1861,2205,2404,2493,2546,2534,2487,2450,2413,2372,2341,2289,2244,2202,2175,2122,2085,2044,2013,1973,1917,1810,1543,1490,1460,1445,1397,1345,1346,1326,1325,1329,1333,1242,1242,1242,1242,1242,1242,1242,1242,1242,1242,1242,1242,1242,1242,1242,1242,1242,1242,1242,1242,1242,1242,1242,1242,1242,1242,1242,107,107,107,132,132,134,152,170,187,204,217,214,211,207,204,200,196,193,190,187,183,180,177,172,169,166,162,159,156,152,149,145,141,138,135,132,133,133,66,66,66,66,66,66,66,66,66,66,66,66,66,66,66,66,66,66,66,66,66,66,66,66,66,66,66,850,867,872,874,895,992,1434,1545,1679,1713,1705,1691,1655,1640,1584,1570,1552,1528,1504,1462,1434,1397,1367,1365,1326,1299,1271,1242,1228,1105,962,945,914,893,888,873,880,873,825,825,825,825,825,825,825,825,825,825,825,825,825,825,825,825,825,825,825,825,825,825,825,825,825,825,825,468,468,472,454,475,611,698,793,861,932,949,933,917,898,887,872,858,842,826,811,796,782,766,753,735,723,706,690,675,660,644,624,591,490,478,475,448,477,436,436,436,436,436,436,436,436,436,436,436,436,436,436,436,436,436,436,436,436,436,436,436,436,436,436,436,522,524,526,527,541,616,801,884,973,1034,1040,1024,1007,990,975,959,941,927,910,894,876,861,845,829,812,799,781,764,748,734,670,655,626,545,533,531,531,530,435,435,435,435,435,435,435,435,435,435,435,435,435,435,435,435,435,435,435,435,435,435,435,435,435,435,435,274,275,276,276,279,311,395,442,487,534,562,554,545,535,524,515,508,501,491,482,473,464,454,446,435,426,419,410,402,391,383,375,366,291,284,280,281,280,171,171,171,171,171,171,171,171,171,171,171,171,171,171,171,171,171,171,171,171,171,171,171,171,171,171,171,765,764,769,770,791,847,1143,1293,1442,1501,1515,1486,1461,1438,1420,1392,1373,1345,1332,1294,1279,1265,1230,1223,1194,1165,1141,1112,1052,1002,1039,878,810,802,779,785,769,752,646,646,646,646,646,646,646,646,646,646,646,646,646,646,646,646,646,646,646,646,646,646,646,646,646,646,646,1003,1003,1008,1006,1059,1367,1591,1797,1894,1957,1969,1929,1896,1875,1839,1814,1786,1754,1721,1689,1667,1637,1603,1578,1545,1510,1483,1445,1404,1267,1105,1092,1057,1037,1016,1019,1019,996,890,890,890,890,890,890,890,890,890,890,890,890,890,890,890,890,890,890,890,890,890,890,890,890,890,890,890,709,709,713,707,709,831,1097,1243,1322,1389,1388,1381,1312,1334,1316,1276,1275,1248,1228,1177,1172,1129,1109,1118,1085,1033,1035,1019,981,983,875,811,738,712,723,713,719,700,669,669,669,669,669,669,669,669,669,669,669,669,669,669,669,669,669,669,669,669,669,669,669,669,669,669,669,1142,1132,1152,1197,1314,1742,2012,2228,2365,2425,2422,2389,2349,2308,2263,2228,2183,2128,2109,2049,1989,1998,1951,1845,1819,1810,1741,1693,1471,1420,1276,1254,1213,1176,1175,1177,1191,1196,1098,1098,1098,1098,1098,1098,1098,1098,1098,1098,1098,1098,1098,1098,1098,1098,1098,1098,1098,1098,1098,1098,1098,1098,1098,1098,1098,724,725,728,721,725,854,1128,1279,1357,1424,1422,1414,1344,1366,1346,1306,1304,1275,1256,1204,1199,1155,1135,1143,1108,1055,1057,1040,1002,1003,981,781,753,727,738,729,727,709,679,679,679,679,679,679,679,679,679,679,679,679,679,679,679,679,679,679,679,679,679,679,679,679,679,679,679,733,731,736,732,756,952,1117,1260,1358,1430,1450,1420,1399,1382,1354,1338,1319,1296,1271,1248,1228,1208,1184,1164,1144,1116,1097,1069,1048,1016,994,848,783,765,741,744,749,731,625,625,625,625,625,625,625,625,625,625,625,625,625,625,625,625,625,625,625,625,625,625,625,625,625,625,625,1023,1025,1048,1064,1213,1524,1808,2054,2155,2192,2192,2158,2121,2075,2045,2020,1986,1940,1882,1860,1810,1771,1721,1685,1658,1624,1579,1535,1494,1435,1215,1150,1096,1069,1056,1069,1062,1067,966,966,966,966,966,966,966,966,966,966,966,966,966,966,966,966,966,966,966,966,966,966,966,966,966,966,966,531,533,534,536,555,621,799,891,984,1056,1077,1060,1043,1026,1009,993,974,957,941,924,907,890,872,856,839,816,798,788,770,748,735,636,653,575,567,555,556,548,441,441,441,441,441,441,441,441,441,441,441,441,441,441,441,441,441,441,441,441,441,441,441,441,441,441,441,285,286,287,289,288,337,417,464,509,555,569,561,554,555,536,535,517,517,509,494,481,473,468,456,456,437,437,423,411,402,393,361,329,322,293,299,289,290,200,200,200,200,200,200,200,200,200,200,200,200,200,200,200,200,200,200,200,200,200,200,200,200,200,200,200,410,411,413,413,418,462,600,668,732,796,829,811,799,787,773,765,752,739,727,713,697,689,677,661,644,636,625,611,595,582,568,533,474,441,429,416,419,426,316,316,316,316,316,316,316,316,316,316,316,316,316,316,316,316,316,316,316,316,316,316,316,316,316,316,316,511,512,509,515,529,586,775,842,937,1016,1043,1016,998,991,965,947,944,913,897,883,864,847,828,814,795,785,766,747,733,718,698,592,576,536,527,525,519,490,384,384,384,384,384,384,384,384,384,384,384,384,384,384,384,384,384,384,384,384,384,384,384,384,384,384,384,361,362,364,365,366,477,542,606,668,725,737,724,712,701,689,677,666,654,642,630,619,607,595,583,572,559,547,535,523,512,500,488,477,380,371,367,368,369,310,310,310,310,310,310,310,310,310,310,310,310,310,310,310,310,310,310,310,310,310,310,310,310,310,310,310,942,945,946,947,1055,1302,1618,1859,1965,2004,2008,1975,1943,1898,1871,1836,1808,1757,1719,1695,1647,1617,1569,1536,1506,1465,1428,1399,1360,1322,1195,1039,994,988,972,972,978,978,871,871,871,871,871,871,871,871,871,871,871,871,871,871,871,871,871,871,871,871,871,871,871,871,871,871,871,797,800,802,805,812,1146,1307,1466,1547,1598,1592,1567,1546,1520,1491,1465,1449,1418,1389,1368,1345,1312,1289,1261,1240,1211,1184,1159,1134,1112,1085,1039,844,829,819,810,812,814,769,769,769,769,769,769,769,769,769,769,769,769,769,769,769,769,769,769,769,769,769,769,769,769,769,769,769,791,806,809,787,799,1033,1259,1402,1567,1532,1548,1519,1539,1518,1453,1407,1398,1421,1346,1321,1311,1271,1273,1262,1218,1192,1161,1113,1043,1058,977,936,850,835,786,790,786,801,767,767,767,767,767,767,767,767,767,767,767,767,767,767,767,767,767,767,767,767,767,767,767,767,767,767,767,939,942,947,952,984,1260,1510,1660,1780,1858,1833,1822,1794,1770,1721,1690,1695,1659,1620,1614,1569,1539,1498,1471,1471,1408,1377,1295,1215,1249,1071,999,1002,961,951,946,954,958,923,924,926,928,933,932,937,945,936,941,937,937,935,938,936,947,946,939,941,934,933,938,938,940,933,944,934,354,355,357,358,359,467,530,591,652,710,721,709,698,696,675,664,652,641,629,618,606,604,583,572,559,548,536,525,513,502,499,479,468,456,364,360,360,361,343,347,339,343,354,350,363,365,345,355,353,362,355,345,348,354,352,348,355,349,346,350,347,356,354,354,354,170,170,171,210,210,215,277,271,299,326,341,336,331,325,320,314,310,304,298,293,287,283,278,272,267,261,257,251,246,240,235,231,225,220,214,211,211,212,160,162,159,169,159,163,160,163,162,165,162,161,163,162,165,162,162,163,166,163,165,161,163,166,163,166,166,0,0,0,0,0,0,0,0,0,0,0,0,0,0,0,0,0,0,0,0,0,0,0,0,0,0,0,0,0,0,0,0,0,0,0,0,0,0,0,0,0,0,0,0,0,0,0,0,0,0,0,0,0,0,0,0,0,0,0,0,0,0,0,0,0,463,470,463,473,474,525,688,770,846,927,931,915,913,903,879,865,853,842,827,817,783,775,770,747,730,718,701,686,664,647,643,598,530,504,480,476,468,462,424,423,427,424,429,428,433,441,432,442,433,433,431,434,432,439,438,435,437,430,429,434,434,438,429,441,430,527,539,530,531,532,626,782,866,954,1014,1025,1014,988,984,965,942,927,911,896,881,875,852,837,819,804,788,773,757,752,738,704,618,594,545,538,534,536,518,498,501,498,509,504,505,509,504,504,510,508,509,510,507,510,510,512,511,516,509,517,515,528,511,506,506,506,243,243,244,245,246,315,356,398,438,478,493,486,478,470,463,454,446,438,431,423,415,408,400,392,385,377,369,361,362,345,337,330,322,314,251,247,247,248,228,221,221,226,221,225,220,223,220,219,221,221,219,221,221,222,223,225,222,222,223,225,221,227,219,223,221,534,549,538,540,549,675,822,916,1021,1072,1090,1059,1051,1046,1015,991,973,955,939,921,915,889,881,853,837,819,801,795,779,762,734,660,643,559,546,542,544,541,519,516,522,526,526,524,523,523,521,550,525,523,527,529,539,536,543,533,535,536,534,532,547,542,528,528,528,184,183,185,227,227,236,266,296,327,358,377,369,365,358,353,346,341,334,328,323,316,311,304,298,292,289,280,275,268,261,256,250,245,238,233,228,228,229,158,157,158,158,157,157,159,159,158,160,160,159,159,160,160,160,160,161,161,160,160,160,160,160,158,159,157,216,216,217,267,268,279,315,346,388,424,440,433,426,376,412,405,391,391,385,377,370,364,356,344,339,335,323,322,315,308,300,200,269,280,273,268,269,217,201,209,207,210,210,211,207,212,204,217,207,205,209,211,267,275,217,212,211,207,216,214,212,214,207,214,207,1245,1249,1255,1297,1456,1879,2187,2335,2413,2448,2413,2393,2353,2323,2275,2231,2193,2154,2117,2124,2039,1998,1959,1923,1932,1846,1772,1638,1538,1414,1420,1351,1335,1275,1264,1263,1266,1270,1265,1262,1268,1272,1310,1298,1277,1280,1276,1296,1275,1275,1272,1277,1298,1304,1284,1302,1284,1275,1278,1286,1284,1318,1342,1342,1342,266,267,268,269,269,311,383,428,472,516,542,532,524,515,508,499,490,481,473,464,455,450,441,433,424,415,403,398,389,379,371,363,353,345,310,290,290,301,224,227,225,227,228,226,228,228,227,229,229,229,226,229,227,229,229,228,230,227,227,229,227,229,225,228,224,1020,1021,1025,1043,1118,1386,1669,1840,1955,2019,1999,1976,1951,1928,1886,1854,1823,1789,1764,1727,1694,1663,1642,1614,1573,1529,1504,1479,1387,1287,1125,1094,1077,1055,1043,1034,1036,1022,984,983,987,984,989,988,993,1001,992,1002,993,993,991,994,992,1003,1002,995,997,990,989,994,994,998,989,1004,990,627,631,630,633,648,721,945,1051,1167,1252,1264,1238,1226,1203,1188,1167,1141,1122,1101,1085,1061,1051,1027,1007,986,970,942,924,903,760,762,724,680,664,651,637,638,648,592,588,588,593,599,595,596,601,604,598,605,601,601,605,600,606,607,602,599,603,601,605,603,605,601,604,600,542,544,545,547,558,662,816,911,1006,1086,1092,1092,1057,1039,1023,1005,986,970,952,936,918,899,883,881,848,831,814,796,793,761,688,672,642,568,554,550,551,550,526,529,530,542,531,534,534,538,530,533,533,532,532,531,540,537,535,538,537,534,537,536,534,543,540,542,540,121,121,121,149,149,154,173,193,213,234,247,243,239,235,232,227,224,220,216,212,207,204,200,196,192,189,184,180,177,172,169,165,161,157,154,150,150,150,90,89,89,90,89,89,90,92,89,91,91,90,90,90,90,89,90,90,91,91,90,89,91,91,90,90,90,567,566,587,569,582,646,850,952,1049,1130,1118,1127,1111,1081,1061,1054,1014,1042,993,972,986,966,946,908,913,898,874,834,805,818,781,730,673,608,608,593,594,563,561,561,564,576,575,579,578,574,574,575,590,573,584,587,599,578,565,564,577,573,568,569,571,570,571,571,570,827,830,833,836,856,1122,1269,1417,1551,1651,1645,1619,1592,1573,1542,1514,1489,1463,1438,1411,1384,1358,1333,1307,1280,1255,1229,1202,1178,1150,1082,967,878,857,843,840,842,845,827,827,815,815,840,839,838,844,840,844,838,839,835,837,835,843,841,839,843,838,836,838,835,847,833,841,838,840,872,853,869,877,1119,1328,1501,1607,1682,1685,1633,1630,1631,1590,1567,1532,1506,1485,1439,1421,1400,1363,1338,1305,1284,1245,1225,1179,1105,1145,909,896,897,881,877,853,868,826,832,831,834,843,839,838,845,838,845,844,845,845,842,846,852,848,839,842,843,842,835,844,837,841,843,839,1035,1039,1043,1071,1111,1480,1672,1851,1977,2063,2051,2013,1988,1960,1923,1890,1859,1826,1796,1762,1720,1697,1656,1633,1589,1566,1537,1494,1450,1243,1227,1133,1088,1080,1072,1052,1036,1052,1031,1035,1043,1051,1072,1033,1067,1058,1066,1054,1073,1062,1066,1075,1076,1081,1080,1037,1051,1059,1061,1060,1043,1082,1060,1058,1055,855,886,872,885,896,1145,1359,1537,1642,1715,1718,1665,1661,1661,1620,1596,1561,1534,1513,1466,1446,1425,1387,1362,1328,1306,1284,1246,1199,1197,1083,925,911,912,895,892,861,878,838,841,844,845,851,850,849,856,849,855,855,855,853,854,854,862,858,850,853,852,851,845,855,848,851,855,851,612,614,616,618,627,791,945,1027,1127,1193,1190,1173,1156,1139,1126,1103,1095,1067,1049,1030,1013,995,976,959,940,924,904,886,874,854,783,768,722,662,625,621,625,616,585,591,587,598,599,606,597,602,593,602,599,593,594,603,596,602,603,603,604,601,602,602,606,610,596,596,596,975,978,1000,1019,1163,1501,1796,1979,2075,2102,2091,2088,2023,1996,1948,1923,1931,1821,1851,1774,1769,1684,1648,1601,1575,1537,1501,1479,1442,1387,1156,1060,1027,1017,1013,994,999,1004,989,992,986,990,994,1011,988,995,1004,1025,1010,1004,1010,1008,1012,1032,1012,1005,1013,1016,1012,1008,1007,1029,1008,1008,1008,483,493,486,487,494,639,735,818,906,966,977,957,941,937,918,895,880,864,849,833,828,805,789,772,756,741,726,710,705,691,666,614,629,568,494,490,492,475,451,450,453,457,456,457,455,457,456,479,458,457,458,462,465,482,483,463,476,463,464,462,482,481,460,460,460,286,287,291,292,289,321,423,473,523,561,552,544,556,547,555,535,517,508,506,501,469,480,467,464,454,444,434,431,420,407,398,390,370,325,316,284,291,312,283,257,255,256,275,268,271,260,259,267,282,272,279,282,298,283,267,269,277,283,284,285,266,267,280,284,280,346,347,348,349,350,448,511,572,626,684,696,680,671,670,651,641,631,620,611,600,589,578,567,555,551,533,531,511,500,489,478,467,465,437,355,351,351,405,330,330,329,331,330,333,333,334,333,332,336,330,331,330,330,330,335,333,331,332,333,335,331,339,331,331,331,448,445,451,451,461,496,619,652,692,731,753,743,738,728,721,711,706,699,688,679,672,668,674,665,657,632,639,627,620,612,508,500,482,484,460,448,462,440,381,389,382,392,395,401,392,399,388,397,397,389,390,401,394,400,401,400,400,397,409,404,401,403,388,388,388,502,509,522,512,523,582,753,849,934,1007,1032,1016,1000,984,968,950,918,918,901,885,868,852,835,818,802,787,770,756,737,720,634,619,605,574,533,529,530,510,468,468,468,474,478,472,475,475,473,471,474,476,475,477,476,483,478,481,482,479,478,471,475,476,486,479,471,887,896,899,914,1010,1320,1566,1784,1885,1914,1906,1906,1842,1818,1769,1735,1701,1656,1633,1599,1564,1530,1494,1453,1428,1394,1360,1326,1292,1263,1165,972,945,914,911,910,915,919,894,896,898,894,911,923,930,915,903,949,904,900,900,899,912,921,910,906,908,901,901,908,905,939,963,963,963,939,947,949,956,1009,1286,1529,1719,1812,1872,1882,1853,1823,1792,1762,1731,1683,1670,1639,1610,1578,1548,1517,1487,1455,1439,1408,1380,1347,1199,1055,1106,1007,997,975,973,974,969,924,928,933,941,941,938,940,940,945,938,942,947,956,962,960,971,958,947,962,952,943,936,951,950,970,948,940,939,942,947,952,984,1260,1510,1660,1780,1858,1833,1822,1794,1770,1721,1690,1695,1659,1620,1614,1569,1539,1498,1471,1471,1408,1377,1295,1215,1249,1071,999,1002,961,951,946,954,958,923,924,926,928,933,932,937,945,936,941,937,937,935,938,936,947,946,939,941,934,933,938,938,940,933,944,934,507,509,511,513,486,697,735,822,908,1021,1027,1010,1004,977,970,888,873,858,904,880,810,854,830,764,797,741,754,702,731,715,698,682,672,574,519,484,517,486,504,505,506,517,511,516,506,522,511,513,511,506,512,519,515,517,518,518,518,515,525,522,517,531,522,533,527,650,653,655,642,663,907,1032,1173,1276,1320,1319,1285,1277,1256,1223,1209,1193,1160,1139,1130,1107,1086,1056,1044,1014,993,972,933,939,918,840,710,693,661,696,646,648,653,608,604,608,614,619,616,618,618,614,623,621,623,616,619,623,625,618,620,626,624,624,625,622,624,613,617,615,331,332,333,334,335,417,511,567,653,713,668,657,646,691,696,668,657,595,648,574,563,552,588,531,521,510,500,489,479,468,457,447,425,421,412,336,337,338,302,299,302,304,309,307,308,305,302,311,309,310,303,306,310,313,306,308,313,310,309,310,309,310,302,306,304,454,458,463,460,466,630,714,794,889,949,923,909,893,897,882,867,843,821,822,791,760,761,761,731,717,702,688,668,658,644,587,576,554,468,502,463,464,445,400,398,402,405,410,409,408,408,401,412,408,410,404,408,414,418,407,409,414,413,415,413,411,416,401,406,404,0,0,0,0,0,0,0,0,0,0,0,0,0,0,0,0,0,0,0,0,0,0,0,0,0,0,0,0,0,0,0,0,0,0,0,0,0,0,0,0,0,0,0,0,0,0,0,0,0,0,0,0,0,0,0,0,0,0,0,0,0,0,0,0,0,716,724,718,755,768,1011,1118,1269,1362,1445,1435,1431,1348,1360,1369,1284,1324,1241,1230,1199,1178,1178,1135,1107,1136,1123,1052,1038,1006,971,917,810,756,788,725,779,771,710,722,714,730,724,735,740,728,735,741,746,751,747,750,752,749,746,735,736,735,755,741,750,746,750,755,749,732,311,313,314,315,315,413,467,534,587,633,631,621,611,601,591,581,572,562,552,542,531,521,511,501,491,481,471,443,452,442,414,422,411,398,391,352,354,355,319,299,304,305,300,312,306,315,313,306,315,305,306,306,306,310,307,308,307,310,306,305,306,308,307,313,308,723,751,726,764,776,1045,1168,1342,1428,1510,1509,1494,1410,1420,1416,1331,1368,1284,1271,1238,1227,1214,1180,1140,1180,1151,1080,1054,974,1013,912,860,765,780,733,787,785,732,751,753,758,766,763,756,766,765,767,766,769,768,767,770,774,776,774,766,763,770,768,767,762,764,772,764,747,347,348,349,350,351,445,540,599,688,753,706,695,694,727,730,702,690,627,679,605,592,581,617,570,547,548,525,514,502,491,491,469,374,450,402,351,353,354,302,299,302,304,309,307,308,305,302,311,309,310,303,306,310,313,306,308,313,310,309,310,309,310,302,306,304,508,499,485,510,492,657,744,831,910,961,972,951,936,974,960,891,875,909,844,829,814,798,782,766,756,741,721,709,690,675,698,669,635,502,493,488,493,496,467,466,468,480,472,472,469,477,469,474,472,473,468,471,476,478,471,473,481,471,475,473,476,477,465,472,470,1431,1434,1444,1542,1787,2334,2587,2731,2794,2847,2824,2786,2683,2676,2656,2552,2566,2462,2421,2372,2330,2306,2244,2078,2035,1897,1918,1864,1750,1579,1544,1535,1495,1498,1452,1506,1485,1469,1482,1487,1494,1497,1529,1517,1508,1519,1514,1512,1514,1509,1507,1519,1530,1522,1533,1520,1521,1530,1515,1520,1525,1539,1546,1533,1528,233,234,234,234,235,302,342,381,421,460,476,468,460,453,445,437,430,422,415,408,400,392,385,377,369,361,350,343,335,328,321,313,305,298,237,236,237,237,211,212,213,215,218,216,215,216,212,218,214,217,209,212,215,220,213,213,216,211,213,215,214,215,207,213,211,574,576,604,606,613,648,868,998,1065,1145,1149,1130,1112,1109,1090,1072,1038,1020,1002,1026,965,947,928,950,892,871,855,837,854,811,667,624,653,593,582,610,612,613,560,558,573,591,565,565,566,568,568,567,566,569,569,572,571,573,574,575,575,577,576,582,580,632,630,606,601,387,388,390,391,393,415,587,656,726,779,843,829,816,802,789,775,699,748,734,721,708,694,625,667,600,640,626,614,599,586,572,420,472,459,447,394,395,396,394,383,388,395,389,401,395,408,400,398,406,399,407,403,404,418,402,398,398,407,417,409,403,407,400,408,404,650,614,654,654,661,887,1012,1132,1234,1268,1295,1276,1197,1236,1216,1145,1176,1115,1095,1075,1046,1080,1057,995,1023,1000,967,948,899,875,744,731,687,676,632,656,663,624,607,614,617,620,620,617,617,622,613,626,624,628,618,620,621,648,627,620,625,628,624,617,626,635,626,625,622,524,533,534,514,522,688,818,930,1048,1095,1072,1054,1037,1041,1024,973,979,956,954,919,884,886,880,851,835,817,794,753,766,749,686,598,569,549,548,539,535,502,457,455,459,460,466,464,464,462,458,467,465,467,460,463,467,469,462,464,470,468,468,469,466,468,457,461,459,1006,1008,1008,1013,1039,1427,1658,1879,1978,2004,1995,1959,1927,1893,1842,1825,1800,1761,1738,1706,1683,1642,1603,1579,1540,1507,1484,1377,1317,1276,1128,1079,1053,1017,1059,1010,989,977,937,929,935,946,946,944,951,943,939,948,946,948,941,944,948,950,943,945,951,949,948,950,947,949,938,942,940,1233,1238,1244,1260,1325,1845,2094,2313,2389,2401,2381,2351,2339,2287,2240,2182,2165,2136,2097,2051,1996,1970,1945,1920,1878,1838,1811,1759,1505,1410,1383,1349,1291,1256,1272,1243,1223,1221,1181,1174,1192,1194,1192,1197,1198,1192,1192,1201,1199,1200,1193,1196,1200,1201,1193,1198,1203,1198,1199,1200,1197,1198,1187,1191,1189,414,415,416,395,396,551,620,691,759,811,822,809,762,748,735,759,711,733,720,728,699,686,638,657,644,632,588,576,595,581,568,556,444,434,423,419,420,422,414,408,410,411,410,415,413,413,412,413,414,408,410,411,410,412,416,413,413,411,412,415,410,415,412,416,414,1288,1269,1314,1329,1588,2166,2464,2669,2709,2756,2729,2647,2569,2611,2569,2487,2445,2355,2346,2256,2224,2214,2126,2057,2054,2021,1955,1826,1620,1592,1409,1377,1353,1354,1318,1338,1331,1302,1331,1338,1334,1329,1350,1354,1362,1359,1351,1354,1355,1350,1361,1363,1362,1368,1362,1360,1356,1362,1358,1355,1359,1367,1351,1350,1346,429,430,432,409,412,554,647,723,794,847,857,842,795,780,767,790,741,762,749,757,726,713,663,682,669,655,611,598,617,602,588,575,562,549,439,434,435,430,422,418,422,422,419,426,425,424,423,424,425,418,422,425,421,424,427,424,423,422,423,426,421,425,423,427,426,962,966,971,972,1017,1353,1555,1777,1862,1884,1872,1852,1846,1805,1767,1716,1707,1686,1655,1618,1569,1554,1531,1519,1486,1454,1432,1392,1351,1263,1102,1121,1018,982,998,968,953,956,911,908,914,923,925,923,928,922,918,927,925,927,920,923,927,929,922,924,930,928,927,929,926,928,917,921,919,1161,1151,1189,1210,1484,1857,2167,2380,2451,2503,2482,2446,2294,2349,2313,2228,2229,2199,2117,2030,2016,2010,1905,1918,1893,1852,1764,1717,1629,1502,1269,1276,1218,1207,1196,1221,1218,1181,1201,1190,1187,1215,1215,1216,1219,1226,1223,1241,1226,1233,1230,1233,1246,1234,1248,1233,1248,1236,1232,1228,1241,1260,1219,1223,1220,672,678,674,710,722,964,1071,1222,1315,1398,1388,1384,1301,1313,1322,1237,1277,1194,1183,1151,1130,1130,1087,1060,1089,1075,1005,981,959,943,880,828,711,748,681,734,732,666,683,688,689,699,693,704,698,699,702,707,707,702,698,700,700,707,705,696,694,703,698,697,691,696,706,697,680,454,456,458,444,448,574,718,798,876,924,917,916,901,874,872,857,843,819,813,798,782,767,745,737,716,700,686,653,660,649,590,600,577,461,537,447,448,464,455,440,445,447,442,455,449,465,462,448,457,447,447,450,449,465,450,449,449,453,448,448,449,451,451,457,452,642,644,644,633,653,856,1013,1151,1251,1294,1294,1261,1251,1231,1204,1180,1173,1142,1123,1112,1090,1071,1037,1031,999,982,959,920,923,876,825,772,752,666,722,635,637,646,602,600,603,605,612,613,613,609,605,614,612,614,607,610,614,616,609,611,617,615,615,616,613,615,604,608,606,739,742,748,737,783,965,1191,1355,1451,1494,1486,1454,1463,1405,1385,1361,1347,1313,1300,1270,1244,1220,1200,1177,1153,1121,1114,1068,1058,970,846,883,783,749,786,740,727,715,675,668,674,685,685,683,690,682,678,687,685,687,680,683,686,688,682,684,690,688,687,689,686,688,677,681,679,392,394,395,396,398,526,595,664,733,789,798,786,773,760,748,782,722,709,696,727,671,657,645,632,619,607,594,581,568,555,578,530,423,537,402,398,399,391,376,377,375,382,387,385,385,388,381,386,386,392,383,383,388,411,391,386,387,389,387,384,389,406,386,390,387,1080,1070,1088,1125,1347,1677,1970,2186,2263,2317,2301,2238,2117,2175,2143,2060,2061,1996,1956,1872,1856,1841,1755,1735,1749,1716,1625,1559,1521,1418,1180,1165,1116,1125,1088,1131,1134,1088,1107,1112,1110,1119,1136,1125,1137,1135,1130,1140,1134,1132,1126,1137,1140,1145,1146,1144,1146,1139,1138,1142,1146,1154,1147,1143,1140,740,690,746,756,782,1069,1137,1349,1445,1453,1459,1359,1442,1390,1304,1366,1212,1226,1215,1200,1170,1211,1116,1177,1134,1118,1108,1005,983,969,954,971,738,767,756,699,701,760,728,720,733,738,728,744,733,747,744,746,739,739,742,744,741,754,746,747,735,747,740,736,733,746,742,763,733,507,509,511,513,486,697,735,822,908,1021,1027,1010,1004,977,970,888,873,858,904,880,810,854,830,764,797,741,754,702,731,715,698,682,672,574,519,484,517,486,504,505,506,517,511,516,506,522,511,513,511,506,512,519,515,517,518,518,518,515,525,522,517,531,522,533,527,999,1001,1009,1028,1223,1398,1643,1820,1926,1960,1956,1928,1898,1868,1832,1819,1774,1743,1714,1683,1670,1624,1588,1560,1531,1501,1477,1434,1313,1259,1245,1069,1073,1025,1018,1025,1048,1018,987,990,999,995,1003,998,998,1025,999,995,1001,994,995,992,997,1004,1005,1007,1002,1002,1003,1010,1024,1023,1043,1036,1027,333,334,335,336,337,373,474,537,577,615,630,622,614,607,599,592,584,577,569,563,555,547,556,545,517,518,507,478,470,461,453,444,412,414,406,338,339,358,264,268,267,273,277,272,270,273,267,275,269,269,269,277,279,283,277,272,274,269,273,275,272,275,265,272,266,506,514,510,517,525,580,779,865,948,1009,1020,995,989,973,959,940,927,912,899,882,865,850,833,818,794,778,762,746,731,716,700,612,598,534,523,520,521,512,470,468,471,478,473,485,477,493,483,477,492,477,476,477,476,481,478,478,479,483,479,477,477,481,476,484,479,530,531,532,536,548,631,770,896,995,1046,1041,1028,1013,1004,991,985,968,952,935,909,901,888,868,850,822,810,793,768,683,668,654,638,628,578,541,539,540,533,475,476,478,486,481,490,485,491,491,486,490,484,485,489,490,493,488,484,487,490,484,485,484,488,480,493,481,647,648,651,653,687,879,1017,1132,1235,1285,1290,1272,1252,1231,1211,1191,1172,1151,1131,1111,1091,1071,1050,1051,1001,991,960,940,920,900,880,726,710,685,659,657,658,655,640,621,626,632,631,631,640,648,638,639,648,649,632,634,634,640,633,631,640,640,640,630,632,638,627,638,632,0,0,0,0,0,0,0,0,0,0,0,0,0,0,0,0,0,0,0,0,0,0,0,0,0,0,0,0,0,0,0,0,0,0,0,0,0,0,0,0,0,0,0,0,0,0,0,0,0,0,0,0,0,0,0,0,0,0,0,0,0,0,0,0,0,468,470,471,473,473,534,709,786,862,925,937,924,908,894,880,866,852,836,824,808,794,780,764,750,727,712,698,684,669,655,641,554,523,510,478,475,476,478,441,433,440,477,443,449,437,473,471,453,487,445,458,448,448,451,484,447,442,452,442,445,442,441,448,454,439,78,78,78,78,78,79,83,89,94,100,104,103,102,101,100,99,97,96,95,94,93,92,91,90,89,88,86,86,85,84,83,82,81,80,79,78,78,78,42,42,43,44,42,42,42,42,43,42,42,42,42,42,42,43,42,42,42,43,42,43,42,42,42,42,43,522,529,525,533,533,604,810,900,987,1047,1057,1031,1025,1009,993,973,960,944,930,911,895,878,862,845,820,804,787,771,754,739,722,633,618,550,540,535,537,512,470,468,471,478,473,485,477,493,483,477,492,477,476,477,476,481,478,478,479,483,479,477,477,481,476,484,479,663,669,684,673,698,787,1004,1166,1239,1286,1294,1278,1260,1253,1227,1223,1196,1167,1165,1154,1102,1127,1066,1078,1039,1011,978,963,962,895,839,768,698,704,693,690,678,675,629,634,626,633,644,641,649,648,634,642,643,650,644,639,644,647,649,640,645,640,636,642,635,647,638,655,630,848,851,853,855,900,1179,1321,1466,1577,1641,1633,1608,1584,1573,1593,1509,1485,1473,1445,1423,1397,1372,1348,1324,1300,1274,1248,1225,1190,1167,944,924,903,896,884,880,862,884,850,842,847,851,852,857,854,885,867,849,874,854,860,855,855,864,858,859,854,860,855,864,857,915,858,901,857,551,552,554,556,557,637,850,942,1033,1093,1103,1087,1069,1056,1035,1018,1001,984,969,951,933,916,899,881,854,838,820,804,786,770,752,664,610,574,562,559,561,546,505,503,504,511,523,526,516,527,532,519,527,526,521,514,514,528,518,513,527,526,517,520,516,537,521,526,518,1202,1203,1212,1229,1335,1827,2082,2244,2326,2354,2343,2310,2270,2236,2197,2163,2125,2086,2069,2031,1978,1941,1901,1883,1813,1793,1742,1602,1569,1335,1327,1302,1255,1234,1216,1223,1226,1215,1196,1181,1186,1192,1191,1198,1200,1208,1196,1199,1202,1197,1192,1194,1194,1200,1193,1191,1200,1200,1200,1190,1192,1198,1187,1198,1192,912,915,916,921,936,1072,1486,1668,1769,1809,1807,1779,1753,1700,1697,1670,1588,1617,1590,1560,1526,1498,1420,1390,1401,1372,1346,1318,1249,1093,1070,973,960,933,931,925,928,914,866,866,870,882,892,894,889,904,900,895,899,901,897,887,891,906,892,882,903,900,893,896,892,913,897,902,894,423,409,425,427,430,509,619,695,762,819,817,805,810,773,784,757,745,747,713,708,709,676,685,673,659,647,634,621,597,596,584,564,479,441,432,429,430,432,402,405,407,411,412,411,410,414,407,415,409,409,411,413,411,414,412,415,413,413,414,412,412,415,410,410,410,473,473,474,473,481,547,659,768,875,930,898,886,874,862,850,874,834,843,832,814,794,785,749,756,732,698,706,682,577,565,554,540,586,516,483,480,481,478,416,416,419,426,423,432,426,434,434,427,439,425,426,430,431,435,429,425,428,431,426,426,425,430,422,435,423,594,593,588,597,599,686,886,983,1056,1137,1179,1146,1146,1114,1113,1092,1073,1031,1022,997,1000,970,963,940,903,893,882,859,834,780,692,693,656,594,607,602,603,592,490,492,491,496,500,493,495,495,493,497,496,498,516,519,520,503,496,493,497,496,495,496,495,496,490,496,491,746,747,751,748,793,954,1147,1252,1365,1427,1437,1416,1389,1373,1351,1329,1307,1286,1264,1243,1222,1201,1179,1158,1133,1111,1088,1087,1064,1038,948,814,806,776,759,752,757,745,662,667,663,677,674,667,676,675,669,681,678,677,678,675,676,676,671,669,675,673,667,675,673,674,670,669,668,952,954,969,973,1043,1252,1550,1719,1820,1864,1861,1839,1804,1789,1750,1718,1692,1660,1634,1603,1573,1548,1516,1499,1471,1432,1402,1383,1296,1185,1163,1020,1021,991,966,965,1001,969,942,936,958,947,939,952,955,954,954,950,957,949,950,953,954,956,958,965,957,959,953,961,961,960,959,959,959,706,744,709,731,780,986,1205,1447,1588,1646,1651,1580,1556,1574,1538,1465,1479,1386,1398,1378,1302,1284,1302,1224,1224,1163,1178,1147,1062,1034,1011,930,811,757,739,738,780,747,712,714,717,725,720,723,735,728,723,725,729,729,736,730,736,736,721,723,728,723,724,726,725,721,716,714,713,967,970,983,990,1041,1279,1583,1755,1854,1897,1893,1870,1835,1819,1780,1748,1720,1687,1662,1629,1600,1573,1541,1522,1494,1454,1423,1404,1222,1112,1180,1035,1036,1005,981,981,1009,979,942,940,945,958,956,953,962,959,950,953,961,950,955,957,965,967,976,965,968,969,964,966,972,971,971,971,971,476,477,478,475,496,551,698,746,818,883,902,889,877,863,849,836,824,810,797,785,773,760,747,735,718,705,691,699,684,668,655,564,542,503,486,477,483,475,397,397,397,399,403,400,398,401,399,404,400,403,400,397,398,400,399,398,401,400,397,401,399,403,400,399,398,600,602,622,628,658,839,973,1110,1244,1337,1338,1314,1290,1267,1243,1218,1209,1185,1219,1135,1112,1112,1111,1041,1017,994,974,946,913,905,859,850,741,648,620,609,648,618,593,597,592,598,599,603,621,629,598,603,606,625,606,599,601,640,606,603,604,602,600,604,600,605,605,615,598,61,61,61,61,61,61,61,61,61,61,61,61,61,61,61,61,61,61,61,61,61,61,61,61,61,61,61,61,61,61,61,61,61,61,61,61,61,61,21,21,21,21,21,21,21,21,21,21,21,21,21,21,21,21,21,21,21,21,21,21,21,21,21,21,21,360,360,361,362,364,426,535,594,653,707,723,712,700,690,679,668,657,646,635,624,624,601,589,578,559,548,537,526,515,504,493,441,430,420,410,365,384,385,336,331,338,341,336,347,337,343,341,337,349,342,340,342,343,353,345,345,338,344,344,345,350,345,344,355,351,280,281,281,282,283,280,351,416,450,473,491,487,480,476,472,468,463,459,455,450,446,442,430,422,412,400,396,385,377,323,296,289,298,293,287,284,284,285,212,215,213,215,220,213,216,216,212,216,215,216,213,215,214,216,213,214,217,214,216,218,215,217,212,215,213,312,315,315,316,317,338,452,501,554,602,634,624,612,604,593,584,576,566,557,548,539,528,515,504,492,477,473,459,449,439,431,345,337,329,322,318,319,320,228,230,230,235,239,232,234,234,232,236,235,237,255,258,259,241,234,232,236,235,234,235,234,235,229,235,230,512,515,516,518,526,616,777,860,944,1003,1017,1002,987,979,955,940,925,908,893,878,861,854,832,830,801,786,770,766,738,721,705,604,616,534,523,521,543,521,496,486,491,493,491,495,494,499,493,498,496,489,493,495,494,497,500,499,496,499,497,497,501,499,499,499,499,519,520,522,522,531,695,811,929,1045,1141,1148,1127,1106,1085,1063,1042,1021,1004,991,970,949,929,908,887,866,845,823,803,782,752,737,718,703,568,539,521,530,533,496,493,496,499,493,504,501,501,502,503,527,500,498,504,500,508,501,503,502,503,502,504,504,502,502,535,506,982,974,989,1000,1175,1316,1598,1772,1876,1912,1910,1885,1850,1822,1790,1761,1731,1712,1674,1641,1611,1585,1552,1523,1493,1471,1433,1402,1259,1215,1213,1041,1046,998,998,986,1009,990,962,957,970,972,974,981,980,984,979,971,978,972,974,970,968,984,980,978,977,975,976,976,997,988,1000,1000,990,999,1001,1009,1028,1223,1398,1643,1820,1926,1960,1956,1928,1898,1868,1832,1819,1774,1743,1714,1683,1670,1624,1588,1560,1531,1501,1477,1434,1313,1259,1245,1069,1073,1025,1018,1025,1048,1018,987,990,999,995,1003,998,998,1025,999,995,1001,994,995,992,997,1004,1005,1007,1002,1002,1003,1010,1024,1023,1043,1036,1027,787,804,806,788,806,1037,1256,1413,1517,1555,1569,1535,1519,1457,1489,1442,1405,1419,1393,1322,1360,1316,1284,1258,1240,1208,1158,1123,1016,1069,1003,893,871,830,800,783,778,815,782,776,778,782,788,788,788,795,788,789,791,795,798,799,794,796,797,788,787,796,799,798,794,803,797,824,794,377,344,346,347,348,405,534,596,622,680,699,688,677,666,655,643,632,621,610,599,588,576,565,564,543,542,521,510,498,487,476,465,410,401,352,349,350,351,331,328,330,327,327,332,331,331,331,336,335,329,329,332,330,332,333,335,332,332,332,330,331,332,332,337,334,136,136,137,137,169,172,194,216,237,259,272,269,265,260,256,251,248,244,239,235,231,226,223,218,214,210,205,202,198,193,189,184,181,177,172,169,169,170,110,110,110,112,112,115,110,112,111,112,111,111,110,112,112,111,111,112,112,112,112,112,112,113,110,111,110,153,154,154,155,178,181,223,249,276,302,316,312,306,302,297,291,287,281,276,271,266,261,256,250,246,240,235,231,225,221,215,210,191,187,183,179,179,179,124,127,126,130,145,145,135,145,137,150,142,135,147,130,135,146,139,131,148,132,132,146,145,147,148,146,138,307,318,339,318,320,436,471,521,581,631,643,632,622,612,601,600,588,570,561,551,541,530,520,496,506,484,524,468,466,451,349,350,342,414,326,321,321,353,284,283,280,299,284,287,284,291,284,290,291,294,300,295,291,292,293,288,290,295,297,294,294,300,297,320,296,447,441,443,450,453,522,661,735,812,854,867,850,842,829,811,798,796,794,760,746,753,732,720,718,695,693,653,640,636,614,610,570,588,527,453,454,480,437,439,432,439,435,442,444,438,441,444,445,444,452,450,447,449,450,447,443,443,452,445,446,448,448,451,447,439,0,0,0,0,0,0,0,0,0,0,0,0,0,0,0,0,0,0,0,0,0,0,0,0,0,0,0,0,0,0,0,0,0,0,0,0,0,0,0,0,0,0,0,0,0,0,0,0,0,0,0,0,0,0,0,0,0,0,0,0,0,0,0,0,0,459,475,477,457,461,502,699,785,873,921,932,923,905,891,861,859,854,828,803,788,792,771,756,742,728,713,683,667,652,522,633,498,492,479,486,462,488,459,459,458,454,463,463,459,467,468,462,460,461,471,492,464,468,468,467,468,466,471,462,463,464,462,467,462,454,152,153,153,153,153,194,220,245,271,297,311,306,301,297,291,287,281,277,271,267,261,257,251,247,242,237,232,227,222,217,212,207,202,198,157,154,154,155,110,110,110,112,112,115,110,112,111,112,111,111,110,112,112,111,111,112,112,112,112,112,112,113,110,111,110,364,368,369,370,372,387,531,592,654,719,720,733,720,639,679,686,656,629,651,622,582,571,602,571,543,532,542,540,533,449,424,410,444,365,379,361,375,375,315,313,309,318,345,347,332,345,334,348,343,334,349,320,325,346,339,323,348,332,321,351,344,351,349,349,340,1170,1167,1171,1215,1344,1740,2044,2193,2276,2336,2279,2239,2206,2169,2131,2115,2069,2033,2004,1967,1932,1889,1869,1833,1831,1746,1668,1569,1436,1298,1384,1279,1217,1197,1184,1182,1186,1189,1188,1187,1196,1202,1236,1205,1202,1204,1205,1206,1199,1205,1201,1209,1226,1220,1213,1231,1214,1206,1209,1215,1219,1230,1297,1224,1220,174,175,176,176,216,224,254,282,312,342,357,352,346,339,334,328,323,317,312,305,300,294,289,283,278,271,266,260,255,249,244,238,232,226,221,216,217,217,144,145,145,145,145,148,145,147,145,161,146,146,146,147,147,147,150,147,145,149,146,148,145,146,146,146,145,858,877,876,880,896,1122,1433,1562,1688,1736,1735,1696,1668,1656,1621,1593,1541,1541,1503,1489,1460,1430,1402,1353,1355,1315,1288,1263,1248,1118,984,936,920,902,891,884,909,879,844,843,840,849,844,847,844,851,844,850,851,854,860,855,851,852,853,848,850,855,857,854,854,860,857,880,856,536,538,540,541,562,679,800,921,986,1070,1083,1067,1049,1031,1014,937,933,962,944,872,910,903,834,858,841,823,806,789,771,751,737,714,625,560,545,544,546,547,512,506,508,511,516,517,513,520,522,529,522,518,521,523,520,524,528,521,514,525,520,524,521,522,522,522,521,379,380,382,383,385,499,586,640,707,760,770,756,744,732,720,708,709,684,684,658,669,634,622,610,646,608,574,561,547,536,523,512,500,488,389,385,386,387,373,376,372,381,378,387,376,384,380,373,380,376,373,384,378,385,382,388,383,387,393,384,384,387,377,387,382,230,233,235,235,236,243,315,351,409,448,475,467,460,452,446,437,430,423,414,402,399,393,384,377,370,362,354,348,340,332,320,317,292,248,242,238,238,234,181,184,183,190,206,206,191,202,194,206,199,192,204,185,188,200,194,186,205,187,185,207,200,206,204,202,195,713,710,705,698,721,784,1064,1225,1299,1406,1373,1366,1362,1331,1292,1299,1250,1228,1238,1190,1183,1160,1122,1116,1078,1080,1043,1013,942,891,943,785,772,740,711,708,705,675,641,635,638,651,646,644,644,650,643,650,653,655,658,658,658,661,645,646,652,655,644,640,650,649,644,649,642,921,929,931,932,980,1222,1497,1665,1761,1809,1809,1783,1756,1746,1710,1695,1647,1620,1593,1570,1535,1530,1497,1445,1426,1398,1372,1342,1325,1053,1023,1011,997,950,960,936,943,924,885,884,883,908,896,890,901,903,892,906,910,908,915,915,915,916,896,896,905,907,893,893,903,899,893,898,891,697,697,718,713,716,881,1104,1241,1361,1412,1380,1383,1325,1347,1328,1273,1249,1261,1197,1207,1195,1168,1152,1106,1087,1049,1031,1021,1025,990,916,804,737,743,731,723,726,706,698,679,686,687,683,693,687,693,692,688,695,689,696,693,689,692,693,689,687,692,696,700,691,705,694,720,693,1044,1002,1040,1056,1078,1546,1868,2082,2239,2207,2231,2163,2149,2107,2098,2051,2018,1948,1873,1875,1813,1809,1739,1697,1645,1634,1582,1544,1458,1378,1150,1087,1107,1084,1058,1060,1041,1053,1044,1040,1048,1057,1051,1053,1057,1052,1056,1049,1053,1049,1064,1063,1063,1057,1073,1072,1061,1059,1067,1062,1065,1070,1066,1066,1056,712,711,732,727,732,905,1135,1278,1395,1447,1413,1416,1357,1379,1358,1302,1278,1290,1225,1234,1222,1193,1177,1131,1111,1071,1054,1042,1045,1010,935,887,752,758,747,738,734,714,706,691,695,700,694,705,698,704,703,699,705,701,710,704,701,703,704,699,698,703,707,711,701,716,705,732,705,651,658,659,658,683,809,1005,1122,1215,1282,1290,1271,1252,1248,1223,1211,1177,1158,1139,1125,1098,1098,1074,1032,1023,1002,986,963,955,926,824,790,732,677,688,662,668,654,620,614,617,630,625,623,623,629,622,629,632,634,637,637,637,640,624,625,631,634,623,619,629,628,623,628,621,900,895,894,921,966,1365,1556,1785,1923,1943,1946,1908,1876,1842,1818,1788,1747,1745,1723,1643,1640,1580,1538,1504,1507,1455,1411,1377,1326,1269,1214,977,962,924,932,933,919,924,912,917,914,920,919,918,913,919,933,935,934,934,939,940,940,936,941,935,944,947,943,937,942,961,956,954,950,408,403,405,405,407,517,613,688,765,807,820,803,795,782,764,751,749,735,712,699,706,685,673,660,647,634,606,592,578,567,563,542,527,426,414,410,435,393,391,392,385,394,393,392,399,402,397,403,394,405,431,394,394,397,398,398,397,398,392,393,393,394,399,395,387,189,148,149,149,150,189,238,266,265,290,305,300,295,290,286,281,276,271,266,261,256,251,246,242,236,232,227,222,217,212,207,202,198,192,188,151,151,151,142,141,141,142,142,143,143,165,149,142,142,142,141,144,143,164,143,141,142,143,142,143,143,143,144,144,144,368,334,335,338,339,431,519,577,599,653,674,663,649,640,630,620,611,601,591,581,570,559,550,543,534,524,507,496,485,471,460,443,434,425,410,340,339,342,324,321,322,322,323,325,327,326,324,325,324,323,324,326,324,325,330,331,326,329,326,322,325,325,329,330,325,450,437,444,440,461,512,670,746,807,864,887,857,858,855,823,823,806,797,765,752,757,743,718,691,677,663,677,664,631,618,593,534,497,483,449,445,480,413,379,374,377,390,385,383,383,389,382,389,392,394,397,397,396,399,384,385,391,394,383,379,389,388,383,388,381,339,352,342,354,343,449,510,569,629,682,691,680,669,658,647,636,625,614,654,643,597,618,607,595,537,524,514,503,493,522,470,420,410,400,348,343,344,345,316,316,316,316,316,319,318,332,320,322,316,320,319,344,322,323,324,333,318,321,318,320,319,319,315,319,317,819,814,813,816,852,1166,1377,1588,1728,1755,1760,1725,1695,1664,1641,1598,1576,1544,1514,1471,1457,1418,1385,1353,1324,1293,1241,1214,1181,1150,1099,1050,929,843,830,829,828,838,817,821,826,824,836,830,836,839,832,835,828,830,829,831,840,835,839,836,839,832,832,837,840,859,845,852,845,775,777,779,782,789,1125,1276,1421,1508,1554,1549,1525,1508,1476,1450,1425,1408,1376,1408,1381,1317,1330,1303,1271,1206,1177,1152,1128,1103,1121,1012,897,821,801,790,786,788,805,775,772,776,781,783,782,784,819,785,794,783,788,790,810,809,807,829,815,784,801,791,785,784,795,789,832,786,787,804,806,788,806,1037,1256,1413,1517,1555,1569,1535,1519,1457,1489,1442,1405,1419,1393,1322,1360,1316,1284,1258,1240,1208,1158,1123,1016,1069,1003,893,871,830,800,783,778,815,782,776,778,782,788,788,788,795,788,789,791,795,798,799,794,796,797,788,787,796,799,798,794,803,797,824,794,1043,1054,1049,1070,1145,1491,1717,1892,2013,2052,2055,2027,1994,1971,1923,1896,1864,1831,1793,1765,1750,1714,1664,1633,1603,1571,1532,1488,1378,1280,1214,1125,1103,1105,1098,1071,1077,1069,1029,1036,1035,1040,1051,1041,1040,1050,1039,1039,1043,1043,1039,1039,1054,1043,1044,1047,1045,1054,1056,1061,1057,1080,1080,1056,1055,378,379,380,382,384,431,555,625,664,712,733,723,713,705,695,686,676,667,657,650,639,629,633,620,592,589,575,568,556,544,522,496,473,397,425,384,385,386,280,281,281,286,291,288,283,289,282,294,285,287,287,290,294,297,294,287,289,285,285,288,287,292,284,287,287,558,559,561,563,576,716,847,942,1035,1102,1122,1102,1085,1071,1055,1038,1019,1002,987,969,949,932,915,898,860,841,832,815,798,781,763,688,595,582,569,575,567,547,488,488,487,488,494,491,489,492,489,495,491,494,491,488,489,490,490,489,492,490,488,491,490,494,491,490,490,575,578,584,591,592,725,877,983,1090,1148,1145,1127,1112,1102,1087,1079,1060,1042,1023,996,985,970,950,930,888,873,854,848,789,772,756,703,664,600,588,585,586,568,491,489,492,499,495,506,498,507,506,505,506,502,503,502,505,507,505,499,502,506,496,498,499,505,499,508,508,693,694,696,699,729,960,1085,1209,1322,1382,1389,1369,1348,1329,1307,1285,1264,1241,1219,1198,1175,1153,1132,1125,1065,1066,1029,1007,1000,964,942,789,771,717,705,702,704,690,642,642,641,642,648,645,643,646,643,649,645,648,645,642,643,644,644,643,646,644,642,645,644,648,645,644,644,92,92,92,92,92,93,103,113,122,132,140,138,136,135,133,130,128,127,125,123,121,119,117,115,113,112,110,107,106,104,102,100,99,96,94,93,93,93,57,56,59,56,57,58,58,57,57,57,59,59,59,59,59,60,58,58,57,59,57,58,58,57,57,58,63,514,515,517,518,527,608,777,863,949,1018,1038,1020,1004,992,976,960,944,926,912,895,878,862,846,830,793,785,770,753,737,721,630,616,584,537,525,521,523,517,457,457,456,457,463,460,458,461,458,464,460,463,460,457,458,459,459,458,461,459,457,460,459,463,460,459,459,0,0,0,0,0,0,0,0,0,0,0,0,0,0,0,0,0,0,0,0,0,0,0,0,0,0,0,0,0,0,0,0,0,0,0,0,0,0,0,0,0,0,0,0,0,0,0,0,0,0,0,0,0,0,0,0,0,0,0,0,0,0,0,0,0,573,575,577,578,594,742,878,977,1074,1139,1158,1138,1121,1107,1089,1071,1052,1034,1018,998,979,960,944,925,886,866,858,839,824,803,785,721,628,613,585,582,583,547,488,488,487,488,494,491,489,492,489,495,491,494,491,488,489,490,490,489,492,490,488,491,490,494,491,490,490,708,714,693,719,729,839,1075,1247,1341,1383,1395,1379,1359,1351,1323,1341,1301,1257,1253,1241,1186,1200,1148,1158,1114,1086,1041,1034,1029,972,860,850,791,750,738,722,738,728,645,647,640,646,658,657,662,664,649,661,659,668,662,652,659,661,666,655,660,656,648,655,650,664,657,670,670,789,791,795,801,842,1100,1238,1377,1483,1547,1544,1520,1506,1472,1504,1425,1410,1377,1354,1329,1305,1282,1258,1234,1217,1186,1162,1139,1122,1145,948,927,835,816,805,802,804,806,808,800,804,807,810,815,812,843,824,807,832,812,818,813,813,821,816,817,812,817,813,821,815,873,816,859,814,596,598,600,602,619,779,918,1019,1120,1186,1202,1182,1164,1150,1131,1112,1093,1074,1057,1038,1017,998,981,961,923,909,891,872,853,834,816,755,671,621,609,613,607,581,523,523,522,523,529,526,524,527,524,530,526,529,526,523,524,525,525,524,527,525,523,526,525,529,526,525,525,1250,1247,1258,1275,1465,1928,2164,2324,2413,2451,2446,2411,2369,2322,2292,2257,2212,2176,2137,2099,2057,2023,1983,1951,1878,1868,1807,1671,1505,1439,1351,1322,1319,1276,1265,1262,1272,1250,1202,1202,1201,1202,1208,1205,1203,1206,1203,1209,1205,1208,1205,1202,1203,1204,1204,1203,1206,1204,1202,1205,1204,1208,1205,1204,1204,959,961,966,980,1079,1349,1586,1745,1856,1886,1891,1860,1840,1798,1731,1722,1680,1701,1649,1620,1610,1542,1502,1470,1472,1448,1409,1381,1164,1160,1022,1036,1032,987,978,973,976,949,884,886,888,894,898,894,897,904,893,906,898,904,902,896,901,902,899,893,903,899,899,902,901,905,902,901,901,455,457,471,472,461,549,683,765,845,911,916,902,905,866,875,846,833,833,797,790,787,754,761,746,731,684,693,678,662,659,633,619,536,513,486,486,484,481,440,431,437,444,432,447,439,440,443,440,447,442,439,442,439,451,446,441,437,444,440,446,446,441,441,445,444,504,518,520,519,520,631,778,876,962,997,999,987,973,960,946,971,926,919,920,901,878,867,831,832,798,771,754,757,683,669,656,640,616,589,528,524,526,512,432,429,433,439,437,448,439,450,449,446,455,443,444,443,446,449,446,440,443,447,438,439,440,447,441,450,450,576,577,582,583,594,733,894,994,1076,1146,1165,1146,1137,1109,1091,1074,1053,1036,1019,1000,996,968,955,935,907,900,887,854,835,810,757,663,614,609,587,584,589,574,506,505,505,506,512,509,507,510,507,513,509,512,509,506,507,508,508,507,510,508,506,509,508,512,509,508,508,693,695,697,698,702,881,1082,1199,1321,1388,1402,1381,1343,1321,1299,1292,1266,1247,1224,1188,1180,1158,1135,1113,1090,1068,1034,1022,1000,966,956,849,737,729,706,703,705,702,625,620,624,621,632,627,623,634,630,639,635,635,632,633,634,635,632,628,630,631,628,628,631,632,629,627,627,996,999,1003,1019,1068,1345,1621,1793,1903,1956,1960,1936,1899,1883,1843,1807,1794,1746,1712,1685,1653,1632,1590,1569,1538,1483,1453,1423,1352,1185,1139,1076,1051,1058,1042,1023,1021,1023,976,976,997,981,984,986,991,986,986,984,989,993,983,989,990,992,990,1004,992,1009,990,1012,1005,1003,992,994,993,647,671,672,653,718,907,1122,1358,1494,1548,1547,1477,1460,1507,1458,1372,1409,1367,1348,1288,1225,1193,1214,1135,1136,1075,1092,1061,977,999,928,939,758,680,660,697,702,689,670,672,674,681,678,681,693,686,680,683,687,687,694,688,694,693,679,681,686,680,682,683,683,679,674,672,670,1011,1013,1017,1036,1082,1372,1654,1827,1937,1989,1992,1967,1930,1913,1872,1837,1823,1773,1739,1711,1680,1656,1615,1593,1561,1506,1475,1443,1291,1143,1156,1091,1066,1073,1058,1038,1029,1032,976,980,980,992,1001,987,1002,991,990,994,1001,1000,994,1001,1001,1003,1008,1002,1003,1006,1001,1017,1005,1014,1018,1002,1001,423,424,426,427,430,478,633,702,774,844,867,854,829,816,801,799,784,771,758,733,731,717,703,689,675,662,639,634,620,598,594,488,476,465,433,430,431,432,355,355,354,355,361,358,356,359,356,362,358,361,358,355,356,357,357,356,359,357,355,358,357,361,358,357,357,541,542,544,570,585,760,890,1021,1150,1239,1258,1226,1203,1180,1157,1134,1112,1089,1137,1101,1019,1020,1021,998,969,942,888,860,828,821,776,768,751,597,553,576,580,565,551,555,549,554,557,561,585,616,555,561,564,583,564,557,559,597,564,561,562,559,558,561,558,563,563,573,555,116,116,116,116,116,117,127,137,146,156,165,162,160,159,157,155,152,151,149,147,145,144,141,139,137,136,134,132,130,128,126,124,123,121,118,117,117,117,78,77,80,77,78,79,79,78,78,78,80,80,80,80,80,81,79,79,78,80,78,79,79,78,78,79,78,405,405,407,408,411,477,603,671,740,804,825,813,799,788,775,762,749,736,723,711,719,683,671,658,627,622,609,596,584,570,512,498,486,424,414,411,412,413,364,364,363,364,370,367,365,368,365,371,367,370,367,364,365,366,366,365,368,366,364,367,366,370,367,366,366,325,309,326,327,329,332,422,496,537,570,594,588,579,574,568,562,555,549,543,537,530,524,512,502,475,473,464,454,444,390,381,373,364,324,365,330,331,331,228,228,227,228,234,229,229,232,227,235,231,234,231,228,229,230,230,229,232,230,228,231,230,234,231,230,230,357,360,361,362,363,392,523,581,662,713,734,720,708,698,685,674,665,652,641,631,618,606,597,584,554,551,540,528,517,505,494,405,395,386,408,364,365,366,244,243,244,248,253,248,247,250,247,255,251,255,274,271,272,255,251,247,251,251,246,248,249,252,248,250,250,556,564,562,572,567,709,841,932,1027,1095,1116,1099,1082,1080,1046,1029,1013,994,977,960,941,938,908,904,873,843,827,809,803,784,765,680,647,614,600,578,576,575,528,530,527,537,538,542,533,539,535,550,542,542,537,538,538,544,541,538,542,540,538,540,536,544,536,544,543,461,462,479,465,485,616,728,840,951,1043,1065,1038,1017,997,977,958,938,917,904,877,858,861,817,803,777,757,737,717,697,668,654,636,622,488,472,490,472,475,454,451,453,455,451,462,459,459,459,461,485,458,456,462,458,465,459,461,460,460,460,461,462,460,460,493,463,1023,1019,1022,1042,1114,1409,1670,1844,1959,2004,2009,1982,1945,1927,1881,1850,1819,1789,1752,1723,1691,1674,1628,1596,1565,1535,1491,1453,1174,1163,1160,1141,1089,1079,1065,1047,1042,1044,1003,1007,1009,1019,1021,1013,1015,1022,1009,1003,1014,1011,1007,1006,1004,1014,1012,1015,1012,1008,1013,1027,1030,1043,1047,1030,1029,1043,1054,1049,1070,1145,1491,1717,1892,2013,2052,2055,2027,1994,1971,1923,1896,1864,1831,1793,1765,1750,1714,1664,1633,1603,1571,1532,1488,1378,1280,1214,1125,1103,1105,1098,1071,1077,1069,1029,1036,1035,1040,1051,1041,1040,1050,1039,1039,1043,1043,1039,1039,1054,1043,1044,1047,1045,1054,1056,1061,1057,1080,1080,1056,1055,768,782,785,757,783,1003,1141,1364,1525,1500,1498,1475,1491,1472,1410,1361,1352,1381,1343,1313,1307,1251,1233,1222,1179,1154,1123,1088,1009,1025,942,905,878,806,767,760,761,784,767,767,766,770,776,775,782,790,778,790,777,778,776,778,776,790,790,778,780,774,773,778,778,782,775,790,777,396,397,398,401,404,449,580,646,716,783,807,794,781,767,755,742,729,716,704,690,677,665,652,639,625,613,600,588,575,562,550,535,457,433,407,403,405,405,322,322,322,322,322,322,322,322,322,322,322,322,322,322,322,322,322,322,322,322,322,322,322,322,322,322,322,51,63,63,63,63,63,71,78,84,92,99,96,95,94,93,91,90,89,88,85,84,83,82,80,79,78,75,74,73,72,70,69,68,67,64,63,63,63,16,16,16,16,16,16,16,16,16,16,16,16,16,16,16,16,16,16,16,16,16,16,16,16,16,16,16,174,174,177,178,179,198,251,279,310,339,361,357,350,344,338,333,326,321,315,310,302,297,292,286,279,274,268,263,258,251,245,239,234,228,182,179,180,180,114,114,114,114,114,114,114,114,114,114,114,114,114,114,114,114,114,114,114,114,114,114,114,114,114,114,114,286,287,288,288,302,374,422,474,578,570,581,573,546,554,544,519,525,517,511,551,488,465,469,460,438,430,421,412,458,405,397,387,378,368,308,303,304,305,266,266,269,266,272,271,278,285,274,282,273,274,272,274,272,279,278,274,276,270,269,274,274,278,271,282,273,552,552,554,561,570,638,812,900,990,1057,1076,1061,1045,1038,1011,1000,984,960,950,930,913,897,882,869,848,832,831,800,783,767,740,631,647,587,581,569,570,567,480,480,480,480,480,480,480,480,480,480,480,480,480,480,480,480,480,480,480,480,480,480,480,480,480,480,480,200,200,201,219,223,209,285,316,348,378,392,387,380,375,369,363,357,352,345,339,334,328,322,318,311,307,299,293,287,281,230,270,216,211,207,224,225,225,134,134,134,134,134,134,134,134,134,134,134,134,134,134,134,134,134,134,134,134,134,134,134,134,134,134,134,559,561,562,568,579,666,852,961,1057,1122,1133,1116,1108,1079,1062,1043,1025,1013,989,972,953,934,914,898,880,863,860,837,809,790,772,671,632,595,589,577,578,584,509,509,509,509,509,509,509,509,509,509,509,509,509,509,509,509,509,509,509,509,509,509,509,509,509,509,509,0,0,0,0,0,0,0,0,0,0,0,0,0,0,0,0,0,0,0,0,0,0,0,0,0,0,0,0,0,0,0,0,0,0,0,0,0,0,0,0,0,0,0,0,0,0,0,0,0,0,0,0,0,0,0,0,0,0,0,0,0,0,0,0,0,273,282,265,266,257,296,401,442,504,504,547,543,533,524,534,525,495,458,498,445,437,454,449,453,426,408,414,416,408,387,390,381,371,302,289,258,259,268,252,252,252,252,252,252,252,252,252,252,252,252,252,252,252,252,252,252,252,252,252,252,252,252,252,252,252,1269,1272,1280,1326,1458,1831,2171,2366,2451,2511,2488,2450,2410,2367,2327,2297,2248,2201,2158,2134,2081,2044,2004,1974,1935,1931,1810,1507,1454,1425,1410,1363,1329,1313,1307,1297,1300,1314,1242,1242,1242,1242,1242,1242,1242,1242,1242,1242,1242,1242,1242,1242,1242,1242,1242,1242,1242,1242,1242,1242,1242,1242,1242,1242,1242,82,102,102,102,102,104,117,132,145,158,169,167,163,161,158,156,152,150,148,145,143,139,137,135,132,129,126,124,121,118,116,113,111,107,105,103,103,103,66,70,67,69,71,69,69,69,69,69,69,70,67,69,67,69,69,67,69,67,67,69,67,69,67,69,67,840,845,848,849,865,1088,1304,1507,1637,1681,1674,1650,1607,1597,1568,1526,1518,1488,1465,1432,1407,1356,1351,1340,1287,1261,1237,1205,1192,1072,927,911,890,864,863,854,855,849,825,826,829,826,832,831,838,847,834,848,833,834,832,834,832,848,848,834,836,830,829,834,834,838,831,848,833,443,460,447,448,451,581,663,755,819,886,902,887,869,865,843,829,820,800,782,772,756,742,748,713,699,685,671,663,639,632,610,592,578,516,454,450,418,453,436,433,429,432,440,440,437,443,442,438,441,442,442,445,443,447,444,443,438,443,441,445,443,445,443,445,443,503,500,502,504,511,614,767,846,931,988,993,977,962,947,931,917,900,885,870,853,838,822,807,794,775,761,745,729,713,699,637,622,594,521,510,510,507,508,435,435,435,435,435,435,435,435,435,435,435,435,435,435,435,435,435,435,435,435,435,435,435,435,435,435,435,250,251,252,256,257,281,361,404,445,488,514,507,497,488,482,474,465,457,449,441,431,424,414,408,399,390,382,375,367,359,350,342,334,294,259,256,257,272,171,171,171,171,171,171,171,171,171,171,171,171,171,171,171,171,171,171,171,171,171,171,171,171,171,171,171,741,740,744,747,761,817,1109,1255,1400,1455,1467,1439,1413,1391,1375,1362,1330,1301,1292,1253,1237,1225,1208,1185,1158,1128,1106,1075,1018,968,1005,844,783,771,752,755,748,733,646,646,646,646,646,646,646,646,646,646,646,646,646,646,646,646,646,646,646,646,646,646,646,646,646,646,646,979,980,984,987,1034,1310,1557,1735,1852,1911,1921,1892,1848,1828,1797,1768,1741,1712,1683,1661,1625,1598,1568,1542,1517,1475,1445,1416,1387,1232,1073,1058,1039,1016,993,989,995,982,890,890,890,890,890,890,890,890,890,890,890,890,890,890,890,890,890,890,890,890,890,890,890,890,890,890,890,685,687,690,683,696,847,1023,1205,1280,1357,1357,1335,1264,1289,1271,1230,1229,1208,1190,1133,1145,1101,1103,1082,1046,995,987,984,975,950,842,785,705,711,699,692,695,676,669,670,674,679,683,685,690,692,688,692,687,683,686,680,686,690,690,681,690,684,681,688,687,692,685,692,687,1119,1108,1131,1176,1199,1712,1978,2190,2320,2379,2374,2342,2301,2263,2220,2183,2138,2114,2066,2005,1985,1961,1911,1805,1787,1778,1726,1680,1466,1390,1241,1229,1181,1166,1144,1147,1162,1166,1098,1098,1098,1098,1098,1098,1098,1098,1098,1098,1098,1098,1098,1098,1098,1098,1098,1098,1098,1098,1098,1098,1098,1098,1098,1098,1098,700,703,704,697,714,871,1051,1241,1315,1392,1391,1368,1296,1321,1301,1260,1258,1235,1218,1160,1171,1126,1127,1107,1069,1017,1009,1005,996,970,946,805,720,726,714,707,710,684,679,682,683,688,694,693,700,702,696,702,695,695,694,691,694,701,701,691,698,692,691,696,696,700,693,699,695,709,709,712,713,732,922,1083,1195,1316,1384,1402,1382,1354,1335,1313,1292,1274,1253,1230,1212,1190,1175,1146,1128,1113,1082,1059,1036,1016,981,959,815,764,744,720,714,725,712,625,625,625,625,625,625,625,625,625,625,625,625,625,625,625,625,625,625,625,625,625,625,625,625,625,625,625,999,1001,1024,1035,1087,1494,1774,1977,2113,2146,2146,2110,2080,2029,2000,1979,1942,1896,1838,1819,1801,1730,1681,1645,1620,1587,1543,1516,1483,1402,1191,1148,1074,1039,1041,1039,1033,1042,966,966,966,966,966,966,966,966,966,966,966,966,966,966,966,966,966,966,966,966,966,966,966,966,966,966,966,507,509,510,517,525,591,765,853,942,1010,1029,1013,997,980,964,948,931,913,899,883,866,849,832,817,801,785,784,752,736,720,702,603,620,555,536,525,526,518,441,441,441,441,441,441,441,441,441,441,441,441,441,441,441,441,441,441,441,441,441,441,441,441,441,441,441,261,262,262,263,264,307,382,426,467,509,538,555,506,507,489,490,475,473,466,452,443,441,428,416,417,401,401,387,377,372,360,329,297,291,300,269,266,266,200,200,200,200,200,200,200,200,200,200,200,200,200,200,200,200,200,200,200,200,200,200,200,200,200,200,200,386,387,389,390,395,432,566,628,690,750,782,764,756,742,730,719,708,697,685,673,660,648,638,623,611,598,589,574,561,548,536,499,442,408,398,395,396,396,316,316,316,316,316,316,316,316,316,316,316,316,316,316,316,316,316,316,316,316,316,316,316,316,316,316,316,484,488,485,494,500,556,741,804,895,970,996,967,950,946,918,903,901,879,853,843,822,810,790,774,763,748,728,714,709,689,672,559,544,509,500,495,496,471,384,384,384,384,384,384,384,384,384,384,384,384,384,384,384,384,384,384,384,384,384,384,384,384,384,384,384,338,339,340,341,342,447,507,568,626,679,689,678,667,656,644,633,622,611,600,589,578,567,556,545,534,523,512,501,490,479,468,457,446,435,347,342,344,345,310,313,310,316,320,317,323,316,314,317,313,317,318,322,316,320,341,341,319,325,317,312,316,314,338,320,314,918,921,922,928,973,1272,1584,1780,1923,1958,1960,1927,1899,1852,1826,1791,1764,1714,1675,1654,1606,1576,1529,1496,1468,1433,1399,1368,1338,1291,1162,1033,979,958,953,944,949,963,871,871,871,871,871,871,871,871,871,871,871,871,871,871,871,871,871,871,871,871,871,871,871,871,871,871,871,773,776,778,780,787,1116,1272,1428,1505,1552,1547,1530,1498,1472,1447,1429,1405,1373,1354,1324,1304,1274,1249,1225,1201,1175,1150,1126,1101,1079,1051,1006,819,801,788,785,787,789,769,769,770,781,787,780,789,781,779,789,780,785,789,802,803,804,813,813,785,805,790,777,781,790,813,813,783,768,782,785,757,783,1003,1141,1364,1525,1500,1498,1475,1491,1472,1410,1361,1352,1381,1343,1313,1307,1251,1233,1222,1179,1154,1123,1088,1009,1025,942,905,878,806,767,760,761,784,767,767,766,770,776,775,782,790,778,790,777,778,776,778,776,790,790,778,780,774,773,778,778,782,775,790,777,955,927,944,934,990,1264,1498,1647,1772,1858,1832,1851,1810,1758,1713,1674,1656,1643,1621,1604,1569,1517,1519,1450,1457,1422,1382,1295,1214,1249,1019,1017,954,983,941,928,954,958,935,935,936,938,953,951,952,966,949,957,951,952,951,953,953,963,962,959,953,952,949,960,960,972,959,966,957,477,478,480,498,488,592,739,825,910,960,998,951,935,919,904,888,873,858,842,827,858,822,781,765,750,776,719,704,688,711,614,600,585,500,488,485,486,513,475,470,475,480,482,477,472,475,477,489,491,484,492,489,494,486,494,490,480,490,483,486,484,481,490,490,490,226,225,237,238,240,255,325,361,397,435,454,449,442,434,428,421,414,407,401,391,385,378,372,364,357,350,342,334,329,321,314,268,261,255,244,228,229,230,186,184,184,184,193,192,186,192,187,188,190,190,190,191,193,198,196,197,189,194,192,198,197,243,193,199,196,207,208,208,209,210,268,304,339,376,425,426,420,426,422,399,392,386,378,371,365,358,350,344,337,331,324,316,310,303,297,290,282,276,269,262,211,211,259,198,198,201,202,202,202,200,198,202,205,207,203,207,225,230,229,211,207,202,205,204,204,201,204,204,207,202,460,461,454,456,459,569,676,757,873,913,930,906,893,870,871,849,841,811,811,783,783,753,752,737,716,702,680,673,663,636,633,621,499,495,470,459,468,454,436,434,437,434,449,447,448,461,445,454,447,448,447,449,449,477,458,455,449,448,445,456,456,468,455,462,453,660,662,654,672,667,814,1006,1120,1215,1270,1294,1245,1233,1206,1185,1168,1213,1136,1107,1098,1129,1078,1030,1012,992,1014,953,944,926,924,833,796,704,675,657,659,661,682,637,639,648,648,651,655,649,652,648,643,654,654,655,655,657,666,654,661,653,658,656,656,660,670,646,657,656,362,364,364,369,369,433,528,599,661,721,736,721,713,701,690,678,667,655,642,632,619,607,596,583,570,564,552,540,529,517,473,493,449,384,375,370,371,399,304,302,301,302,310,310,304,310,305,304,307,307,305,309,311,310,310,315,307,312,310,316,311,334,306,312,310,665,673,661,680,705,842,1051,1186,1281,1317,1358,1309,1282,1257,1245,1214,1258,1179,1149,1138,1166,1114,1076,1055,1024,1043,982,961,952,966,734,717,712,715,671,667,669,699,661,661,669,677,669,678,665,668,667,658,674,669,684,684,686,684,672,682,677,685,684,673,676,684,662,672,671,175,175,176,177,177,224,254,283,313,343,358,353,347,342,335,330,324,319,313,306,301,295,290,284,278,272,267,261,256,249,244,238,233,227,180,178,178,179,170,168,168,168,177,176,170,176,171,172,174,174,175,175,177,198,180,181,173,178,176,182,182,227,193,199,196,0,0,0,0,0,0,0,0,0,0,0,0,0,0,0,0,0,0,0,0,0,0,0,0,0,0,0,0,0,0,0,0,0,0,0,0,0,0,0,0,0,0,0,0,0,0,0,0,0,0,0,0,0,0,0,0,0,0,0,0,0,0,0,0,0,1368,1372,1380,1472,1657,2007,2399,2574,2679,2672,2673,2608,2563,2520,2501,2440,2450,2357,2329,2272,2286,2213,2146,2153,2102,1997,1810,1735,1549,1543,1569,1447,1464,1400,1389,1387,1391,1429,1414,1413,1416,1416,1425,1424,1418,1424,1419,1420,1420,1422,1423,1423,1425,1445,1428,1429,1421,1426,1424,1430,1430,1453,1441,1434,1433,257,258,258,259,260,328,371,415,458,501,523,515,507,499,490,484,474,465,457,448,441,432,423,415,407,401,390,382,374,365,357,348,341,332,264,261,261,262,236,238,235,237,248,245,239,245,240,241,243,244,242,244,244,267,249,248,242,245,243,251,249,264,252,259,255,1015,1021,1012,1032,1107,1389,1657,1827,1953,2004,2009,1967,1935,1883,1879,1826,1813,1764,1748,1713,1694,1651,1624,1591,1563,1529,1500,1465,1353,1278,1118,1120,1049,1055,1043,1018,1033,1014,996,994,997,994,1009,1007,1008,1023,1005,1019,1007,1008,1007,1009,1009,1026,1028,1015,1009,1008,1005,1016,1016,1028,1015,1022,1013,618,622,623,623,628,786,933,1038,1153,1237,1247,1215,1211,1190,1166,1130,1150,1110,1090,1069,1050,1010,1009,971,946,927,927,895,888,812,678,797,649,677,634,625,596,632,604,599,598,603,619,614,607,618,617,610,619,616,617,620,617,644,627,622,611,621,617,627,625,640,628,635,631,661,664,665,668,672,790,999,1136,1252,1326,1329,1306,1288,1267,1244,1224,1204,1180,1158,1139,1117,1094,1073,1052,1030,1013,999,971,957,867,822,757,771,689,677,675,675,670,605,603,603,603,612,611,605,611,606,607,609,609,610,610,612,625,615,616,608,613,611,617,617,648,618,624,622,285,286,288,288,288,306,423,473,522,584,581,572,563,569,544,535,525,517,507,498,489,485,470,460,453,443,433,424,414,405,396,316,310,301,294,289,290,291,259,257,259,260,259,261,261,264,262,263,264,264,264,264,264,264,266,267,268,268,268,267,269,270,270,269,269,690,700,714,699,710,765,1077,1221,1320,1378,1401,1364,1331,1308,1287,1257,1282,1223,1203,1191,1175,1129,1117,1103,1091,1073,1029,1002,978,963,940,868,765,735,724,715,721,690,673,669,675,693,682,676,675,690,684,690,704,685,686,689,690,687,689,684,687,691,680,684,682,678,688,686,686,952,955,956,962,982,1260,1502,1681,1818,1890,1882,1863,1822,1807,1761,1736,1708,1676,1653,1617,1587,1554,1526,1497,1467,1437,1418,1377,1353,1075,1051,1029,1002,983,971,968,970,972,940,940,932,933,953,950,951,960,950,961,951,952,951,958,963,960,965,963,958,955,954,960,955,955,951,963,963,860,863,849,852,894,1146,1316,1488,1593,1667,1692,1624,1628,1593,1582,1532,1533,1449,1450,1439,1421,1396,1345,1349,1308,1267,1256,1230,1216,1091,1083,959,891,888,873,858,853,860,838,843,841,844,863,861,860,868,855,861,857,855,853,857,860,858,863,860,861,862,859,864,866,882,860,865,858,1160,1167,1170,1197,1241,1632,1916,2107,2238,2297,2292,2267,2225,2197,2139,2107,2073,2036,1999,1964,1928,1889,1845,1820,1773,1747,1712,1663,1447,1412,1281,1258,1220,1193,1203,1162,1165,1168,1140,1148,1171,1175,1163,1143,1174,1174,1180,1175,1186,1176,1185,1194,1203,1193,1172,1159,1161,1176,1174,1175,1163,1190,1178,1180,1180,875,877,863,868,913,1174,1347,1524,1628,1702,1725,1656,1660,1625,1612,1562,1560,1478,1478,1466,1446,1421,1370,1373,1331,1289,1278,1252,1236,1186,1121,947,907,903,888,873,861,870,850,852,854,855,871,869,870,878,866,871,869,869,864,869,871,869,873,871,871,870,867,874,877,890,872,877,870,738,740,742,746,763,915,1129,1253,1370,1430,1431,1412,1392,1372,1350,1333,1314,1292,1262,1244,1225,1197,1174,1152,1135,1109,1086,1070,1047,1029,1003,799,782,763,777,748,750,743,721,706,714,721,728,718,716,714,723,730,727,722,728,730,735,719,727,740,719,735,714,717,739,718,725,720,720,1098,1101,1125,1160,1339,1670,2016,2230,2376,2339,2419,2278,2236,2193,2174,2180,2186,2092,2019,1954,1971,1910,1860,1806,1752,1774,1670,1634,1592,1427,1218,1254,1213,1148,1137,1124,1124,1163,1135,1141,1135,1135,1148,1140,1137,1144,1156,1159,1155,1159,1164,1164,1166,1169,1166,1160,1162,1169,1165,1166,1169,1174,1164,1164,1163,614,616,610,628,629,767,959,1073,1168,1213,1247,1197,1183,1159,1138,1120,1166,1089,1060,1051,1081,1030,983,964,944,966,906,887,879,886,796,778,709,630,619,615,617,633,593,595,600,609,599,611,597,602,602,601,607,603,616,616,618,613,603,612,608,612,614,603,605,616,594,605,604,408,409,410,412,413,484,599,698,770,823,821,816,792,762,778,760,728,727,724,711,693,684,672,657,644,634,619,605,592,579,565,554,499,475,421,415,409,415,370,368,368,368,377,376,370,376,371,372,374,374,375,375,377,398,380,381,373,378,376,382,382,411,393,399,396,468,468,471,524,478,608,722,799,884,935,973,922,908,894,881,866,853,840,825,810,838,806,765,750,742,759,705,690,675,696,645,630,614,491,479,476,477,527,473,477,478,484,478,490,479,492,486,480,490,477,479,485,483,486,484,486,483,487,490,487,480,499,480,496,483,573,572,577,582,586,638,815,882,945,993,1003,991,979,966,955,943,931,919,907,895,886,888,875,862,843,837,811,799,800,721,709,638,614,588,588,575,585,568,522,523,522,526,527,531,529,530,519,528,523,522,523,542,534,539,556,541,531,536,546,541,534,540,526,530,529,513,514,515,517,519,671,761,851,941,1022,1036,1020,1003,985,970,954,936,919,904,887,871,853,837,820,805,788,771,754,737,721,705,688,549,535,527,520,522,500,480,480,478,484,500,491,493,492,486,488,488,491,492,498,493,510,505,505,494,501,494,493,495,501,507,499,488,1017,1021,1024,1058,1165,1448,1819,2035,2188,2153,2237,2097,2058,2019,1984,1948,1963,1872,1859,1796,1816,1756,1683,1645,1607,1616,1531,1498,1458,1316,1129,1118,1107,1051,1035,1034,1040,1078,1040,1045,1047,1039,1060,1052,1053,1059,1054,1055,1049,1055,1054,1055,1060,1068,1063,1061,1056,1055,1054,1065,1065,1072,1074,1064,1063,949,951,954,961,1085,1340,1526,1711,1824,1888,1882,1858,1821,1790,1762,1736,1703,1670,1641,1612,1581,1550,1520,1489,1458,1431,1400,1370,1339,1322,1254,1022,997,991,965,964,965,959,936,940,943,951,963,957,958,957,958,955,956,962,972,977,977,1005,982,971,974,974,959,958,971,975,1006,968,957,955,927,944,934,990,1264,1498,1647,1772,1858,1832,1851,1810,1758,1713,1674,1656,1643,1621,1604,1569,1517,1519,1450,1457,1422,1382,1295,1214,1249,1019,1017,954,983,941,928,954,958,935,935,936,938,953,951,952,966,949,957,951,952,951,953,953,963,962,959,953,952,949,960,960,972,959,966,957,1719,1752,1769,1938,2197,2892,3121,3268,3320,3388,3375,3330,3251,3095,3141,3062,2989,2928,2901,2847,2786,2753,2526,2491,2131,2078,2031,1984,1936,1872,1849,1820,1786,1770,1752,1758,1770,1753,1767,1760,1762,1757,1781,1758,1776,1783,1766,1790,1786,1767,1781,1785,1777,1781,1789,1801,1799,1811,1799,1803,1815,1807,1799,1801,1801,1049,1054,1057,1073,1174,1592,1845,2011,2105,2046,2114,2079,1999,1959,1930,1942,1906,1833,1847,1816,1781,1699,1728,1646,1648,1578,1661,1537,1519,1251,1385,1139,1137,1085,1070,1064,1071,1046,1044,1058,1052,1064,1058,1053,1122,1116,1053,1053,1055,1061,1057,1053,1054,1059,1060,1059,1061,1058,1057,1060,1057,1111,1107,1137,1115,1359,1355,1362,1459,1647,2165,2428,2555,2631,2576,2631,2595,2504,2470,2437,2439,2398,2314,2314,2283,2243,2153,2166,2083,2086,2006,1965,1778,1720,1517,1552,1441,1464,1388,1400,1366,1353,1335,1333,1347,1341,1353,1347,1342,1415,1403,1342,1342,1344,1350,1346,1342,1343,1348,1349,1348,1350,1347,1346,1349,1346,1412,1408,1444,1411,1246,1251,1256,1326,1517,1967,2247,2400,2486,2417,2482,2442,2356,2307,2275,2280,2238,2160,2167,2155,2089,1999,2028,1939,1931,1860,1930,1805,1706,1508,1586,1338,1336,1282,1269,1254,1271,1242,1240,1254,1248,1260,1254,1249,1324,1321,1249,1249,1251,1257,1253,1249,1250,1255,1256,1255,1257,1254,1253,1256,1253,1306,1316,1338,1321,1490,1484,1497,1546,1840,2342,2657,2776,2891,2841,2879,2847,2755,2671,2668,2658,2604,2535,2538,2455,2399,2359,2349,2155,2110,1750,2076,1765,1723,1622,1631,1548,1558,1530,1501,1462,1480,1446,1456,1453,1467,1481,1473,1475,1483,1473,1475,1484,1489,1478,1487,1495,1490,1499,1492,1497,1483,1495,1488,1482,1476,1496,1486,1505,1491,991,994,996,999,1061,1408,1622,1766,1858,1816,1884,1858,1785,1757,1736,1748,1725,1652,1671,1651,1625,1551,1572,1494,1516,1447,1504,1452,1417,1199,1267,1148,1084,1018,1011,1003,1009,954,952,966,960,972,966,961,1023,1021,961,961,963,969,965,961,962,967,968,967,969,966,965,968,965,1017,1011,1044,1016,1337,1343,1346,1381,1557,2079,2344,2473,2550,2504,2553,2517,2429,2395,2360,2367,2325,2244,2253,2216,2177,2090,2103,2020,2025,1958,1935,1757,1539,1471,1508,1434,1425,1368,1361,1342,1318,1300,1298,1312,1306,1318,1312,1307,1363,1353,1307,1307,1309,1315,1311,1307,1308,1313,1314,1313,1315,1312,1311,1314,1311,1372,1366,1385,1370,948,950,954,957,1015,1350,1561,1705,1797,1756,1824,1798,1725,1697,1677,1690,1667,1595,1614,1595,1568,1495,1517,1439,1461,1392,1443,1398,1365,1222,1188,1096,1116,976,969,961,967,906,904,918,912,924,918,913,975,972,913,913,915,921,917,913,914,919,920,919,921,918,917,920,917,966,960,993,965,1365,1370,1377,1458,1678,2204,2465,2591,2667,2611,2664,2627,2536,2502,2468,2469,2428,2344,2341,2310,2270,2178,2192,2087,2079,2006,1987,1788,1741,1540,1583,1464,1453,1398,1384,1366,1353,1335,1333,1347,1341,1353,1347,1342,1415,1403,1342,1342,1344,1350,1346,1342,1343,1348,1349,1348,1350,1347,1346,1349,1346,1412,1408,1441,1411,1385,1402,1410,1478,1756,2214,2497,2646,2729,2671,2722,2691,2587,2549,2543,2513,2483,2401,2400,2355,2262,2185,2227,2124,2112,2069,2002,1868,1602,1643,1589,1481,1486,1435,1406,1414,1423,1380,1378,1392,1386,1398,1392,1387,1475,1466,1387,1387,1389,1395,1391,1387,1388,1393,1394,1393,1395,1392,1391,1394,1391,1463,1457,1483,1463,0,0,0,0,0,0,0,0,0,0,0,0,0,0,0,0,0,0,0,0,0,0,0,0,0,0,0,0,0,0,0,0,0,0,0,0,0,0,0,0,0,0,0,0,0,0,0,0,0,0,0,0,0,0,0,0,0,0,0,0,0,0,0,0,0,1420,1427,1443,1516,1718,2250,2512,2635,2710,2660,2705,2667,2578,2545,2507,2508,2465,2380,2388,2347,2306,2215,2225,2140,2131,1896,2018,1733,1628,1578,1612,1519,1522,1452,1445,1416,1388,1370,1368,1382,1376,1388,1382,1377,1458,1448,1377,1377,1379,1385,1381,1377,1378,1383,1384,1383,1385,1382,1381,1384,1381,1451,1447,1479,1450,1980,2063,2186,2405,2839,3432,3699,3811,3855,3835,3861,3817,3707,3608,3586,3550,3480,3406,3381,3288,3162,2838,2766,2591,2588,2395,2376,2309,2227,2167,2094,2050,2025,2026,2031,2022,2040,2006,2016,2013,2027,2041,2033,2035,2043,2033,2035,2044,2049,2038,2047,2055,2050,2059,2052,2057,2043,2055,2048,2042,2036,2056,2046,2065,2051,1785,1785,1869,2008,2285,2986,3166,3278,3386,3325,3357,3253,3167,3136,3122,3065,3060,2950,2909,2858,2643,2283,2264,2178,2136,2160,2152,2102,2026,1943,1945,1888,1846,1786,1781,1779,1749,1733,1732,1746,1740,1752,1746,1741,1824,1820,1741,1741,1743,1749,1745,1741,1742,1747,1748,1747,1749,1746,1745,1748,1745,1817,1811,1855,1817,1132,1143,1146,1167,1284,1688,1969,2151,2229,2268,2303,2280,2222,2094,2139,2081,2048,1995,1975,1927,1898,1851,1816,1794,1779,1682,1685,1648,1602,1261,1260,1211,1177,1174,1161,1157,1169,1153,1163,1149,1150,1151,1160,1171,1170,1177,1176,1181,1180,1171,1184,1191,1193,1217,1190,1190,1175,1193,1184,1178,1172,1200,1188,1224,1197,1177,1180,1184,1219,1425,1854,2128,2276,2371,2310,2373,2310,2250,2206,2173,2160,2140,2063,2072,2037,1974,1889,1938,1831,1850,1777,1851,1727,1662,1433,1514,1280,1277,1225,1210,1195,1212,1191,1189,1203,1197,1209,1203,1198,1267,1270,1198,1198,1200,1206,1202,1198,1199,1204,1205,1204,1206,1203,1202,1205,1202,1267,1266,1280,1267,1188,1188,1221,1248,1404,1876,2163,2277,2396,2312,2374,2331,2283,2249,2205,2219,2135,2074,2101,2068,2027,1958,1953,1882,1859,1773,1869,1691,1579,1347,1529,1312,1309,1247,1232,1196,1209,1175,1173,1187,1181,1193,1187,1182,1266,1247,1182,1182,1184,1190,1186,1182,1183,1188,1189,1188,1190,1187,1186,1189,1186,1257,1237,1306,1241,993,1037,1047,1009,1080,1456,1673,1864,1916,1918,1918,1890,1863,1786,1808,1779,1749,1676,1697,1719,1690,1565,1603,1525,1547,1468,1506,1460,1420,1164,1347,1114,1131,1034,1052,1007,1010,1011,1051,1053,1046,1061,1065,1056,1061,1068,1065,1066,1065,1063,1060,1070,1073,1061,1072,1076,1076,1076,1068,1074,1067,1069,1081,1093,1061,1672,1679,1723,1791,2090,2796,3018,3168,3226,3303,3280,3245,3163,3020,3072,2975,2911,2851,2816,2775,2714,2663,2629,2431,2071,1984,2110,1971,1888,1850,1797,1758,1738,1710,1699,1706,1722,1698,1720,1715,1696,1709,1732,1698,1729,1728,1714,1739,1730,1717,1717,1735,1730,1739,1742,1756,1733,1750,1747,1738,1739,1743,1737,1737,1737,904,882,906,894,1108,1224,1453,1719,1770,1838,1830,1798,1771,1742,1687,1684,1654,1625,1601,1571,1537,1509,1456,1450,1398,1338,1330,1290,1262,1254,1143,1053,972,932,922,920,899,927,915,918,910,928,923,931,929,967,931,925,927,938,932,928,926,926,933,935,934,938,926,932,934,967,963,972,966,1686,1695,1743,1813,2121,2830,3051,3200,3257,3333,3308,3274,3192,3048,3100,3002,2937,2876,2840,2798,2737,2686,2651,2448,2088,2001,2126,1991,1903,1873,1834,1773,1753,1726,1707,1714,1722,1702,1707,1723,1713,1710,1743,1703,1727,1738,1726,1746,1741,1729,1728,1746,1748,1739,1753,1753,1744,1755,1747,1749,1762,1746,1742,1740,1740,1035,1031,1066,1071,1173,1578,1857,1991,2085,2026,2086,2063,2004,1971,1942,1954,1893,1816,1855,1825,1790,1710,1719,1644,1642,1562,1665,1547,1514,1215,1507,1147,1144,1064,1077,1066,1072,1035,1033,1047,1041,1053,1047,1042,1103,1105,1042,1042,1044,1050,1046,1042,1043,1048,1049,1048,1050,1047,1046,1049,1046,1097,1090,1166,1096,743,745,747,750,784,922,1128,1342,1435,1477,1478,1450,1427,1404,1381,1358,1335,1311,1288,1265,1241,1218,1195,1172,1149,1125,1102,1079,1056,1032,962,807,787,769,756,754,756,757,729,741,741,748,750,752,745,759,739,763,751,778,751,757,763,770,772,765,765,763,763,767,766,843,756,762,762,1019,1017,1025,1022,1089,1447,1666,1810,1901,1859,1926,1900,1825,1797,1776,1788,1764,1690,1707,1687,1660,1586,1606,1528,1523,1453,1529,1427,1402,1139,1306,1132,1104,1058,1044,1031,998,975,973,987,981,993,987,982,1044,1042,982,982,984,990,986,982,983,988,989,988,990,987,986,989,986,1036,1030,1063,1035,1227,1233,1234,1256,1426,1875,2129,2266,2346,2302,2356,2324,2238,2204,2173,2182,2145,2065,2080,2045,2010,1925,1941,1862,1870,1803,1773,1646,1613,1356,1439,1319,1316,1257,1250,1245,1226,1208,1206,1220,1214,1226,1220,1215,1283,1276,1215,1215,1217,1223,1219,1215,1216,1221,1222,1221,1223,1220,1219,1222,1219,1284,1280,1320,1283,1018,1024,1025,1031,1170,1533,1778,1961,2032,1983,2043,2019,1933,1900,1871,1883,1851,1777,1791,1763,1729,1650,1666,1596,1603,1523,1615,1519,1477,1238,1390,1107,1106,1053,1038,1032,1038,1014,1012,1026,1020,1032,1026,1021,1079,1080,1021,1021,1023,1029,1025,1021,1022,1027,1028,1027,1029,1026,1025,1028,1025,1097,1085,1125,1088,1004,1017,1015,1017,1135,1511,1774,1922,2017,1959,2020,1996,1911,1883,1851,1864,1829,1754,1775,1743,1708,1629,1646,1578,1584,1515,1597,1476,1458,1148,1338,1093,1091,1050,1024,1019,1008,999,997,1011,1005,1017,1011,1006,1050,1052,1006,1006,1008,1014,1010,1006,1007,1012,1013,1012,1014,1011,1010,1013,1010,1039,1039,1072,1041,1231,1233,1239,1265,1402,1923,2157,2333,2419,2495,2492,2473,2400,2253,2321,2238,2195,2143,2124,2099,2049,2011,1970,1929,1912,1819,1828,1752,1692,1367,1351,1315,1295,1264,1253,1258,1269,1252,1262,1264,1252,1258,1274,1247,1268,1291,1268,1279,1290,1283,1271,1278,1268,1273,1279,1287,1275,1277,1276,1277,1271,1283,1280,1278,1278,785,787,790,795,857,1059,1200,1433,1524,1568,1564,1538,1514,1489,1464,1439,1414,1389,1365,1339,1315,1290,1265,1240,1215,1212,1166,1140,1116,1091,1067,1022,1004,812,800,796,853,801,766,777,778,811,790,781,792,792,781,785,784,786,787,784,784,792,793,790,797,790,789,799,795,828,823,934,875,1697,1718,1740,1905,2164,2845,3067,3186,3233,3263,3331,3287,3148,3053,3112,2952,2886,2861,2809,2806,2748,2492,2132,2466,2106,1997,2002,1955,1940,1845,1839,1783,1737,1718,1686,1710,1744,1725,1732,1746,1732,1729,1756,1734,1754,1747,1737,1758,1754,1734,1731,1757,1754,1756,1765,1755,1755,1763,1772,1766,1791,1761,1757,1755,1755,1719,1752,1769,1938,2197,2892,3121,3268,3320,3388,3375,3330,3251,3095,3141,3062,2989,2928,2901,2847,2786,2753,2526,2491,2131,2078,2031,1984,1936,1872,1849,1820,1786,1770,1752,1758,1770,1753,1767,1760,1762,1757,1781,1758,1776,1783,1766,1790,1786,1767,1781,1785,1777,1781,1789,1801,1799,1811,1799,1803,1815,1807,1799,1801,1801,761,738,765,822,817,1062,1229,1339,1543,1485,1534,1558,1526,1480,1379,1356,1405,1362,1284,1313,1237,1214,1190,1215,1197,1166,1124,1116,1028,988,1038,905,826,762,782,804,754,751,771,770,768,781,774,774,774,774,774,774,774,774,774,774,774,774,774,774,774,774,774,774,774,774,774,774,774,489,490,492,495,502,571,718,809,893,982,990,975,958,943,928,911,894,881,864,850,833,819,801,786,770,754,737,722,712,690,661,636,536,513,502,497,499,500,400,400,400,400,400,400,400,400,400,400,400,400,400,400,400,400,400,400,400,400,400,400,400,400,400,400,400,144,144,144,178,178,182,205,228,251,275,289,284,280,276,271,267,261,257,253,248,244,239,235,231,226,222,217,213,209,204,200,195,191,187,182,179,179,179,94,94,94,94,94,94,94,94,94,94,94,94,94,94,94,94,94,94,94,94,94,94,94,94,94,94,94,267,267,270,271,272,316,388,433,480,530,549,539,530,522,515,507,497,489,480,471,462,453,445,435,427,418,408,400,391,376,369,360,351,342,286,282,282,283,192,192,192,192,192,192,192,192,192,192,192,192,192,192,192,192,192,192,192,192,192,192,192,192,192,192,192,327,329,329,332,333,415,469,523,577,632,668,658,647,636,627,616,604,595,584,573,563,552,540,530,520,510,499,488,477,466,456,445,434,394,338,333,334,335,267,266,271,277,270,270,270,270,270,270,270,270,270,270,270,270,270,270,270,270,270,270,270,270,270,270,270,641,623,632,631,641,760,949,1054,1160,1213,1232,1184,1171,1153,1130,1122,1098,1091,1067,1052,1030,1005,1028,976,954,943,925,896,884,874,803,751,734,649,641,639,631,640,558,558,558,558,558,558,558,558,558,558,558,558,558,558,558,558,558,558,558,558,558,558,558,558,558,558,558,261,262,272,263,264,277,358,432,463,503,517,546,501,528,485,477,502,462,454,476,438,431,422,442,407,399,391,405,397,358,349,342,334,325,317,310,266,313,212,212,212,212,212,212,212,212,212,212,212,212,212,212,212,212,212,212,212,212,212,212,212,212,212,212,212,648,654,640,645,661,779,989,1115,1227,1288,1295,1248,1223,1203,1179,1168,1144,1135,1120,1092,1069,1041,1071,1009,985,972,952,922,909,880,813,798,679,663,648,648,645,673,587,587,587,587,587,587,587,587,587,587,587,587,587,587,587,587,587,587,587,587,587,587,587,587,587,587,587,160,160,161,161,162,204,231,258,284,312,327,322,316,311,306,301,295,290,286,280,275,269,265,259,254,249,244,238,233,228,223,217,212,207,165,162,162,162,94,94,94,94,94,94,94,94,94,94,94,94,94,94,94,94,94,94,94,94,94,94,94,94,94,94,94,310,297,312,313,326,398,440,513,557,617,632,620,610,601,592,581,570,561,528,541,530,520,510,478,490,480,449,461,451,447,430,420,353,319,305,319,320,332,259,259,259,259,259,259,259,259,259,259,259,259,259,259,259,259,259,259,259,259,259,259,259,259,259,259,259,1359,1348,1355,1413,1520,1953,2337,2520,2612,2625,2620,2555,2519,2477,2448,2399,2369,2336,2287,2238,2204,2146,2114,2115,2066,1977,1810,1645,1588,1553,1487,1470,1399,1408,1367,1368,1367,1372,1320,1320,1320,1320,1320,1320,1320,1320,1320,1320,1320,1320,1320,1320,1320,1320,1320,1320,1320,1320,1320,1320,1320,1320,1320,1320,1320,0,0,0,0,0,0,0,0,0,0,0,0,0,0,0,0,0,0,0,0,0,0,0,0,0,0,0,0,0,0,0,0,0,0,0,0,0,0,0,0,0,0,0,0,0,0,0,0,0,0,0,0,0,0,0,0,0,0,0,0,0,0,0,0,0,828,819,819,828,845,1122,1362,1494,1598,1648,1650,1600,1575,1554,1529,1493,1485,1445,1419,1414,1367,1340,1305,1302,1267,1237,1211,1162,1159,1091,1027,917,863,843,851,828,824,836,816,818,826,826,826,826,826,826,826,818,826,826,826,826,826,826,826,826,826,826,826,826,826,826,826,826,826,362,364,365,366,382,460,546,629,674,728,740,748,716,704,693,680,668,676,645,633,621,609,616,586,574,562,569,539,526,514,502,483,474,412,372,369,369,370,370,363,362,363,369,371,368,374,373,369,372,372,375,376,376,378,375,376,369,376,374,376,376,376,376,376,376,575,562,564,566,577,736,899,967,1065,1112,1144,1096,1080,1061,1045,1026,1009,992,975,957,940,922,905,887,870,853,836,818,800,813,765,709,600,584,572,568,570,568,513,513,513,513,513,513,513,513,513,513,513,513,513,513,513,513,513,513,513,513,513,513,513,513,513,513,513,343,344,346,347,350,403,498,558,616,683,699,688,675,666,657,644,633,621,610,602,588,577,566,555,544,533,522,510,499,488,477,466,419,374,353,352,353,351,249,249,249,249,249,249,249,249,249,249,249,249,249,249,249,249,249,249,249,249,249,249,249,249,249,249,249,841,833,838,840,854,1056,1290,1469,1592,1648,1674,1621,1593,1559,1546,1515,1493,1467,1444,1414,1398,1378,1344,1324,1281,1274,1231,1177,1140,1098,1012,923,888,880,853,852,839,825,724,724,724,724,724,724,724,724,724,724,724,724,724,724,724,724,724,724,724,724,724,724,724,724,724,724,724,1072,1072,1076,1080,1130,1480,1741,1928,2033,2100,2094,2059,2031,1997,1963,1937,1904,1871,1841,1807,1774,1742,1711,1688,1640,1616,1570,1540,1404,1211,1179,1150,1124,1104,1098,1089,1085,1069,968,968,968,968,968,968,968,968,968,968,968,968,968,968,968,968,968,968,968,968,968,968,968,968,968,968,968,650,676,677,697,729,857,1081,1191,1330,1295,1334,1351,1364,1349,1256,1232,1174,1153,1167,1146,1092,1104,1083,1030,1041,1020,1002,979,959,937,726,811,693,676,686,728,662,686,675,675,683,679,683,683,683,683,683,683,683,683,683,683,683,683,683,683,683,683,683,683,683,683,683,683,683,1211,1183,1225,1257,1402,1842,2169,2414,2525,2567,2544,2498,2454,2429,2366,2353,2274,2197,2147,2129,2087,2017,2026,1926,1874,1871,1828,1693,1570,1433,1330,1309,1278,1251,1229,1231,1229,1234,1174,1174,1174,1174,1174,1174,1174,1174,1174,1174,1174,1174,1174,1174,1174,1174,1174,1174,1174,1174,1174,1174,1174,1174,1174,1174,1174,665,691,693,711,745,884,1111,1226,1364,1330,1367,1383,1396,1381,1286,1260,1203,1182,1194,1174,1119,1151,1109,1055,1066,1044,1024,1001,980,958,890,886,708,692,702,743,676,697,686,687,693,699,692,692,692,692,692,692,692,692,692,692,692,692,692,692,692,692,692,692,692,692,692,692,692,801,801,804,806,827,1040,1234,1379,1497,1577,1580,1552,1532,1508,1482,1465,1439,1412,1392,1366,1343,1318,1297,1282,1244,1224,1188,1165,1109,1076,1011,897,865,831,823,815,815,804,703,703,703,703,703,703,703,703,703,703,703,703,703,703,703,703,703,703,703,703,703,703,703,703,703,703,703,1089,1077,1100,1125,1254,1616,1944,2170,2266,2292,2291,2225,2189,2167,2121,2076,2050,2002,1970,1944,1900,1839,1818,1786,1721,1661,1657,1621,1562,1292,1229,1162,1133,1132,1107,1101,1100,1105,1044,1044,1044,1044,1044,1044,1044,1044,1044,1044,1044,1044,1044,1044,1044,1044,1044,1044,1044,1044,1044,1044,1044,1044,1044,1044,1044,597,585,588,593,603,713,902,1007,1112,1166,1184,1137,1124,1106,1083,1074,1051,1043,1019,1005,983,958,980,929,907,895,877,849,837,827,801,730,688,611,597,595,593,620,519,519,519,519,519,519,519,519,519,519,519,519,519,519,519,519,519,519,519,519,519,519,519,519,519,519,519,323,340,324,325,326,425,537,532,586,634,644,634,624,614,605,595,585,575,565,555,544,534,524,550,504,495,485,475,465,455,445,429,422,339,331,327,391,329,278,278,278,278,278,278,278,278,278,278,278,278,278,278,278,278,278,278,278,278,278,278,278,278,278,278,278,479,480,484,486,490,554,703,790,866,957,964,947,931,918,904,889,874,861,843,832,817,799,783,768,756,740,722,709,694,678,646,622,565,504,493,497,490,491,394,394,394,394,394,394,394,394,394,394,394,394,394,394,394,394,394,394,394,394,394,394,394,394,394,394,394,579,581,579,585,604,676,883,980,1065,1160,1164,1153,1136,1115,1088,1080,1060,1035,1014,1008,986,958,956,922,902,886,870,853,836,817,648,631,625,609,594,585,593,563,462,462,462,462,462,462,462,462,462,462,462,462,462,462,462,462,462,462,462,462,462,462,462,462,462,462,462,388,390,391,393,395,510,579,646,714,775,793,781,767,754,742,729,717,704,691,678,666,653,641,628,614,602,589,577,564,552,539,526,513,410,399,396,396,391,346,350,339,349,347,347,347,347,347,347,347,347,347,347,347,347,347,347,347,347,347,347,347,347,347,347,347,1002,997,999,1026,1093,1394,1748,1975,2076,2106,2107,2044,2011,1982,1945,1905,1864,1838,1795,1783,1729,1677,1649,1617,1575,1518,1506,1461,1426,1185,1167,1104,1052,1030,1013,1015,1016,1016,949,949,949,949,949,949,949,949,949,949,949,949,949,949,949,949,949,949,949,949,949,949,949,949,949,949,949,824,827,829,833,840,1203,1340,1493,1593,1653,1654,1621,1595,1568,1548,1521,1495,1463,1445,1410,1383,1357,1337,1304,1278,1257,1230,1203,1172,1146,1027,1004,873,853,845,838,840,842,805,806,799,814,814,814,814,814,814,814,814,814,814,814,814,814,814,814,814,814,814,814,814,814,814,814,814,761,738,765,822,817,1062,1229,1339,1543,1485,1534,1558,1526,1480,1379,1356,1405,1362,1284,1313,1237,1214,1190,1215,1197,1166,1124,1116,1028,988,1038,905,826,762,782,804,754,751,771,770,768,781,774,774,774,774,774,774,774,774,774,774,774,774,774,774,774,774,774,774,774,774,774,774,774,486,486,488,490,496,690,750,839,926,976,1046,1058,952,937,920,989,889,873,858,842,826,810,868,829,763,748,732,716,700,685,668,712,638,508,496,493,585,495,499,494,494,498,505,492,493,495,496,504,507,506,504,526,507,500,534,531,501,507,508,506,507,506,511,540,525,1164,1154,1174,1203,1340,1793,1959,2163,2252,2281,2288,2231,2216,2152,2122,2080,2050,2030,2002,1959,1922,1891,1846,1807,1776,1747,1710,1643,1396,1403,1264,1268,1215,1202,1177,1184,1158,1107,1102,1101,1106,1123,1126,1155,1134,1143,1142,1131,1162,1135,1127,1128,1134,1148,1131,1137,1139,1133,1131,1128,1129,1134,1127,1125,1114,843,846,849,854,911,1202,1351,1512,1641,1680,1680,1649,1621,1595,1567,1539,1516,1490,1464,1436,1410,1383,1355,1331,1303,1277,1250,1224,1197,1157,1083,997,892,873,859,856,852,802,796,796,795,813,818,844,822,831,830,818,849,822,814,816,822,836,818,823,824,818,818,814,818,823,816,814,803,969,965,976,988,1059,1422,1592,1774,1887,1916,1926,1881,1857,1816,1792,1764,1730,1705,1675,1642,1611,1580,1552,1513,1492,1461,1429,1399,1363,1305,1132,1053,1019,1004,987,984,950,901,896,897,896,915,918,947,921,932,929,918,950,924,918,921,923,937,919,926,930,921,920,920,917,923,916,914,903,745,747,764,755,791,965,1167,1294,1422,1464,1464,1441,1419,1397,1374,1352,1333,1312,1289,1266,1245,1222,1200,1183,1157,1135,1113,1087,1069,1039,1016,931,802,773,773,770,756,717,715,713,714,739,728,751,741,748,747,736,754,739,725,730,738,751,728,739,735,730,738,731,744,744,738,731,720,1228,1234,1269,1295,1505,1752,2096,2264,2357,2393,2388,2363,2293,2275,2215,2181,2122,2104,2049,2036,2013,1961,1921,1912,1853,1816,1807,1634,1573,1493,1333,1306,1293,1257,1246,1226,1233,1206,1209,1216,1209,1234,1236,1258,1242,1259,1265,1241,1245,1237,1240,1241,1232,1270,1246,1230,1236,1242,1242,1229,1242,1245,1231,1230,1219,823,814,829,820,868,1171,1294,1475,1581,1645,1641,1590,1584,1543,1516,1496,1464,1454,1432,1405,1380,1353,1326,1290,1276,1249,1223,1184,1153,1114,1068,1007,872,853,827,836,839,807,801,807,810,857,861,849,859,861,855,852,862,850,821,827,848,849,820,853,837,825,848,839,854,854,842,838,827,1249,1242,1279,1315,1539,1811,2163,2328,2419,2456,2429,2410,2341,2321,2259,2222,2172,2151,2087,2072,2048,1993,1961,1931,1881,1853,1745,1644,1586,1410,1341,1314,1318,1299,1260,1248,1255,1245,1232,1238,1242,1249,1250,1279,1269,1274,1283,1265,1270,1265,1266,1274,1274,1298,1269,1272,1279,1282,1274,1271,1266,1260,1246,1246,1235,858,862,865,870,933,1232,1385,1551,1678,1717,1717,1684,1655,1628,1600,1571,1548,1521,1494,1466,1438,1410,1382,1356,1329,1302,1274,1247,1219,1190,1116,930,908,888,876,872,852,802,796,796,795,813,818,844,822,831,830,818,849,822,814,816,822,836,818,823,824,818,818,814,818,823,816,814,803,997,997,1002,1022,1128,1461,1646,1824,1954,1982,1967,1945,1908,1874,1844,1807,1779,1749,1717,1684,1654,1622,1591,1570,1533,1497,1466,1446,1403,1352,1099,1071,1045,1025,1014,1014,1014,968,963,962,969,978,979,1015,989,994,993,981,1014,987,980,981,987,1001,986,984,990,981,985,981,981,989,982,980,969,1935,1953,2096,2331,2828,3194,3542,3660,3715,3732,3694,3652,3561,3510,3460,3401,3306,3239,2954,2967,2951,2655,2615,2462,2504,2300,2296,2205,2186,2128,2070,2036,2008,1970,1971,1955,1980,1962,1973,1972,2017,1979,2009,2007,2037,2022,2013,2007,2005,2011,2013,2020,2013,2044,2008,2006,2011,2040,2008,2013,2066,2018,2029,2031,2020,747,750,752,754,815,1050,1181,1323,1457,1502,1497,1472,1448,1423,1398,1378,1354,1325,1307,1281,1258,1229,1209,1192,1162,1143,1114,1098,1067,1042,1018,872,794,785,759,759,761,712,709,707,707,723,725,753,731,737,735,724,758,727,718,721,731,741,722,724,728,723,723,719,723,730,723,721,710,0,0,0,0,0,0,0,0,0,0,0,0,0,0,0,0,0,0,0,0,0,0,0,0,0,0,0,0,0,0,0,0,0,0,0,0,0,0,0,0,0,0,0,0,0,0,0,0,0,0,0,0,0,0,0,0,0,0,0,0,0,0,0,0,0,606,604,606,623,665,829,954,1067,1160,1211,1185,1224,1148,1128,1137,1098,1097,1052,1034,1039,1003,1001,981,962,926,922,888,884,864,865,845,793,786,628,615,616,613,615,603,604,614,615,612,614,612,621,611,623,616,613,628,618,619,622,625,625,626,619,618,620,623,623,623,623,622,1132,1134,1140,1186,1277,1588,1921,2076,2180,2273,2264,2189,2154,2117,2086,2039,1998,1977,1954,1915,1877,1840,1801,1779,1740,1695,1606,1400,1567,1300,1241,1215,1192,1165,1161,1147,1128,1096,1102,1104,1099,1106,1105,1101,1111,1099,1108,1110,1114,1099,1112,1109,1117,1105,1109,1125,1110,1110,1097,1109,1112,1112,1112,1112,1112,1044,1041,1051,1062,1169,1556,1701,1924,2006,2061,2070,1992,1995,1925,1923,1861,1838,1832,1800,1764,1731,1698,1669,1607,1604,1571,1537,1497,1339,1264,1154,1132,1098,1075,1057,1060,1007,958,953,957,952,970,974,1001,978,987,986,975,1006,979,971,972,978,992,975,981,983,977,975,972,973,978,971,969,958,1509,1512,1553,1604,1905,2507,2667,2841,2921,2931,2933,2873,2834,2771,2720,2672,2643,2614,2562,2508,2470,2421,2364,2122,2096,1842,1813,1742,1718,1724,1647,1620,1573,1561,1519,1458,1475,1437,1426,1431,1438,1453,1454,1482,1459,1468,1467,1456,1487,1460,1452,1453,1459,1473,1456,1462,1464,1458,1456,1453,1454,1459,1452,1450,1439,1692,1722,1828,1968,2225,2919,3073,3243,3307,3341,3327,3246,3201,3136,3087,3039,2999,2948,2896,2823,2678,2335,2374,2187,2106,2134,2034,2003,1953,1920,1829,1800,1747,1692,1699,1697,1715,1681,1671,1686,1685,1699,1708,1731,1708,1721,1720,1708,1739,1712,1704,1706,1710,1726,1708,1711,1714,1708,1708,1703,1703,1708,1701,1699,1688,422,423,426,427,430,517,620,691,761,828,854,836,826,809,796,783,774,756,743,733,716,702,692,676,665,652,639,623,612,596,583,569,455,444,441,436,438,439,405,397,405,412,400,412,404,409,408,405,429,406,403,406,404,428,407,409,406,409,406,407,409,409,409,409,409,1475,1508,1551,1705,2350,2890,3375,3544,3554,3499,3542,3485,3355,3263,3153,3144,3051,2932,2906,2796,2787,2689,2620,2541,2390,2271,2188,2124,1947,1727,1638,1608,1546,1499,1480,1503,1521,1516,1648,1635,1656,1670,1713,1695,1697,1711,1689,1717,1741,1713,1731,1724,1711,1719,1767,1743,1728,1744,1751,1745,1740,1752,1750,1754,1717,412,438,441,442,418,536,627,700,774,827,837,823,813,797,798,770,756,743,730,719,704,689,680,702,650,636,626,609,596,583,603,556,543,433,426,422,423,417,406,411,415,424,414,422,410,417,409,412,412,411,406,416,415,422,417,422,418,418,424,420,416,424,408,416,412,1466,1461,1495,1595,1843,2383,2548,2733,2805,2849,2845,2775,2735,2671,2631,2592,2562,2518,2473,2417,2381,2330,2280,2234,2196,2167,2023,1713,1670,1638,1594,1566,1517,1515,1479,1437,1454,1411,1405,1410,1415,1432,1433,1461,1438,1447,1446,1435,1466,1439,1431,1432,1438,1452,1435,1441,1443,1437,1435,1432,1433,1438,1431,1429,1418,1564,1580,1707,1828,2442,2837,3164,3290,3359,3380,3367,3324,3236,3195,3115,3079,2978,2962,2883,2821,2780,2720,2674,2622,2351,2193,2093,1933,1878,1787,1743,1692,1639,1593,1601,1598,1636,1658,1678,1674,1707,1692,1708,1713,1714,1709,1733,1710,1719,1711,1725,1736,1713,1727,1722,1747,1718,1718,1708,1724,1728,1728,1728,1728,1728,1189,1190,1225,1257,1458,1704,2048,2216,2309,2346,2332,2316,2246,2227,2167,2133,2075,2057,2002,1989,1966,1914,1874,1855,1806,1768,1760,1606,1555,1465,1288,1262,1256,1218,1207,1182,1187,1185,1163,1169,1172,1182,1182,1217,1214,1217,1214,1199,1201,1195,1215,1224,1234,1219,1200,1210,1212,1203,1215,1206,1198,1193,1179,1179,1168,967,963,978,980,1074,1433,1563,1766,1865,1905,1915,1860,1849,1801,1768,1740,1714,1699,1673,1642,1612,1581,1549,1498,1489,1466,1435,1391,1349,1304,1158,1043,1060,1004,977,968,981,948,942,949,952,985,988,1002,979,996,997,982,1000,988,964,977,991,990,962,980,979,968,987,979,998,990,986,982,971,1155,1143,1165,1200,1326,1772,1933,2138,2223,2258,2262,2208,2195,2135,2103,2062,2029,2013,1986,1940,1907,1871,1834,1790,1762,1734,1694,1620,1369,1391,1253,1259,1206,1193,1166,1178,1152,1103,1097,1098,1097,1116,1123,1150,1125,1134,1133,1122,1153,1126,1118,1119,1125,1139,1122,1128,1130,1124,1122,1119,1120,1125,1118,1116,1105,1262,1247,1267,1301,1459,1972,2137,2332,2423,2463,2454,2390,2372,2306,2271,2232,2202,2176,2143,2101,2061,2027,1981,1941,1904,1881,1829,1725,1460,1468,1362,1361,1312,1298,1266,1196,1213,1176,1165,1170,1177,1192,1193,1221,1198,1207,1206,1195,1226,1199,1190,1191,1198,1212,1195,1201,1203,1197,1195,1192,1193,1198,1191,1189,1178,874,876,879,894,930,1162,1414,1571,1683,1787,1786,1711,1698,1659,1632,1600,1583,1544,1530,1503,1460,1436,1446,1380,1362,1333,1306,1269,1250,1211,1094,961,924,904,914,909,895,865,862,858,861,873,873,869,877,867,868,872,878,864,875,876,878,869,875,887,871,873,864,872,873,873,873,873,873,1476,1491,1582,1921,2214,2640,2973,3106,3179,3201,3182,3133,3067,3023,2952,2865,2819,2786,2729,2669,2618,2574,2523,2453,2256,2168,2113,2011,1795,1701,1641,1601,1611,1522,1520,1533,1548,1557,1600,1594,1614,1604,1613,1621,1624,1636,1630,1620,1633,1633,1627,1635,1630,1636,1632,1632,1632,1631,1624,1632,1635,1635,1635,1635,1635,756,753,769,748,797,1073,1224,1365,1486,1480,1559,1500,1464,1408,1440,1434,1356,1332,1309,1284,1243,1219,1285,1258,1164,1158,1134,1093,1069,1045,950,916,796,801,754,788,844,769,772,768,770,775,782,770,770,774,775,783,786,788,786,807,789,782,817,815,786,790,813,792,793,792,797,810,799,486,486,488,490,496,690,750,839,926,976,1046,1058,952,937,920,989,889,873,858,842,826,810,868,829,763,748,732,716,700,685,668,712,638,508,496,493,585,495,499,494,494,498,505,492,493,495,496,504,507,506,504,526,507,500,534,531,501,507,508,506,507,506,511,540,525,760,738,740,742,747,1067,1193,1340,1491,1468,1519,1435,1420,1397,1419,1398,1386,1315,1334,1266,1288,1201,1190,1166,1185,1164,1129,1071,1052,1016,995,868,774,756,749,772,774,783,765,757,749,766,775,768,773,772,768,776,778,788,810,781,778,783,786,779,772,781,775,779,773,782,774,789,770,870,866,869,872,925,1150,1417,1572,1688,1737,1718,1691,1688,1636,1617,1582,1555,1527,1505,1471,1449,1413,1393,1361,1334,1307,1294,1253,1225,1189,1111,1039,923,893,880,876,878,797,784,782,789,809,807,800,793,801,808,816,817,816,817,810,818,818,819,813,810,823,811,804,803,814,807,821,801,534,519,521,522,531,631,818,894,984,1067,1039,1024,1088,991,1003,958,941,925,908,892,892,888,842,826,809,793,792,760,743,741,710,708,608,540,529,525,527,491,479,476,484,498,497,492,482,489,496,504,504,503,504,497,506,506,507,500,496,508,496,491,489,503,496,510,490,647,645,646,648,667,814,1008,1129,1247,1283,1290,1270,1273,1229,1205,1189,1168,1148,1126,1105,1092,1061,1043,1023,1001,981,973,939,916,897,876,854,685,668,661,653,655,589,578,576,585,599,599,592,585,588,597,603,604,604,606,601,611,607,608,601,599,614,599,593,595,602,596,610,590,673,675,702,696,711,895,1040,1192,1336,1349,1375,1348,1303,1285,1278,1270,1247,1226,1174,1182,1158,1138,1114,1067,1071,1024,1026,996,982,940,933,925,716,715,699,681,683,665,651,654,658,665,655,662,658,666,668,659,668,661,663,664,665,670,668,670,669,672,669,671,670,680,674,680,675,1013,1015,1024,1026,1085,1375,1671,1822,1906,1967,1928,1912,1907,1843,1840,1784,1754,1724,1691,1701,1635,1630,1586,1543,1524,1490,1486,1424,1386,1133,1250,1077,1067,1035,1026,1027,1001,955,952,948,961,975,977,968,962,961,970,981,984,983,979,973,982,976,977,976,976,988,976,971,969,983,971,985,965,632,634,636,638,650,748,1005,1119,1213,1285,1261,1276,1213,1231,1211,1162,1147,1128,1095,1085,1063,1048,1026,1007,984,965,945,886,875,874,839,837,676,660,645,645,643,609,589,585,594,611,613,602,594,599,607,615,616,618,620,612,618,620,621,614,611,623,610,605,603,616,609,623,603,1038,1028,1033,1040,1108,1415,1715,1888,1971,2031,1989,1962,1957,1890,1886,1828,1796,1774,1730,1742,1670,1663,1627,1574,1542,1518,1512,1408,1407,1214,1262,1085,1084,1043,1034,1039,1023,984,967,965,978,993,1000,985,979,997,1000,998,1004,1000,1006,1004,1000,1009,1010,1002,1001,1010,1000,1000,998,1010,1003,1017,997,550,535,536,538,561,657,848,940,1023,1105,1076,1059,1117,1025,1037,991,973,957,939,921,921,918,870,853,836,818,816,784,767,764,732,729,628,557,545,541,542,491,479,476,484,498,497,492,482,489,496,504,504,503,504,497,506,506,507,500,496,508,496,491,489,503,496,510,490,586,592,590,592,612,818,920,1061,1162,1214,1216,1183,1183,1145,1144,1082,1063,1069,1065,1041,1007,1006,953,939,926,926,884,908,874,873,831,762,740,711,609,605,607,600,591,602,600,603,600,599,606,608,605,608,599,604,600,608,608,622,616,620,604,602,616,627,616,618,609,614,610,1738,1746,1789,1893,2292,2763,3122,3272,3300,3332,3267,3227,3173,3126,3111,3028,2969,2917,2863,2690,2652,2536,2182,2354,2084,2089,2047,1961,1947,1989,1909,1816,1780,1761,1753,1761,1755,1720,1714,1719,1724,1746,1745,1740,1730,1731,1740,1741,1747,1742,1752,1745,1753,1754,1751,1745,1744,1752,1744,1739,1737,1751,1739,1753,1733,390,391,393,394,396,426,590,660,729,783,793,779,817,754,742,729,717,704,691,678,666,653,641,628,616,602,590,577,565,552,540,526,421,410,400,396,397,398,389,391,393,403,442,433,409,443,407,441,423,470,424,400,409,425,414,403,437,412,402,430,418,442,423,420,412,620,635,635,639,700,873,988,1105,1200,1247,1246,1229,1285,1189,1169,1149,1129,1109,1062,1069,1049,1029,1009,990,970,955,927,907,889,870,850,832,735,647,634,629,648,647,622,625,635,645,644,649,632,652,631,689,643,650,643,643,723,745,655,648,657,648,652,679,653,752,641,648,644,0,0,0,0,0,0,0,0,0,0,0,0,0,0,0,0,0,0,0,0,0,0,0,0,0,0,0,0,0,0,0,0,0,0,0,0,0,0,0,0,0,0,0,0,0,0,0,0,0,0,0,0,0,0,0,0,0,0,0,0,0,0,0,0,0,931,955,941,971,1020,1325,1564,1725,1812,1879,1840,1811,1774,1780,1751,1695,1665,1629,1599,1618,1549,1548,1501,1463,1434,1404,1376,1351,1288,1295,1131,1009,984,977,952,963,947,908,900,894,910,921,924,916,912,909,921,927,927,931,930,931,933,932,933,926,923,935,922,917,915,928,921,935,915,723,720,722,725,742,924,1139,1276,1397,1437,1435,1414,1415,1369,1343,1326,1300,1278,1255,1232,1215,1182,1163,1139,1116,1093,1084,1047,1024,1012,978,921,763,745,732,729,730,646,635,633,645,655,654,648,639,645,652,660,661,660,661,654,662,662,663,657,654,667,655,648,647,658,651,665,645,1213,1213,1215,1230,1399,1716,2104,2247,2365,2368,2353,2307,2304,2239,2201,2178,2135,2090,2052,2033,2000,1961,1932,1877,1840,1793,1736,1660,1615,1528,1401,1321,1276,1244,1231,1213,1203,1126,1109,1109,1128,1134,1136,1131,1122,1126,1133,1141,1142,1141,1142,1135,1143,1143,1144,1138,1135,1148,1136,1129,1128,1139,1132,1146,1126,1455,1450,1452,1508,1776,2204,2579,2699,2790,2825,2791,2745,2735,2657,2633,2574,2529,2484,2443,2405,2368,2315,2271,2226,2189,2135,1973,1703,1638,1640,1566,1535,1523,1485,1471,1452,1447,1370,1354,1366,1371,1380,1387,1382,1371,1379,1386,1394,1394,1393,1394,1387,1394,1393,1397,1390,1384,1398,1386,1379,1377,1388,1381,1395,1375,639,625,643,629,661,871,1000,1087,1210,1227,1229,1210,1212,1171,1172,1154,1126,1106,1086,1067,1047,1016,1008,988,969,949,939,910,891,862,843,843,738,641,636,663,634,636,618,610,612,616,622,621,621,625,626,627,628,622,623,628,624,624,627,631,627,631,626,629,634,645,635,650,635,1477,1487,1528,1608,2108,2634,2883,3048,3076,3073,3067,3005,2973,2898,2878,2782,2725,2681,2667,2570,2477,2446,2431,2340,2111,2073,1802,1964,1737,1666,1620,1581,1527,1539,1543,1546,1554,1571,1561,1553,1554,1554,1560,1574,1568,1578,1581,1593,1590,1596,1596,1590,1600,1600,1607,1592,1587,1591,1593,1595,1569,1590,1581,1589,1575,653,639,672,644,677,896,1030,1121,1245,1262,1271,1243,1245,1225,1203,1184,1155,1135,1114,1094,1073,1042,1033,1013,992,972,961,932,912,802,862,862,674,657,650,678,649,647,628,622,623,625,633,642,632,638,637,638,638,634,637,639,636,635,638,641,638,642,637,640,644,653,646,666,647,1184,1179,1178,1197,1327,1673,2043,2172,2276,2317,2292,2256,2253,2185,2167,2116,2080,2044,2011,1982,1945,1904,1871,1834,1801,1755,1730,1660,1605,1487,1288,1262,1250,1213,1197,1182,1182,1100,1088,1088,1100,1113,1115,1110,1101,1105,1112,1120,1121,1120,1121,1114,1122,1122,1123,1117,1114,1127,1115,1108,1107,1118,1111,1125,1105,1467,1479,1497,1627,1955,2370,2784,2911,2964,3002,2940,2900,2859,2823,2792,2724,2690,2599,2572,2533,2448,2445,2383,2312,2170,2129,2084,1929,1692,1628,1658,1553,1532,1509,1490,1494,1488,1441,1442,1431,1442,1468,1458,1455,1447,1459,1469,1476,1477,1480,1480,1473,1477,1480,1474,1476,1479,1486,1469,1464,1462,1478,1469,1483,1463,975,976,982,987,1046,1328,1610,1775,1859,1920,1881,1865,1860,1796,1793,1736,1707,1677,1644,1654,1588,1582,1538,1496,1466,1443,1439,1377,1347,1194,1230,1095,1032,990,981,987,957,916,901,896,909,923,933,917,913,930,937,931,938,931,936,930,929,940,940,933,928,940,930,930,930,943,937,951,931,723,715,718,699,728,963,1118,1246,1373,1384,1384,1364,1403,1320,1327,1276,1254,1224,1202,1222,1200,1174,1142,1101,1111,1058,1065,1007,1015,997,945,926,760,722,711,707,726,675,668,662,673,691,692,682,673,675,687,692,693,696,701,693,706,706,707,700,696,708,696,691,689,703,696,710,690,859,858,859,862,893,1133,1392,1545,1664,1709,1691,1666,1668,1614,1597,1564,1537,1509,1486,1455,1434,1398,1378,1346,1320,1293,1279,1240,1211,1174,1086,1072,925,884,871,868,869,791,780,777,786,800,800,797,788,792,799,807,808,807,808,801,809,809,810,804,801,814,802,795,794,805,798,812,792,962,953,961,970,1027,1306,1605,1765,1861,1924,1897,1862,1851,1803,1772,1735,1708,1685,1645,1618,1605,1574,1531,1495,1468,1456,1420,1378,1275,1200,1060,1090,1019,983,973,969,941,864,848,848,867,873,875,870,861,865,872,880,881,880,881,873,881,882,883,877,874,887,875,868,867,878,871,885,865,750,753,751,759,774,1005,1213,1364,1463,1531,1494,1503,1454,1455,1427,1381,1357,1333,1323,1285,1261,1237,1213,1213,1164,1151,1117,1084,1069,1063,849,844,809,776,761,774,751,744,733,730,735,742,738,745,738,747,750,748,746,736,740,742,740,747,745,750,745,749,741,747,742,751,745,747,746,1387,1390,1393,1466,1733,2174,2594,2723,2780,2821,2762,2726,2674,2631,2606,2541,2482,2439,2389,2379,2295,2270,2206,2144,2098,2070,2013,1882,1585,1540,1540,1450,1426,1407,1400,1410,1395,1346,1346,1343,1346,1381,1370,1373,1365,1358,1379,1370,1373,1370,1371,1373,1376,1378,1375,1371,1364,1375,1369,1362,1360,1386,1369,1383,1363,990,969,954,956,1107,1422,1625,1797,1884,1907,1865,1924,1904,1872,1757,1787,1790,1668,1648,1675,1578,1544,1600,1495,1458,1488,1388,1372,1394,1294,1038,1069,1016,998,1024,1005,1008,976,1014,997,998,1009,1025,1010,1024,1014,1018,1026,1034,1044,1045,1057,1060,1066,1026,1034,1037,1047,1047,1048,1059,1042,1046,1045,1032,760,738,740,742,747,1067,1193,1340,1491,1468,1519,1435,1420,1397,1419,1398,1386,1315,1334,1266,1288,1201,1190,1166,1185,1164,1129,1071,1052,1016,995,868,774,756,749,772,774,783,765,757,749,766,775,768,773,772,768,776,778,788,810,781,778,783,786,779,772,781,775,779,773,782,774,789,770,808,793,806,796,823,1021,1181,1396,1499,1568,1593,1560,1540,1519,1479,1471,1428,1418,1393,1368,1316,1318,1294,1238,1226,1210,1192,1159,1142,974,874,924,868,825,813,802,805,807,793,783,785,793,793,793,793,793,793,793,793,793,793,793,793,793,793,793,793,793,793,793,793,793,793,793,793,589,591,592,594,600,754,890,991,1104,1176,1191,1173,1154,1135,1114,1095,1077,1058,1037,1019,999,980,964,946,927,907,888,869,847,791,766,748,635,617,603,599,602,600,575,572,573,575,575,575,575,575,575,575,575,575,575,575,575,575,575,575,575,575,575,575,575,575,575,575,575,522,525,525,527,529,620,778,868,958,1035,1067,1036,1019,1010,994,969,959,936,919,903,892,869,857,842,819,816,786,774,758,741,689,617,562,556,550,530,533,524,490,490,488,488,488,488,488,488,488,488,488,488,488,488,488,488,488,488,488,488,488,488,488,488,488,488,488,548,545,549,552,556,669,815,909,1014,1094,1110,1081,1074,1057,1038,1014,1000,980,958,944,932,908,895,878,856,843,822,805,792,770,619,612,590,582,570,556,559,539,504,504,502,502,502,502,502,502,502,502,502,502,502,502,502,502,502,502,502,502,502,502,502,502,502,502,502,549,561,563,565,579,686,802,922,1019,1091,1106,1099,1062,1078,1061,1041,1024,1005,977,960,921,911,905,890,843,825,836,806,788,762,745,642,597,573,574,570,553,558,500,500,498,498,498,498,498,498,498,498,498,498,498,498,498,498,498,498,498,498,498,498,498,498,498,498,498,409,410,412,413,414,555,618,689,760,812,822,809,796,783,771,763,750,731,719,706,693,679,674,654,641,628,622,602,597,576,572,559,537,524,458,415,416,417,405,405,405,405,405,405,405,405,405,405,405,405,405,405,405,405,405,405,405,405,405,405,405,405,405,405,405,440,441,442,443,445,488,638,723,798,871,892,877,864,855,842,821,812,793,778,764,751,737,722,708,694,679,665,651,638,623,568,486,475,463,480,446,450,450,380,380,378,378,378,378,378,378,378,378,378,378,378,378,378,378,378,378,378,378,378,378,378,378,378,378,378,446,448,450,445,455,587,665,739,812,864,874,860,847,833,820,830,798,779,766,753,759,726,730,699,686,673,673,658,644,630,616,501,489,468,469,453,454,456,447,447,447,447,447,447,447,447,447,447,447,447,447,447,447,447,447,447,447,447,447,447,447,447,447,447,447,538,541,541,542,545,655,808,902,996,1074,1103,1072,1054,1045,1028,1002,992,968,950,932,922,897,885,870,845,842,810,799,781,764,723,633,586,571,567,546,549,524,490,490,488,488,488,488,488,488,488,488,488,488,488,488,488,488,488,488,488,488,488,488,488,488,488,488,488,748,750,743,728,774,980,1161,1320,1406,1494,1448,1413,1451,1393,1403,1386,1354,1332,1270,1249,1257,1221,1211,1163,1143,1140,1120,1029,991,970,819,881,811,788,784,746,770,730,695,695,693,693,693,693,693,693,693,693,693,693,693,693,693,693,693,693,693,693,693,693,693,693,693,693,693,1076,1080,1085,1123,1207,1625,1849,1988,2069,2099,2088,2107,2024,1991,1959,1975,1894,1917,1874,1796,1812,1774,1698,1666,1675,1601,1607,1535,1495,1459,1399,1190,1227,1106,1094,1092,1124,1098,1107,1107,1107,1107,1107,1107,1107,1107,1107,1107,1107,1107,1107,1107,1107,1107,1107,1107,1107,1107,1107,1107,1107,1107,1107,1107,1107,560,564,564,566,569,693,845,943,1042,1119,1147,1115,1097,1088,1069,1042,1033,1007,988,971,960,935,928,905,880,876,843,832,814,796,733,696,638,594,590,569,573,558,524,524,522,522,522,522,522,522,522,522,522,522,522,522,522,522,522,522,522,522,522,522,522,522,522,522,522,1093,1097,1109,1119,1211,1487,1774,2017,2125,2167,2165,2136,2088,2050,2029,2008,1947,1947,1914,1861,1813,1785,1764,1729,1673,1637,1633,1447,1299,1287,1197,1193,1143,1139,1133,1120,1116,1118,1060,1060,1058,1058,1058,1058,1058,1058,1058,1058,1058,1058,1058,1058,1058,1058,1058,1058,1058,1058,1058,1058,1058,1058,1058,1058,1058,900,910,914,912,955,1156,1446,1623,1730,1805,1787,1752,1736,1746,1706,1646,1647,1575,1582,1556,1500,1493,1452,1407,1390,1364,1359,1211,1186,1130,1058,1009,959,927,940,926,927,924,854,854,852,852,852,852,852,852,852,852,852,852,852,852,852,852,852,852,852,852,852,852,852,852,852,852,852,0,0,0,0,0,0,0,0,0,0,0,0,0,0,0,0,0,0,0,0,0,0,0,0,0,0,0,0,0,0,0,0,0,0,0,0,0,0,0,0,0,0,0,0,0,0,0,0,0,0,0,0,0,0,0,0,0,0,0,0,0,0,0,0,0,552,549,557,560,550,635,824,891,994,1091,1085,1067,1053,1025,1008,997,1012,962,946,930,905,917,878,877,866,846,831,786,697,682,628,628,613,558,547,561,558,531,511,511,511,511,511,511,511,511,511,511,511,511,511,511,511,511,511,511,511,511,511,511,511,511,511,511,511,903,899,909,896,997,1258,1511,1589,1714,1766,1790,1747,1736,1704,1678,1622,1602,1565,1558,1515,1549,1452,1425,1398,1389,1361,1334,1285,1184,1140,974,1005,961,915,903,899,900,835,809,809,809,809,809,809,809,809,809,809,809,809,809,809,809,809,809,809,809,809,809,809,809,809,809,809,809,955,950,961,962,1121,1461,1719,1885,1988,2029,2017,1996,1944,1910,1875,1839,1808,1757,1732,1697,1665,1626,1588,1555,1518,1482,1385,1350,1315,1280,1240,1092,1010,986,971,964,976,974,956,956,956,956,956,956,956,956,956,956,956,956,956,956,956,956,956,956,956,956,956,956,956,956,956,956,956,739,741,744,747,760,872,1099,1275,1400,1471,1470,1447,1424,1401,1378,1355,1332,1307,1284,1261,1238,1215,1192,1168,1145,1140,1117,1075,1052,999,822,846,784,765,767,759,752,754,739,738,733,748,738,738,738,738,738,738,738,738,738,738,738,738,738,738,738,738,738,738,738,738,738,738,738,873,875,893,909,968,1410,1665,1877,1982,1963,1976,1941,1906,1837,1800,1794,1690,1719,1619,1617,1608,1586,1533,1469,1401,1429,1383,1346,1285,1221,969,980,919,921,868,908,905,892,891,891,891,891,891,891,891,891,891,891,891,891,891,891,891,891,891,891,891,891,891,891,891,891,891,891,891,754,756,759,763,777,839,1127,1309,1434,1506,1504,1480,1456,1432,1408,1384,1361,1336,1312,1288,1265,1241,1216,1192,1168,1163,1139,1097,1072,932,870,853,800,781,781,774,760,763,749,738,737,739,749,749,749,749,749,749,749,749,749,749,749,749,749,749,749,749,749,749,749,749,749,749,749,827,836,839,843,871,1089,1321,1476,1589,1651,1664,1631,1611,1580,1558,1530,1504,1473,1447,1420,1391,1374,1329,1312,1292,1271,1244,1209,1186,1137,1021,922,873,864,842,839,838,786,766,766,764,766,766,766,766,766,766,766,766,766,766,766,766,766,766,766,766,766,766,766,766,766,766,766,766,747,763,771,774,809,1152,1399,1503,1617,1697,1657,1628,1598,1567,1537,1534,1526,1437,1477,1434,1411,1354,1347,1273,1277,1210,1180,1177,1144,1111,1061,892,838,775,760,760,775,777,769,769,769,769,769,769,769,769,769,769,769,769,769,769,769,769,769,769,769,769,769,769,769,769,769,769,769,432,433,435,436,438,512,635,709,781,854,866,853,840,827,819,800,787,773,759,745,731,718,704,702,676,667,654,635,621,608,594,517,512,460,455,446,447,423,404,404,401,404,404,404,404,404,404,404,404,404,404,404,404,404,404,404,404,404,404,404,404,404,404,404,404,435,436,438,439,431,516,643,692,764,866,863,848,834,816,801,793,780,761,751,739,720,731,697,702,691,674,660,624,615,601,584,523,511,444,433,443,445,432,412,412,412,412,412,412,412,412,412,412,412,412,412,412,412,412,412,412,412,412,412,412,412,412,412,412,412,574,576,577,577,591,697,873,961,1030,1105,1125,1111,1095,1080,1072,1069,1051,1032,1015,994,983,951,934,915,898,879,859,828,801,788,646,628,612,598,585,580,584,557,532,532,532,532,532,532,532,532,532,532,532,532,532,532,532,532,532,532,532,532,532,532,532,532,532,532,532,626,626,628,628,650,835,994,1059,1172,1244,1256,1237,1216,1196,1177,1157,1138,1117,1097,1074,1100,1035,1014,993,973,954,933,918,899,880,740,721,674,649,637,632,635,573,547,547,547,547,547,547,547,547,547,547,547,547,547,547,547,547,547,547,547,547,547,547,547,547,547,547,547,302,303,304,305,304,325,399,498,550,601,618,608,598,588,578,568,558,548,539,529,519,509,499,489,479,469,459,449,440,396,389,380,371,362,309,305,306,306,288,286,284,288,288,288,288,288,288,288,288,288,288,288,288,288,288,288,288,288,288,288,288,288,288,288,288,666,661,669,671,706,990,1155,1305,1422,1506,1469,1442,1415,1388,1361,1334,1307,1269,1254,1226,1199,1172,1168,1118,1091,1064,1037,1009,983,955,929,921,758,721,679,671,682,679,682,682,682,682,682,682,682,682,682,682,682,682,682,682,682,677,682,682,682,682,679,682,682,682,682,682,682,758,747,755,769,792,979,1139,1325,1451,1503,1511,1490,1469,1444,1406,1396,1358,1334,1310,1285,1274,1238,1224,1190,1177,1141,1117,1093,1080,1043,1004,967,884,777,760,771,758,757,749,749,749,749,749,749,749,749,749,749,749,749,749,749,749,749,749,749,749,749,749,749,749,749,749,749,749,808,793,806,796,823,1021,1181,1396,1499,1568,1593,1560,1540,1519,1479,1471,1428,1418,1393,1368,1316,1318,1294,1238,1226,1210,1192,1159,1142,974,874,924,868,825,813,802,805,807,793,783,785,793,793,793,793,793,793,793,793,793,793,793,793,793,793,793,793,793,793,793,793,793,793,793,793,915,893,927,937,977,1236,1499,1650,1773,1784,1771,1753,1766,1736,1695,1650,1654,1593,1591,1568,1533,1508,1431,1458,1430,1357,1353,1295,1209,1191,1086,1077,981,950,907,904,938,909,930,928,930,931,932,930,941,945,927,931,935,932,938,938,939,942,945,943,942,939,940,938,944,944,938,945,938,314,315,315,316,317,414,469,524,579,629,640,629,619,609,599,588,578,568,557,547,537,528,517,507,497,486,476,466,456,445,435,425,414,404,394,318,319,320,315,330,317,321,334,320,333,321,318,317,319,320,315,320,320,321,317,320,339,320,338,321,319,340,315,320,319,180,181,181,182,224,232,260,290,320,348,364,358,353,347,341,335,330,324,319,313,308,302,295,290,284,279,273,268,262,257,250,245,239,234,228,224,225,225,171,172,171,172,173,173,174,172,173,174,172,174,173,177,177,175,176,176,177,181,177,173,180,174,174,177,173,75,93,93,93,93,95,107,121,133,146,157,154,151,149,146,144,141,139,136,134,132,128,126,124,122,118,116,114,111,108,106,103,101,99,96,94,94,94,59,59,60,59,60,58,58,59,59,59,59,59,59,59,59,59,58,59,59,59,59,58,59,59,58,58,58,474,464,459,460,465,501,684,763,843,914,939,924,909,880,880,879,850,834,806,805,776,761,759,732,729,715,718,673,658,643,621,621,504,491,467,487,464,449,437,434,433,438,437,442,439,445,436,445,442,439,444,446,446,443,444,446,446,443,442,442,443,446,441,441,441,486,487,484,490,495,644,724,801,880,932,939,927,917,896,883,869,854,840,826,811,798,784,770,766,741,740,724,699,685,682,648,633,636,593,528,493,495,495,475,473,468,474,467,466,470,476,474,491,479,477,478,476,482,473,493,473,475,480,479,477,480,486,477,508,479,199,199,200,201,202,256,290,323,356,389,404,398,391,386,379,372,366,359,354,347,341,334,328,322,315,309,302,297,290,283,277,271,265,258,251,202,203,203,186,179,178,179,180,182,180,185,179,181,180,179,180,183,182,182,184,183,181,181,185,185,181,182,181,184,182,494,495,496,498,505,672,765,852,957,998,1004,991,970,959,932,926,900,885,869,866,837,821,806,800,774,772,753,727,710,696,678,663,647,614,504,501,503,504,503,490,494,497,494,503,494,512,496,510,496,491,495,496,501,513,512,499,497,499,498,519,496,528,493,510,494,195,195,196,197,197,250,282,314,347,380,398,392,386,379,372,367,360,354,347,341,335,328,322,315,310,303,297,290,284,277,270,267,258,253,246,198,244,245,171,168,171,172,171,171,170,172,169,174,172,171,172,173,177,175,176,175,172,173,173,172,172,174,170,170,170,288,288,293,293,294,329,383,466,515,540,559,551,545,525,530,537,517,496,510,500,491,488,473,427,454,445,436,426,418,403,399,303,370,336,283,322,323,280,260,268,267,269,270,269,265,271,263,276,266,264,268,270,281,286,275,271,270,266,275,272,271,273,265,265,265,1204,1207,1215,1256,1397,1837,2127,2262,2341,2388,2348,2311,2273,2236,2199,2162,2124,2084,2046,2013,1975,1938,1900,1863,1878,1789,1752,1585,1541,1341,1311,1309,1294,1233,1223,1222,1224,1234,1227,1231,1234,1242,1274,1254,1275,1266,1252,1278,1248,1257,1254,1247,1265,1272,1259,1270,1255,1250,1243,1264,1257,1268,1318,1262,1251,277,278,279,280,281,297,399,446,492,540,565,555,547,537,528,519,510,504,495,486,477,467,459,449,441,429,423,414,404,395,386,307,301,294,287,282,283,284,237,238,238,241,242,240,239,241,238,243,241,241,239,242,244,244,245,242,241,240,240,241,239,243,237,237,237,1030,1014,1019,1025,1113,1369,1642,1842,1953,2005,2012,1979,1947,1896,1886,1849,1820,1786,1734,1722,1694,1639,1631,1578,1567,1511,1521,1455,1387,1252,1152,1115,1057,1045,1026,1039,1030,1009,997,994,993,998,997,1002,999,1005,996,1005,1002,999,1004,1006,1006,1003,1004,1006,1006,1003,1002,1002,1003,1006,1001,1001,1001,638,642,641,636,648,735,961,1069,1187,1229,1285,1261,1245,1222,1201,1182,1160,1142,1128,1107,1086,1070,1045,1023,1003,988,954,940,918,775,778,739,689,672,656,648,650,654,605,599,601,607,613,609,607,614,615,612,617,613,614,618,617,621,623,616,610,616,614,617,615,619,613,613,613,498,500,501,503,509,607,751,838,926,998,1005,988,973,957,941,925,909,893,877,861,844,829,812,797,781,765,749,733,717,714,673,656,566,521,509,505,507,508,487,488,486,497,486,495,490,502,494,493,494,489,494,493,496,500,496,498,495,494,499,494,494,498,497,503,501,0,0,0,0,0,0,0,0,0,0,0,0,0,0,0,0,0,0,0,0,0,0,0,0,0,0,0,0,0,0,0,0,0,0,0,0,0,0,0,0,0,0,0,0,0,0,0,0,0,0,0,0,0,0,0,0,0,0,0,0,0,0,0,0,0,586,599,587,594,591,638,863,1001,1099,1127,1138,1133,1091,1074,1056,1035,1049,1001,983,1008,950,971,934,936,894,897,881,858,822,837,818,802,619,625,597,575,605,577,553,548,549,553,557,557,560,551,561,561,570,559,584,577,598,560,557,586,568,589,556,564,594,564,564,564,564,825,828,830,835,875,1120,1269,1459,1576,1646,1644,1624,1592,1566,1540,1519,1488,1463,1436,1410,1384,1358,1332,1306,1280,1254,1228,1202,1175,1150,1096,1011,893,856,842,839,841,844,827,815,824,827,824,831,826,837,841,831,833,829,840,841,841,842,832,830,831,837,830,829,830,836,836,836,836,845,866,833,853,889,1121,1321,1505,1627,1673,1662,1636,1611,1583,1558,1531,1504,1511,1433,1445,1399,1372,1366,1336,1317,1265,1258,1230,1200,1121,1087,952,898,884,843,872,850,856,839,837,838,838,842,844,844,849,839,847,838,836,840,846,845,841,847,845,843,842,846,843,848,842,845,845,843,1034,1042,1052,1064,1147,1478,1677,1886,2037,2060,2050,2050,1980,1954,1921,1882,1857,1832,1793,1761,1729,1686,1670,1627,1601,1573,1523,1503,1415,1186,1170,1113,1087,1081,1052,1061,1047,1039,1023,1019,1021,1028,1054,1025,1054,1047,1044,1040,1068,1064,1071,1077,1082,1072,1071,1028,1047,1058,1066,1070,1038,1065,1065,1065,1065,860,880,848,870,908,1148,1352,1541,1662,1706,1695,1667,1644,1614,1588,1560,1533,1539,1461,1471,1424,1398,1390,1359,1340,1287,1281,1252,1218,1125,1068,968,912,900,858,887,858,864,851,846,851,849,854,855,855,860,850,857,850,850,851,858,856,852,857,856,854,853,857,853,859,853,857,857,855,613,615,616,618,655,795,935,1037,1127,1185,1193,1178,1162,1144,1130,1113,1099,1083,1066,1035,1017,998,980,962,943,926,907,889,873,853,838,812,725,689,627,636,625,618,563,570,565,575,583,585,574,579,571,580,577,572,586,593,588,586,581,580,583,578,591,582,583,594,593,593,593,933,936,959,958,1085,1496,1734,1851,2003,2021,2015,2009,1943,1907,1872,1835,1800,1765,1783,1745,1647,1656,1604,1585,1549,1470,1471,1432,1360,1346,1226,1018,999,981,952,972,957,962,951,961,952,960,978,967,986,996,980,1008,983,986,992,978,979,988,987,974,991,991,977,986,980,1018,991,992,981,442,443,445,446,450,597,677,754,832,885,892,880,870,849,836,821,807,793,778,764,751,737,722,719,694,693,676,652,638,624,609,595,581,538,452,449,450,451,448,424,425,428,424,444,426,449,431,450,429,425,426,426,427,451,473,429,428,426,428,450,425,472,425,456,427,266,246,247,248,296,314,363,405,448,490,503,495,487,479,470,463,455,446,438,431,422,414,407,398,390,382,374,366,358,349,342,336,325,317,310,298,298,306,231,231,232,232,233,234,234,235,235,236,237,237,238,238,239,239,241,242,242,243,243,243,244,244,245,245,246,303,306,306,308,309,401,453,506,551,606,614,605,591,583,574,565,556,547,539,526,520,510,504,491,481,468,462,449,442,430,423,413,401,393,383,374,374,380,304,300,301,308,306,306,305,321,298,308,306,304,304,308,306,304,305,307,307,307,316,303,303,304,303,305,301,408,402,405,406,412,458,618,653,692,732,756,748,740,733,725,716,709,700,692,685,679,671,657,643,660,636,608,600,608,577,541,532,503,452,416,406,415,383,359,368,360,369,379,378,369,376,366,375,375,368,372,373,371,374,378,374,379,374,373,378,373,382,376,379,376,476,459,460,462,479,600,688,767,854,919,928,914,898,884,869,854,840,825,809,797,779,765,750,737,733,706,692,676,661,645,643,629,533,479,468,479,466,445,428,426,426,427,437,431,435,442,432,433,434,434,436,439,438,444,439,439,441,438,441,438,436,443,451,443,454,853,855,857,867,968,1278,1506,1654,1812,1833,1829,1827,1763,1730,1698,1665,1632,1597,1588,1533,1490,1457,1450,1401,1359,1326,1303,1270,1249,1215,1157,1027,898,880,869,869,873,878,856,865,864,864,895,879,903,883,879,926,877,882,882,869,879,887,885,875,886,876,866,886,878,907,896,892,881,900,897,900,908,993,1223,1464,1634,1732,1784,1780,1751,1723,1692,1664,1636,1606,1577,1549,1534,1493,1465,1436,1408,1398,1361,1323,1302,1266,1142,1115,1087,942,922,911,908,911,904,886,886,891,894,900,897,900,907,904,900,902,905,920,926,922,931,919,905,934,911,906,903,912,917,932,912,923,915,893,927,937,977,1236,1499,1650,1773,1784,1771,1753,1766,1736,1695,1650,1654,1593,1591,1568,1533,1508,1431,1458,1430,1357,1353,1295,1209,1191,1086,1077,981,950,907,904,938,909,930,928,930,931,932,930,941,945,927,931,935,932,938,938,939,942,945,943,942,939,940,938,944,944,938,945,938,1453,1455,1453,1621,1938,2368,2539,2700,2738,2811,2780,2746,2714,2648,2622,2592,2538,2444,2459,2354,2371,2317,2224,2196,2088,1772,1778,1744,1724,1619,1610,1541,1547,1524,1458,1502,1473,1449,1457,1457,1457,1457,1457,1457,1457,1457,1457,1457,1457,1457,1457,1457,1457,1457,1457,1457,1457,1457,1457,1457,1457,1457,1457,1457,1457,468,437,438,472,491,624,700,745,796,851,898,880,873,819,806,845,815,779,830,752,778,765,710,696,683,704,654,676,697,646,635,621,584,529,446,471,472,426,426,426,426,426,426,426,426,426,426,426,426,426,426,426,426,426,426,426,426,426,426,426,426,426,426,426,426,766,738,741,772,844,1028,1206,1303,1396,1450,1503,1448,1431,1379,1357,1386,1348,1303,1335,1249,1268,1253,1185,1157,1139,1154,1091,1100,1115,1054,984,854,864,792,747,775,776,720,723,727,731,732,732,733,723,732,731,727,731,731,729,729,729,729,729,729,729,729,729,729,729,729,729,729,729,663,633,634,669,707,870,1030,1111,1189,1253,1285,1260,1247,1195,1176,1209,1171,1130,1168,1084,1103,1086,1026,1003,986,999,945,958,970,915,845,778,756,684,644,669,670,608,610,616,618,619,617,617,610,618,616,614,616,617,611,611,611,611,611,611,611,611,611,611,611,611,611,611,611,1017,988,990,1036,1203,1483,1659,1819,1900,1937,1959,1924,1898,1832,1804,1826,1776,1724,1755,1662,1670,1640,1569,1548,1516,1511,1446,1463,1413,1167,1154,1100,1113,1085,1000,1029,1013,962,962,962,962,962,962,962,962,962,962,962,962,962,962,962,962,962,962,962,962,962,962,962,962,962,962,962,962,691,693,698,702,715,926,1056,1150,1256,1269,1294,1277,1296,1245,1228,1183,1195,1179,1162,1146,1128,1100,1096,1044,1027,1047,992,973,954,936,838,815,788,712,707,705,720,693,675,670,675,685,678,684,682,685,683,686,687,683,680,685,684,683,688,688,685,687,688,688,688,688,688,688,688,787,770,760,806,858,1061,1254,1387,1443,1504,1544,1519,1499,1434,1413,1432,1389,1355,1395,1305,1314,1294,1237,1215,1190,1201,1143,1151,1140,1076,922,926,845,810,780,795,803,735,730,734,738,739,741,739,736,738,738,735,736,738,735,734,734,734,734,734,734,734,734,734,734,734,734,734,734,663,665,671,674,761,909,1035,1123,1241,1275,1275,1257,1338,1219,1199,1180,1162,1144,1126,1102,1088,1070,1069,1031,1012,1032,974,955,937,918,899,856,771,686,679,677,679,649,637,638,637,650,641,647,642,648,648,647,647,646,650,647,647,654,654,654,656,649,650,658,655,660,660,660,659,781,752,755,787,833,1054,1236,1338,1431,1484,1510,1480,1463,1411,1389,1416,1378,1331,1362,1278,1294,1277,1211,1181,1163,1177,1093,1104,1084,1033,941,865,840,805,761,791,774,720,719,727,731,730,730,729,723,728,731,727,728,730,725,729,729,729,729,729,729,729,729,729,729,729,729,729,729,767,738,741,775,827,1011,1200,1342,1408,1446,1481,1456,1441,1377,1355,1382,1340,1300,1341,1287,1269,1246,1190,1168,1146,1148,1089,1110,1122,1060,875,861,808,789,748,794,777,752,737,737,737,737,737,737,737,737,737,737,737,737,737,737,737,737,737,737,737,737,737,737,737,737,737,737,737,1187,1206,1229,1250,1447,1814,1980,2153,2251,2264,2287,2252,2218,2183,2148,2075,2048,2045,1982,1936,1929,1870,1835,1801,1767,1773,1599,1575,1542,1308,1288,1253,1273,1252,1264,1257,1205,1219,1244,1245,1259,1271,1270,1271,1272,1267,1266,1270,1270,1270,1270,1270,1270,1270,1270,1270,1270,1270,1270,1270,1270,1270,1270,1270,1270,864,837,838,875,909,1186,1385,1505,1596,1645,1667,1636,1615,1563,1539,1560,1522,1472,1500,1413,1429,1409,1338,1307,1286,1297,1211,1220,1197,1001,1000,958,945,891,846,876,840,790,787,796,802,799,799,798,792,797,800,797,795,799,792,798,798,798,798,798,798,798,798,798,798,798,798,798,798,1569,1529,1567,1684,2019,2551,2776,2910,2960,2980,2979,2911,2856,2804,2777,2758,2716,2629,2644,2536,2359,2327,2124,1919,1995,1899,1805,1846,1782,1714,1712,1659,1671,1652,1561,1580,1573,1522,1522,1522,1522,1522,1522,1522,1522,1522,1522,1522,1522,1522,1522,1522,1522,1522,1522,1522,1522,1522,1522,1522,1522,1522,1522,1522,1522,1228,1192,1205,1256,1420,1778,2105,2240,2309,2343,2292,2309,2258,2222,2182,2167,2119,2051,2098,2004,1985,1965,1886,1828,1805,1810,1657,1618,1507,1378,1388,1329,1290,1255,1179,1244,1208,1153,1149,1159,1171,1170,1167,1172,1165,1166,1176,1169,1170,1175,1168,1175,1175,1175,1175,1175,1175,1175,1175,1175,1175,1175,1175,1175,1175,952,923,926,983,1130,1405,1548,1697,1781,1803,1829,1798,1795,1712,1703,1726,1665,1610,1656,1555,1566,1537,1468,1439,1409,1436,1357,1376,1311,1155,1110,1059,1042,977,951,987,952,896,896,896,896,896,896,896,896,896,896,896,896,896,896,896,896,896,896,896,896,896,896,896,896,896,896,896,896,600,571,573,611,612,781,919,998,1041,1119,1160,1140,1127,1069,1052,1085,1035,1014,1059,976,997,980,925,908,889,906,853,870,871,816,752,680,665,652,586,596,613,549,551,556,559,559,559,559,551,559,557,555,557,558,552,552,552,552,552,552,552,552,552,552,552,552,552,552,552,0,0,0,0,0,0,0,0,0,0,0,0,0,0,0,0,0,0,0,0,0,0,0,0,0,0,0,0,0,0,0,0,0,0,0,0,0,0,0,0,0,0,0,0,0,0,0,0,0,0,0,0,0,0,0,0,0,0,0,0,0,0,0,0,0,462,464,465,467,469,621,701,782,862,920,927,913,898,884,869,854,840,826,810,796,782,767,753,738,723,709,695,679,665,651,636,622,623,485,473,469,554,471,477,469,472,476,482,486,484,511,484,474,480,491,486,476,477,486,484,479,479,483,477,483,480,486,485,490,483,1412,1373,1386,1495,1828,2194,2424,2581,2617,2665,2666,2623,2601,2509,2493,2473,2419,2370,2376,2253,2266,2240,2134,2114,2086,2030,1925,1651,1592,1539,1549,1507,1478,1464,1391,1413,1418,1375,1375,1375,1375,1375,1375,1375,1375,1375,1375,1375,1375,1375,1375,1375,1375,1375,1375,1375,1375,1375,1375,1375,1375,1375,1375,1375,1375,707,710,711,714,766,1016,1160,1277,1373,1445,1400,1397,1375,1371,1331,1312,1287,1265,1243,1212,1207,1218,1155,1133,1111,1089,1067,1045,1021,1001,966,815,765,747,734,718,720,705,717,711,715,727,707,711,720,714,727,711,717,736,749,734,748,749,747,730,729,722,749,746,749,749,745,749,742,1428,1388,1402,1514,1858,2230,2459,2614,2649,2697,2696,2653,2630,2538,2522,2501,2446,2409,2402,2278,2290,2263,2156,2137,2093,2047,1873,1668,1608,1555,1564,1523,1494,1479,1406,1421,1428,1383,1383,1383,1383,1383,1383,1383,1383,1383,1383,1383,1383,1383,1383,1383,1383,1383,1383,1383,1383,1383,1383,1383,1383,1383,1383,1383,1383,418,419,420,421,423,546,599,652,705,745,754,744,734,724,716,706,696,687,677,667,657,649,639,628,618,608,598,589,579,569,559,550,540,530,495,423,423,489,408,412,411,415,416,418,417,418,415,417,418,414,416,418,418,418,418,418,418,418,418,418,416,418,418,418,418,859,861,863,879,887,1253,1425,1574,1658,1716,1704,1678,1650,1641,1598,1571,1545,1518,1490,1456,1416,1386,1386,1362,1332,1308,1266,1236,1206,1199,1135,1002,964,883,867,870,855,846,848,843,848,849,861,868,875,867,864,867,871,873,864,859,867,877,879,863,863,865,859,868,863,867,863,878,859,651,653,656,657,676,878,1009,1103,1209,1222,1247,1230,1249,1197,1181,1136,1147,1131,1114,1098,1081,1032,1049,997,980,999,944,926,909,891,874,858,687,674,663,660,680,643,627,622,627,635,628,634,632,635,633,635,639,632,629,635,634,629,636,640,635,636,637,637,640,637,630,640,639,646,615,616,649,715,889,1004,1081,1153,1207,1248,1231,1210,1153,1135,1168,1131,1091,1135,1052,1072,1052,993,973,953,969,915,930,946,889,824,792,754,709,625,651,653,617,617,617,617,617,617,617,617,617,617,617,617,617,617,617,617,617,617,617,617,617,617,617,617,617,617,617,617,497,496,502,504,511,667,741,818,897,937,942,929,916,918,892,875,862,849,836,822,809,794,794,781,763,739,728,715,698,687,694,658,615,584,493,505,507,486,486,486,486,486,486,486,486,486,486,486,486,486,486,486,486,486,486,486,486,486,486,486,486,486,486,486,486,416,417,418,419,422,552,611,676,731,805,798,770,759,748,737,727,716,705,694,683,699,662,651,639,628,617,629,595,584,573,562,551,540,501,494,421,494,423,405,411,410,412,410,409,416,416,416,416,411,415,411,417,417,417,417,417,416,415,417,417,417,417,417,417,417,1018,989,992,1048,1226,1486,1671,1824,1905,1943,1965,1929,1902,1838,1828,1828,1781,1729,1761,1666,1674,1644,1574,1543,1519,1515,1448,1426,1358,1135,1148,1116,1107,1059,1002,1030,1006,948,948,948,948,948,948,948,948,948,948,948,948,948,948,948,948,948,948,948,948,948,948,948,948,948,948,948,948,738,740,750,747,806,1057,1214,1331,1428,1476,1474,1450,1427,1421,1380,1364,1333,1310,1287,1262,1255,1216,1192,1169,1146,1125,1098,1075,1051,1028,1005,958,840,765,753,749,751,754,753,754,749,772,760,749,758,772,762,774,768,770,765,763,755,755,760,770,755,756,754,755,752,755,763,761,742,1457,1429,1438,1568,1919,2333,2550,2690,2741,2766,2773,2723,2683,2619,2603,2574,2514,2450,2471,2362,2356,2311,2227,2084,2042,2034,1680,1807,1676,1617,1598,1558,1535,1521,1445,1474,1469,1413,1413,1413,1413,1413,1413,1413,1413,1413,1413,1413,1413,1413,1413,1413,1413,1413,1413,1413,1413,1413,1413,1413,1413,1413,1413,1413,1413,1453,1455,1453,1621,1938,2368,2539,2700,2738,2811,2780,2746,2714,2648,2622,2592,2538,2444,2459,2354,2371,2317,2224,2196,2088,1772,1778,1744,1724,1619,1610,1541,1547,1524,1458,1502,1473,1449,1457,1457,1457,1457,1457,1457,1457,1457,1457,1457,1457,1457,1457,1457,1457,1457,1457,1457,1457,1457,1457,1457,1457,1457,1457,1457,1457,1497,1502,1535,1634,1869,2425,2694,2993,3039,3086,3043,3031,2917,2881,2830,2760,2707,2665,2603,2564,2499,2450,2411,2354,2194,2189,1829,1950,1731,1704,1661,1607,1563,1544,1528,1541,1540,1558,1517,1518,1511,1524,1517,1521,1524,1522,1519,1518,1526,1523,1519,1531,1522,1524,1522,1527,1531,1534,1540,1540,1540,1560,1540,1539,1538,630,633,635,637,666,891,1006,1124,1234,1265,1269,1248,1228,1207,1200,1167,1147,1127,1214,1086,1065,1046,1025,1005,984,964,962,958,904,883,880,852,751,657,644,640,655,631,629,628,623,630,634,645,635,644,637,650,633,636,627,633,642,618,631,637,635,635,625,627,637,636,631,633,625,929,935,937,953,1019,1354,1596,1724,1846,1844,1867,1843,1784,1751,1724,1701,1703,1634,1687,1578,1552,1524,1488,1465,1449,1400,1388,1380,1312,1285,1129,1004,1021,958,957,945,952,939,939,941,939,944,940,954,944,949,951,956,943,948,945,951,962,943,953,958,948,951,936,940,948,948,941,944,936,828,828,831,840,904,1193,1399,1526,1643,1653,1670,1656,1595,1600,1542,1518,1524,1465,1515,1410,1383,1357,1333,1309,1280,1254,1245,1233,1174,1146,1126,1015,917,855,854,838,840,826,828,829,826,829,832,841,830,834,840,842,829,834,827,841,846,826,835,841,830,841,832,833,841,834,833,834,826,1179,1184,1187,1201,1385,1850,2063,2219,2291,2316,2307,2272,2222,2205,2164,2127,2093,2055,2120,1979,1944,1921,1883,1845,1806,1760,1717,1718,1490,1457,1301,1310,1231,1216,1200,1180,1197,1170,1169,1162,1169,1177,1172,1187,1173,1184,1181,1184,1176,1176,1171,1176,1181,1166,1179,1182,1174,1181,1170,1167,1175,1175,1168,1174,1166,808,813,800,800,834,1119,1284,1414,1555,1529,1553,1531,1545,1521,1437,1443,1415,1398,1476,1322,1331,1321,1252,1230,1208,1184,1161,1171,1112,1077,1039,1043,869,819,806,803,803,797,791,796,792,794,802,797,801,810,810,802,802,805,804,804,801,805,807,809,804,807,806,807,822,825,826,825,820,964,954,956,1003,1052,1432,1672,1790,1901,1915,1906,1882,1816,1822,1769,1735,1737,1706,1719,1644,1580,1549,1552,1494,1490,1453,1445,1408,1336,1307,1170,1052,1051,998,996,984,967,946,946,949,946,953,953,967,950,956,962,962,950,958,950,963,970,948,957,963,956,968,954,957,964,960,957,958,950,764,771,773,775,800,1084,1238,1395,1495,1534,1526,1503,1485,1461,1436,1411,1386,1362,1413,1314,1290,1264,1240,1215,1190,1161,1138,1151,1094,977,951,947,827,796,784,789,755,757,757,753,753,765,779,779,771,777,773,774,779,780,778,780,779,778,778,781,779,781,776,776,779,779,780,779,778,944,949,954,967,1039,1382,1632,1762,1881,1876,1892,1879,1815,1782,1754,1730,1731,1662,1712,1604,1575,1551,1508,1489,1458,1403,1391,1377,1320,1241,1150,1018,1036,972,972,960,952,935,933,938,930,939,939,953,936,948,947,954,938,942,936,943,948,929,948,946,941,946,936,939,948,946,941,944,936,949,977,955,972,1011,1409,1616,1773,1858,1899,1914,1895,1853,1813,1788,1758,1731,1700,1667,1609,1579,1577,1544,1532,1483,1453,1443,1410,1366,1253,1257,1051,1016,996,980,977,944,943,931,935,938,941,933,938,942,954,947,953,946,942,956,949,955,958,956,956,964,955,952,955,961,985,958,980,975,1010,1021,1016,1022,1077,1424,1670,1881,1921,2009,1985,1954,1922,1892,1848,1826,1796,1764,1732,1730,1670,1637,1599,1577,1608,1524,1493,1452,1170,1348,1137,1092,1110,1039,1028,1077,1044,1038,1031,1033,1034,1034,1039,1039,1034,1041,1035,1035,1039,1040,1038,1040,1039,1038,1038,1041,1039,1041,1040,1036,1039,1039,1040,1039,1038,1026,1032,1034,1065,1143,1525,1799,1925,2042,2033,2048,2028,1965,1929,1902,1875,1874,1801,1846,1739,1707,1677,1634,1612,1576,1524,1509,1493,1352,1257,1143,1106,1122,1055,1055,1044,1018,1005,1000,1007,1001,1008,1008,1022,1005,1017,1016,1024,1005,1011,1003,1012,1017,996,1017,1013,1008,1015,1003,1008,1015,1015,1008,1011,1003,1633,1654,1647,1796,2210,2964,3155,3277,3333,3340,3300,3263,3185,3178,3095,3064,2994,2945,2998,2835,2742,2471,2382,2375,2126,2065,2044,1984,1907,1836,1785,1730,1678,1689,1666,1667,1700,1715,1729,1722,1729,1737,1732,1747,1733,1744,1741,1744,1736,1736,1731,1736,1741,1726,1739,1742,1734,1741,1730,1727,1735,1735,1728,1734,1726,1389,1389,1405,1469,1718,2222,2480,2641,2739,2710,2709,2657,2615,2558,2528,2496,2483,2401,2420,2317,2274,2231,2179,2142,2097,1932,1891,1809,1600,1570,1518,1473,1483,1422,1390,1413,1386,1366,1363,1373,1372,1377,1376,1395,1382,1386,1392,1396,1380,1387,1376,1389,1395,1370,1386,1389,1382,1391,1379,1384,1391,1391,1384,1387,1379,912,918,913,916,957,1313,1529,1819,1934,1940,1927,1906,1882,1848,1779,1755,1722,1708,1673,1639,1577,1547,1527,1486,1441,1422,1391,1364,1350,1298,1027,1031,969,950,943,939,931,941,918,917,919,919,924,922,919,926,920,920,924,925,923,925,924,923,923,926,924,926,925,921,924,924,925,924,923,768,772,759,780,797,1100,1283,1395,1515,1537,1529,1512,1459,1464,1412,1388,1390,1365,1418,1316,1267,1243,1243,1195,1193,1169,1163,1131,1095,1070,1062,916,902,796,795,781,781,767,768,770,766,771,774,782,771,775,786,783,770,775,768,782,788,767,776,782,771,783,773,775,783,776,775,776,768,513,515,516,561,526,699,792,931,1032,1071,1084,1068,1051,1034,1017,1004,996,972,950,888,915,900,891,867,851,845,838,804,740,723,707,740,551,573,560,551,522,521,523,519,523,527,527,519,530,531,525,526,528,527,531,527,530,533,532,533,529,530,530,532,531,529,531,534,531,0,0,0,0,0,0,0,0,0,0,0,0,0,0,0,0,0,0,0,0,0,0,0,0,0,0,0,0,0,0,0,0,0,0,0,0,0,0,0,0,0,0,0,0,0,0,0,0,0,0,0,0,0,0,0,0,0,0,0,0,0,0,0,0,0,1463,1455,1470,1540,1650,2323,2587,2891,2943,2996,2928,2938,2828,2779,2727,2689,2626,2577,2538,2489,2427,2378,2328,2279,2224,2122,1968,1910,1700,1703,1609,1563,1516,1496,1475,1483,1488,1509,1465,1476,1464,1462,1471,1477,1464,1473,1468,1470,1472,1471,1473,1476,1474,1474,1480,1478,1488,1474,1483,1488,1475,1479,1478,1477,1476,351,351,352,354,355,453,517,573,628,676,697,690,675,664,653,642,631,620,611,598,590,576,568,554,543,532,521,510,501,491,480,470,460,449,429,356,357,358,328,330,330,334,337,341,338,356,340,336,342,339,333,337,338,357,336,335,339,339,336,336,336,367,332,338,335,1478,1470,1488,1538,1720,2359,2621,2924,2975,3027,2959,2968,2857,2807,2756,2717,2653,2602,2562,2514,2452,2401,2351,2301,2245,2122,1946,1888,1716,1670,1624,1577,1531,1511,1483,1492,1498,1514,1469,1463,1474,1479,1472,1485,1469,1473,1477,1478,1479,1482,1484,1487,1485,1492,1480,1489,1488,1485,1488,1488,1486,1507,1483,1482,1481,519,521,522,523,531,701,788,875,961,1010,1019,1004,987,972,957,941,926,910,996,880,864,849,832,817,801,786,771,755,740,724,709,693,554,541,531,526,528,529,523,522,522,534,532,565,540,559,541,539,596,542,545,535,540,602,538,539,544,545,532,535,542,549,533,602,548,491,493,494,495,479,564,730,835,913,974,989,973,937,922,907,892,876,882,865,831,816,817,804,788,773,734,718,725,711,689,678,641,600,523,494,488,489,480,459,458,458,462,470,471,463,461,467,465,468,465,469,463,467,467,462,468,463,463,459,468,463,466,471,490,458,779,799,758,761,795,1072,1233,1367,1508,1481,1506,1484,1505,1482,1390,1395,1344,1350,1428,1274,1284,1277,1205,1183,1160,1136,1114,1124,1067,1044,1021,982,927,780,767,765,784,747,743,748,744,744,752,747,751,760,760,751,754,754,753,754,751,751,755,758,754,756,752,754,759,777,772,764,757,809,810,813,821,882,1163,1361,1496,1585,1615,1641,1588,1562,1536,1510,1485,1458,1433,1518,1381,1355,1335,1303,1278,1251,1226,1219,1207,1148,1123,1066,981,900,836,838,820,836,810,808,812,810,824,819,827,818,823,835,828,824,821,821,822,844,807,815,820,819,825,812,811,819,819,812,818,810,599,602,604,606,623,837,948,1058,1167,1200,1205,1185,1167,1149,1128,1108,1087,1071,1152,1032,1013,994,975,955,936,917,898,910,860,841,838,803,725,625,613,610,623,612,599,604,601,609,610,618,603,609,607,600,610,611,605,611,617,598,612,616,609,613,602,605,613,615,607,614,606,517,518,530,522,531,709,804,898,988,1069,1045,1028,1012,994,977,961,972,941,1013,894,877,873,844,828,810,794,777,818,744,728,710,694,645,540,536,524,526,528,524,525,518,525,524,538,523,532,531,538,525,527,520,526,532,513,526,529,525,529,519,521,529,529,522,529,521,1010,1014,1017,1023,1077,1466,1698,2028,2114,2179,2125,2163,2050,2014,1975,1934,1900,1858,1824,1800,1746,1711,1666,1652,1598,1591,1534,1489,1470,1289,1226,1104,1073,1053,1041,1035,1040,1057,1016,1010,1009,1011,1014,1015,1010,1014,1011,1010,1012,1015,1014,1016,1015,1015,1014,1017,1016,1018,1015,1016,1014,1016,1016,1015,1014,370,369,371,379,373,482,554,619,683,734,744,733,721,720,731,686,684,663,651,639,636,616,603,591,588,568,556,558,533,521,509,498,486,387,436,374,375,376,362,361,361,362,367,368,361,368,362,364,366,367,363,368,369,368,366,369,369,370,369,371,369,370,365,367,368,1470,1486,1505,1559,1827,2376,2647,2920,2990,3046,2979,2996,2874,2821,2768,2716,2666,2626,2563,2524,2460,2412,2351,2317,2255,2222,2077,1971,1713,1663,1639,1592,1551,1517,1507,1510,1509,1532,1488,1488,1489,1494,1493,1500,1495,1496,1487,1492,1494,1495,1490,1490,1497,1496,1494,1498,1490,1497,1498,1513,1503,1536,1498,1497,1496,1497,1502,1535,1634,1869,2425,2694,2993,3039,3086,3043,3031,2917,2881,2830,2760,2707,2665,2603,2564,2499,2450,2411,2354,2194,2189,1829,1950,1731,1704,1661,1607,1563,1544,1528,1541,1540,1558,1517,1518,1511,1524,1517,1521,1524,1522,1519,1518,1526,1523,1519,1531,1522,1524,1522,1527,1531,1534,1540,1540,1540,1560,1540,1539,1538,315,316,317,318,320,370,471,528,572,633,644,633,623,614,616,592,581,572,562,552,541,531,520,510,500,489,479,468,458,457,437,427,418,407,404,320,321,322,315,315,319,321,315,325,320,324,319,320,322,319,317,317,320,322,320,321,320,322,327,322,317,318,321,319,315,997,992,1009,1004,1089,1482,1699,1878,1929,1994,1989,1965,1895,1870,1839,1829,1787,1787,1738,1706,1681,1642,1590,1547,1541,1509,1491,1448,1323,1324,1222,1122,1096,1035,1017,1019,994,978,982,975,980,988,995,997,1008,1002,996,1003,1003,1002,1007,999,997,1010,1007,1005,1004,1002,997,998,995,1004,1001,1004,989,687,684,692,722,721,971,1133,1291,1315,1403,1375,1382,1386,1307,1285,1263,1241,1248,1199,1167,1181,1180,1112,1081,1068,1090,1064,1025,1003,981,937,832,805,713,701,714,693,673,676,670,670,678,686,686,698,690,684,691,690,689,694,686,685,701,695,692,695,691,682,692,700,693,690,693,681,805,805,817,820,857,1165,1336,1484,1554,1626,1622,1598,1544,1530,1518,1491,1454,1462,1413,1377,1365,1341,1308,1273,1255,1235,1209,1183,1168,1142,1030,880,860,848,828,842,801,771,775,770,771,779,787,789,797,791,785,790,791,791,798,792,787,802,795,794,800,794,785,797,802,793,790,793,781,431,432,433,435,438,579,656,733,810,863,874,860,845,832,818,804,790,776,762,749,734,720,707,693,678,664,651,636,622,609,595,580,567,553,441,437,439,423,417,416,418,420,420,418,420,418,420,416,420,418,418,423,423,423,420,420,442,422,489,437,423,490,420,422,421,945,933,936,942,1017,1359,1533,1779,1783,1806,1870,1777,1875,1721,1694,1789,1633,1609,1581,1553,1525,1498,1476,1442,1413,1382,1355,1329,1289,1264,1026,1020,973,953,989,938,924,961,947,951,953,968,958,971,950,961,967,958,959,955,957,970,957,956,967,966,962,966,957,974,968,1010,973,1003,969,672,651,669,656,696,939,1060,1179,1284,1329,1331,1310,1260,1268,1251,1226,1188,1199,1162,1141,1120,1099,1062,1056,1020,1013,993,970,961,941,896,828,752,691,668,675,677,662,664,664,664,666,675,678,676,685,673,693,698,691,682,672,669,675,677,680,672,671,668,668,662,671,672,670,655,965,941,944,962,1030,1413,1600,1845,1829,1870,1932,1850,1936,1779,1749,1833,1676,1651,1621,1601,1574,1532,1499,1484,1443,1420,1380,1354,1322,1294,1107,1080,1007,966,1002,952,947,987,966,966,970,986,973,985,966,978,994,975,973,972,974,989,975,974,984,982,981,983,974,990,982,1027,988,1017,984,702,699,707,738,741,997,1168,1330,1354,1439,1423,1417,1420,1342,1318,1296,1273,1279,1228,1196,1210,1209,1138,1107,1093,1115,1089,1049,1026,1003,949,765,747,729,717,730,710,673,676,670,670,678,686,686,698,690,684,691,690,689,694,686,685,701,695,692,695,691,682,692,700,693,690,693,681,875,868,871,852,905,1208,1460,1596,1636,1743,1757,1717,1611,1576,1558,1582,1587,1542,1453,1426,1461,1372,1346,1320,1298,1267,1295,1244,1250,1208,1110,1056,884,864,882,889,854,838,843,836,846,841,851,847,869,857,847,854,853,854,859,852,850,866,860,860,856,857,845,859,867,856,856,859,847,1648,1659,1748,1829,2153,2743,2998,3184,3180,3195,3210,3111,3118,3010,2957,2955,2854,2853,2754,2700,2658,2592,2412,2052,2197,2105,2027,2061,1844,1893,1801,1738,1708,1685,1718,1674,1678,1711,1703,1733,1727,1730,1757,1735,1741,1771,1739,1735,1751,1722,1750,1757,1756,1780,1760,1757,1767,1747,1758,1752,1740,1754,1746,1784,1728,631,589,594,595,611,834,990,1083,1136,1254,1224,1233,1149,1122,1107,1093,1113,1114,1036,1013,1057,979,955,941,930,903,937,896,896,876,801,789,741,614,603,641,595,582,589,581,581,587,595,593,607,599,591,596,597,595,600,591,592,608,600,595,596,595,587,597,609,598,597,600,588,399,400,402,403,405,535,605,676,746,803,810,797,784,772,759,749,732,720,707,694,680,671,655,642,629,619,603,596,577,567,556,543,525,513,502,405,393,395,395,389,389,395,399,399,390,400,397,496,396,399,395,399,401,391,402,402,391,399,396,401,405,404,399,466,404,487,489,476,492,546,665,754,842,930,981,960,1010,957,941,925,909,894,852,862,845,806,815,798,783,767,776,735,719,704,688,652,656,640,495,519,480,482,505,482,489,482,511,489,500,485,490,495,486,486,487,482,489,487,486,491,509,492,492,493,495,495,567,497,571,497,813,819,824,824,884,1150,1341,1482,1582,1617,1617,1597,1569,1549,1522,1491,1473,1449,1425,1400,1374,1349,1320,1299,1278,1230,1209,1156,1128,1107,955,889,879,853,835,831,805,781,776,783,796,783,814,813,815,811,802,825,826,812,814,789,799,843,808,798,826,796,790,812,811,864,814,824,802,866,868,894,893,956,1289,1465,1638,1706,1751,1747,1721,1684,1640,1651,1622,1575,1585,1535,1502,1480,1459,1395,1382,1340,1329,1314,1274,1177,1239,1116,936,959,910,884,891,858,829,833,833,826,835,843,843,854,846,840,847,847,846,851,843,841,857,851,849,853,850,841,849,858,848,845,848,836,1349,1356,1352,1380,1653,2133,2405,2552,2609,2638,2638,2594,2521,2486,2446,2428,2378,2328,2303,2258,2194,2173,2132,2075,2049,1953,1898,1784,1544,1509,1462,1440,1402,1374,1376,1349,1300,1293,1285,1297,1306,1312,1301,1292,1305,1321,1310,1309,1328,1327,1324,1317,1322,1319,1325,1320,1302,1305,1312,1307,1300,1319,1301,1299,1291,1555,1566,1590,1666,1957,2589,2830,2970,3015,3026,3007,2953,2943,2860,2812,2790,2724,2681,2631,2582,2521,2484,2431,2272,2132,1949,1820,1874,1789,1746,1704,1650,1618,1586,1593,1561,1509,1542,1527,1538,1535,1545,1546,1545,1532,1547,1567,1544,1547,1543,1544,1554,1538,1538,1550,1548,1540,1551,1540,1552,1547,1568,1550,1548,1540,0,0,0,0,0,0,0,0,0,0,0,0,0,0,0,0,0,0,0,0,0,0,0,0,0,0,0,0,0,0,0,0,0,0,0,0,0,0,0,0,0,0,0,0,0,0,0,0,0,0,0,0,0,0,0,0,0,0,0,0,0,0,0,0,0,1483,1471,1494,1564,2044,2585,2878,3045,3082,3053,3055,3006,2919,2923,2867,2756,2746,2670,2641,2601,2560,2447,2400,2330,2291,2096,1934,1744,1696,1686,1630,1600,1549,1503,1495,1515,1502,1508,1500,1508,1512,1521,1543,1538,1569,1543,1533,1557,1549,1550,1550,1536,1544,1564,1541,1535,1557,1561,1550,1547,1552,1578,1541,1556,1532,124,124,124,125,125,155,175,193,213,233,248,244,241,236,233,229,225,221,218,213,210,206,202,198,195,190,187,182,179,175,171,167,164,159,156,153,153,153,106,108,108,111,110,111,108,110,107,114,108,108,110,110,114,116,113,111,112,108,113,113,113,114,110,112,110,1284,1293,1299,1336,1495,2034,2296,2452,2506,2527,2517,2469,2467,2394,2353,2340,2279,2240,2199,2158,2108,2078,2034,1989,1957,1912,1857,1757,1726,1462,1416,1404,1344,1313,1321,1291,1244,1272,1261,1260,1264,1278,1268,1271,1262,1270,1289,1270,1269,1265,1266,1278,1266,1267,1276,1275,1270,1277,1266,1281,1277,1298,1280,1278,1270,1355,1383,1378,1452,1814,2281,2589,2737,2799,2817,2787,2742,2688,2643,2594,2571,2521,2471,2425,2383,2336,2278,2225,2179,2122,2069,2027,1881,1590,1551,1520,1468,1436,1423,1400,1391,1396,1388,1369,1359,1359,1396,1409,1411,1427,1413,1405,1417,1420,1418,1424,1406,1420,1468,1431,1409,1430,1409,1399,1422,1417,1466,1409,1422,1400,892,889,891,903,1026,1312,1486,1732,1725,1758,1822,1730,1828,1674,1646,1742,1586,1562,1534,1505,1478,1450,1419,1394,1366,1335,1307,1282,1251,1226,1087,1069,935,914,950,900,881,919,900,897,901,916,906,917,900,913,933,908,907,903,904,915,904,905,914,913,908,913,904,919,914,947,921,945,917,810,800,801,806,859,1163,1324,1466,1542,1601,1581,1583,1533,1532,1489,1484,1437,1450,1406,1384,1356,1317,1290,1252,1237,1202,1190,1163,1150,1133,1000,864,855,845,819,824,822,804,805,805,806,808,818,808,822,831,815,826,839,829,817,815,832,818,818,822,815,813,811,811,805,815,816,814,799,988,982,1001,995,1086,1464,1677,1853,1899,1970,1965,1940,1872,1849,1817,1810,1769,1769,1721,1691,1663,1627,1573,1533,1527,1496,1478,1429,1310,1309,1169,1142,1064,1026,1008,1008,987,974,977,972,971,981,992,992,1001,993,987,994,994,993,998,990,988,1004,998,996,998,994,988,991,992,995,992,995,980,1077,1082,1087,1110,1201,1656,1879,2047,2104,2128,2124,2087,2078,2025,1991,1979,1914,1886,1854,1818,1783,1749,1730,1680,1652,1615,1576,1524,1423,1345,1197,1209,1133,1113,1108,1087,1038,1031,1024,1036,1045,1051,1040,1031,1044,1060,1049,1048,1067,1066,1063,1055,1060,1058,1064,1059,1041,1044,1051,1046,1039,1058,1040,1038,1030,558,561,563,563,577,755,877,981,1076,1122,1127,1113,1091,1076,1059,1037,1018,1004,986,968,950,932,910,896,877,856,838,823,802,787,768,748,614,585,572,568,567,550,545,543,543,550,582,582,583,576,563,586,620,577,577,556,560,633,573,562,585,562,554,578,570,626,578,589,567,1274,1281,1286,1334,1630,2051,2395,2549,2615,2630,2609,2565,2514,2473,2425,2381,2357,2311,2266,2219,2163,2126,2076,2033,1986,1936,1889,1843,1483,1446,1416,1367,1334,1314,1297,1301,1310,1283,1276,1281,1282,1303,1335,1304,1335,1323,1332,1326,1321,1331,1331,1339,1338,1362,1340,1321,1324,1323,1312,1338,1336,1384,1337,1334,1320,579,584,585,587,602,686,902,1006,1111,1168,1198,1152,1109,1108,1096,1074,1059,1040,1010,1003,985,966,964,948,910,892,863,854,836,835,785,689,677,607,588,599,604,594,576,585,586,589,588,589,586,588,585,592,586,586,588,588,592,594,591,589,590,586,591,591,591,592,588,590,588,315,316,317,318,320,370,471,528,572,633,644,633,623,614,616,592,581,572,562,552,541,531,520,510,500,489,479,468,458,457,437,427,418,407,404,320,321,322,315,315,319,321,315,325,320,324,319,320,322,319,317,317,320,322,320,321,320,322,327,322,317,318,321,319,315,1444,1427,1451,1586,1792,2365,2607,2813,2959,2962,2940,2867,2838,2809,2719,2668,2664,2569,2537,2479,2431,2377,2322,2290,2224,2178,2006,1884,1648,1604,1581,1505,1485,1442,1436,1448,1448,1452,1422,1437,1428,1451,1438,1446,1450,1465,1440,1441,1442,1439,1437,1481,1452,1456,1448,1450,1458,1458,1517,1460,1454,1526,1510,1509,1509,858,861,876,875,977,1256,1462,1587,1676,1730,1763,1719,1681,1668,1598,1570,1544,1549,1524,1499,1475,1421,1408,1353,1325,1315,1270,1234,1206,1221,1146,1003,899,902,896,871,860,865,878,884,873,891,884,887,897,900,892,880,888,903,906,885,885,888,893,893,886,891,882,894,883,915,887,887,879,1108,1146,1156,1222,1287,1752,2059,2213,2259,2302,2327,2287,2209,2200,2152,2093,2052,2062,2017,1981,1949,1904,1870,1799,1780,1741,1691,1646,1514,1316,1321,1213,1193,1150,1169,1139,1127,1124,1102,1114,1114,1126,1112,1131,1121,1139,1125,1133,1126,1122,1132,1133,1138,1143,1141,1140,1144,1136,1150,1143,1146,1160,1160,1160,1160,1055,1070,1074,1098,1214,1593,1853,2010,2063,2107,2134,2086,2030,2025,1977,1917,1879,1890,1855,1820,1786,1750,1707,1646,1634,1598,1546,1503,1413,1371,1158,1147,1096,1101,1093,1096,1055,1063,1080,1084,1074,1089,1079,1082,1087,1103,1084,1076,1086,1103,1096,1090,1092,1092,1097,1088,1093,1097,1088,1099,1081,1105,1088,1088,1080,1195,1151,1181,1277,1347,1908,2185,2365,2488,2540,2501,2461,2413,2369,2328,2275,2258,2175,2142,2129,2052,2010,1961,1916,1885,1837,1785,1661,1531,1485,1331,1247,1259,1215,1207,1203,1159,1154,1112,1133,1127,1168,1122,1141,1131,1149,1141,1143,1136,1132,1142,1143,1148,1153,1152,1167,1154,1146,1172,1153,1156,1170,1170,1170,1170,716,721,744,732,758,1062,1241,1416,1586,1632,1615,1588,1560,1572,1504,1477,1467,1411,1393,1365,1372,1312,1283,1249,1222,1174,1150,1109,1084,1051,1002,975,789,751,744,752,748,745,720,704,713,711,718,731,713,724,716,723,736,730,730,738,743,755,746,740,726,734,743,740,727,729,729,729,729,1062,1064,1078,1119,1220,1678,1938,2123,2284,2324,2288,2255,2213,2206,2134,2084,2073,2019,1964,1923,1903,1870,1820,1769,1723,1680,1641,1595,1456,1241,1194,1181,1130,1097,1091,1086,1039,1034,992,1013,1007,1048,1002,1021,1011,1029,1021,1023,1016,1012,1022,1023,1028,1033,1032,1047,1034,1026,1052,1033,1036,1050,1050,1050,1050,674,676,688,690,714,1006,1182,1349,1519,1570,1548,1520,1492,1505,1476,1409,1409,1353,1325,1298,1304,1248,1216,1184,1157,1119,1087,1056,1023,960,903,879,832,705,698,697,702,698,664,670,682,708,678,707,677,710,672,682,677,671,675,682,685,711,723,683,676,677,718,682,670,672,672,672,672,1124,1162,1146,1245,1285,1785,2086,2248,2294,2334,2356,2298,2240,2229,2181,2121,2081,2078,2044,2007,1973,1929,1887,1822,1765,1744,1696,1651,1536,1337,1279,1229,1209,1165,1160,1139,1127,1124,1102,1114,1114,1126,1112,1131,1121,1139,1125,1133,1126,1122,1132,1133,1138,1143,1141,1140,1144,1136,1150,1143,1146,1160,1160,1160,1160,1103,1106,1163,1142,1248,1744,2031,2200,2304,2317,2299,2259,2228,2191,2173,2123,2081,2042,2007,1996,1933,1895,1866,1821,1778,1734,1717,1645,1573,1509,1242,1204,1189,1141,1122,1130,1120,1138,1122,1120,1125,1130,1133,1130,1138,1146,1139,1150,1175,1148,1146,1159,1150,1142,1154,1153,1162,1167,1168,1166,1166,1182,1183,1212,1200,930,959,963,981,1052,1371,1612,1730,1856,1892,1943,1853,1823,1794,1763,1733,1703,1674,1644,1649,1619,1588,1525,1496,1503,1483,1452,1377,1347,1321,1039,1029,1040,978,974,972,973,976,983,990,986,999,985,1008,1001,999,1001,1017,1001,1000,1012,1017,1016,1022,1026,1014,1007,1014,1020,1002,1003,1010,1010,1010,1010,1152,1185,1170,1279,1353,1829,2153,2363,2451,2489,2502,2416,2372,2370,2287,2244,2219,2161,2152,2076,2054,1997,1959,1904,1857,1816,1763,1704,1565,1367,1370,1252,1233,1189,1214,1173,1161,1159,1136,1147,1151,1173,1146,1165,1155,1173,1165,1167,1160,1156,1166,1167,1172,1177,1176,1183,1178,1170,1189,1177,1180,1194,1194,1194,1194,1365,1385,1386,1523,2115,2608,3016,3168,3277,3320,3249,3180,3136,3041,2973,2905,2843,2767,2723,2623,2563,2493,2432,2306,2264,2214,2145,2059,1968,1608,1569,1476,1432,1404,1392,1399,1413,1428,1460,1499,1478,1501,1502,1490,1485,1496,1501,1496,1511,1492,1496,1506,1510,1513,1524,1531,1527,1523,1618,1601,1594,1580,1591,1594,1586,1479,1467,1532,1599,1887,2448,2779,2945,3033,3117,3055,3029,2930,2894,2851,2732,2715,2725,2601,2588,2539,2471,2400,2300,2191,2097,1967,1899,1856,1643,1618,1597,1553,1496,1445,1478,1503,1476,1466,1487,1481,1522,1476,1495,1485,1503,1495,1497,1490,1486,1496,1497,1502,1507,1506,1521,1508,1500,1526,1507,1510,1524,1524,1524,1524,814,829,842,869,893,1237,1439,1665,1831,1877,1857,1793,1760,1758,1718,1692,1679,1598,1586,1553,1523,1494,1436,1415,1364,1327,1294,1254,1217,1177,1119,937,888,849,852,851,845,855,830,829,834,841,843,842,838,860,830,838,837,835,838,866,847,843,843,845,842,841,849,856,835,841,841,841,841,997,998,1030,1015,1126,1489,1710,1865,1919,1993,1997,1977,1923,1920,1854,1787,1756,1783,1748,1714,1696,1637,1598,1562,1530,1516,1446,1426,1375,1330,1159,1147,1039,1043,1036,1035,996,1004,1020,1026,1014,1031,1021,1023,1028,1047,1025,1017,1027,1044,1037,1031,1034,1033,1038,1029,1034,1039,1030,1040,1023,1047,1030,1030,1022,742,731,734,738,809,966,1181,1317,1486,1461,1575,1493,1413,1389,1366,1343,1357,1296,1273,1327,1226,1203,1180,1179,1134,1178,1086,1093,1008,992,974,953,774,756,744,740,742,741,735,727,735,738,738,736,740,742,738,742,744,739,746,739,747,750,747,748,750,742,740,747,751,752,752,761,752,319,320,321,322,323,419,473,525,579,628,640,630,620,610,600,590,580,570,561,566,540,530,520,510,500,490,480,470,460,451,441,431,421,409,328,324,324,325,317,318,320,325,326,326,326,393,320,324,324,322,324,326,327,328,324,324,325,325,355,324,324,325,322,328,324,1393,1371,1388,1492,1633,2265,2526,2714,2861,2872,2850,2780,2753,2722,2635,2598,2586,2491,2443,2404,2357,2304,2251,2200,2156,2036,1918,1820,1585,1617,1585,1458,1422,1395,1400,1389,1395,1404,1368,1399,1376,1380,1390,1402,1390,1407,1386,1394,1392,1383,1393,1437,1401,1402,1406,1403,1413,1388,1436,1408,1389,1427,1427,1427,1427,0,0,0,0,0,0,0,0,0,0,0,0,0,0,0,0,0,0,0,0,0,0,0,0,0,0,0,0,0,0,0,0,0,0,0,0,0,0,0,0,0,0,0,0,0,0,0,0,0,0,0,0,0,0,0,0,0,0,0,0,0,0,0,0,0,1407,1386,1405,1501,1658,2301,2560,2747,2893,2903,2881,2810,2782,2763,2663,2626,2613,2517,2468,2429,2380,2327,2275,2222,2178,2092,1953,1837,1602,1634,1601,1473,1438,1410,1416,1397,1405,1404,1372,1386,1387,1397,1391,1410,1395,1411,1396,1401,1399,1394,1402,1448,1412,1420,1406,1414,1410,1399,1446,1408,1400,1439,1439,1439,1439,746,748,750,754,819,1044,1193,1326,1421,1481,1520,1457,1434,1411,1372,1350,1327,1338,1296,1273,1250,1228,1192,1169,1147,1124,1102,1069,1047,1034,1010,985,783,772,759,756,758,754,770,748,761,768,772,772,772,783,775,779,784,791,800,785,790,795,781,768,772,782,775,758,763,780,766,804,770,279,279,280,281,282,359,404,449,498,540,557,548,540,532,523,514,506,497,489,483,471,463,454,446,437,429,420,411,403,394,386,377,368,360,300,295,296,296,251,256,255,258,259,261,261,258,253,265,255,255,257,266,267,269,269,267,259,258,267,257,257,264,264,264,264,756,740,778,771,797,1099,1280,1453,1623,1675,1651,1622,1593,1606,1553,1507,1515,1459,1442,1413,1398,1340,1307,1273,1246,1207,1174,1158,1108,1075,1011,915,829,771,764,792,768,765,741,725,734,732,739,752,734,745,737,744,757,751,751,759,764,774,767,761,747,755,764,761,748,750,750,750,750,960,991,976,1032,1101,1485,1763,1944,2026,2074,2101,2050,1996,1991,1915,1882,1850,1850,1818,1789,1751,1699,1669,1620,1586,1544,1497,1462,1422,1373,1216,1056,1065,994,1013,986,994,997,979,982,979,989,1000,1019,998,1003,998,1004,1001,1001,1000,1005,1008,990,1001,1012,1003,1036,995,995,1028,1039,1039,1039,1039,852,830,831,841,911,1180,1360,1520,1610,1666,1701,1631,1608,1578,1540,1514,1488,1515,1455,1423,1397,1370,1328,1304,1278,1251,1244,1190,1163,1147,995,970,940,855,843,840,840,837,828,827,828,834,835,837,842,842,841,846,843,844,847,849,849,845,857,857,858,868,860,855,862,871,859,868,860,759,746,748,753,819,1052,1215,1355,1448,1507,1544,1480,1486,1432,1392,1369,1345,1355,1312,1288,1305,1239,1227,1203,1155,1130,1107,1096,1050,1049,1032,976,870,786,765,813,757,760,775,779,768,781,777,775,785,794,780,772,779,796,799,775,780,783,785,783,780,785,776,786,776,806,783,783,775,951,930,933,984,1042,1413,1637,1853,2011,2054,2039,1988,1968,1956,1896,1845,1846,1771,1738,1716,1677,1637,1597,1557,1523,1484,1449,1412,1357,1317,1279,1012,980,951,942,943,947,951,918,929,927,940,928,940,938,960,932,933,935,932,932,945,962,953,940,940,980,937,995,939,931,953,953,953,953,323,324,323,324,325,423,478,536,588,638,650,643,629,619,609,601,588,578,567,557,547,540,526,517,509,499,486,475,465,462,447,434,427,414,405,326,378,379,317,314,320,322,315,324,321,326,325,320,335,320,321,319,320,325,322,322,319,321,320,319,321,324,322,337,326,1373,1376,1420,1546,1739,2323,2558,2763,2891,2917,2895,2833,2796,2764,2676,2642,2629,2537,2479,2439,2391,2338,2284,2231,2204,2144,1977,1843,1608,1569,1559,1488,1442,1417,1410,1421,1416,1426,1389,1411,1402,1419,1410,1422,1423,1448,1405,1415,1410,1407,1410,1451,1423,1424,1423,1435,1412,1411,1471,1433,1420,1468,1462,1461,1461,1444,1427,1451,1586,1792,2365,2607,2813,2959,2962,2940,2867,2838,2809,2719,2668,2664,2569,2537,2479,2431,2377,2322,2290,2224,2178,2006,1884,1648,1604,1581,1505,1485,1442,1436,1448,1448,1452,1422,1437,1428,1451,1438,1446,1450,1465,1440,1441,1442,1439,1437,1481,1452,1456,1448,1450,1458,1458,1517,1460,1454,1526,1510,1509,1509,217,218,219,219,220,231,319,356,393,432,446,440,432,425,418,411,403,397,389,382,375,368,360,354,346,339,332,325,317,311,303,297,289,282,275,229,230,230,212,207,211,212,208,212,212,212,212,212,212,211,212,212,211,212,212,212,212,212,212,211,211,212,212,212,212,974,966,980,980,1108,1480,1665,1836,1899,1931,1932,1909,1848,1807,1815,1776,1747,1729,1686,1657,1632,1592,1575,1514,1503,1483,1438,1386,1370,1261,1089,1058,1053,1016,992,990,982,955,951,954,952,961,961,960,957,957,957,957,957,957,957,957,957,957,957,957,957,957,957,957,957,957,957,957,957,658,660,663,665,688,929,1082,1174,1284,1369,1316,1298,1263,1243,1233,1212,1244,1229,1149,1128,1107,1086,1065,1047,1024,1027,982,953,983,919,825,850,804,684,672,668,670,649,646,648,647,652,651,652,646,646,646,646,646,646,646,646,646,646,646,646,646,646,646,646,646,646,646,646,646,782,769,788,791,824,1132,1302,1437,1530,1562,1566,1542,1496,1479,1452,1427,1422,1446,1364,1339,1314,1288,1263,1230,1214,1206,1164,1129,1101,1086,984,835,867,810,803,801,784,747,745,748,748,753,753,752,749,749,749,749,749,749,749,749,749,749,749,749,749,749,749,749,749,749,749,749,749,402,404,405,405,408,539,610,682,753,807,816,898,884,777,764,751,738,724,712,699,686,673,660,646,634,621,608,595,581,568,556,543,530,443,412,408,409,394,376,376,376,376,376,376,376,376,376,376,376,376,376,376,376,376,376,376,376,376,376,376,376,376,376,376,376,972,904,954,989,966,1268,1477,1628,1874,1751,1750,1722,1754,1668,1651,1659,1587,1570,1533,1505,1479,1452,1458,1445,1370,1449,1419,1298,1253,1223,1101,966,949,924,927,915,897,901,903,903,903,903,903,903,903,903,903,903,903,903,903,903,903,903,903,903,903,903,903,903,903,903,903,903,903,634,620,640,632,663,895,1026,1137,1246,1262,1274,1254,1205,1215,1194,1174,1154,1180,1114,1092,1073,1052,1032,1012,990,981,951,908,894,876,868,669,794,664,649,646,648,632,632,632,632,632,632,632,632,632,631,632,632,632,632,632,632,632,632,632,632,632,632,632,632,632,632,632,632,980,912,962,1001,1001,1307,1544,1694,1920,1815,1823,1784,1804,1717,1697,1707,1630,1611,1584,1544,1515,1497,1497,1476,1410,1478,1446,1314,1285,1265,1181,1008,957,937,953,923,920,923,942,927,929,938,921,929,935,936,943,943,939,943,943,943,943,943,943,943,943,943,943,943,943,943,943,943,943,674,676,678,681,708,958,1115,1213,1323,1406,1353,1333,1299,1277,1278,1245,1276,1259,1180,1158,1136,1115,1093,1073,1050,1052,1007,976,1005,942,847,839,820,700,687,684,700,649,646,648,647,652,651,652,646,646,646,646,646,646,646,646,646,646,646,646,646,646,646,646,646,646,646,646,646,808,813,852,856,861,1179,1411,1489,1624,1668,1609,1584,1612,1585,1512,1481,1460,1426,1400,1425,1362,1327,1301,1304,1307,1277,1269,1205,1156,1122,955,897,890,838,845,849,833,814,813,814,823,815,816,813,818,818,818,818,818,818,818,818,818,818,818,818,818,818,818,818,818,818,818,818,818,1664,1630,1730,1814,2036,2571,2943,3113,3189,3140,3109,3062,3070,3009,2983,2858,2807,2763,2716,2665,2500,2545,2396,2137,2010,1982,1962,1896,1816,1868,1732,1763,1686,1655,1644,1645,1656,1656,1665,1669,1663,1701,1679,1678,1678,1678,1680,1673,1679,1674,1680,1697,1689,1682,1691,1682,1676,1677,1683,1685,1686,1701,1680,1680,1677,558,563,601,567,574,777,944,984,1133,1122,1130,1113,1094,1076,1059,1040,1023,996,973,969,946,932,914,925,878,914,870,820,806,787,630,778,715,595,592,580,571,558,559,559,558,559,559,559,559,559,559,559,559,559,559,559,559,559,559,559,559,559,559,559,559,559,559,559,559,443,415,409,447,450,584,662,668,814,889,801,812,870,786,840,826,748,733,720,744,754,740,649,654,622,683,668,672,572,625,592,609,583,507,462,426,436,428,426,420,420,426,426,426,422,426,426,426,426,426,426,426,426,423,426,426,423,426,426,426,426,426,426,426,426,530,531,533,535,544,730,803,925,1017,1067,1043,1054,1038,993,1004,960,969,946,909,936,896,883,886,868,832,815,797,781,763,746,727,711,629,554,527,538,540,526,513,513,513,513,513,513,513,513,513,513,513,513,513,513,513,513,513,513,513,513,513,513,513,513,513,513,513,789,790,791,798,842,1010,1291,1427,1532,1556,1564,1542,1530,1499,1473,1447,1425,1402,1376,1351,1327,1302,1279,1255,1224,1193,1170,1114,1091,1067,899,881,856,819,802,801,778,753,742,743,748,748,748,748,748,748,748,748,748,748,748,748,748,748,748,748,748,748,748,748,748,748,748,748,748,858,843,864,855,919,1246,1416,1585,1648,1686,1693,1679,1608,1608,1579,1554,1533,1520,1491,1451,1436,1408,1368,1344,1315,1294,1275,1215,1213,1100,976,907,951,887,873,863,841,804,802,805,807,809,808,808,803,803,803,803,803,803,803,803,803,803,803,803,803,803,803,803,803,803,803,803,803,1337,1325,1338,1356,1620,2061,2365,2493,2578,2588,2579,2546,2504,2440,2422,2356,2334,2277,2252,2211,2148,2142,2088,2041,1993,1926,1860,1719,1518,1496,1430,1413,1397,1361,1336,1332,1266,1266,1247,1247,1247,1247,1247,1247,1247,1247,1247,1247,1247,1247,1247,1247,1247,1247,1247,1247,1247,1247,1247,1247,1247,1247,1247,1247,1247,1537,1537,1561,1642,1906,2451,2774,2897,2992,2977,2955,2905,2842,2816,2767,2708,2682,2611,2583,2532,2488,2439,2375,2272,2199,1889,1859,1833,1768,1704,1669,1614,1589,1557,1547,1541,1482,1487,1492,1499,1494,1493,1494,1497,1492,1492,1492,1492,1492,1492,1492,1492,1492,1492,1492,1492,1492,1492,1492,1492,1492,1492,1492,1492,1492,55,69,69,69,69,69,77,83,91,97,104,102,101,100,99,96,95,94,93,91,90,89,88,85,84,83,81,80,79,78,75,74,73,72,70,69,69,69,31,31,31,31,31,31,31,31,31,31,31,31,31,31,31,31,31,31,31,31,31,31,31,31,31,31,31,1474,1442,1465,1658,1969,2402,2828,2980,3036,3011,3002,2973,2925,2870,2814,2788,2703,2620,2592,2559,2506,2400,2359,2285,2247,2121,2011,1765,1710,1647,1617,1580,1509,1473,1463,1485,1475,1478,1466,1467,1472,1472,1472,1472,1472,1472,1472,1472,1472,1472,1472,1472,1472,1472,1472,1472,1472,1472,1472,1472,1472,1472,1472,1472,1472,0,0,0,0,0,0,0,0,0,0,0,0,0,0,0,0,0,0,0,0,0,0,0,0,0,0,0,0,0,0,0,0,0,0,0,0,0,0,0,0,0,0,0,0,0,0,0,0,0,0,0,0,0,0,0,0,0,0,0,0,0,0,0,0,0,1279,1264,1283,1315,1523,1954,2240,2378,2481,2475,2462,2421,2367,2350,2301,2252,2233,2172,2150,2108,2074,2033,1978,1970,1906,1892,1861,1736,1691,1402,1402,1340,1315,1283,1272,1271,1217,1217,1226,1221,1223,1226,1216,1223,1226,1226,1226,1226,1226,1226,1226,1226,1226,1226,1226,1226,1226,1226,1226,1226,1226,1226,1226,1226,1226,1329,1354,1349,1427,1781,2111,2539,2698,2759,2775,2734,2686,2667,2607,2570,2523,2472,2460,2376,2336,2289,2230,2184,2154,2078,2030,1987,1937,1669,1530,1481,1437,1422,1386,1362,1361,1369,1358,1335,1319,1318,1318,1318,1318,1318,1318,1318,1318,1318,1318,1318,1318,1318,1318,1318,1318,1318,1318,1318,1318,1318,1318,1318,1318,1318,929,860,909,945,942,1221,1430,1580,1816,1703,1702,1675,1707,1621,1603,1614,1540,1523,1486,1458,1432,1404,1416,1398,1323,1402,1372,1241,1215,1197,1124,947,905,885,890,871,854,855,877,858,860,868,854,861,869,871,877,877,873,877,877,877,877,877,877,877,876,877,877,877,877,877,877,877,877,780,769,788,780,846,1134,1268,1429,1533,1557,1551,1527,1476,1453,1459,1403,1408,1370,1359,1329,1309,1284,1233,1217,1209,1172,1159,1112,1101,1071,954,825,841,809,798,792,786,774,771,771,771,771,771,771,771,771,771,771,771,771,771,771,771,771,771,771,771,771,771,771,771,771,771,771,771,965,955,972,971,1072,1458,1640,1811,1870,1903,1909,1884,1825,1786,1794,1755,1730,1711,1668,1642,1616,1577,1560,1499,1489,1469,1430,1378,1341,1245,1104,1049,1043,999,983,979,975,949,947,949,949,953,953,953,952,952,952,952,952,952,952,952,952,952,952,952,952,952,952,952,952,952,952,952,952,1065,1052,1076,1089,1184,1559,1824,1971,2087,2079,2094,2038,2006,1975,1974,1907,1873,1837,1805,1771,1737,1737,1674,1647,1606,1589,1580,1488,1401,1186,1151,1132,1123,1093,1064,1084,1004,1004,986,986,986,986,986,986,986,986,986,986,986,986,986,986,986,986,986,986,986,986,986,986,986,986,986,986,986,531,532,534,536,546,616,829,927,1020,1065,1074,1057,1040,1023,1005,988,971,954,937,919,903,885,867,851,833,816,799,782,764,748,730,606,592,555,540,540,540,520,511,503,502,502,502,502,502,502,502,502,502,502,502,502,502,502,502,502,502,502,502,502,502,502,502,502,502,1247,1252,1257,1307,1589,1906,2345,2508,2575,2575,2556,2509,2492,2437,2400,2353,2308,2262,2217,2167,2116,2079,2033,1988,1942,1896,1849,1808,1562,1524,1377,1334,1320,1284,1265,1271,1283,1253,1242,1241,1241,1241,1241,1241,1241,1241,1241,1241,1241,1241,1241,1241,1241,1241,1241,1241,1241,1241,1241,1241,1241,1241,1241,1241,1241,477,479,480,482,487,531,735,821,906,958,958,942,916,913,904,888,873,858,842,827,811,796,781,765,750,734,719,698,688,668,653,522,513,500,488,485,486,487,470,470,470,470,470,470,470,470,470,470,470,470,470,470,470,470,470,470,470,470,470,470,470,470,470,470,470,217,218,219,219,220,231,319,356,393,432,446,440,432,425,418,411,403,397,389,382,375,368,360,354,346,339,332,325,317,311,303,297,289,282,275,229,230,230,212,207,211,212,208,212,212,212,212,212,212,211,212,212,211,212,212,212,212,212,212,211,211,212,212,212,212,1458,1460,1479,1604,1882,2338,2536,2732,2830,2810,2759,2755,2715,2649,2605,2605,2520,2471,2428,2375,2382,2304,2283,2252,2175,2069,2035,1871,1620,1629,1566,1552,1522,1505,1479,1475,1487,1502,1482,1474,1486,1479,1473,1500,1495,1500,1495,1498,1503,1493,1498,1495,1499,1505,1500,1496,1495,1501,1498,1499,1499,1503,1501,1509,1501,473,503,464,465,470,641,701,777,853,898,903,889,875,862,848,834,820,807,793,779,765,752,738,724,721,697,684,689,656,642,647,614,619,480,470,468,486,501,459,447,450,455,449,467,458,470,465,457,467,456,460,457,456,464,457,456,459,464,456,454,455,461,458,464,456,773,783,776,767,782,1104,1230,1362,1472,1490,1486,1461,1435,1416,1393,1367,1344,1322,1302,1274,1280,1258,1215,1209,1189,1163,1139,1115,1073,1050,1044,899,893,785,790,774,784,791,775,757,764,770,760,778,767,787,780,770,790,766,776,775,774,785,782,778,780,776,766,768,768,772,770,775,767,668,681,673,663,677,943,1047,1165,1266,1290,1288,1268,1247,1227,1211,1191,1170,1150,1128,1111,1091,1097,1048,1030,1032,1014,993,972,929,909,888,823,820,678,669,665,680,687,662,646,651,657,648,662,654,673,668,659,675,652,658,657,664,668,665,660,663,659,662,661,661,663,656,665,657,1011,1023,1016,1029,1205,1448,1660,1876,1938,1970,1957,1928,1899,1872,1840,1809,1783,1753,1721,1689,1658,1627,1596,1564,1541,1519,1489,1475,1412,1292,1235,1080,1054,1036,1026,1025,1011,1011,997,979,997,997,996,1009,1004,1030,1004,998,1008,996,1003,1000,998,1008,1005,1003,1000,1006,1000,995,995,999,997,1005,997,622,627,629,627,639,840,972,1035,1145,1188,1190,1174,1158,1143,1101,1111,1096,1080,1035,1049,1002,1016,969,997,934,918,901,884,869,851,835,791,794,649,638,635,631,622,611,603,612,617,609,621,618,623,623,618,620,617,617,619,616,639,623,625,619,622,625,622,630,626,632,641,628,807,823,804,806,837,1142,1297,1440,1513,1566,1524,1533,1477,1459,1462,1439,1421,1388,1365,1347,1323,1305,1240,1249,1238,1205,1172,1173,1122,1103,1088,930,909,804,813,793,828,805,782,764,771,777,772,784,780,793,790,780,795,773,782,780,788,792,787,782,785,785,789,783,785,787,782,789,781,598,599,666,601,617,852,931,1037,1124,1172,1172,1155,1137,1118,1101,1081,1064,1046,1029,1005,993,1006,956,990,921,897,884,866,849,831,812,794,776,627,610,607,605,579,571,580,576,580,596,578,585,587,581,583,576,581,581,589,590,621,618,617,622,595,589,582,580,576,599,590,581,788,797,790,783,798,1130,1256,1398,1507,1524,1519,1494,1467,1447,1424,1397,1373,1350,1329,1303,1280,1284,1235,1205,1212,1185,1122,1118,1074,1050,988,858,856,800,805,789,782,789,769,751,760,761,758,774,766,783,776,766,777,761,766,766,766,771,768,772,768,771,766,766,767,772,768,775,767,818,823,823,818,818,1159,1283,1411,1509,1541,1537,1514,1497,1493,1453,1435,1411,1404,1377,1353,1331,1305,1282,1258,1236,1213,1184,1180,1098,1109,1066,937,932,808,823,790,831,825,805,787,799,804,790,810,801,846,811,802,833,796,803,802,797,808,804,803,803,807,802,801,803,814,810,819,811,962,964,1098,940,1265,1350,1579,1694,1921,1739,1731,1706,1680,1655,1630,1581,1578,1553,1508,1502,1477,1452,1485,1400,1375,1449,1380,1299,1273,1248,999,979,958,941,932,930,1070,935,969,980,968,1066,1063,1009,993,995,1003,1079,1007,1015,1013,1002,979,993,990,1008,1074,986,1002,1091,1001,999,1013,990,983,871,880,874,866,915,1263,1414,1565,1670,1685,1676,1648,1619,1597,1571,1542,1516,1490,1468,1440,1412,1415,1364,1329,1336,1306,1240,1234,1190,1092,1068,923,916,884,872,872,848,859,836,820,831,830,827,843,835,852,845,836,844,830,833,835,835,838,837,839,835,840,833,835,834,841,835,842,834,1565,1584,1593,1677,2020,2518,2769,2953,2996,3008,2978,2920,2890,2818,2798,2756,2707,2648,2611,2560,2514,2463,2417,2261,2201,1924,1889,1834,1750,1812,1655,1639,1618,1621,1592,1576,1571,1571,1557,1539,1557,1557,1556,1569,1564,1590,1564,1558,1568,1556,1563,1560,1558,1568,1565,1563,1560,1566,1560,1555,1555,1559,1557,1565,1557,1233,1237,1241,1235,1363,1909,2142,2245,2376,2383,2362,2323,2282,2247,2198,2175,2137,2046,2070,2026,1993,1983,1920,1824,1867,1824,1664,1634,1398,1385,1355,1300,1288,1250,1223,1225,1216,1220,1199,1186,1202,1199,1195,1216,1212,1221,1221,1208,1219,1206,1206,1212,1213,1212,1206,1215,1209,1216,1209,1211,1210,1217,1211,1218,1210,947,949,953,957,991,1338,1549,1745,1802,1846,1843,1798,1777,1748,1723,1696,1670,1638,1613,1582,1553,1524,1506,1480,1444,1425,1393,1368,1322,1213,1048,1042,1003,971,971,963,948,938,924,920,927,935,931,943,933,946,931,937,935,930,933,936,936,943,940,938,936,935,935,934,934,937,933,941,935,611,623,603,604,621,832,941,1051,1118,1175,1146,1157,1111,1093,1103,1085,1067,1049,1030,1013,995,991,935,940,936,917,886,890,850,832,832,734,738,621,611,593,626,628,603,586,592,597,590,604,595,614,609,600,616,593,599,598,605,610,606,601,604,600,604,602,603,605,598,607,599,387,387,388,389,391,534,556,607,656,697,705,695,686,676,665,657,646,636,630,621,611,602,592,584,611,597,591,546,537,528,519,509,500,490,394,391,392,393,382,387,386,390,393,387,435,394,386,394,391,387,394,434,438,395,435,438,384,384,388,388,381,390,390,396,387,273,274,275,276,277,356,403,449,497,541,555,546,537,529,520,511,502,493,485,476,467,458,449,441,432,423,414,405,397,388,379,370,361,288,281,278,278,279,270,265,270,266,279,271,267,280,274,270,277,282,274,279,285,358,276,272,271,274,273,270,274,274,271,270,270,1408,1398,1412,1490,1723,2164,2425,2638,2655,2690,2681,2627,2565,2546,2504,2461,2424,2379,2339,2279,2253,2227,2161,2140,2092,2068,1910,1779,1570,1565,1510,1468,1431,1424,1415,1409,1417,1411,1404,1392,1398,1408,1410,1418,1413,1430,1412,1403,1415,1402,1413,1410,1404,1422,1418,1413,1414,1415,1412,1409,1409,1413,1411,1419,1411,533,534,547,553,558,667,796,883,1016,1067,1071,1054,1039,1023,1006,990,973,957,940,924,907,891,873,858,841,825,808,792,732,718,703,669,673,645,555,551,542,522,496,504,501,510,522,520,515,523,509,522,516,514,515,514,522,521,518,511,522,511,513,518,519,539,517,520,519,1423,1412,1428,1509,1752,2199,2460,2671,2687,2722,2711,2657,2595,2576,2532,2488,2451,2404,2365,2303,2277,2250,2183,2162,2113,2089,1932,1775,1587,1580,1539,1483,1446,1440,1430,1417,1427,1423,1411,1401,1409,1419,1415,1429,1424,1440,1422,1415,1428,1413,1425,1421,1415,1430,1427,1424,1422,1426,1422,1417,1417,1421,1419,1427,1419,0,0,0,0,0,0,0,0,0,0,0,0,0,0,0,0,0,0,0,0,0,0,0,0,0,0,0,0,0,0,0,0,0,0,0,0,0,0,0,0,0,0,0,0,0,0,0,0,0,0,0,0,0,0,0,0,0,0,0,0,0,0,0,0,0,654,656,658,667,684,855,1010,1091,1256,1301,1302,1281,1261,1240,1219,1200,1180,1159,1139,1117,1097,1104,1056,1071,1015,1007,986,953,933,913,892,854,696,710,688,664,686,645,599,606,609,617,620,621,612,623,609,625,617,617,612,619,629,623,620,615,619,610,626,622,621,642,620,622,621,582,583,605,588,638,793,924,987,1098,1141,1143,1127,1111,1096,1053,1064,1048,1032,987,1001,954,969,921,950,887,870,853,837,822,805,789,773,756,704,594,591,593,572,563,555,564,567,559,571,568,573,573,567,572,566,566,569,566,577,571,574,569,571,571,569,575,572,569,580,576,651,662,642,644,658,913,1019,1125,1216,1255,1254,1234,1214,1195,1175,1157,1137,1117,1098,1085,1060,1040,1020,1002,982,963,949,946,905,891,890,812,803,661,649,648,661,680,644,627,634,641,639,649,646,676,648,654,657,646,645,651,645,653,646,640,652,648,642,639,639,643,641,649,641,431,432,432,434,437,576,645,717,786,832,838,826,812,800,787,775,762,746,738,724,712,699,687,675,662,650,636,622,611,599,587,574,562,449,439,436,437,439,427,424,428,431,428,425,431,446,435,432,432,430,429,434,434,440,437,437,438,438,434,431,433,430,437,434,430,347,431,349,434,351,459,513,567,621,667,675,685,655,645,635,624,614,605,595,585,575,565,554,544,534,524,514,504,495,484,474,464,454,464,355,351,352,421,360,342,347,349,344,360,351,395,360,351,395,348,351,350,349,355,352,351,351,354,350,348,349,353,351,359,352,1018,1026,1030,1041,1093,1453,1672,1881,1943,1975,1962,1934,1902,1877,1844,1815,1788,1755,1725,1692,1661,1631,1600,1567,1544,1521,1490,1423,1370,1355,1123,1080,1056,1041,1041,1026,992,988,974,972,977,981,977,996,983,1004,981,987,985,980,983,986,986,993,990,988,986,985,985,984,984,987,983,991,985,512,514,515,517,565,667,755,843,970,1026,1031,1015,998,982,965,950,934,917,900,884,867,851,834,819,803,786,770,753,737,720,704,688,672,593,524,521,522,523,479,488,486,493,495,491,487,491,484,491,488,487,489,491,496,498,491,490,497,488,494,494,493,522,491,494,493,1451,1464,1464,1561,1797,2289,2551,2737,2779,2798,2770,2728,2683,2658,2612,2563,2522,2473,2435,2388,2343,2298,2253,2207,2169,2133,2031,1671,1769,1674,1570,1538,1498,1480,1471,1470,1474,1463,1440,1437,1450,1447,1450,1461,1460,1477,1464,1465,1476,1472,1478,1472,1479,1479,1466,1473,1467,1466,1467,1472,1472,1483,1468,1476,1468,1458,1460,1479,1604,1882,2338,2536,2732,2830,2810,2759,2755,2715,2649,2605,2605,2520,2471,2428,2375,2382,2304,2283,2252,2175,2069,2035,1871,1620,1629,1566,1552,1522,1505,1479,1475,1487,1502,1482,1474,1486,1479,1473,1500,1495,1500,1495,1498,1503,1493,1498,1495,1499,1505,1500,1496,1495,1501,1498,1499,1499,1503,1501,1509,1501,1426,1433,1446,1575,1831,2368,2609,2796,2867,2903,2876,2819,2840,2721,2719,2622,2574,2524,2572,2423,2392,2318,2323,2222,2185,2195,1980,1913,1812,1603,1538,1504,1467,1455,1443,1441,1441,1443,1447,1457,1454,1481,1463,1461,1475,1471,1469,1467,1476,1469,1468,1481,1481,1500,1481,1477,1486,1487,1495,1486,1492,1522,1488,1498,1490,956,939,955,963,1005,1289,1576,1764,1843,1848,1883,1827,1798,1768,1739,1709,1699,1650,1643,1590,1583,1541,1520,1507,1442,1431,1401,1371,1332,1132,1034,1009,985,977,973,972,940,960,951,948,959,963,963,970,976,966,971,979,990,980,974,977,969,978,980,975,970,976,963,972,970,984,965,991,966,1119,1123,1153,1174,1316,1743,2009,2202,2309,2336,2376,2277,2237,2196,2211,2164,2080,2038,1998,2007,1919,1926,1837,1796,1756,1757,1680,1636,1579,1408,1361,1207,1176,1152,1133,1139,1120,1126,1131,1128,1137,1144,1143,1142,1141,1146,1144,1155,1156,1144,1147,1155,1155,1167,1167,1160,1158,1153,1158,1167,1151,1157,1140,1157,1148,1142,1143,1153,1175,1239,1641,1969,2142,2225,2263,2252,2191,2184,2119,2090,2072,2034,1998,1971,1908,1898,1834,1822,1789,1728,1714,1675,1640,1479,1398,1257,1230,1196,1186,1152,1144,1135,1138,1147,1142,1148,1157,1154,1153,1155,1161,1158,1164,1170,1158,1161,1169,1169,1179,1180,1170,1170,1167,1169,1175,1165,1171,1154,1168,1155,1196,1170,1199,1260,1385,1881,2122,2348,2425,2462,2412,2391,2365,2286,2266,2215,2171,2118,2099,2055,2014,1943,1906,1899,1840,1798,1755,1662,1558,1437,1317,1272,1257,1216,1214,1169,1147,1150,1143,1138,1162,1175,1153,1164,1151,1167,1154,1173,1179,1154,1157,1165,1165,1185,1179,1170,1168,1163,1168,1177,1172,1167,1150,1182,1158,726,728,729,729,802,957,1215,1386,1512,1582,1549,1523,1524,1469,1443,1415,1405,1353,1335,1298,1282,1255,1216,1223,1171,1144,1107,1130,1052,1032,945,918,893,750,736,734,742,746,739,747,745,758,746,747,754,758,756,774,749,752,752,755,755,758,776,774,769,755,755,749,764,765,772,772,758,1063,1066,1070,1123,1221,1664,1909,2106,2211,2239,2224,2183,2152,2112,2087,2024,1986,1960,1923,1873,1837,1811,1765,1718,1678,1641,1601,1560,1506,1227,1194,1162,1132,1095,1082,1082,1027,1030,1023,1018,1042,1055,1033,1044,1031,1047,1034,1053,1059,1034,1037,1045,1045,1065,1059,1050,1048,1043,1048,1057,1052,1047,1030,1062,1038,680,682,684,686,758,844,1155,1319,1445,1515,1482,1455,1456,1468,1375,1348,1347,1294,1268,1240,1214,1188,1160,1157,1106,1080,1053,1076,999,973,846,822,799,708,693,692,696,700,714,698,699,705,691,701,699,701,713,727,702,711,714,715,712,727,730,717,710,707,711,719,707,708,714,717,714,1135,1139,1168,1194,1351,1778,2048,2250,2345,2372,2410,2310,2270,2228,2242,2195,2111,2068,2027,2035,1945,1952,1862,1822,1780,1780,1704,1659,1555,1429,1381,1224,1192,1168,1149,1139,1120,1126,1131,1128,1137,1144,1143,1142,1141,1146,1144,1155,1156,1144,1147,1155,1155,1167,1167,1160,1158,1153,1158,1167,1151,1157,1140,1157,1148,1240,1244,1249,1284,1401,1911,2153,2313,2446,2464,2453,2387,2348,2335,2274,2256,2201,2160,2124,2084,2044,2004,1964,1927,1887,1847,1825,1673,1552,1540,1370,1343,1298,1272,1272,1259,1221,1228,1241,1223,1220,1263,1221,1242,1261,1285,1272,1247,1243,1228,1255,1248,1286,1269,1286,1271,1265,1253,1263,1280,1269,1249,1224,1242,1224,998,975,1004,1037,1077,1427,1627,1799,1911,1971,1912,1882,1852,1928,1791,1826,1794,1700,1753,1640,1610,1637,1606,1519,1543,1546,1428,1399,1368,1301,1223,1045,1090,1065,989,986,989,991,1008,1004,1019,1032,1018,1041,1011,1031,1018,1043,1041,1020,1026,1026,1035,1065,1044,1030,1027,1026,1030,1033,1030,1031,1019,1019,1019,1158,1162,1192,1224,1407,1820,2095,2282,2389,2415,2451,2353,2310,2270,2281,2233,2149,2105,2063,2080,1982,1991,1896,1855,1813,1813,1736,1690,1616,1459,1414,1247,1215,1191,1179,1173,1154,1161,1165,1162,1186,1188,1177,1188,1175,1191,1178,1197,1201,1178,1181,1189,1189,1202,1203,1194,1192,1187,1192,1201,1196,1191,1174,1196,1182,1555,1555,1569,1718,2210,2831,3200,3368,3436,3462,3408,3364,3327,3239,3203,3126,3063,3010,2970,2909,2825,2734,2659,2366,2266,2252,1952,1880,1836,1792,1712,1677,1618,1634,1590,1587,1615,1630,1664,1690,1680,1697,1694,1691,1689,1697,1697,1697,1719,1696,1700,1700,1698,1704,1694,1698,1694,1700,1693,1691,1696,1695,1692,1697,1692,1520,1527,1551,1668,1875,2546,2822,2978,3078,3091,3059,3003,2896,2903,2892,2817,2755,2697,2649,2602,2492,2490,2434,2300,2193,1908,1855,1843,1770,1764,1685,1613,1584,1558,1546,1522,1501,1504,1497,1492,1516,1529,1507,1518,1505,1521,1508,1527,1533,1508,1511,1519,1519,1539,1533,1524,1522,1517,1522,1531,1526,1521,1504,1536,1512,833,835,837,867,918,1268,1442,1638,1757,1793,1784,1752,1760,1689,1642,1625,1593,1540,1530,1481,1466,1421,1382,1346,1320,1288,1274,1225,1217,1179,1147,1071,886,849,835,846,851,855,847,856,848,854,855,863,864,862,865,893,870,870,866,874,868,874,873,879,871,868,872,877,879,873,882,886,875,1079,1063,1100,1102,1151,1541,1844,2017,2110,2124,2145,2085,2051,1991,1956,1945,1935,1892,1861,1813,1806,1723,1709,1691,1623,1632,1575,1561,1474,1299,1179,1147,1125,1103,1097,1098,1076,1080,1091,1091,1097,1103,1100,1100,1107,1115,1104,1111,1129,1108,1111,1118,1118,1123,1121,1111,1118,1124,1111,1117,1110,1128,1108,1131,1109,799,801,804,810,866,1154,1342,1459,1583,1658,1635,1653,1543,1518,1492,1493,1466,1467,1391,1389,1339,1314,1289,1263,1257,1234,1218,1181,1112,1092,1021,904,881,827,835,811,810,812,805,811,814,822,820,837,822,817,820,834,822,823,820,828,836,809,829,828,825,833,814,819,830,828,818,830,822,388,390,391,392,394,517,583,650,716,768,779,767,755,743,731,719,706,694,682,669,657,645,633,621,609,597,585,573,561,547,535,523,418,408,398,395,396,396,387,399,396,400,384,389,384,396,397,384,401,401,397,402,403,403,404,382,402,401,451,397,396,404,401,388,386,1363,1377,1383,1501,1650,2250,2495,2687,2789,2791,2766,2732,2755,2636,2638,2530,2482,2435,2473,2348,2311,2262,2263,2165,2105,2036,1919,1690,1747,1529,1516,1452,1437,1397,1405,1397,1390,1395,1393,1419,1403,1415,1415,1416,1415,1418,1418,1415,1426,1413,1418,1417,1430,1446,1439,1430,1443,1425,1443,1434,1427,1432,1426,1435,1426,261,261,262,263,282,332,375,419,460,504,530,521,513,504,496,488,479,471,463,454,446,437,430,421,412,404,396,387,379,370,363,354,345,337,328,291,324,325,219,217,222,222,220,221,219,222,220,222,247,247,240,226,224,229,220,224,220,224,218,217,221,220,218,219,218,1378,1392,1400,1477,1717,2286,2529,2720,2821,2822,2796,2762,2784,2665,2666,2557,2509,2462,2498,2373,2335,2287,2286,2187,2126,2139,1938,1624,1764,1545,1539,1467,1451,1413,1420,1405,1400,1395,1397,1406,1414,1432,1416,1425,1420,1422,1427,1427,1433,1424,1430,1428,1441,1464,1439,1441,1453,1436,1448,1434,1438,1460,1435,1438,1429,824,827,829,836,875,1169,1324,1467,1560,1600,1614,1590,1565,1540,1514,1490,1465,1439,1414,1389,1365,1339,1314,1289,1265,1239,1214,1189,1163,1139,1114,1077,870,851,839,836,838,840,839,840,847,850,848,864,853,864,853,871,861,870,868,862,866,869,863,865,866,873,862,872,871,872,865,877,876,0,0,0,0,0,0,0,0,0,0,0,0,0,0,0,0,0,0,0,0,0,0,0,0,0,0,0,0,0,0,0,0,0,0,0,0,0,0,0,0,0,0,0,0,0,0,0,0,0,0,0,0,0,0,0,0,0,0,0,0,0,0,0,0,0,746,747,749,768,792,981,1254,1425,1549,1619,1586,1557,1557,1518,1491,1446,1454,1391,1383,1335,1331,1303,1251,1247,1195,1168,1156,1178,1101,1057,969,909,901,790,759,774,762,765,760,768,766,765,763,768,775,777,775,795,770,773,773,776,776,779,797,792,786,776,776,770,785,786,793,793,779,966,969,999,995,1095,1472,1704,1939,2020,2050,2099,2002,1965,1929,1948,1910,1822,1786,1750,1817,1678,1703,1607,1570,1535,1548,1464,1427,1391,1368,1226,1093,1021,997,983,982,987,991,1001,1008,1007,1014,1019,1014,1017,1017,1014,1013,1023,1017,1023,1026,1026,1021,1023,1031,1029,1026,1025,1020,1025,1039,1013,1025,1020,925,909,911,927,1013,1237,1509,1659,1749,1785,1791,1766,1755,1727,1680,1652,1623,1599,1566,1537,1532,1480,1452,1459,1392,1366,1337,1306,1280,1158,1132,1067,954,946,935,919,921,928,923,925,927,927,922,930,929,930,930,944,936,942,938,944,942,945,949,949,940,935,941,945,941,939,944,947,944,829,832,827,836,876,1179,1347,1515,1587,1656,1639,1612,1586,1578,1534,1508,1481,1455,1428,1403,1377,1350,1324,1334,1272,1246,1219,1193,1181,1029,1006,981,869,865,837,842,837,855,848,843,854,853,856,858,864,860,859,871,889,873,867,867,864,873,872,865,864,870,857,864,863,875,861,903,862,923,926,928,963,1043,1432,1622,1825,1939,1971,1959,1921,1970,1855,1881,1786,1751,1716,1758,1644,1612,1575,1598,1508,1474,1493,1401,1369,1334,1258,1109,1079,978,952,950,939,942,942,943,949,952,971,964,954,961,967,961,971,968,973,976,971,985,997,973,967,977,971,970,965,974,978,967,974,966,203,204,204,205,251,259,293,326,360,393,411,404,399,392,386,379,372,366,359,354,347,341,334,327,321,314,309,302,295,289,282,276,269,264,257,251,253,254,196,191,194,196,196,195,195,197,193,198,198,197,194,197,195,193,195,198,198,199,195,193,197,196,195,195,194,1384,1397,1416,1512,1754,2303,2546,2736,2821,2858,2820,2781,2798,2681,2679,2583,2533,2483,2510,2383,2349,2281,2285,2184,2136,2149,1977,1836,1672,1565,1511,1505,1456,1428,1416,1405,1411,1417,1414,1431,1428,1451,1435,1436,1446,1441,1437,1438,1444,1437,1435,1431,1452,1468,1456,1462,1457,1448,1456,1459,1463,1493,1450,1453,1444,1426,1433,1446,1575,1831,2368,2609,2796,2867,2903,2876,2819,2840,2721,2719,2622,2574,2524,2572,2423,2392,2318,2323,2222,2185,2195,1980,1913,1812,1603,1538,1504,1467,1455,1443,1441,1441,1443,1447,1457,1454,1481,1463,1461,1475,1471,1469,1467,1476,1469,1468,1481,1481,1500,1481,1477,1486,1487,1495,1486,1492,1522,1488,1498,1490,1058,1059,1073,1085,1234,1499,1733,1905,1994,2025,2018,1987,1956,1927,1896,1870,1839,1809,1756,1746,1734,1714,1674,1646,1610,1579,1559,1491,1392,1215,1243,1170,1137,1096,1072,1083,1085,1080,1046,1049,1058,1054,1062,1058,1058,1082,1059,1055,1061,1054,1057,1054,1059,1066,1067,1069,1064,1064,1064,1064,1064,1064,1064,1064,1064,341,342,342,343,344,422,502,548,578,605,607,601,612,590,584,578,573,567,561,555,550,564,555,546,538,519,525,498,471,463,445,438,362,411,430,345,402,347,285,285,287,295,293,295,292,302,291,297,292,297,292,303,303,331,301,292,295,297,295,297,295,296,290,294,294,520,522,523,525,533,710,802,878,951,1003,998,984,970,959,946,927,915,889,886,873,855,871,859,817,801,779,775,748,731,709,704,564,551,533,530,528,522,519,496,501,500,501,496,508,507,515,499,500,511,505,513,506,510,514,522,520,515,508,514,515,503,500,495,522,491,543,544,540,543,554,690,824,905,993,1021,1020,1023,1003,981,971,969,952,934,925,914,893,907,889,850,833,819,804,776,753,738,729,707,677,554,548,546,548,529,496,493,498,508,497,513,507,520,512,508,513,512,508,515,514,527,512,504,508,518,506,507,507,509,505,515,502,655,657,710,660,684,890,1052,1155,1243,1276,1267,1249,1230,1212,1193,1175,1157,1138,1119,1102,1083,1092,1074,1111,1009,991,972,940,921,903,930,789,692,676,666,664,666,650,645,639,651,675,640,677,646,652,648,646,670,649,642,650,648,694,659,657,648,656,655,657,656,659,648,680,656,101,101,101,101,101,101,101,101,101,101,101,101,101,101,101,101,101,101,101,101,101,101,101,101,101,101,101,101,101,101,101,101,101,101,101,101,101,101,59,59,59,59,59,60,60,60,60,60,60,60,62,62,62,62,62,62,62,62,63,63,63,63,63,63,63,476,478,479,480,482,644,732,799,865,916,914,902,888,876,863,850,838,825,812,799,787,803,790,749,737,723,711,685,672,658,645,516,505,495,499,483,483,485,467,466,469,495,466,476,467,479,467,500,499,473,501,477,482,484,505,492,478,477,477,483,468,460,467,492,451,94,94,116,116,116,118,127,136,145,163,167,167,166,165,163,162,150,148,146,145,143,141,139,137,136,134,132,130,128,127,125,123,122,119,118,116,116,117,77,77,77,78,77,78,78,78,78,78,78,79,79,79,79,81,80,79,79,80,80,79,79,80,84,80,80,536,537,539,541,542,736,833,913,990,1042,1035,1020,1006,995,980,960,947,921,917,903,885,899,887,844,828,805,799,772,755,732,726,597,584,549,546,543,539,519,496,501,500,501,496,508,507,515,499,500,511,505,513,506,510,514,522,520,515,508,514,515,503,500,495,522,491,670,676,701,680,691,795,1022,1176,1237,1276,1271,1271,1256,1249,1211,1210,1197,1158,1157,1147,1117,1132,1068,1036,1038,1022,1001,964,963,916,839,785,712,710,685,660,681,689,650,651,646,655,660,664,671,677,658,664,666,678,667,665,668,695,673,660,666,668,658,664,658,668,663,677,677,875,877,880,882,910,1211,1357,1504,1628,1705,1692,1668,1644,1637,1599,1574,1554,1525,1500,1474,1432,1410,1381,1358,1333,1320,1279,1269,1155,1134,1045,943,922,903,893,886,894,923,885,877,881,885,887,893,890,921,902,885,910,891,897,892,892,902,896,896,891,897,893,900,894,953,900,939,939,559,560,562,564,566,773,873,955,1036,1089,1080,1064,1049,1034,1022,1003,987,972,957,941,929,938,924,880,864,850,833,805,788,772,756,662,657,629,568,567,568,553,531,536,533,534,548,552,546,565,549,557,553,551,555,543,548,561,562,555,563,551,552,558,542,556,540,560,530,1207,1211,1272,1237,1332,1850,2117,2264,2335,2347,2319,2284,2246,2214,2189,2147,2111,2093,2053,2021,1959,1964,1943,1860,1840,1789,1783,1694,1533,1337,1349,1298,1251,1217,1234,1224,1217,1210,1205,1199,1211,1216,1200,1233,1206,1212,1208,1206,1226,1209,1202,1210,1208,1251,1219,1217,1208,1216,1215,1217,1216,1219,1208,1240,1216,920,923,924,929,945,1343,1509,1681,1772,1788,1784,1757,1727,1676,1687,1651,1576,1597,1570,1543,1527,1524,1446,1392,1410,1388,1359,1319,1282,1032,1009,1036,964,958,937,901,935,921,892,899,899,905,917,920,919,942,918,933,925,926,931,916,925,939,936,924,939,925,928,934,918,932,916,936,906,470,482,484,485,491,517,699,780,826,884,881,868,873,837,848,820,807,811,764,771,773,764,772,759,742,716,716,702,676,665,661,647,552,486,489,487,488,489,461,464,466,470,471,471,470,474,467,472,469,469,473,475,473,476,474,477,472,475,475,474,475,475,473,473,473,479,480,482,480,489,610,721,777,859,876,903,893,883,873,834,854,844,808,822,812,774,788,775,733,744,729,696,689,670,659,649,635,622,497,487,486,486,473,437,433,439,448,439,455,448,463,458,449,462,453,449,456,455,469,453,445,449,459,448,448,448,451,447,457,457,601,601,595,605,607,694,904,993,1054,1127,1156,1126,1128,1097,1098,1079,1065,1022,1014,990,995,964,952,939,912,905,895,860,835,780,696,632,683,664,615,600,614,591,511,509,511,518,516,516,517,524,517,519,519,526,539,545,544,551,520,513,518,524,517,518,518,517,515,518,518,722,724,730,728,731,993,1113,1232,1340,1402,1413,1376,1354,1348,1327,1305,1283,1261,1240,1219,1198,1177,1141,1135,1113,1079,1070,1036,1028,1007,952,779,762,745,735,733,735,733,680,688,683,696,691,686,696,698,686,698,695,690,696,699,700,698,693,690,692,689,694,696,691,689,687,689,687,1009,1022,1016,1030,1114,1353,1637,1806,1884,1929,1925,1896,1867,1838,1816,1780,1752,1722,1686,1666,1637,1630,1600,1586,1555,1514,1484,1464,1352,1216,1178,1121,1101,1050,1025,1024,1038,1028,1001,995,1017,1006,998,1012,1015,1014,1014,1010,1017,1009,1012,1015,1016,1018,1020,1027,1019,1021,1014,1014,1014,1014,1014,1014,1014,733,765,774,743,790,1018,1241,1485,1639,1711,1714,1623,1684,1563,1538,1519,1547,1452,1421,1407,1361,1329,1276,1267,1216,1203,1206,1134,1105,1071,1046,971,811,799,778,780,792,759,747,749,751,759,755,759,771,764,758,761,765,766,773,767,773,774,759,760,765,760,762,762,762,759,758,752,752,1025,1036,1031,1047,1105,1380,1670,1840,1918,1962,1957,1927,1898,1869,1845,1809,1780,1750,1713,1692,1664,1655,1625,1611,1578,1536,1505,1485,1286,1143,1194,1121,1116,1064,1039,1039,1046,1037,1001,999,1004,1017,1015,1013,1022,1019,1010,1013,1021,1010,1017,1019,1027,1029,1038,1027,1030,1031,1025,1025,1025,1025,1025,1025,1025,453,454,459,457,460,592,664,726,793,858,878,853,841,838,825,812,800,785,773,761,749,736,713,711,699,676,673,651,648,636,624,600,481,471,461,459,460,463,415,418,417,418,420,419,418,424,416,421,417,416,418,421,422,422,421,419,418,416,424,422,417,418,417,419,417,627,628,643,655,655,871,1009,1148,1295,1409,1398,1374,1354,1329,1303,1279,1262,1237,1279,1194,1136,1125,1146,1075,1051,1024,995,982,956,941,901,876,680,709,662,658,665,656,628,632,626,632,634,639,663,666,633,639,642,662,643,636,638,673,644,640,641,639,638,640,637,643,647,653,653,0,0,0,0,0,0,0,0,0,0,0,0,0,0,0,0,0,0,0,0,0,0,0,0,0,0,0,0,0,0,0,0,0,0,0,0,0,0,0,0,0,0,0,0,0,0,0,0,0,0,0,0,0,0,0,0,0,0,0,0,0,0,0,0,0,368,369,369,370,371,481,557,609,658,699,700,690,682,672,663,653,644,634,625,616,607,625,616,578,569,559,551,528,518,507,497,487,477,382,374,372,373,374,361,363,369,373,368,369,374,380,369,374,378,376,375,378,381,386,369,374,381,379,380,369,376,372,369,379,363,288,288,289,290,290,288,369,426,448,463,468,466,480,460,457,455,452,449,446,444,441,434,429,423,416,411,409,385,378,350,344,337,288,339,362,291,331,292,233,232,233,237,236,236,238,245,236,238,238,244,236,241,238,264,237,234,238,242,238,240,238,238,237,237,237,321,323,323,324,324,412,470,511,552,592,611,604,594,587,578,571,564,557,549,541,534,521,513,504,496,492,486,459,450,443,434,425,418,413,392,325,389,333,249,247,250,257,255,255,256,263,256,258,258,265,278,284,283,289,258,252,257,263,256,257,257,256,254,257,257,571,573,574,576,590,717,856,945,1008,1068,1081,1065,1050,1040,1019,1003,988,972,944,941,925,939,919,905,884,868,852,847,817,789,782,705,717,605,581,579,580,580,555,545,550,552,550,555,554,559,553,558,556,549,555,557,556,559,562,561,558,561,558,558,558,558,558,558,558,547,548,553,549,550,727,847,967,1096,1216,1208,1188,1169,1147,1124,1103,1088,1065,1050,1022,974,966,941,922,900,876,854,823,811,789,768,746,724,607,559,552,562,558,531,528,530,533,528,540,537,537,537,539,563,537,535,541,537,546,539,540,539,540,540,540,541,540,544,563,562,1039,1033,1046,1057,1197,1417,1686,1857,1942,1977,1972,1942,1912,1892,1854,1824,1794,1767,1716,1704,1675,1666,1635,1609,1576,1542,1515,1483,1302,1154,1152,1142,1098,1069,1044,1044,1058,1049,1021,1016,1029,1031,1033,1041,1040,1044,1039,1031,1038,1032,1036,1032,1030,1045,1042,1040,1039,1037,1037,1037,1037,1037,1037,1037,1037,1058,1059,1073,1085,1234,1499,1733,1905,1994,2025,2018,1987,1956,1927,1896,1870,1839,1809,1756,1746,1734,1714,1674,1646,1610,1579,1559,1491,1392,1215,1243,1170,1137,1096,1072,1083,1085,1080,1046,1049,1058,1054,1062,1058,1058,1082,1059,1055,1061,1054,1057,1054,1059,1066,1067,1069,1064,1064,1064,1064,1064,1064,1064,1064,1064,892,927,929,939,972,1310,1523,1648,1774,1768,1760,1785,1756,1690,1698,1669,1617,1633,1579,1509,1472,1500,1482,1443,1370,1343,1343,1295,1208,1191,1165,961,964,951,921,906,940,939,940,936,944,947,941,947,947,943,944,953,953,945,953,950,951,959,955,952,948,951,949,953,959,967,963,961,956,276,277,278,278,279,360,404,449,493,536,583,539,531,522,513,506,497,489,480,471,464,455,447,438,430,422,413,404,397,388,380,371,363,355,283,279,280,281,265,265,266,266,267,266,266,267,267,268,266,268,268,273,269,270,266,269,267,267,265,270,267,266,265,267,266,259,260,261,320,320,321,372,409,445,481,491,485,478,470,464,457,449,443,436,429,422,415,408,401,394,387,380,374,366,359,353,345,338,260,254,321,322,322,250,256,248,259,252,257,249,253,251,245,252,251,245,250,251,252,251,258,252,255,256,258,251,287,249,256,252,279,279,280,281,282,298,396,440,481,496,515,507,499,491,485,500,492,484,476,468,460,453,444,436,429,421,413,404,397,393,383,374,298,293,286,283,283,284,212,212,214,213,215,212,212,214,214,215,213,215,215,220,216,217,212,216,214,214,212,216,214,213,211,213,212,459,459,461,462,468,575,701,854,937,908,913,898,884,870,856,842,828,814,799,785,771,756,850,728,713,699,685,672,657,643,629,614,600,568,468,465,467,451,438,444,445,456,449,456,444,459,449,452,449,444,450,456,455,456,456,455,455,451,466,461,455,505,484,482,479,350,351,351,352,348,403,507,591,595,651,660,641,642,623,613,605,596,586,577,568,558,550,550,532,522,513,504,504,486,486,458,426,417,360,358,354,355,356,327,326,327,332,333,331,336,333,331,336,339,342,342,347,344,339,343,337,336,342,344,342,347,345,340,340,337,258,277,278,284,279,301,398,438,478,517,529,521,513,507,465,491,484,476,468,460,453,445,437,440,432,414,407,399,366,385,377,369,361,278,271,279,280,317,260,247,252,255,254,254,251,252,254,256,254,254,255,268,271,269,270,256,254,257,255,256,250,256,254,261,254,357,358,360,360,390,428,543,639,660,700,708,706,686,686,675,654,653,643,632,610,599,599,588,567,566,545,534,532,522,501,490,469,451,439,366,362,363,364,344,348,349,356,367,361,361,362,352,363,357,361,356,367,361,366,361,356,363,358,364,363,364,387,354,354,354,275,276,276,277,278,339,399,440,481,521,530,522,514,507,499,491,484,476,468,460,453,445,437,430,421,413,405,398,390,382,375,367,359,276,270,340,341,342,250,256,248,259,252,257,249,253,251,245,252,251,245,250,251,252,251,258,252,255,256,258,251,271,249,256,252,468,464,484,490,499,504,672,796,871,900,909,900,860,877,855,883,819,822,841,784,770,764,781,737,743,723,684,680,673,594,570,635,549,483,493,493,481,496,413,421,421,423,425,423,419,426,418,432,420,420,424,431,438,442,429,428,425,421,428,430,426,427,418,427,419,1066,1068,1071,1078,1178,1437,1876,1997,2062,2092,2122,2048,2017,1985,1953,1914,1937,1856,1821,1789,1751,1723,1688,1657,1621,1630,1555,1523,1219,1367,1193,1179,1132,1094,1088,1081,1083,1086,1082,1089,1089,1105,1127,1120,1118,1128,1122,1130,1126,1117,1111,1105,1119,1125,1121,1122,1115,1116,1119,1119,1131,1131,1137,1133,1121,350,358,358,359,360,374,512,574,630,683,694,684,673,663,622,642,632,621,610,600,590,580,569,559,549,538,528,517,503,497,486,478,467,361,353,361,362,364,316,316,315,322,322,324,318,321,320,314,321,321,312,319,318,321,320,325,321,322,322,324,318,324,316,325,319,1017,1016,1021,1026,1116,1468,1687,1851,2039,1992,1981,1953,1927,1895,1856,1821,1794,1768,1731,1713,1691,1659,1707,1585,1543,1531,1499,1426,1387,1309,1108,1094,1057,1046,1026,1044,1047,1011,998,1004,1005,1016,1009,1016,1004,1019,1009,1012,1009,1004,1010,1016,1015,1016,1016,1015,1015,1011,1028,1021,1015,1064,1044,1042,1039,712,720,720,723,729,818,1082,1225,1356,1356,1411,1389,1366,1318,1302,1302,1277,1234,1235,1213,1192,1167,1145,1103,1080,1082,1057,1037,956,943,858,841,728,731,720,727,729,734,684,677,678,688,693,693,686,694,697,683,697,693,687,695,691,698,698,699,690,698,696,700,694,700,692,701,695,394,395,396,398,426,447,583,673,738,788,777,783,772,759,730,734,707,711,699,686,674,647,650,638,626,614,605,594,552,557,556,546,520,426,429,400,417,414,379,378,380,386,381,387,380,389,384,386,382,383,381,380,387,420,385,385,385,385,385,384,386,390,381,389,383,204,205,206,206,253,258,289,321,351,350,363,357,352,347,342,371,366,359,354,347,342,335,330,323,317,311,305,299,293,287,281,275,269,264,257,253,254,255,153,153,154,154,155,154,154,155,155,156,154,156,156,161,157,158,154,157,155,155,153,158,155,154,153,155,154,614,614,608,618,606,751,917,1019,1091,1178,1203,1176,1167,1147,1147,1124,1095,1059,1041,1026,1005,998,983,948,936,926,888,891,837,792,721,777,714,612,626,614,610,605,525,524,529,536,540,527,530,532,531,529,541,540,550,558,585,563,559,552,541,537,532,529,528,531,536,529,524,815,808,810,814,861,1112,1298,1433,1545,1596,1589,1565,1556,1532,1486,1486,1440,1438,1415,1365,1339,1314,1327,1279,1239,1215,1190,1164,1152,1080,977,954,851,831,819,818,819,808,769,773,774,793,790,773,787,785,780,785,798,793,799,808,831,818,810,802,794,789,781,782,781,781,785,778,773,854,856,856,844,933,1185,1335,1514,1623,1658,1652,1616,1617,1588,1548,1523,1512,1493,1464,1434,1409,1382,1354,1333,1307,1265,1261,1227,1202,1033,1078,919,900,914,871,854,863,857,851,858,859,864,863,860,858,869,863,866,862,858,864,868,869,858,870,869,864,865,861,861,869,864,861,866,865,901,936,906,945,973,1254,1777,1895,2057,2095,2003,2026,1945,1917,1919,1872,1842,1795,1692,1697,1679,1641,1606,1564,1472,1464,1448,1411,1320,1305,1018,1028,981,969,957,955,926,949,939,940,942,952,969,976,964,977,972,976,968,972,969,973,963,992,970,969,968,963,959,967,957,977,962,968,954,868,872,870,861,951,1211,1366,1550,1656,1692,1685,1648,1648,1619,1578,1552,1541,1521,1491,1461,1434,1408,1378,1357,1331,1287,1283,1248,1218,966,1097,936,915,917,886,869,872,867,860,865,867,875,871,871,866,874,871,874,871,866,872,878,877,869,878,877,875,873,872,871,877,875,873,878,877,545,538,539,540,568,709,835,916,995,1061,1063,1047,1047,1032,997,1002,964,972,958,915,898,882,904,863,831,815,798,782,778,749,732,704,688,583,547,543,545,538,504,503,508,515,519,506,509,511,510,508,520,519,520,523,544,542,538,531,520,516,511,508,507,510,515,508,503,796,798,800,820,841,1087,1442,1598,1709,1755,1739,1699,1680,1650,1618,1594,1592,1545,1494,1518,1433,1451,1374,1339,1348,1311,1247,1241,1185,1154,1105,920,868,842,836,829,820,819,810,810,817,817,841,857,831,852,837,843,855,852,858,843,846,864,848,837,856,845,845,854,852,863,850,856,851,306,306,307,308,309,328,460,546,547,592,603,594,585,576,566,557,548,539,530,521,511,502,503,485,475,466,457,456,438,430,420,411,329,321,314,310,311,312,278,280,283,287,322,293,294,294,286,299,300,321,290,313,291,325,290,287,326,289,291,293,294,329,286,286,286,0,0,0,0,0,0,0,0,0,0,0,0,0,0,0,0,0,0,0,0,0,0,0,0,0,0,0,0,0,0,0,0,0,0,0,0,0,0,0,0,0,0,0,0,0,0,0,0,0,0,0,0,0,0,0,0,0,0,0,0,0,0,0,0,0,265,266,267,268,268,345,382,427,467,510,487,514,506,496,488,481,475,468,462,454,446,438,427,420,412,404,396,388,380,372,365,357,348,341,272,269,270,270,247,247,251,255,260,247,251,253,250,248,259,258,247,254,262,263,259,262,260,255,253,251,248,252,258,248,246,332,334,335,337,338,426,483,537,589,643,666,654,647,637,627,616,608,598,588,577,568,556,541,530,520,509,499,490,479,469,459,448,438,415,349,339,346,341,263,262,268,275,279,266,269,271,270,268,280,279,289,297,320,301,297,291,280,276,271,268,267,270,275,268,263,472,474,474,476,480,511,702,779,864,911,919,905,890,874,862,847,833,819,805,790,777,760,747,734,718,705,690,677,661,639,609,594,504,498,478,467,477,447,430,428,432,446,451,448,441,439,445,449,444,447,451,435,448,455,436,439,439,447,444,448,437,455,444,454,442,715,717,720,715,742,950,1254,1401,1514,1565,1551,1514,1499,1470,1442,1420,1392,1357,1329,1301,1273,1245,1220,1189,1163,1133,1104,1067,1039,1020,990,963,765,742,729,727,730,735,747,715,721,729,768,781,743,766,757,780,788,746,754,733,737,785,747,735,762,740,731,751,753,776,756,774,751,897,900,901,910,973,1295,1489,1646,1743,1776,1769,1740,1713,1682,1656,1628,1599,1571,1544,1528,1501,1468,1443,1404,1387,1358,1321,1301,1265,1234,994,971,957,928,912,910,912,906,896,894,907,919,914,914,906,905,921,922,927,918,935,929,928,936,932,929,925,927,909,913,913,929,940,938,911,892,927,929,939,972,1310,1523,1648,1774,1768,1760,1785,1756,1690,1698,1669,1617,1633,1579,1509,1472,1500,1482,1443,1370,1343,1343,1295,1208,1191,1165,961,964,951,921,906,940,939,940,936,944,947,941,947,947,943,944,953,953,945,953,950,951,959,955,952,948,951,949,953,959,967,963,961,956,1080,1083,1068,1092,1170,1637,1844,1939,2027,2105,2096,2019,1971,1999,1948,1892,1861,1865,1785,1763,1731,1690,1709,1677,1644,1566,1547,1433,1413,1170,1143,1150,1100,1099,1064,1058,1066,1097,1081,1082,1082,1079,1079,1081,1100,1101,1076,1095,1091,1079,1081,1092,1097,1103,1104,1098,1103,1093,1092,1106,1101,1093,1089,1089,1086,123,147,116,116,116,146,162,179,189,198,203,202,200,198,197,194,192,191,189,187,185,184,183,180,178,177,175,173,165,169,167,155,151,148,145,117,117,117,93,93,93,93,93,93,93,93,93,93,93,93,93,93,93,93,93,93,93,93,93,93,93,93,93,93,93,412,414,414,415,425,552,615,691,757,796,798,789,776,770,757,742,730,720,709,698,686,676,664,653,646,631,634,608,590,578,566,553,522,432,421,418,419,420,396,396,396,396,396,396,396,396,396,396,396,396,396,396,396,396,396,396,396,396,396,396,396,396,396,396,396,310,311,312,313,314,410,462,513,555,597,602,594,586,575,568,558,553,544,533,525,520,513,504,496,485,480,469,463,447,438,429,419,407,399,325,315,315,316,296,296,296,296,296,296,296,296,296,296,296,296,296,296,296,296,296,296,296,296,296,296,296,296,296,296,296,614,616,644,619,638,850,954,1063,1157,1203,1200,1182,1163,1146,1128,1111,1092,1074,1057,1039,1021,1003,985,968,950,938,914,883,864,847,693,680,709,635,624,622,624,632,590,583,583,584,586,587,605,610,584,600,594,584,583,588,593,604,605,595,608,589,588,605,598,590,586,586,583,336,337,357,338,341,371,457,532,579,605,630,623,615,602,600,595,564,584,580,574,569,548,560,522,496,487,479,471,464,455,429,440,402,352,345,342,342,343,301,299,301,302,302,306,305,308,307,306,308,303,306,305,306,307,309,307,307,306,306,309,308,317,316,321,319,435,436,454,439,459,584,645,724,788,841,845,833,821,807,797,783,773,761,749,737,725,713,700,689,675,664,653,626,613,601,590,577,463,453,444,464,459,443,412,407,405,406,408,409,409,415,406,423,416,406,405,423,423,419,423,423,412,418,411,416,413,412,408,408,405,326,323,328,325,327,431,484,538,590,642,652,641,631,614,604,636,590,573,570,560,550,541,531,515,505,499,484,479,469,459,471,462,424,343,396,332,333,330,300,297,299,300,301,297,298,298,297,299,298,298,299,313,301,299,316,300,299,299,299,312,299,299,301,300,299,426,428,429,432,433,494,638,719,781,830,828,817,809,802,791,774,760,750,738,727,715,703,691,679,670,656,649,631,600,587,574,545,488,461,451,432,441,418,396,396,396,396,396,396,396,396,396,396,396,396,396,396,396,396,396,396,396,396,396,396,396,396,396,396,396,432,460,461,463,468,507,677,755,813,850,850,844,833,822,845,802,818,757,793,779,766,711,706,712,716,705,660,678,655,634,629,479,477,467,469,452,467,441,455,456,453,461,461,461,461,461,461,461,461,461,461,461,461,461,461,461,461,461,461,461,461,461,461,461,461,996,1011,1014,1017,1045,1427,1633,1775,1897,1943,1913,1887,1843,1780,1753,1790,1762,1725,1659,1677,1648,1618,1584,1563,1537,1504,1471,1444,1213,1170,1158,1113,1055,1038,1018,1022,1015,1028,1038,1030,1037,1059,1048,1050,1067,1055,1062,1042,1052,1057,1053,1045,1046,1075,1053,1054,1050,1058,1045,1060,1048,1069,1054,1054,1041,508,511,512,514,520,611,767,864,949,995,991,978,966,956,942,924,907,895,880,866,854,837,825,807,799,782,770,746,718,703,667,643,594,531,519,518,520,484,466,466,466,466,466,466,466,466,466,466,466,466,466,466,466,466,466,466,466,466,466,466,466,466,466,466,466,1163,1169,1188,1195,1286,1800,2019,2176,2260,2278,2255,2230,2188,2162,2124,2062,2043,2011,1995,1939,1923,1872,1813,1805,1781,1708,1696,1408,1531,1292,1295,1235,1209,1193,1206,1183,1192,1172,1148,1143,1143,1144,1146,1147,1168,1166,1144,1164,1154,1144,1143,1148,1153,1164,1165,1155,1168,1149,1148,1165,1158,1150,1146,1146,1143,871,873,868,883,901,1136,1393,1559,1639,1717,1693,1680,1649,1587,1547,1574,1510,1522,1474,1469,1444,1423,1356,1330,1353,1321,1296,1260,1109,1097,1054,940,935,903,886,850,890,852,827,827,827,827,827,827,827,827,827,827,827,827,827,827,827,827,827,827,827,827,827,827,827,827,827,827,827,558,551,563,554,577,724,848,938,1013,1082,1068,1049,1055,1026,1023,996,976,965,945,928,913,902,898,882,851,839,824,804,775,759,614,607,607,594,559,581,569,546,517,514,510,511,513,514,527,547,511,531,521,511,510,529,534,530,530,529,531,528,532,534,525,517,513,513,510,252,253,254,255,263,328,355,399,443,476,484,477,471,437,460,424,446,440,433,427,421,404,409,403,396,390,370,377,365,357,349,342,334,325,317,264,265,265,237,237,237,237,237,237,237,237,237,237,237,237,237,237,237,237,237,237,237,237,237,237,237,237,237,237,237,394,377,376,408,418,406,561,623,689,761,775,771,735,722,698,700,688,680,683,647,658,618,632,617,583,572,559,548,536,457,420,496,417,420,426,418,429,409,353,353,353,353,353,353,353,353,353,353,353,353,353,353,353,353,353,353,353,353,353,353,353,353,353,353,353,606,608,610,644,664,743,902,1054,1167,1206,1219,1201,1181,1149,1130,1124,1105,1085,1067,1047,1028,997,979,960,941,921,904,884,865,847,827,800,655,630,650,648,649,651,602,602,602,602,602,602,602,602,602,602,602,602,602,602,602,602,602,602,602,602,602,602,602,602,602,602,602,998,1000,1014,1015,1109,1483,1669,1829,1916,1965,1917,1908,1871,1850,1793,1790,1754,1732,1694,1680,1644,1614,1608,1563,1515,1502,1468,1433,1364,1222,1117,1070,1052,1034,1021,1011,1009,1016,990,994,992,992,994,994,1013,1008,991,1007,997,991,990,1002,1007,1009,1019,1009,1009,1003,1002,1003,1005,997,993,993,990,863,866,873,911,925,1052,1356,1573,1693,1718,1722,1695,1668,1633,1608,1592,1565,1540,1503,1485,1460,1416,1392,1361,1332,1312,1276,1218,1192,973,998,962,930,913,927,883,897,879,831,831,831,831,831,831,831,831,831,831,831,831,831,831,831,831,831,831,831,831,831,831,831,831,831,831,831,1012,1016,1029,1031,1131,1513,1704,1863,1949,1998,1949,1940,1902,1880,1823,1820,1782,1760,1721,1707,1670,1640,1633,1587,1537,1523,1489,1454,1307,1202,1104,1080,1066,1049,1036,1026,1017,1026,1002,1003,1001,1003,1006,1005,1024,1019,1002,1017,1009,1004,1001,1010,1015,1020,1027,1017,1020,1011,1010,1013,1016,1008,1005,1005,1002,337,338,339,379,380,364,489,557,626,663,685,675,664,640,630,632,622,611,600,590,579,557,546,536,526,515,506,495,485,474,464,493,399,354,384,381,382,383,332,332,332,332,332,332,332,332,332,332,332,332,332,332,332,332,332,332,332,332,332,332,332,332,332,332,332,760,762,765,769,790,1167,1334,1501,1626,1681,1688,1631,1601,1560,1543,1571,1517,1499,1426,1452,1357,1328,1332,1303,1250,1243,1194,1181,1137,1124,924,924,832,809,836,794,787,786,784,790,780,793,795,796,822,819,794,797,799,827,805,789,792,823,801,798,800,828,790,800,791,804,801,813,789,293,293,339,296,297,368,410,485,531,558,583,576,568,555,553,548,517,536,532,526,521,501,513,475,448,440,432,424,416,408,400,381,375,368,301,297,298,299,251,251,253,254,252,256,255,258,257,256,257,255,255,254,256,257,255,255,256,256,255,255,255,258,254,258,256,291,292,297,297,295,368,437,480,520,558,564,556,548,542,535,525,518,511,503,496,488,481,473,465,458,450,448,434,432,416,402,383,375,365,299,296,300,297,280,280,280,280,280,280,280,280,280,280,280,280,280,280,280,280,280,280,280,280,280,280,280,280,280,280,280,0,0,0,0,0,0,0,0,0,0,0,0,0,0,0,0,0,0,0,0,0,0,0,0,0,0,0,0,0,0,0,0,0,0,0,0,0,0,0,0,0,0,0,0,0,0,0,0,0,0,0,0,0,0,0,0,0,0,0,0,0,0,0,0,0,142,144,144,150,144,152,194,206,173,231,229,226,236,232,230,212,209,206,203,174,171,214,212,210,207,205,203,200,197,195,193,191,186,155,153,150,144,151,91,91,91,91,91,91,91,91,91,91,91,91,91,91,91,91,91,91,91,91,91,91,91,91,91,91,91,615,630,642,632,648,826,959,1067,1164,1208,1206,1186,1171,1152,1136,1115,1099,1080,1061,1044,1027,1008,990,971,954,937,919,885,868,809,792,776,651,651,633,633,638,591,567,564,560,561,563,564,578,598,561,581,571,561,560,583,590,585,583,583,584,592,608,599,575,567,563,563,560,675,682,684,684,685,1005,1153,1302,1430,1488,1500,1445,1419,1380,1366,1372,1313,1294,1260,1234,1197,1171,1178,1132,1102,1097,1049,1035,998,961,964,900,729,707,747,688,692,689,687,686,684,694,689,697,723,731,698,696,726,721,697,694,691,733,696,698,698,731,692,700,695,700,698,733,697,1053,1056,1070,1066,1185,1593,1794,1946,2035,2058,2042,2009,1981,1960,1927,1897,1855,1823,1791,1761,1737,1698,1672,1640,1607,1577,1543,1497,1384,1283,1147,1135,1125,1078,1068,1067,1069,1064,1042,1042,1043,1046,1047,1049,1064,1063,1053,1064,1059,1052,1062,1084,1088,1093,1078,1060,1088,1073,1088,1073,1069,1061,1065,1051,1048,1080,1083,1068,1092,1170,1637,1844,1939,2027,2105,2096,2019,1971,1999,1948,1892,1861,1865,1785,1763,1731,1690,1709,1677,1644,1566,1547,1433,1413,1170,1143,1150,1100,1099,1064,1058,1066,1097,1081,1082,1082,1079,1079,1081,1100,1101,1076,1095,1091,1079,1081,1092,1097,1103,1104,1098,1103,1093,1092,1106,1101,1093,1089,1089,1086,1139,1112,1125,1143,1279,1592,1931,2043,2151,2202,2227,2182,2123,2114,2087,2027,1993,1985,1920,1886,1850,1807,1802,1729,1714,1715,1624,1544,1510,1307,1277,1242,1159,1133,1147,1126,1137,1132,1137,1128,1132,1141,1129,1128,1140,1141,1139,1135,1146,1143,1146,1145,1145,1150,1150,1148,1146,1144,1147,1148,1150,1150,1150,1150,1149,126,127,127,128,128,161,182,204,225,247,260,270,266,248,244,239,236,232,227,223,218,215,211,206,202,199,194,190,185,182,178,173,169,165,161,158,158,158,103,105,103,105,105,110,107,112,112,106,112,108,109,107,107,110,105,105,108,110,106,106,106,108,107,109,104,426,427,427,431,431,498,645,720,795,851,858,848,844,823,804,807,773,760,752,737,719,705,693,679,665,655,639,625,611,602,584,570,557,445,439,431,432,435,410,415,416,420,419,416,418,420,416,420,417,419,421,425,425,430,430,426,429,427,422,417,419,419,419,419,415,321,322,324,324,326,361,484,541,598,645,655,645,638,629,613,606,624,585,572,564,553,543,532,521,511,498,490,479,468,456,447,437,426,381,330,327,328,328,298,303,305,307,306,308,302,307,302,309,304,304,307,307,315,315,312,309,312,305,313,312,312,313,305,311,305,674,676,678,680,692,886,1041,1163,1280,1348,1351,1329,1321,1287,1266,1244,1230,1201,1179,1168,1146,1114,1093,1071,1060,1039,1006,995,972,941,827,810,717,700,699,684,686,672,642,645,637,651,652,652,649,650,652,650,646,651,649,651,650,649,653,653,653,649,652,651,646,646,646,646,645,326,328,328,328,331,358,445,501,544,599,621,614,607,600,593,585,578,571,564,526,548,542,502,493,519,477,469,460,453,444,436,428,391,420,393,332,360,390,293,294,292,295,297,297,295,297,296,299,297,298,300,306,302,316,304,300,301,301,299,308,303,308,308,308,307,464,447,475,453,486,521,697,793,873,892,939,884,909,855,869,863,848,834,783,770,788,759,759,744,729,713,689,684,669,627,639,625,549,507,458,469,481,477,425,423,423,427,427,430,424,432,422,433,425,424,429,430,437,439,436,433,434,427,439,439,434,436,429,437,429,316,317,318,319,321,417,466,527,573,632,643,633,623,606,601,592,574,571,561,545,535,531,521,505,499,489,473,469,459,448,438,429,418,409,397,330,331,375,288,289,288,294,295,294,292,320,287,295,294,289,291,310,294,294,294,295,294,294,303,295,293,293,292,294,292,441,441,441,444,447,516,671,749,826,886,893,878,871,858,834,818,804,789,783,764,746,732,719,709,690,678,661,646,621,606,594,566,567,476,450,445,447,433,409,409,413,412,414,415,414,413,412,416,417,413,415,416,417,416,416,419,417,416,417,417,418,419,417,419,415,471,472,473,476,467,623,699,770,853,902,909,898,869,871,891,847,811,797,826,815,789,785,770,751,739,726,689,675,678,632,647,604,603,512,468,478,479,492,444,445,448,453,446,454,450,454,461,451,456,448,452,452,448,449,452,452,452,453,452,453,454,461,459,461,459,998,1001,1004,1007,1036,1397,1620,1774,1901,1886,1874,1895,1880,1840,1780,1782,1707,1734,1712,1667,1638,1610,1527,1557,1527,1464,1465,1435,1345,1174,1165,1056,1033,1029,1033,1013,1027,1018,1025,1019,1025,1039,1030,1031,1033,1048,1062,1028,1035,1032,1036,1064,1072,1044,1053,1041,1035,1039,1036,1051,1037,1062,1039,1041,1040,523,525,525,529,551,563,803,896,987,1050,1054,1038,1029,1011,986,966,952,933,924,903,883,867,851,839,819,804,785,765,739,722,608,594,589,567,534,531,530,499,479,476,482,483,483,484,483,482,481,485,487,480,484,483,486,485,483,488,484,483,486,484,487,486,486,486,482,1219,1230,1219,1257,1340,1817,2106,2277,2372,2420,2405,2352,2337,2279,2247,2197,2163,2138,2098,2062,2034,1986,1940,1908,1880,1824,1750,1513,1575,1429,1359,1321,1275,1258,1256,1243,1237,1232,1202,1205,1197,1211,1212,1212,1209,1210,1212,1210,1206,1211,1209,1211,1210,1209,1213,1213,1213,1209,1212,1211,1206,1206,1206,1206,1205,866,887,880,891,947,1074,1426,1608,1678,1764,1761,1732,1710,1629,1647,1618,1575,1561,1537,1506,1475,1445,1419,1401,1374,1343,1311,1279,1130,1109,1028,938,896,908,900,863,900,867,840,839,848,854,852,852,856,859,850,861,859,855,860,856,863,863,857,857,860,857,862,860,863,862,862,862,858,609,611,613,617,639,766,936,1052,1141,1230,1220,1217,1207,1161,1158,1127,1107,1084,1064,1052,1032,1014,987,972,963,933,913,894,886,862,748,739,677,646,622,643,632,609,573,580,578,580,587,587,587,594,586,586,588,586,589,586,587,588,588,587,588,587,581,586,585,587,588,586,583,265,251,289,252,290,266,391,437,484,497,541,502,523,486,506,497,489,480,445,437,454,438,437,429,420,411,402,394,386,356,368,359,350,343,258,276,291,331,239,244,245,248,246,250,244,248,243,255,245,245,248,248,256,256,254,250,253,246,254,254,254,254,247,253,247,304,305,306,320,307,395,475,509,557,606,618,632,598,612,601,568,558,572,540,552,520,510,504,512,501,506,481,468,462,432,422,365,421,321,328,324,309,332,271,271,271,271,271,271,271,271,271,271,271,271,271,271,271,271,270,270,271,271,271,271,271,271,271,271,270,537,539,540,541,544,690,800,892,986,1067,1081,1064,1048,1029,1013,996,977,961,944,926,909,892,875,858,840,823,810,788,772,754,737,720,648,560,549,545,547,548,520,514,520,516,528,521,513,528,523,520,527,528,524,528,528,528,525,521,521,524,523,520,524,522,521,520,519,1056,1076,1063,1076,1157,1493,1752,1928,2039,2070,2059,2060,2020,1978,1938,1912,1886,1861,1812,1779,1763,1716,1681,1648,1625,1615,1549,1537,1353,1176,1171,1146,1097,1098,1075,1082,1071,1078,1052,1050,1050,1051,1058,1066,1058,1063,1066,1064,1051,1057,1055,1061,1060,1055,1067,1066,1063,1063,1064,1063,1060,1060,1060,1060,1059,797,800,802,799,828,1013,1239,1416,1513,1585,1588,1563,1541,1502,1488,1467,1438,1414,1393,1367,1340,1315,1291,1266,1228,1208,1196,1125,1100,1078,1040,880,876,837,819,819,789,777,749,752,757,758,758,758,758,758,758,758,758,758,758,758,758,758,757,757,758,758,758,758,758,758,758,758,757,1071,1093,1077,1092,1179,1522,1788,1963,2072,2102,2090,2091,2050,2008,1968,1941,1914,1887,1839,1806,1789,1741,1706,1672,1647,1637,1571,1559,1291,1193,1188,1161,1111,1113,1090,1090,1079,1088,1063,1057,1058,1062,1074,1071,1069,1072,1074,1072,1063,1071,1066,1073,1071,1066,1075,1075,1074,1071,1074,1073,1068,1068,1068,1068,1067,268,269,270,270,270,334,387,430,475,519,544,535,526,518,509,501,492,484,475,466,457,449,441,432,423,414,405,398,389,380,371,363,341,333,276,271,272,273,250,249,250,250,250,250,246,249,249,250,250,250,250,250,250,250,249,249,250,250,250,250,250,248,250,250,249,750,752,756,780,781,1154,1322,1490,1616,1671,1640,1632,1621,1564,1601,1505,1508,1509,1476,1443,1412,1338,1344,1312,1241,1210,1182,1149,1127,1114,933,847,805,807,793,785,777,776,771,771,768,773,777,777,798,798,774,783,782,804,788,799,812,812,808,785,785,781,781,791,780,796,786,795,795,283,284,284,287,287,355,398,454,497,552,574,567,560,553,546,538,531,523,516,479,500,494,455,446,472,430,422,413,405,397,389,381,372,365,292,288,288,289,243,246,244,247,247,247,245,247,246,249,246,250,249,255,252,266,250,248,250,251,248,256,250,251,248,250,247,304,305,306,306,307,399,454,507,561,609,620,610,608,590,580,570,561,551,541,531,528,517,501,491,481,471,462,452,442,436,422,416,402,361,335,308,309,332,282,284,287,292,299,295,289,295,291,306,296,299,294,301,296,312,294,289,291,294,296,293,290,290,290,290,289,97,97,97,119,119,122,137,152,167,182,193,191,188,184,182,179,176,173,170,167,163,161,158,155,152,149,146,143,140,137,134,132,128,125,123,119,121,121,84,84,85,83,84,87,84,85,84,90,85,85,84,85,85,85,85,86,87,84,84,83,84,84,86,85,85,0,0,0,0,0,0,0,0,0,0,0,0,0,0,0,0,0,0,0,0,0,0,0,0,0,0,0,0,0,0,0,0,0,0,0,0,0,0,0,0,0,0,0,0,0,0,0,0,0,0,0,0,0,0,0,0,0,0,0,0,0,0,0,0,0,681,684,679,694,704,868,1044,1168,1286,1353,1359,1335,1326,1293,1270,1250,1234,1205,1183,1163,1150,1120,1098,1076,1064,1042,1011,996,975,912,899,844,735,710,704,699,701,661,625,626,628,632,632,638,636,641,638,636,639,641,640,636,637,638,638,637,638,638,635,636,635,637,638,636,633,670,672,675,674,676,972,1141,1291,1420,1478,1452,1446,1438,1384,1372,1332,1305,1278,1251,1231,1189,1176,1146,1119,1093,1065,1039,1013,986,952,925,742,720,724,684,679,683,679,674,667,672,674,671,678,680,678,678,682,726,678,680,720,718,688,719,685,683,682,683,691,684,692,683,727,726,1112,1116,1119,1128,1224,1573,1889,2047,2151,2203,2195,2154,2134,2087,2050,2016,1986,1943,1907,1874,1857,1805,1780,1745,1717,1682,1630,1608,1422,1285,1279,1206,1177,1146,1143,1129,1132,1126,1093,1086,1093,1105,1097,1106,1101,1106,1116,1104,1113,1116,1125,1126,1122,1133,1124,1113,1123,1116,1111,1117,1123,1123,1130,1117,1116,1139,1112,1125,1143,1279,1592,1931,2043,2151,2202,2227,2182,2123,2114,2087,2027,1993,1985,1920,1886,1850,1807,1802,1729,1714,1715,1624,1544,1510,1307,1277,1242,1159,1133,1147,1126,1137,1132,1137,1128,1132,1141,1129,1128,1140,1141,1139,1135,1146,1143,1146,1145,1145,1150,1150,1148,1146,1144,1147,1148,1150,1150,1150,1150,1149,594,608,598,600,615,826,935,1034,1140,1188,1207,1174,1156,1136,1117,1119,1080,1060,1071,1023,1004,1016,965,978,929,917,889,887,860,849,731,715,635,673,616,608,605,612,593,594,598,612,598,609,597,603,627,603,602,600,598,602,599,600,603,607,604,602,602,602,609,623,613,627,603,556,558,560,562,568,675,858,951,1052,1120,1123,1105,1087,1069,1051,1055,1014,997,982,963,944,928,909,892,872,855,837,819,801,744,738,611,597,581,568,566,566,565,517,519,520,523,524,524,526,530,521,533,530,534,522,526,528,533,528,532,533,538,531,529,530,530,530,530,529,382,384,385,387,390,488,558,621,685,751,771,763,750,734,722,710,698,686,674,665,652,641,625,613,605,589,579,567,555,543,533,518,503,402,392,390,389,390,337,336,340,345,339,341,335,344,345,340,338,338,338,345,339,340,338,342,340,345,337,346,342,341,335,342,338,402,403,404,404,409,515,588,656,726,796,818,805,793,779,766,753,740,727,713,700,687,674,661,647,635,622,609,596,583,569,550,543,525,495,413,408,410,411,351,353,356,359,358,359,358,360,360,360,361,360,360,360,361,362,362,361,364,364,357,365,364,366,364,365,364,342,343,344,345,346,437,513,574,633,685,696,685,674,663,652,640,629,618,607,596,585,574,563,552,541,530,519,555,496,485,474,463,452,342,351,347,348,349,319,336,329,351,322,319,321,331,333,348,318,317,322,321,345,321,339,319,329,333,333,319,346,339,320,335,328,443,444,446,473,470,486,651,720,790,845,854,841,828,826,803,812,777,764,763,739,727,713,700,688,694,663,650,647,624,611,601,479,476,494,453,450,470,432,410,410,417,428,418,421,411,421,422,417,427,426,426,423,424,434,424,424,422,433,432,434,433,434,431,437,430,253,253,255,256,257,322,364,406,448,491,514,507,499,490,482,474,466,458,449,442,433,425,418,409,401,392,385,377,368,360,352,344,336,327,320,314,315,316,227,226,230,235,227,226,225,232,234,228,227,227,228,233,227,229,227,230,228,233,225,234,230,228,225,231,228,450,452,453,484,488,569,687,767,856,911,928,905,892,867,853,862,836,809,795,792,766,751,737,722,727,694,689,664,660,635,632,560,485,509,461,458,490,454,435,444,446,453,454,462,446,462,442,458,446,443,449,457,465,470,458,454,451,452,466,466,451,448,447,452,445,397,399,401,403,406,508,584,652,721,790,808,800,786,770,757,744,731,718,706,696,682,669,654,641,631,614,605,592,579,566,555,540,524,433,408,406,405,390,337,336,340,345,339,341,335,344,345,340,338,338,338,345,339,340,338,342,340,345,337,346,342,341,335,342,338,608,608,605,621,624,745,931,1002,1091,1195,1208,1181,1131,1152,1133,1083,1095,1093,1071,1017,997,994,981,952,927,924,916,903,810,775,750,720,640,624,612,626,627,604,544,536,544,550,549,550,549,551,551,551,552,551,551,551,552,553,553,553,555,555,554,556,555,557,555,556,555,1129,1133,1141,1214,1278,1679,1955,2148,2196,2231,2242,2206,2169,2148,2052,2069,2033,1950,1916,1936,1901,1812,1829,1744,1710,1739,1620,1400,1388,1260,1232,1204,1178,1195,1148,1146,1149,1193,1158,1169,1166,1199,1187,1191,1193,1199,1195,1199,1188,1196,1186,1186,1200,1204,1196,1206,1195,1191,1200,1198,1208,1210,1293,1203,1200,419,423,425,426,430,538,619,691,764,836,865,851,830,817,799,795,775,762,748,734,721,707,693,676,666,652,639,625,611,598,584,570,551,511,433,441,431,430,371,371,375,379,372,374,370,379,379,380,373,373,374,380,374,376,377,377,373,382,371,382,375,374,371,377,373,897,899,899,907,923,1291,1445,1639,1746,1789,1789,1745,1731,1705,1668,1637,1646,1591,1547,1492,1504,1463,1436,1419,1377,1361,1331,1285,1263,1152,1098,1060,941,901,909,907,918,919,879,897,889,895,882,879,881,891,893,893,878,877,882,881,904,881,899,879,889,893,893,879,914,917,880,895,888,702,697,707,723,727,840,1110,1241,1368,1442,1439,1387,1394,1356,1323,1324,1314,1261,1241,1218,1183,1170,1150,1138,1082,1093,1048,1052,996,886,855,834,814,719,716,713,723,725,701,703,707,709,708,703,708,710,710,710,705,706,708,709,711,712,710,711,710,714,710,713,713,711,710,713,712,257,258,258,259,262,345,384,421,460,507,519,511,504,492,491,484,478,469,462,454,447,440,432,424,418,410,404,379,382,381,373,360,315,308,309,265,305,305,233,231,252,255,238,233,232,232,234,232,240,238,236,235,237,233,239,236,234,238,239,237,233,237,239,240,235,448,449,450,450,452,561,652,727,803,885,911,891,877,862,848,833,819,804,792,780,766,752,737,722,707,693,678,665,652,637,557,607,543,529,479,468,470,462,385,385,387,394,386,390,387,391,390,390,392,389,390,390,389,393,394,393,394,394,394,396,393,393,393,393,392,868,869,868,863,961,1222,1396,1568,1673,1709,1716,1680,1670,1640,1614,1582,1540,1505,1499,1459,1494,1419,1370,1356,1337,1311,1283,1261,1173,1088,1139,941,943,891,877,870,862,800,795,792,795,797,796,792,798,794,799,799,798,819,824,828,808,803,802,803,802,800,800,802,803,804,804,800,801,1008,1011,1011,1078,1142,1554,1781,1996,2085,2118,2112,2079,2041,1988,1970,1929,1893,1856,1819,1785,1747,1707,1668,1633,1596,1578,1453,1416,1387,1344,1120,1092,1064,1038,1026,1021,1030,1016,1002,1005,1018,1018,1013,1027,1014,1028,1015,1031,1015,1017,1020,1027,1032,1031,1022,1020,1017,1011,1034,1031,1013,1013,1009,1017,1010,548,549,551,565,563,707,833,927,1021,1090,1096,1079,1062,1045,1027,1010,993,998,958,941,924,906,889,872,876,837,820,803,808,768,751,747,635,572,559,574,558,558,550,548,547,562,549,550,554,560,556,557,557,552,556,553,556,558,556,557,562,557,559,553,560,563,558,566,548,967,964,910,996,1076,1479,1786,1980,2115,2064,2099,2007,1931,1962,1893,1885,1845,1807,1767,1666,1690,1666,1612,1515,1548,1512,1457,1417,1343,1340,1046,1015,1001,935,961,923,949,935,958,955,965,970,975,963,980,986,975,970,972,975,974,978,980,982,978,971,974,970,1005,1001,971,1019,964,968,967,562,564,566,580,580,630,860,958,1057,1124,1130,1112,1094,1076,1058,1040,1022,1028,987,968,950,933,914,896,900,860,842,825,829,789,689,674,659,587,575,590,573,567,553,548,551,552,560,567,553,567,558,554,560,560,554,562,564,569,567,575,562,568,569,564,569,573,563,579,560,801,804,806,805,847,1103,1272,1450,1550,1596,1592,1570,1546,1502,1499,1495,1450,1425,1399,1374,1348,1322,1297,1262,1232,1218,1193,1167,1142,1089,1034,939,847,819,816,812,806,751,732,739,740,747,746,758,740,758,738,753,741,739,742,749,756,759,751,746,744,741,760,757,742,743,739,747,740,819,822,824,870,891,1259,1515,1631,1745,1819,1786,1809,1695,1739,1632,1625,1634,1599,1507,1529,1443,1475,1386,1349,1356,1303,1255,1251,1196,1180,1148,945,854,852,839,828,835,831,851,838,848,843,848,853,871,882,844,842,878,861,856,847,850,927,852,858,847,861,847,853,844,852,855,876,851,399,401,402,422,424,533,603,673,743,798,807,794,781,768,755,765,730,717,705,691,679,666,653,641,647,616,602,589,577,564,563,539,430,487,409,405,438,388,369,378,377,384,384,396,378,396,376,399,379,376,380,387,395,423,389,384,382,379,396,396,380,380,379,385,378,378,378,379,380,396,431,510,609,651,711,769,757,730,705,693,682,670,658,646,635,623,611,600,587,575,564,552,540,520,496,484,482,462,412,406,383,395,395,326,316,315,319,317,321,316,320,319,325,325,324,325,321,325,328,326,323,324,329,325,328,324,324,324,324,323,539,549,542,544,555,661,829,930,997,1050,1074,1067,1028,1015,1007,1022,989,972,956,938,927,895,879,865,843,831,813,804,753,736,730,653,614,600,550,547,549,522,510,512,512,517,516,513,519,513,514,518,516,516,517,520,521,520,523,523,520,521,522,521,524,524,523,522,523,591,600,594,595,612,796,914,1038,1132,1187,1184,1170,1150,1132,1113,1117,1076,1057,1038,1018,1019,979,959,939,921,902,882,883,845,825,778,760,667,651,602,630,600,538,533,531,534,536,535,531,537,533,538,538,537,558,563,567,546,541,541,542,541,539,539,541,542,543,543,539,540,0,0,0,0,0,0,0,0,0,0,0,0,0,0,0,0,0,0,0,0,0,0,0,0,0,0,0,0,0,0,0,0,0,0,0,0,0,0,0,0,0,0,0,0,0,0,0,0,0,0,0,0,0,0,0,0,0,0,0,0,0,0,0,0,0,719,720,722,788,771,1072,1290,1434,1552,1629,1599,1542,1513,1485,1456,1427,1399,1370,1342,1313,1284,1279,1227,1199,1208,1158,1112,1083,1062,1026,1017,969,769,746,733,725,736,755,733,731,747,765,753,755,740,752,747,774,762,748,765,778,786,832,787,770,759,773,761,758,760,784,763,777,753,567,569,571,573,586,770,893,997,1093,1140,1173,1128,1109,1091,1072,1054,1036,1017,999,981,962,944,926,907,889,892,872,834,834,797,779,761,607,612,580,576,577,612,575,569,572,577,587,589,593,592,592,598,592,590,596,583,585,602,593,586,597,587,578,592,596,598,598,608,596,594,608,598,600,615,826,935,1034,1140,1188,1207,1174,1156,1136,1117,1119,1080,1060,1071,1023,1004,1016,965,978,929,917,889,887,860,849,731,715,635,673,616,608,605,612,593,594,598,612,598,609,597,603,627,603,602,600,598,602,599,600,603,607,604,602,602,602,609,623,613,627,603,1289,1282,1305,1450,1581,2090,2358,2520,2640,2642,2626,2599,2544,2504,2450,2414,2422,2392,2259,2246,2178,2136,2131,2051,1989,1970,1906,1765,1697,1614,1529,1369,1378,1329,1299,1299,1305,1310,1316,1321,1320,1321,1318,1321,1333,1330,1327,1329,1321,1330,1327,1343,1347,1340,1335,1353,1337,1341,1349,1369,1370,1355,1347,1350,1349,825,819,831,834,877,1201,1379,1608,1718,1771,1754,1729,1692,1662,1636,1618,1569,1523,1509,1476,1445,1444,1383,1352,1320,1290,1260,1240,1208,1102,929,933,920,855,840,838,842,840,830,840,843,839,838,843,835,851,855,845,841,846,850,868,884,851,856,845,846,871,837,833,850,877,860,840,836,1017,992,995,1021,1174,1532,1758,2003,2053,2091,2076,2040,2004,1967,1984,1895,1858,1821,1784,1747,1703,1681,1676,1604,1559,1532,1537,1501,1422,1386,1135,1075,1046,1016,1014,1005,987,991,980,983,985,988,992,989,989,990,991,1000,995,998,1000,1010,1007,1005,1045,1011,1012,1010,1015,1013,1013,1018,1016,1017,1010,1020,1008,1028,1044,1129,1553,1752,2000,2101,2139,2125,2085,2050,2011,1985,1940,1901,1855,1827,1789,1739,1715,1685,1638,1595,1565,1538,1530,1413,1337,1126,1096,1090,1035,1038,1036,1012,1003,995,995,995,1002,1004,1004,1000,1007,1002,1008,1008,1011,1015,1027,1023,1018,1046,1023,1027,1023,1028,1028,1027,1032,1027,1031,1024,1053,1067,1042,1093,1208,1616,1908,2046,2179,2217,2204,2165,2126,2088,2018,1999,1960,1918,1878,1842,1819,1737,1705,1672,1639,1608,1569,1543,1503,1314,1302,1177,1149,1087,1071,1052,1025,1022,1017,1017,1015,1030,1027,1022,1021,1050,1015,1023,1021,1020,1023,1046,1031,1025,1055,1029,1031,1031,1048,1053,1023,1028,1026,1027,1020,606,594,610,600,610,854,990,1125,1243,1298,1298,1276,1252,1229,1207,1184,1161,1129,1116,1095,1059,1048,1013,1001,976,953,929,927,874,858,827,714,692,623,607,605,609,621,596,602,616,648,612,615,603,621,603,620,612,606,612,615,648,646,701,615,623,612,623,649,620,646,607,616,610,933,935,937,945,1033,1417,1672,1843,1953,1995,1983,1956,1911,1876,1840,1816,1769,1734,1714,1664,1627,1606,1564,1528,1495,1458,1425,1389,1352,1302,1141,1109,1001,978,948,948,905,902,897,897,895,910,907,902,901,930,895,903,901,900,903,926,911,905,935,909,911,911,928,933,903,908,906,907,900,550,551,568,554,566,782,921,1057,1175,1230,1230,1207,1184,1162,1139,1116,1094,1071,1048,1025,1003,980,957,935,911,888,865,864,820,797,774,615,596,577,561,559,562,566,561,570,587,600,582,557,573,619,595,561,592,591,572,589,598,596,660,558,585,586,624,591,567,589,581,568,567,1033,1009,1010,1041,1199,1567,1797,2040,2101,2126,2112,2074,2037,2000,2016,1927,1889,1851,1814,1776,1731,1707,1702,1631,1585,1556,1560,1524,1444,1357,1156,1091,1062,1032,1022,1021,987,991,980,983,985,988,992,989,989,990,991,1000,995,998,1000,1010,1007,1005,1045,1011,1012,1010,1015,1013,1013,1018,1016,1017,1010,1171,1181,1152,1204,1354,1778,2017,2252,2327,2397,2403,2339,2321,2270,2242,2201,2134,2105,2078,1997,1949,1952,1889,1826,1788,1785,1713,1642,1426,1303,1305,1289,1213,1216,1191,1176,1188,1189,1178,1183,1188,1198,1189,1201,1197,1204,1203,1208,1198,1201,1198,1217,1223,1210,1217,1216,1199,1223,1202,1193,1205,1223,1221,1200,1196,851,853,910,945,969,1246,1504,1608,1646,1686,1680,1654,1628,1601,1575,1547,1521,1494,1468,1442,1415,1490,1362,1336,1309,1417,1256,1229,1303,1232,941,963,971,878,866,936,938,868,904,905,947,933,947,893,944,970,951,918,966,964,934,945,961,972,973,900,931,931,943,957,911,954,924,923,934,1056,1032,1034,1067,1233,1609,1843,2087,2133,2170,2153,2118,2079,2041,2057,1965,1927,1889,1850,1813,1777,1744,1750,1665,1626,1589,1595,1555,1475,1409,1186,1116,1085,1061,1053,1044,1021,1026,1015,1016,1037,1034,1030,1043,1027,1047,1036,1047,1040,1035,1039,1053,1050,1042,1079,1053,1048,1055,1054,1069,1047,1052,1050,1051,1044,1602,1605,1618,1729,2002,2711,3011,3113,3216,3234,3161,3134,3049,3032,2941,2936,2878,2819,2760,2707,2670,2570,2521,2306,2123,1938,1933,1854,1806,1840,1791,1692,1654,1637,1627,1603,1585,1582,1577,1577,1575,1590,1587,1582,1581,1610,1575,1583,1581,1580,1583,1606,1591,1585,1615,1589,1591,1591,1608,1613,1583,1588,1586,1587,1580,1402,1397,1412,1460,1771,2314,2579,2754,2829,2850,2766,2783,2730,2627,2645,2585,2536,2482,2436,2334,2303,2254,2244,2198,2150,2011,1965,1823,1733,1719,1546,1488,1454,1428,1413,1414,1379,1376,1371,1371,1369,1384,1381,1376,1375,1404,1369,1377,1375,1374,1377,1400,1385,1379,1409,1383,1385,1385,1402,1407,1377,1382,1380,1381,1374,690,704,688,709,739,1017,1205,1348,1467,1505,1536,1483,1456,1453,1424,1373,1377,1340,1313,1284,1236,1229,1201,1149,1146,1117,1096,1062,1034,1012,979,933,869,732,715,713,718,721,715,711,723,738,725,731,721,731,730,731,729,723,724,733,724,725,727,734,720,736,727,723,719,747,731,812,725,949,952,970,981,1034,1453,1638,1886,1980,2019,2017,1972,1939,1912,1857,1822,1796,1732,1715,1691,1643,1615,1597,1560,1503,1474,1449,1444,1397,1236,1136,1105,1026,980,981,963,953,956,971,966,958,971,982,977,979,981,986,987,986,989,991,993,998,980,987,1000,993,1000,990,988,994,1012,995,993,989,813,825,830,837,884,1004,1270,1410,1565,1590,1599,1565,1559,1527,1507,1482,1450,1437,1407,1374,1351,1323,1306,1275,1253,1232,1210,1185,1049,1032,1009,939,875,852,839,837,833,831,797,799,799,797,806,809,807,812,806,803,810,810,813,819,821,826,821,828,822,823,818,822,814,815,815,815,815,402,403,404,413,414,464,595,659,727,789,811,799,786,772,760,748,734,721,710,698,684,671,659,646,634,621,608,595,583,512,500,490,478,476,419,414,427,417,378,375,377,379,380,379,380,383,379,386,384,384,386,388,386,384,386,389,390,395,388,389,391,391,391,391,391,1242,1235,1249,1389,1387,1969,2274,2424,2520,2549,2528,2484,2442,2398,2355,2311,2319,2303,2181,2152,2108,2050,2075,1963,1920,1876,1833,1712,1626,1525,1443,1323,1322,1278,1251,1250,1256,1260,1265,1279,1259,1261,1270,1272,1276,1276,1274,1274,1274,1278,1278,1297,1284,1287,1293,1301,1294,1279,1291,1300,1292,1294,1285,1286,1285,313,314,315,315,316,401,455,507,572,622,634,624,614,606,595,585,575,564,554,544,534,524,514,504,495,484,474,464,457,448,438,424,413,330,322,317,318,392,262,262,261,262,263,264,263,272,267,264,270,266,265,264,263,269,263,263,265,266,264,260,264,263,262,263,261,1256,1251,1264,1372,1414,2003,2308,2457,2552,2582,2560,2516,2470,2426,2382,2338,2347,2330,2206,2177,2133,2074,2098,1986,1942,1898,1854,1723,1656,1542,1462,1337,1337,1294,1267,1259,1264,1260,1269,1259,1270,1278,1271,1283,1279,1280,1284,1286,1277,1289,1290,1308,1295,1305,1291,1312,1300,1290,1296,1309,1303,1323,1288,1289,1288,779,781,783,797,829,1052,1213,1349,1469,1526,1536,1513,1490,1464,1441,1418,1393,1369,1346,1322,1299,1275,1251,1227,1204,1180,1156,1132,1108,1085,1060,852,833,814,801,799,801,803,770,782,757,758,780,780,771,772,774,781,797,786,791,795,800,794,807,800,798,792,828,802,796,800,787,800,791,189,189,189,233,233,239,269,298,327,356,374,368,363,357,352,345,339,334,328,323,317,312,306,300,294,289,283,278,272,267,260,255,249,244,238,234,235,235,174,174,174,175,175,176,176,177,177,177,178,178,180,180,180,180,180,181,181,181,182,182,183,183,183,184,184,666,633,649,620,649,878,1038,1162,1281,1335,1334,1311,1287,1262,1256,1233,1210,1168,1164,1119,1096,1096,1061,1025,1001,977,953,951,922,882,875,738,717,643,627,625,629,642,617,623,637,664,633,636,624,642,624,641,633,627,633,636,648,652,657,636,644,633,644,670,641,639,628,637,627,864,838,840,849,996,1260,1465,1735,1756,1801,1791,1760,1728,1696,1719,1632,1600,1568,1536,1504,1472,1441,1453,1415,1344,1312,1323,1291,1216,1184,1115,989,891,866,876,849,853,857,857,855,857,859,865,861,861,864,864,871,870,871,871,882,878,877,946,883,882,881,888,883,878,899,888,934,879,795,788,800,802,838,1149,1319,1542,1653,1699,1691,1667,1632,1599,1577,1548,1513,1466,1452,1422,1391,1365,1332,1304,1273,1245,1225,1185,1144,1126,897,901,900,825,809,798,810,794,789,797,785,782,795,786,799,799,801,792,804,804,800,801,820,793,799,790,799,814,802,800,801,820,807,798,797,777,774,781,788,839,1060,1232,1377,1495,1567,1561,1536,1512,1485,1468,1437,1411,1392,1362,1337,1312,1286,1262,1237,1212,1188,1167,1136,1117,1087,999,976,847,812,795,783,779,778,765,760,764,761,765,771,770,768,771,787,778,778,770,777,795,780,775,792,785,798,778,774,775,793,791,781,777,792,795,797,888,840,1192,1382,1562,1692,1721,1712,1681,1651,1620,1589,1558,1582,1592,1467,1433,1420,1375,1399,1313,1279,1251,1221,1190,1159,1126,898,871,879,823,807,805,810,812,815,811,816,825,822,818,817,823,822,835,827,825,828,836,838,850,835,851,839,845,839,831,840,829,830,827,825,0,0,0,0,0,0,0,0,0,0,0,0,0,0,0,0,0,0,0,0,0,0,0,0,0,0,0,0,0,0,0,0,0,0,0,0,0,0,0,0,0,0,0,0,0,0,0,0,0,0,0,0,0,0,0,0,0,0,0,0,0,0,0,0,0,1262,1256,1269,1379,1523,2019,2306,2483,2593,2597,2581,2530,2484,2440,2417,2372,2381,2360,2218,2189,2143,2098,2094,1996,1959,1927,1863,1826,1600,1415,1378,1342,1343,1301,1272,1271,1287,1281,1290,1282,1297,1293,1302,1289,1299,1315,1297,1295,1294,1298,1299,1341,1298,1308,1306,1338,1305,1298,1302,1317,1329,1318,1316,1304,1303,1289,1282,1305,1450,1581,2090,2358,2520,2640,2642,2626,2599,2544,2504,2450,2414,2422,2392,2259,2246,2178,2136,2131,2051,1989,1970,1906,1765,1697,1614,1529,1369,1378,1329,1299,1299,1305,1310,1316,1321,1320,1321,1318,1321,1333,1330,1327,1329,1321,1330,1327,1343,1347,1340,1335,1353,1337,1341,1349,1369,1370,1355,1347,1350,1349,266,267,268,269,270,346,391,436,480,525,539,531,522,513,506,497,488,479,471,463,454,446,437,429,421,412,403,394,387,378,369,361,353,344,335,270,271,271,263,264,261,262,261,264,270,269,265,270,270,265,263,270,272,338,338,335,271,272,335,270,273,338,265,267,265,989,992,994,999,1136,1495,1676,1853,1946,1967,1960,1927,1893,1860,1832,1826,1772,1746,1705,1681,1669,1619,1584,1552,1526,1490,1471,1406,1305,1255,1254,1080,1060,1021,1006,1004,997,977,973,973,973,976,988,986,996,999,989,1004,989,997,997,992,991,1000,1032,992,994,984,981,995,989,998,994,1004,986,781,783,785,787,832,1126,1266,1414,1515,1557,1553,1530,1502,1478,1457,1445,1406,1382,1355,1329,1320,1283,1260,1231,1210,1180,1171,1132,1110,1095,954,891,828,809,794,794,785,756,754,756,757,759,771,767,801,806,768,797,772,776,779,773,769,797,804,772,774,765,762,777,769,773,770,780,762,799,801,802,805,859,1164,1313,1459,1560,1599,1594,1570,1544,1517,1494,1486,1444,1417,1392,1367,1356,1315,1290,1266,1240,1213,1201,1162,1135,1122,1036,899,846,827,836,812,798,770,771,772,775,792,801,795,821,825,805,833,797,813,799,798,803,836,841,808,796,785,796,813,803,811,804,808,790,648,650,652,655,663,915,1035,1149,1256,1302,1318,1281,1261,1240,1189,1212,1178,1157,1136,1115,1094,1073,1052,1032,1012,991,970,949,928,907,886,865,674,748,662,658,660,645,624,618,624,629,626,627,626,632,623,624,625,624,630,631,639,629,630,626,625,633,629,621,627,633,626,635,624,857,866,855,877,977,1302,1510,1608,1697,1743,1738,1712,1724,1647,1621,1595,1567,1541,1555,1487,1460,1434,1418,1380,1354,1337,1300,1273,1237,1211,1164,991,917,882,866,874,881,880,892,890,902,903,913,908,915,910,911,907,907,911,914,917,938,917,910,920,912,915,930,918,915,943,909,911,910,649,653,655,657,680,919,1037,1154,1258,1302,1301,1282,1260,1239,1221,1216,1179,1158,1137,1116,1111,1075,1054,1033,1012,991,985,949,928,921,887,710,693,675,664,660,662,646,644,646,645,647,656,657,708,714,656,702,661,666,667,661,658,734,714,660,662,653,650,665,656,663,659,670,652,895,903,893,912,980,1337,1561,1674,1771,1807,1801,1774,1774,1696,1667,1639,1611,1582,1603,1525,1497,1468,1451,1412,1383,1355,1326,1298,1270,1241,1203,969,954,926,899,905,908,913,907,917,923,939,941,942,934,946,941,949,947,952,954,946,954,956,952,945,954,958,951,951,955,949,952,945,946,797,799,801,804,867,1156,1299,1453,1553,1594,1589,1565,1536,1511,1490,1477,1438,1412,1384,1359,1348,1312,1287,1258,1237,1205,1195,1155,1132,1117,950,912,844,825,810,810,785,756,754,756,757,759,771,767,801,806,768,797,772,776,779,773,769,797,804,772,774,765,762,777,769,773,770,780,762,1004,1002,1020,1009,1138,1506,1680,1858,1955,1935,1975,1954,1932,1864,1850,1805,1793,1734,1705,1700,1626,1623,1581,1571,1534,1519,1426,1366,1287,1358,1174,1077,1049,1036,1018,1007,989,959,953,961,971,994,1003,992,1018,1022,1006,1032,998,1005,989,995,1003,1028,1040,1010,985,982,999,1010,1007,1014,1006,1010,992,1424,1455,1472,1566,2055,2410,2557,2803,2821,2873,2820,2775,2730,2685,2710,2594,2597,2689,2533,2413,2433,2323,2346,2233,2211,2192,2075,2023,1964,1604,1599,1527,1506,1480,1465,1465,1500,1476,1502,1499,1523,1539,1515,1641,1529,1655,1535,1652,1664,1515,1511,1522,1538,1520,1540,1641,1518,1660,1657,1651,1545,1666,1543,1532,1521,815,820,819,820,831,1179,1317,1470,1575,1632,1601,1585,1559,1524,1514,1477,1477,1431,1426,1391,1359,1327,1302,1276,1262,1236,1199,1190,1157,1124,977,942,882,847,823,819,808,790,789,791,790,792,805,803,807,814,804,806,807,806,812,807,806,811,812,807,807,800,797,803,802,810,805,815,797,720,740,724,739,760,987,1190,1307,1427,1442,1464,1467,1420,1433,1370,1347,1323,1290,1277,1288,1229,1206,1183,1160,1139,1115,1090,1069,1026,987,981,897,854,838,721,745,745,747,741,736,741,746,741,747,754,747,744,753,759,749,747,756,761,810,762,767,754,763,760,761,763,758,758,808,797,925,937,936,939,964,1377,1556,1720,1809,1845,1863,1818,1787,1758,1719,1690,1661,1631,1601,1573,1549,1534,1483,1469,1421,1395,1378,1275,1294,1045,1022,1055,973,1010,983,939,938,941,908,911,918,927,918,923,919,928,921,919,920,920,926,921,929,923,930,924,924,925,918,921,922,928,918,928,916,739,737,743,745,790,1055,1178,1321,1419,1463,1472,1475,1424,1391,1378,1354,1331,1323,1286,1263,1241,1217,1194,1171,1147,1123,1120,1076,1045,963,941,822,785,781,753,750,729,709,705,695,699,708,709,705,716,711,711,719,712,713,713,720,720,723,715,712,718,721,713,708,720,754,741,764,751,872,866,884,880,961,1271,1427,1613,1689,1724,1736,1688,1676,1634,1605,1619,1567,1544,1495,1474,1478,1435,1406,1361,1337,1309,1309,1253,1234,1201,992,960,924,906,888,876,855,828,829,835,830,853,862,849,856,862,855,868,853,862,852,849,858,864,896,865,849,838,855,865,862,863,861,865,847,1310,1321,1312,1381,1613,2090,2344,2472,2565,2572,2612,2525,2485,2416,2384,2334,2314,2261,2282,2192,2209,2121,2072,2071,1988,1933,1860,1751,1565,1472,1449,1425,1416,1376,1354,1317,1277,1281,1269,1274,1274,1281,1280,1268,1268,1280,1269,1284,1297,1300,1301,1310,1282,1274,1308,1284,1272,1269,1279,1279,1269,1274,1275,1275,1274,1291,1293,1298,1352,1958,2360,2693,2866,2945,2950,2922,2858,2811,2752,2692,2633,2583,2521,2464,2406,2345,2287,2228,2175,2169,2048,2053,1876,1818,1704,1445,1401,1356,1324,1315,1384,1328,1322,1349,1381,1357,1364,1387,1379,1363,1379,1374,1387,1391,1363,1374,1384,1391,1397,1399,1400,1389,1395,1406,1442,1434,1433,1435,1442,1423,520,522,529,524,532,683,798,891,985,1037,1040,1025,1008,979,975,959,942,914,909,883,865,861,834,828,811,776,778,752,745,729,713,694,680,564,531,527,535,499,495,495,488,495,494,500,496,501,501,507,497,501,495,501,502,493,504,505,503,501,499,503,508,510,503,512,503,1209,1226,1253,1341,1894,2277,2610,2811,2849,2895,2905,2888,2717,2703,2582,2588,2500,2440,2381,2322,2290,2229,2170,2085,2117,2067,2049,1819,1795,1719,1385,1352,1273,1221,1250,1255,1246,1257,1280,1308,1289,1294,1323,1313,1297,1313,1312,1322,1327,1296,1312,1313,1324,1330,1334,1330,1320,1329,1336,1356,1364,1364,1358,1362,1344,465,466,460,469,474,611,715,799,883,935,941,927,911,883,881,866,851,823,821,794,779,776,750,765,731,695,700,676,671,655,641,625,610,502,476,472,466,468,464,464,457,464,463,469,465,470,470,476,466,470,464,470,471,462,473,474,472,470,468,472,477,479,472,481,472,1218,1212,1224,1323,1469,1980,2218,2358,2435,2448,2429,2390,2363,2331,2291,2251,2207,2167,2124,2095,2056,2013,1959,1937,1897,1867,1818,1767,1532,1424,1369,1319,1271,1249,1236,1231,1205,1207,1202,1211,1217,1231,1239,1247,1230,1246,1236,1248,1243,1248,1257,1235,1261,1253,1251,1238,1251,1248,1243,1250,1248,1253,1254,1254,1247,1081,1083,1108,1159,1673,1971,2318,2502,2686,2615,2582,2579,2477,2449,2371,2338,2266,2214,2212,2117,2062,2003,1988,1896,1969,1842,1884,1708,1652,1596,1540,1188,1169,1138,1102,1122,1124,1129,1157,1183,1161,1175,1184,1176,1175,1185,1185,1177,1195,1176,1184,1186,1186,1190,1197,1208,1202,1201,1211,1187,1226,1224,1215,1223,1219,846,849,852,895,930,1245,1463,1560,1650,1696,1691,1665,1677,1600,1574,1547,1520,1493,1520,1439,1413,1387,1371,1333,1306,1280,1252,1226,1200,1172,1140,935,978,912,881,859,842,845,841,848,854,870,893,885,868,889,884,886,881,886,895,872,893,903,889,876,895,891,881,888,902,901,900,894,885,797,795,782,801,859,1130,1299,1441,1544,1583,1578,1555,1529,1503,1482,1476,1433,1410,1379,1344,1347,1309,1281,1229,1205,1208,1195,1154,1128,1112,1057,908,875,820,809,789,791,788,785,787,787,789,799,784,785,791,790,801,799,797,794,804,803,798,826,797,798,794,793,798,789,794,798,799,796,980,983,985,990,1083,1474,1651,1811,1899,1943,1938,1900,1870,1838,1810,1801,1751,1728,1689,1666,1651,1604,1575,1537,1512,1476,1429,1399,1291,1243,1243,1071,1051,1013,997,993,990,971,965,968,969,969,984,981,987,988,978,998,984,991,991,985,988,995,1026,989,988,976,975,988,986,991,985,995,977,1037,1041,1044,1080,1169,1588,1803,1950,2031,2062,2097,2017,1984,1951,1919,1885,1853,1820,1855,1753,1799,1686,1657,1662,1587,1556,1523,1493,1201,1174,1176,1140,1141,1118,1088,1053,1015,1019,1008,1013,1013,1020,1019,1007,1007,1019,1008,1023,1036,1039,1040,1048,1020,1013,1047,1023,1011,1008,1018,1018,1008,1013,1014,1014,1013,520,522,523,525,534,712,811,907,998,1048,1052,1036,1018,1002,985,968,947,935,917,900,884,866,850,833,812,799,783,763,749,732,716,698,682,544,531,526,530,509,497,500,507,498,551,507,507,508,505,507,504,506,508,508,504,514,505,509,540,508,532,508,531,539,545,540,520,1001,1003,1005,1043,1500,1778,2124,2312,2462,2432,2402,2339,2301,2296,2201,2151,2101,2051,2000,1992,1900,1851,1800,1751,1824,1744,1721,1549,1520,1442,1368,1104,1063,1032,1019,1017,1033,1042,1078,1082,1085,1102,1100,1119,1098,1124,1089,1125,1238,1242,1091,1100,1124,1248,1116,1125,1256,1267,1125,1120,1107,1111,1276,1111,1083,0,0,0,0,0,0,0,0,0,0,0,0,0,0,0,0,0,0,0,0,0,0,0,0,0,0,0,0,0,0,0,0,0,0,0,0,0,0,0,0,0,0,0,0,0,0,0,0,0,0,0,0,0,0,0,0,0,0,0,0,0,0,0,0,0,266,267,268,269,270,346,391,436,480,525,539,531,522,513,506,497,488,479,471,463,454,446,437,429,421,412,403,394,387,378,369,361,353,344,335,270,271,271,263,264,261,262,261,264,270,269,265,270,270,265,263,270,272,338,338,335,271,272,335,270,273,338,265,267,265,0,0,0,0,0,0,0,0,0,0,0,0,0,0,0,0,0,0,0,0,0,0,0,0,0,0,0,0,0,0,0,0,0,0,0,0,0,0,0,0,0,0,0,0,0,0,0,0,0,0,0,0,0,0,0,0,0,0,0,0,0,0,0,0,0,1022,1026,1029,1033,1175,1560,1736,1997,2032,2034,2032,1995,1956,1923,1900,1863,1891,1800,1763,1752,1710,1671,1692,1622,1584,1558,1524,1452,1458,1250,1222,1113,1118,1066,1040,1039,1031,1013,1016,1012,1028,1036,1032,1044,1032,1047,1043,1040,1055,1043,1041,1042,1043,1049,1042,1038,1042,1039,1042,1036,1044,1047,1037,1057,1046,744,740,765,769,808,1097,1253,1349,1432,1553,1513,1458,1435,1412,1388,1393,1369,1317,1342,1270,1247,1214,1200,1168,1152,1128,1097,1125,1059,1035,905,910,790,839,758,749,793,755,730,729,738,764,740,747,739,752,752,745,754,738,751,762,776,782,758,753,747,765,750,744,744,777,749,762,744,833,835,837,839,900,1220,1374,1611,1670,1666,1659,1633,1607,1580,1552,1525,1566,1475,1448,1457,1399,1368,1397,1354,1291,1309,1267,1240,1222,1155,999,901,924,882,848,867,832,807,815,812,829,852,840,850,838,849,851,845,855,840,843,848,855,851,840,852,844,837,852,850,843,860,847,862,844,487,489,490,492,498,666,754,842,896,980,985,970,954,938,922,907,891,875,860,816,828,812,797,781,765,724,709,695,702,687,671,655,505,494,498,495,496,497,461,466,473,505,470,479,464,474,468,467,469,467,462,474,472,570,476,479,474,478,512,478,476,565,466,476,471,919,938,929,937,995,1350,1523,1810,1763,1809,1791,1764,1736,1708,1680,1653,1731,1597,1609,1542,1514,1486,1563,1441,1439,1375,1357,1320,1366,1255,1236,995,1075,951,1006,932,921,924,930,942,946,951,949,953,946,952,951,968,952,954,955,961,974,951,956,956,955,970,950,954,955,959,958,959,958,683,705,688,691,719,971,1096,1306,1368,1369,1366,1345,1323,1302,1279,1257,1303,1215,1193,1207,1150,1128,1167,1119,1063,1087,1051,1027,1028,954,931,893,864,752,697,713,696,682,687,685,700,707,700,715,700,710,710,707,748,711,711,711,710,714,710,706,710,708,711,706,711,712,702,761,712,953,962,937,956,1078,1397,1590,1859,1828,1873,1854,1815,1785,1756,1727,1697,1773,1639,1653,1579,1551,1521,1595,1461,1470,1403,1373,1344,1398,1285,1245,1075,1085,959,1019,945,942,947,968,970,968,969,964,967,962,969,966,989,966,971,972,980,997,969,973,972,974,999,967,970,969,975,973,974,973,760,756,781,786,828,1139,1287,1389,1469,1590,1549,1493,1469,1445,1421,1425,1401,1348,1372,1300,1276,1243,1238,1194,1179,1153,1122,1148,1081,1057,838,930,806,833,774,779,793,755,730,729,738,764,740,747,739,752,752,745,754,738,751,762,776,782,758,753,747,765,750,744,744,777,749,762,744,923,930,958,942,1068,1369,1510,1663,1785,1840,1870,1744,1720,1688,1736,1670,1685,1575,1546,1581,1482,1461,1433,1404,1384,1357,1327,1332,1268,1274,1173,1107,982,925,927,907,909,920,897,895,915,927,904,908,911,919,915,909,917,902,916,928,939,933,923,922,908,930,913,911,911,940,915,928,910,1644,1652,1693,1825,2137,2749,2988,3229,3170,3188,3156,3098,3053,3045,2949,2897,2951,2841,2742,2690,2485,2125,2363,2043,2340,2073,1920,1880,1974,1862,1773,1734,1732,1678,1711,1668,1674,1679,1715,1727,1727,1724,1735,1743,1741,1749,1734,1750,1736,1739,1738,1761,1753,1783,1749,1754,1756,1751,1760,1761,1753,1759,1755,1751,1726,647,648,686,675,763,944,1034,1157,1261,1298,1340,1277,1257,1236,1249,1234,1206,1152,1131,1171,1083,1070,1049,1028,1004,995,970,946,925,900,908,906,686,675,689,654,653,664,643,640,650,671,648,654,650,662,659,651,661,643,657,667,683,748,663,657,648,668,655,649,649,682,656,669,651,471,473,477,476,564,641,706,810,871,947,953,1023,985,908,991,877,862,851,811,817,825,786,793,756,741,726,710,695,679,664,650,634,619,494,482,480,494,483,480,482,480,485,485,492,484,492,486,483,489,484,484,486,489,546,494,545,485,491,493,540,490,543,493,535,532,735,737,737,729,751,995,1102,1259,1433,1411,1487,1388,1365,1315,1365,1339,1336,1252,1294,1265,1184,1200,1139,1142,1094,1072,1049,1027,1004,961,990,821,747,729,776,744,746,735,714,714,715,715,715,718,716,720,718,720,720,718,718,716,718,720,721,717,721,716,717,720,720,722,720,727,720,809,814,817,820,879,1105,1332,1492,1575,1612,1607,1584,1561,1535,1498,1488,1529,1432,1413,1382,1363,1338,1391,1283,1267,1223,1202,1146,1135,991,969,945,921,841,826,821,802,775,783,785,804,777,790,789,784,793,796,811,796,787,797,793,796,821,797,795,794,804,788,820,796,793,788,795,794,896,909,916,925,1012,1338,1487,1742,1799,1791,1784,1766,1742,1712,1683,1654,1692,1600,1566,1573,1497,1471,1510,1429,1401,1399,1370,1331,1307,1252,1101,983,976,956,922,920,889,864,872,872,885,913,896,904,895,904,908,902,909,895,896,899,910,906,896,907,897,893,907,902,899,917,904,917,899,1345,1356,1346,1415,1656,2149,2412,2660,2612,2633,2642,2581,2555,2546,2441,2393,2453,2317,2291,2247,2183,2171,2214,2079,2017,1999,1895,1797,1802,1498,1468,1422,1442,1375,1403,1349,1288,1289,1302,1325,1320,1330,1319,1334,1328,1343,1326,1341,1342,1348,1349,1338,1343,1339,1346,1345,1327,1318,1338,1341,1338,1348,1327,1334,1326,1546,1552,1580,1679,2013,2592,2821,3061,3005,3015,2979,2947,2899,2848,2806,2767,2807,2670,2610,2552,2510,2473,2507,2374,2241,1881,1871,1776,1860,1725,1676,1634,1612,1587,1586,1564,1504,1511,1529,1542,1533,1528,1537,1535,1528,1538,1539,1561,1540,1542,1542,1545,1580,1533,1539,1538,1533,1571,1533,1532,1534,1537,1538,1539,1538,260,261,261,262,263,334,376,417,465,507,534,525,518,509,501,492,484,476,467,459,451,443,434,426,418,410,401,393,385,377,368,360,352,344,335,264,264,278,232,232,233,233,233,236,234,238,236,238,238,236,236,234,236,238,239,235,239,234,235,238,238,240,238,245,238,1457,1466,1487,1560,2037,2591,2869,3144,3072,3042,3045,2988,2934,2910,2854,2809,2784,2658,2629,2586,2549,2435,2482,2319,2280,2169,2007,1933,1925,1686,1641,1599,1509,1496,1488,1496,1499,1502,1507,1510,1520,1515,1520,1537,1538,1525,1527,1543,1527,1525,1533,1540,1541,1581,1530,1532,1525,1563,1548,1554,1537,1519,1517,1525,1524,205,206,207,207,207,265,299,334,369,404,433,425,419,412,405,398,391,385,378,370,364,357,349,343,336,330,322,315,309,302,294,288,281,273,267,208,209,209,201,201,202,202,202,205,203,207,205,207,207,205,205,203,205,207,208,204,208,203,204,207,207,209,207,214,207,1275,1278,1293,1355,1559,2044,2286,2545,2496,2513,2486,2463,2422,2381,2348,2309,2366,2229,2179,2128,2097,2067,2110,1986,1935,1905,1851,1811,1741,1442,1402,1361,1355,1314,1336,1294,1239,1241,1263,1264,1262,1261,1259,1261,1258,1261,1261,1287,1262,1264,1264,1269,1308,1262,1265,1265,1263,1297,1259,1261,1264,1267,1268,1269,1268,1350,1366,1371,1444,1807,2287,2580,2864,2789,2806,2777,2727,2680,2630,2581,2562,2614,2484,2414,2374,2324,2266,2314,2168,2111,2063,2020,1971,1821,1561,1512,1471,1422,1395,1386,1385,1392,1382,1376,1361,1367,1390,1380,1393,1396,1395,1399,1441,1398,1393,1407,1410,1417,1411,1420,1406,1414,1417,1397,1422,1407,1410,1385,1393,1392,881,909,886,899,1018,1303,1476,1754,1716,1762,1744,1717,1689,1661,1633,1606,1684,1549,1567,1494,1467,1438,1516,1383,1393,1327,1300,1272,1328,1217,1189,1013,1020,907,970,893,876,879,902,901,899,899,897,899,896,904,909,928,900,902,902,906,941,900,903,903,901,940,897,899,901,907,906,907,906,826,822,837,835,897,1212,1345,1596,1640,1650,1643,1618,1581,1566,1539,1513,1554,1465,1438,1440,1386,1332,1392,1294,1284,1269,1243,1223,1235,1137,1055,951,962,865,843,832,835,824,826,826,842,849,843,849,845,859,847,849,844,845,842,854,863,857,851,848,850,843,854,849,854,856,844,851,843,1014,1017,1021,1024,1119,1537,1711,1975,1983,2010,1992,1962,1933,1901,1880,1839,1874,1783,1744,1725,1692,1657,1677,1595,1562,1542,1475,1445,1448,1236,1121,1095,1107,1049,1031,1028,1010,1007,1008,1007,1024,1029,1028,1039,1025,1036,1032,1034,1039,1037,1035,1035,1040,1045,1036,1035,1036,1031,1036,1029,1041,1040,1028,1051,1037,1073,1076,1080,1119,1209,1647,1870,2138,2094,2123,2109,2074,2091,2082,1974,1944,2016,1875,1842,1809,1772,1738,1800,1670,1637,1641,1569,1535,1519,1202,1174,1146,1170,1100,1131,1087,1026,1027,1041,1064,1059,1069,1058,1073,1067,1082,1065,1080,1081,1087,1087,1076,1081,1078,1085,1084,1066,1057,1077,1080,1077,1087,1066,1073,1065,551,556,558,558,571,761,865,1094,1067,1111,1117,1095,1082,1063,1046,1028,1118,992,974,957,938,920,999,885,866,849,831,814,881,777,760,742,763,589,565,562,564,544,552,545,551,544,558,558,552,558,557,572,560,552,560,560,557,646,562,559,553,570,552,639,555,555,552,560,559,1268,1274,1279,1328,1623,2057,2386,2674,2605,2624,2599,2551,2506,2460,2412,2381,2431,2285,2254,2208,2152,2115,2165,2022,1975,1929,1882,1836,1799,1647,1409,1372,1320,1302,1290,1295,1306,1277,1283,1283,1290,1297,1313,1298,1304,1305,1326,1334,1308,1317,1336,1336,1335,1328,1329,1318,1321,1331,1310,1338,1330,1318,1313,1313,1312,282,283,284,285,286,368,416,465,513,561,574,565,556,546,537,529,520,510,501,492,482,474,465,456,474,437,454,419,435,425,392,405,374,365,377,350,352,352,274,273,274,276,277,277,278,277,279,279,279,279,282,282,282,282,282,283,284,285,283,350,286,286,286,286,286,0,0,0,0,0,0,0,0,0,0,0,0,0,0,0,0,0,0,0,0,0,0,0,0,0,0,0,0,0,0,0,0,0,0,0,0,0,0,0,0,0,0,0,0,0,0,0,0,0,0,0,0,0,0,0,0,0,0,0,0,0,0,0,0,0 ]);
