n = 20;
D = [280,188,118,187,255,296,68,135,198,70,189,81,299,112,245,93,194,73,255,91 ];
q = 0;
prec = array2d(1..0,1..2,[]);
steps = 64;
l = 360;
r = 0;
which = [];
interval = array2d(1..0,1..2,[]);
T = array3d(1..21,1..21,0..64,[0,0,0,0,0,0,0,0,0,0,0,0,0,0,0,0,0,0,0,0,0,0,0,0,0,0,0,0,0,0,0,0,0,0,0,0,0,0,0,0,0,0,0,0,0,0,0,0,0,0,0,0,0,0,0,0,0,0,0,0,0,0,0,0,0,580,582,583,584,714,807,915,1021,1119,1166,1169,1152,1127,1111,1096,1078,1059,1040,1017,1003,984,964,946,927,908,886,871,852,830,815,794,777,759,720,591,585,588,571,555,553,574,678,556,572,561,565,560,565,588,562,560,563,565,584,571,567,562,563,563,562,565,566,558,693,570,1095,1098,1101,1150,1353,1643,1940,2144,2217,2250,2168,2143,2098,2067,2033,2057,2016,1928,1888,1856,1820,1845,1746,1716,1679,1646,1604,1574,1508,1460,1342,1171,1143,1122,1111,1110,1101,1108,1102,1109,1125,1154,1124,1132,1134,1133,1133,1137,1140,1138,1132,1139,1144,1156,1142,1143,1142,1140,1138,1144,1154,1155,1135,1139,1133,1557,1562,1581,1831,1942,2573,2896,3005,3109,3120,2960,3001,2918,2825,2875,2856,2799,2635,2629,2585,2533,2543,2409,2271,1924,1927,1875,1809,1834,1748,1683,1652,1632,1595,1582,1584,1590,1581,1584,1561,1584,1617,1579,1594,1596,1595,1589,1602,1620,1591,1604,1604,1614,1676,1627,1618,1606,1628,1589,1608,1624,1640,1599,1656,1605,1205,1207,1217,1254,1366,1654,1974,2227,2312,2344,2280,2203,2164,2134,2139,2154,2124,2010,1997,2011,1933,2004,1868,1837,1803,1742,1710,1692,1531,1406,1300,1298,1254,1232,1227,1215,1195,1182,1183,1209,1196,1235,1207,1212,1209,1223,1219,1206,1199,1192,1210,1212,1219,1219,1219,1210,1224,1217,1223,1205,1219,1233,1218,1264,1230,900,903,905,919,1057,1295,1517,1766,1856,1882,1784,1757,1723,1697,1671,1726,1669,1586,1553,1529,1500,1594,1443,1416,1386,1355,1329,1302,1271,1253,1172,1126,949,934,915,914,894,899,914,913,913,917,915,915,927,932,910,903,919,923,915,911,910,911,912,924,917,918,915,914,909,941,946,1006,912,1022,1020,1035,1037,1087,1282,1726,1905,1980,1991,2077,1991,1969,1925,1860,1824,1830,1768,1764,1722,1701,1659,1637,1603,1540,1532,1507,1471,1338,1280,1155,1095,1090,1058,1046,1043,995,961,955,956,934,954,970,984,993,983,974,988,985,1001,982,989,983,982,985,982,987,992,986,986,987,988,985,992,977,1349,1347,1361,1381,1551,1882,2396,2549,2632,2636,2677,2586,2568,2498,2450,2409,2388,2328,2298,2261,2209,2164,2123,2079,2042,1997,1956,1840,1629,1559,1465,1420,1414,1382,1371,1368,1344,1309,1305,1317,1296,1309,1334,1344,1339,1347,1331,1345,1341,1351,1335,1345,1346,1340,1349,1325,1337,1350,1342,1348,1350,1351,1347,1354,1339,869,843,856,888,880,1113,1445,1544,1638,1685,1771,1666,1686,1624,1566,1540,1511,1520,1493,1437,1431,1410,1350,1349,1316,1269,1267,1239,1163,1131,959,921,902,897,857,850,857,849,845,845,839,854,863,877,852,868,854,865,871,872,861,882,879,874,871,866,874,891,890,877,882,908,864,881,872,1604,1612,1647,1769,2358,2774,3223,3309,3371,3384,3415,3271,3278,3153,3097,3036,2975,2915,2871,2814,2768,2707,2645,2561,2216,2198,1988,1955,1903,1845,1785,1699,1693,1656,1660,1652,1669,1711,1711,1714,1708,1730,1768,1767,1747,1769,1761,1763,1757,1787,1782,1782,1785,1784,1787,1772,1781,1787,1782,1783,1777,1777,1776,1781,1767,408,409,411,412,414,466,621,694,765,820,855,816,828,789,776,763,751,737,723,712,697,683,669,656,643,630,617,603,528,517,504,494,481,429,418,414,451,416,408,403,394,396,418,424,413,422,414,434,423,425,422,418,418,427,422,415,421,422,418,425,423,434,427,424,421,737,740,742,744,752,927,1206,1338,1431,1481,1546,1449,1493,1408,1384,1356,1335,1313,1307,1290,1241,1217,1194,1202,1146,1123,1099,1075,999,976,954,931,851,774,752,748,751,764,764,754,752,746,765,786,766,780,778,782,790,774,775,780,775,789,783,778,779,782,781,779,785,785,783,809,794,719,721,723,726,732,901,1168,1301,1409,1439,1493,1415,1416,1369,1346,1323,1303,1282,1258,1234,1208,1185,1165,1141,1117,1094,1073,1048,972,950,895,872,862,745,733,729,732,707,699,702,685,687,713,727,731,732,710,734,727,747,726,726,727,723,730,718,729,735,725,731,750,733,732,738,723,1342,1353,1364,1397,1547,1887,2371,2516,2613,2616,2663,2579,2554,2499,2433,2386,2365,2306,2299,2246,2201,2156,2125,2077,2019,1898,1874,1685,1597,1532,1459,1420,1420,1387,1379,1331,1289,1272,1275,1278,1271,1271,1300,1281,1309,1311,1294,1311,1311,1327,1308,1309,1309,1308,1313,1298,1311,1307,1311,1311,1295,1313,1309,1310,1301,941,927,933,936,964,1143,1538,1687,1800,1853,1879,1837,1812,1740,1694,1659,1657,1609,1627,1571,1538,1512,1505,1453,1424,1395,1386,1337,1261,1248,1117,1076,1036,978,964,930,940,925,933,940,936,942,964,931,959,974,961,958,973,965,968,971,978,972,969,945,961,958,962,961,947,966,960,961,953,797,800,802,804,898,1176,1310,1458,1558,1603,1595,1572,1539,1517,1496,1479,1454,1424,1397,1367,1340,1330,1301,1275,1249,1221,1145,1121,1094,1072,1047,910,846,824,811,806,810,794,777,772,793,821,783,795,784,789,785,789,813,787,785,788,788,808,808,792,787,788,787,789,792,794,783,843,795,1251,1260,1272,1284,1471,1717,2223,2382,2464,2474,2503,2427,2399,2347,2303,2264,2245,2189,2160,2107,2076,2033,1995,1954,1917,1876,1839,1755,1562,1469,1376,1333,1326,1295,1283,1279,1263,1229,1223,1231,1214,1216,1255,1256,1257,1264,1250,1267,1263,1278,1258,1261,1263,1264,1263,1247,1260,1267,1260,1261,1269,1262,1259,1266,1251,891,893,895,909,1070,1279,1551,1743,1838,1863,1816,1739,1705,1679,1655,1709,1653,1570,1538,1557,1486,1580,1430,1401,1373,1342,1316,1289,1227,1232,1123,1093,954,917,905,903,885,890,888,912,903,932,909,906,906,924,913,909,901,895,913,911,919,919,921,911,926,920,925,904,919,927,914,991,926,1424,1429,1437,1498,1867,2412,2690,2846,2898,2915,2886,2833,2776,2726,2681,2634,2606,2530,2499,2454,2392,2345,2300,2250,2198,2145,1915,1673,1647,1611,1549,1527,1501,1461,1447,1436,1444,1431,1415,1417,1441,1467,1421,1452,1449,1431,1431,1436,1459,1434,1436,1446,1450,1470,1437,1443,1438,1477,1465,1437,1453,1437,1430,1507,1442,330,330,459,332,333,431,474,518,562,601,609,600,592,584,576,567,599,551,543,534,526,518,510,501,493,485,510,468,460,484,444,465,427,419,336,333,334,334,327,331,324,327,333,333,415,421,329,332,334,416,338,328,331,339,333,333,333,333,327,332,327,333,333,335,325,0,0,0,0,0,0,0,0,0,0,0,0,0,0,0,0,0,0,0,0,0,0,0,0,0,0,0,0,0,0,0,0,0,0,0,0,0,0,0,0,0,0,0,0,0,0,0,0,0,0,0,0,0,0,0,0,0,0,0,0,0,0,0,0,0,675,677,679,693,706,891,1049,1169,1284,1360,1347,1326,1304,1283,1281,1240,1219,1222,1177,1155,1134,1113,1109,1070,1072,1027,1006,984,987,942,882,887,769,701,688,725,687,685,680,679,677,687,684,683,685,688,687,693,688,686,686,690,694,678,694,694,687,697,681,686,692,692,692,692,692,0,0,0,0,0,0,0,0,0,0,0,0,0,0,0,0,0,0,0,0,0,0,0,0,0,0,0,0,0,0,0,0,0,0,0,0,0,0,0,0,0,0,0,0,0,0,0,0,0,0,0,0,0,0,0,0,0,0,0,0,0,0,0,0,0,556,557,558,593,573,754,872,975,1093,1147,1120,1102,1084,1067,1049,1030,1013,995,977,959,941,924,905,887,870,869,833,816,815,781,762,744,658,579,567,564,566,567,555,563,558,567,557,568,561,575,569,573,573,567,576,572,576,579,579,576,584,580,577,575,582,597,596,587,586,978,981,983,1065,1156,1501,1731,1883,2094,2030,1992,2021,1954,1914,1933,1858,1850,1779,1776,1719,1702,1658,1630,1592,1556,1536,1482,1446,1357,1312,1278,1063,1034,1008,995,1001,999,1005,1021,1029,1030,1043,1065,1048,1038,1061,1036,1044,1037,1038,1042,1056,1058,1107,1099,1093,1069,1064,1065,1056,1053,1059,1090,1104,1062,696,699,700,694,711,754,1004,1097,1189,1251,1255,1238,1224,1203,1186,1192,1157,1161,1154,1136,1119,1098,1077,1053,1032,1027,1009,967,948,952,897,794,768,712,708,712,699,682,652,661,661,664,680,678,674,683,668,681,668,675,670,675,680,695,680,671,673,670,677,678,678,705,679,684,680,394,395,396,404,400,503,593,661,731,787,796,783,771,757,745,755,720,706,694,681,669,656,643,631,618,606,593,591,568,555,560,529,517,480,404,406,400,381,365,363,368,378,374,381,365,377,377,372,373,382,380,381,378,389,384,377,373,383,382,390,382,393,382,388,383,610,610,612,614,621,772,912,1017,1126,1210,1226,1207,1187,1167,1147,1127,1108,1087,1070,1052,1033,1019,999,979,959,939,920,900,881,860,805,755,684,641,626,618,621,612,543,544,544,548,557,556,550,564,552,566,561,563,574,568,564,564,571,554,562,560,563,575,561,566,573,566,561,965,969,971,977,1001,1327,1560,1730,1856,1911,1914,1884,1853,1821,1790,1759,1726,1697,1668,1646,1609,1578,1557,1526,1486,1456,1425,1394,1236,1164,1100,1055,1032,994,983,980,984,942,908,913,919,922,927,920,921,919,916,931,929,924,941,941,932,936,934,927,932,930,931,948,937,943,949,943,938,701,694,697,708,719,829,1071,1210,1278,1391,1408,1361,1306,1328,1317,1282,1264,1247,1220,1193,1149,1145,1118,1095,1065,1058,1051,956,914,877,809,842,739,717,713,712,709,685,611,606,608,635,638,642,618,634,631,645,643,641,654,655,646,650,648,634,646,643,630,645,638,649,642,651,632,1254,1258,1262,1400,1577,2031,2329,2499,2593,2604,2577,2532,2487,2441,2400,2350,2312,2264,2220,2179,2130,2086,2045,2000,1958,1927,1861,1807,1585,1548,1392,1350,1313,1285,1273,1252,1239,1240,1258,1248,1253,1260,1255,1270,1293,1303,1260,1296,1282,1262,1303,1312,1343,1323,1322,1338,1313,1322,1317,1302,1318,1282,1271,1269,1268,432,432,434,435,439,561,661,739,816,867,886,861,858,833,816,805,829,774,763,750,735,718,707,703,679,665,651,685,623,609,621,591,567,434,441,438,439,441,425,425,425,426,439,431,418,427,432,448,439,439,444,438,431,429,446,438,426,431,431,431,429,418,437,432,418,676,682,684,685,691,848,1038,1158,1277,1355,1375,1351,1324,1301,1276,1264,1233,1213,1191,1167,1146,1125,1102,1078,1059,1037,1016,992,972,947,891,796,735,715,695,689,691,664,610,608,611,616,615,616,610,615,613,625,616,615,618,635,626,630,628,620,613,621,612,622,611,618,612,622,611,440,444,444,447,448,527,650,726,800,872,893,881,867,854,836,821,807,793,779,768,753,737,722,708,697,679,668,654,640,625,561,548,493,502,452,449,450,436,381,374,376,385,392,396,385,394,393,396,394,390,401,406,397,401,399,389,397,389,380,408,396,409,401,408,392,882,870,889,888,981,1131,1425,1597,1694,1736,1734,1707,1697,1667,1641,1607,1564,1530,1501,1483,1499,1440,1393,1377,1358,1331,1302,1247,1200,1125,1128,936,968,916,901,894,862,800,792,797,798,800,805,804,804,803,803,810,804,830,831,843,819,817,814,808,810,809,813,807,807,806,825,815,802,442,453,445,446,450,570,674,752,831,888,896,882,867,853,839,847,810,796,782,767,773,739,724,710,696,682,667,670,639,624,615,596,560,464,452,449,450,451,445,448,446,449,456,454,454,453,451,458,451,456,456,466,461,464,464,457,457,459,464,456,457,458,473,466,453,217,217,218,219,220,300,334,369,403,437,451,444,437,465,424,419,412,436,399,392,415,379,372,366,359,353,346,339,333,326,320,313,340,337,225,220,221,222,223,224,225,224,224,227,224,257,224,225,224,225,227,225,225,280,224,243,225,225,225,224,227,227,244,225,225,871,871,884,887,904,1195,1397,1538,1686,1744,1741,1722,1676,1663,1637,1608,1579,1552,1525,1506,1471,1436,1415,1395,1359,1331,1303,1274,1247,1210,1046,965,945,908,886,892,896,890,819,819,822,829,828,841,829,840,833,850,842,847,863,853,850,851,853,842,851,851,848,862,848,853,860,853,848,384,385,386,397,398,480,578,646,713,767,776,764,751,739,727,737,702,690,677,665,653,641,629,616,623,591,579,567,554,542,541,493,414,470,393,389,415,372,359,366,364,371,377,380,368,380,369,375,371,377,373,378,379,395,380,373,374,372,380,380,377,405,373,380,376,846,848,850,923,929,1279,1506,1692,1805,1828,1815,1782,1750,1717,1688,1652,1621,1587,1554,1526,1489,1456,1426,1391,1359,1346,1294,1261,1234,1196,1163,926,899,874,861,856,851,857,873,864,864,867,865,881,882,903,866,900,881,871,872,909,909,910,926,902,910,911,917,907,892,888,874,872,871,652,654,657,652,661,867,1047,1163,1260,1305,1320,1287,1281,1236,1226,1206,1226,1171,1146,1125,1091,1085,1064,1055,1025,987,984,993,943,924,919,862,689,654,677,663,665,666,655,660,655,669,676,666,653,662,667,685,672,669,676,673,666,664,681,675,661,666,666,666,664,653,672,667,653,675,677,679,693,706,891,1049,1169,1284,1360,1347,1326,1304,1283,1281,1240,1219,1222,1177,1155,1134,1113,1109,1070,1072,1027,1006,984,987,942,882,887,769,701,688,725,687,685,680,679,677,687,684,683,685,688,687,693,688,686,686,690,694,678,694,694,687,697,681,686,692,692,692,692,692,1230,1226,1236,1253,1395,1717,2050,2274,2397,2426,2406,2349,2330,2273,2261,2213,2159,2137,2098,2059,2020,1981,1931,1905,1868,1818,1793,1770,1542,1363,1358,1301,1294,1269,1242,1241,1241,1243,1228,1226,1239,1244,1237,1235,1231,1239,1238,1247,1259,1241,1248,1253,1253,1250,1256,1257,1241,1253,1246,1249,1247,1251,1245,1251,1240,656,657,660,662,674,789,1003,1146,1290,1315,1318,1298,1277,1256,1251,1213,1192,1171,1150,1128,1107,1099,1062,1056,1023,1002,981,977,952,917,781,763,744,682,669,666,667,669,648,651,655,667,657,652,653,661,657,665,671,659,665,670,668,662,665,669,655,663,658,660,658,659,657,670,644,0,0,0,0,0,0,0,0,0,0,0,0,0,0,0,0,0,0,0,0,0,0,0,0,0,0,0,0,0,0,0,0,0,0,0,0,0,0,0,0,0,0,0,0,0,0,0,0,0,0,0,0,0,0,0,0,0,0,0,0,0,0,0,0,0,510,529,513,535,661,688,765,793,991,1050,1040,1025,940,993,976,898,884,929,856,897,829,865,850,786,818,713,744,731,717,702,722,707,691,675,481,534,655,657,522,524,521,524,527,523,526,528,520,524,524,533,524,529,531,531,528,529,529,531,532,640,531,639,525,529,529,155,156,156,190,192,196,218,240,261,283,298,293,289,284,280,276,272,268,264,259,255,250,247,243,238,234,229,225,222,217,213,209,204,201,196,193,193,193,123,123,123,125,124,123,123,124,124,127,124,124,126,123,125,125,125,125,124,128,125,126,125,125,125,126,125,474,467,468,477,475,614,694,797,871,936,939,923,917,902,888,866,859,846,831,817,803,790,759,757,744,730,706,684,669,664,640,625,504,487,476,472,474,455,436,440,441,456,452,442,438,444,439,452,452,443,447,453,451,447,449,453,442,441,447,444,442,446,438,450,438,785,790,788,827,829,1082,1220,1356,1458,1520,1548,1513,1483,1455,1432,1410,1388,1364,1351,1332,1309,1270,1247,1223,1212,1190,1156,1136,1104,1027,1006,984,842,808,797,811,796,764,743,737,742,745,738,743,743,744,744,747,744,743,746,743,745,745,745,745,744,748,745,745,745,745,745,746,745,852,852,859,852,951,1183,1342,1485,1600,1666,1635,1613,1613,1561,1531,1529,1480,1474,1416,1388,1377,1375,1346,1321,1295,1238,1256,1229,1182,1145,1024,1055,895,876,865,865,864,858,807,807,807,809,808,807,807,808,808,811,808,808,810,807,809,809,809,809,808,812,809,810,809,809,809,810,809,973,980,979,1014,1036,1368,1580,1747,1846,1904,1915,1888,1837,1807,1776,1747,1716,1686,1669,1642,1613,1573,1542,1513,1497,1470,1427,1397,1116,1258,1093,1070,1020,1005,988,1006,966,917,877,877,877,879,878,877,877,878,878,881,878,878,880,877,879,879,879,879,878,882,879,880,879,879,879,880,879,1015,1027,998,1006,1135,1398,1776,1838,1920,1986,1940,1915,1879,1849,1819,1788,1757,1727,1696,1666,1637,1605,1574,1542,1512,1485,1450,1422,1394,1293,1203,1114,1059,1019,1072,1005,995,1015,962,963,965,973,977,976,974,977,983,989,985,989,984,1023,1003,1022,995,993,1036,994,1004,1002,1026,1036,994,1023,1000,999,985,1019,1024,1090,1341,1640,1860,1947,1973,1979,1950,1889,1857,1839,1827,1768,1714,1723,1681,1653,1653,1563,1542,1528,1497,1436,1432,1324,1099,1107,1083,1073,1021,1010,1021,1020,971,948,940,953,972,964,957,945,955,958,970,978,955,962,967,967,982,970,971,955,967,961,963,968,965,959,965,957,1020,1001,1032,1045,1115,1432,1615,1783,1896,1946,1970,1918,1872,1861,1851,1805,1771,1721,1706,1675,1653,1621,1605,1563,1554,1498,1470,1421,1391,1345,1107,1064,1091,1020,1035,1041,1011,1033,997,997,997,999,998,997,997,998,998,1001,998,998,1000,997,999,999,999,999,998,1002,999,1000,999,999,999,1000,999,800,801,803,834,854,1098,1243,1381,1493,1556,1572,1548,1503,1497,1456,1449,1425,1383,1375,1350,1330,1288,1267,1243,1231,1206,1184,1144,1147,1096,929,857,896,819,835,825,810,810,782,782,782,784,783,782,782,783,783,786,783,783,785,782,784,784,784,784,783,787,784,785,784,784,784,785,784,737,736,742,745,770,1004,1131,1257,1363,1432,1405,1395,1397,1346,1320,1321,1279,1276,1218,1196,1191,1193,1167,1147,1118,1070,1086,1062,1021,1009,806,887,789,758,761,747,732,718,666,666,666,668,667,666,666,667,667,670,667,667,669,666,668,668,668,668,667,671,668,669,668,668,668,669,668,549,550,551,577,578,653,778,842,905,959,968,962,950,930,926,906,895,883,871,859,847,834,822,810,798,786,774,761,693,680,659,648,573,563,589,572,574,548,489,489,494,496,492,494,494,494,495,493,495,495,497,494,496,496,493,493,492,499,496,497,496,496,496,497,496,660,670,665,674,678,798,1010,1154,1283,1327,1327,1323,1285,1263,1260,1222,1200,1195,1158,1136,1115,1094,1085,1064,1030,1024,987,984,958,889,753,793,703,686,692,671,673,682,663,660,664,675,672,667,666,672,672,671,666,669,665,675,671,666,671,676,675,672,673,671,671,693,675,683,669,1079,1095,1104,1137,1203,1582,1818,1989,2035,2093,2103,2101,2038,1990,1945,1914,1925,1879,1868,1824,1768,1730,1698,1677,1672,1611,1562,1545,1449,1222,1175,1197,1141,1096,1095,1117,1099,1073,1058,1046,1051,1056,1047,1054,1057,1059,1059,1060,1059,1052,1058,1056,1055,1056,1059,1058,1058,1061,1057,1054,1055,1060,1056,1061,1060,465,458,459,468,465,602,682,780,852,919,924,906,889,885,872,850,844,831,817,804,789,783,745,744,717,718,702,673,657,657,629,613,570,481,469,463,465,466,447,450,452,461,466,452,451,455,451,466,465,457,457,464,462,459,459,463,454,452,458,455,454,461,448,462,450,606,615,588,590,604,763,1005,1015,1108,1192,1157,1138,1120,1104,1084,1067,1049,1030,1013,994,976,959,940,922,905,886,869,851,833,767,750,734,622,608,626,616,608,648,576,578,581,584,584,586,585,588,586,595,589,588,593,592,600,603,602,597,600,595,601,602,625,646,600,638,603,1214,1209,1244,1281,1351,1738,2079,2294,2376,2396,2389,2361,2280,2255,2228,2197,2136,2087,2083,2045,2010,2006,1911,1880,1861,1820,1756,1558,1524,1347,1349,1307,1305,1247,1229,1247,1251,1201,1178,1170,1183,1202,1194,1187,1175,1185,1188,1200,1208,1185,1192,1197,1197,1212,1200,1201,1185,1197,1191,1193,1198,1195,1189,1195,1187,1230,1226,1236,1253,1395,1717,2050,2274,2397,2426,2406,2349,2330,2273,2261,2213,2159,2137,2098,2059,2020,1981,1931,1905,1868,1818,1793,1770,1542,1363,1358,1301,1294,1269,1242,1241,1241,1243,1228,1226,1239,1244,1237,1235,1231,1239,1238,1247,1259,1241,1248,1253,1253,1250,1256,1257,1241,1253,1246,1249,1247,1251,1245,1251,1240,1565,1580,1593,1762,2335,2749,2929,3092,3149,3159,3136,3076,3023,2987,2918,2878,2823,2768,2706,2652,2609,2555,2493,2313,1953,2205,1921,1846,1819,1736,1692,1654,1638,1600,1589,1586,1592,1603,1614,1608,1607,1613,1636,1614,1634,1630,1617,1650,1642,1621,1640,1643,1633,1640,1640,1646,1636,1640,1635,1632,1632,1642,1632,1631,1621,996,998,1002,1029,1388,1639,1811,1985,2092,2108,2093,2071,2022,1985,1945,1909,1890,1838,1801,1764,1724,1690,1653,1617,1579,1604,1590,1469,1432,1394,1232,1163,1049,1026,1012,1013,1018,1018,1035,1040,1027,1033,1053,1027,1045,1053,1035,1064,1054,1038,1039,1059,1055,1050,1056,1056,1056,1059,1042,1048,1054,1052,1048,1047,1028,573,567,582,584,578,827,931,961,1074,1126,1140,1115,1158,1083,1068,1051,1068,1019,1032,987,972,985,966,943,885,876,859,841,825,776,759,760,754,737,566,587,582,674,585,583,582,581,580,584,588,588,586,584,586,584,587,584,588,587,675,684,586,587,589,670,585,687,589,667,666,0,0,0,0,0,0,0,0,0,0,0,0,0,0,0,0,0,0,0,0,0,0,0,0,0,0,0,0,0,0,0,0,0,0,0,0,0,0,0,0,0,0,0,0,0,0,0,0,0,0,0,0,0,0,0,0,0,0,0,0,0,0,0,0,0,532,534,549,551,546,788,844,954,1036,1204,1101,1076,1060,1045,1028,1012,1029,980,993,948,932,898,881,863,845,837,819,803,785,767,760,732,715,570,558,555,556,535,532,556,520,521,532,522,527,531,535,536,577,531,534,541,574,543,531,548,541,548,565,532,549,544,562,530,529,835,837,853,871,915,1285,1478,1617,1688,1790,1744,1714,1684,1668,1646,1620,1588,1561,1539,1509,1488,1431,1399,1411,1336,1305,1294,1263,1220,1188,1148,917,888,873,851,849,833,837,859,847,849,856,851,864,876,891,855,884,866,856,859,900,906,898,882,873,889,895,891,872,879,878,862,861,857,1166,1169,1186,1218,1354,1872,2041,2191,2286,2409,2287,2254,2212,2177,2159,2110,2117,2041,2033,1971,1936,1893,1856,1820,1776,1753,1741,1676,1583,1432,1289,1252,1241,1213,1196,1197,1162,1155,1152,1153,1140,1141,1152,1142,1147,1151,1155,1156,1175,1151,1154,1161,1178,1163,1151,1168,1161,1168,1166,1152,1169,1164,1170,1150,1149,1231,1210,1257,1339,1486,2018,2142,2337,2391,2532,2378,2331,2311,2294,2275,2220,2231,2150,2144,2074,2050,1992,1945,1895,1839,1848,1780,1731,1666,1381,1342,1301,1304,1273,1264,1241,1233,1219,1216,1253,1204,1205,1216,1206,1211,1215,1219,1220,1274,1215,1218,1225,1266,1227,1215,1232,1225,1232,1273,1216,1233,1228,1268,1214,1213,1356,1361,1376,1484,1688,2284,2436,2576,2653,2763,2643,2603,2572,2516,2487,2433,2435,2351,2337,2275,2232,2172,2141,2100,2043,2021,1975,1867,1564,1517,1491,1447,1437,1410,1390,1342,1317,1289,1286,1334,1274,1275,1286,1276,1281,1285,1289,1290,1339,1285,1288,1295,1352,1297,1285,1302,1295,1302,1331,1286,1303,1298,1333,1284,1283,992,977,983,1028,1160,1490,1745,1925,1982,2013,1997,1983,1922,1888,1882,1820,1808,1785,1718,1689,1650,1615,1587,1548,1514,1501,1446,1427,1378,1281,1250,1173,1016,1004,991,979,980,980,990,986,999,999,996,1013,1003,992,1007,1017,1025,1015,1026,1030,1030,1040,1020,1020,1005,1009,1006,1011,1001,1011,1012,1025,1003,1343,1339,1361,1461,1896,2220,2525,2667,2753,2766,2753,2697,2658,2599,2538,2495,2446,2390,2357,2329,2223,2179,2154,2105,2058,2000,2008,1858,1763,1647,1474,1431,1391,1391,1351,1359,1319,1322,1330,1322,1344,1355,1354,1352,1355,1344,1348,1367,1359,1347,1354,1368,1367,1363,1372,1366,1350,1362,1349,1346,1346,1363,1350,1369,1335,1377,1413,1405,1491,1758,2331,2475,2614,2690,2807,2682,2649,2609,2550,2527,2504,2500,2404,2372,2317,2263,2218,2198,2128,2086,2094,1985,1928,1568,1568,1506,1494,1486,1426,1412,1408,1415,1409,1406,1446,1394,1395,1406,1396,1401,1405,1409,1410,1468,1405,1408,1415,1454,1417,1405,1422,1415,1422,1455,1406,1423,1418,1451,1404,1403,1177,1181,1198,1263,1431,1929,2076,2227,2310,2436,2324,2279,2253,2209,2181,2130,2144,2075,2060,1997,1954,1913,1873,1836,1800,1773,1760,1694,1657,1400,1304,1293,1257,1226,1209,1210,1212,1194,1191,1213,1179,1180,1191,1181,1186,1190,1194,1195,1236,1190,1193,1200,1240,1202,1190,1207,1200,1207,1247,1191,1208,1203,1232,1189,1188,1116,1094,1146,1156,1307,1790,1901,2103,2168,2312,2165,2121,2100,2090,2068,2022,2037,1959,1951,1890,1866,1816,1773,1723,1672,1684,1619,1596,1434,1473,1238,1192,1198,1167,1147,1103,1093,1078,1075,1112,1063,1064,1075,1065,1070,1074,1078,1079,1123,1074,1077,1084,1137,1086,1074,1091,1084,1091,1126,1075,1092,1087,1114,1073,1072,927,925,946,950,1011,1384,1485,1632,1707,1869,1759,1722,1697,1674,1651,1628,1635,1581,1585,1534,1510,1468,1443,1418,1393,1375,1291,1266,1242,1212,1208,1101,1006,970,945,950,920,906,903,906,891,892,903,893,898,902,906,907,935,902,905,912,938,914,902,919,912,919,948,903,920,915,939,901,900,1018,1004,1025,1035,1425,1646,1820,1994,2100,2117,2105,2080,2031,1994,1956,1919,1897,1845,1808,1785,1734,1697,1673,1623,1586,1610,1582,1475,1418,1401,1223,1086,1073,1031,1019,1018,1023,1027,1041,1045,1053,1048,1042,1044,1056,1069,1050,1062,1062,1058,1053,1071,1062,1066,1072,1077,1064,1070,1061,1068,1059,1070,1061,1060,1050,1373,1377,1411,1505,1854,2475,2625,2766,2841,2987,2821,2789,2725,2681,2691,2638,2634,2535,2495,2445,2417,2351,2311,2243,2185,2157,2081,1970,1610,1563,1517,1472,1433,1404,1467,1401,1411,1421,1465,1462,1455,1456,1463,1457,1462,1466,1470,1471,1484,1466,1469,1476,1487,1478,1466,1483,1476,1483,1475,1467,1483,1478,1479,1465,1464,826,828,844,841,943,1256,1460,1598,1671,1774,1725,1698,1667,1651,1628,1604,1574,1558,1526,1502,1490,1417,1387,1356,1324,1292,1282,1250,1217,1188,1136,963,879,873,842,840,845,848,847,845,858,873,870,881,863,890,856,895,873,858,871,863,876,902,879,872,879,859,870,877,875,903,865,889,868,678,679,681,684,723,917,1077,1200,1306,1357,1357,1335,1318,1292,1269,1249,1232,1206,1184,1162,1141,1119,1097,1076,1054,1032,1012,990,968,946,924,810,790,703,693,687,689,677,673,666,660,671,674,684,671,679,685,682,674,677,670,676,677,664,679,680,679,677,673,673,686,705,683,745,680,1569,1563,1629,1722,2239,2669,2950,3086,3166,3173,3143,3089,3038,2971,2918,2869,2810,2754,2714,2682,2571,2517,2492,2279,2192,1881,1887,1862,1814,1764,1692,1669,1616,1610,1577,1590,1549,1552,1560,1552,1574,1585,1584,1582,1585,1574,1578,1597,1589,1577,1584,1598,1597,1593,1602,1596,1580,1592,1579,1576,1576,1593,1580,1599,1565,1565,1580,1593,1762,2335,2749,2929,3092,3149,3159,3136,3076,3023,2987,2918,2878,2823,2768,2706,2652,2609,2555,2493,2313,1953,2205,1921,1846,1819,1736,1692,1654,1638,1600,1589,1586,1592,1603,1614,1608,1607,1613,1636,1614,1634,1630,1617,1650,1642,1621,1640,1643,1633,1640,1640,1646,1636,1640,1635,1632,1632,1642,1632,1631,1621,1249,1254,1257,1290,1365,1749,2052,2289,2348,2360,2335,2297,2270,2229,2198,2170,2126,2100,2057,2024,1999,1953,1923,1884,1850,1825,1701,1665,1608,1453,1372,1348,1301,1283,1276,1267,1254,1256,1239,1229,1219,1226,1244,1249,1240,1260,1234,1256,1246,1258,1250,1263,1259,1263,1263,1256,1253,1260,1263,1263,1256,1263,1245,1253,1247,767,767,771,771,778,968,1180,1316,1400,1460,1422,1402,1381,1358,1342,1322,1302,1281,1261,1238,1222,1199,1181,1162,1141,1122,1116,1080,1061,1032,962,922,849,837,779,775,777,779,735,731,726,750,730,754,734,742,739,746,764,753,756,740,766,764,764,745,740,766,740,763,742,736,762,743,742,160,161,161,161,198,201,222,243,264,283,299,294,290,287,282,278,275,270,266,262,258,254,250,246,242,238,234,229,225,222,217,213,210,205,201,198,199,199,150,153,150,153,153,155,150,154,150,155,152,153,152,152,155,159,153,153,154,153,154,154,153,155,149,152,149,529,504,504,553,496,687,763,853,982,985,1014,981,964,943,972,957,941,925,864,887,877,862,794,830,815,799,783,727,722,737,690,663,529,516,504,509,656,559,514,519,517,520,522,526,519,529,520,522,517,521,518,525,525,525,525,525,525,525,525,525,525,525,515,525,523,0,0,0,0,0,0,0,0,0,0,0,0,0,0,0,0,0,0,0,0,0,0,0,0,0,0,0,0,0,0,0,0,0,0,0,0,0,0,0,0,0,0,0,0,0,0,0,0,0,0,0,0,0,0,0,0,0,0,0,0,0,0,0,0,0,401,401,398,404,399,426,558,596,635,670,671,664,657,643,642,635,627,620,612,603,598,590,582,576,567,561,553,545,539,506,490,510,418,408,406,405,405,386,365,357,357,356,365,363,359,364,356,357,362,365,363,364,368,385,369,373,360,367,366,367,387,369,385,385,370,630,645,646,637,650,880,981,1090,1188,1245,1248,1232,1237,1235,1174,1154,1136,1122,1096,1076,1057,1037,1017,1003,986,985,947,919,922,880,804,786,763,655,643,651,642,635,620,594,597,600,595,608,601,636,607,603,633,598,601,601,600,604,604,603,603,604,602,601,601,604,602,608,604,708,703,712,706,713,917,1116,1237,1344,1389,1380,1367,1333,1277,1251,1269,1247,1226,1210,1190,1161,1140,1118,1101,1080,1053,1036,1016,992,933,890,885,855,721,710,707,687,708,684,681,693,702,701,707,698,709,695,707,701,696,700,703,708,708,692,697,701,702,708,708,708,708,701,708,704,821,824,827,829,894,1162,1354,1496,1595,1630,1624,1601,1611,1596,1523,1497,1510,1446,1419,1392,1368,1343,1318,1274,1263,1269,1198,1186,1184,1072,1027,924,903,852,835,855,812,762,754,763,778,763,777,762,765,769,769,770,762,762,763,763,772,778,778,778,778,776,768,766,772,766,771,771,765,963,966,970,978,1104,1400,1600,1795,1908,1915,1942,1874,1850,1817,1784,1753,1722,1692,1662,1631,1601,1570,1539,1507,1483,1449,1422,1389,1360,1328,1264,1055,1055,1026,980,976,953,939,941,940,935,942,948,944,949,946,957,948,953,957,953,965,965,965,957,965,965,959,963,965,965,965,955,965,958,971,969,973,971,1032,1278,1497,1730,1799,1816,1807,1774,1756,1721,1696,1668,1643,1623,1591,1575,1554,1512,1484,1460,1431,1408,1380,1333,1293,1157,1045,1045,1002,984,978,976,969,971,954,933,934,941,959,948,955,975,949,971,961,973,965,972,974,978,978,960,966,975,978,978,972,978,960,968,962,867,845,872,856,886,1236,1397,1543,1662,1665,1706,1681,1681,1629,1600,1529,1547,1533,1480,1424,1398,1414,1386,1320,1342,1304,1241,1259,1245,1163,1137,971,887,947,856,874,889,859,874,871,879,887,869,885,884,886,883,886,898,891,890,888,893,880,895,893,888,895,883,890,893,888,885,889,888,645,645,647,650,679,906,1025,1141,1232,1273,1274,1293,1277,1263,1199,1174,1196,1173,1148,1095,1075,1054,1068,1015,997,1015,955,936,941,895,875,737,735,718,657,681,656,656,659,654,657,662,664,659,657,664,657,664,662,659,665,667,666,666,669,666,668,668,666,675,665,667,669,670,668,589,584,594,598,608,757,908,1009,1102,1149,1152,1137,1117,1064,1041,1063,1045,1027,1009,998,973,955,938,919,902,883,866,847,833,797,649,706,747,612,604,601,581,567,543,539,550,567,546,560,546,564,546,556,567,547,549,555,551,562,563,552,550,553,559,561,551,551,546,567,550,393,395,395,396,399,443,548,602,644,680,682,675,665,658,650,641,634,626,619,609,608,593,585,578,569,561,552,545,484,476,469,462,454,406,400,399,400,400,371,357,348,351,368,369,367,372,361,380,377,391,385,379,377,395,386,359,369,381,382,390,386,395,385,382,374,772,772,774,782,783,1005,1188,1324,1410,1470,1434,1411,1393,1370,1350,1329,1311,1290,1269,1249,1230,1208,1189,1184,1148,1129,1108,1087,1081,977,950,896,807,850,801,781,783,784,748,740,739,737,749,769,751,763,763,773,771,775,770,750,774,768,774,753,761,775,755,774,755,783,780,761,760,924,945,948,962,998,1380,1540,1694,1814,1824,1805,1821,1816,1779,1709,1667,1640,1654,1609,1589,1555,1503,1496,1456,1455,1426,1368,1320,1266,1215,1192,1094,979,970,958,966,958,935,935,903,906,909,904,917,910,948,916,912,942,907,910,910,909,913,913,912,912,913,911,910,910,913,911,917,913,402,402,390,395,392,475,545,582,619,650,654,647,639,624,626,619,610,604,598,587,579,576,568,562,554,547,541,533,528,521,509,524,483,476,469,428,396,397,359,358,358,358,360,357,360,360,356,359,359,359,361,362,362,362,363,363,362,363,365,364,365,364,362,361,360,556,558,559,561,573,759,858,972,1095,1116,1183,1102,1084,1067,1049,1030,1013,995,977,959,941,924,905,888,874,852,834,817,799,781,763,745,728,581,568,565,567,554,555,555,551,553,555,554,560,557,560,554,557,556,562,557,562,560,564,578,559,560,560,569,572,575,561,578,561,1187,1191,1193,1199,1274,1641,1937,2160,2219,2236,2213,2184,2145,2108,2088,2046,2010,1999,1945,1929,1900,1848,1817,1799,1766,1735,1702,1586,1416,1339,1271,1270,1220,1202,1198,1195,1196,1195,1170,1152,1165,1174,1187,1194,1185,1195,1184,1194,1194,1194,1194,1194,1194,1194,1194,1189,1194,1194,1194,1194,1194,1194,1194,1194,1194,1249,1254,1257,1290,1365,1749,2052,2289,2348,2360,2335,2297,2270,2229,2198,2170,2126,2100,2057,2024,1999,1953,1923,1884,1850,1825,1701,1665,1608,1453,1372,1348,1301,1283,1276,1267,1254,1256,1239,1229,1219,1226,1244,1249,1240,1260,1234,1256,1246,1258,1250,1263,1259,1263,1263,1256,1253,1260,1263,1263,1256,1263,1245,1253,1247,1040,1062,1042,1052,1121,1511,1749,1912,2010,2051,2046,2013,1971,1939,1914,1874,1847,1809,1784,1742,1703,1696,1645,1631,1582,1543,1522,1486,1431,1309,1136,1138,1084,1070,1079,1050,1067,1039,1034,1023,1027,1034,1034,1042,1042,1052,1041,1043,1053,1050,1047,1044,1040,1048,1042,1033,1041,1047,1049,1041,1040,1050,1039,1063,1040,495,496,498,498,507,555,758,844,933,996,1014,998,982,974,949,933,917,900,883,868,851,850,820,817,786,771,755,750,722,703,686,671,556,557,506,503,504,505,476,468,471,475,477,483,481,481,479,483,481,484,493,487,482,490,485,486,483,488,497,492,493,495,494,492,485,266,267,267,269,269,333,383,427,473,517,547,537,529,519,512,503,494,486,476,468,458,448,440,434,423,415,405,397,388,379,371,363,354,345,335,270,270,271,254,249,251,251,257,255,257,272,253,253,256,256,255,255,258,289,263,260,257,258,257,257,261,262,262,270,264,747,712,772,756,769,1021,1176,1248,1355,1381,1441,1477,1398,1385,1311,1387,1313,1250,1224,1297,1269,1164,1226,1221,1136,1159,1093,1031,1050,897,915,923,828,776,798,758,755,724,747,760,748,761,768,760,766,782,765,766,761,760,762,759,759,765,768,765,768,760,761,759,767,850,774,787,771,378,379,379,380,382,439,529,537,573,609,631,624,617,610,595,587,580,582,600,600,592,584,575,567,559,551,543,534,503,495,488,479,471,459,386,382,383,384,365,348,350,353,350,360,354,364,360,357,366,362,367,362,357,363,363,356,354,361,363,364,361,368,366,383,367,0,0,0,0,0,0,0,0,0,0,0,0,0,0,0,0,0,0,0,0,0,0,0,0,0,0,0,0,0,0,0,0,0,0,0,0,0,0,0,0,0,0,0,0,0,0,0,0,0,0,0,0,0,0,0,0,0,0,0,0,0,0,0,0,0,568,570,572,574,586,651,869,961,1079,1125,1138,1109,1104,1078,1073,1063,1036,1018,1001,982,957,950,926,919,889,882,853,845,816,798,739,676,633,617,594,577,588,591,501,504,502,508,513,506,507,509,506,511,512,519,533,533,526,521,515,505,508,513,514,517,513,518,512,540,511,734,734,729,738,734,916,1127,1249,1351,1433,1454,1427,1415,1387,1383,1361,1324,1279,1256,1241,1212,1206,1177,1137,1127,1104,1080,1047,1020,922,843,823,786,756,752,737,732,737,650,653,651,657,662,655,656,658,655,660,661,668,690,688,685,670,664,654,657,662,663,666,662,667,661,689,660,759,762,764,766,795,933,1183,1322,1469,1503,1497,1476,1456,1431,1420,1386,1372,1346,1322,1297,1267,1255,1231,1200,1181,1166,1131,1116,1021,902,861,851,817,787,773,772,758,699,637,658,675,653,661,655,652,657,645,662,652,657,664,667,664,669,666,653,655,653,662,666,661,668,658,688,655,1043,1040,1048,1057,1165,1498,1868,1979,2106,2182,2184,2153,2094,2067,2016,1990,1955,1921,1882,1853,1804,1761,1722,1690,1652,1614,1573,1530,1487,1387,1183,1173,1110,1084,1053,1057,1071,1025,1010,1011,1015,1024,1025,1026,1048,1039,1032,1027,1037,1041,1047,1061,1055,1074,1031,1031,1073,1034,1042,1036,1034,1063,1027,1032,1030,748,771,753,776,802,954,1201,1337,1448,1506,1506,1472,1457,1434,1401,1384,1360,1325,1314,1278,1245,1233,1218,1197,1161,1139,1121,1100,979,961,858,887,793,815,783,798,781,754,737,738,740,749,749,751,757,766,748,758,759,754,762,759,755,761,757,748,751,757,764,756,755,765,754,778,755,790,791,794,790,814,1032,1225,1356,1509,1554,1534,1524,1502,1466,1457,1439,1405,1380,1356,1331,1300,1298,1269,1232,1206,1206,1157,1160,1107,996,947,846,851,831,794,791,802,793,737,749,743,763,756,762,748,759,749,754,754,759,760,771,767,774,769,766,762,765,771,775,768,776,768,796,769,580,585,593,589,601,740,887,981,1105,1160,1147,1143,1118,1098,1091,1082,1064,1047,1023,998,977,961,944,926,907,885,870,859,832,784,759,657,623,608,594,592,603,565,533,518,522,525,524,537,529,545,547,536,540,534,538,535,532,539,539,528,529,537,536,538,535,542,541,569,539,618,619,614,624,622,721,936,1031,1117,1200,1228,1202,1195,1171,1171,1149,1122,1081,1062,1046,1017,1016,996,960,950,933,911,882,842,787,726,712,692,652,642,630,626,596,508,511,509,515,520,513,514,516,513,518,519,526,548,546,543,528,522,512,515,520,521,524,520,525,519,547,518,179,179,180,180,180,228,259,280,319,349,365,359,353,347,342,336,330,324,319,312,298,301,295,289,283,269,272,266,260,255,248,243,237,232,184,181,181,182,159,164,160,163,169,164,164,166,163,166,167,173,174,171,166,170,169,162,164,167,171,175,169,175,171,195,169,502,501,503,504,511,674,764,859,946,1008,1023,1007,991,990,958,942,925,909,892,877,859,857,827,824,793,793,774,745,729,711,674,680,644,592,529,511,509,523,499,490,491,495,492,496,495,494,499,496,496,495,505,498,493,499,501,499,497,496,507,503,506,516,509,514,507,888,884,882,899,928,1151,1423,1559,1658,1706,1698,1703,1649,1618,1625,1586,1559,1509,1505,1498,1437,1434,1373,1398,1354,1316,1288,1250,1221,1124,954,913,935,915,877,893,892,881,810,813,811,817,822,815,816,818,815,820,821,828,848,848,845,830,824,814,817,822,823,826,822,827,821,849,820,88,88,88,88,88,89,100,111,122,133,143,140,138,136,134,132,129,127,125,123,121,118,116,114,112,110,107,105,103,101,99,96,94,92,90,89,89,89,55,56,55,56,57,57,56,58,57,58,60,65,69,65,60,62,63,56,56,62,65,67,63,67,66,88,63,634,637,639,640,647,857,1012,1159,1298,1393,1408,1382,1344,1330,1292,1278,1256,1228,1202,1180,1152,1119,1094,1074,1048,1023,992,962,931,915,889,711,690,668,641,646,697,640,624,626,631,635,632,636,659,650,635,633,641,640,656,654,652,650,638,635,640,635,639,636,639,637,633,635,633,963,987,977,979,1030,1410,1624,1775,1877,1927,1929,1877,1867,1828,1798,1768,1722,1708,1678,1645,1610,1573,1550,1519,1481,1443,1433,1415,1328,1182,1150,1086,1030,1010,1010,979,1009,986,950,957,962,970,977,986,975,983,986,976,986,986,991,981,977,993,983,972,982,990,982,988,981,1000,989,1013,985,1040,1062,1042,1052,1121,1511,1749,1912,2010,2051,2046,2013,1971,1939,1914,1874,1847,1809,1784,1742,1703,1696,1645,1631,1582,1543,1522,1486,1431,1309,1136,1138,1084,1070,1079,1050,1067,1039,1034,1023,1027,1034,1034,1042,1042,1052,1041,1043,1053,1050,1047,1044,1040,1048,1042,1033,1041,1047,1049,1041,1040,1050,1039,1063,1040,1059,1042,1050,1055,1133,1373,1740,1915,2014,2056,2041,2013,1973,1963,1911,1879,1865,1815,1797,1766,1717,1697,1666,1634,1600,1586,1538,1485,1383,1339,1261,1113,1101,1085,1064,1075,1048,1041,1016,1013,1017,1019,1021,1023,1029,1026,1026,1023,1025,1025,1023,1029,1025,1030,1026,1027,1028,1023,1018,1025,1026,1025,1020,1026,1020,664,666,667,669,677,807,1032,1151,1274,1329,1333,1322,1291,1268,1247,1225,1203,1183,1162,1139,1119,1106,1076,1053,1034,1013,990,969,948,927,822,730,705,702,676,679,681,651,624,623,623,631,632,632,635,657,632,634,638,632,632,638,634,639,634,634,638,636,634,631,632,635,630,638,631,723,724,727,730,740,992,1129,1266,1399,1467,1473,1455,1404,1406,1368,1346,1320,1292,1270,1250,1227,1202,1178,1155,1129,1106,1092,1057,1034,1009,948,926,832,747,747,733,736,726,696,697,700,706,718,723,717,726,711,719,712,712,708,715,723,723,720,724,719,714,717,741,716,721,714,715,710,1080,1143,1162,1126,1248,1685,1901,2004,2143,2201,2157,2183,2040,2099,2026,1993,1955,1916,1855,1874,1819,1793,1708,1680,1663,1664,1593,1537,1387,1385,1224,1212,1199,1124,1162,1128,1163,1109,1161,1158,1177,1181,1174,1162,1172,1178,1174,1185,1181,1172,1172,1160,1180,1202,1182,1169,1174,1176,1177,1173,1174,1174,1197,1177,1171,625,650,657,630,674,832,1008,1092,1195,1237,1252,1281,1194,1194,1164,1146,1120,1096,1078,1070,1040,1075,1003,990,974,955,929,909,897,886,858,842,798,665,653,657,652,642,656,648,657,659,648,666,662,665,661,668,679,668,653,657,670,680,670,678,675,666,672,674,666,662,683,666,648,531,531,532,535,537,640,791,885,976,1052,1064,1057,1030,1023,996,980,961,945,927,911,893,877,860,843,826,809,792,775,758,742,673,657,607,552,540,537,538,519,494,489,481,485,494,507,498,504,488,499,508,495,503,509,506,507,494,501,500,509,510,515,490,494,491,493,488,0,0,0,0,0,0,0,0,0,0,0,0,0,0,0,0,0,0,0,0,0,0,0,0,0,0,0,0,0,0,0,0,0,0,0,0,0,0,0,0,0,0,0,0,0,0,0,0,0,0,0,0,0,0,0,0,0,0,0,0,0,0,0,0,0,416,418,419,421,423,561,635,709,784,838,845,832,818,805,792,777,764,751,738,723,710,697,684,669,656,643,630,616,602,589,576,562,548,535,427,423,424,425,411,414,417,473,414,425,416,472,424,417,427,414,417,420,421,427,422,423,421,424,423,424,420,526,418,524,421,281,282,284,286,286,358,405,451,499,545,575,566,557,545,536,530,521,511,502,493,484,474,466,456,447,438,430,420,411,402,392,383,375,365,291,288,288,288,233,236,234,238,237,238,236,238,234,238,234,234,237,239,239,242,239,238,238,239,242,238,239,242,236,238,236,996,999,1001,1052,1072,1458,1673,1804,1889,2005,1948,1938,1876,1854,1811,1849,1817,1749,1723,1662,1689,1628,1565,1565,1514,1498,1470,1438,1406,1397,1078,1053,1045,1028,1013,990,966,970,981,994,992,1002,1007,1021,1010,1014,996,1011,1002,1021,1000,1008,1035,1032,1019,1042,1013,1034,1038,1009,1009,1002,1011,1015,995,684,711,701,715,718,881,1095,1200,1357,1416,1398,1357,1374,1309,1295,1274,1238,1223,1200,1220,1183,1135,1150,1128,1067,1049,1038,1006,1005,959,960,860,734,737,722,720,712,682,655,651,656,670,667,674,685,666,667,672,675,668,664,668,667,673,664,671,663,660,663,663,667,670,668,663,658,522,524,527,536,544,677,792,881,973,1053,1043,1061,1037,1026,995,986,969,945,944,916,900,874,873,832,832,818,790,782,764,748,710,706,569,586,543,540,548,543,500,503,501,505,504,505,503,505,501,505,501,501,504,506,506,509,506,505,505,506,509,505,506,509,503,505,503,321,322,324,324,325,347,469,523,578,631,652,642,631,621,611,600,590,579,569,559,548,539,528,518,507,497,489,476,466,455,445,385,347,339,330,326,327,330,302,306,305,311,342,346,324,344,323,342,335,342,342,318,319,335,325,313,349,322,314,353,333,354,351,329,324,438,439,501,441,544,579,642,702,762,902,882,894,797,828,776,757,807,741,729,717,706,694,683,673,693,650,638,627,615,604,646,581,570,467,458,443,510,427,416,416,417,419,421,421,423,418,425,424,424,420,429,426,427,421,420,429,423,435,420,420,429,426,423,420,418,423,424,427,426,430,552,625,699,770,827,836,846,831,786,804,777,776,763,749,733,720,708,695,680,667,652,638,625,612,598,584,570,563,484,434,430,432,432,384,391,388,393,395,400,393,404,386,391,386,385,387,394,395,395,394,391,387,387,407,404,384,386,383,390,385,728,737,728,728,757,864,1139,1273,1396,1447,1448,1424,1402,1379,1350,1340,1309,1293,1271,1239,1216,1200,1166,1142,1113,1107,1088,1054,1030,1007,874,793,765,756,734,754,736,743,715,720,725,737,733,741,731,749,731,735,744,733,734,737,736,745,737,736,738,737,736,737,730,742,724,737,725,334,335,336,337,338,442,500,559,618,669,680,669,658,647,638,627,616,605,594,583,572,561,551,540,529,518,507,496,485,474,463,453,442,352,343,339,340,341,332,329,332,340,342,334,332,335,340,334,341,336,333,338,347,378,348,340,339,342,339,335,334,338,340,338,334,521,521,522,524,526,680,775,866,955,1034,1045,1041,1014,997,979,961,944,930,911,895,888,862,845,829,812,796,778,762,754,729,707,690,687,542,530,527,528,510,474,487,484,487,491,499,490,502,483,490,482,483,486,495,496,498,506,492,488,486,499,505,484,487,484,491,486,737,739,742,746,775,1037,1174,1311,1408,1452,1479,1455,1432,1408,1384,1361,1337,1314,1290,1255,1243,1219,1196,1172,1138,1125,1102,1078,1054,1031,998,935,912,760,754,748,750,752,752,753,754,760,765,760,759,770,765,765,775,772,876,881,875,884,765,766,773,766,759,791,767,767,766,770,765,892,908,897,925,936,1187,1447,1644,1723,1802,1813,1791,1761,1727,1696,1673,1641,1609,1592,1535,1531,1501,1454,1416,1413,1383,1354,1325,1300,1201,1149,1049,982,949,934,921,930,894,868,866,877,878,879,880,888,877,876,883,886,877,879,883,880,886,881,881,882,878,879,880,882,883,884,885,880,1059,1042,1050,1055,1133,1373,1740,1915,2014,2056,2041,2013,1973,1963,1911,1879,1865,1815,1797,1766,1717,1697,1666,1634,1600,1586,1538,1485,1383,1339,1261,1113,1101,1085,1064,1075,1048,1041,1016,1013,1017,1019,1021,1023,1029,1026,1026,1023,1025,1025,1023,1029,1025,1030,1026,1027,1028,1023,1018,1025,1026,1025,1020,1026,1020,1480,1481,1489,1599,1912,2011,2419,2622,2660,2692,2670,2651,2565,2543,2490,2448,2428,2407,2334,2300,2250,2188,2162,2133,2082,1948,1786,1602,1566,1533,1576,1575,1438,1400,1500,1484,1479,1460,1419,1419,1431,1445,1445,1436,1433,1440,1430,1433,1435,1436,1432,1449,1455,1440,1450,1444,1436,1443,1442,1448,1449,1458,1460,1462,1453,1113,1104,1113,1167,1262,1399,1658,1890,1972,2010,1998,1962,1970,1897,1923,1835,1814,1807,1738,1705,1674,1642,1639,1592,1587,1514,1270,1305,1178,1206,1321,1217,1056,1042,1119,1111,1090,1096,1045,1048,1044,1050,1058,1081,1068,1065,1074,1073,1058,1063,1053,1064,1065,1049,1061,1069,1065,1061,1056,1056,1071,1072,1072,1073,1064,909,912,973,926,986,1265,1454,1605,1690,1742,1744,1716,1640,1670,1632,1580,1556,1570,1546,1480,1444,1415,1397,1372,1361,1328,1339,1285,1191,1201,1152,972,950,933,980,938,940,932,918,925,941,935,954,947,934,979,934,976,937,935,944,937,942,961,954,942,955,939,942,961,958,983,971,953,947,1242,1254,1324,1350,1633,1943,2136,2293,2374,2407,2408,2364,2313,2312,2261,2180,2145,2178,2107,2035,2029,1961,1959,1878,1872,1857,1861,1548,1525,1521,1339,1324,1298,1269,1317,1288,1279,1309,1313,1308,1329,1344,1346,1358,1329,1346,1330,1362,1338,1352,1353,1334,1340,1346,1349,1347,1355,1354,1341,1354,1349,1362,1337,1344,1338,786,789,837,796,870,1118,1244,1381,1467,1525,1526,1504,1432,1465,1400,1380,1359,1361,1335,1292,1258,1232,1216,1195,1186,1157,1151,1146,1093,1090,1021,894,825,809,856,814,814,810,811,806,807,818,827,832,823,824,813,856,820,815,825,825,828,808,820,822,827,824,814,816,834,836,822,828,815,838,841,851,846,877,928,1163,1417,1519,1559,1557,1532,1508,1483,1458,1432,1421,1383,1359,1333,1307,1283,1258,1232,1216,1107,1084,929,909,924,1026,1002,828,808,857,857,842,814,758,756,755,771,826,818,783,787,782,835,787,790,830,790,786,789,801,777,829,788,777,813,787,818,815,781,776,483,548,535,555,538,428,592,662,731,784,795,782,770,756,743,768,730,745,693,680,667,655,642,630,661,605,591,473,463,452,666,650,422,411,566,540,541,543,458,458,462,459,465,463,533,469,468,474,533,469,470,472,482,545,472,478,472,471,482,477,473,482,473,533,477,0,0,0,0,0,0,0,0,0,0,0,0,0,0,0,0,0,0,0,0,0,0,0,0,0,0,0,0,0,0,0,0,0,0,0,0,0,0,0,0,0,0,0,0,0,0,0,0,0,0,0,0,0,0,0,0,0,0,0,0,0,0,0,0,0,674,677,697,803,739,663,918,1025,1120,1202,1162,1186,1125,1115,1087,1069,1071,1080,1023,1004,985,966,948,955,952,916,890,764,719,668,921,921,621,607,789,734,734,710,623,622,631,647,632,630,625,632,627,625,630,633,630,633,634,640,640,643,636,639,637,640,644,654,651,710,652,912,914,919,931,1030,1190,1405,1563,1673,1711,1713,1683,1662,1676,1609,1584,1559,1565,1541,1486,1520,1488,1412,1434,1373,1337,1319,1295,1256,1234,981,959,959,936,926,944,898,897,878,886,878,905,888,909,886,902,894,897,897,894,903,902,916,941,912,914,906,910,912,910,907,925,915,934,904,1109,1124,1133,1182,1297,1320,1705,1862,1976,1995,2018,2003,1916,1935,1873,1839,1841,1831,1745,1728,1707,1656,1614,1582,1584,1525,1504,1271,1199,1190,1374,1206,1054,1046,1139,1138,1134,1099,1051,1058,1081,1090,1084,1097,1069,1076,1069,1071,1075,1069,1069,1077,1082,1078,1087,1079,1073,1079,1074,1084,1087,1097,1089,1096,1088,925,933,943,948,1024,1069,1362,1532,1622,1677,1646,1662,1605,1587,1578,1524,1519,1509,1444,1417,1391,1365,1338,1338,1337,1280,1251,987,989,966,1168,1113,891,859,942,939,954,944,890,889,898,914,899,897,892,899,894,892,897,900,897,900,901,907,907,910,903,906,904,907,911,921,918,945,919,732,734,811,824,827,737,1020,1193,1288,1281,1333,1311,1325,1222,1245,1227,1171,1222,1164,1142,1079,1098,1038,1057,1040,1016,982,939,840,731,978,954,682,690,747,792,794,747,728,725,724,738,724,738,732,733,754,770,734,746,734,746,747,739,740,751,741,740,742,751,742,744,751,752,746,271,270,271,274,286,285,391,449,492,537,551,542,535,524,518,509,501,489,476,469,458,449,441,436,423,419,410,401,392,383,379,369,357,285,306,337,304,304,239,239,239,245,246,242,245,246,240,242,242,245,242,244,246,247,241,242,246,246,247,246,246,266,242,241,241,733,735,745,741,759,782,985,1169,1271,1343,1346,1325,1285,1287,1245,1248,1204,1205,1175,1161,1146,1109,1090,1066,1062,952,932,853,826,831,983,905,720,702,751,750,762,704,660,663,663,663,717,713,683,685,674,713,677,672,714,671,674,689,691,664,706,668,665,707,679,710,712,678,673,1150,1151,1170,1192,1284,1472,1763,2009,2088,2125,2113,2058,2088,2006,2022,1937,1915,1907,1843,1799,1757,1734,1719,1668,1669,1309,1281,1423,1285,1259,1286,1249,1116,1089,1179,1180,1181,1142,1100,1104,1115,1124,1156,1165,1148,1142,1138,1179,1137,1141,1155,1142,1143,1151,1163,1136,1166,1142,1136,1160,1153,1171,1166,1152,1147,567,569,571,700,624,528,731,817,902,954,961,946,911,916,900,885,881,854,839,823,808,793,777,762,756,731,716,700,560,548,778,760,510,497,680,625,567,628,535,540,545,556,540,558,544,560,541,561,555,546,555,552,562,560,560,558,563,558,565,556,557,568,553,557,553,829,831,841,836,866,924,1144,1397,1498,1541,1538,1516,1491,1465,1441,1416,1404,1367,1342,1317,1292,1267,1243,1219,1202,1093,1070,989,898,963,1055,1002,818,798,847,847,852,794,756,759,757,761,816,810,777,782,773,809,775,771,815,785,777,803,792,765,805,772,766,807,780,811,813,779,774,752,756,757,761,822,942,1120,1250,1359,1505,1391,1384,1365,1345,1325,1343,1285,1296,1273,1226,1267,1239,1167,1196,1134,1096,1078,1058,1031,1017,994,934,918,776,766,763,765,766,742,742,754,761,744,765,751,770,774,753,783,757,764,764,762,845,761,764,762,775,762,765,763,776,760,789,776,1327,1309,1348,1442,1526,1692,2155,2312,2390,2431,2410,2392,2320,2302,2232,2196,2189,2150,2127,2064,1998,1974,1953,1927,1912,1842,1772,1412,1422,1391,1457,1422,1276,1256,1346,1370,1343,1308,1269,1279,1291,1299,1293,1287,1280,1286,1279,1282,1286,1285,1284,1290,1295,1294,1298,1298,1291,1291,1292,1297,1302,1313,1311,1318,1310,1480,1481,1489,1599,1912,2011,2419,2622,2660,2692,2670,2651,2565,2543,2490,2448,2428,2407,2334,2300,2250,2188,2162,2133,2082,1948,1786,1602,1566,1533,1576,1575,1438,1400,1500,1484,1479,1460,1419,1419,1431,1445,1445,1436,1433,1440,1430,1433,1435,1436,1432,1449,1455,1440,1450,1444,1436,1443,1442,1448,1449,1458,1460,1462,1453,928,931,935,932,998,1238,1541,1713,1789,1844,1840,1811,1796,1749,1708,1689,1669,1618,1593,1563,1532,1515,1472,1444,1416,1387,1357,1337,1198,1207,1155,1134,972,957,931,928,939,916,910,900,908,907,907,938,918,943,942,935,944,917,918,920,915,946,935,917,922,922,913,918,919,927,916,942,920,600,602,603,605,607,789,953,1059,1157,1206,1208,1203,1182,1151,1131,1112,1101,1073,1054,1045,1023,996,976,957,938,918,898,880,860,841,821,793,777,624,612,608,611,590,570,565,572,579,572,598,582,608,601,576,601,576,580,586,576,594,611,607,582,592,579,571,578,582,602,590,578,851,854,857,860,878,1165,1375,1530,1646,1717,1722,1687,1660,1631,1604,1582,1546,1519,1495,1467,1434,1406,1378,1350,1326,1294,1268,1241,1211,1184,1149,921,913,900,866,864,866,861,801,798,815,829,831,825,832,834,817,833,820,817,814,824,829,827,822,832,821,818,815,825,831,831,831,831,831,1239,1248,1292,1347,1455,1954,2141,2326,2413,2418,2434,2379,2410,2306,2279,2239,2180,2142,2108,2051,2060,1982,1950,1960,1865,1894,1688,1581,1468,1407,1411,1367,1359,1326,1269,1275,1297,1273,1295,1295,1299,1306,1310,1301,1309,1311,1314,1318,1315,1316,1325,1317,1318,1338,1316,1317,1322,1331,1312,1316,1306,1306,1306,1306,1306,783,785,796,801,835,1083,1214,1373,1465,1536,1545,1518,1501,1453,1437,1419,1392,1373,1337,1314,1291,1267,1254,1233,1197,1186,1150,1133,1129,1092,1073,947,919,819,797,810,796,814,778,779,779,788,791,797,800,814,797,797,797,798,797,794,793,818,815,792,797,793,785,798,791,791,791,791,791,659,659,662,664,668,805,1000,1118,1232,1308,1323,1296,1274,1254,1234,1217,1190,1181,1154,1132,1110,1086,1065,1044,1026,1001,983,959,939,920,881,721,742,706,671,675,669,652,598,595,596,605,602,615,610,609,614,612,618,610,611,618,612,612,610,620,611,609,608,612,618,618,618,618,618,278,279,279,280,281,308,399,446,492,539,568,558,548,540,532,522,513,501,492,486,478,467,458,449,441,431,422,413,404,396,386,377,368,347,307,282,301,302,239,239,239,239,239,246,241,249,247,243,247,240,243,244,242,248,243,244,243,248,241,245,242,242,242,242,242,577,554,556,557,568,761,865,966,1093,1109,1113,1095,1078,1060,1040,1064,1006,988,971,953,962,964,941,922,888,847,829,811,793,811,757,733,715,576,564,560,562,563,566,559,568,577,579,575,570,567,571,579,577,574,577,583,579,579,597,583,576,579,582,577,569,569,569,569,566,0,0,0,0,0,0,0,0,0,0,0,0,0,0,0,0,0,0,0,0,0,0,0,0,0,0,0,0,0,0,0,0,0,0,0,0,0,0,0,0,0,0,0,0,0,0,0,0,0,0,0,0,0,0,0,0,0,0,0,0,0,0,0,0,0,986,989,990,999,1075,1470,1750,1962,2091,2138,2119,2081,2042,2003,1964,1926,1883,1849,1810,1767,1729,1694,1655,1663,1578,1540,1500,1461,1423,1372,1252,1070,1038,1013,1005,1004,1009,1015,1026,1018,1017,1025,1067,1064,1040,1071,1035,1044,1045,1034,1044,1063,1073,1115,1131,1082,1068,1076,1072,1068,1067,1063,1092,1047,1040,571,548,574,577,578,772,890,989,1088,1152,1152,1151,1123,1064,1082,1061,1012,1026,975,999,977,951,932,886,895,837,857,841,788,805,786,768,728,578,623,582,581,584,548,539,540,546,549,574,557,585,566,553,573,555,558,553,552,565,556,550,559,557,550,554,551,560,554,563,549,387,387,388,409,401,466,584,682,753,773,783,768,757,745,721,784,708,757,683,671,658,682,633,656,608,596,612,570,558,577,534,510,416,406,419,405,412,414,405,388,385,385,399,397,398,393,391,401,404,400,400,402,400,403,404,396,401,404,403,403,403,404,403,402,402,289,290,291,292,293,374,422,472,506,551,564,584,558,537,552,519,519,523,492,491,482,490,477,467,458,448,440,430,421,411,402,392,383,375,365,294,311,361,267,271,267,270,271,272,272,275,269,271,268,269,271,275,276,275,275,274,273,272,293,287,272,272,272,272,272,615,615,618,632,653,719,925,1030,1132,1245,1247,1227,1180,1174,1157,1125,1118,1128,1072,1060,1069,1039,992,972,963,968,950,906,882,885,850,836,719,671,643,634,656,622,574,574,576,591,587,580,583,598,588,583,597,597,610,609,623,631,580,580,591,588,584,587,586,586,586,586,586,553,554,556,558,561,698,827,925,1012,1090,1120,1096,1078,1059,1043,1031,1012,990,982,958,940,918,900,881,867,845,832,811,794,772,751,605,606,598,565,562,562,551,500,502,504,506,506,507,510,507,506,507,506,508,509,517,515,512,511,512,512,510,513,515,512,512,512,512,512,768,769,767,775,796,943,1232,1369,1483,1530,1531,1521,1498,1472,1457,1419,1401,1374,1360,1333,1301,1279,1248,1223,1185,1162,1149,1112,1110,1027,977,867,830,807,803,790,790,789,726,716,721,723,717,753,722,757,743,724,753,725,728,728,725,734,725,725,728,734,726,726,727,731,727,735,729,466,468,468,470,476,518,718,801,917,938,943,908,914,898,862,869,853,838,823,808,820,777,805,773,757,718,702,687,673,694,525,513,501,488,477,473,474,476,470,471,469,476,477,476,476,477,477,473,476,474,478,476,478,479,482,485,477,477,478,488,484,484,478,477,477,649,649,652,654,657,751,985,1099,1212,1289,1305,1279,1256,1236,1215,1201,1173,1153,1138,1117,1091,1072,1050,1029,1011,987,971,947,926,904,776,757,771,694,661,658,659,641,598,597,590,602,605,603,604,604,605,603,604,607,610,614,602,606,608,613,609,602,597,604,604,604,604,604,604,994,996,1007,1016,1056,1345,1580,1760,1904,1980,1983,1950,1915,1887,1844,1811,1793,1755,1733,1695,1665,1630,1602,1570,1540,1508,1476,1444,1396,1200,1104,1142,1045,1032,1017,1016,1018,1021,983,988,993,999,1004,1001,1000,1019,1012,1008,1020,1012,1020,1020,1028,1024,1008,1010,1016,1012,1000,1020,1009,1009,1009,1009,1009,776,779,781,785,793,1047,1262,1394,1505,1561,1548,1543,1521,1435,1456,1431,1423,1379,1356,1340,1320,1282,1256,1231,1211,1188,1156,1128,1104,1087,1003,857,800,842,801,791,787,793,760,748,758,767,759,781,766,787,777,763,782,766,769,769,767,778,769,766,770,776,768,766,769,773,769,779,771,928,931,935,932,998,1238,1541,1713,1789,1844,1840,1811,1796,1749,1708,1689,1669,1618,1593,1563,1532,1515,1472,1444,1416,1387,1357,1337,1198,1207,1155,1134,972,957,931,928,939,916,910,900,908,907,907,938,918,943,942,935,944,917,918,920,915,946,935,917,922,922,913,918,919,927,916,942,920,1602,1579,1615,1854,2499,3086,3379,3545,3591,3603,3483,3564,3410,3396,3282,3209,3137,3064,2993,2920,2847,2775,2663,2579,2219,2188,1992,1924,1907,1821,1757,1680,1647,1629,1601,1641,1642,1655,1692,1694,1709,1769,1698,1760,1705,1724,1706,1740,1741,1735,1757,1715,1725,1796,1863,1742,1714,1724,1741,1800,1727,1723,1715,1797,1712,1284,1332,1303,1347,1718,2122,2438,2655,2745,2781,2735,2687,2638,2592,2541,2490,2439,2389,2387,2327,2283,2186,2136,2129,2075,2036,1991,1883,1641,1533,1488,1425,1337,1315,1319,1311,1356,1321,1351,1334,1334,1341,1355,1367,1357,1364,1362,1365,1376,1371,1370,1383,1375,1381,1376,1376,1377,1378,1373,1369,1373,1364,1364,1364,1364,947,949,952,963,1166,1477,1736,1965,2072,2109,2095,2057,2021,1982,1942,1901,1862,1822,1782,1780,1702,1662,1622,1618,1542,1557,1519,1422,1415,1184,1185,1033,999,975,966,968,1017,981,971,970,974,1026,978,984,975,983,983,979,974,976,976,985,982,978,982,985,981,980,983,1019,983,1019,1019,1019,1019,1101,1105,1116,1153,1417,1697,1912,2111,2236,2273,2257,2218,2180,2141,2103,2064,2026,1987,1949,1910,1872,1889,1882,1756,1718,1679,1641,1602,1527,1248,1447,1185,1154,1131,1157,1120,1125,1129,1127,1171,1131,1143,1147,1142,1145,1162,1151,1156,1168,1142,1154,1155,1163,1165,1167,1191,1170,1162,1190,1183,1186,1183,1183,1183,1183,1058,1074,1080,1083,1126,1570,1713,1928,2048,2042,2095,2039,2009,2002,1953,1947,1845,1872,1823,1784,1753,1688,1712,1625,1593,1563,1575,1541,1489,1232,1150,1165,1098,1080,1069,1089,1066,1049,1072,1070,1069,1081,1072,1078,1072,1081,1077,1069,1079,1071,1070,1085,1079,1085,1081,1081,1074,1086,1080,1073,1076,1073,1073,1073,1073,1123,1133,1132,1156,1442,1841,2129,2328,2429,2455,2427,2387,2352,2328,2271,2208,2162,2121,2111,2085,1980,1935,1909,1883,1861,1829,1765,1662,1644,1464,1263,1227,1176,1152,1144,1140,1202,1154,1177,1174,1176,1187,1177,1188,1179,1191,1186,1190,1189,1179,1182,1195,1200,1206,1201,1192,1192,1200,1200,1192,1197,1186,1186,1186,1186,1096,1119,1142,1130,1225,1644,1888,2067,2059,2241,2187,2162,2141,2091,2015,2059,2028,1973,1948,1915,1842,1827,1808,1758,1634,1600,1548,1588,1554,1393,1284,1152,1158,1129,1113,1112,1118,1125,1166,1161,1153,1158,1170,1173,1172,1171,1182,1188,1203,1185,1188,1199,1199,1198,1178,1189,1173,1201,1177,1188,1189,1183,1179,1182,1177,737,756,754,757,780,1005,1197,1337,1388,1496,1444,1426,1446,1361,1338,1376,1365,1306,1304,1280,1236,1233,1208,1167,1161,1137,1096,1090,1065,1026,1018,979,788,775,751,760,766,765,743,739,735,743,752,743,747,746,752,751,761,765,767,781,775,935,741,757,766,775,760,749,763,750,751,749,743,1063,1020,1023,1053,1266,1670,1955,2159,2187,2204,2190,2250,2151,2068,2107,1988,1967,1964,1940,1830,1794,1839,1711,1672,1632,1592,1571,1532,1489,1434,1141,1108,1077,1140,1034,1034,1044,1056,1081,1083,1085,1084,1084,1075,1116,1121,1091,1093,1104,1091,1091,1118,1141,1131,1129,1085,1121,1109,1134,1133,1104,1121,1099,1095,1094,0,0,0,0,0,0,0,0,0,0,0,0,0,0,0,0,0,0,0,0,0,0,0,0,0,0,0,0,0,0,0,0,0,0,0,0,0,0,0,0,0,0,0,0,0,0,0,0,0,0,0,0,0,0,0,0,0,0,0,0,0,0,0,0,0,1404,1383,1411,1499,1939,2380,2638,2831,2886,2911,2883,2891,2745,2731,2685,2592,2543,2528,2480,2394,2348,2347,2277,2196,2147,1998,1994,1961,1913,1553,1512,1473,1440,1484,1408,1399,1408,1417,1473,1462,1466,1469,1463,1465,1494,1511,1469,1498,1487,1480,1486,1512,1513,1507,1528,1532,1501,1503,1513,1503,1494,1492,1479,1475,1474,1125,1124,1108,1150,1486,1829,2079,2300,2368,2403,2343,2399,2259,2251,2250,2129,2123,2115,2040,1982,1922,1930,1868,1794,1751,1709,1670,1662,1603,1542,1226,1192,1160,1202,1117,1116,1125,1129,1181,1199,1179,1173,1175,1177,1198,1219,1180,1230,1214,1179,1176,1228,1222,1223,1241,1211,1213,1206,1229,1224,1210,1207,1180,1176,1175,1335,1284,1308,1400,1701,2154,2436,2602,2585,2697,2632,2615,2582,2532,2447,2435,2426,2385,2374,2247,2206,2215,2104,2074,2010,1977,1827,1756,1636,1458,1413,1375,1353,1408,1298,1297,1298,1304,1337,1354,1343,1356,1347,1344,1352,1366,1340,1359,1352,1348,1358,1379,1362,1355,1374,1378,1348,1350,1361,1359,1336,1349,1358,1357,1349,889,898,922,933,974,1294,1465,1647,1772,1816,1763,1794,1767,1720,1667,1663,1642,1606,1538,1549,1519,1490,1426,1398,1370,1377,1361,1300,1291,1243,1024,960,965,917,941,926,903,905,886,887,885,882,892,886,899,897,900,886,891,889,895,895,902,893,897,918,899,926,924,889,921,887,894,894,882,1197,1215,1212,1242,1316,1769,2031,2208,2310,2346,2348,2317,2294,2246,2180,2182,2135,2099,2064,1997,1960,1910,1887,1874,1813,1811,1740,1729,1509,1402,1362,1329,1238,1255,1218,1214,1217,1220,1241,1235,1232,1235,1232,1246,1245,1252,1249,1246,1255,1241,1263,1249,1240,1270,1249,1254,1250,1252,1253,1271,1255,1250,1250,1250,1250,1288,1336,1327,1353,1763,2130,2457,2667,2754,2781,2743,2694,2647,2600,2549,2498,2447,2409,2385,2337,2302,2194,2142,2135,2093,2057,1973,1869,1807,1462,1458,1416,1343,1320,1360,1315,1366,1331,1373,1357,1353,1356,1376,1387,1383,1385,1380,1382,1391,1382,1382,1399,1392,1397,1394,1389,1388,1397,1391,1385,1389,1383,1383,1383,1383,973,976,978,1001,1201,1523,1779,1970,2082,2123,2105,2066,2029,2114,1952,1914,1875,1837,1798,1760,1722,1684,1645,1607,1568,1530,1491,1453,1508,1377,1423,1063,1032,1124,989,989,994,1000,1047,1040,1038,1052,1038,1054,1040,1056,1050,1054,1049,1053,1053,1053,1055,1052,1053,1058,1059,1057,1052,1054,1054,1063,1062,1063,1056,1114,1124,1123,1146,1330,1812,2112,2310,2404,2429,2411,2370,2336,2314,2257,2193,2148,2107,2097,2078,1967,1921,1896,1871,1827,1817,1753,1651,1599,1379,1254,1220,1167,1146,1135,1154,1187,1165,1177,1176,1171,1183,1172,1193,1176,1187,1183,1196,1185,1188,1195,1210,1209,1205,1212,1201,1195,1196,1209,1204,1190,1197,1197,1197,1197,558,558,560,562,575,756,844,944,1042,1102,1122,1091,1086,1068,1050,1032,1015,996,966,949,943,925,907,889,872,843,836,818,790,783,792,746,596,582,569,566,567,568,556,554,558,560,562,562,563,568,564,567,564,566,567,572,573,571,574,572,572,572,577,576,569,574,574,570,565,1559,1538,1572,1733,2242,2644,2938,3127,3166,3186,3072,3160,3012,3006,2948,2850,2786,2766,2662,2572,2582,2566,2445,2247,1887,1864,1841,1835,1799,1702,1658,1640,1601,1648,1521,1534,1562,1562,1615,1616,1612,1606,1604,1607,1647,1656,1621,1645,1631,1631,1629,1659,1663,1659,1683,1690,1653,1655,1663,1653,1645,1638,1620,1616,1615,1602,1579,1615,1854,2499,3086,3379,3545,3591,3603,3483,3564,3410,3396,3282,3209,3137,3064,2993,2920,2847,2775,2663,2579,2219,2188,1992,1924,1907,1821,1757,1680,1647,1629,1601,1641,1642,1655,1692,1694,1709,1769,1698,1760,1705,1724,1706,1740,1741,1735,1757,1715,1725,1796,1863,1742,1714,1724,1741,1800,1727,1723,1715,1797,1712,563,565,567,568,571,666,871,968,1063,1122,1128,1111,1092,1074,1057,1045,1021,1010,985,968,950,932,914,896,878,861,843,825,811,774,772,714,652,587,576,571,573,575,555,556,558,570,566,564,564,564,558,588,594,570,593,593,601,609,583,575,578,572,568,567,581,591,569,569,565,477,477,479,481,487,647,732,822,908,959,966,951,935,919,904,888,873,858,842,827,811,796,781,765,750,734,719,702,687,672,656,641,625,610,487,484,485,464,454,464,461,471,465,474,465,475,465,475,461,460,462,470,471,472,473,468,463,461,473,477,463,464,463,480,462,960,980,979,1000,1026,1328,1633,1784,1867,1912,1898,1861,1893,1864,1816,1758,1747,1699,1661,1667,1584,1621,1516,1489,1458,1428,1433,1364,1090,1250,1060,1067,996,990,961,990,980,983,975,967,975,983,986,985,991,978,981,984,988,990,993,993,991,997,988,988,987,997,999,1008,1000,1000,992,993,992,1406,1442,1473,1542,1640,2136,2535,2626,2708,2765,2745,2745,2709,2622,2579,2576,2516,2465,2371,2404,2313,2328,2174,2133,2139,2096,1990,1807,1607,1635,1557,1495,1477,1462,1437,1458,1472,1474,1483,1472,1471,1484,1485,1496,1485,1500,1493,1505,1488,1489,1506,1511,1506,1506,1513,1509,1507,1509,1499,1523,1513,1514,1504,1510,1497,996,1014,1007,1026,1130,1342,1590,1786,1859,1907,1903,1908,1872,1818,1790,1773,1774,1714,1685,1679,1639,1636,1582,1560,1523,1524,1466,1468,1299,1223,1158,1180,1066,1011,1042,1015,1024,1023,994,983,993,988,998,997,1007,993,995,998,1003,1007,1043,1007,1008,1015,1002,1002,1006,1015,1045,1052,1043,1057,1039,1042,1014,766,792,784,787,787,997,1237,1364,1458,1511,1504,1473,1514,1482,1450,1393,1396,1353,1322,1336,1258,1234,1210,1185,1162,1139,1150,1088,1065,1047,1011,931,807,794,765,793,780,775,774,752,748,769,747,770,780,764,766,769,762,747,760,775,779,786,773,773,777,786,787,791,783,769,748,759,746,758,780,781,789,798,953,1213,1368,1492,1554,1556,1485,1461,1469,1453,1401,1406,1346,1357,1333,1308,1282,1257,1231,1206,1186,1159,1135,1108,1027,901,871,837,785,804,795,783,735,658,649,650,652,668,654,666,667,657,668,665,670,716,671,678,679,666,664,677,679,730,732,707,722,718,711,680,1103,1107,1108,1129,1173,1530,1810,2041,2133,2180,2154,2140,2096,2077,2037,1996,1964,1923,1897,1862,1831,1790,1742,1717,1674,1656,1619,1585,1538,1432,1211,1182,1143,1120,1127,1120,1122,1084,1008,999,1013,1011,1023,1017,1026,1010,1021,1025,1022,1028,1066,1026,1034,1038,1024,1027,1021,1031,1085,1088,1068,1084,1080,1073,1042,588,561,591,592,583,688,905,971,1084,1152,1161,1144,1139,1118,1101,1045,1062,1033,990,1020,977,970,939,932,902,890,846,847,839,792,734,735,633,635,607,604,583,564,549,551,547,556,567,555,563,557,551,560,552,562,614,571,569,604,584,578,563,569,618,619,612,603,597,613,568,1387,1389,1390,1466,1860,2226,2635,2788,2845,2864,2833,2794,2749,2697,2645,2605,2575,2530,2454,2446,2368,2314,2246,2195,2144,2092,2021,1661,1642,1584,1544,1517,1448,1418,1413,1418,1412,1432,1422,1409,1416,1427,1430,1459,1465,1432,1456,1443,1432,1436,1510,1460,1471,1481,1467,1466,1467,1473,1513,1500,1505,1518,1488,1493,1447,0,0,0,0,0,0,0,0,0,0,0,0,0,0,0,0,0,0,0,0,0,0,0,0,0,0,0,0,0,0,0,0,0,0,0,0,0,0,0,0,0,0,0,0,0,0,0,0,0,0,0,0,0,0,0,0,0,0,0,0,0,0,0,0,0,459,460,463,463,464,493,679,759,839,910,994,924,910,890,876,862,846,832,817,801,846,772,757,743,726,711,697,682,699,668,550,637,497,485,474,466,467,468,461,451,450,458,480,481,481,490,478,482,491,481,510,468,475,504,483,465,484,474,499,503,504,511,509,540,497,474,476,477,478,482,583,697,793,874,947,958,942,927,911,896,882,866,851,836,820,805,789,775,760,744,729,713,698,683,668,653,638,601,573,485,481,482,484,405,392,397,401,401,397,408,406,406,404,409,413,461,415,415,423,407,409,413,421,472,473,451,489,462,458,426,1096,1101,1120,1131,1198,1518,1859,2040,2138,2192,2173,2098,2068,2062,2026,1970,1970,1910,1878,1870,1818,1788,1742,1733,1677,1646,1536,1513,1480,1261,1197,1202,1175,1127,1121,1103,1069,1040,987,968,975,985,989,984,996,983,985,988,993,997,1042,997,998,1005,992,992,996,1005,1043,1054,1033,1051,1038,1035,1004,670,684,687,689,717,825,1085,1216,1309,1365,1353,1365,1311,1290,1268,1225,1236,1191,1162,1162,1141,1119,1098,1078,1056,1064,1014,1025,997,950,884,845,794,695,728,693,694,691,673,660,662,670,671,671,676,672,673,675,681,684,694,686,687,695,682,682,686,690,694,703,701,709,686,690,686,694,695,698,701,733,923,1104,1252,1353,1394,1402,1376,1354,1331,1309,1288,1271,1243,1211,1200,1178,1144,1135,1112,1082,1060,992,972,954,934,893,801,739,739,707,705,707,687,676,683,680,690,692,697,688,699,690,699,686,685,687,695,694,696,710,693,688,686,697,704,690,692,688,705,687,1016,1010,1021,1031,1069,1372,1642,1854,1963,2016,1991,1982,1920,1922,1885,1847,1818,1780,1756,1723,1677,1657,1610,1589,1547,1505,1498,1467,1364,1151,1120,1094,1057,1033,1040,1031,1032,1003,928,917,927,929,931,939,941,928,938,943,944,950,997,949,952,955,948,941,943,954,1002,1007,985,1003,992,985,954,756,775,774,776,766,983,1205,1344,1438,1492,1486,1455,1496,1476,1432,1377,1379,1368,1306,1321,1243,1219,1195,1170,1148,1125,1137,1074,1090,1071,912,819,785,784,755,782,764,766,757,742,734,746,769,757,766,756,765,762,772,766,775,775,768,777,759,771,773,776,775,783,774,782,774,761,760,1311,1325,1334,1384,1610,2017,2409,2599,2625,2623,2616,2570,2576,2566,2482,2434,2413,2313,2304,2278,2190,2110,2061,2012,1980,1955,1912,1848,1653,1519,1417,1360,1343,1345,1303,1309,1340,1324,1314,1328,1307,1306,1330,1326,1342,1336,1335,1336,1332,1332,1338,1353,1356,1351,1339,1344,1339,1369,1363,1352,1351,1335,1335,1352,1334,330,331,333,333,334,434,492,550,607,658,673,662,651,640,630,619,608,598,587,576,565,555,544,533,522,512,501,490,479,469,458,447,436,426,340,335,336,337,332,331,331,340,338,333,339,335,333,336,366,342,374,370,368,372,346,342,342,342,334,332,344,336,338,335,333,563,565,567,568,571,666,871,968,1063,1122,1128,1111,1092,1074,1057,1045,1021,1010,985,968,950,932,914,896,878,861,843,825,811,774,772,714,652,587,576,571,573,575,555,556,558,570,566,564,564,564,558,588,594,570,593,593,601,609,583,575,578,572,568,567,581,591,569,569,565,763,755,770,772,809,988,1210,1348,1441,1524,1498,1474,1456,1456,1402,1379,1380,1274,1307,1320,1274,1256,1233,1194,1184,1149,1117,1112,980,1047,955,891,850,779,776,779,813,761,743,755,754,765,767,756,757,764,795,768,761,767,757,797,809,777,775,777,770,779,779,778,791,773,762,768,761,645,659,648,660,665,923,1042,1150,1251,1288,1329,1276,1287,1260,1213,1216,1200,1151,1153,1133,1089,1093,1071,1027,1006,985,979,943,922,902,897,719,694,672,669,655,657,651,622,630,625,633,628,629,643,655,627,637,631,640,640,631,636,634,638,635,633,639,627,629,627,633,632,627,627,958,965,949,971,1039,1394,1619,1766,1897,1879,1924,1860,1855,1777,1793,1717,1686,1699,1644,1654,1564,1534,1557,1472,1458,1513,1419,1389,1366,1322,1186,1005,981,990,976,973,971,942,962,969,978,980,979,987,982,980,983,985,978,981,974,988,986,994,990,989,981,981,984,992,993,987,980,977,976,1443,1445,1450,1494,1720,2185,2485,2628,2724,2747,2776,2657,2671,2572,2556,2528,2461,2441,2354,2394,2246,2247,2214,2117,2170,1894,1660,1625,1656,1622,1574,1494,1462,1479,1469,1461,1463,1438,1471,1482,1484,1486,1479,1491,1473,1500,1487,1507,1502,1503,1505,1512,1501,1508,1496,1507,1505,1493,1499,1502,1495,1501,1497,1494,1493,976,986,954,988,1021,1312,1513,1662,1797,1822,1836,1801,1801,1732,1731,1677,1657,1697,1623,1636,1577,1516,1538,1470,1460,1502,1422,1395,1376,1265,1143,1023,999,978,997,990,999,971,965,966,964,977,980,993,989,1000,991,988,985,988,984,984,983,1004,1005,982,985,982,972,984,980,981,980,981,978,765,770,755,774,820,1068,1205,1345,1484,1477,1524,1485,1475,1404,1427,1356,1333,1353,1304,1319,1239,1215,1231,1168,1162,1226,1137,1123,1098,1061,986,802,783,794,780,775,764,734,747,755,760,764,762,767,759,772,761,765,762,764,758,770,765,776,777,774,764,769,765,775,763,771,774,757,756,468,468,471,456,472,501,705,804,908,926,945,930,916,904,887,869,855,858,824,845,832,745,800,749,750,751,739,728,710,695,609,655,616,510,489,483,478,474,427,426,423,429,428,441,432,439,441,432,435,430,431,433,433,433,435,433,431,436,430,430,431,431,431,432,429,752,754,757,752,768,943,1160,1324,1489,1476,1502,1432,1409,1432,1419,1337,1315,1338,1269,1290,1268,1191,1240,1152,1147,1189,1147,1116,1093,1069,1029,960,801,782,769,754,765,764,753,746,753,766,768,771,759,757,765,770,765,764,764,773,769,765,783,773,764,768,769,763,758,759,758,759,753,219,220,221,222,205,213,295,358,395,398,412,405,399,392,425,419,374,367,360,391,382,375,369,361,321,347,340,333,326,318,312,305,297,290,280,206,206,207,187,187,185,189,189,196,189,190,194,191,188,190,187,190,190,186,191,190,188,189,187,186,189,190,189,190,187,969,974,979,1013,1088,1469,1710,1919,2053,2108,2116,2054,2017,1974,1940,1901,1863,1824,1787,1749,1710,1672,1634,1608,1557,1526,1489,1454,1404,1366,1231,1196,1024,999,999,997,997,1002,1010,1000,999,1004,1002,1042,1020,1032,1022,1032,1084,1023,1035,1027,1034,1092,1044,1032,1040,1041,1045,1036,1042,1052,1040,1079,1072,377,378,378,379,390,442,561,623,686,740,750,739,727,732,704,691,680,668,657,645,649,622,611,599,588,576,565,553,541,530,530,463,453,443,395,391,436,393,376,380,373,379,383,387,379,384,379,387,380,382,377,383,384,374,384,387,384,382,380,382,385,394,381,390,383,0,0,0,0,0,0,0,0,0,0,0,0,0,0,0,0,0,0,0,0,0,0,0,0,0,0,0,0,0,0,0,0,0,0,0,0,0,0,0,0,0,0,0,0,0,0,0,0,0,0,0,0,0,0,0,0,0,0,0,0,0,0,0,0,0,356,367,368,359,360,469,531,592,652,714,740,733,722,709,697,665,653,642,630,638,625,615,602,573,562,558,555,526,523,504,508,481,384,375,377,373,374,375,349,349,350,350,363,359,356,400,357,369,358,357,363,354,355,363,364,356,367,352,352,366,360,381,362,363,357,825,830,841,844,845,941,1294,1439,1587,1638,1635,1582,1561,1531,1529,1516,1473,1430,1406,1440,1374,1349,1320,1304,1278,1272,1229,1204,1172,1157,1034,922,882,882,861,824,804,809,761,762,761,780,776,776,771,789,782,774,785,787,797,799,813,800,771,770,779,777,771,773,775,776,775,776,773,659,661,648,666,692,911,1032,1140,1259,1263,1322,1273,1280,1211,1239,1174,1156,1174,1129,1146,1069,1049,1069,1008,1005,1060,986,966,953,925,893,692,675,658,673,669,676,647,658,664,669,658,664,675,670,677,672,677,678,672,677,675,673,679,682,680,679,681,676,680,675,679,678,684,680,848,824,854,864,876,1170,1359,1520,1657,1702,1688,1674,1631,1615,1568,1550,1511,1510,1466,1452,1382,1379,1372,1342,1308,1287,1252,1212,1170,1136,1044,929,934,884,863,859,860,825,802,799,800,801,799,807,802,809,803,805,806,807,807,808,807,830,814,811,807,811,809,812,814,811,811,831,816,666,668,670,663,667,731,1013,1159,1281,1306,1320,1267,1247,1254,1262,1164,1164,1190,1123,1148,1128,1053,1090,1020,1018,1051,1023,994,974,885,831,785,778,694,682,666,651,653,657,658,654,665,666,672,665,667,671,664,664,664,665,666,668,665,673,675,665,666,665,674,673,674,667,667,664,755,758,745,764,810,1053,1186,1326,1450,1467,1504,1454,1457,1386,1409,1342,1318,1337,1289,1304,1225,1200,1217,1153,1148,1216,1124,1101,1084,1052,980,792,774,784,770,765,755,724,743,737,740,740,752,733,742,747,741,743,754,754,756,768,757,756,755,761,756,759,757,755,757,760,746,757,755,1144,1153,1158,1201,1246,1589,1973,2189,2361,2346,2349,2311,2255,2222,2185,2152,2124,2099,2031,2034,1990,1916,1914,1860,1833,1798,1745,1709,1560,1464,1367,1240,1204,1179,1181,1188,1182,1189,1176,1180,1183,1194,1188,1197,1202,1196,1206,1203,1207,1207,1207,1210,1218,1198,1201,1201,1197,1195,1205,1197,1198,1197,1199,1200,1197,531,521,534,535,542,656,804,903,975,1062,1049,1031,1021,1029,982,965,972,874,915,930,896,881,865,836,831,803,781,780,761,731,742,673,658,543,540,543,538,538,518,528,524,537,536,531,528,539,524,540,533,536,527,539,542,540,542,541,540,545,544,541,539,542,528,536,529,763,755,770,772,809,988,1210,1348,1441,1524,1498,1474,1456,1456,1402,1379,1380,1274,1307,1320,1274,1256,1233,1194,1184,1149,1117,1112,980,1047,955,891,850,779,776,779,813,761,743,755,754,765,767,756,757,764,795,768,761,767,757,797,809,777,775,777,770,779,779,778,791,773,762,768,761,738,749,757,754,758,918,1163,1306,1424,1487,1488,1436,1413,1416,1393,1363,1351,1323,1303,1280,1251,1212,1204,1184,1151,1113,1104,1077,1063,935,948,919,778,759,757,751,756,748,714,713,718,716,721,721,725,731,721,731,722,722,721,723,725,732,732,724,729,719,718,723,726,731,718,735,720,419,420,422,423,425,475,623,697,770,836,851,837,823,809,796,783,770,755,742,728,715,701,687,674,660,646,633,619,606,591,487,475,465,454,429,425,426,406,375,376,378,389,390,381,388,383,379,388,380,381,383,388,386,397,426,414,390,389,383,378,384,385,405,385,378,700,702,704,706,741,917,1151,1289,1386,1426,1424,1405,1377,1354,1331,1306,1283,1260,1237,1213,1190,1167,1144,1119,1096,1072,1050,1026,1003,980,957,897,802,725,713,711,713,703,700,699,705,711,711,712,709,710,709,711,711,710,710,710,715,716,712,712,715,709,709,709,714,714,709,704,703,1183,1187,1191,1220,1294,1710,2047,2140,2238,2265,2271,2258,2172,2135,2104,2068,2142,2084,2000,1922,1931,1894,1857,1777,1741,1787,1665,1549,1545,1406,1398,1269,1237,1213,1192,1204,1209,1195,1196,1208,1224,1220,1216,1212,1229,1206,1232,1231,1234,1234,1235,1235,1239,1231,1226,1236,1238,1233,1221,1235,1238,1227,1226,1221,1220,721,720,721,727,739,987,1086,1189,1281,1325,1328,1331,1316,1272,1278,1257,1271,1238,1233,1185,1177,1191,1153,1127,1087,1074,1035,1036,1019,990,984,885,753,746,757,731,732,740,716,720,722,723,722,723,720,721,720,728,722,721,722,722,726,728,725,723,726,722,722,722,725,726,720,721,720,506,508,510,511,519,702,784,876,966,1015,1020,1017,988,971,955,940,922,918,890,873,857,840,825,809,803,776,760,744,727,712,705,679,652,530,519,514,515,504,493,489,494,495,494,495,492,493,492,500,494,493,494,494,498,500,497,495,498,494,494,494,497,498,492,493,492,399,399,400,401,404,476,585,652,721,788,808,798,783,774,755,744,734,717,706,694,679,667,655,642,627,613,600,589,576,563,515,504,487,439,430,405,405,408,366,363,366,379,369,376,371,379,370,369,376,373,374,370,368,377,370,374,370,377,368,369,369,368,370,373,367,699,700,723,725,729,892,1081,1209,1380,1394,1412,1376,1350,1331,1309,1309,1263,1263,1218,1196,1174,1150,1139,1119,1085,1062,1072,1027,996,973,924,884,775,723,711,708,710,711,701,708,714,726,722,722,714,724,708,723,714,711,713,722,724,727,724,725,723,720,735,722,717,717,711,724,712,277,281,278,279,296,279,411,413,476,505,569,524,552,507,530,478,481,461,465,488,448,470,462,422,443,405,397,416,407,365,370,355,370,283,277,265,318,267,249,230,232,232,258,244,239,233,234,238,257,252,254,254,261,248,263,244,245,261,259,253,237,242,258,252,238,1143,1149,1153,1174,1234,1651,2052,2254,2418,2424,2418,2374,2347,2300,2258,2178,2154,2096,2070,2038,1982,1934,1892,1863,1818,1766,1714,1675,1566,1299,1271,1304,1195,1178,1163,1159,1184,1185,1174,1166,1163,1173,1180,1180,1211,1227,1171,1197,1193,1181,1177,1207,1208,1219,1219,1209,1217,1221,1219,1224,1202,1215,1196,1198,1183,390,366,377,396,398,495,566,633,700,767,798,788,772,760,746,687,720,708,696,685,672,657,645,632,619,607,593,581,569,555,545,533,518,504,396,399,400,401,352,352,350,355,363,361,364,384,357,366,361,360,361,356,362,368,365,357,366,354,355,359,358,364,356,358,349,247,248,249,250,314,330,363,405,447,489,503,496,487,479,471,464,455,447,440,432,423,415,408,400,392,383,386,368,360,352,344,336,328,320,355,252,316,252,245,250,249,252,255,252,253,278,249,252,252,252,252,252,253,279,252,250,256,252,281,251,253,285,250,252,252,0,0,0,0,0,0,0,0,0,0,0,0,0,0,0,0,0,0,0,0,0,0,0,0,0,0,0,0,0,0,0,0,0,0,0,0,0,0,0,0,0,0,0,0,0,0,0,0,0,0,0,0,0,0,0,0,0,0,0,0,0,0,0,0,0,736,738,751,755,758,860,1150,1275,1410,1470,1480,1444,1413,1394,1364,1348,1341,1303,1272,1254,1249,1206,1181,1159,1143,1123,1091,1069,985,978,946,844,808,776,770,760,743,726,705,699,699,711,712,711,709,710,710,715,712,711,712,712,716,712,711,713,716,712,708,712,715,714,710,711,705,402,431,404,405,407,540,609,685,754,796,806,801,788,775,762,750,737,729,710,697,685,672,658,645,632,620,605,594,579,567,555,542,529,499,412,407,409,410,402,401,403,404,403,404,401,402,401,409,403,402,403,403,407,409,406,404,407,403,403,403,406,407,401,402,401,588,590,598,592,622,704,915,986,1093,1176,1200,1175,1152,1133,1109,1099,1081,1063,1044,1035,1014,986,978,942,929,898,879,872,841,845,756,724,646,632,636,596,598,599,530,529,531,532,531,532,529,530,529,537,531,530,531,531,535,537,534,532,535,531,531,531,534,535,529,530,529,612,613,631,638,641,683,932,1043,1205,1223,1242,1211,1169,1171,1151,1155,1112,1115,1073,1053,1034,1013,1003,973,954,936,924,904,876,856,758,740,684,637,624,621,622,623,608,612,621,629,622,623,615,633,617,635,627,617,624,627,627,631,630,630,632,624,627,628,629,628,618,629,621,496,498,501,503,509,621,768,858,946,995,1001,985,969,955,937,921,905,889,873,858,842,826,810,794,778,762,748,730,715,698,683,637,651,535,508,505,505,488,486,486,484,492,491,487,489,490,489,495,491,490,491,491,495,497,494,492,495,491,491,491,494,492,489,490,489,1050,1046,1056,1071,1174,1538,1821,2017,2151,2213,2202,2172,2124,2085,2045,2006,1959,1930,1881,1845,1814,1774,1735,1695,1659,1615,1578,1541,1442,1377,1263,1134,1128,1079,1068,1069,1060,1065,1061,1062,1067,1072,1075,1071,1074,1071,1068,1073,1071,1067,1076,1076,1080,1081,1079,1077,1079,1076,1076,1076,1079,1069,1073,1072,1071,595,597,602,604,627,795,899,1005,1105,1184,1207,1188,1164,1150,1141,1110,1090,1080,1049,1033,1014,1008,976,956,937,923,905,880,857,840,828,802,753,631,649,608,610,614,564,561,568,576,573,570,573,574,568,576,571,571,572,572,577,581,578,573,577,573,573,571,576,577,571,574,571,738,749,757,754,758,918,1163,1306,1424,1487,1488,1436,1413,1416,1393,1363,1351,1323,1303,1280,1251,1212,1204,1184,1151,1113,1104,1077,1063,935,948,919,778,759,757,751,756,748,714,713,718,716,721,721,725,731,721,731,722,722,721,723,725,732,732,724,729,719,718,723,726,731,718,735,720,1395,1401,1413,1475,1792,2198,2442,2605,2671,2688,2665,2627,2581,2555,2498,2472,2436,2385,2350,2298,2230,2222,2175,2110,1990,1659,1659,1614,1668,1548,1503,1475,1462,1437,1423,1426,1405,1387,1350,1350,1350,1350,1350,1350,1350,1350,1350,1350,1350,1350,1350,1350,1350,1350,1350,1350,1350,1350,1350,1350,1350,1350,1350,1350,1350,1020,1024,1039,1056,1144,1501,1688,1866,1956,1985,1978,1947,1913,1895,1856,1840,1811,1770,1748,1707,1649,1653,1617,1563,1531,1503,1503,1413,1351,1131,1116,1097,1093,1054,1037,1053,1010,988,950,950,950,950,950,950,950,950,950,950,950,950,950,950,950,950,950,950,950,950,950,950,950,950,950,950,950,754,761,769,772,793,1016,1169,1265,1361,1396,1400,1379,1348,1343,1322,1293,1283,1268,1248,1214,1195,1175,1158,1138,1120,1096,1095,1074,1043,1037,829,820,821,774,772,769,770,771,746,746,746,746,746,746,746,746,746,746,746,746,746,746,746,746,746,746,746,746,746,746,746,746,746,746,746,1087,1107,1096,1144,1253,1563,1870,1986,2051,2075,2102,2072,2030,2015,1981,1905,1923,1925,1864,1776,1738,1741,1684,1696,1616,1598,1593,1539,1434,1255,1196,1178,1154,1117,1125,1144,1111,1123,1128,1128,1128,1128,1128,1128,1128,1128,1128,1128,1128,1128,1128,1128,1128,1128,1128,1128,1128,1128,1128,1128,1128,1128,1128,1128,1128,631,639,636,648,656,845,966,1044,1139,1177,1183,1166,1138,1135,1117,1090,1084,1071,1054,1024,1007,991,977,959,944,922,925,907,878,885,854,839,678,651,649,644,645,647,615,615,615,615,615,615,615,615,615,615,615,615,615,615,615,615,615,615,615,615,615,615,615,615,615,615,615,726,729,731,738,765,1014,1137,1265,1366,1408,1409,1388,1365,1351,1324,1318,1296,1266,1253,1221,1173,1186,1159,1115,1092,1069,1084,1030,1041,980,901,841,779,752,739,737,721,706,651,651,651,651,651,651,651,651,651,651,651,651,651,651,651,651,651,651,651,651,651,651,651,651,651,651,651,441,448,444,445,453,526,646,724,787,833,847,833,823,812,800,777,775,763,754,740,781,717,706,680,670,657,647,636,621,610,598,586,522,512,457,447,448,450,411,411,411,411,411,411,411,411,411,411,411,411,411,411,411,411,411,411,411,411,411,411,411,411,411,411,411,222,223,224,225,275,285,324,361,399,436,455,447,441,433,426,419,411,404,397,390,382,375,368,360,353,346,338,332,324,317,310,302,295,288,281,276,276,277,196,196,196,196,196,196,196,196,196,196,196,196,196,196,196,196,196,196,196,196,196,196,196,196,196,196,196,711,726,715,718,753,931,1114,1240,1337,1376,1379,1357,1338,1317,1321,1267,1254,1235,1221,1193,1194,1153,1122,1100,1083,1082,1041,1023,998,979,879,868,804,735,724,727,729,681,647,647,647,647,647,647,647,647,647,647,647,647,647,647,647,647,647,647,647,647,647,647,647,647,647,647,647,918,927,949,942,1041,1308,1469,1604,1726,1724,1729,1699,1672,1650,1625,1597,1577,1547,1522,1498,1476,1452,1426,1400,1372,1350,1326,1306,1282,1250,1026,981,968,971,961,936,911,909,868,868,868,868,868,868,868,868,868,868,868,868,868,868,868,868,868,868,868,868,868,868,868,868,868,868,868,1087,1085,1102,1114,1266,1638,1834,2006,2092,2081,2067,2039,1999,1994,1951,1925,1896,1880,1866,1783,1768,1720,1694,1646,1641,1581,1587,1515,1353,1220,1205,1167,1133,1113,1110,1098,1071,1050,1010,1010,1010,1010,1010,1010,1010,1010,1010,1010,1010,1010,1010,1010,1010,1010,1010,1010,1010,1010,1010,1010,1010,1010,1010,1010,1010,903,907,909,923,990,1314,1468,1623,1719,1755,1750,1724,1695,1675,1642,1632,1606,1579,1561,1513,1469,1467,1446,1394,1365,1331,1341,1301,1289,1218,1017,960,962,931,918,933,921,917,879,879,879,879,879,879,879,879,879,879,879,879,879,879,879,879,879,879,879,879,879,879,879,879,879,879,879,706,708,711,716,746,991,1111,1222,1321,1366,1369,1348,1326,1312,1286,1281,1263,1235,1217,1185,1143,1153,1134,1087,1065,1045,1054,999,1014,951,861,751,804,730,717,730,724,708,662,662,662,662,662,662,662,662,662,662,662,662,662,662,662,662,662,662,662,662,662,662,662,662,662,662,662,0,0,0,0,0,0,0,0,0,0,0,0,0,0,0,0,0,0,0,0,0,0,0,0,0,0,0,0,0,0,0,0,0,0,0,0,0,0,0,0,0,0,0,0,0,0,0,0,0,0,0,0,0,0,0,0,0,0,0,0,0,0,0,0,0,595,610,604,606,617,792,913,986,1062,1104,1111,1096,1103,1086,1070,1034,1024,1033,985,998,960,939,924,908,892,887,865,847,830,819,799,704,666,615,608,624,607,596,553,553,553,553,553,553,553,553,553,553,553,553,553,553,553,553,553,553,553,553,553,553,553,553,553,553,553,1038,1039,1050,1092,1168,1542,1749,1912,1985,2029,2025,1989,1943,1941,1890,1879,1835,1811,1771,1743,1686,1674,1648,1592,1567,1528,1537,1484,1321,1206,1138,1124,1107,1074,1061,1077,1061,1034,993,993,993,993,993,993,993,993,993,993,993,993,993,993,993,993,993,993,993,993,993,993,993,993,993,993,993,691,695,697,699,707,813,1033,1170,1287,1369,1359,1353,1331,1294,1272,1251,1247,1212,1210,1173,1163,1137,1117,1097,1052,1052,1021,920,884,834,931,807,744,719,707,704,693,698,637,637,637,637,637,637,637,637,637,637,637,637,637,637,637,637,637,637,637,637,637,637,637,637,637,637,637,717,719,721,728,759,999,1119,1244,1339,1388,1391,1370,1347,1335,1307,1301,1281,1251,1228,1205,1157,1171,1145,1101,1078,1056,1071,1018,1031,966,878,829,768,742,729,728,721,686,649,649,649,649,649,649,649,649,649,649,649,649,649,649,649,649,649,649,649,649,649,649,649,649,649,649,649,685,687,683,692,709,957,1086,1210,1302,1373,1372,1350,1315,1306,1295,1263,1241,1228,1207,1192,1158,1131,1109,1089,1067,1045,1020,999,979,948,926,838,828,711,699,695,697,699,679,677,679,678,692,698,696,701,693,695,696,696,694,687,691,701,701,691,692,695,684,698,692,697,697,697,697,1301,1281,1318,1343,1579,1973,2252,2411,2484,2513,2434,2453,2396,2380,2343,2312,2260,2223,2200,2149,2070,2028,2027,1963,1937,1871,1772,1510,1509,1471,1427,1374,1367,1334,1316,1321,1283,1259,1225,1225,1225,1225,1225,1225,1225,1225,1225,1225,1225,1225,1225,1225,1225,1225,1225,1225,1225,1225,1225,1225,1225,1225,1225,1225,1225,1395,1401,1413,1475,1792,2198,2442,2605,2671,2688,2665,2627,2581,2555,2498,2472,2436,2385,2350,2298,2230,2222,2175,2110,1990,1659,1659,1614,1668,1548,1503,1475,1462,1437,1423,1426,1405,1387,1350,1350,1350,1350,1350,1350,1350,1350,1350,1350,1350,1350,1350,1350,1350,1350,1350,1350,1350,1350,1350,1350,1350,1350,1350,1350,1350,1002,1010,1008,1019,1083,1481,1693,1858,1958,1986,1966,1937,1907,1876,1855,1819,1806,1773,1740,1705,1676,1639,1607,1577,1545,1517,1493,1362,1322,1171,1191,1096,1051,1031,1019,1022,1011,1005,966,954,959,962,988,975,981,975,977,985,982,969,984,966,973,982,983,969,981,963,961,978,975,983,982,982,982,620,641,643,643,655,842,995,1110,1218,1264,1256,1236,1217,1200,1183,1166,1147,1127,1111,1089,1070,1050,1031,1011,990,969,950,928,908,846,837,700,669,667,652,651,639,607,558,557,579,580,580,572,566,582,570,573,570,567,566,575,579,574,576,569,571,570,576,579,568,574,567,568,568,401,401,402,404,405,441,607,678,746,806,814,801,815,802,762,749,737,738,725,697,684,671,658,667,632,619,605,605,580,557,453,459,432,422,420,407,408,409,389,365,370,371,379,384,372,384,373,373,382,383,377,381,385,432,391,394,379,379,379,379,379,379,379,379,379,834,848,850,859,905,1168,1373,1516,1544,1606,1589,1580,1557,1534,1480,1483,1434,1463,1460,1431,1398,1366,1357,1361,1338,1297,1238,1228,1142,1154,1027,953,896,884,870,857,857,881,858,861,857,861,872,873,869,882,871,877,873,872,871,885,882,885,883,888,885,888,887,887,884,875,875,875,875,363,364,361,363,364,405,520,534,577,618,658,622,614,607,598,590,583,599,614,590,581,572,563,554,566,535,526,530,517,506,490,480,397,405,394,365,366,367,344,342,340,341,350,359,350,362,351,356,356,351,353,349,354,357,358,354,360,360,359,359,357,360,360,360,360,308,308,310,311,311,320,426,472,515,586,594,614,571,601,592,546,541,527,518,508,500,490,485,473,467,453,444,481,473,439,455,419,434,418,356,312,312,327,255,260,249,262,262,264,261,263,251,251,253,254,251,251,252,254,253,255,254,254,254,254,254,254,254,254,254,400,402,403,404,406,470,596,658,730,791,805,794,787,771,762,751,739,727,715,702,690,678,665,652,639,631,619,600,595,585,561,492,480,465,410,406,407,409,342,340,342,345,344,342,343,343,343,345,345,346,359,362,360,351,346,343,344,346,343,342,344,343,341,343,343,555,557,551,559,554,687,838,932,1022,1080,1101,1089,1067,1055,1036,1031,1012,970,954,929,920,910,909,883,844,847,831,818,799,735,621,609,610,585,571,569,551,577,491,489,491,494,493,491,492,492,492,494,494,495,516,517,519,500,495,492,493,495,492,491,493,492,490,492,492,590,592,593,595,597,650,924,1031,1132,1192,1185,1166,1150,1136,1117,1099,1080,1062,1043,1026,1007,989,970,952,932,902,895,855,855,835,730,664,631,642,607,598,602,579,480,483,494,520,489,492,487,492,483,494,487,484,490,495,497,499,497,492,491,486,491,491,491,494,485,492,492,1073,1077,1080,1087,1185,1500,1835,1978,2065,2104,2076,2050,2019,1981,1948,1926,1905,1856,1829,1794,1764,1731,1700,1671,1643,1607,1574,1544,1350,1205,1270,1165,1156,1108,1095,1089,1065,1043,971,976,977,983,982,980,981,981,981,983,983,984,1005,1006,1008,989,984,981,982,984,981,980,982,981,979,981,981,722,724,718,759,756,972,1150,1285,1401,1435,1421,1403,1390,1361,1343,1326,1310,1292,1269,1244,1222,1187,1168,1146,1131,1107,1085,1052,1038,997,948,846,760,782,767,726,729,720,681,669,674,677,692,683,694,687,689,689,686,684,695,681,688,697,698,684,696,678,676,693,690,699,697,701,701,611,612,614,616,634,791,962,1074,1179,1237,1218,1201,1182,1164,1149,1131,1117,1094,1075,1057,1040,1020,1000,980,962,948,922,903,884,872,844,816,718,636,623,631,621,636,578,585,583,600,587,598,584,593,586,588,587,586,586,600,601,604,600,604,598,598,600,600,599,601,597,599,599,413,414,416,418,421,518,628,701,777,836,827,815,804,792,783,771,759,750,736,721,709,696,685,672,657,649,630,619,607,589,514,503,491,435,423,421,422,434,382,375,380,385,379,389,387,392,390,388,390,386,389,393,392,397,394,390,389,389,386,386,389,391,387,392,392,439,442,436,444,442,563,642,723,790,845,873,863,842,835,819,820,808,762,756,735,719,716,726,703,669,671,662,651,637,557,502,566,546,484,466,456,445,437,349,347,349,352,351,349,350,350,350,352,352,353,374,375,377,358,353,350,351,353,350,349,351,350,348,350,350,0,0,0,0,0,0,0,0,0,0,0,0,0,0,0,0,0,0,0,0,0,0,0,0,0,0,0,0,0,0,0,0,0,0,0,0,0,0,0,0,0,0,0,0,0,0,0,0,0,0,0,0,0,0,0,0,0,0,0,0,0,0,0,0,0,650,653,657,657,701,872,1018,1146,1257,1307,1300,1287,1257,1237,1222,1206,1181,1177,1140,1122,1109,1083,1062,1041,1020,999,983,957,940,924,801,701,725,679,661,660,663,660,609,603,626,628,622,632,611,634,616,628,626,623,625,631,633,627,627,636,629,633,632,630,633,633,627,625,625,711,713,721,719,739,824,1096,1217,1334,1391,1379,1368,1373,1329,1333,1267,1253,1233,1207,1185,1204,1160,1120,1126,1079,1057,1054,1020,988,917,868,820,787,732,712,715,713,700,651,649,651,654,653,651,652,652,652,654,654,655,673,677,679,660,655,652,653,655,652,651,653,652,650,652,652,294,294,295,296,296,311,403,456,484,534,558,552,543,535,531,525,516,508,500,481,472,474,468,446,442,427,420,423,407,416,407,397,329,380,314,297,297,311,227,228,227,228,229,230,227,229,224,230,224,226,227,230,232,241,233,231,229,229,229,229,229,229,229,229,229,769,771,775,775,783,1060,1339,1477,1572,1623,1604,1575,1557,1533,1509,1489,1478,1437,1417,1390,1362,1334,1303,1288,1243,1215,1184,1162,1124,1084,992,907,879,800,794,780,788,768,737,742,745,749,748,741,747,742,747,747,744,750,763,767,769,755,750,747,746,750,747,746,748,747,745,747,747,937,940,943,946,997,1305,1567,1731,1834,1864,1834,1820,1783,1768,1729,1713,1668,1667,1633,1587,1576,1530,1505,1474,1460,1429,1401,1359,1323,1305,1149,1038,980,977,954,952,954,952,896,901,907,912,924,916,924,922,921,922,916,919,927,916,923,931,931,919,927,913,911,921,916,928,923,925,925,1002,1010,1008,1019,1083,1481,1693,1858,1958,1986,1966,1937,1907,1876,1855,1819,1806,1773,1740,1705,1676,1639,1607,1577,1545,1517,1493,1362,1322,1171,1191,1096,1051,1031,1019,1022,1011,1005,966,954,959,962,988,975,981,975,977,985,982,969,984,966,973,982,983,969,981,963,961,978,975,983,982,982,982,811,814,817,823,841,1062,1301,1426,1575,1615,1612,1587,1562,1555,1510,1485,1459,1433,1408,1382,1357,1331,1305,1280,1255,1228,1203,1178,1166,1113,900,880,859,839,827,863,826,825,817,822,822,822,822,822,822,822,822,822,822,822,822,822,822,822,822,822,822,822,822,822,822,822,822,822,822,247,248,249,250,251,321,364,407,449,492,508,499,491,482,475,467,458,451,442,434,426,418,410,401,393,382,375,369,361,353,345,336,328,321,312,252,252,309,243,243,243,243,243,243,243,243,243,243,243,243,243,243,243,243,243,243,243,243,243,243,243,243,243,243,243,662,665,666,668,710,906,1049,1172,1290,1322,1329,1309,1320,1266,1240,1224,1202,1181,1160,1138,1119,1096,1076,1053,1025,1004,990,969,947,926,853,830,720,688,676,673,675,676,664,670,670,670,670,670,670,670,670,670,670,670,670,670,670,670,670,670,670,670,670,670,670,670,670,670,670,1085,1089,1094,1131,1250,1620,1889,2079,2212,2154,2242,2176,2189,2049,2055,2037,2029,1915,1881,1889,1872,1830,1749,1746,1703,1664,1613,1549,1453,1401,1199,1178,1140,1115,1106,1111,1126,1115,1122,1122,1122,1122,1122,1122,1122,1122,1122,1122,1122,1122,1122,1122,1122,1122,1122,1122,1122,1122,1122,1122,1122,1122,1122,1122,1122,811,814,793,818,829,867,1187,1298,1391,1482,1474,1464,1430,1380,1400,1381,1361,1331,1318,1289,1304,1281,1253,1206,1166,1195,1150,1101,1080,1104,1026,871,865,837,825,800,810,799,765,765,767,770,781,776,783,781,774,784,768,768,768,768,768,768,768,768,768,768,768,768,768,768,768,768,768,509,510,489,513,516,616,752,840,924,1018,1025,1008,993,933,960,943,926,871,893,840,860,845,829,777,762,779,764,715,700,715,672,653,626,531,520,494,518,499,479,467,474,480,480,480,474,480,480,470,473,473,473,473,473,473,473,473,473,473,473,473,473,473,473,473,473,698,700,702,705,708,904,1064,1235,1353,1400,1401,1378,1356,1333,1317,1289,1266,1245,1225,1199,1177,1154,1131,1109,1086,1064,1041,1019,996,976,918,862,743,725,717,709,711,688,645,645,645,645,645,645,645,645,645,645,645,645,645,645,645,645,645,645,645,645,645,645,645,645,645,645,645,1059,1062,1065,1072,1113,1469,1721,1965,2071,2103,2091,2065,2025,1991,1964,1927,1894,1859,1827,1793,1757,1723,1691,1656,1623,1589,1555,1520,1297,1268,1164,1136,1110,1090,1099,1075,1078,1050,1010,1010,1010,1010,1010,1010,1010,1010,1010,1010,1010,1010,1010,1010,1010,1010,1010,1010,1010,1010,1010,1010,1010,1010,1010,1010,1010,815,807,820,830,843,976,1279,1488,1599,1603,1621,1555,1576,1535,1541,1501,1468,1444,1433,1360,1364,1340,1310,1258,1256,1235,1149,1119,1056,977,928,913,886,843,839,837,797,800,723,723,723,723,723,723,723,723,723,723,723,723,723,723,723,723,723,723,723,723,723,723,723,723,723,723,723,1359,1364,1375,1464,1671,2150,2488,2685,2780,2793,2765,2725,2676,2633,2576,2537,2485,2437,2390,2343,2293,2242,2201,2162,2105,2055,2012,1807,1712,1526,1494,1455,1420,1391,1383,1350,1346,1352,1350,1350,1350,1350,1350,1350,1350,1350,1350,1350,1350,1350,1350,1350,1350,1350,1350,1350,1350,1350,1350,1350,1350,1350,1350,1350,1350,614,618,611,594,619,738,906,1004,1151,1197,1214,1191,1169,1118,1092,1081,1062,1043,1067,998,987,969,970,931,932,913,867,853,837,829,803,633,697,621,595,605,604,628,560,560,560,560,560,560,560,560,560,560,560,560,560,560,560,560,560,560,560,560,560,560,560,560,560,560,560,801,803,806,808,819,1025,1239,1454,1556,1599,1599,1577,1547,1528,1493,1469,1449,1419,1398,1371,1346,1316,1295,1269,1240,1216,1193,1163,1138,1056,973,868,858,842,818,812,816,773,721,721,721,721,721,721,721,721,721,721,721,721,721,721,721,721,721,721,721,721,721,721,721,721,721,721,721,561,565,567,569,571,662,840,983,1075,1122,1134,1120,1098,1084,1066,1045,1027,1008,993,966,951,932,914,895,882,862,843,824,806,789,768,727,658,606,576,573,574,551,492,492,492,492,492,492,492,492,492,492,492,492,492,492,492,492,492,492,492,492,492,492,492,492,492,492,492,998,977,982,1005,1065,1378,1630,1781,1893,1961,1959,1925,1907,1841,1822,1788,1770,1693,1700,1640,1647,1615,1575,1524,1501,1499,1465,1344,1309,1262,1097,1058,1060,1049,1016,988,982,918,903,901,904,906,905,906,906,906,908,908,906,906,906,906,906,906,906,906,906,906,906,906,906,906,906,906,906,558,559,539,563,565,686,832,928,1027,1119,1124,1106,1087,1028,1052,1034,1016,959,981,925,944,927,908,855,839,854,837,787,807,783,765,587,691,673,569,543,567,569,556,552,552,555,556,556,556,556,556,556,556,556,556,556,556,556,556,556,556,556,556,556,556,556,556,556,556,0,0,0,0,0,0,0,0,0,0,0,0,0,0,0,0,0,0,0,0,0,0,0,0,0,0,0,0,0,0,0,0,0,0,0,0,0,0,0,0,0,0,0,0,0,0,0,0,0,0,0,0,0,0,0,0,0,0,0,0,0,0,0,0,0,972,976,979,983,1012,1327,1556,1791,1903,1924,1918,1898,1867,1837,1812,1775,1747,1715,1686,1651,1605,1589,1543,1527,1497,1464,1421,1401,1345,1217,1088,1048,1023,998,995,987,980,972,921,921,921,921,921,921,921,921,921,921,921,921,921,921,921,921,921,921,921,921,921,921,921,921,921,921,921,499,500,479,504,506,603,736,822,904,998,1005,990,973,916,941,926,909,854,877,823,845,830,814,763,748,765,750,701,686,701,686,539,614,537,510,484,508,489,473,470,470,477,478,478,477,478,475,478,471,471,471,471,471,471,471,471,471,471,471,471,471,471,471,471,471,953,972,981,979,1086,1398,1665,1883,2005,2023,2015,1981,1944,1909,1868,1838,1801,1766,1730,1697,1659,1622,1588,1554,1511,1472,1444,1411,1372,1336,1171,1057,1006,981,972,963,961,966,968,968,968,968,968,968,968,968,968,968,968,968,968,968,968,968,968,968,968,968,968,968,968,968,968,968,968,838,841,834,819,871,999,1275,1415,1591,1622,1644,1614,1581,1527,1493,1477,1459,1427,1443,1370,1353,1328,1324,1278,1273,1230,1195,1179,1153,1139,1025,861,870,856,820,831,833,861,790,790,790,790,790,790,790,790,790,790,790,790,790,790,790,790,790,790,790,790,790,790,790,790,790,790,790,811,814,817,823,841,1062,1301,1426,1575,1615,1612,1587,1562,1555,1510,1485,1459,1433,1408,1382,1357,1331,1305,1280,1255,1228,1203,1178,1166,1113,900,880,859,839,827,863,826,825,817,822,822,822,822,822,822,822,822,822,822,822,822,822,822,822,822,822,822,822,822,822,822,822,822,822,822,1296,1305,1307,1370,1554,2035,2289,2446,2515,2551,2532,2498,2453,2406,2380,2337,2294,2251,2203,2144,2123,2093,2059,2003,1982,1913,1866,1734,1689,1484,1421,1404,1363,1328,1323,1327,1305,1281,1271,1273,1275,1281,1281,1291,1289,1287,1290,1281,1288,1286,1283,1284,1296,1294,1294,1300,1284,1287,1291,1286,1294,1286,1285,1293,1287,927,931,934,940,1039,1364,1536,1706,1806,1845,1837,1808,1779,1750,1720,1702,1662,1632,1602,1574,1557,1514,1485,1458,1437,1397,1377,1339,1288,1180,1034,995,988,1008,943,940,916,904,888,892,900,907,901,909,906,904,903,899,901,903,896,902,907,904,903,914,908,906,903,906,904,907,896,905,902,1027,1031,1015,1026,1134,1499,1696,1899,1993,2010,2003,1978,1945,1915,1879,1845,1855,1823,1779,1713,1683,1655,1618,1586,1553,1528,1494,1454,1421,1336,1109,1111,1056,1036,1026,1024,1015,997,984,989,997,1009,1005,1017,1006,1005,1009,1006,1006,1003,1008,1012,1011,1017,1012,1013,1007,1011,1018,1015,1012,1023,1000,1009,1001,1328,1331,1359,1428,1751,2309,2466,2629,2720,2708,2668,2661,2652,2580,2529,2477,2477,2416,2378,2269,2324,2225,2191,2141,2100,2028,1897,1702,1680,1517,1481,1426,1386,1396,1350,1356,1366,1428,1439,1449,1468,1465,1461,1445,1455,1467,1454,1477,1465,1473,1474,1466,1483,1504,1485,1474,1480,1483,1483,1479,1466,1480,1460,1473,1465,920,928,926,936,988,1366,1527,1675,1804,1796,1791,1800,1734,1743,1702,1648,1668,1639,1590,1526,1527,1477,1501,1422,1430,1395,1371,1337,1311,1238,1171,985,977,952,931,922,933,937,922,929,948,954,942,945,935,947,937,956,947,935,946,947,958,985,956,953,954,949,956,956,951,954,937,950,942,834,837,821,824,864,1157,1306,1504,1588,1626,1620,1596,1567,1546,1514,1492,1505,1478,1452,1386,1361,1340,1319,1284,1257,1240,1213,1179,1163,1078,917,896,864,847,835,827,808,795,771,770,776,792,789,797,784,791,789,802,792,794,798,799,793,803,789,795,803,803,794,789,785,800,778,787,779,310,311,312,313,314,408,462,515,569,619,632,621,611,601,591,581,572,561,551,541,531,521,511,500,490,480,470,460,451,440,430,420,410,400,390,315,386,387,305,300,306,310,303,310,307,314,306,307,311,306,307,306,306,311,308,310,306,307,306,306,308,310,308,313,311,477,478,480,482,487,649,735,821,906,959,965,950,935,919,904,888,994,858,959,827,811,796,781,765,750,734,719,704,688,673,657,642,627,611,488,485,486,487,478,478,477,485,479,480,480,485,480,483,483,482,485,485,486,486,486,599,489,486,496,486,489,601,494,493,489,501,509,503,505,513,685,774,862,955,1004,1012,995,979,963,944,930,915,898,882,866,850,834,818,801,786,779,753,738,721,715,689,695,536,524,530,509,527,486,476,477,478,477,481,478,483,479,482,478,480,481,480,482,485,487,486,494,483,488,486,481,483,481,491,487,481,815,817,819,825,892,1265,1481,1672,1780,1811,1799,1766,1732,1699,1661,1632,1598,1565,1531,1498,1464,1431,1397,1364,1329,1296,1259,1229,1195,1162,923,896,868,843,829,829,836,841,848,843,837,856,871,864,869,866,872,873,878,923,977,917,872,899,870,871,884,882,870,865,882,866,873,872,868,913,945,917,950,1053,1381,1575,1759,1836,1884,1885,1847,1823,1757,1759,1681,1693,1629,1648,1589,1573,1497,1519,1469,1464,1403,1351,1356,1311,1258,1106,1033,998,953,970,955,937,919,910,905,914,923,921,930,945,923,926,920,926,926,916,921,929,931,927,937,919,924,927,918,927,924,932,922,916,682,706,686,711,716,968,1142,1290,1321,1365,1366,1366,1368,1301,1320,1294,1292,1301,1251,1204,1148,1127,1160,1115,1061,1039,1018,996,974,952,885,866,843,729,696,693,694,720,705,698,708,706,724,715,713,718,718,724,729,721,719,724,720,740,725,720,721,721,711,716,713,722,720,726,712,585,585,587,591,602,806,875,1010,1072,1169,1173,1105,1136,1070,1098,1034,1061,998,1020,1005,986,968,908,930,913,893,876,819,801,783,748,731,695,582,598,592,568,569,567,555,560,560,570,579,563,576,567,567,572,576,568,576,576,566,577,581,576,576,574,576,585,588,586,598,590,652,656,657,658,675,907,1001,1114,1159,1219,1240,1222,1212,1176,1181,1124,1127,1113,1097,1097,1085,1064,1056,1007,1010,983,976,937,922,929,905,874,717,688,678,677,664,640,628,623,634,636,624,636,626,638,632,637,646,636,628,632,635,648,634,639,647,643,637,641,633,644,641,637,629,728,731,713,717,748,991,1120,1257,1355,1419,1398,1395,1371,1350,1317,1305,1324,1297,1262,1215,1193,1174,1147,1124,1102,1087,1064,1034,1010,965,839,820,753,738,724,721,720,685,673,677,684,686,680,693,684,689,681,680,682,676,682,680,681,703,679,682,680,683,682,683,677,692,675,684,676,998,990,992,1019,1116,1465,1658,1828,1927,1960,1952,1920,1889,1857,1813,1806,1775,1729,1701,1658,1649,1604,1577,1545,1522,1494,1459,1421,1389,1278,1222,1143,1035,1048,1005,1002,1004,995,985,994,1006,1008,1010,1005,1000,1003,1004,1000,1002,1005,995,1005,1013,1007,1005,1014,1009,1008,1009,1004,1011,1001,995,999,996,0,0,0,0,0,0,0,0,0,0,0,0,0,0,0,0,0,0,0,0,0,0,0,0,0,0,0,0,0,0,0,0,0,0,0,0,0,0,0,0,0,0,0,0,0,0,0,0,0,0,0,0,0,0,0,0,0,0,0,0,0,0,0,0,0,824,827,809,813,854,1141,1287,1485,1566,1606,1602,1575,1549,1527,1498,1472,1489,1462,1435,1372,1346,1325,1294,1269,1244,1227,1201,1167,1141,1079,967,945,850,830,820,817,800,775,769,773,778,784,779,790,778,786,780,776,780,775,783,792,784,803,780,783,779,787,783,783,778,793,776,783,777,994,990,999,1026,1089,1556,1745,1892,2020,2040,2043,2010,1977,1984,1939,1879,1848,1815,1783,1750,1717,1685,1652,1619,1587,1578,1522,1490,1439,1408,1206,1181,1044,1016,1016,1013,1020,1044,1037,1037,1056,1064,1059,1064,1055,1070,1065,1066,1072,1060,1070,1065,1072,1072,1066,1071,1066,1073,1059,1059,1072,1077,1066,1071,1049,1104,1133,1127,1155,1334,1678,1984,2152,2179,2202,2172,2137,2098,2084,2073,1998,2024,2009,1937,1860,1824,1804,1766,1777,1686,1669,1629,1601,1552,1372,1209,1184,1165,1176,1138,1139,1112,1125,1119,1123,1135,1133,1130,1139,1137,1134,1136,1130,1137,1137,1132,1136,1142,1144,1143,1148,1138,1142,1139,1136,1140,1139,1148,1144,1138,1296,1305,1307,1370,1554,2035,2289,2446,2515,2551,2532,2498,2453,2406,2380,2337,2294,2251,2203,2144,2123,2093,2059,2003,1982,1913,1866,1734,1689,1484,1421,1404,1363,1328,1323,1327,1305,1281,1271,1273,1275,1281,1281,1291,1289,1287,1290,1281,1288,1286,1283,1284,1296,1294,1294,1300,1284,1287,1291,1286,1294,1286,1285,1293,1287,969,1000,981,982,1045,1443,1649,1803,1888,1921,1907,1881,1850,1828,1807,1758,1729,1698,1667,1652,1607,1583,1551,1563,1496,1465,1432,1447,1365,1307,1143,1042,1015,997,990,983,986,971,975,967,972,978,977,983,986,994,984,985,998,985,978,979,980,986,979,977,985,985,984,974,977,983,973,984,978,541,551,547,555,558,712,824,918,1021,1099,1106,1089,1072,1067,1051,1045,1015,995,968,959,956,911,894,880,859,827,823,795,777,760,750,709,693,615,557,553,555,556,531,521,523,534,527,534,527,533,530,538,531,532,536,535,532,535,535,539,534,537,538,534,533,539,537,536,536,323,323,323,325,330,418,469,511,579,639,643,631,632,613,605,595,593,583,572,563,544,531,525,512,506,496,486,477,467,457,447,436,425,419,334,327,332,329,303,297,298,300,305,304,301,308,301,303,305,306,305,307,308,339,310,311,307,311,308,309,312,311,311,311,311,804,817,818,820,860,1144,1262,1332,1436,1425,1413,1447,1381,1368,1405,1322,1347,1319,1371,1347,1269,1245,1246,1238,1216,1203,1163,1152,1056,853,926,913,849,832,815,816,821,819,796,808,795,810,815,815,817,818,813,816,811,815,812,811,809,815,815,816,818,813,812,820,818,839,815,832,827,313,313,314,314,385,397,429,426,451,476,488,484,479,474,507,464,459,455,484,477,471,466,459,454,447,474,436,430,401,395,412,384,400,394,389,386,386,387,310,292,295,297,293,303,298,306,303,299,306,297,298,297,297,301,300,300,298,299,298,297,298,301,300,306,304,125,126,126,130,154,157,177,197,250,264,253,249,246,241,263,260,258,256,252,249,246,209,205,201,198,194,189,185,182,177,174,170,165,162,158,154,156,156,99,93,93,93,93,93,93,94,92,97,93,92,93,93,93,93,94,94,93,93,93,94,93,94,94,93,93,512,515,505,508,515,562,763,860,929,992,995,981,966,953,939,935,918,902,887,870,856,842,821,805,806,772,756,740,723,708,648,586,539,525,525,510,512,513,446,448,447,452,456,449,451,451,449,453,452,454,464,468,466,459,452,449,452,451,449,450,450,451,446,452,448,667,670,664,693,692,827,1014,1149,1231,1302,1329,1298,1289,1260,1257,1237,1214,1169,1155,1127,1108,1095,1071,1054,1023,1012,973,969,954,864,744,727,716,711,682,669,667,670,595,597,596,601,605,598,600,600,598,602,601,603,621,623,625,608,601,598,601,600,598,599,599,600,595,601,597,693,695,697,700,721,844,1085,1219,1321,1370,1365,1345,1332,1307,1288,1282,1260,1236,1216,1191,1170,1153,1128,1108,1079,1059,1028,1017,990,801,852,775,773,744,709,706,708,631,584,591,599,623,601,599,595,600,589,602,594,592,595,601,603,607,603,598,599,591,597,599,597,602,590,601,592,1101,1099,1104,1113,1227,1631,1895,2049,2164,2210,2210,2163,2139,2103,2067,2031,2000,1960,1924,1887,1855,1825,1788,1753,1703,1682,1643,1611,1512,1287,1274,1193,1170,1134,1121,1116,1097,1085,1027,1026,1030,1051,1040,1043,1038,1038,1039,1047,1045,1044,1048,1049,1051,1052,1041,1046,1047,1049,1049,1049,1056,1049,1052,1050,1050,682,726,686,688,735,871,1101,1226,1326,1373,1372,1355,1337,1314,1293,1259,1248,1215,1193,1182,1159,1124,1105,1127,1071,1048,1024,1033,936,919,759,794,776,749,693,730,692,686,682,682,685,693,692,694,701,708,691,700,699,689,693,694,695,701,694,692,695,695,699,689,692,698,688,699,694,723,715,727,720,767,943,1123,1253,1353,1420,1405,1384,1364,1374,1323,1331,1289,1291,1244,1222,1201,1180,1153,1130,1107,1120,1062,1069,1017,954,961,889,757,739,760,724,740,725,682,693,688,707,699,705,692,701,692,696,694,694,691,706,707,712,706,710,706,703,706,708,705,709,702,708,706,517,519,520,522,531,651,789,880,951,1019,1020,1006,999,984,969,960,943,927,913,887,880,860,845,827,805,784,776,760,738,723,668,561,548,534,522,524,525,492,478,462,467,469,467,480,473,487,496,478,481,469,471,470,472,477,476,472,473,475,471,471,472,475,475,480,476,551,555,549,583,579,632,803,931,997,1070,1097,1074,1065,1045,1045,1025,1011,964,955,932,913,905,890,872,846,841,804,805,790,686,627,616,598,594,577,562,561,529,453,455,454,459,463,456,458,458,456,460,459,461,479,481,483,466,459,456,459,458,456,457,457,458,453,459,455,112,113,113,139,139,143,161,180,199,217,231,226,223,220,215,212,209,204,201,198,194,190,187,183,179,176,172,168,165,161,157,154,150,146,143,139,140,140,104,108,105,107,112,107,108,108,106,108,107,108,105,106,106,108,106,106,108,105,106,108,106,108,105,107,106,547,550,551,559,572,732,830,932,1030,1119,1115,1098,1081,1076,1059,1054,1034,1003,976,967,967,922,902,886,866,837,832,812,784,766,651,636,640,648,561,576,559,560,550,542,543,546,543,548,545,546,550,550,546,542,545,546,543,544,551,551,548,545,548,550,548,556,555,558,558,813,824,827,827,877,1062,1280,1454,1533,1586,1585,1560,1534,1516,1498,1469,1445,1433,1408,1383,1324,1323,1307,1284,1258,1206,1181,1145,1149,1052,1015,967,841,840,828,819,828,811,755,757,756,761,765,758,760,760,758,762,761,763,779,783,785,768,761,758,761,760,758,759,759,760,755,761,757,0,0,0,0,0,0,0,0,0,0,0,0,0,0,0,0,0,0,0,0,0,0,0,0,0,0,0,0,0,0,0,0,0,0,0,0,0,0,0,0,0,0,0,0,0,0,0,0,0,0,0,0,0,0,0,0,0,0,0,0,0,0,0,0,0,691,693,700,696,733,948,1098,1243,1435,1513,1500,1471,1452,1415,1381,1362,1346,1316,1291,1262,1228,1202,1177,1149,1126,1096,1060,1042,1017,990,963,793,745,723,710,704,711,700,673,674,678,684,680,685,694,690,683,683,690,690,698,694,695,699,685,686,690,688,690,688,690,686,686,686,686,903,934,903,913,963,1301,1524,1664,1755,1802,1788,1764,1735,1708,1668,1652,1616,1596,1568,1554,1494,1485,1443,1414,1411,1372,1342,1344,1284,1212,1123,1025,942,943,920,917,920,916,895,901,907,914,920,929,919,925,929,918,926,921,924,916,917,931,920,916,926,928,917,921,918,933,923,929,922,969,1000,981,982,1045,1443,1649,1803,1888,1921,1907,1881,1850,1828,1807,1758,1729,1698,1667,1652,1607,1583,1551,1563,1496,1465,1432,1447,1365,1307,1143,1042,1015,997,990,983,986,971,975,967,972,978,977,983,986,994,984,985,998,985,978,979,980,986,979,977,985,985,984,974,977,983,973,984,978,1457,1452,1491,1575,1794,2426,2660,2841,2941,2946,2916,2866,2901,2767,2741,2729,2678,2643,2535,2484,2449,2390,2321,2232,2159,1876,1886,1695,1695,1688,1629,1568,1503,1492,1496,1465,1471,1491,1478,1483,1472,1474,1508,1499,1508,1494,1505,1510,1509,1501,1516,1518,1517,1519,1515,1519,1501,1517,1505,1511,1504,1515,1507,1504,1495,877,880,894,902,958,1339,1518,1718,1850,1885,1887,1839,1890,1773,1739,1772,1729,1694,1606,1573,1555,1521,1472,1439,1403,1420,1339,1303,1285,1282,1163,959,932,919,903,891,897,922,894,900,892,894,925,907,920,915,923,927,927,919,932,930,931,928,927,927,931,936,926,921,931,920,926,920,907,541,543,544,546,603,772,899,1028,1156,1205,1204,1182,1160,1137,1115,1093,1071,1049,1027,1004,982,960,938,916,894,871,849,827,805,783,761,693,671,630,552,550,554,557,553,552,551,578,553,553,551,556,551,554,553,552,556,557,557,556,556,557,557,555,582,585,554,557,557,557,557,673,675,677,678,699,913,1065,1172,1276,1329,1334,1313,1291,1270,1251,1227,1206,1184,1163,1142,1120,1100,1078,1082,1038,1016,996,971,950,929,755,737,719,690,677,683,685,687,643,643,645,646,646,655,657,672,659,663,678,652,650,650,650,655,652,655,654,653,651,652,651,655,650,654,650,653,611,605,607,668,729,951,1062,1167,1206,1208,1189,1216,1196,1177,1112,1137,1073,1054,1035,1016,996,977,958,976,919,900,881,881,842,823,724,719,626,652,611,612,616,597,603,602,605,608,612,604,616,603,609,602,606,603,616,613,611,612,620,615,610,612,615,611,626,599,612,606,726,741,729,732,767,1062,1208,1383,1518,1593,1558,1531,1532,1497,1442,1413,1396,1368,1342,1303,1287,1250,1216,1211,1166,1132,1111,1076,1072,1021,975,916,783,745,729,729,720,740,718,720,712,730,725,724,731,748,725,720,725,740,734,725,727,734,734,735,731,736,725,731,729,746,746,747,729,725,728,729,733,756,1019,1155,1290,1401,1461,1458,1435,1412,1389,1428,1342,1318,1295,1272,1248,1225,1202,1179,1156,1131,1108,1085,1062,1039,1015,947,925,861,755,740,737,738,740,748,755,747,751,756,751,792,754,753,751,749,753,753,758,816,824,756,818,758,756,827,807,798,798,754,756,796,746,747,750,747,806,1089,1190,1346,1384,1435,1446,1415,1382,1375,1354,1359,1301,1292,1272,1265,1221,1217,1180,1171,1139,1134,1109,1076,1052,1037,1005,989,783,765,753,756,759,758,736,741,742,763,753,756,750,749,745,741,759,754,774,782,774,782,759,761,765,767,783,783,765,838,803,764,761,996,999,1002,1046,1115,1487,1687,1835,1936,2006,1974,1943,1933,1905,1848,1840,1785,1774,1742,1708,1681,1647,1597,1566,1533,1502,1470,1438,1407,1393,1136,1074,1048,1043,1014,1025,970,972,982,982,981,985,992,989,1017,992,987,985,986,992,992,1000,1018,1039,994,1015,1000,994,1026,1036,1034,1036,990,992,991,482,484,487,486,490,548,739,825,909,974,972,957,941,926,916,895,880,886,849,833,818,803,787,772,770,753,738,722,722,684,664,585,571,505,494,490,491,492,437,447,440,455,460,461,452,467,446,471,458,456,456,455,460,472,461,456,468,470,461,464,461,471,457,457,449,1197,1223,1254,1304,1454,1910,2244,2406,2507,2526,2533,2497,2443,2365,2331,2298,2267,2199,2149,2113,2088,2004,1970,1969,1908,1863,1812,1691,1608,1470,1337,1316,1297,1232,1248,1249,1198,1205,1203,1197,1214,1216,1226,1229,1222,1208,1222,1231,1230,1223,1237,1242,1235,1239,1241,1233,1215,1231,1219,1225,1218,1229,1221,1237,1209,1223,1223,1247,1245,1489,1863,2148,2288,2393,2420,2401,2362,2294,2257,2261,2221,2179,2126,2088,2048,2036,1970,1956,1909,1870,1827,1792,1761,1555,1408,1406,1330,1261,1251,1237,1230,1237,1227,1215,1208,1227,1206,1230,1225,1222,1227,1227,1249,1251,1248,1236,1245,1245,1256,1243,1240,1238,1243,1249,1250,1259,1254,1249,1251,1245,1026,1015,1035,1034,1148,1544,1733,1898,2009,2013,2035,1997,1934,1906,1913,1866,1807,1796,1745,1730,1717,1665,1648,1584,1579,1545,1490,1480,1407,1244,1231,1177,1061,1069,1042,1029,1040,1019,1020,1012,1023,1021,1017,1029,1022,1021,1030,1034,1044,1045,1040,1044,1046,1049,1042,1043,1035,1046,1047,1054,1066,1048,1050,1074,1064,620,639,623,641,645,901,982,1096,1194,1249,1283,1228,1265,1188,1168,1148,1128,1108,1139,1131,1048,1028,1056,988,970,949,929,909,930,915,855,881,791,732,664,659,650,625,648,649,653,652,656,661,661,666,658,658,661,662,657,657,659,668,672,659,666,660,657,665,660,662,664,669,653,834,823,819,845,882,1207,1350,1490,1567,1637,1626,1611,1574,1551,1526,1514,1453,1489,1437,1409,1389,1358,1336,1277,1289,1259,1202,1205,1157,1137,1017,992,860,841,828,826,828,818,805,800,808,821,811,817,813,821,816,817,822,815,812,816,814,816,815,822,820,820,817,815,826,839,825,836,824,900,884,934,933,987,1316,1548,1727,1860,1895,1881,1848,1903,1780,1761,1770,1742,1702,1613,1580,1562,1528,1479,1446,1412,1427,1346,1312,1257,1287,1111,1066,936,976,945,897,901,942,916,934,918,913,941,932,940,939,939,936,942,930,943,942,946,945,944,945,945,947,945,941,937,936,945,933,929,1030,1014,1044,1077,1147,1519,1787,1918,2016,2064,2051,2019,1986,1934,1920,1887,1812,1856,1789,1756,1723,1690,1658,1610,1592,1559,1512,1493,1366,1342,1116,1115,1089,1069,1044,1061,1054,1039,1070,1077,1072,1085,1077,1086,1089,1088,1087,1084,1082,1085,1098,1102,1103,1109,1095,1103,1095,1091,1104,1092,1103,1101,1088,1090,1089,727,732,730,732,783,1027,1192,1365,1501,1576,1541,1514,1515,1480,1425,1399,1399,1354,1334,1290,1281,1236,1203,1197,1155,1119,1109,1064,1070,1009,930,905,819,736,720,720,726,747,726,720,727,741,728,738,727,736,749,731,733,728,727,734,728,729,730,736,733,738,730,734,735,748,739,755,739,0,0,0,0,0,0,0,0,0,0,0,0,0,0,0,0,0,0,0,0,0,0,0,0,0,0,0,0,0,0,0,0,0,0,0,0,0,0,0,0,0,0,0,0,0,0,0,0,0,0,0,0,0,0,0,0,0,0,0,0,0,0,0,0,0,1420,1444,1505,1579,1815,2360,2678,2836,2917,2938,2940,2896,2826,2753,2712,2672,2641,2563,2509,2468,2433,2352,2308,2289,2231,2075,1938,1850,1784,1647,1575,1534,1515,1450,1467,1481,1428,1435,1433,1427,1444,1446,1456,1459,1452,1438,1452,1461,1460,1453,1467,1472,1465,1469,1471,1463,1445,1461,1449,1455,1448,1459,1451,1467,1439,1457,1452,1491,1575,1794,2426,2660,2841,2941,2946,2916,2866,2901,2767,2741,2729,2678,2643,2535,2484,2449,2390,2321,2232,2159,1876,1886,1695,1695,1688,1629,1568,1503,1492,1496,1465,1471,1491,1478,1483,1472,1474,1508,1499,1508,1494,1505,1510,1509,1501,1516,1518,1517,1519,1515,1519,1501,1517,1505,1511,1504,1515,1507,1504,1495,234,234,235,236,237,302,341,379,418,456,470,463,456,448,441,434,426,419,412,404,398,390,382,376,368,360,354,346,338,332,324,317,310,302,295,237,291,292,223,225,227,230,228,231,225,229,225,291,228,228,231,230,291,300,237,233,236,230,234,235,237,294,231,234,232,582,584,585,587,598,769,915,992,1096,1168,1173,1155,1136,1117,1098,1080,1061,1042,1024,1004,985,966,948,929,910,892,873,854,836,817,798,754,737,606,594,597,593,572,541,552,557,565,552,546,550,559,556,584,545,541,551,552,572,559,581,551,559,561,562,552,570,574,549,549,549,1054,1057,1063,1083,1195,1515,1768,1986,2062,2114,2136,2062,2048,1961,1976,1915,1911,1860,1831,1784,1745,1712,1692,1659,1622,1601,1531,1456,1448,1179,1172,1127,1125,1108,1068,1061,1060,1079,1033,1048,1045,1068,1042,1071,1077,1069,1081,1074,1070,1051,1066,1066,1069,1070,1073,1072,1069,1067,1090,1068,1066,1079,1063,1063,1063,1529,1545,1565,1624,1776,2445,2675,2821,2998,2967,2958,2922,2864,2719,2813,2743,2696,2567,2567,2530,2467,2425,2349,2300,2287,2107,1747,1809,1750,1679,1653,1608,1602,1583,1561,1544,1552,1575,1542,1560,1554,1586,1541,1568,1548,1589,1577,1593,1572,1570,1595,1593,1584,1584,1597,1591,1593,1579,1588,1598,1579,1593,1580,1580,1580,1081,1122,1099,1119,1227,1526,1771,1940,2066,2083,2084,2020,2035,1956,1990,1984,1920,1896,1875,1839,1817,1762,1758,1673,1678,1606,1631,1587,1517,1221,1255,1214,1162,1145,1137,1131,1137,1122,1112,1114,1121,1123,1136,1136,1139,1139,1132,1140,1140,1135,1139,1139,1136,1143,1142,1141,1146,1140,1136,1141,1136,1140,1133,1133,1133,861,864,868,872,903,1167,1364,1572,1654,1727,1743,1677,1670,1590,1612,1572,1560,1519,1501,1455,1423,1397,1381,1355,1328,1312,1250,1269,1249,1170,1079,932,934,912,872,864,853,870,832,840,855,875,864,858,849,858,854,882,851,837,850,860,856,854,881,864,842,841,852,854,839,852,854,854,854,868,885,875,896,950,1112,1430,1583,1703,1759,1758,1700,1699,1651,1609,1620,1562,1534,1533,1505,1476,1420,1401,1404,1362,1310,1287,1264,1197,1169,1064,1007,959,919,904,902,891,833,782,792,784,791,806,796,806,813,794,810,802,813,803,803,806,807,806,803,817,806,802,806,800,801,799,799,799,1208,1212,1212,1240,1353,1667,2107,2244,2340,2381,2368,2327,2294,2251,2214,2179,2136,2093,2063,2027,1985,1960,1921,1893,1840,1796,1763,1699,1392,1360,1365,1319,1262,1243,1229,1227,1230,1182,1132,1142,1147,1150,1161,1159,1166,1156,1158,1167,1159,1171,1153,1158,1163,1166,1164,1166,1161,1158,1157,1163,1161,1163,1161,1161,1161,712,713,722,728,737,924,1111,1241,1402,1403,1452,1429,1379,1376,1336,1311,1312,1267,1262,1239,1207,1193,1179,1147,1133,1084,1077,1068,1001,952,949,790,775,770,711,731,737,719,675,681,686,700,687,696,681,686,682,677,690,685,683,702,695,701,691,697,696,712,703,695,693,706,682,682,682,1530,1543,1542,1621,2029,2545,2903,3042,3128,3137,3107,3071,3011,2973,2894,2842,2786,2730,2678,2635,2552,2504,2447,2391,2256,1969,1942,1822,1739,1716,1695,1621,1596,1575,1543,1566,1566,1584,1543,1548,1552,1566,1581,1586,1589,1575,1594,1590,1576,1579,1602,1601,1601,1609,1606,1603,1604,1602,1598,1601,1598,1592,1587,1590,1578,245,246,247,247,248,318,359,400,442,483,502,495,486,478,470,462,454,446,438,430,422,414,405,398,390,381,374,366,358,349,342,334,325,317,310,249,250,251,236,232,239,242,242,233,230,238,236,246,244,243,244,255,250,272,242,247,236,238,237,234,237,238,239,245,237,610,612,615,616,618,719,940,1045,1153,1225,1235,1213,1193,1171,1153,1131,1114,1094,1074,1031,1009,1015,995,973,955,935,915,899,856,768,838,736,724,650,610,620,621,623,595,590,599,592,598,602,595,598,606,603,609,602,605,613,608,606,615,610,601,613,605,615,610,612,616,616,616,579,581,588,585,600,773,882,984,1087,1161,1166,1164,1128,1109,1091,1072,1069,1035,1017,998,980,977,942,962,905,886,882,850,831,812,777,759,666,603,592,588,590,578,530,538,532,533,537,546,552,550,538,546,546,560,547,546,544,548,549,548,552,550,541,550,561,550,546,546,546,1190,1206,1217,1246,1331,1688,2055,2246,2325,2360,2360,2314,2294,2202,2197,2179,2123,2065,2061,2024,1977,1938,1901,1883,1830,1783,1662,1629,1434,1352,1314,1334,1284,1263,1234,1197,1162,1137,1106,1114,1118,1117,1126,1129,1132,1129,1122,1130,1130,1140,1129,1129,1126,1133,1132,1131,1136,1132,1127,1131,1126,1130,1123,1123,1123,756,796,778,786,837,1015,1240,1380,1520,1535,1552,1494,1509,1438,1476,1456,1395,1396,1372,1337,1309,1274,1265,1222,1215,1172,1182,1140,1117,1065,979,978,833,814,802,819,813,790,772,773,783,785,798,789,788,793,789,800,797,792,800,796,792,796,804,796,804,793,785,797,797,796,794,799,788,799,802,797,807,837,1111,1307,1421,1535,1601,1599,1574,1547,1523,1498,1479,1446,1434,1394,1375,1343,1302,1302,1277,1255,1225,1147,1123,1098,1074,991,868,847,824,814,818,815,795,763,771,776,784,779,769,773,783,781,808,770,766,776,777,791,783,816,776,784,786,786,779,797,800,774,774,774,1116,1116,1125,1138,1231,1514,1934,2075,2173,2219,2208,2151,2139,2099,2063,2032,1991,1950,1924,1873,1851,1828,1790,1765,1716,1674,1644,1605,1511,1314,1283,1232,1164,1155,1142,1138,1142,1101,1052,1060,1061,1068,1069,1081,1081,1074,1075,1085,1081,1093,1084,1081,1080,1083,1088,1080,1083,1081,1074,1081,1078,1082,1073,1073,1073,851,854,858,862,884,1151,1345,1553,1635,1694,1724,1659,1651,1573,1598,1543,1544,1503,1486,1439,1409,1382,1366,1340,1315,1298,1237,1256,1170,1004,1018,962,924,902,862,854,844,861,846,830,831,837,839,837,843,855,845,856,856,838,847,858,862,887,880,857,853,868,857,865,851,856,841,841,841,1383,1407,1425,1466,1781,2286,2571,2761,2845,2869,2887,2795,2767,2667,2625,2549,2533,2500,2454,2371,2320,2297,2267,2216,2165,2103,1834,1968,1741,1541,1504,1484,1471,1450,1413,1395,1422,1427,1396,1410,1406,1430,1400,1426,1413,1425,1419,1430,1416,1413,1427,1430,1434,1438,1443,1427,1430,1436,1454,1427,1421,1440,1421,1421,1421,0,0,0,0,0,0,0,0,0,0,0,0,0,0,0,0,0,0,0,0,0,0,0,0,0,0,0,0,0,0,0,0,0,0,0,0,0,0,0,0,0,0,0,0,0,0,0,0,0,0,0,0,0,0,0,0,0,0,0,0,0,0,0,0,0,234,234,235,236,237,302,341,379,418,456,470,463,456,448,441,434,426,419,412,404,398,390,382,376,368,360,354,346,338,332,324,317,310,302,295,237,291,292,223,225,227,230,228,231,225,229,225,291,228,228,231,230,291,300,237,233,236,230,234,235,237,294,231,234,232,0,0,0,0,0,0,0,0,0,0,0,0,0,0,0,0,0,0,0,0,0,0,0,0,0,0,0,0,0,0,0,0,0,0,0,0,0,0,0,0,0,0,0,0,0,0,0,0,0,0,0,0,0,0,0,0,0,0,0,0,0,0,0,0,0,580,582,583,584,714,807,915,1021,1119,1166,1169,1152,1127,1111,1096,1078,1059,1040,1017,1003,984,964,946,927,908,886,871,852,830,815,794,777,759,720,591,585,588,571,555,553,574,678,556,572,561,565,560,565,588,562,560,563,565,584,571,567,562,563,563,562,565,566,558,693,570,1095,1098,1101,1150,1353,1643,1940,2144,2217,2250,2168,2143,2098,2067,2033,2057,2016,1928,1888,1856,1820,1845,1746,1716,1679,1646,1604,1574,1508,1460,1342,1171,1143,1122,1111,1110,1101,1108,1102,1109,1125,1154,1124,1132,1134,1133,1133,1137,1140,1138,1132,1139,1144,1156,1142,1143,1142,1140,1138,1144,1154,1155,1135,1139,1133,1557,1562,1581,1831,1942,2573,2896,3005,3109,3120,2960,3001,2918,2825,2875,2856,2799,2635,2629,2585,2533,2543,2409,2271,1924,1927,1875,1809,1834,1748,1683,1652,1632,1595,1582,1584,1590,1581,1584,1561,1584,1617,1579,1594,1596,1595,1589,1602,1620,1591,1604,1604,1614,1676,1627,1618,1606,1628,1589,1608,1624,1640,1599,1656,1605,1205,1207,1217,1254,1366,1654,1974,2227,2312,2344,2280,2203,2164,2134,2139,2154,2124,2010,1997,2011,1933,2004,1868,1837,1803,1742,1710,1692,1531,1406,1300,1298,1254,1232,1227,1215,1195,1182,1183,1209,1196,1235,1207,1212,1209,1223,1219,1206,1199,1192,1210,1212,1219,1219,1219,1210,1224,1217,1223,1205,1219,1233,1218,1264,1230,900,903,905,919,1057,1295,1517,1766,1856,1882,1784,1757,1723,1697,1671,1726,1669,1586,1553,1529,1500,1594,1443,1416,1386,1355,1329,1302,1271,1253,1172,1126,949,934,915,914,894,899,914,913,913,917,915,915,927,932,910,903,919,923,915,911,910,911,912,924,917,918,915,914,909,941,946,1006,912,1022,1020,1035,1037,1087,1282,1726,1905,1980,1991,2077,1991,1969,1925,1860,1824,1830,1768,1764,1722,1701,1659,1637,1603,1540,1532,1507,1471,1338,1280,1155,1095,1090,1058,1046,1043,995,961,955,956,934,954,970,984,993,983,974,988,985,1001,982,989,983,982,985,982,987,992,986,986,987,988,985,992,977,1349,1347,1361,1381,1551,1882,2396,2549,2632,2636,2677,2586,2568,2498,2450,2409,2388,2328,2298,2261,2209,2164,2123,2079,2042,1997,1956,1840,1629,1559,1465,1420,1414,1382,1371,1368,1344,1309,1305,1317,1296,1309,1334,1344,1339,1347,1331,1345,1341,1351,1335,1345,1346,1340,1349,1325,1337,1350,1342,1348,1350,1351,1347,1354,1339,869,843,856,888,880,1113,1445,1544,1638,1685,1771,1666,1686,1624,1566,1540,1511,1520,1493,1437,1431,1410,1350,1349,1316,1269,1267,1239,1163,1131,959,921,902,897,857,850,857,849,845,845,839,854,863,877,852,868,854,865,871,872,861,882,879,874,871,866,874,891,890,877,882,908,864,881,872,1604,1612,1647,1769,2358,2774,3223,3309,3371,3384,3415,3271,3278,3153,3097,3036,2975,2915,2871,2814,2768,2707,2645,2561,2216,2198,1988,1955,1903,1845,1785,1699,1693,1656,1660,1652,1669,1711,1711,1714,1708,1730,1768,1767,1747,1769,1761,1763,1757,1787,1782,1782,1785,1784,1787,1772,1781,1787,1782,1783,1777,1777,1776,1781,1767,408,409,411,412,414,466,621,694,765,820,855,816,828,789,776,763,751,737,723,712,697,683,669,656,643,630,617,603,528,517,504,494,481,429,418,414,451,416,408,403,394,396,418,424,413,422,414,434,423,425,422,418,418,427,422,415,421,422,418,425,423,434,427,424,421,737,740,742,744,752,927,1206,1338,1431,1481,1546,1449,1493,1408,1384,1356,1335,1313,1307,1290,1241,1217,1194,1202,1146,1123,1099,1075,999,976,954,931,851,774,752,748,751,764,764,754,752,746,765,786,766,780,778,782,790,774,775,780,775,789,783,778,779,782,781,779,785,785,783,809,794,719,721,723,726,732,901,1168,1301,1409,1439,1493,1415,1416,1369,1346,1323,1303,1282,1258,1234,1208,1185,1165,1141,1117,1094,1073,1048,972,950,895,872,862,745,733,729,732,707,699,702,685,687,713,727,731,732,710,734,727,747,726,726,727,723,730,718,729,735,725,731,750,733,732,738,723,1342,1353,1364,1397,1547,1887,2371,2516,2613,2616,2663,2579,2554,2499,2433,2386,2365,2306,2299,2246,2201,2156,2125,2077,2019,1898,1874,1685,1597,1532,1459,1420,1420,1387,1379,1331,1289,1272,1275,1278,1271,1271,1300,1281,1309,1311,1294,1311,1311,1327,1308,1309,1309,1308,1313,1298,1311,1307,1311,1311,1295,1313,1309,1310,1301,941,927,933,936,964,1143,1538,1687,1800,1853,1879,1837,1812,1740,1694,1659,1657,1609,1627,1571,1538,1512,1505,1453,1424,1395,1386,1337,1261,1248,1117,1076,1036,978,964,930,940,925,933,940,936,942,964,931,959,974,961,958,973,965,968,971,978,972,969,945,961,958,962,961,947,966,960,961,953,797,800,802,804,898,1176,1310,1458,1558,1603,1595,1572,1539,1517,1496,1479,1454,1424,1397,1367,1340,1330,1301,1275,1249,1221,1145,1121,1094,1072,1047,910,846,824,811,806,810,794,777,772,793,821,783,795,784,789,785,789,813,787,785,788,788,808,808,792,787,788,787,789,792,794,783,843,795,1251,1260,1272,1284,1471,1717,2223,2382,2464,2474,2503,2427,2399,2347,2303,2264,2245,2189,2160,2107,2076,2033,1995,1954,1917,1876,1839,1755,1562,1469,1376,1333,1326,1295,1283,1279,1263,1229,1223,1231,1214,1216,1255,1256,1257,1264,1250,1267,1263,1278,1258,1261,1263,1264,1263,1247,1260,1267,1260,1261,1269,1262,1259,1266,1251,891,893,895,909,1070,1279,1551,1743,1838,1863,1816,1739,1705,1679,1655,1709,1653,1570,1538,1557,1486,1580,1430,1401,1373,1342,1316,1289,1227,1232,1123,1093,954,917,905,903,885,890,888,912,903,932,909,906,906,924,913,909,901,895,913,911,919,919,921,911,926,920,925,904,919,927,914,991,926,1424,1429,1437,1498,1867,2412,2690,2846,2898,2915,2886,2833,2776,2726,2681,2634,2606,2530,2499,2454,2392,2345,2300,2250,2198,2145,1915,1673,1647,1611,1549,1527,1501,1461,1447,1436,1444,1431,1415,1417,1441,1467,1421,1452,1449,1431,1431,1436,1459,1434,1436,1446,1450,1470,1437,1443,1438,1477,1465,1437,1453,1437,1430,1507,1442,330,330,459,332,333,431,474,518,562,601,609,600,592,584,576,567,599,551,543,534,526,518,510,501,493,485,510,468,460,484,444,465,427,419,336,333,334,334,327,331,324,327,333,333,415,421,329,332,334,416,338,328,331,339,333,333,333,333,327,332,327,333,333,335,325,0,0,0,0,0,0,0,0,0,0,0,0,0,0,0,0,0,0,0,0,0,0,0,0,0,0,0,0,0,0,0,0,0,0,0,0,0,0,0,0,0,0,0,0,0,0,0,0,0,0,0,0,0,0,0,0,0,0,0,0,0,0,0,0,0 ]);
