n = 10;
D = [103,208,188,81,181,143,75,139,79,124 ];
q = 0;
prec = array2d(1..0,1..2,[]);
steps = 64;
l = 360;
r = 0;
which = [];
interval = array2d(1..0,1..2,[]);
T = array3d(1..11,1..11,0..64,[0,0,0,0,0,0,0,0,0,0,0,0,0,0,0,0,0,0,0,0,0,0,0,0,0,0,0,0,0,0,0,0,0,0,0,0,0,0,0,0,0,0,0,0,0,0,0,0,0,0,0,0,0,0,0,0,0,0,0,0,0,0,0,0,0,339,374,341,342,342,477,509,589,629,702,689,678,688,656,645,634,623,632,620,590,579,568,575,564,535,524,513,519,491,480,469,458,447,436,438,406,344,345,334,335,339,341,334,341,335,340,342,334,341,333,335,335,336,341,336,339,338,340,338,342,336,345,335,341,338,689,724,723,728,735,844,1124,1285,1396,1437,1435,1410,1390,1368,1345,1296,1242,1277,1212,1234,1156,1186,1110,1089,1069,1092,1070,1058,1028,918,867,850,829,806,736,730,733,723,686,685,688,703,715,705,700,713,699,713,708,715,714,716,717,737,718,706,713,717,714,716,712,737,719,720,714,767,770,771,776,814,1104,1247,1390,1550,1525,1521,1497,1473,1464,1426,1400,1433,1353,1329,1306,1281,1257,1233,1222,1217,1191,1137,1117,1089,1065,1039,832,812,793,782,779,774,775,777,781,779,783,786,789,787,786,788,783,789,787,791,788,793,793,795,798,788,792,789,801,799,823,800,796,793,198,200,199,200,201,256,287,339,339,398,413,405,400,407,389,381,375,369,363,340,334,349,344,338,333,319,302,297,291,283,277,270,264,257,250,209,210,248,144,149,145,148,157,153,149,153,148,154,150,155,148,147,148,150,148,147,152,149,148,152,149,149,149,149,149,463,464,466,469,468,576,710,792,874,938,945,929,914,899,872,862,884,839,826,809,819,779,759,748,727,721,702,682,619,622,607,592,564,558,473,475,468,467,458,454,458,464,473,476,468,470,464,476,470,471,480,482,485,490,480,473,473,478,479,472,473,482,479,478,470,729,730,733,736,770,1025,1183,1323,1469,1469,1454,1431,1408,1384,1361,1338,1325,1288,1279,1245,1222,1199,1175,1152,1129,1106,1092,1060,1037,1014,959,934,773,754,769,739,741,733,725,731,725,739,736,752,731,735,742,732,730,733,730,732,731,730,735,739,735,731,732,736,738,744,748,753,739,313,321,315,315,317,397,465,532,575,631,643,625,630,614,606,595,585,565,555,545,534,524,514,504,495,496,488,464,466,444,435,435,413,396,387,319,319,319,305,309,305,307,309,312,309,320,306,308,307,307,308,310,311,317,314,309,311,311,309,311,309,309,309,309,309,326,337,305,338,351,325,449,525,554,626,648,605,595,619,612,566,593,584,576,561,554,508,498,524,514,468,494,488,440,467,420,412,404,386,312,307,308,354,260,260,256,258,263,263,264,270,258,259,260,264,264,261,262,264,265,264,263,265,261,262,261,261,261,261,261,671,673,676,678,698,1000,1073,1331,1440,1496,1478,1458,1431,1403,1376,1351,1321,1293,1267,1265,1235,1183,1146,1129,1101,1074,1038,1019,992,955,937,909,856,795,678,682,686,685,684,675,683,690,682,704,686,731,690,702,697,682,689,691,702,705,698,695,692,688,704,693,692,692,685,727,691,0,0,0,0,0,0,0,0,0,0,0,0,0,0,0,0,0,0,0,0,0,0,0,0,0,0,0,0,0,0,0,0,0,0,0,0,0,0,0,0,0,0,0,0,0,0,0,0,0,0,0,0,0,0,0,0,0,0,0,0,0,0,0,0,0,281,282,283,283,285,361,408,455,515,562,573,564,555,546,536,527,518,510,500,491,482,473,464,455,446,436,427,419,409,401,391,382,372,364,355,303,303,304,258,267,265,273,271,273,267,276,265,267,273,268,263,274,278,278,280,268,267,267,283,283,260,267,264,268,263,0,0,0,0,0,0,0,0,0,0,0,0,0,0,0,0,0,0,0,0,0,0,0,0,0,0,0,0,0,0,0,0,0,0,0,0,0,0,0,0,0,0,0,0,0,0,0,0,0,0,0,0,0,0,0,0,0,0,0,0,0,0,0,0,0,729,732,733,759,760,937,1139,1303,1385,1470,1490,1471,1447,1423,1397,1379,1351,1327,1312,1248,1263,1238,1195,1145,1168,1143,1119,1094,1065,1032,972,869,817,784,765,729,765,731,701,699,702,713,712,710,717,712,711,716,719,710,715,713,712,722,715,717,715,711,716,718,719,722,721,722,717,882,885,887,893,907,1123,1421,1580,1700,1747,1741,1727,1686,1659,1631,1604,1574,1549,1519,1506,1465,1448,1410,1382,1354,1328,1299,1272,1245,1226,1102,959,928,923,897,908,896,892,865,869,867,878,876,880,878,898,885,877,885,877,874,885,880,891,887,891,890,888,887,887,886,895,892,897,888,332,333,334,334,340,426,483,539,617,667,677,661,656,644,633,623,612,598,590,579,568,556,551,536,529,514,503,493,485,471,460,449,438,429,384,341,342,339,316,325,322,326,328,334,326,332,321,327,322,320,323,335,331,332,331,328,326,326,339,344,323,326,321,328,323,432,434,436,437,441,493,645,721,802,868,878,871,851,843,820,814,801,781,772,752,738,724,710,696,682,667,654,640,625,611,597,539,501,489,442,440,441,447,409,414,413,418,426,427,425,439,425,439,419,428,424,426,429,434,427,423,426,428,425,438,430,431,418,429,421,865,846,847,852,913,1068,1363,1524,1630,1678,1674,1647,1626,1612,1567,1541,1529,1487,1474,1447,1406,1390,1366,1340,1312,1304,1258,1232,1192,1013,1013,911,904,888,867,877,857,849,824,821,825,827,829,828,835,834,834,831,833,833,831,837,833,838,834,832,836,830,826,831,827,833,828,832,826,587,588,590,593,596,750,886,989,1100,1178,1186,1172,1157,1128,1103,1095,1073,1048,1028,1009,1000,982,962,944,915,906,877,868,850,821,812,641,646,611,598,595,596,592,558,570,566,572,577,582,574,584,569,573,565,566,572,580,581,581,580,577,573,573,585,590,570,572,569,576,569,582,579,586,586,613,684,869,1007,1123,1181,1157,1151,1133,1102,1083,1077,1095,1040,1009,1002,973,968,936,918,912,891,873,855,820,799,781,747,657,642,588,585,593,587,514,525,517,526,528,534,532,541,518,523,518,517,519,526,527,527,526,523,519,519,539,536,516,518,515,522,517,838,843,843,853,898,1205,1366,1515,1607,1662,1670,1644,1668,1591,1565,1548,1511,1485,1458,1432,1405,1381,1355,1325,1306,1272,1246,1218,1192,1166,1139,989,889,868,855,851,853,855,857,844,849,848,869,870,858,864,864,876,875,869,892,894,893,873,885,882,861,888,872,867,867,884,873,886,862,281,282,283,283,285,361,408,455,515,562,573,564,555,546,536,527,518,510,500,491,482,473,464,455,446,436,427,419,409,401,391,382,372,364,355,303,303,304,258,267,265,273,271,273,267,276,265,267,273,268,263,274,278,278,280,268,267,267,283,283,260,267,264,268,263,818,819,823,825,838,1068,1289,1441,1591,1633,1611,1586,1559,1534,1531,1495,1461,1431,1405,1389,1354,1360,1302,1285,1251,1241,1214,1173,1155,1122,1039,957,855,853,824,820,832,766,737,743,737,733,756,753,751,755,749,753,758,761,752,759,760,763,765,771,763,767,762,764,764,760,748,758,753,832,834,837,845,855,1093,1350,1512,1619,1664,1662,1635,1615,1581,1554,1532,1526,1474,1459,1420,1393,1379,1344,1317,1290,1264,1236,1210,1129,1103,1020,940,891,866,859,850,839,763,735,732,734,733,753,745,746,756,738,750,747,751,743,750,757,754,756,760,761,758,754,756,755,748,741,751,746,0,0,0,0,0,0,0,0,0,0,0,0,0,0,0,0,0,0,0,0,0,0,0,0,0,0,0,0,0,0,0,0,0,0,0,0,0,0,0,0,0,0,0,0,0,0,0,0,0,0,0,0,0,0,0,0,0,0,0,0,0,0,0,0,0,572,574,585,577,623,786,870,968,1088,1135,1141,1123,1123,1087,1092,1052,1049,1015,998,979,961,944,925,922,904,885,854,836,817,813,782,764,611,606,584,580,624,619,574,568,573,576,573,583,579,581,583,586,580,582,581,586,581,585,581,586,585,585,581,596,584,586,580,597,582,907,905,914,922,933,1193,1468,1627,1762,1808,1788,1750,1743,1690,1697,1644,1609,1581,1573,1539,1492,1494,1434,1424,1386,1385,1345,1295,1165,1134,1048,989,949,941,916,909,866,822,803,790,798,805,813,814,815,811,805,809,814,817,808,814,815,819,821,827,819,823,818,820,820,816,804,814,809,483,487,489,489,497,657,742,826,911,978,986,971,952,937,916,905,909,876,860,844,829,816,797,782,768,743,735,712,702,687,670,657,639,510,504,500,491,457,432,425,430,433,438,441,432,441,437,437,440,443,436,443,442,445,450,450,442,444,440,447,444,443,432,445,436,307,308,309,362,380,401,452,503,552,601,617,607,598,588,578,568,559,550,540,531,521,511,501,492,482,473,464,454,444,434,414,405,396,386,308,381,382,383,291,291,293,295,295,297,294,295,294,303,298,297,299,299,304,305,304,303,306,304,304,305,307,308,305,306,306,921,933,900,941,993,1228,1511,1674,1745,1832,1834,1799,1796,1751,1722,1655,1650,1625,1612,1529,1537,1527,1495,1463,1378,1403,1368,1242,1188,1108,1093,1025,946,954,938,937,931,935,917,910,918,918,937,932,929,943,933,927,937,937,933,944,934,946,948,951,945,939,941,943,946,948,936,944,939,944,947,923,966,997,1252,1542,1707,1778,1862,1856,1838,1793,1769,1746,1689,1679,1660,1634,1555,1573,1545,1509,1476,1404,1426,1394,1366,1293,1163,1068,1053,969,974,966,958,928,929,912,901,911,909,924,926,925,922,916,920,925,928,919,926,925,930,932,938,930,933,929,931,931,927,915,925,920,1267,1271,1280,1322,1633,1944,2368,2506,2571,2610,2618,2526,2497,2463,2429,2367,2351,2302,2256,2141,2127,2102,2073,2006,1920,1933,1886,1829,1657,1598,1533,1377,1309,1303,1279,1292,1299,1297,1294,1288,1286,1306,1307,1319,1315,1304,1296,1299,1306,1307,1298,1314,1310,1315,1313,1321,1309,1311,1312,1314,1313,1324,1302,1312,1307,818,819,823,825,838,1068,1289,1441,1591,1633,1611,1586,1559,1534,1531,1495,1461,1431,1405,1389,1354,1360,1302,1285,1251,1241,1214,1173,1155,1122,1039,957,855,853,824,820,832,766,737,743,737,733,756,753,751,755,749,753,758,761,752,759,760,763,765,771,763,767,762,764,764,760,748,758,753,889,891,894,892,936,1272,1436,1646,1718,1776,1771,1735,1725,1686,1632,1638,1598,1571,1521,1513,1486,1456,1437,1403,1372,1347,1322,1191,1164,1153,972,1072,972,920,905,902,898,872,863,869,871,867,867,867,867,867,867,867,867,867,867,867,867,867,867,867,867,867,867,867,867,867,867,867,867,926,935,932,942,1011,1286,1535,1700,1807,1844,1835,1809,1779,1768,1696,1707,1658,1644,1615,1587,1540,1525,1496,1465,1435,1406,1375,1325,1267,1240,1130,1037,990,965,949,937,919,869,861,870,868,868,868,868,868,868,868,868,868,868,868,868,868,868,868,868,868,868,868,868,868,868,868,868,868,536,538,540,541,549,767,862,957,1016,1117,1072,1097,1080,1021,1052,987,971,1009,1004,920,955,937,919,908,882,819,834,786,798,752,735,718,701,560,548,544,546,547,538,534,544,538,545,545,544,544,545,545,545,545,545,545,545,545,545,545,545,545,545,545,545,545,545,545,545,0,0,0,0,0,0,0,0,0,0,0,0,0,0,0,0,0,0,0,0,0,0,0,0,0,0,0,0,0,0,0,0,0,0,0,0,0,0,0,0,0,0,0,0,0,0,0,0,0,0,0,0,0,0,0,0,0,0,0,0,0,0,0,0,0,976,978,953,988,1028,1418,1608,1792,1850,1910,1878,1848,1867,1789,1758,1728,1698,1691,1659,1607,1576,1549,1536,1487,1456,1427,1412,1400,1266,1137,1044,1119,996,975,964,962,900,901,896,896,896,896,896,896,896,896,896,896,896,896,896,896,896,896,896,896,896,896,896,896,896,896,896,896,896,611,613,616,622,655,737,956,1051,1157,1229,1232,1212,1193,1162,1153,1140,1120,1100,1080,1061,1037,1016,995,980,961,936,920,897,880,862,735,719,654,638,641,627,642,563,559,565,567,567,567,567,567,567,567,567,567,567,567,567,567,567,567,567,567,567,567,567,567,567,567,567,567,341,342,342,343,344,449,508,567,625,724,689,678,667,656,645,634,623,612,602,591,580,569,558,547,536,525,514,503,492,482,471,460,449,438,357,352,353,354,328,333,335,338,333,334,333,335,333,331,334,332,331,329,331,333,333,333,332,332,329,332,331,334,332,334,333,837,839,813,820,867,1196,1344,1508,1624,1656,1630,1593,1568,1532,1507,1481,1467,1458,1467,1378,1364,1336,1322,1276,1259,1224,1222,1238,1147,1122,1096,1033,886,835,844,867,816,820,823,825,828,828,827,827,827,827,827,827,827,827,827,827,827,827,827,827,827,827,827,827,827,827,827,827,827,823,826,845,845,895,1235,1373,1550,1665,1676,1648,1622,1599,1573,1545,1508,1481,1486,1447,1415,1377,1360,1355,1308,1283,1255,1245,1270,1179,1154,921,910,878,858,867,836,813,814,818,819,818,818,818,818,818,818,818,818,818,818,818,818,818,818,818,818,818,818,818,818,818,818,818,818,818,1146,1150,1155,1205,1474,1884,2073,2312,2385,2427,2371,2340,2297,2254,2212,2171,2129,2086,2063,2001,1949,1916,1895,1831,1798,1770,1727,1685,1645,1485,1285,1242,1209,1185,1166,1169,1181,1151,1137,1137,1137,1137,1137,1137,1137,1137,1137,1137,1137,1137,1137,1137,1137,1137,1137,1137,1137,1137,1137,1137,1137,1137,1137,1137,1137,889,891,894,892,936,1272,1436,1646,1718,1776,1771,1735,1725,1686,1632,1638,1598,1571,1521,1513,1486,1456,1437,1403,1372,1347,1322,1191,1164,1153,972,1072,972,920,905,902,898,872,863,869,871,867,867,867,867,867,867,867,867,867,867,867,867,867,867,867,867,867,867,867,867,867,867,867,867,128,129,129,130,130,163,184,206,227,249,262,272,268,250,246,242,238,234,229,225,221,217,213,209,204,201,196,192,188,184,180,176,171,167,163,153,153,160,108,103,103,103,109,108,109,106,106,109,107,109,110,110,110,110,109,108,109,109,111,112,109,109,109,109,108,332,332,333,335,343,362,473,521,573,625,639,630,621,611,610,593,583,574,565,555,546,540,530,518,508,501,489,481,471,462,453,376,368,355,352,337,338,339,264,264,264,264,264,264,264,264,264,264,264,264,264,264,264,264,263,263,264,264,264,264,264,264,264,264,263,775,795,773,781,863,957,1249,1406,1483,1573,1571,1547,1527,1450,1471,1447,1406,1396,1377,1349,1320,1295,1272,1255,1228,1204,1176,1148,1113,1051,928,824,801,815,807,769,805,769,743,741,747,752,753,751,752,752,750,755,756,750,756,753,758,761,757,761,757,756,763,761,764,763,763,763,759,893,897,898,904,942,1207,1429,1594,1711,1772,1777,1753,1726,1681,1653,1626,1608,1581,1540,1512,1498,1472,1430,1401,1391,1375,1318,1307,1274,1104,1073,989,942,921,929,908,903,905,868,866,874,880,878,889,886,890,888,888,890,885,889,890,890,890,889,886,890,890,890,887,882,887,890,890,883,0,0,0,0,0,0,0,0,0,0,0,0,0,0,0,0,0,0,0,0,0,0,0,0,0,0,0,0,0,0,0,0,0,0,0,0,0,0,0,0,0,0,0,0,0,0,0,0,0,0,0,0,0,0,0,0,0,0,0,0,0,0,0,0,0,474,475,476,478,502,529,727,810,893,960,963,948,946,923,905,887,864,857,844,829,804,788,771,763,742,730,711,696,557,673,531,518,503,517,507,479,480,498,451,454,458,460,463,462,469,468,456,472,463,461,465,463,463,468,466,462,465,460,465,466,472,472,465,471,465,855,857,860,864,898,1189,1365,1527,1641,1705,1698,1670,1656,1632,1589,1563,1546,1516,1488,1467,1440,1400,1373,1346,1331,1305,1265,1250,1222,1144,988,948,902,882,881,868,870,863,833,834,828,842,843,843,840,841,843,841,837,842,840,842,841,840,844,844,844,840,843,842,837,837,837,837,836,316,317,318,319,321,417,466,527,573,632,643,633,623,606,601,592,574,571,561,545,535,531,521,505,499,489,473,469,459,448,438,429,418,409,397,330,331,375,288,289,288,294,295,294,292,320,287,295,294,289,291,310,294,294,294,295,294,294,303,295,293,293,292,294,292,270,271,271,309,273,353,399,445,491,535,548,540,531,522,513,504,496,488,479,470,462,453,473,435,426,445,410,426,392,383,375,366,357,349,279,274,275,346,256,255,253,255,258,256,256,259,255,258,256,258,259,265,261,272,262,260,260,261,257,268,260,261,261,262,259,670,672,675,674,676,972,1141,1291,1420,1478,1452,1446,1438,1384,1372,1332,1305,1278,1251,1231,1189,1176,1146,1119,1093,1065,1039,1013,986,952,925,742,720,724,684,679,683,679,674,667,672,674,671,678,680,678,678,682,726,678,680,720,718,688,719,685,683,682,683,691,684,692,683,727,726,128,129,129,130,130,163,184,206,227,249,262,272,268,250,246,242,238,234,229,225,221,217,213,209,204,201,196,192,188,184,180,176,171,167,163,153,153,160,108,103,103,103,109,108,109,106,106,109,107,109,110,110,110,110,109,108,109,109,111,112,109,109,109,109,108,466,467,514,470,520,549,718,801,885,935,941,926,911,896,881,866,851,837,821,806,792,776,761,746,731,716,701,686,672,656,641,595,581,487,477,473,474,475,443,437,452,444,440,450,444,450,449,451,451,450,451,452,451,450,450,451,453,453,453,454,454,454,451,450,451,423,423,426,427,428,534,624,694,766,837,859,842,829,818,804,789,775,764,746,733,719,706,694,680,667,652,641,623,613,597,583,570,555,465,433,428,432,419,397,401,404,430,406,402,397,406,402,404,410,405,405,406,407,409,407,410,402,400,405,408,405,403,406,412,401,465,467,469,470,472,601,678,757,834,925,933,918,904,889,874,860,845,835,823,809,794,781,765,748,736,720,707,691,675,662,611,587,573,564,485,476,483,484,456,448,454,453,456,457,450,457,459,458,459,458,458,459,460,460,467,465,457,460,458,463,464,462,465,470,462,668,670,672,683,698,816,1061,1187,1286,1330,1329,1308,1287,1281,1244,1224,1203,1182,1162,1141,1120,1099,1078,1057,1036,1014,993,1008,938,931,899,868,806,694,681,677,680,675,673,663,669,676,666,676,673,685,683,679,684,676,676,679,685,683,684,676,683,685,679,676,679,686,672,690,678,550,560,562,564,568,654,874,981,1054,1107,1111,1101,1093,1072,1061,1041,1031,986,972,974,946,940,924,906,895,855,825,811,790,714,699,674,658,575,575,561,566,536,504,498,502,514,505,506,508,510,505,507,507,506,507,508,506,505,506,507,509,509,509,510,510,510,507,506,507,0,0,0,0,0,0,0,0,0,0,0,0,0,0,0,0,0,0,0,0,0,0,0,0,0,0,0,0,0,0,0,0,0,0,0,0,0,0,0,0,0,0,0,0,0,0,0,0,0,0,0,0,0,0,0,0,0,0,0,0,0,0,0,0,0,585,578,588,590,583,670,906,988,1090,1173,1169,1139,1133,1123,1086,1066,1048,1040,1026,1011,988,971,948,931,911,922,853,856,827,820,800,772,703,640,598,577,586,580,576,578,577,588,578,581,577,584,578,586,584,580,586,582,585,582,585,592,590,592,585,581,590,601,585,582,577,644,646,661,651,684,802,1014,1144,1254,1304,1305,1270,1262,1232,1222,1190,1168,1161,1126,1107,1095,1064,1056,1035,1014,982,962,941,932,891,848,767,769,669,670,654,685,652,624,617,619,625,625,631,623,628,637,635,625,629,627,633,637,624,633,634,634,636,632,635,642,641,639,638,636,658,668,638,684,688,818,1030,1144,1264,1310,1270,1250,1269,1252,1233,1212,1192,1128,1108,1129,1068,1048,1027,1048,1023,1009,947,927,906,886,865,790,760,684,671,676,670,649,615,609,612,619,615,621,617,620,616,618,618,617,618,619,618,615,617,618,620,620,620,621,621,621,618,617,618,1004,1006,1009,1030,1144,1416,1773,2003,2094,2125,2112,2070,2031,1998,1961,1923,1886,1849,1811,1798,1727,1699,1715,1632,1587,1549,1503,1475,1437,1400,1310,1084,1053,1032,1021,1021,1026,1026,986,996,997,993,1013,1001,1011,1014,998,1014,997,998,997,998,1006,1000,1002,999,1003,999,997,1004,1004,1003,1015,1004,1005,466,467,514,470,520,549,718,801,885,935,941,926,911,896,881,866,851,837,821,806,792,776,761,746,731,716,701,686,672,656,641,595,581,487,477,473,474,475,443,437,452,444,440,450,444,450,449,451,451,450,451,452,451,450,450,451,453,453,453,454,454,454,451,450,451,711,713,721,719,742,876,1147,1263,1378,1438,1399,1401,1383,1370,1333,1310,1296,1265,1241,1233,1205,1186,1159,1126,1138,1083,1071,987,920,899,867,847,743,725,742,727,724,710,674,686,678,675,693,692,693,715,697,693,702,697,698,696,697,700,694,698,702,708,701,699,700,699,695,697,692,748,754,752,765,810,1028,1206,1350,1458,1520,1489,1464,1455,1431,1412,1388,1353,1338,1314,1290,1266,1240,1182,1192,1190,1145,1122,1099,1073,999,874,843,778,759,772,770,762,710,672,675,675,675,690,684,688,718,686,690,703,687,689,687,694,691,685,687,700,699,693,691,691,687,688,690,685,237,238,238,239,263,298,337,373,412,449,475,467,460,454,446,438,431,424,416,409,402,394,387,381,373,365,358,350,343,337,328,321,314,306,300,294,294,296,216,218,217,219,219,226,223,241,226,220,243,221,225,221,220,224,225,221,221,225,219,218,220,221,220,224,217,440,431,442,434,435,543,616,672,735,792,802,796,778,766,753,748,729,723,706,699,682,670,664,647,635,623,617,605,586,580,563,451,451,432,440,436,438,432,393,398,388,392,403,402,404,402,396,401,402,414,403,396,400,405,407,399,404,402,398,401,396,399,401,404,393,802,810,791,809,851,1043,1311,1453,1550,1608,1567,1566,1540,1531,1493,1468,1440,1415,1391,1365,1364,1316,1297,1228,1277,1218,1188,1168,1128,1054,947,907,836,819,825,828,785,750,740,733,739,747,750,753,757,759,753,749,763,753,754,751,752,756,750,754,758,761,754,755,756,755,751,753,748,430,432,433,435,455,557,630,705,819,869,877,862,848,834,821,806,792,778,764,757,743,728,714,700,687,672,658,644,629,615,601,586,486,475,463,470,474,450,369,368,371,375,375,380,374,404,385,377,398,379,382,380,379,382,381,380,381,385,379,382,380,382,379,384,375,0,0,0,0,0,0,0,0,0,0,0,0,0,0,0,0,0,0,0,0,0,0,0,0,0,0,0,0,0,0,0,0,0,0,0,0,0,0,0,0,0,0,0,0,0,0,0,0,0,0,0,0,0,0,0,0,0,0,0,0,0,0,0,0,0,822,785,790,795,826,1123,1291,1440,1540,1673,1588,1613,1522,1545,1509,1435,1414,1443,1413,1377,1306,1326,1303,1224,1309,1186,1160,1184,1057,884,976,964,864,826,850,794,803,823,809,811,819,818,822,794,823,832,822,819,834,831,835,839,839,845,843,804,830,828,833,837,809,843,824,820,819,798,808,820,819,860,1152,1321,1477,1575,1660,1618,1611,1551,1577,1488,1474,1451,1462,1437,1410,1342,1358,1336,1256,1331,1217,1193,1205,1174,933,947,995,888,848,856,827,800,817,804,805,818,827,827,789,819,833,817,814,830,824,827,833,830,839,835,796,819,822,825,828,804,835,819,815,814,1119,1143,1149,1173,1435,1857,2111,2301,2315,2418,2379,2358,2295,2294,2209,2129,2073,2120,2053,1966,1950,1932,1907,1813,1847,1721,1702,1665,1609,1271,1264,1273,1206,1190,1168,1162,1170,1172,1156,1163,1165,1184,1189,1175,1180,1179,1198,1189,1182,1182,1185,1202,1198,1210,1207,1198,1189,1191,1198,1195,1188,1197,1199,1194,1191,711,713,721,719,742,876,1147,1263,1378,1438,1399,1401,1383,1370,1333,1310,1296,1265,1241,1233,1205,1186,1159,1126,1138,1083,1071,987,920,899,867,847,743,725,742,727,724,710,674,686,678,675,693,692,693,715,697,693,702,697,698,696,697,700,694,698,702,708,701,699,700,699,695,697,692,380,381,382,384,386,433,558,628,666,714,735,725,715,707,698,688,678,669,659,652,641,632,635,623,594,591,577,570,558,546,524,498,442,399,426,386,387,387,281,281,279,286,298,291,286,309,286,301,293,305,291,290,294,294,294,287,294,296,285,292,288,310,291,291,291,602,614,606,608,620,747,918,1036,1139,1184,1194,1179,1162,1147,1130,1123,1103,1084,1066,1047,1029,1012,989,970,929,918,912,881,861,829,783,688,672,626,625,621,612,615,499,498,498,502,507,502,501,504,501,509,505,509,519,519,518,510,506,501,505,505,500,502,503,506,502,504,504,867,868,873,876,927,1190,1396,1545,1654,1695,1702,1675,1661,1619,1557,1551,1509,1538,1471,1461,1455,1391,1352,1325,1330,1309,1274,1251,1222,1075,922,939,921,893,884,879,882,851,787,788,787,792,799,793,793,797,793,800,795,799,798,793,796,801,799,797,800,798,800,803,802,806,803,802,802,817,827,822,833,852,1084,1284,1428,1552,1606,1617,1600,1567,1559,1516,1491,1473,1441,1415,1391,1365,1359,1315,1289,1265,1240,1199,1151,1137,1088,1064,934,886,878,862,841,847,841,800,797,798,808,813,810,801,808,805,803,813,813,809,813,814,817,814,817,813,816,812,826,806,820,816,813,812,357,360,361,362,363,392,523,581,662,713,734,720,708,698,685,674,665,652,641,631,618,606,597,584,554,551,540,528,517,505,494,405,395,386,408,364,365,366,244,243,244,248,253,248,247,250,247,255,251,255,274,271,272,255,251,247,251,251,246,248,249,252,248,250,250,627,630,631,633,658,826,972,1080,1186,1249,1265,1244,1224,1205,1190,1170,1150,1130,1112,1092,1069,1044,1032,1006,971,957,937,917,897,876,856,799,747,686,640,633,638,626,557,557,556,557,563,560,558,561,558,564,560,563,560,557,558,559,559,558,561,559,557,560,559,563,560,559,559,879,876,879,888,938,1257,1416,1581,1688,1733,1740,1716,1687,1661,1632,1605,1578,1551,1524,1502,1468,1441,1414,1399,1335,1331,1288,1260,1175,1105,1001,942,939,900,889,886,895,881,833,833,832,833,839,836,834,837,834,840,836,839,836,833,834,835,835,834,837,835,833,836,835,839,836,835,835,0,0,0,0,0,0,0,0,0,0,0,0,0,0,0,0,0,0,0,0,0,0,0,0,0,0,0,0,0,0,0,0,0,0,0,0,0,0,0,0,0,0,0,0,0,0,0,0,0,0,0,0,0,0,0,0,0,0,0,0,0,0,0,0,0,97,97,115,119,119,122,137,152,168,183,195,192,189,187,183,180,177,174,171,168,165,162,159,156,152,150,147,144,140,138,135,132,129,126,123,121,121,121,55,55,54,55,61,58,56,59,56,62,58,61,58,55,56,57,57,56,59,57,55,58,57,61,58,57,57,461,462,479,465,485,616,728,840,951,1043,1065,1038,1017,997,977,958,938,917,904,877,858,861,817,803,777,757,737,717,697,668,654,636,622,488,472,490,472,475,454,451,453,455,451,462,459,459,459,461,485,458,456,462,458,465,459,461,460,460,460,461,462,460,460,493,463,380,381,382,384,386,433,558,628,666,714,735,725,715,707,698,688,678,669,659,652,641,632,635,623,594,591,577,570,558,546,524,498,442,399,426,386,387,387,281,281,279,286,298,291,286,309,286,301,293,305,291,290,294,294,294,287,294,296,285,292,288,310,291,291,291,306,306,307,308,309,389,443,495,530,567,582,574,567,560,553,546,539,532,524,516,509,502,503,493,492,483,456,449,442,433,423,413,403,356,314,310,311,312,226,225,223,231,238,233,231,253,230,240,236,251,239,242,240,261,237,228,233,239,236,239,239,239,239,239,239,527,529,531,532,542,642,779,897,992,1038,1045,1029,1014,1001,985,980,962,941,928,911,897,877,860,843,827,809,788,774,759,741,680,667,655,594,540,535,537,538,444,442,442,447,447,444,446,448,445,448,448,455,467,471,464,477,449,442,444,448,451,449,449,449,449,449,449,790,793,793,798,805,903,1258,1401,1522,1571,1507,1483,1523,1496,1429,1436,1368,1387,1368,1293,1318,1300,1224,1197,1226,1191,1173,1141,1121,971,952,856,838,825,783,777,781,774,732,729,740,745,759,760,748,763,763,766,759,757,762,756,758,777,757,753,764,766,757,758,758,758,758,758,758,837,846,842,850,899,1170,1382,1514,1614,1662,1672,1633,1604,1577,1551,1523,1502,1476,1446,1420,1394,1368,1345,1318,1288,1263,1237,1211,1186,1136,1091,905,884,864,852,849,854,847,825,824,826,832,833,835,832,830,829,835,831,832,835,837,840,834,839,839,839,839,830,834,834,834,834,834,834,285,286,288,288,290,358,406,457,505,552,582,574,563,554,545,536,527,519,510,500,491,481,469,458,449,441,430,421,412,403,394,385,376,303,292,299,292,303,189,187,188,193,193,190,192,194,191,194,194,201,221,223,220,222,194,188,190,194,197,195,195,195,195,195,195,549,553,555,557,559,685,855,955,1049,1108,1116,1098,1082,1062,1045,1027,1008,991,973,950,937,916,899,885,867,848,830,812,791,776,758,706,625,587,565,557,567,561,502,499,511,517,521,531,513,528,523,524,528,529,533,530,529,549,519,520,529,536,524,517,517,517,517,517,517,798,801,803,810,854,1141,1295,1443,1540,1589,1585,1562,1537,1512,1487,1465,1436,1424,1386,1373,1337,1310,1296,1262,1237,1208,1183,1158,1133,1068,885,876,864,825,813,810,812,804,778,774,779,785,787,773,784,801,783,787,780,784,781,801,794,794,789,793,792,788,800,805,805,805,802,805,804,174,175,175,176,176,181,241,301,320,349,359,357,354,351,348,335,330,327,323,319,315,310,307,303,299,261,256,251,246,242,238,233,187,183,180,177,177,178,139,138,139,139,139,139,141,160,144,140,140,141,138,141,141,147,142,139,141,140,139,139,139,139,139,139,139,0,0,0,0,0,0,0,0,0,0,0,0,0,0,0,0,0,0,0,0,0,0,0,0,0,0,0,0,0,0,0,0,0,0,0,0,0,0,0,0,0,0,0,0,0,0,0,0,0,0,0,0,0,0,0,0,0,0,0,0,0,0,0,0,0,593,595,598,597,606,791,921,1134,1260,1315,1318,1292,1258,1235,1217,1193,1171,1147,1123,1097,1066,1049,1024,1000,970,944,920,905,872,856,835,808,648,633,606,604,608,612,563,560,564,568,569,579,574,576,572,573,586,575,571,578,574,582,576,575,578,575,576,576,576,576,576,576,576,306,306,307,308,309,389,443,495,530,567,582,574,567,560,553,546,539,532,524,516,509,502,503,493,492,483,456,449,442,433,423,413,403,356,314,310,311,312,226,225,223,231,238,233,231,253,230,240,236,251,239,242,240,261,237,228,233,239,236,239,239,239,239,239,239,827,820,833,835,870,1204,1381,1610,1720,1774,1756,1731,1695,1664,1638,1620,1571,1525,1511,1478,1447,1446,1386,1354,1322,1292,1262,1242,1162,1080,1051,1022,966,857,842,840,844,847,841,850,850,842,839,858,858,858,863,863,853,841,848,865,884,851,861,856,856,875,856,857,856,881,843,845,841,889,892,901,913,952,1245,1412,1575,1714,1779,1784,1756,1729,1698,1670,1643,1613,1585,1557,1530,1500,1470,1442,1414,1385,1357,1329,1299,1272,1244,1116,1089,947,926,912,909,923,915,888,890,897,901,915,900,905,912,902,903,900,905,913,914,906,917,924,916,915,915,908,903,911,908,908,908,908,1311,1304,1308,1348,1613,2114,2377,2581,2642,2670,2588,2606,2554,2456,2494,2422,2378,2326,2283,2184,2153,2108,2128,2060,2004,1861,1819,1757,1681,1623,1451,1390,1356,1335,1319,1320,1283,1280,1275,1275,1273,1288,1285,1280,1279,1308,1273,1281,1279,1278,1281,1304,1289,1283,1313,1287,1289,1289,1306,1311,1281,1286,1284,1285,1278,1063,1055,1059,1169,1176,1632,1896,2073,2202,2213,2207,2168,2120,2082,2063,2023,2039,2025,1890,1882,1829,1790,1806,1699,1662,1643,1562,1524,1463,1426,1188,1140,1141,1101,1070,1069,1073,1079,1083,1080,1086,1090,1094,1086,1092,1099,1093,1098,1093,1100,1102,1116,1109,1111,1106,1130,1110,1101,1106,1112,1112,1116,1099,1100,1097,777,774,781,788,839,1060,1232,1377,1495,1567,1561,1536,1512,1485,1468,1437,1411,1392,1362,1337,1312,1286,1262,1237,1212,1188,1167,1136,1117,1087,999,976,847,812,795,783,779,778,765,760,764,761,765,771,770,768,771,787,778,778,770,777,795,780,775,792,785,798,778,774,775,793,791,781,777,1087,1062,1065,1102,1281,1670,1909,2150,2196,2230,2214,2177,2137,2099,2107,2020,1981,1942,1902,1864,1828,1793,1798,1711,1673,1634,1639,1598,1517,1446,1227,1147,1116,1089,1073,1076,1066,1060,1050,1052,1069,1073,1068,1074,1062,1072,1075,1083,1082,1076,1083,1096,1088,1078,1124,1098,1100,1099,1090,1107,1092,1096,1090,1096,1089,1241,1225,1231,1276,1480,1959,2286,2399,2529,2557,2539,2493,2460,2405,2332,2308,2263,2218,2173,2129,2099,2012,1976,1943,1899,1871,1820,1790,1667,1506,1490,1347,1315,1277,1254,1236,1216,1213,1208,1208,1206,1221,1218,1213,1212,1241,1206,1214,1212,1211,1214,1237,1222,1216,1246,1220,1222,1222,1239,1244,1214,1219,1217,1218,1211,550,551,568,554,566,782,921,1057,1175,1230,1230,1207,1184,1162,1139,1116,1094,1071,1048,1025,1003,980,957,935,911,888,865,864,820,797,774,615,596,577,561,559,562,566,561,570,587,600,582,557,573,619,595,561,592,591,572,589,598,596,660,558,585,586,624,591,567,589,581,568,567,631,634,635,636,652,883,1016,1172,1291,1343,1345,1320,1295,1272,1249,1226,1203,1180,1157,1133,1111,1086,1062,1039,1016,993,969,946,922,903,876,744,722,659,643,641,644,621,616,624,612,609,622,613,625,626,628,619,624,625,623,626,647,619,629,617,626,641,624,622,628,647,629,625,624,0,0,0,0,0,0,0,0,0,0,0,0,0,0,0,0,0,0,0,0,0,0,0,0,0,0,0,0,0,0,0,0,0,0,0,0,0,0,0,0,0,0,0,0,0,0,0,0,0,0,0,0,0,0,0,0,0,0,0,0,0,0,0,0,0,827,820,833,835,870,1204,1381,1610,1720,1774,1756,1731,1695,1664,1638,1620,1571,1525,1511,1478,1447,1446,1386,1354,1322,1292,1262,1242,1162,1080,1051,1022,966,857,842,840,844,847,841,850,850,842,839,858,858,858,863,863,853,841,848,865,884,851,861,856,856,875,856,857,856,881,843,845,841,0,0,0,0,0,0,0,0,0,0,0,0,0,0,0,0,0,0,0,0,0,0,0,0,0,0,0,0,0,0,0,0,0,0,0,0,0,0,0,0,0,0,0,0,0,0,0,0,0,0,0,0,0,0,0,0,0,0,0,0,0,0,0,0,0,339,374,341,342,342,477,509,589,629,702,689,678,688,656,645,634,623,632,620,590,579,568,575,564,535,524,513,519,491,480,469,458,447,436,438,406,344,345,334,335,339,341,334,341,335,340,342,334,341,333,335,335,336,341,336,339,338,340,338,342,336,345,335,341,338,689,724,723,728,735,844,1124,1285,1396,1437,1435,1410,1390,1368,1345,1296,1242,1277,1212,1234,1156,1186,1110,1089,1069,1092,1070,1058,1028,918,867,850,829,806,736,730,733,723,686,685,688,703,715,705,700,713,699,713,708,715,714,716,717,737,718,706,713,717,714,716,712,737,719,720,714,767,770,771,776,814,1104,1247,1390,1550,1525,1521,1497,1473,1464,1426,1400,1433,1353,1329,1306,1281,1257,1233,1222,1217,1191,1137,1117,1089,1065,1039,832,812,793,782,779,774,775,777,781,779,783,786,789,787,786,788,783,789,787,791,788,793,793,795,798,788,792,789,801,799,823,800,796,793,198,200,199,200,201,256,287,339,339,398,413,405,400,407,389,381,375,369,363,340,334,349,344,338,333,319,302,297,291,283,277,270,264,257,250,209,210,248,144,149,145,148,157,153,149,153,148,154,150,155,148,147,148,150,148,147,152,149,148,152,149,149,149,149,149,463,464,466,469,468,576,710,792,874,938,945,929,914,899,872,862,884,839,826,809,819,779,759,748,727,721,702,682,619,622,607,592,564,558,473,475,468,467,458,454,458,464,473,476,468,470,464,476,470,471,480,482,485,490,480,473,473,478,479,472,473,482,479,478,470,729,730,733,736,770,1025,1183,1323,1469,1469,1454,1431,1408,1384,1361,1338,1325,1288,1279,1245,1222,1199,1175,1152,1129,1106,1092,1060,1037,1014,959,934,773,754,769,739,741,733,725,731,725,739,736,752,731,735,742,732,730,733,730,732,731,730,735,739,735,731,732,736,738,744,748,753,739,313,321,315,315,317,397,465,532,575,631,643,625,630,614,606,595,585,565,555,545,534,524,514,504,495,496,488,464,466,444,435,435,413,396,387,319,319,319,305,309,305,307,309,312,309,320,306,308,307,307,308,310,311,317,314,309,311,311,309,311,309,309,309,309,309,326,337,305,338,351,325,449,525,554,626,648,605,595,619,612,566,593,584,576,561,554,508,498,524,514,468,494,488,440,467,420,412,404,386,312,307,308,354,260,260,256,258,263,263,264,270,258,259,260,264,264,261,262,264,265,264,263,265,261,262,261,261,261,261,261,671,673,676,678,698,1000,1073,1331,1440,1496,1478,1458,1431,1403,1376,1351,1321,1293,1267,1265,1235,1183,1146,1129,1101,1074,1038,1019,992,955,937,909,856,795,678,682,686,685,684,675,683,690,682,704,686,731,690,702,697,682,689,691,702,705,698,695,692,688,704,693,692,692,685,727,691,0,0,0,0,0,0,0,0,0,0,0,0,0,0,0,0,0,0,0,0,0,0,0,0,0,0,0,0,0,0,0,0,0,0,0,0,0,0,0,0,0,0,0,0,0,0,0,0,0,0,0,0,0,0,0,0,0,0,0,0,0,0,0,0,0 ]);
