n = 10;
D = [118,206,91,168,87,99,212,271,295,168 ];
q = 0;
prec = array2d(1..0,1..2,[]);
steps = 64;
l = 360;
r = 0;
which = [];
interval = array2d(1..0,1..2,[]);
T = array3d(1..11,1..11,0..64,[0,0,0,0,0,0,0,0,0,0,0,0,0,0,0,0,0,0,0,0,0,0,0,0,0,0,0,0,0,0,0,0,0,0,0,0,0,0,0,0,0,0,0,0,0,0,0,0,0,0,0,0,0,0,0,0,0,0,0,0,0,0,0,0,0,374,375,362,377,379,452,681,757,842,872,898,878,855,855,831,829,826,808,814,768,784,763,741,711,702,682,673,659,646,636,567,493,539,378,385,366,380,368,336,336,336,336,336,336,336,336,336,336,336,336,336,336,336,336,336,336,336,336,336,336,336,336,336,336,336,604,600,598,606,622,886,1145,1268,1381,1470,1464,1431,1421,1383,1369,1341,1309,1322,1272,1258,1227,1210,1200,1159,1137,1120,1096,1069,1050,932,772,794,640,622,629,609,611,615,580,591,598,588,596,591,594,600,591,599,592,591,596,595,600,600,600,598,598,594,593,598,598,598,595,598,596,389,390,392,392,396,533,722,805,887,957,969,952,940,921,910,896,877,861,846,834,818,802,783,769,753,740,721,710,690,675,659,643,518,408,399,401,410,398,356,354,358,359,359,357,360,359,359,362,359,361,365,381,379,364,387,365,365,365,365,365,365,365,365,365,365,613,615,616,618,634,1032,1187,1300,1447,1514,1504,1468,1456,1432,1398,1374,1351,1339,1304,1280,1257,1233,1233,1186,1164,1140,1117,1093,1069,1046,880,815,714,635,624,624,626,636,600,607,602,619,608,618,606,620,615,619,620,615,620,619,620,620,620,620,620,620,620,620,618,618,618,618,618,549,551,552,553,563,809,1025,1142,1286,1326,1344,1311,1301,1280,1245,1228,1207,1193,1176,1146,1124,1114,1104,1063,1041,1030,1000,973,945,752,740,597,584,618,560,557,558,560,549,546,544,548,552,563,551,552,560,557,551,554,552,555,554,551,560,560,557,557,555,559,558,562,561,563,563,422,424,424,426,430,532,761,840,946,994,1004,987,982,956,949,926,910,896,886,867,850,839,821,808,800,778,769,749,732,718,664,573,476,450,435,436,428,400,360,360,360,360,360,360,360,360,360,360,360,360,360,360,360,360,360,360,360,360,360,360,360,360,360,360,360,318,319,320,320,322,400,564,627,689,752,778,766,754,736,730,712,700,690,678,666,654,642,647,619,611,595,583,571,559,552,471,463,446,333,375,323,324,324,276,282,281,283,284,284,281,283,280,287,280,283,284,290,290,291,288,283,283,283,283,283,283,283,283,283,283,373,374,376,395,379,459,719,774,856,906,910,942,884,870,859,844,825,813,806,784,769,756,742,765,714,699,691,670,656,646,486,475,400,441,401,380,381,414,365,370,370,374,373,378,371,377,369,377,372,373,378,381,383,387,381,378,382,375,383,384,381,384,377,382,376,314,316,316,317,317,381,555,611,671,728,739,729,729,707,705,686,675,664,659,643,631,625,610,599,589,579,566,556,546,440,431,398,336,372,321,327,319,320,273,273,273,273,273,273,273,273,273,273,273,273,273,273,273,273,273,273,273,273,273,273,273,273,273,273,273,0,0,0,0,0,0,0,0,0,0,0,0,0,0,0,0,0,0,0,0,0,0,0,0,0,0,0,0,0,0,0,0,0,0,0,0,0,0,0,0,0,0,0,0,0,0,0,0,0,0,0,0,0,0,0,0,0,0,0,0,0,0,0,0,0,392,405,405,409,413,548,716,785,852,885,896,883,871,858,846,832,819,807,817,804,792,780,765,754,742,729,715,703,686,668,655,642,437,409,417,409,410,374,345,343,355,354,358,376,357,362,369,367,359,364,359,362,362,357,358,355,355,355,355,355,355,355,355,355,355,0,0,0,0,0,0,0,0,0,0,0,0,0,0,0,0,0,0,0,0,0,0,0,0,0,0,0,0,0,0,0,0,0,0,0,0,0,0,0,0,0,0,0,0,0,0,0,0,0,0,0,0,0,0,0,0,0,0,0,0,0,0,0,0,0,870,869,892,879,1037,1413,1760,1980,2070,2059,2048,2024,1989,1945,1921,1909,1881,1849,1854,1825,1789,1761,1723,1686,1640,1544,1465,1414,1141,1099,971,949,943,901,890,903,904,868,823,834,844,830,842,832,836,846,828,839,830,829,840,838,846,849,858,837,837,837,837,837,837,837,837,837,837,727,736,713,735,779,1180,1419,1577,1611,1658,1624,1624,1586,1544,1552,1525,1484,1467,1459,1484,1464,1439,1401,1390,1356,1331,1278,1260,1224,1100,784,784,767,749,748,745,747,722,694,689,697,704,705,705,704,707,702,717,708,718,712,706,712,711,711,711,711,711,711,711,711,711,711,711,711,883,885,902,891,1011,1457,1792,2021,2121,2100,2089,2057,2024,1991,1958,1941,1908,1875,1884,1851,1817,1793,1751,1718,1665,1628,1593,1555,1238,1146,984,968,945,908,900,910,916,887,843,849,845,859,851,853,848,862,853,860,854,853,864,864,867,866,882,863,863,863,863,863,863,863,863,863,863,819,819,838,833,898,1283,1634,1855,1961,1942,1933,1905,1874,1844,1814,1795,1769,1738,1749,1720,1688,1657,1629,1598,1548,1518,1431,1344,1103,1068,975,901,881,855,835,844,848,832,788,789,786,789,802,801,795,796,801,798,798,799,807,800,805,810,819,801,801,801,801,801,801,801,801,801,801,494,492,497,504,502,570,905,1000,1089,1189,1174,1159,1139,1154,1108,1096,1082,1032,1039,996,979,962,945,934,911,896,879,846,780,763,735,582,547,516,505,503,514,489,440,442,443,457,452,447,446,455,448,454,456,458,463,464,464,476,454,452,452,452,452,452,452,452,452,452,452,588,590,605,593,610,850,1119,1280,1388,1385,1387,1365,1345,1323,1303,1297,1276,1254,1274,1254,1231,1210,1189,1168,1123,1096,1074,1046,1028,874,795,783,643,610,602,610,615,571,527,531,531,529,536,532,534,532,530,531,527,530,535,536,550,550,556,534,534,534,534,534,534,534,534,534,534,649,648,663,651,667,908,1257,1421,1539,1531,1527,1498,1482,1462,1430,1427,1407,1381,1398,1389,1345,1322,1304,1281,1226,1203,1176,1146,916,908,714,720,697,666,664,679,684,624,588,594,595,599,603,601,600,601,598,612,597,600,607,610,623,625,626,605,605,605,605,605,605,605,605,605,605,394,384,389,391,389,448,707,754,821,925,915,903,888,907,865,856,848,802,812,774,760,748,735,727,711,698,686,676,684,668,542,543,407,406,426,393,394,404,353,352,355,367,360,355,356,363,360,362,364,362,362,362,369,365,362,360,360,360,360,360,360,360,360,360,360,392,405,405,409,413,548,716,785,852,885,896,883,871,858,846,832,819,807,817,804,792,780,765,754,742,729,715,703,686,668,655,642,437,409,417,409,410,374,345,343,355,354,358,376,357,362,369,367,359,364,359,362,362,357,358,355,355,355,355,355,355,355,355,355,355,552,555,557,558,564,826,1051,1167,1270,1322,1366,1345,1323,1305,1282,1261,1250,1216,1195,1168,1150,1086,1104,1094,1063,1038,1016,997,856,803,759,742,656,555,564,590,563,512,523,520,525,530,525,522,525,527,527,530,528,545,547,552,532,527,529,531,531,529,523,527,528,529,528,530,529,909,904,927,914,971,1504,1833,2021,2107,2163,2166,2136,2103,2111,2037,1999,1969,1937,1924,1866,1844,1788,1780,1760,1712,1640,1563,1455,1254,1200,991,973,964,912,930,927,925,848,859,856,861,866,861,858,861,863,863,866,864,881,882,884,868,863,865,867,867,865,859,863,864,865,864,866,865,0,0,0,0,0,0,0,0,0,0,0,0,0,0,0,0,0,0,0,0,0,0,0,0,0,0,0,0,0,0,0,0,0,0,0,0,0,0,0,0,0,0,0,0,0,0,0,0,0,0,0,0,0,0,0,0,0,0,0,0,0,0,0,0,0,526,528,529,531,558,850,1000,1117,1231,1292,1293,1273,1252,1261,1212,1191,1171,1150,1130,1110,1089,1069,1048,1016,1008,974,968,948,913,906,803,846,612,565,537,536,536,540,505,503,504,506,510,520,518,522,519,520,529,526,520,512,515,521,526,514,514,514,514,513,514,514,514,517,514,336,336,338,339,340,427,608,678,749,819,838,818,805,799,778,771,764,745,738,724,705,696,685,664,651,643,619,610,603,470,458,448,436,428,417,341,342,343,303,300,302,303,307,306,303,306,304,303,314,310,307,306,307,304,308,305,304,306,308,303,303,304,308,310,303,370,371,372,373,376,523,678,745,834,907,916,901,886,872,858,843,829,814,800,786,771,745,742,727,712,698,684,669,655,614,626,612,468,388,379,360,376,377,345,344,343,344,344,345,343,345,342,348,345,343,344,344,344,344,347,346,345,345,345,348,344,347,344,347,346,649,654,651,659,664,942,1248,1397,1559,1608,1600,1581,1555,1542,1513,1485,1450,1424,1398,1364,1349,1316,1299,1276,1241,1156,1194,1102,1076,1057,929,801,781,686,664,665,669,643,599,598,597,598,598,599,597,599,596,602,599,597,598,598,598,598,601,600,599,599,599,602,598,601,598,601,600,400,401,403,404,405,608,724,808,878,934,991,975,960,944,928,913,897,882,865,849,834,778,802,787,771,756,739,723,674,692,544,583,567,399,409,386,408,371,370,376,379,388,385,382,379,388,377,385,380,376,383,391,401,429,388,382,383,384,393,385,381,408,378,386,379,380,380,382,383,385,529,689,770,880,938,946,931,918,901,885,871,855,840,825,810,796,780,764,750,734,718,704,658,642,626,615,549,439,427,420,385,393,378,327,326,325,326,326,327,325,327,324,330,327,325,326,326,326,326,329,328,327,327,327,330,326,329,326,329,328,588,591,588,596,606,792,1113,1237,1407,1451,1451,1433,1408,1382,1363,1329,1317,1293,1270,1237,1214,1194,1172,1148,1124,1101,1077,1055,992,942,826,654,630,619,605,602,604,578,534,533,532,533,533,534,532,534,531,537,534,532,533,533,533,533,536,535,534,534,534,537,533,536,533,536,535,552,555,557,558,564,826,1051,1167,1270,1322,1366,1345,1323,1305,1282,1261,1250,1216,1195,1168,1150,1086,1104,1094,1063,1038,1016,997,856,803,759,742,656,555,564,590,563,512,523,520,525,530,525,522,525,527,527,530,528,545,547,552,532,527,529,531,531,529,523,527,528,529,528,530,529,285,286,287,288,288,462,524,586,648,703,715,703,692,679,669,657,645,634,622,612,600,589,577,566,554,543,531,520,508,496,486,474,463,451,293,289,290,291,286,279,279,286,276,298,283,283,286,285,303,290,289,284,288,306,304,284,283,296,284,292,288,283,291,309,288,570,572,573,575,584,846,1120,1243,1348,1401,1398,1375,1368,1357,1309,1287,1264,1250,1232,1205,1176,1154,1136,1114,1092,1065,1063,1039,1035,962,954,814,738,660,581,616,580,575,557,561,560,575,566,580,564,564,567,562,569,563,566,564,569,563,568,574,570,567,565,564,569,586,572,633,568,621,623,624,625,639,862,1215,1348,1443,1486,1483,1460,1437,1414,1392,1369,1347,1337,1301,1279,1256,1233,1212,1187,1164,1142,1122,1097,1074,991,884,865,732,643,633,631,632,634,589,585,587,601,595,594,593,601,593,588,596,592,591,589,592,598,595,598,592,594,593,604,592,600,592,604,600,0,0,0,0,0,0,0,0,0,0,0,0,0,0,0,0,0,0,0,0,0,0,0,0,0,0,0,0,0,0,0,0,0,0,0,0,0,0,0,0,0,0,0,0,0,0,0,0,0,0,0,0,0,0,0,0,0,0,0,0,0,0,0,0,0,604,607,608,609,622,899,1180,1314,1412,1455,1452,1430,1407,1384,1362,1340,1318,1295,1274,1251,1228,1207,1182,1159,1138,1115,1093,1071,1048,1027,874,772,659,627,617,615,616,618,577,570,576,589,579,580,603,583,579,584,610,576,587,606,583,585,652,612,578,579,575,578,578,587,606,593,589,680,683,685,686,696,1017,1267,1426,1557,1633,1622,1601,1576,1551,1526,1500,1475,1450,1426,1400,1375,1351,1324,1300,1273,1248,1224,1202,1164,1103,962,907,719,709,696,689,692,694,657,651,667,688,666,652,668,681,668,663,664,664,667,668,679,669,681,666,662,664,668,683,680,683,674,683,682,682,684,685,688,718,954,1368,1521,1631,1674,1671,1644,1616,1588,1561,1536,1512,1486,1459,1462,1404,1377,1350,1353,1298,1270,1242,1215,1188,1090,903,789,727,707,696,692,694,655,646,639,639,646,636,658,643,643,646,645,663,650,649,644,648,666,664,644,643,656,644,652,648,643,651,669,648,297,298,291,292,300,422,504,539,601,642,655,645,635,627,618,610,600,591,583,576,562,558,543,542,531,523,514,505,498,498,489,454,415,363,304,292,293,302,258,259,258,260,261,262,263,263,259,262,260,262,262,265,264,263,267,266,266,271,268,263,270,264,263,265,262,572,575,576,577,580,825,1046,1178,1293,1382,1374,1353,1332,1311,1289,1269,1249,1228,1205,1184,1162,1142,1120,1098,1077,1056,1034,1016,994,959,788,784,608,594,584,580,582,556,512,506,526,541,524,534,527,535,531,529,532,529,527,530,532,548,522,532,531,533,529,528,525,528,526,528,527,589,591,603,594,605,821,1135,1268,1376,1443,1444,1411,1401,1366,1353,1332,1309,1291,1263,1243,1218,1194,1176,1153,1124,1109,1078,1066,944,912,658,642,653,612,600,616,600,585,559,552,552,559,549,571,556,556,559,558,576,563,562,557,561,579,577,557,556,569,557,565,561,556,564,582,561,285,286,287,288,288,462,524,586,648,703,715,703,692,679,669,657,645,634,622,612,600,589,577,566,554,543,531,520,508,496,486,474,463,451,293,289,290,291,286,279,279,286,276,298,283,283,286,285,303,290,289,284,288,306,304,284,283,296,284,292,288,283,291,309,288,578,580,582,596,600,807,1119,1279,1378,1426,1426,1405,1381,1369,1335,1312,1294,1271,1249,1221,1198,1176,1153,1130,1101,1084,1062,1038,1008,924,797,638,616,600,590,582,593,553,547,552,552,563,566,574,564,568,570,595,592,593,598,588,581,601,576,570,569,577,568,589,575,570,570,578,570,932,942,936,942,1051,1503,1938,2156,2250,2282,2257,2235,2210,2184,2106,2073,2039,2011,1976,1947,1906,1863,1829,1803,1752,1684,1640,1491,1364,1251,1016,992,991,952,956,944,955,889,883,888,888,899,902,910,900,904,906,931,928,929,933,920,917,937,912,906,905,913,904,925,911,906,906,914,906,290,291,292,293,294,391,534,625,691,715,728,716,704,693,681,669,657,646,634,622,612,600,588,576,565,553,541,530,518,465,454,444,434,423,383,295,296,377,296,284,288,288,284,295,289,311,295,290,311,288,290,289,289,292,292,292,289,291,290,289,290,292,291,317,295,440,442,444,444,451,739,837,936,1032,1087,1094,1076,1094,1041,1060,1006,988,972,954,937,919,902,884,866,849,831,814,796,780,762,745,727,709,616,451,448,448,450,444,439,439,443,449,437,438,440,441,448,451,450,448,466,451,444,472,470,445,451,452,450,451,450,454,582,475,0,0,0,0,0,0,0,0,0,0,0,0,0,0,0,0,0,0,0,0,0,0,0,0,0,0,0,0,0,0,0,0,0,0,0,0,0,0,0,0,0,0,0,0,0,0,0,0,0,0,0,0,0,0,0,0,0,0,0,0,0,0,0,0,0,610,605,614,600,624,813,1122,1215,1410,1475,1441,1411,1430,1402,1347,1358,1331,1298,1279,1234,1226,1209,1188,1131,1109,1137,1090,1067,1044,992,955,762,664,651,616,600,604,588,551,552,549,551,567,560,564,560,555,561,557,560,556,564,557,567,556,558,563,559,559,562,562,564,561,556,556,835,835,841,837,885,1211,1742,1887,2009,2029,2023,2009,1978,1940,1913,1862,1834,1800,1770,1745,1703,1679,1644,1610,1511,1550,1450,1395,1354,1239,1062,996,892,863,887,858,859,785,778,778,782,780,788,783,797,788,792,789,790,794,799,804,801,802,800,795,800,802,800,797,802,800,810,801,800,382,384,384,385,388,640,715,810,882,938,948,932,918,914,888,872,858,842,828,812,798,782,766,752,736,722,706,692,676,662,646,421,411,401,392,388,389,390,382,388,383,394,422,423,415,440,400,426,421,421,420,398,406,488,410,401,426,418,401,422,413,425,419,419,405,560,563,564,566,591,791,1094,1224,1332,1380,1382,1362,1339,1316,1294,1272,1250,1228,1207,1184,1161,1140,1117,1096,1073,1051,1029,1006,983,951,903,755,629,584,636,569,571,544,533,534,531,533,549,542,546,542,537,543,539,542,538,546,539,549,538,540,545,541,541,544,544,546,543,538,538,774,772,778,783,828,1091,1573,1733,1847,1884,1881,1849,1819,1782,1763,1729,1703,1672,1643,1611,1581,1549,1516,1493,1456,1433,1403,1288,1136,1121,1042,884,857,804,825,799,788,715,708,712,726,707,713,710,720,716,714,715,716,716,722,723,721,726,723,719,724,727,724,718,724,726,728,724,723,578,580,582,596,600,807,1119,1279,1378,1426,1426,1405,1381,1369,1335,1312,1294,1271,1249,1221,1198,1176,1153,1130,1101,1084,1062,1038,1008,924,797,638,616,600,590,582,593,553,547,552,552,563,566,574,564,568,570,595,592,593,598,588,581,601,576,570,569,577,568,589,575,570,570,578,570,668,670,660,660,688,907,1324,1453,1554,1619,1579,1577,1552,1501,1516,1451,1413,1384,1393,1369,1347,1324,1297,1242,1252,1251,1195,1172,1009,933,818,776,732,698,671,678,683,646,627,610,616,625,626,628,629,625,624,629,637,631,633,633,634,633,631,631,635,642,641,646,635,632,640,643,638,952,964,964,988,1006,1450,1959,2176,2267,2307,2287,2286,2215,2180,2148,2098,2067,2056,2000,1962,1949,1888,1852,1807,1779,1701,1647,1548,1269,1231,1055,1046,1040,983,969,978,988,951,922,915,924,923,927,926,931,921,917,930,937,930,936,937,938,937,935,935,939,945,957,953,939,935,945,948,943,562,564,561,568,570,855,1065,1210,1331,1393,1369,1361,1339,1319,1294,1276,1254,1232,1211,1173,1152,1148,1126,1095,1083,1063,936,920,901,881,841,822,698,585,574,571,573,574,555,561,556,559,561,582,562,568,561,566,560,560,581,594,594,564,567,565,592,585,567,564,586,562,560,591,581,771,772,808,779,808,1116,1646,1785,1903,1922,1926,1870,1904,1821,1839,1774,1732,1707,1710,1617,1635,1603,1585,1491,1475,1434,1448,1410,1294,1227,867,832,812,794,811,804,787,783,782,774,780,818,796,799,795,798,829,788,831,797,801,800,826,810,798,829,796,804,825,803,824,843,834,833,806,776,759,786,760,801,1207,1557,1707,1860,1898,1845,1827,1854,1784,1790,1754,1702,1693,1665,1626,1604,1562,1541,1473,1483,1390,1339,1269,1226,1129,1065,958,802,788,798,795,774,768,780,787,785,791,790,793,789,796,788,792,789,790,787,787,792,796,796,792,796,793,798,791,791,795,792,793,789,0,0,0,0,0,0,0,0,0,0,0,0,0,0,0,0,0,0,0,0,0,0,0,0,0,0,0,0,0,0,0,0,0,0,0,0,0,0,0,0,0,0,0,0,0,0,0,0,0,0,0,0,0,0,0,0,0,0,0,0,0,0,0,0,0,581,592,585,587,624,817,1131,1286,1380,1418,1419,1450,1431,1358,1388,1379,1316,1290,1300,1209,1198,1197,1144,1177,1123,1130,1065,1074,1036,934,745,751,693,608,589,608,592,600,564,551,556,554,560,561,561,565,560,561,572,562,567,563,564,565,566,565,564,569,582,580,568,565,575,584,578,608,611,649,616,640,856,1257,1348,1485,1510,1522,1471,1514,1441,1461,1404,1374,1351,1360,1275,1300,1279,1266,1179,1171,1137,1160,1130,1066,1032,880,779,668,632,664,640,621,604,607,609,602,616,605,618,605,628,613,618,618,616,623,617,627,632,630,629,628,629,629,626,639,649,628,636,629,293,326,296,327,331,318,541,649,668,739,735,723,711,700,747,676,664,652,642,630,618,606,594,582,571,559,547,580,523,512,494,488,317,309,301,340,340,300,296,295,296,297,304,300,304,301,300,307,301,301,298,300,303,300,301,304,301,303,314,299,302,306,301,302,299,596,608,600,612,614,717,1153,1311,1419,1483,1470,1447,1422,1398,1397,1349,1325,1301,1281,1257,1232,1209,1185,1156,1140,1116,1094,1085,992,892,734,724,640,621,610,616,618,581,550,536,542,547,556,553,557,551,549,558,561,555,556,558,562,561,555,558,559,565,581,574,562,559,565,569,564,668,670,660,660,688,907,1324,1453,1554,1619,1579,1577,1552,1501,1516,1451,1413,1384,1393,1369,1347,1324,1297,1242,1252,1251,1195,1172,1009,933,818,776,732,698,671,678,683,646,627,610,616,625,626,628,629,625,624,629,637,631,633,633,634,633,631,631,635,642,641,646,635,632,640,643,638,463,473,466,477,497,575,890,1015,1102,1155,1158,1141,1157,1126,1087,1069,1083,1037,1045,1008,1000,961,927,928,908,914,872,853,836,809,583,576,563,496,483,484,495,464,451,447,446,449,450,452,452,451,448,452,452,452,452,457,456,456,456,456,456,456,456,456,456,456,456,456,456,476,467,475,476,478,699,877,957,1075,1105,1111,1094,1102,1059,1060,1024,1030,1029,1012,955,938,950,903,962,870,878,879,817,719,705,696,640,624,478,481,479,547,466,469,466,467,476,470,472,469,470,468,466,469,468,466,472,471,474,473,473,473,473,473,473,473,473,473,473,473,752,743,753,752,791,1010,1480,1639,1767,1826,1825,1785,1754,1743,1712,1668,1655,1615,1588,1549,1527,1491,1468,1445,1412,1352,1324,1238,1209,1067,971,846,787,817,754,759,761,755,701,695,696,701,697,703,700,702,699,699,702,700,697,699,700,702,699,699,699,699,699,699,699,699,699,699,699,792,802,796,807,825,1196,1600,1824,1933,1979,1968,1936,1903,1869,1843,1822,1789,1747,1725,1691,1659,1617,1569,1560,1527,1494,1455,1421,1271,1226,1091,860,848,828,818,815,815,787,761,750,761,775,773,775,770,772,775,762,784,772,774,778,793,785,778,778,778,778,778,778,778,778,778,778,778,833,844,838,850,880,1298,1678,1903,2019,2056,2048,2011,1979,1945,1917,1897,1863,1819,1797,1762,1733,1688,1639,1630,1597,1563,1530,1491,1256,1013,1042,945,933,867,860,858,857,862,822,824,819,836,832,827,831,854,827,860,871,844,832,835,823,832,833,833,833,833,833,833,833,833,833,833,827,531,524,541,539,547,579,998,1107,1229,1309,1309,1285,1262,1225,1222,1201,1169,1161,1143,1125,1098,1092,1063,1037,1013,991,966,951,918,896,777,594,588,566,550,548,554,549,510,506,506,516,519,528,521,532,519,522,522,526,524,518,523,532,522,522,522,522,522,522,522,522,522,522,522,0,0,0,0,0,0,0,0,0,0,0,0,0,0,0,0,0,0,0,0,0,0,0,0,0,0,0,0,0,0,0,0,0,0,0,0,0,0,0,0,0,0,0,0,0,0,0,0,0,0,0,0,0,0,0,0,0,0,0,0,0,0,0,0,0,631,640,633,644,656,707,1223,1390,1516,1568,1566,1539,1513,1488,1465,1452,1426,1393,1374,1350,1324,1291,1249,1248,1223,1198,1166,1143,1112,857,836,709,737,661,652,652,650,605,597,593,585,596,599,598,597,596,594,596,596,598,600,605,592,599,601,601,601,601,601,601,601,601,601,601,594,369,370,396,397,403,462,693,767,879,932,946,939,893,879,895,879,833,832,829,788,818,796,760,766,751,724,710,700,657,642,651,477,470,415,398,405,403,380,320,314,315,320,316,321,319,321,318,318,321,319,316,318,319,321,318,318,318,318,318,318,318,318,318,318,318,166,167,167,168,168,261,296,330,364,398,415,408,402,396,388,382,375,369,362,356,349,343,337,330,324,316,310,303,297,290,284,278,271,265,258,168,223,223,154,146,149,163,154,147,144,148,147,165,161,149,155,154,151,147,153,153,153,153,153,153,153,153,153,153,153,463,473,466,477,497,575,890,1015,1102,1155,1158,1141,1157,1126,1087,1069,1083,1037,1045,1008,1000,961,927,928,908,914,872,853,836,809,583,576,563,496,483,484,495,464,451,447,446,449,450,452,452,451,448,452,452,452,452,457,456,456,456,456,456,456,456,456,456,456,456,456,456,202,202,202,219,220,212,356,397,439,480,510,501,492,486,476,468,460,452,444,436,429,419,408,399,391,382,375,367,358,350,327,223,217,314,224,203,204,204,163,165,164,169,173,166,168,168,166,170,169,171,186,188,190,175,169,166,169,168,166,167,167,168,163,169,165,568,573,564,590,595,664,1054,1192,1279,1357,1388,1356,1347,1317,1305,1294,1268,1222,1206,1176,1158,1145,1119,1101,1068,1055,1016,1013,920,771,683,619,615,606,580,569,568,566,499,501,500,505,509,502,504,504,502,506,505,507,522,523,522,511,505,502,505,504,502,503,503,504,499,505,501,481,483,485,492,495,728,891,994,1101,1186,1208,1177,1158,1154,1136,1131,1097,1077,1047,1038,1024,991,972,950,931,900,892,862,843,825,754,664,642,579,493,490,492,492,476,463,469,472,468,472,470,476,471,477,473,468,474,474,475,479,476,474,470,473,471,474,474,475,475,475,475,268,268,268,269,315,396,476,520,587,648,654,643,644,623,615,606,603,594,583,574,554,537,535,520,514,505,495,486,476,465,456,443,432,386,368,272,367,367,245,245,245,248,247,248,247,250,248,251,250,251,251,256,252,252,249,253,250,251,248,253,251,249,249,249,249,465,467,468,470,478,555,862,964,1069,1155,1164,1147,1127,1109,1106,1101,1067,1048,1020,1010,997,963,942,922,904,873,866,836,830,799,771,568,553,541,477,484,475,524,460,458,463,471,457,513,465,480,470,481,481,479,468,469,476,473,473,474,482,481,475,476,475,474,512,512,474,489,537,492,494,504,830,939,1048,1150,1198,1202,1188,1168,1149,1130,1111,1092,1072,1053,1034,1015,996,976,1005,938,919,897,940,861,814,820,701,663,511,500,496,498,500,494,502,502,511,520,522,513,516,500,513,507,498,507,512,511,508,545,539,500,500,508,507,498,507,510,511,500,585,587,588,590,592,703,1105,1256,1364,1418,1415,1396,1372,1353,1333,1322,1299,1276,1254,1235,1213,1194,1166,1140,1117,1099,1077,1052,1028,929,855,743,649,612,598,595,597,582,514,521,523,529,532,526,527,528,520,530,526,526,529,535,541,535,529,526,529,526,526,527,527,528,522,529,525,0,0,0,0,0,0,0,0,0,0,0,0,0,0,0,0,0,0,0,0,0,0,0,0,0,0,0,0,0,0,0,0,0,0,0,0,0,0,0,0,0,0,0,0,0,0,0,0,0,0,0,0,0,0,0,0,0,0,0,0,0,0,0,0,0,381,382,384,385,388,592,717,800,880,943,951,936,920,907,890,874,860,844,831,813,799,783,769,753,738,722,707,692,676,662,646,627,548,497,420,388,396,378,351,349,351,358,366,372,361,371,362,364,370,370,365,358,361,369,365,360,368,372,360,365,361,379,368,370,363,492,494,496,497,508,546,909,1041,1122,1203,1192,1192,1159,1142,1125,1119,1099,1080,1062,1041,1026,1029,1006,964,944,925,906,903,800,782,706,620,548,513,503,500,501,496,436,438,437,442,446,439,441,441,439,443,442,444,451,456,455,448,442,439,442,441,439,440,440,441,436,442,438,202,202,202,219,220,212,356,397,439,480,510,501,492,486,476,468,460,452,444,436,429,419,408,399,391,382,375,367,358,350,327,223,217,314,224,203,204,204,163,165,164,169,173,166,168,168,166,170,169,171,186,188,190,175,169,166,169,168,166,167,167,168,163,169,165,441,446,441,445,470,526,822,888,991,1101,1097,1084,1075,1065,1040,1013,987,949,933,949,929,906,892,865,861,839,821,801,793,771,678,535,480,462,456,471,472,451,393,398,394,399,405,401,399,406,401,401,401,400,400,400,401,401,400,401,401,400,402,402,400,402,400,400,400,717,732,723,740,747,951,1343,1534,1687,1730,1754,1713,1696,1706,1630,1619,1587,1560,1531,1490,1461,1463,1406,1380,1351,1324,1292,1212,1162,941,910,797,793,792,765,737,764,756,690,694,700,707,705,699,698,706,696,696,700,700,700,704,707,712,712,707,705,709,710,713,708,705,714,708,706,472,468,488,467,474,615,872,974,1069,1120,1149,1107,1084,1072,1050,1023,1042,1008,1020,990,967,933,942,948,909,878,846,796,812,766,744,640,494,480,472,469,494,476,459,464,470,476,468,470,465,475,465,474,471,468,473,475,481,479,479,473,475,479,479,471,477,474,469,477,475,628,622,633,629,640,888,1233,1389,1499,1537,1528,1509,1484,1455,1443,1420,1416,1360,1374,1315,1281,1256,1266,1215,1182,1184,1136,1114,1090,973,818,811,743,642,631,633,629,639,610,608,608,612,612,614,617,622,617,617,617,616,616,616,617,617,616,617,616,616,618,618,616,618,616,616,616,644,632,650,640,649,982,1242,1384,1494,1537,1533,1509,1485,1470,1464,1412,1424,1368,1382,1316,1292,1276,1273,1219,1203,1197,1163,1070,1045,1052,909,839,718,652,646,639,645,655,640,634,630,655,644,644,646,652,645,647,649,648,654,646,644,647,648,649,645,648,649,647,644,649,648,648,634,220,221,222,222,257,325,397,442,488,532,552,538,530,522,513,504,478,487,478,470,462,438,444,421,427,418,410,400,392,364,354,347,338,302,296,258,259,260,211,209,210,212,212,214,212,214,212,215,215,215,214,216,216,214,216,216,217,217,216,216,218,218,218,218,218,360,353,364,365,368,446,690,732,830,885,895,883,847,832,819,825,792,796,764,748,754,722,726,711,698,667,669,638,640,577,613,470,524,451,371,357,368,369,358,362,356,362,361,363,363,372,366,367,363,367,363,368,369,370,368,363,365,366,362,374,365,364,364,364,363,477,460,472,467,484,534,870,973,1063,1114,1113,1101,1084,1062,1058,1042,1046,997,1018,967,940,922,940,896,871,880,840,825,808,806,770,523,513,499,468,469,464,461,436,432,433,437,436,444,436,443,454,448,439,443,437,441,444,436,444,445,444,441,442,444,448,451,449,449,449,0,0,0,0,0,0,0,0,0,0,0,0,0,0,0,0,0,0,0,0,0,0,0,0,0,0,0,0,0,0,0,0,0,0,0,0,0,0,0,0,0,0,0,0,0,0,0,0,0,0,0,0,0,0,0,0,0,0,0,0,0,0,0,0,0,361,362,364,368,379,399,642,728,804,879,902,889,874,861,844,831,814,801,786,771,757,742,729,714,700,685,670,657,648,630,482,471,400,391,381,378,407,380,320,322,321,324,328,328,325,332,326,328,328,324,325,324,327,331,325,325,327,325,326,326,324,331,324,324,324,441,446,441,445,470,526,822,888,991,1101,1097,1084,1075,1065,1040,1013,987,949,933,949,929,906,892,865,861,839,821,801,793,771,678,535,480,462,456,471,472,451,393,398,394,399,405,401,399,406,401,401,401,400,400,400,401,401,400,401,401,400,402,402,400,402,400,400,400,334,336,337,339,340,532,622,689,756,813,824,811,799,786,774,762,749,737,723,711,698,686,673,660,648,635,623,639,598,584,573,559,542,478,344,340,341,347,318,319,320,323,323,322,322,323,320,325,323,323,324,326,325,324,324,327,326,327,325,329,325,327,324,327,326,410,412,417,399,419,565,733,831,897,952,961,970,931,916,902,886,872,856,889,873,812,818,783,793,753,757,723,709,693,710,687,597,581,415,507,416,470,438,413,412,412,421,413,412,411,415,411,414,413,412,416,419,418,415,419,417,417,415,417,458,414,416,417,418,418,653,645,654,648,661,861,1244,1389,1514,1582,1585,1545,1536,1520,1485,1477,1450,1410,1384,1359,1334,1309,1272,1258,1233,1208,1161,1126,1050,1067,800,783,685,686,664,656,658,662,637,643,647,656,658,666,652,665,653,675,659,654,667,655,668,672,673,660,675,661,660,664,677,677,663,678,661,662,665,666,668,677,1096,1270,1425,1608,1652,1648,1621,1593,1567,1539,1511,1483,1459,1432,1405,1378,1351,1324,1297,1270,1243,1226,1189,1155,959,936,848,702,685,684,672,675,679,640,634,635,650,658,654,652,659,655,649,655,656,659,661,665,661,665,662,655,657,664,664,656,657,654,656,655,704,706,708,711,768,1171,1346,1504,1689,1730,1725,1698,1670,1642,1615,1587,1559,1532,1504,1476,1449,1422,1412,1366,1356,1311,1284,1256,1228,1113,1012,913,745,728,717,715,716,719,705,710,706,728,718,713,713,739,714,734,733,729,719,718,710,719,720,742,711,718,709,717,709,715,714,713,713,576,564,571,568,576,781,1058,1196,1310,1376,1382,1365,1338,1323,1305,1286,1264,1227,1206,1195,1175,1140,1129,1096,1074,1082,1030,1009,917,960,861,664,628,612,573,571,574,571,550,547,547,550,558,562,560,563,559,565,559,557,564,557,559,563,565,557,566,558,552,559,567,577,564,576,565,174,176,176,177,178,211,305,340,375,410,436,430,422,417,409,402,394,388,381,374,368,361,354,347,340,334,325,320,314,305,298,292,284,277,181,178,179,179,152,134,134,135,142,140,140,135,135,139,152,140,145,148,150,147,139,139,143,152,150,150,138,138,151,136,134,500,502,504,505,513,609,918,1025,1182,1234,1236,1218,1196,1177,1156,1137,1118,1098,1079,1058,1039,1020,999,980,961,940,922,903,882,844,682,610,662,522,512,508,510,500,459,465,467,468,472,471,469,468,465,470,466,468,470,474,479,474,483,474,472,470,475,476,469,471,468,471,470,363,364,365,366,368,429,658,737,814,887,906,891,877,862,847,832,818,807,829,775,760,746,732,717,703,688,675,658,644,630,615,544,431,385,372,368,369,370,344,345,344,347,353,359,353,358,355,360,356,355,360,353,356,359,361,351,361,355,348,356,361,372,360,369,357,0,0,0,0,0,0,0,0,0,0,0,0,0,0,0,0,0,0,0,0,0,0,0,0,0,0,0,0,0,0,0,0,0,0,0,0,0,0,0,0,0,0,0,0,0,0,0,0,0,0,0,0,0,0,0,0,0,0,0,0,0,0,0,0,0,334,336,337,339,340,532,622,689,756,813,824,811,799,786,774,762,749,737,723,711,698,686,673,660,648,635,623,639,598,584,573,559,542,478,344,340,341,347,318,319,320,323,323,322,322,323,320,325,323,323,324,326,325,324,324,327,326,327,325,329,325,327,324,327,326,0,0,0,0,0,0,0,0,0,0,0,0,0,0,0,0,0,0,0,0,0,0,0,0,0,0,0,0,0,0,0,0,0,0,0,0,0,0,0,0,0,0,0,0,0,0,0,0,0,0,0,0,0,0,0,0,0,0,0,0,0,0,0,0,0,374,375,362,377,379,452,681,757,842,872,898,878,855,855,831,829,826,808,814,768,784,763,741,711,702,682,673,659,646,636,567,493,539,378,385,366,380,368,336,336,336,336,336,336,336,336,336,336,336,336,336,336,336,336,336,336,336,336,336,336,336,336,336,336,336,604,600,598,606,622,886,1145,1268,1381,1470,1464,1431,1421,1383,1369,1341,1309,1322,1272,1258,1227,1210,1200,1159,1137,1120,1096,1069,1050,932,772,794,640,622,629,609,611,615,580,591,598,588,596,591,594,600,591,599,592,591,596,595,600,600,600,598,598,594,593,598,598,598,595,598,596,389,390,392,392,396,533,722,805,887,957,969,952,940,921,910,896,877,861,846,834,818,802,783,769,753,740,721,710,690,675,659,643,518,408,399,401,410,398,356,354,358,359,359,357,360,359,359,362,359,361,365,381,379,364,387,365,365,365,365,365,365,365,365,365,365,613,615,616,618,634,1032,1187,1300,1447,1514,1504,1468,1456,1432,1398,1374,1351,1339,1304,1280,1257,1233,1233,1186,1164,1140,1117,1093,1069,1046,880,815,714,635,624,624,626,636,600,607,602,619,608,618,606,620,615,619,620,615,620,619,620,620,620,620,620,620,620,620,618,618,618,618,618,549,551,552,553,563,809,1025,1142,1286,1326,1344,1311,1301,1280,1245,1228,1207,1193,1176,1146,1124,1114,1104,1063,1041,1030,1000,973,945,752,740,597,584,618,560,557,558,560,549,546,544,548,552,563,551,552,560,557,551,554,552,555,554,551,560,560,557,557,555,559,558,562,561,563,563,422,424,424,426,430,532,761,840,946,994,1004,987,982,956,949,926,910,896,886,867,850,839,821,808,800,778,769,749,732,718,664,573,476,450,435,436,428,400,360,360,360,360,360,360,360,360,360,360,360,360,360,360,360,360,360,360,360,360,360,360,360,360,360,360,360,318,319,320,320,322,400,564,627,689,752,778,766,754,736,730,712,700,690,678,666,654,642,647,619,611,595,583,571,559,552,471,463,446,333,375,323,324,324,276,282,281,283,284,284,281,283,280,287,280,283,284,290,290,291,288,283,283,283,283,283,283,283,283,283,283,373,374,376,395,379,459,719,774,856,906,910,942,884,870,859,844,825,813,806,784,769,756,742,765,714,699,691,670,656,646,486,475,400,441,401,380,381,414,365,370,370,374,373,378,371,377,369,377,372,373,378,381,383,387,381,378,382,375,383,384,381,384,377,382,376,314,316,316,317,317,381,555,611,671,728,739,729,729,707,705,686,675,664,659,643,631,625,610,599,589,579,566,556,546,440,431,398,336,372,321,327,319,320,273,273,273,273,273,273,273,273,273,273,273,273,273,273,273,273,273,273,273,273,273,273,273,273,273,273,273,0,0,0,0,0,0,0,0,0,0,0,0,0,0,0,0,0,0,0,0,0,0,0,0,0,0,0,0,0,0,0,0,0,0,0,0,0,0,0,0,0,0,0,0,0,0,0,0,0,0,0,0,0,0,0,0,0,0,0,0,0,0,0,0,0 ]);
