n = 10;
D = [118,206,91,168,87,99,212,271,295,168 ];
q = 0;
prec = array2d(1..0,1..2,[]);
steps = 64;
l = 360;
r = 0;
which = [];
interval = array2d(1..0,1..2,[]);
T = array3d(1..11,1..11,0..64,[0,0,0,0,0,0,0,0,0,0,0,0,0,0,0,0,0,0,0,0,0,0,0,0,0,0,0,0,0,0,0,0,0,0,0,0,0,0,0,0,0,0,0,0,0,0,0,0,0,0,0,0,0,0,0,0,0,0,0,0,0,0,0,0,0,468,469,453,472,475,515,582,649,757,740,754,733,778,733,721,709,710,685,726,640,657,636,633,593,585,569,576,563,583,539,527,515,503,473,482,458,476,460,458,473,462,494,461,484,463,488,471,479,475,467,481,472,485,484,481,479,484,479,491,477,480,487,481,492,492,768,770,756,758,808,895,985,1135,1177,1247,1244,1197,1256,1153,1141,1127,1091,1105,1060,1051,1023,1009,1013,970,948,934,959,891,877,919,852,844,800,778,787,762,764,769,772,776,774,771,785,794,812,815,786,810,798,793,792,797,790,816,804,794,800,784,783,799,791,798,791,818,789,488,489,491,492,496,540,612,684,756,829,808,796,786,770,770,771,731,718,705,749,682,669,653,641,628,637,610,597,576,563,550,537,526,511,499,502,513,498,506,493,493,494,503,510,496,503,502,500,502,501,504,506,506,516,518,513,504,510,509,519,516,534,537,545,537,767,787,771,774,827,894,1009,1154,1210,1294,1271,1224,1231,1235,1165,1145,1126,1131,1087,1067,1048,1028,1031,989,970,950,931,911,891,872,852,833,848,794,781,791,798,795,777,778,789,817,784,805,782,789,783,782,801,791,785,799,798,812,794,802,795,799,801,794,797,808,779,804,798,730,706,691,693,733,860,886,1157,1072,1139,1138,1093,1103,1143,1038,1024,1006,1014,1124,955,937,995,925,886,868,918,834,872,799,782,765,747,730,759,700,697,698,700,701,699,697,713,758,752,744,736,720,767,748,737,740,714,716,751,743,720,747,722,710,743,732,758,745,766,728,528,530,531,533,538,585,664,724,839,833,837,828,833,837,794,774,775,749,775,724,715,701,686,716,675,650,653,662,611,600,616,575,563,575,544,561,536,543,526,527,529,531,532,532,536,533,539,538,538,538,540,541,542,541,544,548,545,547,545,548,552,552,552,550,550,398,399,400,401,403,432,507,538,591,661,682,651,646,614,624,594,584,575,565,555,545,535,579,516,556,496,486,476,466,484,447,437,427,417,444,404,405,406,406,402,402,422,415,415,414,410,412,415,426,415,419,411,403,424,416,418,409,408,406,410,412,410,417,429,409,467,468,470,494,474,540,611,645,714,755,759,785,737,725,716,704,688,678,672,654,641,630,619,649,595,583,576,559,547,539,526,514,500,537,502,476,477,509,479,476,475,479,527,502,506,498,490,518,496,490,500,480,483,496,490,483,504,485,480,501,496,515,503,499,492,393,395,396,397,397,425,474,522,614,610,657,608,621,628,588,572,563,554,585,536,530,521,509,500,505,484,489,464,455,447,466,429,420,437,402,423,399,401,393,391,400,424,412,401,402,415,404,412,422,433,498,536,606,472,418,407,409,426,416,397,404,417,408,418,406,0,0,0,0,0,0,0,0,0,0,0,0,0,0,0,0,0,0,0,0,0,0,0,0,0,0,0,0,0,0,0,0,0,0,0,0,0,0,0,0,0,0,0,0,0,0,0,0,0,0,0,0,0,0,0,0,0,0,0,0,0,0,0,0,0,522,507,507,526,580,534,603,660,716,809,747,736,726,715,705,694,683,673,681,752,660,650,638,629,619,608,596,586,576,557,546,535,557,512,533,512,513,499,499,498,499,503,525,501,510,514,506,504,504,508,521,527,530,522,637,588,536,527,511,500,521,502,517,507,501,0,0,0,0,0,0,0,0,0,0,0,0,0,0,0,0,0,0,0,0,0,0,0,0,0,0,0,0,0,0,0,0,0,0,0,0,0,0,0,0,0,0,0,0,0,0,0,0,0,0,0,0,0,0,0,0,0,0,0,0,0,0,0,0,0,1147,1094,1122,1193,1364,1370,1535,1695,1774,1748,1711,1711,1680,1621,1606,1593,1586,1548,1545,1521,1491,1497,1461,1405,1387,1346,1317,1269,1247,1244,1214,1220,1217,1148,1133,1162,1172,1115,1187,1177,1188,1200,1191,1210,1195,1199,1198,1211,1231,1229,1285,1288,1312,1241,1198,1223,1236,1231,1215,1212,1223,1191,1225,1218,1192,912,926,893,924,997,1088,1222,1342,1353,1382,1364,1356,1343,1326,1299,1271,1268,1227,1227,1243,1233,1205,1180,1160,1134,1164,1079,1050,1049,1012,980,980,959,937,935,939,940,927,948,936,939,935,968,1011,953,975,975,998,991,1006,1000,1003,978,1008,974,973,984,974,980,1037,1009,1027,1005,1003,1015,1124,1110,1131,1164,1376,1374,1557,1714,1806,1778,1741,1760,1687,1660,1633,1619,1592,1564,1587,1543,1516,1511,1484,1435,1408,1357,1328,1296,1271,1259,1231,1220,1197,1136,1142,1175,1160,1128,1184,1190,1185,1197,1210,1196,1228,1220,1211,1204,1221,1228,1291,1302,1313,1287,1265,1260,1234,1233,1226,1218,1223,1208,1221,1268,1207,1043,1029,1048,1133,1254,1251,1417,1747,1718,1647,1611,1613,1562,1537,1513,1501,1475,1450,1510,1434,1409,1406,1455,1334,1309,1298,1234,1204,1240,1172,1146,1137,1115,1109,1125,1093,1078,1046,1095,1090,1095,1136,1093,1134,1100,1105,1101,1097,1134,1111,1136,1145,1141,1135,1143,1120,1115,1137,1122,1119,1120,1122,1106,1137,1110,619,616,623,631,646,697,786,850,959,999,1002,997,950,986,954,914,919,893,878,831,818,803,790,824,762,763,749,741,725,723,679,675,651,645,632,629,643,631,622,633,639,651,642,647,637,652,630,645,633,631,633,645,647,646,646,644,640,642,653,644,638,634,631,644,633,763,739,759,778,925,850,962,1096,1283,1156,1156,1138,1121,1103,1088,1082,1064,1045,1062,1045,1027,1089,993,974,957,914,895,872,857,836,884,840,821,763,778,810,784,751,778,779,775,790,797,782,790,800,790,792,797,807,879,883,886,835,831,821,807,810,792,793,807,786,800,792,787,836,823,860,829,906,991,1147,1217,1291,1278,1358,1249,1255,1261,1192,1190,1189,1181,1205,1170,1121,1102,1111,1104,1109,1036,1017,956,936,935,893,937,892,833,844,852,856,837,835,833,839,838,971,845,847,852,853,868,920,945,860,864,868,861,989,899,871,864,896,866,869,870,878,869,878,512,481,487,489,487,521,621,642,713,771,778,783,740,759,750,714,724,712,700,645,634,624,613,644,593,582,572,582,570,557,530,532,509,508,544,492,493,517,499,501,500,503,504,509,501,510,503,504,500,504,500,517,510,511,507,516,513,509,510,519,510,519,498,508,504,522,507,507,526,580,534,603,660,716,809,747,736,726,715,705,694,683,673,681,752,660,650,638,629,619,608,596,586,576,557,546,535,557,512,533,512,513,499,499,498,499,503,525,501,510,514,506,504,504,508,521,527,530,522,637,588,536,527,511,500,521,502,517,507,501,691,715,726,728,721,796,940,1043,1139,1129,1250,1228,1118,1117,1099,1082,1128,1046,1028,974,992,905,920,947,921,865,847,893,852,792,747,756,737,694,706,769,704,681,697,708,709,714,713,709,716,720,714,716,709,713,715,720,724,718,728,733,718,718,726,717,730,716,722,722,713,1137,1175,1209,1225,1256,1407,1640,1782,1792,1854,1805,1858,1811,1789,1720,1666,1738,1676,1611,1612,1562,1533,1494,1496,1525,1407,1364,1378,1345,1315,1239,1217,1225,1141,1173,1168,1173,1151,1197,1210,1204,1233,1211,1244,1216,1238,1220,1225,1228,1216,1233,1222,1245,1258,1250,1257,1243,1242,1254,1238,1243,1252,1253,1268,1254,0,0,0,0,0,0,0,0,0,0,0,0,0,0,0,0,0,0,0,0,0,0,0,0,0,0,0,0,0,0,0,0,0,0,0,0,0,0,0,0,0,0,0,0,0,0,0,0,0,0,0,0,0,0,0,0,0,0,0,0,0,0,0,0,0,658,660,662,664,682,755,852,950,1036,1077,1078,1061,1044,1057,1010,993,976,959,942,925,908,891,874,847,840,812,807,790,761,755,739,722,705,688,672,671,670,675,663,659,662,669,669,664,670,675,679,670,668,668,666,668,671,674,703,691,678,679,680,676,685,675,676,676,672,420,421,423,424,426,458,519,574,641,690,699,682,671,666,649,643,646,621,623,611,588,589,577,554,543,543,516,509,509,487,476,460,453,452,440,427,428,429,425,422,426,430,438,437,426,435,429,438,431,426,433,432,432,445,441,438,430,439,432,445,437,437,435,442,440,463,464,466,467,470,509,575,642,709,756,764,751,739,727,715,703,691,679,667,655,643,631,619,606,594,582,570,558,546,512,522,510,498,486,474,450,471,472,460,462,461,460,484,484,496,485,470,499,485,476,478,469,469,487,479,475,488,468,469,480,476,492,481,504,476,825,831,815,827,880,989,1103,1238,1316,1355,1364,1324,1314,1321,1261,1239,1255,1198,1180,1155,1132,1115,1104,1067,1061,1030,1019,982,965,956,922,914,878,858,864,842,844,842,843,855,853,868,854,878,864,875,863,864,867,856,868,862,876,883,878,885,875,873,886,875,869,873,874,882,871,501,502,504,505,510,554,627,701,732,779,826,813,800,787,774,761,748,735,721,708,695,649,669,656,643,630,616,603,562,577,537,551,538,499,512,483,510,486,490,490,495,503,499,518,506,523,518,503,525,504,501,503,502,518,503,502,508,510,504,500,504,511,499,515,501,475,476,478,479,483,525,595,665,736,782,789,776,777,751,738,726,713,700,688,675,674,650,637,625,612,599,587,574,561,549,536,524,511,498,495,482,492,494,509,479,475,483,471,476,472,483,477,517,473,473,473,477,504,477,490,480,479,484,481,477,490,487,478,490,485,747,753,737,746,788,860,985,1087,1187,1230,1229,1203,1174,1189,1147,1119,1129,1088,1073,1049,1028,1014,994,970,955,935,915,892,877,857,838,818,788,779,786,762,764,763,753,754,755,761,851,823,808,820,793,883,823,814,839,783,814,831,814,791,853,802,793,848,823,856,850,859,815,691,715,726,728,721,796,940,1043,1139,1129,1250,1228,1118,1117,1099,1082,1128,1046,1028,974,992,905,920,947,921,865,847,893,852,792,747,756,737,694,706,769,704,681,697,708,709,714,713,709,716,720,714,716,709,713,715,720,724,718,728,733,718,718,726,717,730,716,722,722,713,357,358,359,360,361,385,437,489,540,586,596,586,577,566,558,548,538,529,519,510,500,491,481,472,462,453,443,434,424,414,405,395,386,376,367,362,363,364,358,349,349,358,345,373,354,354,358,357,376,363,362,355,360,376,386,355,354,371,355,366,361,354,364,380,360,713,715,717,719,744,820,943,1036,1124,1243,1165,1146,1140,1137,1091,1073,1054,1093,1027,1052,980,962,947,929,956,888,886,871,905,824,796,777,759,740,727,739,725,727,726,728,728,737,728,726,730,730,736,726,730,728,733,731,733,735,737,740,732,738,733,741,738,749,736,739,738,779,781,783,786,818,903,1013,1149,1204,1295,1236,1242,1198,1179,1220,1142,1123,1153,1085,1067,1048,1029,1010,992,993,954,935,928,898,879,860,842,844,804,792,789,791,793,798,802,799,808,810,808,809,823,799,809,804,804,809,820,818,812,816,814,812,808,824,822,805,812,810,815,810,0,0,0,0,0,0,0,0,0,0,0,0,0,0,0,0,0,0,0,0,0,0,0,0,0,0,0,0,0,0,0,0,0,0,0,0,0,0,0,0,0,0,0,0,0,0,0,0,0,0,0,0,0,0,0,0,0,0,0,0,0,0,0,0,0,758,761,763,765,796,879,987,1095,1178,1213,1210,1211,1173,1154,1136,1117,1099,1080,1062,1200,1025,1006,988,969,951,932,914,906,877,858,840,834,824,784,772,769,771,773,772,775,775,791,810,777,785,792,786,786,801,809,897,907,911,835,925,881,825,814,797,777,798,779,795,785,783,853,913,858,908,907,1058,1129,1250,1328,1439,1369,1408,1314,1293,1272,1252,1231,1261,1189,1169,1206,1127,1106,1086,1065,1044,1060,1003,982,961,941,982,899,927,910,865,867,869,884,881,898,897,892,914,901,920,915,902,934,906,909,914,914,928,905,901,911,917,913,913,912,921,898,916,919,872,874,903,869,932,1035,1197,1305,1370,1423,1417,1397,1374,1352,1329,1288,1277,1244,1246,1239,1190,1168,1146,1133,1103,1078,1066,1025,1014,990,954,949,909,884,877,867,887,871,884,882,878,890,896,886,892,891,897,898,906,914,1000,994,1007,925,890,905,914,923,901,899,928,897,896,899,891,373,374,364,365,376,393,423,462,501,537,546,539,531,524,517,509,502,495,487,480,469,465,453,465,443,436,429,421,422,415,408,401,394,429,380,366,367,378,363,364,370,384,374,371,373,386,370,376,383,393,423,419,425,397,371,376,383,391,384,372,381,387,377,378,377,718,779,722,733,750,839,929,1030,1112,1200,1159,1128,1111,1093,1140,1058,1093,1074,1005,988,970,953,935,918,900,883,865,848,830,813,795,843,760,743,731,728,730,732,732,733,740,781,759,764,756,731,751,764,777,748,779,777,795,778,781,761,746,744,738,746,739,744,739,771,728,737,739,766,743,772,853,969,1080,1168,1207,1207,1187,1168,1148,1130,1174,1159,1096,1053,1057,1015,995,1008,961,937,948,899,935,861,841,823,803,817,765,751,788,750,792,753,763,767,784,885,838,789,839,790,917,821,844,836,785,815,861,821,792,867,806,795,844,829,896,833,828,804,357,358,359,360,361,385,437,489,540,586,596,586,577,566,558,548,538,529,519,510,500,491,481,472,462,453,443,434,424,414,405,395,386,376,367,362,363,364,358,349,349,358,345,373,354,354,358,357,376,363,362,355,360,376,386,355,354,371,355,366,361,354,364,380,360,723,725,728,745,751,901,987,1106,1149,1255,1189,1248,1254,1251,1113,1094,1110,1091,1072,1018,999,980,961,942,953,904,885,865,840,827,808,789,770,751,738,728,793,738,747,737,741,747,783,777,766,790,767,793,779,776,766,751,754,775,766,751,778,758,752,767,762,785,764,770,762,1166,1189,1170,1254,1348,1498,1695,1892,1886,1974,1961,1874,1901,1875,1818,1761,1736,1793,1710,1625,1589,1553,1562,1578,1546,1478,1475,1408,1396,1328,1271,1241,1249,1190,1195,1197,1248,1209,1231,1229,1241,1230,1361,1238,1243,1242,1245,1266,1330,1353,1280,1276,1279,1267,1404,1306,1275,1281,1341,1294,1291,1275,1306,1296,1325,363,364,366,367,368,392,445,540,595,596,607,597,587,578,568,558,548,539,529,519,510,500,490,480,471,461,451,442,432,422,412,403,393,383,374,369,370,371,370,355,360,361,356,369,362,372,369,363,373,361,363,362,362,366,366,365,362,364,363,362,363,365,364,374,369,551,553,555,556,564,616,698,780,860,906,912,897,912,868,884,839,824,810,795,781,766,752,737,722,708,693,679,664,650,635,621,606,591,577,564,560,561,563,555,549,549,554,562,547,548,550,552,561,564,563,560,588,564,556,593,569,557,564,565,563,564,563,568,570,572,0,0,0,0,0,0,0,0,0,0,0,0,0,0,0,0,0,0,0,0,0,0,0,0,0,0,0,0,0,0,0,0,0,0,0,0,0,0,0,0,0,0,0,0,0,0,0,0,0,0,0,0,0,0,0,0,0,0,0,0,0,0,0,0,0,773,757,777,751,854,890,1002,1182,1190,1237,1245,1212,1211,1169,1123,1250,1111,1106,1068,1060,1099,1078,996,974,968,948,928,904,905,869,883,861,831,814,770,750,755,757,777,786,786,791,850,825,827,831,802,877,844,848,843,807,813,839,823,813,841,821,828,841,829,858,836,841,831,1057,1063,1073,1067,1210,1304,1478,1617,1709,1726,1726,1692,1653,1625,1610,1560,1556,1536,1557,1464,1441,1418,1391,1368,1346,1310,1294,1246,1238,1210,1163,1147,1116,1091,1115,1078,1083,1081,1108,1105,1105,1133,1130,1129,1133,1133,1124,1135,1143,1139,1138,1165,1184,1176,1162,1138,1131,1143,1126,1123,1113,1143,1130,1143,1107,478,480,481,482,486,534,596,675,735,782,790,777,765,762,740,727,715,702,690,677,665,652,639,627,614,602,589,577,564,552,539,527,514,502,490,485,487,488,478,485,479,493,557,529,519,545,500,568,527,562,526,498,508,531,513,502,546,523,502,530,517,560,527,524,507,702,704,737,708,787,808,928,1077,1110,1150,1152,1201,1129,1153,1079,1060,1042,1024,1050,987,968,962,932,924,895,887,858,840,822,803,785,766,748,730,767,712,714,716,725,737,720,751,739,736,738,753,733,749,756,746,741,731,729,736,740,744,730,735,725,730,721,736,731,733,713,971,983,995,979,1109,1191,1351,1487,1573,1603,1592,1574,1536,1511,1498,1442,1432,1421,1388,1359,1338,1317,1293,1259,1240,1217,1192,1159,1151,1114,1081,1065,1038,1013,1036,999,1003,1000,996,1008,1022,1039,1017,1027,1017,1037,1017,1036,1017,1013,1014,1027,1034,1046,1039,1039,1026,1017,1035,1037,1032,1035,1016,1029,1019,723,725,728,745,751,901,987,1106,1149,1255,1189,1248,1254,1251,1113,1094,1110,1091,1072,1018,999,980,961,942,953,904,885,865,840,827,808,789,770,751,738,728,793,738,747,737,741,747,783,777,766,790,767,793,779,776,766,751,754,775,766,751,778,758,752,767,762,785,764,770,762,835,843,849,825,903,959,1106,1310,1302,1390,1345,1407,1304,1315,1276,1237,1220,1214,1161,1195,1123,1135,1093,1035,1067,1088,1011,977,1019,1005,943,892,897,873,839,848,858,830,855,854,866,900,882,859,877,894,870,873,871,878,876,873,882,882,877,867,879,873,886,891,874,893,871,874,879,1230,1252,1229,1316,1437,1500,1711,1918,1914,1930,1947,1906,1849,1833,1790,1749,1765,1737,1717,1673,1724,1613,1590,1517,1493,1495,1466,1422,1390,1376,1319,1317,1361,1260,1245,1223,1240,1270,1299,1306,1285,1297,1298,1321,1312,1340,1327,1337,1353,1329,1336,1336,1350,1351,1326,1348,1341,1349,1360,1344,1342,1352,1345,1325,1328,705,707,702,774,751,808,921,1029,1142,1161,1141,1140,1116,1105,1079,1069,1052,1034,1016,978,960,963,966,913,905,892,860,856,822,821,806,798,749,732,719,715,717,719,717,720,726,729,736,728,726,732,730,733,745,740,744,767,753,746,730,746,743,732,723,743,735,733,726,739,731,1027,966,1023,1136,1053,1254,1392,1550,1629,1605,1608,1559,1589,1518,1533,1479,1444,1423,1425,1348,1363,1443,1321,1244,1231,1197,1209,1178,1120,1126,1084,1041,1016,993,1014,1006,1034,985,1059,1035,1015,1024,1022,1038,1031,1043,1047,1113,1047,1095,1089,1098,1052,1119,1104,1044,1042,1043,1087,1119,1087,1111,1105,1099,1078,971,949,983,950,1031,1215,1353,1423,1563,1582,1538,1523,1548,1487,1493,1462,1419,1411,1402,1355,1343,1302,1292,1228,1282,1159,1216,1164,1108,1087,1072,1043,1003,986,1022,996,968,961,984,984,994,1026,994,1014,997,998,992,990,1015,999,1007,1015,1013,1014,1012,1019,999,1000,1012,1000,999,1007,990,1014,1006,0,0,0,0,0,0,0,0,0,0,0,0,0,0,0,0,0,0,0,0,0,0,0,0,0,0,0,0,0,0,0,0,0,0,0,0,0,0,0,0,0,0,0,0,0,0,0,0,0,0,0,0,0,0,0,0,0,0,0,0,0,0,0,0,0,727,741,732,734,799,899,993,1099,1150,1182,1183,1209,1193,1132,1163,1159,1097,1075,1084,1008,999,998,954,981,936,942,888,895,864,842,812,808,778,761,737,761,740,776,738,733,739,746,747,746,748,746,747,759,752,753,758,779,793,777,783,769,760,776,763,758,770,767,767,772,761,761,764,820,771,800,957,1048,1124,1276,1259,1269,1226,1262,1201,1218,1170,1145,1126,1134,1063,1084,1066,1055,983,976,948,967,942,889,904,866,828,810,790,809,800,777,777,767,770,787,801,785,798,777,797,779,807,790,781,789,791,802,816,800,795,802,791,800,802,799,807,785,795,790,367,412,370,414,416,398,451,551,557,616,613,603,593,584,623,564,554,544,535,525,515,505,495,485,476,466,456,484,436,427,452,407,397,387,377,405,407,375,371,381,380,385,386,386,380,385,376,399,378,379,384,386,400,412,399,388,391,379,393,389,391,394,380,392,381,831,765,754,770,870,871,986,1253,1187,1239,1276,1207,1203,1183,1319,1129,1110,1092,1084,1051,1082,1018,1005,1012,952,945,926,942,875,856,826,849,801,777,836,770,800,765,785,786,784,784,784,790,795,794,790,791,791,787,794,790,793,793,804,798,792,795,797,798,794,809,795,804,799,835,843,849,825,903,959,1106,1310,1302,1390,1345,1407,1304,1315,1276,1237,1220,1214,1161,1195,1123,1135,1093,1035,1067,1088,1011,977,1019,1005,943,892,897,873,839,848,858,830,855,854,866,900,882,859,877,894,870,873,871,878,876,873,882,882,877,867,879,873,886,891,874,893,871,874,879,616,623,584,597,624,708,752,857,941,985,968,951,994,948,906,902,913,865,882,840,834,802,773,796,757,774,727,711,697,682,667,637,633,620,604,605,625,615,621,592,595,615,606,616,598,611,609,608,629,616,613,614,605,626,621,622,607,611,611,618,625,618,626,649,617,596,584,594,596,598,665,779,798,951,921,926,912,919,883,884,854,859,879,844,796,782,792,753,878,725,732,733,681,694,658,638,638,632,598,602,599,624,583,587,591,584,599,593,593,598,613,593,588,593,607,601,592,595,601,601,600,598,603,593,599,598,611,614,611,601,973,937,954,1012,1008,1240,1342,1437,1473,1522,1522,1492,1509,1537,1487,1397,1391,1415,1324,1325,1339,1254,1224,1376,1250,1226,1131,1165,1189,1104,1042,1051,984,1060,975,949,966,1000,1005,1007,990,1000,989,1015,998,1007,1032,1080,1012,1031,1032,1029,1020,1053,1047,1020,1019,1006,1022,1049,1019,1032,1036,1031,1017,997,1003,1003,1026,1128,1235,1417,1558,1710,1663,1655,1616,1590,1563,1536,1551,1528,1456,1441,1410,1402,1348,1308,1304,1277,1247,1214,1187,1160,1169,1115,1076,1061,1083,1048,1021,1019,1019,1050,1038,1051,1074,1059,1062,1058,1060,1067,1069,1070,1058,1095,1092,1114,1095,1087,1075,1050,1074,1061,1057,1053,1082,1062,1087,1053,1047,1056,1048,1083,1190,1299,1547,1624,1720,1787,1707,1680,1652,1625,1598,1620,1598,1516,1501,1469,1494,1407,1366,1407,1352,1303,1320,1243,1216,1188,1213,1182,1167,1084,1084,1073,1072,1097,1120,1091,1103,1100,1127,1141,1118,1110,1120,1133,1166,1162,1193,1173,1168,1172,1168,1149,1154,1176,1208,1215,1181,1190,1190,1225,1189,674,709,692,717,697,772,872,968,1047,1103,1107,1098,1080,1035,1086,1018,1000,982,1039,984,917,983,895,873,860,842,824,810,787,772,754,740,732,708,688,686,693,688,671,676,684,693,687,692,680,689,679,710,686,685,695,692,712,730,706,699,707,695,703,709,712,720,695,702,697,0,0,0,0,0,0,0,0,0,0,0,0,0,0,0,0,0,0,0,0,0,0,0,0,0,0,0,0,0,0,0,0,0,0,0,0,0,0,0,0,0,0,0,0,0,0,0,0,0,0,0,0,0,0,0,0,0,0,0,0,0,0,0,0,0,795,801,800,806,869,936,1072,1198,1283,1318,1318,1284,1263,1244,1221,1233,1227,1161,1152,1126,1124,1076,1041,1044,1023,999,972,953,932,911,897,864,855,827,815,816,814,811,817,818,813,823,824,825,840,833,824,828,827,832,829,833,836,837,833,827,839,835,835,838,830,841,829,832,821,489,480,506,500,504,542,591,684,758,777,816,814,795,773,760,744,734,721,691,699,682,677,634,655,630,617,604,594,578,546,549,537,540,519,498,507,504,499,486,493,499,509,504,510,493,509,491,531,504,521,504,503,526,548,519,509,519,510,513,514,518,525,498,504,498,208,209,209,210,211,218,247,275,304,332,346,340,335,330,324,319,313,308,302,297,291,286,281,275,270,264,259,253,248,242,237,232,226,221,215,211,212,212,196,204,201,204,205,207,203,210,200,209,202,201,204,207,212,216,211,207,204,201,213,209,205,205,203,209,203,616,623,584,597,624,708,752,857,941,985,968,951,994,948,906,902,913,865,882,840,834,802,773,796,757,774,727,711,697,682,667,637,633,620,604,605,625,615,621,592,595,615,606,616,598,611,609,608,629,616,613,614,605,626,621,622,607,611,611,618,625,618,626,649,617,272,273,274,274,275,266,301,337,442,489,493,524,518,513,458,482,490,408,401,465,389,467,340,333,326,319,313,306,299,292,286,279,272,286,280,254,255,256,250,251,273,335,277,243,266,297,279,255,293,282,261,264,296,288,282,256,264,257,273,277,249,268,258,255,258,746,734,737,738,744,831,923,1070,1146,1231,1207,1212,1183,1166,1110,1104,1090,1060,1078,1070,1063,981,943,920,924,887,847,892,857,821,792,774,798,758,726,721,723,725,746,724,717,725,776,810,747,746,762,775,761,787,784,789,756,760,774,771,790,769,792,854,801,810,823,785,790,610,612,613,615,627,688,779,852,953,1029,1040,1010,996,983,969,1006,941,927,873,899,854,826,810,794,778,750,747,719,703,688,684,668,652,677,617,613,615,616,607,616,607,626,616,630,610,616,624,613,613,615,608,616,614,613,617,626,619,618,619,622,623,645,625,638,625,339,340,341,342,343,364,408,451,519,545,550,536,538,528,513,512,514,507,500,493,462,491,446,437,429,421,413,405,397,388,380,372,364,356,347,340,344,342,320,320,322,323,323,324,324,325,325,326,326,327,328,330,330,331,331,332,332,333,333,338,335,335,337,337,338,590,591,593,595,606,665,754,826,927,1003,989,985,971,958,944,923,917,903,850,876,831,803,787,772,756,728,725,697,702,666,663,647,632,616,597,605,594,609,595,591,593,601,598,608,599,601,606,606,602,600,596,601,596,592,600,605,603,602,599,596,606,615,607,615,606,612,646,616,618,630,692,783,874,959,999,1002,990,974,958,942,926,910,894,878,862,846,830,814,838,782,766,748,784,718,702,684,671,652,639,625,621,623,625,618,628,628,639,647,647,651,645,626,646,634,623,634,641,639,636,664,649,626,625,636,634,623,634,638,639,625,734,759,761,748,788,889,987,1102,1177,1194,1209,1177,1175,1157,1140,1130,1111,1066,1072,1052,1011,1003,991,972,944,935,916,877,857,858,848,808,799,779,765,762,765,766,748,748,768,782,745,762,753,754,755,768,783,769,767,766,763,771,768,768,755,768,789,771,774,762,760,784,781,0,0,0,0,0,0,0,0,0,0,0,0,0,0,0,0,0,0,0,0,0,0,0,0,0,0,0,0,0,0,0,0,0,0,0,0,0,0,0,0,0,0,0,0,0,0,0,0,0,0,0,0,0,0,0,0,0,0,0,0,0,0,0,0,0,477,479,480,482,486,528,598,669,739,786,793,780,767,768,742,729,717,704,704,678,666,653,652,628,615,602,590,577,564,552,539,526,514,538,526,485,495,525,494,498,500,495,503,499,510,499,507,499,506,501,504,502,509,518,514,522,507,508,508,506,509,507,510,511,501,616,618,620,622,635,714,790,959,967,1060,994,1055,966,952,938,933,916,900,885,868,855,900,879,804,787,771,755,787,723,708,702,701,658,642,629,625,627,628,622,633,632,633,640,637,639,636,632,644,631,634,634,639,651,660,652,652,642,645,647,637,644,638,641,649,632,272,273,274,274,275,266,301,337,442,489,493,524,518,513,458,482,490,408,401,465,389,467,340,333,326,319,313,306,299,292,286,279,272,286,280,254,255,256,250,251,273,335,277,243,266,297,279,255,293,282,261,264,296,288,282,256,264,257,273,277,249,268,258,255,258,552,581,588,557,594,653,736,830,871,954,983,908,896,899,867,883,823,844,822,816,813,786,772,721,754,708,740,695,661,684,658,665,601,578,603,604,590,591,594,588,600,596,599,609,602,595,592,599,613,605,610,606,606,618,608,603,596,606,599,610,602,600,595,608,618,910,943,929,937,1043,1091,1274,1354,1452,1530,1532,1477,1456,1458,1374,1392,1367,1321,1352,1291,1251,1223,1213,1181,1213,1179,1111,1102,1090,1045,1040,997,992,990,957,954,956,948,982,969,973,978,977,976,1043,1038,977,1007,992,981,982,1029,1036,1049,1038,1043,1038,1047,1055,1029,1012,1012,985,983,985,590,585,622,584,593,638,727,812,891,934,958,923,904,894,875,853,869,840,850,825,806,778,785,790,758,732,705,700,700,676,647,644,618,601,591,587,652,595,603,598,599,605,614,631,624,631,622,618,633,615,615,617,610,630,617,613,619,613,608,621,623,619,613,625,615,785,778,792,787,821,915,1039,1166,1357,1281,1274,1258,1237,1213,1203,1184,1180,1134,1145,1096,1068,1047,1055,1013,985,987,947,929,909,900,864,844,826,803,790,842,787,805,795,779,783,782,794,793,792,801,792,793,799,802,802,806,807,815,815,813,809,814,809,810,818,822,827,827,827,805,790,813,801,830,932,1040,1199,1264,1281,1278,1258,1238,1225,1220,1177,1187,1140,1152,1097,1077,1064,1061,1016,1003,998,970,938,915,919,875,860,835,815,808,799,807,819,801,793,808,824,814,817,808,828,818,825,822,814,823,850,871,854,843,835,807,823,813,809,805,825,821,836,807,276,277,278,278,279,282,331,369,407,444,460,449,442,435,428,420,399,406,399,392,385,365,370,351,356,349,342,334,327,318,313,306,299,291,282,280,281,281,264,262,263,265,265,268,266,268,266,269,269,269,268,270,270,268,270,271,272,272,271,271,273,273,273,273,273,450,442,456,457,460,484,575,610,692,738,746,736,706,694,683,688,660,664,637,624,629,602,605,593,582,556,558,532,534,522,511,524,487,475,464,447,460,462,462,453,458,463,452,483,456,465,458,468,471,467,454,460,463,463,461,467,471,478,468,468,461,458,465,458,454,618,576,590,584,621,643,725,811,886,929,928,918,904,885,882,869,872,831,849,806,784,769,784,747,726,734,700,688,674,672,642,628,616,599,586,587,581,598,570,573,582,608,583,590,570,580,575,569,578,577,573,579,580,591,586,590,579,586,584,593,587,595,583,593,586,0,0,0,0,0,0,0,0,0,0,0,0,0,0,0,0,0,0,0,0,0,0,0,0,0,0,0,0,0,0,0,0,0,0,0,0,0,0,0,0,0,0,0,0,0,0,0,0,0,0,0,0,0,0,0,0,0,0,0,0,0,0,0,0,0,487,467,469,470,474,499,625,649,697,763,825,759,780,769,754,710,680,685,706,644,648,620,624,612,639,614,575,563,550,525,563,550,501,489,477,473,510,476,478,480,479,499,521,507,493,525,503,517,526,533,616,625,640,554,498,485,527,498,488,503,506,517,510,503,503,552,581,588,557,594,653,736,830,871,954,983,908,896,899,867,883,823,844,822,816,813,786,772,721,754,708,740,695,661,684,658,665,601,578,603,604,590,591,594,588,600,596,599,609,602,595,592,599,613,605,610,606,606,618,608,603,596,606,599,610,602,600,595,608,618,420,421,428,424,425,459,521,575,636,678,687,676,666,661,645,656,635,626,603,593,582,572,561,551,540,530,520,547,534,488,496,467,453,441,430,426,427,434,424,426,429,437,435,431,434,439,430,434,432,433,435,441,446,444,439,432,438,439,442,437,434,445,433,439,434,513,515,522,499,524,570,611,693,748,794,801,809,776,764,752,739,727,714,741,728,677,682,653,661,628,631,603,591,578,592,573,568,532,519,547,521,528,529,517,516,515,526,517,516,514,519,514,518,517,516,521,525,523,519,524,522,522,519,522,525,518,521,522,523,523,870,873,856,811,855,948,1073,1223,1278,1411,1347,1288,1280,1274,1238,1255,1235,1175,1154,1133,1112,1091,1060,1049,1028,1007,1018,962,941,938,936,878,857,858,834,821,823,828,839,835,843,843,838,867,848,846,850,851,860,852,843,844,855,862,858,870,861,866,856,855,852,847,860,854,839,828,884,833,837,932,989,1165,1258,1342,1378,1374,1441,1329,1347,1284,1261,1239,1216,1194,1171,1149,1126,1104,1081,1059,1036,1058,991,969,946,923,901,878,857,889,841,844,854,881,848,844,900,853,861,843,858,860,881,875,863,869,860,864,864,894,860,858,867,867,868,868,859,869,886,856,881,883,886,893,958,1051,1191,1324,1408,1442,1438,1415,1411,1369,1346,1323,1300,1277,1254,1248,1208,1185,1308,1139,1131,1093,1070,1047,1024,1001,978,968,932,910,897,894,896,899,906,901,896,962,930,904,907,927,916,932,959,929,937,917,906,912,929,928,912,915,901,912,909,930,950,940,915,734,705,733,710,763,879,1026,1063,1106,1203,1203,1159,1115,1145,1121,1105,1103,1023,1005,1026,1039,950,965,914,895,909,859,841,822,833,813,767,746,757,717,734,745,717,737,726,722,739,731,728,731,744,729,736,729,725,736,732,741,735,744,735,749,739,737,724,737,744,739,743,745,220,221,221,222,223,231,261,291,321,350,364,359,373,367,341,336,330,324,319,313,307,301,296,290,284,279,273,267,262,256,250,244,239,233,227,223,224,224,211,210,210,210,213,215,211,213,213,212,213,213,215,216,216,217,219,218,216,217,217,220,219,231,232,234,232,626,628,630,632,648,711,805,898,985,1029,1030,1015,997,981,964,948,932,915,901,882,866,850,833,817,801,784,769,753,735,720,702,686,670,653,641,636,638,647,631,639,638,651,646,653,640,660,640,648,642,639,645,653,655,659,656,654,648,647,663,657,651,657,656,668,657,454,455,457,458,461,500,567,634,700,748,755,743,731,719,706,694,682,673,693,646,634,622,610,598,586,574,563,549,537,525,513,501,489,479,465,461,462,463,454,447,446,449,480,471,462,473,464,488,469,458,475,452,458,469,467,458,473,455,452,470,469,483,475,484,471,0,0,0,0,0,0,0,0,0,0,0,0,0,0,0,0,0,0,0,0,0,0,0,0,0,0,0,0,0,0,0,0,0,0,0,0,0,0,0,0,0,0,0,0,0,0,0,0,0,0,0,0,0,0,0,0,0,0,0,0,0,0,0,0,0,420,421,428,424,425,459,521,575,636,678,687,676,666,661,645,656,635,626,603,593,582,572,561,551,540,530,520,547,534,488,496,467,453,441,430,426,427,434,424,426,429,437,435,431,434,439,430,434,432,433,435,441,446,444,439,432,438,439,442,437,434,445,433,439,434,0,0,0,0,0,0,0,0,0,0,0,0,0,0,0,0,0,0,0,0,0,0,0,0,0,0,0,0,0,0,0,0,0,0,0,0,0,0,0,0,0,0,0,0,0,0,0,0,0,0,0,0,0,0,0,0,0,0,0,0,0,0,0,0,0,468,469,453,472,475,515,582,649,757,740,754,733,778,733,721,709,710,685,726,640,657,636,633,593,585,569,576,563,583,539,527,515,503,473,482,458,476,460,458,473,462,494,461,484,463,488,471,479,475,467,481,472,485,484,481,479,484,479,491,477,480,487,481,492,492,768,770,756,758,808,895,985,1135,1177,1247,1244,1197,1256,1153,1141,1127,1091,1105,1060,1051,1023,1009,1013,970,948,934,959,891,877,919,852,844,800,778,787,762,764,769,772,776,774,771,785,794,812,815,786,810,798,793,792,797,790,816,804,794,800,784,783,799,791,798,791,818,789,488,489,491,492,496,540,612,684,756,829,808,796,786,770,770,771,731,718,705,749,682,669,653,641,628,637,610,597,576,563,550,537,526,511,499,502,513,498,506,493,493,494,503,510,496,503,502,500,502,501,504,506,506,516,518,513,504,510,509,519,516,534,537,545,537,767,787,771,774,827,894,1009,1154,1210,1294,1271,1224,1231,1235,1165,1145,1126,1131,1087,1067,1048,1028,1031,989,970,950,931,911,891,872,852,833,848,794,781,791,798,795,777,778,789,817,784,805,782,789,783,782,801,791,785,799,798,812,794,802,795,799,801,794,797,808,779,804,798,730,706,691,693,733,860,886,1157,1072,1139,1138,1093,1103,1143,1038,1024,1006,1014,1124,955,937,995,925,886,868,918,834,872,799,782,765,747,730,759,700,697,698,700,701,699,697,713,758,752,744,736,720,767,748,737,740,714,716,751,743,720,747,722,710,743,732,758,745,766,728,528,530,531,533,538,585,664,724,839,833,837,828,833,837,794,774,775,749,775,724,715,701,686,716,675,650,653,662,611,600,616,575,563,575,544,561,536,543,526,527,529,531,532,532,536,533,539,538,538,538,540,541,542,541,544,548,545,547,545,548,552,552,552,550,550,398,399,400,401,403,432,507,538,591,661,682,651,646,614,624,594,584,575,565,555,545,535,579,516,556,496,486,476,466,484,447,437,427,417,444,404,405,406,406,402,402,422,415,415,414,410,412,415,426,415,419,411,403,424,416,418,409,408,406,410,412,410,417,429,409,467,468,470,494,474,540,611,645,714,755,759,785,737,725,716,704,688,678,672,654,641,630,619,649,595,583,576,559,547,539,526,514,500,537,502,476,477,509,479,476,475,479,527,502,506,498,490,518,496,490,500,480,483,496,490,483,504,485,480,501,496,515,503,499,492,393,395,396,397,397,425,474,522,614,610,657,608,621,628,588,572,563,554,585,536,530,521,509,500,505,484,489,464,455,447,466,429,420,437,402,423,399,401,393,391,400,424,412,401,402,415,404,412,422,433,498,536,606,472,418,407,409,426,416,397,404,417,408,418,406,0,0,0,0,0,0,0,0,0,0,0,0,0,0,0,0,0,0,0,0,0,0,0,0,0,0,0,0,0,0,0,0,0,0,0,0,0,0,0,0,0,0,0,0,0,0,0,0,0,0,0,0,0,0,0,0,0,0,0,0,0,0,0,0,0 ]);
