n = 10;
D = [102,158,123,167,200,267,112,280,283,272 ];
q = 0;
prec = array2d(1..0,1..2,[]);
steps = 64;
l = 360;
r = 0;
which = [];
interval = array2d(1..0,1..2,[]);
T = array3d(1..11,1..11,0..64,[0,0,0,0,0,0,0,0,0,0,0,0,0,0,0,0,0,0,0,0,0,0,0,0,0,0,0,0,0,0,0,0,0,0,0,0,0,0,0,0,0,0,0,0,0,0,0,0,0,0,0,0,0,0,0,0,0,0,0,0,0,0,0,0,0,1654,1695,1836,2121,2442,2601,2848,2922,3016,2888,2922,2883,2755,2780,2721,2585,2642,2550,2488,2493,2438,2374,2253,2190,2131,2078,2015,1961,1922,1896,1835,1734,1766,1756,1714,1705,1741,1736,1914,1916,1935,1958,1939,1957,1934,1947,1932,1942,1969,1954,1981,2001,1988,1978,1966,1980,1964,1989,1987,1966,1994,1986,1969,1989,1987,924,909,898,920,1005,1098,1203,1349,1428,1438,1428,1402,1381,1338,1344,1323,1313,1291,1254,1249,1209,1205,1182,1134,1136,1100,1074,1057,1029,1004,990,996,945,944,943,965,939,924,927,947,943,959,981,970,965,991,953,1003,968,996,962,962,980,1005,984,977,983,974,973,985,981,1003,968,973,957,1152,1102,1113,1117,1257,1379,1515,1669,1721,1835,1805,1782,1674,1623,1623,1651,1566,1579,1599,1509,1544,1497,1437,1459,1354,1350,1301,1271,1270,1249,1252,1197,1171,1181,1139,1123,1161,1177,1225,1192,1184,1271,1239,1238,1229,1204,1219,1249,1259,1237,1246,1250,1222,1225,1211,1242,1248,1242,1275,1281,1220,1206,1261,1198,1197,461,470,463,464,466,499,545,635,656,670,691,683,675,647,660,651,644,613,628,595,587,593,584,561,553,544,555,527,518,542,501,493,484,521,482,466,467,467,483,452,457,457,453,465,461,470,464,465,470,458,461,460,460,464,465,464,461,462,460,460,461,464,463,472,469,779,782,764,785,818,911,995,1085,1167,1185,1158,1159,1153,1150,1117,1100,1063,1067,1050,1025,1009,1005,1006,960,944,928,912,923,885,868,849,832,816,807,789,781,790,792,770,775,787,810,784,800,781,797,778,789,791,786,779,789,798,816,800,798,785,789,798,795,794,799,783,808,793,879,864,874,890,958,1023,1154,1261,1339,1378,1368,1372,1312,1292,1277,1271,1262,1221,1211,1188,1198,1150,1124,1110,1081,1060,1038,1016,985,973,965,972,908,899,914,920,894,878,878,876,891,905,902,911,889,914,890,928,901,892,906,897,913,930,915,906,916,898,906,915,914,924,904,915,906,918,903,892,914,999,1092,1197,1343,1422,1432,1422,1396,1375,1332,1338,1317,1307,1285,1248,1243,1203,1199,1176,1128,1130,1094,1068,1051,1023,998,984,990,939,938,937,959,933,918,920,939,938,953,989,970,958,996,952,1013,968,1008,966,958,977,1007,983,969,988,969,966,983,980,1003,968,966,954,453,454,519,488,472,531,577,594,692,686,772,728,667,658,697,639,712,625,656,601,592,615,573,659,554,545,535,564,516,507,512,523,479,469,475,458,459,460,453,460,453,470,458,472,456,463,455,449,460,455,449,470,458,463,463,475,469,476,480,470,465,487,453,467,460,771,744,758,756,821,868,960,1096,1152,1195,1162,1137,1148,1115,1119,1115,1109,1070,1035,1053,1025,990,987,940,929,930,891,873,873,851,841,851,797,773,797,810,783,782,777,772,769,781,787,817,778,790,801,793,785,791,779,790,791,784,795,800,791,795,787,794,808,827,822,833,817,0,0,0,0,0,0,0,0,0,0,0,0,0,0,0,0,0,0,0,0,0,0,0,0,0,0,0,0,0,0,0,0,0,0,0,0,0,0,0,0,0,0,0,0,0,0,0,0,0,0,0,0,0,0,0,0,0,0,0,0,0,0,0,0,0,1764,1833,1888,2077,2196,2531,2648,2752,2824,2800,2837,2685,2760,2670,2583,2593,2555,2480,2480,2381,2445,2320,2258,2298,2174,2144,2128,2051,1993,1978,1937,1852,1828,1864,1795,1800,1849,1882,2117,2203,2154,2149,2182,2154,2179,2216,2177,2172,2222,2149,2186,2180,2201,2207,2367,2335,2246,2195,2217,2169,2186,2193,2231,2248,2165,0,0,0,0,0,0,0,0,0,0,0,0,0,0,0,0,0,0,0,0,0,0,0,0,0,0,0,0,0,0,0,0,0,0,0,0,0,0,0,0,0,0,0,0,0,0,0,0,0,0,0,0,0,0,0,0,0,0,0,0,0,0,0,0,0,1318,1384,1351,1402,1494,1672,1870,1998,2080,2050,2096,2022,2022,2052,1974,1941,1898,1875,1829,1777,1857,1750,1710,1677,1644,1608,1642,1548,1512,1455,1446,1413,1382,1354,1374,1358,1324,1407,1424,1417,1414,1417,1415,1425,1435,1429,1435,1434,1441,1426,1435,1437,1448,1456,1450,1460,1433,1450,1445,1438,1444,1471,1433,1447,1429,952,955,958,968,984,1203,1290,1498,1509,1490,1640,1462,1549,1465,1441,1417,1393,1520,1344,1380,1296,1326,1296,1271,1198,1174,1150,1087,1101,1148,1053,1096,1004,1022,969,966,1030,1071,1042,992,982,993,1050,1100,1020,1009,1021,1036,1067,1027,1040,1042,1049,1044,1032,1037,1059,1063,1068,1089,1032,1038,1093,1016,1014,1449,1452,1506,1606,1750,1960,2180,2288,2370,2348,2388,2287,2298,2339,2229,2249,2152,2078,2086,1996,2128,1948,1892,1890,1869,1793,1773,1776,1702,1630,1614,1558,1512,1516,1477,1481,1475,1502,1563,1552,1554,1565,1666,1643,1606,1634,1605,1703,1655,1654,1655,1601,1610,1657,1657,1612,1679,1647,1626,1686,1659,1708,1698,1720,1682,1337,1340,1355,1466,1699,2027,2363,2437,2499,2506,2475,2425,2376,2327,2278,2442,2297,2126,2082,2028,1984,1934,1998,1836,1787,1738,1689,1640,1591,1542,1493,1443,1399,1373,1364,1369,1379,1390,1455,1465,1437,1452,1445,1493,1457,1476,1488,1548,1470,1504,1489,1502,1483,1544,1511,1472,1471,1466,1487,1506,1502,1527,1507,1518,1488,1187,1204,1198,1239,1314,1578,1678,1794,1886,1859,1902,1830,1851,1866,1786,1759,1729,1728,1656,1606,1690,1577,1547,1517,1486,1453,1520,1414,1365,1327,1386,1274,1244,1222,1337,1236,1191,1242,1292,1305,1277,1289,1284,1317,1296,1319,1334,1392,1311,1344,1326,1335,1315,1372,1342,1309,1319,1299,1315,1348,1323,1351,1338,1345,1313,1312,1350,1366,1447,1550,1731,1941,2057,2159,2107,2152,2076,2085,2105,1968,1991,1966,1924,1877,1824,1838,1812,1754,1723,1686,1650,1683,1603,1551,1493,1483,1449,1376,1348,1409,1343,1318,1401,1421,1414,1406,1427,1541,1526,1464,1503,1460,1570,1521,1534,1525,1482,1488,1532,1525,1470,1545,1519,1504,1560,1518,1587,1559,1593,1514,1565,1500,1606,1695,1832,2018,2253,2297,2368,2384,2390,2315,2335,2361,2245,2219,2187,2120,2068,2042,2126,2060,1929,1938,1858,1832,1830,1763,1713,1719,1647,1602,1543,1587,1597,1522,1490,1581,1612,1600,1623,1636,1650,1656,1665,1681,1652,1665,1686,1672,1696,1698,1671,1692,1723,1721,1692,1717,1732,1725,1725,1736,1731,1731,1748,1094,1112,1101,1129,1193,1344,1550,1643,1763,1725,1768,1703,1712,1729,1655,1689,1599,1571,1543,1487,1610,1470,1430,1402,1374,1357,1400,1308,1272,1263,1205,1177,1149,1136,1213,1121,1097,1149,1139,1137,1153,1165,1164,1179,1157,1176,1152,1199,1173,1156,1168,1162,1176,1199,1181,1174,1184,1161,1170,1180,1180,1190,1168,1197,1173,1764,1833,1888,2077,2196,2531,2648,2752,2824,2800,2837,2685,2760,2670,2583,2593,2555,2480,2480,2381,2445,2320,2258,2298,2174,2144,2128,2051,1993,1978,1937,1852,1828,1864,1795,1800,1849,1882,2117,2203,2154,2149,2182,2154,2179,2216,2177,2172,2222,2149,2186,2180,2201,2207,2367,2335,2246,2195,2217,2169,2186,2193,2231,2248,2165,875,877,880,885,926,1051,1264,1309,1440,1467,1474,1451,1384,1434,1342,1321,1300,1309,1258,1202,1276,1180,1138,1194,1095,1074,1052,1081,1090,1064,967,946,924,904,890,887,889,892,921,909,905,914,906,914,913,919,927,984,920,947,959,954,935,970,967,927,921,929,951,966,951,968,966,966,950,1283,1284,1335,1383,1502,1661,1884,1990,2126,2066,2075,2070,2009,1976,1910,1890,1909,1770,1827,1794,1760,1697,1694,1643,1592,1599,1565,1475,1461,1460,1385,1351,1338,1341,1329,1340,1330,1321,1368,1375,1375,1411,1365,1413,1381,1405,1394,1407,1414,1395,1394,1389,1415,1418,1412,1422,1428,1411,1425,1412,1407,1422,1438,1442,1420,0,0,0,0,0,0,0,0,0,0,0,0,0,0,0,0,0,0,0,0,0,0,0,0,0,0,0,0,0,0,0,0,0,0,0,0,0,0,0,0,0,0,0,0,0,0,0,0,0,0,0,0,0,0,0,0,0,0,0,0,0,0,0,0,0,926,936,999,914,1007,1150,1277,1415,1542,1534,1480,1449,1522,1477,1469,1400,1375,1303,1330,1306,1277,1257,1243,1204,1164,1140,1131,1121,1095,1087,1034,1016,973,938,971,951,937,956,976,962,966,966,973,966,974,974,977,974,968,970,985,984,985,981,974,983,976,984,973,986,984,988,971,970,970,562,563,565,567,575,656,779,829,962,994,958,944,930,915,901,887,873,858,844,793,866,764,749,735,720,705,690,676,661,680,632,617,602,587,574,570,572,573,561,568,573,583,578,583,569,578,568,601,576,577,583,580,601,621,595,586,595,583,591,593,598,606,580,587,580,556,558,559,561,569,620,702,783,863,909,915,900,886,871,857,873,828,813,799,784,770,755,741,726,712,697,683,668,654,639,625,610,596,581,568,564,566,567,567,571,568,575,578,583,575,585,573,571,577,571,569,579,578,580,577,576,582,576,584,588,573,586,569,578,577,198,198,199,200,200,206,232,257,283,309,323,318,314,309,304,299,294,289,284,279,274,269,264,259,254,249,244,239,234,229,224,219,214,209,204,201,201,202,188,189,192,197,201,207,204,188,195,201,192,196,208,190,193,192,190,189,188,189,192,193,194,190,192,196,187,56,56,56,56,56,57,63,70,77,83,90,89,87,86,85,83,82,81,79,78,77,75,74,73,71,70,69,67,66,65,63,62,61,59,58,57,57,57,29,28,28,28,28,28,28,28,28,29,28,28,28,28,28,28,28,28,28,28,28,28,28,28,28,28,28,929,876,886,898,959,1080,1194,1331,1417,1450,1459,1436,1402,1418,1394,1329,1346,1278,1259,1232,1226,1196,1180,1171,1119,1115,1087,1061,1046,1003,979,982,938,920,908,900,897,903,925,928,883,881,934,914,909,915,913,931,976,925,942,955,960,936,937,948,948,970,1005,951,936,947,1000,951,921,381,382,383,385,402,412,466,520,574,620,631,621,611,608,598,581,578,561,551,541,514,521,511,485,491,481,471,461,451,498,431,421,411,401,396,403,404,405,394,395,399,397,391,399,393,395,396,388,397,395,388,388,427,455,404,392,412,395,399,394,404,399,386,396,393,875,877,880,885,926,1051,1264,1309,1440,1467,1474,1451,1384,1434,1342,1321,1300,1309,1258,1202,1276,1180,1138,1194,1095,1074,1052,1081,1090,1064,967,946,924,904,890,887,889,892,921,909,905,914,906,914,913,919,927,984,920,947,959,954,935,970,967,927,921,929,951,966,951,968,966,966,950,1232,1209,1260,1255,1365,1519,1708,1845,1943,1943,1953,1919,1887,1857,1878,1759,1784,1723,1762,1703,1608,1599,1595,1528,1524,1491,1462,1461,1422,1344,1363,1264,1303,1264,1211,1249,1244,1235,1274,1277,1273,1275,1280,1273,1295,1307,1279,1283,1291,1300,1367,1364,1318,1296,1311,1330,1340,1403,1396,1296,1336,1413,1422,1397,1325,1039,1015,1048,1093,1134,1201,1361,1598,1702,1632,1663,1638,1610,1530,1575,1552,1572,1486,1523,1456,1447,1427,1364,1398,1328,1285,1255,1255,1204,1120,1190,1137,1093,1090,1008,1070,1069,1063,1101,1078,1070,1084,1139,1187,1100,1100,1118,1139,1128,1147,1149,1147,1120,1121,1144,1130,1145,1133,1145,1212,1161,1167,1193,1142,1144,952,955,966,977,1043,1166,1359,1444,1568,1541,1534,1542,1479,1481,1456,1442,1386,1388,1404,1373,1308,1303,1278,1210,1162,1184,1152,1118,1115,1098,1061,1073,997,1025,1005,981,1019,996,992,997,1004,1011,1005,1008,999,1011,997,1029,1011,1009,1021,1019,1039,1059,1037,1030,1030,1022,1030,1031,1038,1049,1019,1030,1024,0,0,0,0,0,0,0,0,0,0,0,0,0,0,0,0,0,0,0,0,0,0,0,0,0,0,0,0,0,0,0,0,0,0,0,0,0,0,0,0,0,0,0,0,0,0,0,0,0,0,0,0,0,0,0,0,0,0,0,0,0,0,0,0,0,928,919,934,945,1021,1133,1259,1397,1539,1510,1517,1552,1482,1458,1434,1393,1404,1325,1361,1275,1273,1230,1269,1203,1158,1149,1134,1111,1064,1040,1031,1005,999,972,940,942,945,956,942,952,958,976,978,978,970,1003,971,1000,985,997,1009,978,1008,1054,991,983,1001,997,989,993,1003,1015,986,993,985,1263,1212,1215,1267,1386,1549,1748,1868,1957,1975,1908,1939,1898,1866,1827,1778,1770,1788,1722,1653,1617,1651,1592,1509,1480,1536,1459,1436,1388,1357,1323,1294,1231,1240,1237,1228,1224,1233,1281,1271,1282,1275,1288,1300,1279,1287,1296,1321,1297,1291,1296,1306,1297,1296,1304,1298,1285,1303,1282,1312,1296,1296,1292,1300,1313,865,868,867,878,908,1021,1156,1286,1364,1397,1356,1384,1340,1333,1300,1295,1256,1250,1256,1186,1177,1146,1138,1059,1055,1058,1050,1010,1000,1002,956,954,918,925,917,866,870,868,879,920,878,876,902,889,889,904,897,911,923,893,899,905,913,920,914,929,912,916,930,908,927,935,953,925,920,946,949,960,971,1037,1160,1419,1438,1627,1535,1528,1598,1473,1475,1450,1494,1380,1382,1472,1440,1302,1349,1272,1255,1156,1178,1146,1112,1109,1092,1055,1067,991,1019,999,1032,1070,1047,1040,1028,1036,1031,1060,1099,1042,1062,1069,1082,1075,1084,1076,1085,1069,1093,1063,1065,1073,1070,1061,1114,1087,1101,1083,1089,1110,852,849,870,863,957,1030,1162,1305,1375,1432,1468,1435,1421,1357,1341,1325,1262,1259,1278,1269,1179,1163,1146,1140,1079,1071,1052,1014,1007,992,951,987,909,874,881,864,893,891,873,897,894,892,915,888,900,916,896,901,914,886,905,899,922,931,1082,1027,938,907,904,898,897,893,905,942,883,659,661,660,665,682,773,896,947,1048,1077,1043,1064,1089,1030,1013,1011,978,961,970,965,910,935,880,831,835,824,807,789,803,823,738,721,699,716,673,669,670,669,672,671,668,674,677,685,676,679,685,723,674,676,676,678,676,671,680,683,677,680,670,683,678,680,683,679,676,1232,1209,1260,1255,1365,1519,1708,1845,1943,1943,1953,1919,1887,1857,1878,1759,1784,1723,1762,1703,1608,1599,1595,1528,1524,1491,1462,1461,1422,1344,1363,1264,1303,1264,1211,1249,1244,1235,1274,1277,1273,1275,1280,1273,1295,1307,1279,1283,1291,1300,1367,1364,1318,1296,1311,1330,1340,1403,1396,1296,1336,1413,1422,1397,1325,318,319,320,336,321,336,372,409,445,481,492,485,478,471,464,457,451,444,437,430,477,416,409,402,395,388,381,375,368,361,354,347,340,333,326,322,323,324,307,310,310,316,376,349,328,356,337,377,342,345,347,320,326,350,332,317,360,327,319,347,341,371,349,338,334,1553,1561,1634,1802,1905,2213,2362,2430,2408,2591,2416,2470,2401,2289,2308,2316,2309,2238,2185,2195,2105,2050,2064,2118,1942,1848,1805,1825,1786,1787,1675,1667,1673,1639,1605,1613,1582,1598,1746,1729,1725,1742,1755,1782,1774,1787,1764,1781,1813,1801,1886,1879,1886,1843,1833,1782,1797,1811,1804,1827,1811,1808,1831,1877,1808,617,638,635,637,635,715,809,902,988,1008,1034,1017,1001,963,955,931,915,919,883,867,870,835,819,821,787,789,772,745,724,708,692,691,674,658,644,626,628,649,676,619,626,629,619,646,624,642,641,632,641,628,630,633,639,638,639,630,632,642,633,636,637,637,629,640,645,882,876,879,885,967,1067,1176,1249,1408,1429,1561,1402,1380,1302,1334,1311,1236,1262,1223,1220,1236,1201,1149,1154,1152,1193,1058,1038,1016,1013,970,986,922,940,890,850,917,891,904,896,907,898,922,946,905,907,917,925,928,923,925,935,930,932,929,928,915,932,917,938,938,957,955,960,976,0,0,0,0,0,0,0,0,0,0,0,0,0,0,0,0,0,0,0,0,0,0,0,0,0,0,0,0,0,0,0,0,0,0,0,0,0,0,0,0,0,0,0,0,0,0,0,0,0,0,0,0,0,0,0,0,0,0,0,0,0,0,0,0,0,454,456,480,458,485,518,612,629,694,741,749,737,725,713,702,690,678,666,654,642,631,619,607,595,583,571,560,548,536,524,512,500,489,477,465,461,486,463,458,463,457,463,470,471,469,476,467,465,470,473,464,468,468,475,467,465,473,468,469,477,467,478,463,470,463,578,588,598,592,602,659,745,817,925,943,961,932,931,927,905,865,852,855,840,813,810,794,789,767,749,734,722,703,673,673,666,643,628,615,590,608,597,598,592,590,598,619,606,592,599,607,606,626,619,611,636,594,624,613,623,607,599,617,615,621,616,609,602,609,601,611,632,629,631,629,709,803,896,982,1002,1028,1011,995,957,949,925,909,913,877,861,864,829,813,815,781,783,766,739,718,702,686,685,668,652,638,620,622,643,629,626,623,630,636,630,636,632,638,637,642,647,707,699,710,649,629,644,649,662,642,632,667,636,634,634,630,545,547,549,585,559,611,757,817,912,899,903,889,946,916,845,896,816,802,787,773,758,744,730,715,701,747,672,657,643,628,614,648,618,570,589,586,582,605,578,577,582,592,592,598,582,601,585,588,590,587,591,596,598,605,602,603,596,599,605,605,603,614,613,621,614,462,463,481,462,469,508,574,666,736,755,790,747,764,752,739,727,690,678,689,677,642,630,616,604,614,581,569,577,545,538,539,527,497,485,473,486,487,488,467,468,472,485,467,473,469,475,475,467,473,465,471,470,471,475,469,471,472,477,473,480,472,484,471,476,473,318,319,320,336,321,336,372,409,445,481,492,485,478,471,464,457,451,444,437,430,477,416,409,402,395,388,381,375,368,361,354,347,340,333,326,322,323,324,307,310,310,316,376,349,328,356,337,377,342,345,347,320,326,350,332,317,360,327,319,347,341,371,349,338,334,712,715,733,719,738,829,931,1033,1117,1160,1162,1144,1127,1109,1091,1035,1106,1072,1019,1003,986,968,929,911,952,865,917,843,845,855,826,781,757,756,726,761,724,726,743,735,746,737,758,782,743,746,752,761,764,763,763,767,764,767,758,758,746,763,749,769,766,766,761,763,784,1587,1594,1635,1807,1908,2109,2310,2448,2537,2632,2530,2597,2405,2369,2345,2305,2265,2250,2206,2175,2104,2066,2135,1968,1960,1913,1879,1793,1810,1760,1731,1681,1624,1631,1621,1629,1608,1612,1746,1740,1739,1756,1857,1839,1793,1831,1790,1897,1846,1856,1841,1794,1804,1856,1849,1807,1873,1845,1824,1879,1851,1905,1885,1911,1869,527,529,530,518,538,568,661,724,798,859,866,852,839,825,790,772,784,770,764,750,730,716,702,689,657,644,648,610,604,607,577,579,566,538,539,535,537,538,529,530,534,542,537,537,544,542,537,539,539,539,542,553,557,553,542,539,542,548,549,540,540,550,539,545,541,1210,1205,1182,1316,1344,1512,1803,1831,1845,1930,1962,1930,1870,1840,1918,1920,1738,1707,1821,1751,1637,1618,1575,1544,1496,1479,1427,1444,1388,1391,1365,1324,1265,1385,1222,1228,1214,1241,1309,1307,1313,1367,1342,1328,1343,1356,1330,1358,1357,1350,1351,1369,1371,1371,1388,1353,1336,1343,1335,1333,1320,1351,1337,1355,1317,549,551,552,554,562,652,690,758,825,867,875,862,820,838,812,821,787,758,776,769,756,707,727,715,670,657,678,632,653,630,638,606,569,574,555,557,559,560,553,565,559,572,569,579,564,584,563,569,563,559,565,580,575,573,576,573,571,570,592,586,568,573,564,575,570,0,0,0,0,0,0,0,0,0,0,0,0,0,0,0,0,0,0,0,0,0,0,0,0,0,0,0,0,0,0,0,0,0,0,0,0,0,0,0,0,0,0,0,0,0,0,0,0,0,0,0,0,0,0,0,0,0,0,0,0,0,0,0,0,0,483,484,486,487,490,531,600,669,805,785,793,780,768,756,743,731,718,706,693,681,668,656,643,631,618,606,593,581,568,556,544,531,519,506,494,490,491,492,485,488,494,492,481,491,492,486,487,504,511,504,506,501,501,509,501,506,488,501,522,502,504,492,495,509,513,521,523,524,512,532,562,655,718,792,853,860,846,833,819,784,766,778,764,758,744,724,710,696,683,651,638,642,604,598,601,571,573,560,532,533,529,531,532,515,522,525,553,526,534,519,524,517,518,526,525,522,536,533,539,529,537,534,534,539,531,530,544,517,529,524,978,981,951,963,1106,1142,1359,1432,1578,1545,1599,1584,1490,1533,1544,1402,1380,1446,1367,1395,1293,1326,1274,1249,1194,1158,1198,1162,1148,1113,1046,1024,997,975,999,959,1027,1002,993,998,1004,1036,1011,1023,1011,1009,1006,1003,1017,1001,1013,1020,1020,1019,1020,1028,1008,1006,1016,1014,1004,1016,1007,1021,1006,666,681,658,672,691,745,884,962,1058,1111,1093,1076,1078,1060,1132,1025,989,972,989,936,936,902,909,883,850,848,815,798,799,763,759,729,710,710,705,676,703,696,691,691,694,693,686,687,703,702,689,690,699,693,695,699,701,697,694,692,695,700,699,685,699,698,698,695,700,712,715,733,719,738,829,931,1033,1117,1160,1162,1144,1127,1109,1091,1035,1106,1072,1019,1003,986,968,929,911,952,865,917,843,845,855,826,781,757,756,726,761,724,726,743,735,746,737,758,782,743,746,752,761,764,763,763,767,764,767,758,758,746,763,749,769,766,766,761,763,784,872,816,818,822,854,972,1200,1313,1375,1352,1376,1388,1290,1308,1251,1232,1195,1158,1156,1154,1192,1079,1059,1039,1020,1049,980,1057,969,968,928,907,887,867,854,880,852,870,889,851,853,850,883,911,873,873,871,891,928,896,901,913,909,913,869,883,894,911,914,916,885,896,919,879,884,1107,1096,1084,1123,1251,1391,1553,1688,1678,1772,1752,1823,1709,1720,1691,1663,1614,1588,1685,1508,1519,1456,1446,1399,1390,1360,1333,1303,1275,1297,1218,1189,1173,1151,1144,1136,1143,1209,1167,1203,1203,1188,1210,1191,1213,1235,1199,1197,1227,1184,1210,1204,1216,1216,1268,1281,1251,1208,1212,1200,1191,1188,1208,1260,1181,194,195,195,196,196,203,229,255,281,307,322,317,312,307,302,297,292,287,282,277,272,266,261,256,251,246,241,236,231,226,221,216,211,206,201,197,198,198,188,184,193,246,202,181,181,186,188,231,268,190,200,200,192,185,187,203,182,181,184,182,186,184,187,194,184,773,776,760,798,814,878,997,1111,1199,1235,1267,1290,1239,1179,1159,1167,1120,1127,1128,1057,1049,1021,1001,1002,973,957,943,939,904,883,843,842,801,784,788,785,767,806,791,787,800,814,805,804,801,795,792,823,830,813,820,813,807,817,815,815,795,806,795,807,798,795,797,805,814,531,502,504,505,510,584,698,773,805,877,859,847,834,860,809,796,765,735,740,745,766,683,669,656,643,661,617,633,619,626,592,578,564,550,538,564,535,536,557,537,522,526,544,547,546,549,536,546,572,567,568,571,570,605,541,537,549,564,587,582,556,573,582,554,548,607,609,611,613,648,730,776,864,949,989,992,976,961,945,930,914,903,887,868,855,837,822,806,791,775,760,744,729,713,698,683,667,652,636,620,617,618,656,608,613,611,629,622,642,618,636,625,641,626,639,621,616,629,629,625,624,631,629,625,626,628,637,621,630,626,0,0,0,0,0,0,0,0,0,0,0,0,0,0,0,0,0,0,0,0,0,0,0,0,0,0,0,0,0,0,0,0,0,0,0,0,0,0,0,0,0,0,0,0,0,0,0,0,0,0,0,0,0,0,0,0,0,0,0,0,0,0,0,0,0,230,231,231,232,233,242,273,304,336,367,382,376,370,364,358,352,346,340,334,328,322,316,310,304,298,292,286,280,274,268,262,256,250,244,238,234,234,235,233,227,222,224,243,246,234,242,240,251,246,270,271,270,249,259,261,241,249,250,270,292,273,289,285,288,263,739,741,739,742,789,859,974,1089,1175,1215,1214,1195,1188,1150,1132,1099,1115,1074,1059,1033,1017,997,989,961,951,918,913,882,864,840,838,806,786,767,749,750,751,742,736,739,748,781,747,762,745,755,747,740,755,745,753,774,768,764,755,766,760,776,774,753,759,778,748,764,755,211,212,212,213,214,221,250,278,307,335,349,344,338,333,327,322,317,311,306,300,295,289,284,278,273,267,262,256,251,245,240,234,229,224,218,214,215,215,201,202,201,201,201,204,205,203,202,207,203,203,202,203,203,204,203,205,207,202,203,202,202,202,204,210,203,872,816,818,822,854,972,1200,1313,1375,1352,1376,1388,1290,1308,1251,1232,1195,1158,1156,1154,1192,1079,1059,1039,1020,1049,980,1057,969,968,928,907,887,867,854,880,852,870,889,851,853,850,883,911,873,873,871,891,928,896,901,913,909,913,869,883,894,911,914,916,885,896,919,879,884,848,850,879,857,894,985,1218,1247,1430,1467,1473,1437,1342,1322,1302,1341,1227,1206,1185,1165,1272,1160,1103,1082,1062,1093,1020,1081,979,978,938,917,896,876,902,890,862,864,864,863,878,898,870,898,874,893,873,883,897,871,871,882,882,901,894,883,874,878,889,888,878,877,871,908,881,1254,1284,1268,1384,1445,1651,1729,1904,1997,2020,2128,2020,1949,1984,1826,1889,1856,1824,1791,1724,1726,1693,1672,1640,1595,1548,1453,1483,1479,1393,1387,1325,1305,1313,1308,1309,1302,1293,1355,1353,1346,1352,1360,1358,1369,1365,1365,1371,1371,1365,1366,1375,1386,1394,1381,1391,1372,1382,1383,1381,1381,1402,1361,1374,1360,35,35,35,35,35,35,38,41,44,47,50,50,49,49,48,47,47,46,46,45,44,44,43,43,42,41,41,40,40,39,38,38,37,36,36,35,35,35,3,2,3,3,3,3,3,3,3,3,3,3,3,3,3,3,2,3,3,3,3,3,3,3,2,3,3,980,912,918,907,991,1052,1246,1497,1457,1481,1425,1402,1439,1411,1400,1364,1353,1312,1243,1247,1224,1175,1198,1175,1154,1127,1104,1111,1059,1029,1009,985,945,942,926,940,900,949,951,947,940,950,963,952,958,950,955,953,953,953,961,960,962,958,954,959,960,961,952,966,962,967,951,951,948,535,536,559,540,546,596,711,770,862,908,946,901,887,874,860,846,798,784,770,756,778,765,714,700,686,672,658,683,630,636,602,588,574,560,547,573,544,546,537,544,547,555,550,552,548,554,545,563,548,547,557,561,576,582,570,559,560,557,565,561,562,571,557,569,557,529,530,532,534,540,588,665,742,818,865,871,857,843,829,816,802,788,806,760,747,733,719,705,692,678,664,650,636,623,609,595,581,568,590,541,537,538,540,523,533,536,557,538,534,531,536,532,530,532,536,532,533,534,539,538,540,538,539,536,542,541,556,552,554,550,171,171,172,172,173,177,199,221,243,265,278,274,270,266,261,257,253,249,244,240,236,232,227,223,219,215,211,206,202,198,194,189,185,181,177,173,174,174,163,162,163,163,162,162,163,163,164,162,164,162,162,163,163,163,162,163,163,163,163,162,162,163,161,162,164,0,0,0,0,0,0,0,0,0,0,0,0,0,0,0,0,0,0,0,0,0,0,0,0,0,0,0,0,0,0,0,0,0,0,0,0,0,0,0,0,0,0,0,0,0,0,0,0,0,0,0,0,0,0,0,0,0,0,0,0,0,0,0,0,0,862,856,864,867,932,1022,1189,1282,1372,1408,1405,1383,1359,1351,1311,1320,1270,1261,1224,1198,1190,1155,1138,1149,1098,1077,1055,1028,994,972,966,945,931,888,875,880,900,883,885,886,890,898,902,889,902,908,899,891,901,894,898,898,915,923,942,943,919,908,912,899,902,906,908,912,902,354,355,356,357,346,381,431,481,531,576,586,577,568,558,549,540,531,521,512,503,494,468,459,450,441,432,438,429,419,396,401,378,382,373,364,347,348,349,349,345,345,345,354,351,349,354,346,387,351,346,354,353,349,354,356,355,350,354,348,360,351,353,351,356,353,848,850,879,857,894,985,1218,1247,1430,1467,1473,1437,1342,1322,1302,1341,1227,1206,1185,1165,1272,1160,1103,1082,1062,1093,1020,1081,979,978,938,917,896,876,902,890,862,864,864,863,878,898,870,898,874,893,873,883,897,871,871,882,882,901,894,883,874,878,889,888,878,877,871,908,881,469,506,485,485,476,511,574,646,708,753,762,745,739,728,743,704,795,683,672,661,650,641,627,613,605,590,582,571,568,567,538,537,515,491,506,476,489,500,469,476,471,487,470,480,475,483,479,484,481,479,486,481,488,488,487,487,492,490,493,486,492,496,494,499,500,1347,1334,1355,1584,1827,2000,2272,2394,2485,2469,2357,2367,2388,2296,2292,2241,2180,2207,2106,2054,2009,1964,1910,1857,1804,1755,1713,1643,1590,1564,1483,1430,1380,1367,1363,1371,1383,1396,1443,1441,1448,1471,1467,1472,1471,1499,1467,1481,1480,1479,1480,1503,1524,1519,1498,1486,1466,1481,1467,1460,1452,1482,1481,1488,1447,905,867,930,946,957,1025,1223,1329,1440,1474,1406,1377,1452,1329,1337,1303,1271,1250,1302,1285,1183,1238,1207,1184,1160,1126,1048,1022,1050,1026,979,936,962,924,893,900,935,900,908,924,905,922,924,934,932,945,928,921,919,928,920,917,920,920,928,928,925,919,920,923,924,943,934,944,924,723,743,727,760,743,835,892,1087,1203,1314,1215,1212,1195,1114,1102,1072,1073,1067,1076,952,1042,1054,943,975,925,965,882,853,846,867,840,774,732,714,737,734,766,694,715,721,726,759,729,738,721,728,724,716,732,731,760,776,770,745,735,747,744,748,751,740,745,768,744,755,749,625,643,629,618,650,694,786,854,956,1011,1114,968,972,940,923,914,920,880,863,865,833,848,840,847,773,778,758,746,728,766,671,682,667,703,642,675,632,660,651,656,649,654,663,654,657,659,651,655,654,659,654,660,661,663,660,659,662,656,662,672,661,669,655,661,660,1001,969,1033,1020,1090,1171,1474,1529,1549,1581,1585,1548,1523,1492,1531,1445,1445,1390,1369,1411,1328,1292,1267,1241,1255,1199,1165,1139,1113,1145,1084,1044,1011,1021,983,995,977,1043,1012,1007,1017,1030,1049,1055,1014,1054,1011,1021,1031,1034,1032,1043,1058,1068,1066,1061,1026,1044,1055,1054,1062,1058,1053,1078,1059,815,801,842,831,856,980,1080,1183,1273,1385,1324,1306,1273,1287,1254,1222,1201,1190,1177,1134,1140,1107,1108,1052,1026,1044,981,976,957,904,904,895,864,873,848,832,835,812,827,822,836,868,853,850,845,867,859,858,884,877,1027,1058,1164,947,863,848,855,868,858,838,846,863,850,874,851,899,861,924,940,951,1019,1217,1323,1434,1468,1400,1371,1446,1323,1331,1297,1265,1244,1296,1279,1177,1232,1201,1178,1154,1120,1042,1016,1044,1020,973,930,956,918,887,894,929,894,928,912,934,917,909,920,966,930,908,931,950,944,938,930,930,937,928,940,924,935,955,931,927,923,931,953,934,0,0,0,0,0,0,0,0,0,0,0,0,0,0,0,0,0,0,0,0,0,0,0,0,0,0,0,0,0,0,0,0,0,0,0,0,0,0,0,0,0,0,0,0,0,0,0,0,0,0,0,0,0,0,0,0,0,0,0,0,0,0,0,0,0,620,605,619,664,634,703,794,871,955,1048,1102,1003,975,1013,955,938,922,917,890,911,927,853,825,820,771,792,760,736,723,692,697,689,694,699,633,634,636,616,628,642,642,648,647,648,646,657,644,659,640,640,640,653,659,668,661,661,648,641,660,662,655,657,644,651,642,469,506,485,485,476,511,574,646,708,753,762,745,739,728,743,704,795,683,672,661,650,641,627,613,605,590,582,571,568,567,538,537,515,491,506,476,489,500,469,476,471,487,470,480,475,483,479,484,481,479,486,481,488,488,487,487,492,490,493,486,492,496,494,499,500,785,810,801,789,837,889,1031,1168,1217,1257,1278,1234,1217,1233,1176,1178,1137,1149,1098,1118,1089,1044,1075,1052,1014,994,942,955,934,927,864,874,854,810,800,806,809,834,799,792,805,805,798,815,804,807,809,817,833,823,820,824,825,836,827,829,815,830,829,830,837,829,828,853,851,1209,1211,1209,1238,1370,1470,1598,1901,1916,1956,1910,1878,1851,1787,1779,1706,1783,1700,1687,1647,1588,1558,1560,1516,1496,1418,1437,1408,1338,1308,1315,1285,1242,1233,1153,1216,1221,1225,1271,1283,1256,1267,1261,1295,1273,1296,1311,1367,1288,1320,1303,1312,1292,1349,1319,1285,1296,1275,1292,1326,1300,1328,1315,1322,1290,404,412,413,415,416,448,506,565,624,672,680,669,659,648,637,626,615,605,594,583,572,562,551,540,529,518,508,502,486,475,465,454,443,432,422,417,418,419,412,411,418,419,417,417,417,426,419,424,416,422,424,439,433,430,422,429,422,424,419,427,422,426,416,424,418,574,576,578,579,588,688,730,816,898,1033,947,1052,917,931,887,953,857,827,827,811,796,781,766,751,736,721,706,691,642,660,645,630,615,600,557,583,584,674,593,588,587,591,588,594,593,596,593,598,595,588,591,592,592,592,600,600,598,595,598,600,592,606,596,603,601,534,497,499,500,505,547,655,701,753,835,854,791,817,809,796,788,771,758,745,710,698,667,655,643,649,618,605,593,581,568,556,543,570,519,507,503,545,506,508,519,507,522,518,525,513,518,522,514,513,516,513,515,514,511,517,521,517,515,515,518,518,533,525,532,522,679,684,686,690,713,789,901,1007,1101,1137,1215,1118,1095,1084,1063,1044,1025,1007,988,970,951,933,914,895,877,858,842,821,810,786,762,796,725,794,696,695,695,694,693,736,693,691,708,695,702,710,709,723,732,702,707,713,717,717,713,730,721,720,736,708,725,730,747,712,707,292,293,294,294,295,310,350,389,429,468,479,472,465,457,450,442,435,427,420,412,405,397,390,383,375,368,360,353,345,338,330,323,315,308,301,296,297,298,286,294,285,289,301,294,304,305,291,297,295,301,295,289,292,296,295,291,297,292,291,295,291,297,294,299,289,447,448,450,451,453,490,554,619,680,728,739,727,737,704,684,680,669,657,645,634,622,610,598,587,575,563,552,561,528,516,505,493,481,469,458,454,455,456,453,447,442,461,448,447,487,486,453,478,463,450,453,475,493,500,501,499,495,507,494,481,478,463,452,457,458,581,582,584,586,597,695,752,830,913,1008,960,945,929,927,899,929,868,870,837,821,806,791,776,760,745,739,752,709,683,680,687,671,635,607,593,589,591,593,584,579,598,610,585,600,587,593,588,593,602,591,588,591,593,601,595,595,590,592,591,592,594,594,586,602,599,0,0,0,0,0,0,0,0,0,0,0,0,0,0,0,0,0,0,0,0,0,0,0,0,0,0,0,0,0,0,0,0,0,0,0,0,0,0,0,0,0,0,0,0,0,0,0,0,0,0,0,0,0,0,0,0,0,0,0,0,0,0,0,0,0,785,810,801,789,837,889,1031,1168,1217,1257,1278,1234,1217,1233,1176,1178,1137,1149,1098,1118,1089,1044,1075,1052,1014,994,942,955,934,927,864,874,854,810,800,806,809,834,799,792,805,805,798,815,804,807,809,817,833,823,820,824,825,836,827,829,815,830,829,830,837,829,828,853,851,0,0,0,0,0,0,0,0,0,0,0,0,0,0,0,0,0,0,0,0,0,0,0,0,0,0,0,0,0,0,0,0,0,0,0,0,0,0,0,0,0,0,0,0,0,0,0,0,0,0,0,0,0,0,0,0,0,0,0,0,0,0,0,0,0,1654,1695,1836,2121,2442,2601,2848,2922,3016,2888,2922,2883,2755,2780,2721,2585,2642,2550,2488,2493,2438,2374,2253,2190,2131,2078,2015,1961,1922,1896,1835,1734,1766,1756,1714,1705,1741,1736,1914,1916,1935,1958,1939,1957,1934,1947,1932,1942,1969,1954,1981,2001,1988,1978,1966,1980,1964,1989,1987,1966,1994,1986,1969,1989,1987,924,909,898,920,1005,1098,1203,1349,1428,1438,1428,1402,1381,1338,1344,1323,1313,1291,1254,1249,1209,1205,1182,1134,1136,1100,1074,1057,1029,1004,990,996,945,944,943,965,939,924,927,947,943,959,981,970,965,991,953,1003,968,996,962,962,980,1005,984,977,983,974,973,985,981,1003,968,973,957,1152,1102,1113,1117,1257,1379,1515,1669,1721,1835,1805,1782,1674,1623,1623,1651,1566,1579,1599,1509,1544,1497,1437,1459,1354,1350,1301,1271,1270,1249,1252,1197,1171,1181,1139,1123,1161,1177,1225,1192,1184,1271,1239,1238,1229,1204,1219,1249,1259,1237,1246,1250,1222,1225,1211,1242,1248,1242,1275,1281,1220,1206,1261,1198,1197,461,470,463,464,466,499,545,635,656,670,691,683,675,647,660,651,644,613,628,595,587,593,584,561,553,544,555,527,518,542,501,493,484,521,482,466,467,467,483,452,457,457,453,465,461,470,464,465,470,458,461,460,460,464,465,464,461,462,460,460,461,464,463,472,469,779,782,764,785,818,911,995,1085,1167,1185,1158,1159,1153,1150,1117,1100,1063,1067,1050,1025,1009,1005,1006,960,944,928,912,923,885,868,849,832,816,807,789,781,790,792,770,775,787,810,784,800,781,797,778,789,791,786,779,789,798,816,800,798,785,789,798,795,794,799,783,808,793,879,864,874,890,958,1023,1154,1261,1339,1378,1368,1372,1312,1292,1277,1271,1262,1221,1211,1188,1198,1150,1124,1110,1081,1060,1038,1016,985,973,965,972,908,899,914,920,894,878,878,876,891,905,902,911,889,914,890,928,901,892,906,897,913,930,915,906,916,898,906,915,914,924,904,915,906,918,903,892,914,999,1092,1197,1343,1422,1432,1422,1396,1375,1332,1338,1317,1307,1285,1248,1243,1203,1199,1176,1128,1130,1094,1068,1051,1023,998,984,990,939,938,937,959,933,918,920,939,938,953,989,970,958,996,952,1013,968,1008,966,958,977,1007,983,969,988,969,966,983,980,1003,968,966,954,453,454,519,488,472,531,577,594,692,686,772,728,667,658,697,639,712,625,656,601,592,615,573,659,554,545,535,564,516,507,512,523,479,469,475,458,459,460,453,460,453,470,458,472,456,463,455,449,460,455,449,470,458,463,463,475,469,476,480,470,465,487,453,467,460,771,744,758,756,821,868,960,1096,1152,1195,1162,1137,1148,1115,1119,1115,1109,1070,1035,1053,1025,990,987,940,929,930,891,873,873,851,841,851,797,773,797,810,783,782,777,772,769,781,787,817,778,790,801,793,785,791,779,790,791,784,795,800,791,795,787,794,808,827,822,833,817,0,0,0,0,0,0,0,0,0,0,0,0,0,0,0,0,0,0,0,0,0,0,0,0,0,0,0,0,0,0,0,0,0,0,0,0,0,0,0,0,0,0,0,0,0,0,0,0,0,0,0,0,0,0,0,0,0,0,0,0,0,0,0,0,0 ]);
