n = 10;
D = [122,158,251,268,81,91,157,211,162,151 ];
q = 0;
prec = array2d(1..0,1..2,[]);
steps = 64;
l = 360;
r = 0;
which = [];
interval = array2d(1..0,1..2,[]);
T = array3d(1..11,1..11,0..64,[0,0,0,0,0,0,0,0,0,0,0,0,0,0,0,0,0,0,0,0,0,0,0,0,0,0,0,0,0,0,0,0,0,0,0,0,0,0,0,0,0,0,0,0,0,0,0,0,0,0,0,0,0,0,0,0,0,0,0,0,0,0,0,0,0,281,281,282,283,297,381,498,558,615,688,708,695,684,673,661,649,640,627,620,608,598,586,569,558,547,535,523,513,501,490,459,433,458,340,318,306,307,300,185,185,185,185,185,185,185,185,185,185,185,185,185,185,185,185,185,185,185,185,185,185,185,185,185,185,185,596,599,633,635,636,1025,1263,1525,1679,1742,1757,1730,1646,1638,1645,1547,1570,1503,1431,1451,1365,1333,1380,1281,1282,1215,1168,1168,1132,1015,1023,869,736,660,636,651,647,634,618,621,625,631,628,632,649,635,627,633,633,632,649,633,641,646,629,630,635,628,631,632,630,631,621,621,619,444,429,431,433,456,584,813,893,1004,1084,1076,1086,1030,1014,1008,1016,974,961,945,922,906,910,892,854,846,811,823,805,788,770,574,561,535,534,464,441,462,452,416,417,420,424,422,424,422,438,419,423,421,420,419,423,426,427,423,423,426,423,439,425,424,441,415,420,419,258,259,259,260,274,307,418,508,560,626,646,635,624,614,604,594,585,574,568,557,548,537,522,512,501,492,432,426,418,411,372,366,411,313,295,275,276,276,177,177,177,177,177,177,177,177,177,177,177,177,177,177,177,177,177,177,177,177,177,177,177,177,177,177,177,351,339,336,336,338,432,612,676,744,808,831,818,804,791,778,766,744,740,728,715,701,689,676,679,651,637,624,612,599,586,574,552,442,351,342,339,340,340,300,300,300,300,300,300,300,300,300,300,300,300,300,300,300,300,300,300,300,300,300,300,300,300,300,300,300,564,567,567,568,598,962,1148,1357,1508,1612,1612,1597,1549,1518,1505,1455,1424,1406,1375,1343,1312,1267,1248,1203,1172,1141,1122,1078,1047,1027,874,850,614,593,585,590,579,576,560,563,568,573,569,575,589,576,569,571,574,573,582,576,580,589,572,572,576,571,574,574,573,574,565,566,564,547,549,549,552,565,700,955,1172,1275,1321,1330,1314,1293,1273,1253,1244,1222,1195,1179,1157,1138,1118,1091,1069,1047,1025,951,931,912,883,770,740,668,575,561,557,559,528,436,436,436,436,436,436,436,436,436,436,436,436,436,436,436,436,436,436,436,436,436,436,436,436,436,436,436,1245,1253,1253,1313,1366,2319,2704,2858,2956,2956,2918,2872,2867,2824,2740,2699,2629,2640,2594,2489,2370,2449,2342,2153,1988,1900,1669,1643,1548,1405,1380,1320,1305,1249,1241,1268,1233,1246,1184,1184,1184,1184,1184,1184,1184,1184,1184,1184,1184,1184,1184,1184,1184,1184,1184,1184,1184,1184,1184,1184,1184,1184,1184,1184,1184,503,504,505,507,511,747,946,1056,1160,1231,1245,1225,1206,1188,1173,1152,1128,1107,1093,1072,1048,1028,1008,988,968,949,931,908,889,868,778,693,676,585,515,512,513,501,439,439,439,439,439,439,439,439,439,439,439,439,439,439,439,439,439,439,439,439,439,439,439,439,439,439,439,0,0,0,0,0,0,0,0,0,0,0,0,0,0,0,0,0,0,0,0,0,0,0,0,0,0,0,0,0,0,0,0,0,0,0,0,0,0,0,0,0,0,0,0,0,0,0,0,0,0,0,0,0,0,0,0,0,0,0,0,0,0,0,0,0,317,321,322,324,324,481,574,647,708,778,795,782,766,754,745,735,717,710,694,680,663,657,644,629,619,609,591,582,571,556,535,534,495,426,328,325,326,321,296,298,299,298,299,300,300,300,301,315,306,300,300,302,307,303,305,305,307,301,303,301,304,302,302,309,309,0,0,0,0,0,0,0,0,0,0,0,0,0,0,0,0,0,0,0,0,0,0,0,0,0,0,0,0,0,0,0,0,0,0,0,0,0,0,0,0,0,0,0,0,0,0,0,0,0,0,0,0,0,0,0,0,0,0,0,0,0,0,0,0,0,705,732,718,706,732,1020,1359,1537,1640,1718,1740,1711,1669,1642,1615,1587,1572,1539,1507,1480,1454,1426,1396,1374,1346,1319,1293,1173,1148,1106,988,892,741,737,727,724,726,687,665,664,668,681,685,670,682,673,676,680,672,676,671,677,681,679,673,678,674,671,678,679,678,693,678,683,680,551,552,554,558,578,771,1068,1165,1266,1370,1381,1341,1342,1306,1284,1244,1248,1201,1180,1158,1138,1117,1102,1081,1068,1053,1025,1011,981,916,841,686,670,637,562,560,562,555,536,540,547,547,548,547,543,553,544,555,555,557,558,558,558,556,552,552,552,547,547,550,549,554,550,553,546,100,101,101,102,102,103,160,166,174,180,186,184,183,182,181,180,178,177,176,175,174,171,170,169,168,166,165,164,163,162,160,159,158,160,156,102,102,103,53,53,52,53,52,52,51,53,54,52,54,52,53,51,53,53,55,52,54,52,53,53,54,53,51,50,50,144,144,145,145,219,225,252,282,288,314,348,332,316,327,310,304,319,315,290,284,279,274,289,284,273,268,262,258,253,248,243,235,229,229,223,219,220,220,135,136,136,137,135,172,136,141,135,138,136,137,137,136,136,137,136,136,136,138,139,141,136,136,136,137,136,660,691,663,665,710,1009,1302,1392,1568,1655,1682,1653,1568,1552,1509,1532,1516,1485,1407,1431,1363,1346,1367,1333,1338,1281,1268,1220,1125,989,734,747,716,683,672,669,671,634,613,615,617,623,626,613,624,614,625,618,613,617,618,625,625,624,619,620,615,621,624,624,623,637,622,628,625,306,307,308,309,310,379,535,599,659,735,741,730,712,721,696,701,689,678,651,640,616,634,597,584,575,564,553,544,534,523,512,425,416,380,359,354,354,356,281,278,284,284,282,289,286,290,290,285,293,285,290,290,289,292,296,289,284,284,284,284,284,284,284,284,284,1186,1217,1212,1256,1383,1982,2607,2785,2871,2908,2886,2786,2804,2734,2680,2658,2573,2541,2473,2460,2434,2374,2307,2241,1938,1822,1728,1513,1443,1390,1299,1282,1278,1226,1235,1200,1212,1192,1188,1187,1191,1203,1193,1197,1195,1193,1198,1200,1206,1205,1205,1203,1208,1213,1205,1210,1205,1206,1207,1207,1210,1212,1211,1209,1208,473,474,473,475,479,569,898,999,1108,1163,1167,1154,1126,1120,1089,1073,1048,1039,1017,998,980,961,944,924,908,885,868,774,757,742,587,563,623,493,489,479,481,452,443,438,447,455,444,447,441,445,444,449,447,445,445,446,450,453,448,450,450,450,448,447,454,452,451,451,450,317,321,322,324,324,481,574,647,708,778,795,782,766,754,745,735,717,710,694,680,663,657,644,629,619,609,591,582,571,556,535,534,495,426,328,325,326,321,296,298,299,298,299,300,300,300,301,315,306,300,300,302,307,303,305,305,307,301,303,301,304,302,302,309,309,634,629,659,660,718,1037,1381,1606,1724,1796,1770,1756,1707,1714,1629,1611,1594,1532,1503,1485,1491,1437,1393,1357,1326,1284,1248,1212,1174,971,896,724,697,662,668,666,663,646,616,621,628,647,631,634,631,638,630,632,631,625,626,633,631,635,639,636,629,628,634,634,627,625,625,625,625,686,674,676,680,716,1170,1386,1507,1609,1672,1712,1641,1647,1588,1545,1519,1492,1502,1455,1428,1429,1375,1360,1333,1280,1254,1227,1215,1165,1148,1044,811,707,710,685,734,684,678,691,687,685,696,693,691,697,694,695,688,694,698,702,691,695,697,699,698,695,700,692,701,692,715,698,697,690,0,0,0,0,0,0,0,0,0,0,0,0,0,0,0,0,0,0,0,0,0,0,0,0,0,0,0,0,0,0,0,0,0,0,0,0,0,0,0,0,0,0,0,0,0,0,0,0,0,0,0,0,0,0,0,0,0,0,0,0,0,0,0,0,0,725,738,762,775,807,1328,1572,1846,2000,2050,2029,1958,1922,1921,1876,1849,1834,1746,1732,1696,1663,1633,1569,1546,1490,1450,1414,1370,1330,1090,1032,908,791,756,771,770,764,761,738,737,749,748,759,770,753,765,759,763,765,763,762,770,767,772,757,760,761,767,755,761,763,769,769,769,769,698,700,715,708,768,1216,1436,1564,1664,1728,1766,1723,1668,1641,1597,1569,1566,1552,1529,1501,1449,1422,1380,1352,1326,1298,1272,1233,1207,1190,1000,951,732,734,724,708,723,694,706,710,700,711,708,706,715,723,711,703,709,726,728,706,710,713,714,713,710,715,708,716,707,733,713,712,705,592,594,596,598,620,1011,1162,1297,1402,1471,1515,1447,1424,1401,1360,1338,1315,1328,1284,1261,1237,1214,1176,1153,1130,1107,1084,1051,1028,1015,992,798,624,615,604,601,603,598,595,603,603,608,647,604,608,619,604,615,603,606,604,613,636,631,639,639,631,621,615,608,608,608,621,616,603,142,143,143,209,209,222,249,277,304,332,349,344,338,333,327,322,316,312,307,301,296,290,285,279,274,268,264,258,253,248,242,237,231,226,220,217,217,218,132,132,132,132,133,132,132,133,132,133,135,133,135,135,133,135,135,135,136,136,136,136,137,136,136,136,137,807,799,801,840,913,1429,1618,1809,1931,1956,1973,1916,1885,1854,1840,1815,1760,1729,1698,1754,1636,1605,1597,1565,1512,1502,1449,1438,1369,1241,1133,1036,841,881,811,808,810,812,822,809,812,814,815,828,817,826,818,828,829,829,820,830,825,834,833,836,829,831,831,834,838,832,836,840,832,1005,1024,999,1069,1806,2232,2610,2831,2983,3010,3006,2912,2851,2790,2743,2667,2606,2552,2484,2414,2361,2294,2239,2178,2094,2048,1985,1903,1645,1534,1362,1097,1064,1034,1021,1021,1032,1048,1066,1060,1066,1073,1102,1076,1087,1100,1084,1186,1124,1098,1106,1099,1103,1133,1134,1102,1085,1088,1082,1082,1072,1094,1094,1094,1094,1024,1053,1051,1083,1230,1951,2344,2585,2671,2712,2723,2628,2588,2580,2495,2448,2418,2354,2344,2260,2233,2179,2137,2077,1997,1974,1910,1626,1465,1244,1248,1113,1109,1057,1079,1070,1043,1030,1011,1020,1017,1042,1018,1035,1028,1043,1035,1037,1031,1028,1037,1036,1047,1042,1048,1056,1048,1041,1057,1044,1047,1061,1061,1061,1061,634,629,659,660,718,1037,1381,1606,1724,1796,1770,1756,1707,1714,1629,1611,1594,1532,1503,1485,1491,1437,1393,1357,1326,1284,1248,1212,1174,971,896,724,697,662,668,666,663,646,616,621,628,647,631,634,631,638,630,632,631,625,626,633,631,635,639,636,629,628,634,634,627,625,625,625,625,410,412,412,414,423,614,768,848,937,993,1000,985,972,954,940,919,906,902,862,858,842,832,811,794,789,763,757,741,711,709,693,557,545,466,420,421,412,409,403,408,410,409,412,419,410,405,412,420,423,423,421,419,420,415,417,417,409,418,421,423,420,417,415,414,413,521,523,525,525,540,779,1019,1086,1204,1277,1299,1274,1251,1230,1210,1189,1165,1144,1124,1103,1086,1065,1041,1022,1000,979,959,940,918,903,595,581,567,544,532,553,531,482,459,468,466,476,467,471,471,473,472,478,474,480,480,480,479,478,473,472,480,471,475,473,473,476,474,477,471,770,772,740,784,832,1491,1758,1976,2097,2128,2112,2012,1996,1915,1970,1930,1842,1832,1791,1791,1712,1642,1632,1563,1490,1444,1428,1416,1366,1221,897,907,851,822,784,759,773,760,781,779,788,792,785,792,786,792,788,792,792,792,792,792,792,792,792,792,792,792,792,792,786,792,792,792,785,0,0,0,0,0,0,0,0,0,0,0,0,0,0,0,0,0,0,0,0,0,0,0,0,0,0,0,0,0,0,0,0,0,0,0,0,0,0,0,0,0,0,0,0,0,0,0,0,0,0,0,0,0,0,0,0,0,0,0,0,0,0,0,0,0,499,500,503,503,515,714,968,1029,1142,1216,1240,1214,1193,1174,1155,1136,1112,1093,1074,1054,1038,1017,996,976,956,937,918,896,872,826,628,547,533,520,509,531,508,474,452,460,455,466,460,462,463,465,463,468,463,463,464,462,464,467,466,465,470,464,469,465,466,471,465,472,466,649,654,670,651,676,1010,1307,1410,1535,1572,1600,1570,1542,1518,1492,1454,1422,1413,1359,1347,1344,1338,1291,1264,1240,1216,1176,1128,997,984,811,779,683,678,664,686,671,617,594,603,601,611,602,606,606,608,607,613,609,615,615,615,614,613,608,607,615,606,610,608,608,611,609,612,606,704,706,708,712,766,1345,1587,1804,1929,1965,1950,1925,1885,1854,1815,1791,1744,1689,1652,1653,1578,1540,1503,1466,1429,1404,1370,1333,1292,1178,932,795,761,739,716,726,722,719,723,721,726,734,734,734,732,734,733,726,734,734,734,734,734,734,734,734,734,734,734,734,730,734,734,734,730,594,593,597,600,613,834,1112,1249,1379,1453,1456,1421,1409,1386,1365,1343,1319,1300,1272,1249,1232,1201,1178,1151,1134,1108,1086,1064,919,883,800,790,695,622,604,612,616,595,550,551,546,549,558,552,553,554,551,552,553,554,551,553,553,557,551,554,555,555,555,555,552,557,555,552,549,1201,1192,1215,1247,1333,2007,2483,2673,2781,2849,2832,2765,2732,2709,2678,2612,2584,2557,2490,2424,2359,2333,2314,2262,2159,1935,1791,1569,1532,1349,1312,1256,1236,1215,1206,1220,1204,1214,1154,1155,1150,1153,1162,1156,1157,1158,1155,1156,1157,1158,1155,1157,1157,1161,1155,1158,1159,1159,1159,1159,1156,1161,1159,1156,1153,477,480,480,482,493,585,882,986,1088,1168,1184,1165,1147,1128,1115,1089,1078,1060,1033,1014,1003,976,957,938,931,901,882,862,850,831,709,641,625,500,488,499,496,508,445,446,441,444,453,447,448,449,446,447,448,449,446,448,448,452,446,449,450,450,450,450,447,452,450,447,444,410,412,412,414,423,614,768,848,937,993,1000,985,972,954,940,919,906,902,862,858,842,832,811,794,789,763,757,741,711,709,693,557,545,466,420,421,412,409,403,408,410,409,412,419,410,405,412,420,423,423,421,419,420,415,417,417,409,418,421,423,420,417,415,414,413,321,322,324,324,325,407,586,650,741,782,795,784,772,762,742,739,728,716,700,673,682,701,643,637,655,612,598,585,561,560,546,535,424,405,321,326,327,328,313,314,316,316,323,323,321,322,319,327,326,324,321,322,326,322,321,322,325,323,321,325,323,328,324,324,322,87,87,119,119,119,120,92,152,166,181,193,191,187,185,183,179,176,174,169,168,165,161,159,155,152,151,146,143,94,92,135,133,129,127,122,119,120,120,46,46,45,47,52,51,48,51,48,51,50,52,49,47,48,49,48,48,51,49,47,51,49,55,50,50,48,762,765,767,764,800,1115,1451,1703,1812,1866,1848,1829,1798,1768,1739,1709,1681,1641,1615,1592,1554,1539,1513,1480,1444,1422,1375,1272,1225,997,1019,820,804,782,772,782,772,746,711,714,716,720,725,724,721,724,721,724,723,725,722,720,721,722,721,721,724,722,720,724,722,728,723,723,721,519,520,521,533,548,787,977,1095,1185,1299,1288,1248,1248,1201,1207,1163,1142,1147,1103,1083,1064,1062,1030,1004,985,982,950,947,927,897,752,629,564,541,539,527,528,521,507,505,512,512,512,512,512,512,512,512,512,512,512,512,512,512,512,512,512,512,512,512,512,512,512,512,512,0,0,0,0,0,0,0,0,0,0,0,0,0,0,0,0,0,0,0,0,0,0,0,0,0,0,0,0,0,0,0,0,0,0,0,0,0,0,0,0,0,0,0,0,0,0,0,0,0,0,0,0,0,0,0,0,0,0,0,0,0,0,0,0,0,208,201,210,242,211,249,344,406,454,495,529,523,493,486,478,470,463,456,447,445,434,409,417,412,404,396,386,380,347,340,355,348,339,331,215,212,245,212,181,181,180,182,187,186,183,186,183,186,185,187,184,182,183,184,183,183,186,184,182,186,184,190,185,185,183,718,720,721,724,769,1104,1394,1639,1734,1803,1754,1769,1697,1711,1683,1654,1627,1607,1540,1540,1472,1443,1462,1446,1397,1406,1332,1304,1125,1081,869,880,780,746,731,728,730,693,659,665,665,668,673,667,669,668,669,670,666,673,670,668,669,670,669,669,670,670,668,672,670,676,671,671,669,322,323,325,326,330,437,572,639,706,754,756,748,740,733,724,724,709,707,694,685,674,660,648,635,623,610,598,586,572,560,523,457,450,346,337,330,332,332,281,280,279,290,280,282,283,285,279,284,287,280,285,284,287,284,292,286,284,283,283,278,281,286,283,284,281,1172,1183,1184,1204,1350,2001,2515,2702,2769,2776,2799,2713,2675,2673,2593,2571,2485,2509,2420,2385,2340,2301,2272,2238,1954,1962,1728,1478,1453,1405,1272,1229,1207,1207,1199,1168,1194,1160,1156,1163,1157,1166,1170,1164,1174,1165,1171,1168,1175,1179,1176,1178,1177,1184,1177,1184,1174,1171,1176,1174,1172,1177,1181,1177,1171,440,440,442,442,447,582,802,916,1055,1065,1077,1058,1046,1028,1008,987,978,959,940,923,906,884,868,859,847,824,805,746,702,687,633,588,574,500,449,448,446,420,411,414,413,418,421,414,420,417,417,417,416,419,416,421,419,424,420,424,419,415,417,414,416,417,421,419,413,321,322,324,324,325,407,586,650,741,782,795,784,772,762,742,739,728,716,700,673,682,701,643,637,655,612,598,585,561,560,546,535,424,405,321,326,327,328,313,314,316,316,323,323,321,322,319,327,326,324,321,322,326,322,321,322,325,323,321,325,323,328,324,324,322,387,385,386,387,471,640,744,805,888,943,949,927,913,975,890,876,853,846,830,810,801,786,771,751,792,727,712,697,682,662,652,632,602,405,396,392,393,395,388,384,390,395,392,396,392,397,397,395,397,397,396,399,400,407,399,399,401,399,398,399,400,404,394,410,410,188,188,189,224,232,298,337,374,412,451,465,458,451,444,469,429,422,415,408,400,393,385,378,370,363,356,349,342,334,327,320,313,306,298,236,247,233,288,174,176,174,180,180,182,176,184,174,180,181,184,174,179,181,182,178,181,182,187,183,182,180,186,175,179,176,653,652,653,670,676,1027,1219,1348,1515,1558,1552,1528,1506,1483,1460,1436,1412,1389,1366,1342,1320,1295,1267,1252,1233,1204,1185,1063,1042,1024,978,702,681,682,670,668,672,652,614,615,623,634,633,629,640,630,631,634,628,632,627,633,636,638,631,637,628,629,633,634,637,637,632,636,634,709,711,713,716,749,1233,1395,1540,1684,1721,1720,1662,1655,1656,1606,1562,1560,1528,1501,1485,1458,1429,1404,1383,1358,1316,1289,1284,1238,1055,965,773,760,736,722,720,722,715,690,695,695,696,698,702,697,699,699,698,699,697,701,701,701,704,705,703,701,703,703,706,703,717,698,703,699,214,214,215,216,253,340,382,442,466,508,522,514,506,498,518,482,474,466,458,450,442,434,426,418,410,402,394,386,378,370,362,354,346,338,258,254,254,327,190,191,189,195,195,197,191,201,189,196,196,210,190,194,196,199,194,196,197,214,198,198,195,214,190,194,191,0,0,0,0,0,0,0,0,0,0,0,0,0,0,0,0,0,0,0,0,0,0,0,0,0,0,0,0,0,0,0,0,0,0,0,0,0,0,0,0,0,0,0,0,0,0,0,0,0,0,0,0,0,0,0,0,0,0,0,0,0,0,0,0,0,606,607,608,610,636,929,1114,1287,1452,1494,1490,1468,1398,1425,1401,1380,1357,1335,1269,1264,1233,1219,1219,1227,1182,1191,1141,1114,1110,976,939,905,762,646,616,614,617,599,562,566,572,576,574,572,582,571,580,572,569,573,574,581,580,583,577,579,569,579,579,579,582,582,576,581,579,488,492,495,485,503,604,891,1012,1081,1129,1035,1020,1009,991,1072,1102,1033,1041,999,1005,964,982,930,945,896,878,894,877,843,832,579,566,567,494,492,488,493,486,455,457,455,461,461,463,457,467,455,461,462,472,455,460,462,465,459,462,463,479,464,463,461,475,456,460,457,1354,1369,1372,1445,1863,2428,2965,3159,3242,3261,3185,3154,3108,3055,3059,2928,2892,2848,2803,2582,2570,2491,2358,2150,1938,1630,1616,1648,1599,1504,1484,1437,1444,1422,1388,1362,1376,1352,1339,1347,1347,1353,1356,1362,1352,1364,1353,1361,1371,1373,1362,1366,1371,1371,1360,1376,1371,1370,1368,1371,1368,1381,1363,1368,1362,627,636,633,639,667,849,1205,1344,1498,1533,1538,1516,1488,1468,1484,1414,1391,1364,1340,1319,1296,1290,1274,1220,1198,1174,1106,1051,1029,925,759,744,778,675,640,641,643,607,596,598,600,607,607,610,604,612,603,609,611,613,602,607,611,613,607,616,611,615,613,611,611,621,605,610,604,387,385,386,387,471,640,744,805,888,943,949,927,913,975,890,876,853,846,830,810,801,786,771,751,792,727,712,697,682,662,652,632,602,405,396,392,393,395,388,384,390,395,392,396,392,397,397,395,397,397,396,399,400,407,399,399,401,399,398,399,400,404,394,410,410,683,671,672,676,704,1183,1402,1626,1725,1783,1742,1756,1710,1663,1648,1623,1569,1554,1589,1474,1443,1411,1400,1348,1341,1299,1243,1222,1191,1027,976,918,710,690,681,676,680,687,685,677,688,692,687,689,689,704,689,680,697,699,690,683,685,694,686,693,688,694,685,688,683,690,693,708,680,716,719,721,728,765,1226,1455,1616,1717,1759,1774,1746,1717,1689,1660,1632,1604,1575,1546,1519,1518,1461,1460,1405,1402,1348,1320,1291,1202,1137,1044,880,766,748,738,728,722,752,726,731,722,738,732,739,738,760,742,734,732,741,735,732,728,731,738,738,734,734,727,733,734,769,762,788,732,155,156,156,156,236,242,273,304,336,367,387,381,375,369,363,357,351,345,339,332,326,320,314,308,302,296,290,284,278,272,266,260,254,248,241,236,237,237,148,148,148,151,152,150,151,151,148,149,149,151,149,152,153,153,149,150,153,151,153,151,152,154,148,151,150,760,766,780,785,854,1366,1642,1842,1984,2019,2007,1946,1936,1900,1864,1804,1802,1758,1796,1686,1651,1593,1579,1544,1488,1443,1443,1401,1346,1241,1080,999,815,786,785,800,784,792,781,809,785,788,805,798,796,804,804,815,816,795,802,807,813,812,821,823,819,818,828,823,825,827,826,828,805,742,744,758,756,793,1274,1537,1672,1800,1814,1855,1800,1770,1766,1712,1683,1653,1624,1596,1567,1537,1508,1479,1450,1420,1424,1363,1334,1324,1117,1082,968,792,774,764,753,738,767,741,746,737,753,747,754,753,780,757,749,748,756,750,747,744,746,753,753,749,750,742,748,749,784,784,803,747,636,639,640,643,671,1069,1261,1407,1512,1572,1578,1552,1527,1502,1477,1452,1426,1419,1377,1352,1327,1302,1276,1261,1226,1202,1177,1152,1126,1101,1076,875,840,668,656,646,656,680,650,654,659,674,668,669,657,699,661,663,662,664,656,668,663,688,687,676,666,668,661,675,670,692,664,676,668,0,0,0,0,0,0,0,0,0,0,0,0,0,0,0,0,0,0,0,0,0,0,0,0,0,0,0,0,0,0,0,0,0,0,0,0,0,0,0,0,0,0,0,0,0,0,0,0,0,0,0,0,0,0,0,0,0,0,0,0,0,0,0,0,0,840,843,846,863,909,1455,1718,1893,2035,2059,2052,2018,2008,1979,1920,1887,1855,1822,1789,1756,1724,1728,1678,1626,1592,1560,1547,1494,1426,1241,1005,908,887,868,881,876,863,856,868,848,852,853,854,861,861,857,860,873,886,877,880,885,880,883,875,879,877,903,904,923,886,880,942,932,903,1112,1114,1153,1224,1931,2368,2868,3157,3288,3243,3213,3142,3097,3003,2938,2892,2817,2749,2688,2613,2558,2493,2401,2352,2299,2239,2169,1941,1772,1534,1250,1221,1156,1137,1148,1131,1153,1160,1209,1208,1212,1214,1236,1226,1228,1234,1232,1242,1239,1249,1252,1251,1246,1243,1243,1238,1238,1239,1235,1233,1224,1248,1242,1245,1244,1059,1062,1066,1124,1281,1989,2344,2562,2664,2686,2663,2616,2576,2531,2483,2495,2443,2396,2362,2249,2203,2162,2116,2112,2024,1975,1929,1617,1522,1262,1262,1164,1105,1108,1101,1073,1052,1057,1060,1066,1076,1086,1079,1094,1085,1107,1085,1092,1100,1092,1097,1094,1093,1102,1099,1100,1097,1101,1096,1094,1101,1129,1101,1110,1100,683,671,672,676,704,1183,1402,1626,1725,1783,1742,1756,1710,1663,1648,1623,1569,1554,1589,1474,1443,1411,1400,1348,1341,1299,1243,1222,1191,1027,976,918,710,690,681,676,680,687,685,677,688,692,687,689,689,704,689,680,697,699,690,683,685,694,686,693,688,694,685,688,683,690,693,708,680,538,547,549,559,568,646,1022,1141,1246,1344,1364,1326,1306,1283,1261,1251,1226,1181,1169,1141,1123,1104,1093,1050,1044,1021,1000,979,949,915,622,599,573,587,556,553,561,535,506,506,506,506,506,506,506,506,506,506,506,506,506,506,506,506,506,506,506,506,506,506,506,506,506,506,506,281,283,284,282,286,445,504,534,579,611,631,621,614,612,603,595,585,577,568,560,552,542,534,525,528,520,510,516,504,493,480,470,458,399,331,283,284,288,264,264,264,264,264,264,264,264,264,264,264,264,264,264,264,264,264,264,264,264,264,264,264,264,264,264,264,819,815,817,832,880,1446,1640,1802,1926,1996,1987,1950,1926,1894,1863,1832,1801,1761,1729,1713,1666,1647,1615,1584,1552,1511,1490,1459,1326,1231,1154,890,858,840,828,836,812,814,813,813,813,813,813,813,813,813,813,813,813,813,813,813,813,813,813,813,813,813,813,813,813,813,813,813,813,542,544,541,543,550,669,1045,1168,1283,1323,1324,1313,1282,1261,1240,1222,1206,1177,1156,1135,1121,1105,1071,1050,1029,1014,987,973,945,877,725,660,652,559,602,555,574,549,536,536,540,540,536,540,540,540,540,540,540,540,540,540,540,540,539,540,540,540,539,537,539,540,539,540,539,285,281,282,282,283,388,490,552,605,639,660,650,645,637,627,619,608,598,587,578,568,558,549,539,529,519,510,503,490,481,470,460,453,389,364,284,300,300,249,249,249,249,249,249,249,249,249,249,249,249,249,249,249,249,249,249,249,249,249,249,249,249,249,249,249,299,300,300,301,303,456,548,612,675,730,741,729,732,706,694,697,685,660,662,636,625,613,601,589,578,566,554,542,531,519,507,495,484,470,307,304,304,305,288,288,288,288,288,288,288,288,288,288,288,288,288,288,288,288,288,288,288,288,288,288,288,288,288,288,288,769,779,792,791,921,1385,1563,1710,1863,1934,1878,1891,1867,1788,1807,1777,1747,1707,1677,1671,1624,1597,1567,1506,1507,1464,1447,1417,1365,1227,1104,1047,831,812,784,811,793,794,790,790,785,790,790,790,790,790,790,790,790,790,790,790,790,790,790,790,790,790,790,790,790,790,790,790,790,0,0,0,0,0,0,0,0,0,0,0,0,0,0,0,0,0,0,0,0,0,0,0,0,0,0,0,0,0,0,0,0,0,0,0,0,0,0,0,0,0,0,0,0,0,0,0,0,0,0,0,0,0,0,0,0,0,0,0,0,0,0,0,0,0,1085,1083,1084,1102,1150,1680,2258,2460,2539,2626,2557,2569,2469,2487,2412,2367,2353,2283,2241,2182,2169,2095,2078,2036,2013,1878,1791,1498,1397,1294,1184,1164,1126,1095,1089,1085,1066,1078,1050,1051,1056,1059,1061,1062,1068,1060,1064,1065,1070,1073,1072,1072,1068,1073,1071,1066,1073,1069,1063,1068,1071,1076,1073,1075,1070,339,341,342,342,344,434,615,702,776,840,849,834,822,808,794,780,767,754,739,724,712,694,685,668,659,643,631,616,604,591,576,453,444,400,391,346,350,350,305,308,307,312,315,313,316,312,312,315,318,313,312,312,309,314,313,313,313,309,308,313,311,316,313,317,312,538,547,549,559,568,646,1022,1141,1246,1344,1364,1326,1306,1283,1261,1251,1226,1181,1169,1141,1123,1104,1093,1050,1044,1021,1000,979,949,915,622,599,573,587,556,553,561,535,506,506,506,506,506,506,506,506,506,506,506,506,506,506,506,506,506,506,506,506,506,506,506,506,506,506,506,1223,1221,1248,1323,1451,2541,2823,3002,3055,3031,3008,2991,2927,2906,2872,2782,2724,2697,2661,2606,2565,2443,2467,2380,2343,2099,1827,1770,1423,1403,1370,1320,1280,1252,1242,1246,1253,1234,1233,1245,1252,1277,1247,1263,1260,1265,1271,1261,1262,1252,1264,1255,1259,1266,1262,1266,1263,1266,1266,1270,1266,1291,1265,1282,1269,1180,1200,1200,1195,1414,2346,2580,2744,2838,2867,2844,2786,2675,2659,2636,2578,2573,2484,2445,2392,2402,2348,2256,2210,2247,2071,1721,1553,1454,1315,1299,1237,1256,1240,1231,1179,1129,1101,1093,1101,1117,1133,1106,1126,1109,1116,1128,1116,1123,1107,1113,1115,1112,1117,1116,1120,1119,1120,1115,1120,1114,1139,1113,1148,1117,1191,1171,1225,1307,2346,2888,3202,3397,3471,3463,3386,3396,3222,3199,3105,3057,3037,2872,2953,2775,2664,2635,2480,2415,2351,2215,2168,1896,1671,1357,1310,1287,1248,1224,1216,1247,1236,1237,1328,1308,1321,1330,1331,1342,1348,1355,1335,1351,1357,1346,1361,1373,1346,1348,1364,1373,1368,1479,1463,1366,1359,1361,1348,1341,1340,1155,1134,1151,1199,1396,2173,2460,2690,2754,2732,2708,2730,2678,2636,2595,2551,2462,2459,2397,2367,2308,2214,2240,2188,2125,1975,1771,1644,1622,1446,1291,1242,1218,1177,1150,1164,1151,1155,1150,1168,1169,1179,1159,1180,1161,1174,1178,1180,1182,1172,1178,1180,1170,1175,1174,1174,1176,1176,1173,1177,1165,1176,1171,1180,1172,1154,1174,1171,1162,1366,2245,2465,2612,2731,2767,2734,2692,2628,2586,2572,2492,2493,2405,2359,2317,2319,2274,2181,2153,2182,2040,1747,1638,1368,1262,1276,1215,1225,1205,1197,1152,1104,1073,1070,1074,1094,1107,1081,1100,1083,1098,1103,1090,1099,1078,1085,1090,1087,1089,1095,1092,1090,1096,1090,1101,1092,1115,1089,1124,1093,1306,1326,1326,1334,1668,2664,2843,3014,3111,3143,3103,3035,2959,2928,2894,2827,2814,2720,2659,2628,2625,2364,2274,2189,2203,2056,1741,1766,1485,1454,1431,1367,1381,1358,1353,1314,1264,1236,1228,1236,1252,1268,1241,1261,1244,1251,1263,1251,1258,1242,1248,1250,1247,1252,1251,1255,1254,1255,1250,1255,1249,1274,1248,1283,1252,1218,1220,1256,1372,2460,2949,3262,3454,3528,3519,3490,3499,3376,3252,3205,3109,3088,2976,3003,2833,2761,2549,2490,2395,2194,2054,2003,1928,1713,1477,1360,1314,1276,1251,1244,1274,1263,1287,1360,1357,1366,1365,1382,1369,1386,1392,1360,1384,1388,1372,1374,1390,1400,1416,1404,1403,1425,1404,1477,1385,1385,1386,1373,1366,1365,1044,1064,1063,1050,1220,2011,2241,2410,2502,2557,2535,2469,2404,2392,2372,2294,2299,2211,2164,2125,2125,2099,2008,1968,2008,1884,1768,1408,1391,1249,1164,1102,1122,1097,1076,1061,1019,987,983,991,999,1018,993,1013,990,1004,1013,1000,1008,995,1001,1005,999,1004,1002,1007,1009,1006,1001,1008,999,1026,1000,1035,1004,0,0,0,0,0,0,0,0,0,0,0,0,0,0,0,0,0,0,0,0,0,0,0,0,0,0,0,0,0,0,0,0,0,0,0,0,0,0,0,0,0,0,0,0,0,0,0,0,0,0,0,0,0,0,0,0,0,0,0,0,0,0,0,0,0,692,705,707,687,713,1206,1365,1542,1656,1723,1719,1668,1610,1614,1608,1531,1552,1478,1452,1424,1456,1426,1345,1318,1373,1288,1238,1244,1217,1076,953,826,794,767,730,702,726,692,692,694,704,722,695,708,700,707,714,702,709,695,701,701,698,705,703,706,702,704,703,707,703,736,704,740,708,1223,1221,1248,1323,1451,2541,2823,3002,3055,3031,3008,2991,2927,2906,2872,2782,2724,2697,2661,2606,2565,2443,2467,2380,2343,2099,1827,1770,1423,1403,1370,1320,1280,1252,1242,1246,1253,1234,1233,1245,1252,1277,1247,1263,1260,1265,1271,1261,1262,1252,1264,1255,1259,1266,1262,1266,1263,1266,1266,1270,1266,1291,1265,1282,1269,620,616,612,616,628,771,1167,1317,1462,1508,1514,1460,1431,1408,1381,1366,1339,1327,1310,1278,1251,1219,1251,1180,1154,1138,1114,1081,976,889,824,742,648,632,620,619,616,624,548,548,548,548,548,548,548,548,548,548,548,548,548,548,548,548,548,548,548,548,548,548,548,548,548,548,548,503,504,503,508,519,625,913,1045,1158,1238,1244,1233,1213,1191,1160,1152,1132,1080,1059,1064,1048,1022,1022,985,962,945,928,911,892,739,652,635,546,530,516,509,515,494,404,404,404,404,404,404,404,404,404,404,404,404,404,404,404,404,404,404,404,404,404,404,404,404,404,404,404,1077,1052,1089,1117,1229,1926,2407,2644,2751,2800,2774,2729,2678,2650,2578,2549,2481,2392,2342,2290,2304,2200,2179,2097,2044,2041,1933,1639,1489,1278,1182,1164,1136,1112,1092,1094,1092,1097,1045,1045,1045,1045,1045,1045,1045,1045,1045,1045,1045,1045,1045,1045,1045,1045,1045,1045,1045,1045,1045,1045,1045,1045,1045,1045,1045,512,501,503,504,515,653,983,1065,1165,1215,1250,1198,1180,1160,1142,1122,1104,1084,1066,1046,1028,1009,990,970,951,933,914,895,876,869,799,693,533,520,510,507,508,509,462,462,462,462,462,462,462,462,462,462,462,462,462,462,462,462,462,462,462,462,462,462,462,462,462,462,462,474,475,476,478,483,580,848,957,1062,1134,1121,1100,1100,1066,1050,1058,1048,1032,996,984,967,948,935,918,885,870,858,845,832,749,635,633,552,500,488,485,482,466,379,379,379,379,379,379,379,379,379,379,379,379,379,379,379,379,379,379,379,379,379,379,379,379,379,379,379,620,628,631,634,639,854,1163,1316,1472,1516,1511,1512,1489,1468,1425,1413,1382,1348,1318,1298,1293,1273,1235,1228,1198,1164,1130,1104,897,892,835,757,691,658,648,633,630,629,539,539,539,539,539,539,539,539,539,539,539,539,539,539,539,539,539,539,539,539,539,539,539,539,539,539,539,1031,1026,1026,1049,1193,1772,2334,2577,2668,2695,2681,2597,2552,2503,2448,2408,2353,2319,2275,2224,2175,2127,2085,2040,1986,1924,1884,1742,1493,1311,1191,1096,1076,1060,1036,1040,1034,1039,987,987,987,987,987,987,987,987,987,987,987,987,987,987,987,987,987,987,987,987,987,987,987,987,987,987,987,365,365,368,372,374,424,659,736,828,899,913,898,884,869,854,841,824,810,796,784,769,755,740,724,710,696,680,666,651,579,523,486,410,400,405,373,404,402,294,294,294,294,294,294,294,294,294,294,294,294,294,294,294,294,294,294,294,294,294,294,294,294,294,294,294,751,742,751,752,784,1132,1497,1697,1773,1839,1836,1796,1788,1746,1718,1679,1650,1621,1590,1570,1563,1513,1471,1451,1422,1412,1362,1318,1292,1014,963,940,788,795,759,764,771,767,740,745,749,744,748,749,750,754,748,754,751,759,760,760,757,758,760,757,760,755,756,755,755,755,755,755,755,0,0,0,0,0,0,0,0,0,0,0,0,0,0,0,0,0,0,0,0,0,0,0,0,0,0,0,0,0,0,0,0,0,0,0,0,0,0,0,0,0,0,0,0,0,0,0,0,0,0,0,0,0,0,0,0,0,0,0,0,0,0,0,0,0,620,616,612,616,628,771,1167,1317,1462,1508,1514,1460,1431,1408,1381,1366,1339,1327,1310,1278,1251,1219,1251,1180,1154,1138,1114,1081,976,889,824,742,648,632,620,619,616,624,548,548,548,548,548,548,548,548,548,548,548,548,548,548,548,548,548,548,548,548,548,548,548,548,548,548,548,0,0,0,0,0,0,0,0,0,0,0,0,0,0,0,0,0,0,0,0,0,0,0,0,0,0,0,0,0,0,0,0,0,0,0,0,0,0,0,0,0,0,0,0,0,0,0,0,0,0,0,0,0,0,0,0,0,0,0,0,0,0,0,0,0,281,281,282,283,297,381,498,558,615,688,708,695,684,673,661,649,640,627,620,608,598,586,569,558,547,535,523,513,501,490,459,433,458,340,318,306,307,300,185,185,185,185,185,185,185,185,185,185,185,185,185,185,185,185,185,185,185,185,185,185,185,185,185,185,185,596,599,633,635,636,1025,1263,1525,1679,1742,1757,1730,1646,1638,1645,1547,1570,1503,1431,1451,1365,1333,1380,1281,1282,1215,1168,1168,1132,1015,1023,869,736,660,636,651,647,634,618,621,625,631,628,632,649,635,627,633,633,632,649,633,641,646,629,630,635,628,631,632,630,631,621,621,619,444,429,431,433,456,584,813,893,1004,1084,1076,1086,1030,1014,1008,1016,974,961,945,922,906,910,892,854,846,811,823,805,788,770,574,561,535,534,464,441,462,452,416,417,420,424,422,424,422,438,419,423,421,420,419,423,426,427,423,423,426,423,439,425,424,441,415,420,419,258,259,259,260,274,307,418,508,560,626,646,635,624,614,604,594,585,574,568,557,548,537,522,512,501,492,432,426,418,411,372,366,411,313,295,275,276,276,177,177,177,177,177,177,177,177,177,177,177,177,177,177,177,177,177,177,177,177,177,177,177,177,177,177,177,351,339,336,336,338,432,612,676,744,808,831,818,804,791,778,766,744,740,728,715,701,689,676,679,651,637,624,612,599,586,574,552,442,351,342,339,340,340,300,300,300,300,300,300,300,300,300,300,300,300,300,300,300,300,300,300,300,300,300,300,300,300,300,300,300,564,567,567,568,598,962,1148,1357,1508,1612,1612,1597,1549,1518,1505,1455,1424,1406,1375,1343,1312,1267,1248,1203,1172,1141,1122,1078,1047,1027,874,850,614,593,585,590,579,576,560,563,568,573,569,575,589,576,569,571,574,573,582,576,580,589,572,572,576,571,574,574,573,574,565,566,564,547,549,549,552,565,700,955,1172,1275,1321,1330,1314,1293,1273,1253,1244,1222,1195,1179,1157,1138,1118,1091,1069,1047,1025,951,931,912,883,770,740,668,575,561,557,559,528,436,436,436,436,436,436,436,436,436,436,436,436,436,436,436,436,436,436,436,436,436,436,436,436,436,436,436,1245,1253,1253,1313,1366,2319,2704,2858,2956,2956,2918,2872,2867,2824,2740,2699,2629,2640,2594,2489,2370,2449,2342,2153,1988,1900,1669,1643,1548,1405,1380,1320,1305,1249,1241,1268,1233,1246,1184,1184,1184,1184,1184,1184,1184,1184,1184,1184,1184,1184,1184,1184,1184,1184,1184,1184,1184,1184,1184,1184,1184,1184,1184,1184,1184,503,504,505,507,511,747,946,1056,1160,1231,1245,1225,1206,1188,1173,1152,1128,1107,1093,1072,1048,1028,1008,988,968,949,931,908,889,868,778,693,676,585,515,512,513,501,439,439,439,439,439,439,439,439,439,439,439,439,439,439,439,439,439,439,439,439,439,439,439,439,439,439,439,0,0,0,0,0,0,0,0,0,0,0,0,0,0,0,0,0,0,0,0,0,0,0,0,0,0,0,0,0,0,0,0,0,0,0,0,0,0,0,0,0,0,0,0,0,0,0,0,0,0,0,0,0,0,0,0,0,0,0,0,0,0,0,0,0 ]);
