n = 10;
D = [255,99,204,147,285,156,215,112,182,242 ];
q = 0;
prec = array2d(1..0,1..2,[]);
steps = 64;
l = 360;
r = 0;
which = [];
interval = array2d(1..0,1..2,[]);
T = array3d(1..11,1..11,0..64,[0,0,0,0,0,0,0,0,0,0,0,0,0,0,0,0,0,0,0,0,0,0,0,0,0,0,0,0,0,0,0,0,0,0,0,0,0,0,0,0,0,0,0,0,0,0,0,0,0,0,0,0,0,0,0,0,0,0,0,0,0,0,0,0,0,270,271,272,272,273,352,396,441,485,528,541,533,524,517,508,499,491,482,475,466,457,449,441,432,424,415,408,399,390,382,374,366,357,348,279,274,275,276,264,272,270,278,274,343,271,349,270,279,272,267,273,277,343,343,278,274,273,270,347,279,270,273,269,274,270,694,697,699,702,747,998,1140,1262,1367,1393,1392,1370,1348,1326,1303,1296,1277,1237,1232,1218,1195,1148,1150,1127,1081,1059,1037,1014,992,1004,948,848,803,723,702,721,707,709,707,712,708,747,718,711,719,762,715,727,724,729,725,718,711,720,723,728,717,720,711,717,714,728,754,782,715,1133,1125,1129,1155,1272,1719,1930,2082,2182,2228,2239,2176,2136,2102,2068,2030,1999,1959,1926,1890,1854,1826,1788,1773,1711,1683,1645,1624,1573,1453,1358,1207,1177,1167,1139,1138,1100,1103,1094,1108,1109,1128,1127,1151,1127,1151,1129,1169,1144,1170,1162,1134,1154,1171,1160,1138,1142,1135,1139,1171,1164,1156,1158,1151,1144,946,949,951,961,1222,1405,1687,1909,2051,2120,2102,2065,2022,1986,1943,1907,1867,1824,1788,1762,1709,1669,1626,1587,1551,1521,1468,1428,1389,1349,1351,1178,1007,979,963,960,1003,973,980,972,976,978,982,986,991,993,993,993,1000,1001,1006,998,998,1006,1004,1007,995,1003,1004,1006,1009,1010,1007,1007,1007,260,261,261,262,263,334,376,417,457,500,519,511,502,495,487,479,471,463,455,447,440,431,423,415,408,399,391,383,376,367,359,352,344,335,268,264,264,265,231,232,235,232,235,234,235,265,237,241,237,239,236,245,236,253,258,240,238,236,231,237,238,238,230,230,230,522,524,525,527,536,599,802,865,986,1041,1053,1039,1025,1008,991,930,917,909,893,880,870,854,842,834,819,801,785,768,752,734,718,701,685,596,534,531,531,533,509,515,510,513,518,516,516,527,511,514,515,515,511,519,518,528,517,516,519,514,526,527,517,551,510,510,510,854,856,846,888,895,1214,1401,1525,1637,1687,1680,1654,1628,1600,1574,1546,1520,1596,1466,1439,1433,1386,1358,1332,1305,1278,1251,1224,1197,1171,1066,914,904,872,857,854,856,858,850,875,851,877,868,869,872,893,920,911,929,889,930,923,916,924,900,921,875,900,887,876,873,882,931,912,886,1477,1514,1505,1607,1794,2466,2706,2878,2990,3004,2973,2998,2882,2821,2779,2731,2669,2645,2568,2517,2482,2440,2367,2285,2159,1955,1771,1764,1764,1647,1674,1643,1549,1512,1510,1497,1503,1512,1510,1509,1518,1528,1514,1541,1519,1526,1521,1521,1542,1522,1515,1532,1521,1555,1539,1539,1529,1536,1537,1539,1536,1536,1518,1550,1528,260,261,261,262,263,334,376,417,457,500,519,511,502,495,487,479,471,463,455,447,440,431,423,415,408,399,391,383,376,367,359,352,344,335,268,264,264,265,231,226,229,230,231,228,228,230,227,235,234,232,230,234,228,229,228,232,235,237,231,228,236,234,230,230,230,0,0,0,0,0,0,0,0,0,0,0,0,0,0,0,0,0,0,0,0,0,0,0,0,0,0,0,0,0,0,0,0,0,0,0,0,0,0,0,0,0,0,0,0,0,0,0,0,0,0,0,0,0,0,0,0,0,0,0,0,0,0,0,0,0,343,344,350,351,284,336,416,510,559,605,628,618,654,644,633,622,611,557,547,579,568,576,508,498,488,435,426,457,451,442,432,423,413,331,289,285,286,287,288,288,289,293,295,290,290,289,293,293,296,290,292,293,295,291,293,294,291,292,288,293,293,294,293,301,289,0,0,0,0,0,0,0,0,0,0,0,0,0,0,0,0,0,0,0,0,0,0,0,0,0,0,0,0,0,0,0,0,0,0,0,0,0,0,0,0,0,0,0,0,0,0,0,0,0,0,0,0,0,0,0,0,0,0,0,0,0,0,0,0,0,517,518,530,522,531,709,804,898,988,1069,1045,1028,1012,994,977,961,972,941,1013,894,877,873,844,828,810,794,777,818,744,728,710,694,645,540,536,524,526,528,524,525,518,525,524,538,523,532,531,538,525,527,520,526,532,513,526,529,525,529,519,521,529,529,522,529,521,949,977,955,972,1011,1409,1616,1773,1858,1899,1914,1895,1853,1813,1788,1758,1731,1700,1667,1609,1579,1577,1544,1532,1483,1453,1443,1410,1366,1253,1257,1051,1016,996,980,977,944,943,931,935,938,941,933,938,942,954,947,953,946,942,956,949,955,958,956,956,964,955,952,955,961,985,958,980,975,919,936,940,946,1042,1336,1537,1689,1799,1834,1834,1848,1777,1749,1718,1710,1659,1631,1600,1571,1541,1511,1482,1469,1420,1392,1382,1358,1327,1266,1046,1009,1017,954,941,948,901,900,888,892,895,898,890,895,899,911,904,910,903,899,913,906,912,915,913,913,921,912,909,912,918,942,915,937,932,491,493,494,495,479,531,730,835,913,974,989,973,937,922,907,892,876,882,865,831,816,817,804,788,773,734,718,725,711,689,632,619,600,523,494,490,491,480,457,456,459,463,470,469,462,458,465,464,467,459,462,463,464,460,462,468,462,465,458,462,466,466,472,481,460,741,744,746,748,743,915,1179,1334,1377,1495,1491,1469,1429,1405,1353,1359,1314,1294,1274,1255,1235,1225,1207,1180,1158,1112,1089,1086,1063,1034,982,875,857,783,748,743,745,737,716,715,719,728,736,731,729,722,729,730,738,731,731,737,737,737,732,734,732,732,726,726,735,732,739,746,727,684,685,688,690,712,950,1076,1203,1300,1366,1377,1355,1333,1311,1289,1289,1245,1223,1201,1179,1157,1135,1113,1091,1069,1065,1025,1003,981,959,937,915,730,712,699,693,695,698,679,683,699,728,696,705,686,702,687,714,696,691,697,700,711,717,710,704,700,700,708,702,699,727,694,703,699,1557,1562,1580,1648,1892,2584,2807,2939,2999,3013,2996,2946,2893,2870,2791,2756,2711,2662,2719,2563,2522,2489,2389,2285,1925,1868,1898,1848,1750,1731,1685,1692,1616,1604,1587,1563,1580,1553,1552,1545,1552,1560,1555,1570,1556,1567,1564,1567,1559,1559,1554,1559,1564,1549,1562,1565,1557,1564,1553,1550,1558,1558,1551,1557,1549,491,493,494,495,479,564,730,835,913,974,989,973,937,922,907,892,876,882,865,831,816,817,804,788,773,734,718,725,711,689,678,641,600,523,494,488,489,480,459,458,458,462,470,471,463,461,467,465,468,465,469,463,467,467,462,468,463,463,459,468,463,466,471,490,458,343,344,350,351,284,336,416,510,559,605,628,618,654,644,633,622,611,557,547,579,568,576,508,498,488,435,426,457,451,442,432,423,413,331,289,285,286,287,288,288,289,293,295,290,290,289,293,293,296,290,292,293,295,291,293,294,291,292,288,293,293,294,293,301,289,738,739,742,744,795,989,1191,1273,1443,1515,1524,1497,1456,1420,1381,1405,1378,1354,1295,1309,1246,1231,1235,1212,1222,1157,1173,1113,1082,1059,892,930,785,768,753,749,754,711,685,691,693,694,694,689,694,687,694,692,689,694,694,694,694,694,693,693,692,694,694,694,694,694,694,694,693,537,539,540,541,544,690,800,892,986,1067,1081,1064,1048,1029,1013,996,977,961,944,926,909,892,875,858,840,823,810,788,772,754,737,720,648,560,549,545,547,548,520,514,520,516,528,521,513,528,523,520,527,528,524,528,528,528,525,521,521,524,523,520,524,522,521,520,519,0,0,0,0,0,0,0,0,0,0,0,0,0,0,0,0,0,0,0,0,0,0,0,0,0,0,0,0,0,0,0,0,0,0,0,0,0,0,0,0,0,0,0,0,0,0,0,0,0,0,0,0,0,0,0,0,0,0,0,0,0,0,0,0,0,471,472,473,476,467,623,699,770,853,902,909,898,869,871,891,847,811,797,826,815,789,785,770,751,739,726,689,675,678,632,647,604,603,512,468,478,479,492,444,445,448,453,446,454,450,454,461,451,456,448,452,452,448,449,452,452,452,453,452,453,454,461,459,461,459,635,647,639,641,669,765,983,1093,1215,1258,1260,1242,1199,1206,1185,1161,1137,1107,1119,1092,1080,1064,1030,1020,1002,988,946,935,909,861,842,692,710,678,648,645,666,632,552,552,552,552,552,552,552,552,552,552,552,552,552,552,552,552,551,551,552,552,552,552,552,552,552,552,551,750,752,756,780,781,1154,1322,1490,1616,1671,1640,1632,1621,1564,1601,1505,1508,1509,1476,1443,1412,1338,1344,1312,1241,1210,1182,1149,1127,1114,1081,949,805,807,793,785,778,777,772,769,771,775,779,780,781,788,776,781,782,788,788,802,802,799,809,785,785,782,782,793,782,797,786,811,811,788,789,791,793,799,1236,1466,1633,1764,1800,1786,1752,1744,1697,1703,1614,1580,1556,1512,1478,1444,1409,1375,1340,1306,1276,1238,1203,1169,1135,1101,950,845,818,803,799,804,808,819,819,801,805,822,828,827,842,816,834,833,863,849,863,863,857,852,813,826,826,853,851,854,861,847,850,848,271,280,280,281,283,349,394,432,475,506,514,524,511,510,497,492,485,479,471,463,456,457,443,433,426,418,409,403,396,387,378,368,295,293,287,284,285,278,205,205,205,205,205,205,205,205,205,205,205,205,205,205,205,205,204,204,205,205,205,205,205,205,205,205,204,1049,1054,1056,1068,1123,1495,1741,1920,2024,2079,2065,2031,2014,1985,1933,1900,1882,1835,1809,1784,1752,1713,1672,1646,1621,1589,1546,1279,1252,1228,1175,1142,1099,1080,1079,1072,1060,1055,1025,1028,1020,1034,1035,1035,1032,1033,1035,1033,1029,1034,1032,1034,1033,1032,1036,1036,1036,1032,1035,1034,1029,1029,1029,1029,1028,750,752,756,780,781,1154,1322,1490,1616,1671,1640,1632,1621,1564,1601,1505,1508,1509,1476,1443,1412,1338,1344,1312,1241,1210,1182,1149,1127,1114,933,847,805,807,793,785,777,776,771,771,768,773,777,777,798,798,774,783,782,804,788,799,812,812,808,785,785,781,781,791,780,796,786,795,795,738,739,742,744,795,989,1191,1273,1443,1515,1524,1497,1456,1420,1381,1405,1378,1354,1295,1309,1246,1231,1235,1212,1222,1157,1173,1113,1082,1059,892,930,785,768,753,749,754,711,685,691,693,694,694,689,694,687,694,692,689,694,694,694,694,694,693,693,692,694,694,694,694,694,694,694,693,1102,1105,1120,1144,1195,1567,1818,2036,2170,2230,2173,2202,2115,2121,2067,2028,2014,1977,1949,1888,1846,1805,1764,1767,1713,1698,1640,1614,1491,1349,1280,1205,1170,1145,1134,1124,1127,1126,1101,1113,1117,1126,1133,1121,1123,1139,1118,1140,1141,1137,1154,1142,1158,1149,1140,1132,1137,1134,1130,1151,1132,1136,1132,1140,1140,952,955,956,962,982,1260,1502,1681,1818,1890,1882,1863,1822,1807,1761,1736,1708,1676,1653,1617,1587,1554,1526,1497,1467,1437,1418,1377,1353,1075,1051,1029,1002,983,971,968,970,972,940,940,932,933,953,950,951,960,950,961,951,952,951,958,963,960,965,963,958,955,954,960,955,955,951,963,963,573,572,577,582,586,638,815,882,945,993,1003,991,979,966,955,943,931,919,907,895,886,888,875,862,843,837,811,799,800,721,709,638,614,588,588,575,585,568,522,523,522,526,527,531,529,530,519,528,523,522,523,542,534,539,556,541,531,536,546,541,534,540,526,530,529,0,0,0,0,0,0,0,0,0,0,0,0,0,0,0,0,0,0,0,0,0,0,0,0,0,0,0,0,0,0,0,0,0,0,0,0,0,0,0,0,0,0,0,0,0,0,0,0,0,0,0,0,0,0,0,0,0,0,0,0,0,0,0,0,0,272,273,273,274,275,347,384,437,472,528,552,543,534,525,510,502,493,484,475,474,458,456,447,438,430,421,407,403,394,381,377,369,360,352,342,276,335,337,260,262,257,258,260,257,270,268,261,266,259,259,256,257,260,259,260,260,258,261,266,260,260,262,259,261,259,1098,1101,1125,1160,1262,1670,2016,2230,2376,2339,2419,2278,2236,2193,2174,2180,2186,2092,2019,1954,1971,1910,1860,1806,1752,1774,1670,1634,1592,1446,1218,1254,1213,1148,1137,1125,1124,1164,1136,1144,1137,1137,1151,1143,1140,1146,1154,1155,1157,1157,1158,1158,1160,1170,1163,1160,1156,1161,1159,1165,1165,1174,1172,1173,1172,1151,1138,1142,1171,1417,1709,2156,2387,2522,2469,2516,2396,2350,2302,2263,2218,2223,2144,2082,2037,2063,1983,1900,1855,1810,1813,1725,1700,1510,1444,1259,1258,1226,1170,1155,1159,1163,1192,1181,1170,1190,1169,1196,1176,1192,1188,1193,1187,1177,1195,1189,1197,1199,1208,1202,1203,1195,1200,1198,1204,1204,1218,1212,1218,1217,290,292,293,294,295,350,425,482,533,580,593,583,574,565,556,546,535,527,517,508,499,489,479,468,460,450,441,433,423,414,404,394,386,355,367,296,341,341,265,263,264,265,265,266,267,266,264,266,264,265,268,272,270,269,291,272,267,268,271,272,268,273,267,268,267,841,843,837,843,890,1102,1317,1460,1602,1660,1665,1630,1604,1570,1560,1524,1505,1463,1452,1424,1404,1369,1350,1331,1299,1272,1246,1219,1180,1086,1061,912,871,868,858,844,850,837,819,817,820,817,832,830,831,842,828,848,830,831,830,832,832,857,855,838,832,831,828,839,839,851,838,845,836,1098,1101,1125,1160,1339,1670,2016,2230,2376,2339,2419,2278,2236,2193,2174,2180,2186,2092,2019,1954,1971,1910,1860,1806,1752,1774,1670,1634,1592,1427,1218,1254,1213,1148,1137,1124,1124,1163,1135,1141,1135,1135,1148,1140,1137,1144,1156,1159,1155,1159,1164,1164,1166,1169,1166,1160,1162,1169,1165,1166,1169,1174,1164,1164,1163,1102,1105,1120,1144,1195,1567,1818,2036,2170,2230,2173,2202,2115,2121,2067,2028,2014,1977,1949,1888,1846,1805,1764,1767,1713,1698,1640,1614,1491,1349,1280,1205,1170,1145,1134,1124,1127,1126,1101,1113,1117,1126,1133,1121,1123,1139,1118,1140,1141,1137,1154,1142,1158,1149,1140,1132,1137,1134,1130,1151,1132,1136,1132,1140,1140,954,956,997,1012,1086,1557,1823,2024,2138,2204,2151,2141,2037,1996,1956,1916,1876,1837,1796,1756,1716,1676,1635,1596,1555,1515,1475,1435,1446,1349,1075,1043,1009,1015,1010,972,1006,986,1036,1056,1048,1045,1039,1073,1048,1051,1063,1075,1057,1045,1067,1076,1077,1096,1082,1052,1053,1051,1046,1055,1045,1036,1032,1078,1040,939,942,959,958,974,1308,1479,1663,1834,1898,1860,1830,1800,1771,1741,1712,1683,1653,1646,1595,1545,1556,1527,1458,1447,1417,1388,1358,1328,1080,1081,1044,990,970,998,954,955,958,948,937,951,950,960,962,949,968,967,969,958,960,957,962,966,983,974,969,952,968,961,962,956,965,958,968,955,620,623,624,627,631,774,948,1058,1157,1222,1234,1223,1204,1184,1164,1145,1126,1105,1086,1069,1049,1027,1008,994,968,953,929,908,891,872,850,723,665,659,648,630,631,621,564,565,566,571,572,570,572,572,573,574,574,576,582,587,584,582,580,583,585,587,584,587,584,584,584,584,584,219,220,220,234,244,249,312,349,385,422,447,439,433,426,419,412,405,397,391,383,376,369,362,355,348,342,333,327,320,312,306,300,292,256,250,244,246,246,207,205,200,200,208,212,208,214,209,214,212,223,224,223,213,225,213,205,225,210,223,228,228,228,229,229,220,0,0,0,0,0,0,0,0,0,0,0,0,0,0,0,0,0,0,0,0,0,0,0,0,0,0,0,0,0,0,0,0,0,0,0,0,0,0,0,0,0,0,0,0,0,0,0,0,0,0,0,0,0,0,0,0,0,0,0,0,0,0,0,0,0,1026,1049,1031,1129,1177,1683,1960,2186,2244,2369,2280,2201,2159,2152,2075,2068,2026,1983,1908,1866,1824,1813,1772,1721,1687,1615,1657,1613,1490,1448,1151,1116,1082,1055,1044,1045,1065,1078,1109,1108,1117,1115,1115,1109,1120,1133,1116,1121,1126,1117,1147,1152,1139,1129,1141,1119,1119,1137,1142,1132,1119,1120,1117,1142,1125,1180,1176,1203,1231,1443,1874,2191,2316,2466,2497,2476,2371,2393,2289,2247,2205,2228,2123,2081,2053,1997,1956,1915,1914,1831,1790,1789,1712,1596,1580,1304,1288,1257,1203,1200,1213,1220,1207,1280,1270,1248,1244,1284,1273,1279,1292,1296,1291,1318,1294,1296,1309,1307,1313,1289,1330,1361,1328,1336,1330,1307,1314,1304,1293,1297,407,408,412,411,414,523,595,664,742,809,827,815,800,787,774,761,748,734,721,708,695,690,668,655,642,629,623,602,589,576,563,550,439,490,456,414,415,416,364,365,366,370,370,369,372,371,372,372,372,372,373,381,376,375,373,378,376,373,373,377,377,377,377,377,377,884,889,882,883,931,1277,1438,1616,1698,1736,1748,1738,1675,1643,1620,1592,1581,1550,1539,1482,1455,1442,1400,1400,1377,1347,1311,1193,1153,1171,1102,1048,921,919,909,886,889,842,871,865,879,891,892,876,880,878,922,884,888,894,888,924,929,916,902,899,887,907,898,891,920,896,894,896,888,1026,1049,1031,1129,1340,1683,1960,2186,2244,2369,2280,2201,2159,2152,2075,2068,2026,1983,1908,1866,1824,1813,1772,1721,1687,1615,1657,1613,1490,1448,1199,1116,1082,1055,1044,1045,1064,1078,1106,1109,1114,1113,1113,1110,1115,1131,1114,1121,1126,1121,1128,1134,1132,1128,1141,1128,1139,1123,1132,1130,1119,1131,1113,1215,1121,954,956,997,1012,1086,1557,1823,2024,2138,2204,2151,2141,2037,1996,1956,1916,1876,1837,1796,1756,1716,1676,1635,1596,1555,1515,1475,1435,1446,1349,1075,1043,1009,1015,1010,972,1006,986,1036,1056,1048,1045,1039,1073,1048,1051,1063,1075,1057,1045,1067,1076,1077,1096,1082,1052,1053,1051,1046,1055,1045,1036,1032,1078,1040,152,152,153,153,153,192,217,243,268,293,311,305,301,295,291,286,281,276,271,266,261,256,251,246,242,236,232,226,222,216,212,206,202,196,192,153,154,154,147,143,143,143,145,145,146,147,147,152,149,153,154,150,149,153,148,148,150,152,154,189,154,190,192,190,188,388,390,391,392,394,517,583,650,716,768,779,767,755,743,731,719,706,694,682,669,657,645,633,621,609,597,585,573,561,547,535,523,418,408,398,395,396,396,387,387,395,397,407,402,391,391,395,406,389,393,399,391,395,403,389,391,391,391,394,394,389,395,394,401,389,829,832,827,836,876,1072,1347,1515,1587,1656,1639,1612,1586,1578,1534,1508,1481,1455,1428,1403,1377,1350,1324,1334,1272,1246,1219,1193,1181,1140,1115,981,869,865,837,842,837,855,849,850,851,855,859,856,865,862,862,873,873,874,868,868,860,873,871,870,867,872,865,868,858,890,873,913,857,1240,1244,1249,1284,1401,1868,2153,2313,2446,2464,2453,2387,2348,2335,2274,2256,2201,2160,2124,2084,2044,2004,1964,1927,1887,1847,1825,1673,1499,1540,1370,1331,1298,1272,1272,1259,1221,1228,1240,1241,1242,1254,1246,1253,1243,1259,1237,1246,1245,1248,1247,1277,1257,1254,1253,1255,1258,1249,1287,1286,1245,1254,1245,1251,1246,1095,1099,1104,1112,1371,1597,1904,2205,2366,2396,2379,2316,2302,2247,2200,2162,2115,2077,2032,2035,1939,1895,1851,1805,1762,1719,1674,1637,1587,1558,1357,1192,1157,1130,1147,1112,1124,1126,1127,1115,1119,1121,1127,1131,1137,1140,1140,1145,1149,1154,1152,1148,1147,1159,1152,1155,1145,1155,1153,1154,1154,1185,1152,1188,1179,0,0,0,0,0,0,0,0,0,0,0,0,0,0,0,0,0,0,0,0,0,0,0,0,0,0,0,0,0,0,0,0,0,0,0,0,0,0,0,0,0,0,0,0,0,0,0,0,0,0,0,0,0,0,0,0,0,0,0,0,0,0,0,0,0,554,556,558,558,570,761,860,965,1060,1109,1116,1098,1081,1062,1045,1027,1009,992,974,955,938,920,903,885,867,849,909,814,796,778,791,742,724,699,566,562,564,565,567,567,569,567,563,566,610,620,565,567,616,568,567,631,572,572,572,567,570,572,570,565,573,568,569,568,626,972,963,966,986,1048,1398,1613,1767,1901,1916,1908,1877,1846,1839,1786,1755,1746,1695,1664,1633,1623,1592,1562,1530,1481,1468,1437,1390,1359,1299,1197,1120,1025,991,1006,974,977,980,990,1002,994,1002,1009,999,1006,1014,1017,1011,1032,1006,1008,1017,1016,1021,1019,1057,1025,1025,1041,1014,1027,1057,1052,1058,1048,1492,1506,1519,1668,1892,2512,2750,2933,3030,3028,3015,2961,2980,2856,2855,2744,2693,2642,2675,2559,2507,2455,2456,2348,2175,2103,2003,1745,1861,1710,1692,1581,1565,1527,1535,1524,1518,1527,1517,1534,1534,1537,1533,1545,1537,1546,1542,1543,1544,1546,1566,1547,1566,1564,1554,1566,1555,1564,1558,1549,1564,1549,1548,1556,1537,303,304,305,306,306,365,444,495,544,590,606,597,587,578,568,559,550,541,531,522,512,503,493,485,475,466,456,447,437,429,419,410,381,372,359,354,355,356,295,300,300,301,298,295,304,301,305,303,297,301,297,303,300,304,306,343,299,298,301,305,314,306,303,300,299,152,152,153,153,153,192,217,243,268,293,311,305,301,295,291,286,281,276,271,266,261,256,251,246,242,236,232,226,222,216,212,206,202,196,192,153,154,154,147,143,143,143,145,145,146,147,147,152,149,153,154,150,149,153,148,148,150,152,154,189,154,190,192,190,188,557,558,547,549,595,775,886,995,1073,1145,1152,1137,1114,1107,1074,1057,1037,1039,1020,980,983,941,922,903,864,864,845,826,807,776,755,737,715,632,556,565,567,568,561,563,566,575,576,572,573,574,568,577,567,568,570,580,581,576,581,580,573,575,598,573,570,569,573,614,570,738,741,743,772,780,1102,1250,1365,1436,1541,1472,1452,1432,1480,1464,1427,1351,1332,1312,1369,1289,1311,1243,1226,1192,1160,1131,1104,1076,1039,841,822,790,762,784,765,762,766,760,766,765,776,777,772,776,788,782,781,787,820,803,794,817,821,783,777,786,787,777,785,824,781,781,785,782,797,800,801,804,853,1175,1454,1628,1762,1811,1798,1763,1728,1680,1662,1625,1579,1558,1530,1491,1443,1423,1389,1356,1321,1287,1263,1217,1194,1150,1104,1045,848,958,802,811,798,797,785,772,785,780,820,774,776,783,784,811,810,804,793,836,812,798,855,798,806,797,810,803,794,799,830,809,808,1183,1177,1168,1260,1371,1873,2184,2364,2466,2521,2525,2448,2432,2386,2340,2295,2258,2209,2174,2099,2066,1971,1964,1898,1886,1845,1775,1677,1639,1489,1314,1272,1251,1245,1198,1193,1211,1209,1208,1199,1207,1209,1224,1203,1206,1218,1213,1242,1230,1235,1221,1248,1232,1237,1256,1228,1220,1230,1234,1222,1224,1219,1247,1228,1227,1179,1146,1154,1223,1639,1988,2294,2708,2695,2631,2607,2563,2582,2473,2392,2339,2292,2238,2186,2136,2085,2086,1983,1932,1893,1831,1827,1729,1678,1637,1549,1284,1211,1177,1163,1181,1174,1217,1231,1258,1235,1238,1264,1260,1250,1261,1261,1269,1277,1249,1259,1262,1269,1278,1278,1278,1269,1279,1282,1345,1336,1333,1362,1346,1345,445,446,448,449,451,602,687,771,859,915,872,906,891,875,815,844,830,815,802,784,768,753,739,723,708,696,677,666,647,632,619,601,586,467,455,451,452,436,421,426,431,460,431,456,429,453,429,432,432,431,426,431,436,526,433,435,431,431,457,434,432,462,426,433,427,0,0,0,0,0,0,0,0,0,0,0,0,0,0,0,0,0,0,0,0,0,0,0,0,0,0,0,0,0,0,0,0,0,0,0,0,0,0,0,0,0,0,0,0,0,0,0,0,0,0,0,0,0,0,0,0,0,0,0,0,0,0,0,0,0,988,991,993,1005,1154,1512,1823,2010,2134,2176,2156,2116,2074,2023,2008,1956,1927,1879,1847,1800,1764,1720,1683,1643,1600,1560,1519,1480,1426,1323,1223,1171,1072,1044,996,995,976,973,974,965,978,975,991,965,971,970,979,994,993,998,987,1021,994,991,1024,993,994,992,1002,998,989,982,1012,996,995,1426,1429,1395,1462,1615,2277,2617,2855,2891,2919,2887,2844,2784,2787,2681,2635,2604,2551,2489,2423,2371,2319,2277,2234,2188,2123,2062,1858,1602,1560,1598,1515,1456,1429,1408,1395,1420,1412,1410,1419,1424,1433,1431,1424,1433,1439,1421,1430,1436,1443,1433,1444,1459,1462,1449,1445,1453,1454,1453,1442,1440,1446,1440,1442,1427,445,446,448,449,451,602,687,771,859,915,872,906,891,875,815,844,830,815,802,784,768,753,739,723,708,696,677,666,647,632,619,601,586,570,455,451,452,435,420,425,430,457,429,452,426,453,426,430,432,430,426,430,433,453,433,434,431,431,451,433,430,461,425,433,427,557,558,547,549,595,775,886,995,1073,1145,1152,1137,1114,1107,1074,1057,1037,1039,1020,980,983,941,922,903,864,864,845,826,807,776,755,737,715,632,556,565,567,568,561,563,566,575,576,572,573,574,568,577,567,568,570,580,581,576,581,580,573,575,598,573,570,569,573,614,570,957,971,971,968,1039,1306,1535,1682,1740,1830,1840,1816,1739,1732,1691,1703,1679,1609,1591,1552,1535,1551,1519,1449,1466,1399,1408,1391,1324,1167,1133,1057,1006,986,977,958,940,929,899,905,908,921,911,919,907,905,916,904,904,907,905,924,920,918,913,914,912,921,946,919,933,922,915,920,917,766,768,770,802,826,1021,1126,1231,1332,1389,1402,1392,1356,1338,1321,1302,1283,1264,1245,1217,1197,1179,1161,1142,1124,1105,1086,1068,1049,1030,879,866,797,783,774,775,777,764,724,734,727,748,737,738,744,740,734,740,746,735,739,757,753,748,742,742,742,743,765,744,744,746,734,740,737,293,293,294,294,294,304,381,399,400,436,415,413,410,408,405,402,400,398,394,392,390,387,404,401,397,393,390,379,382,379,307,305,301,298,296,295,295,295,255,262,256,263,262,266,259,263,259,258,262,257,256,267,264,268,268,268,267,266,300,266,267,270,256,264,262,337,324,325,371,327,426,484,539,595,601,613,614,598,590,590,582,566,558,573,563,552,542,532,521,511,500,490,479,469,458,448,437,427,341,333,328,418,330,303,307,306,312,313,308,312,314,307,307,307,307,307,307,307,307,307,307,307,307,307,307,307,307,307,307,307,450,455,455,458,459,583,682,759,837,906,918,897,889,866,855,838,826,814,795,782,773,755,743,729,714,695,678,670,651,639,623,606,595,478,467,463,464,445,391,390,402,421,395,398,395,399,393,393,393,393,393,393,393,393,393,393,393,393,393,393,393,393,393,393,393,883,885,909,900,1066,1399,1633,1759,1889,1922,1908,1886,1865,1838,1784,1766,1705,1700,1752,1666,1568,1552,1501,1506,1478,1409,1402,1365,1314,1280,1170,1093,956,945,931,901,918,919,896,892,910,947,901,912,899,903,903,911,928,919,916,925,924,926,928,920,911,926,920,940,927,925,923,938,936,921,926,927,938,1139,1456,1747,1920,2046,2068,2048,2011,1973,1933,1895,1875,1817,1778,1786,1700,1661,1622,1582,1558,1504,1478,1426,1399,1348,1310,1162,1127,976,948,959,939,945,967,924,937,981,1001,933,945,932,954,945,948,946,939,951,947,959,965,963,967,958,958,961,963,982,968,967,1035,983,0,0,0,0,0,0,0,0,0,0,0,0,0,0,0,0,0,0,0,0,0,0,0,0,0,0,0,0,0,0,0,0,0,0,0,0,0,0,0,0,0,0,0,0,0,0,0,0,0,0,0,0,0,0,0,0,0,0,0,0,0,0,0,0,0,949,958,975,978,1025,1251,1566,1756,1853,1896,1876,1846,1835,1787,1757,1728,1733,1668,1655,1622,1578,1574,1519,1494,1482,1430,1400,1370,1293,1181,1102,1023,999,1010,974,971,982,953,920,917,917,922,921,926,923,927,920,920,920,920,920,920,920,920,920,920,920,920,920,920,920,920,920,920,920,883,885,909,900,1066,1399,1633,1759,1889,1922,1908,1886,1865,1838,1784,1766,1705,1700,1752,1666,1568,1552,1501,1506,1478,1409,1402,1365,1314,1261,1181,1115,956,945,931,901,918,918,895,891,907,945,899,909,896,900,901,911,918,917,915,922,923,926,927,920,911,925,927,923,925,924,923,929,927,957,971,971,968,1039,1306,1535,1682,1740,1830,1840,1816,1739,1732,1691,1703,1679,1609,1591,1552,1535,1551,1519,1449,1466,1399,1408,1391,1324,1167,1133,1057,1006,986,977,958,940,929,899,905,908,921,911,919,907,905,916,904,904,907,905,924,920,918,913,914,912,921,946,919,933,922,915,920,917,1483,1494,1495,1598,1971,2544,2820,2973,3022,3038,3006,2951,2882,2840,2793,2744,2701,2638,2591,2548,2491,2442,2386,2289,2290,2129,1792,1744,1716,1685,1615,1593,1566,1523,1473,1462,1470,1457,1441,1443,1467,1493,1447,1478,1475,1457,1457,1462,1485,1460,1462,1472,1476,1496,1462,1469,1464,1502,1491,1462,1477,1461,1454,1531,1466,1565,1559,1580,1654,1893,2254,2777,2912,2989,3008,3034,2951,2935,2841,2776,2722,2713,2657,2632,2566,2509,2468,2433,2272,1912,1899,1845,1847,1765,1744,1683,1624,1633,1600,1586,1548,1529,1521,1520,1535,1514,1517,1553,1534,1554,1564,1547,1561,1558,1552,1560,1561,1560,1558,1566,1550,1560,1560,1561,1553,1544,1562,1558,1559,1550,1074,1077,1081,1083,1151,1398,1829,1986,2081,2113,2158,2069,2060,2010,1959,1915,1913,1859,1866,1813,1771,1733,1717,1674,1620,1596,1570,1488,1323,1355,1165,1136,1143,1105,1091,1080,1027,1010,1014,1017,1010,1010,1039,1020,1048,1050,1033,1050,1050,1066,1047,1047,1047,1047,1052,1037,1050,1046,1050,1050,1034,1052,1048,1049,1040,813,819,819,852,838,1050,1355,1489,1591,1632,1688,1589,1630,1544,1523,1492,1465,1485,1413,1397,1360,1335,1313,1287,1260,1230,1235,1177,1101,1076,1011,1015,881,859,830,823,835,819,812,811,803,798,828,832,842,841,820,844,836,854,835,837,837,836,841,831,835,843,834,841,843,840,839,846,831,850,853,853,870,876,1097,1426,1552,1658,1703,1742,1658,1698,1611,1579,1556,1528,1502,1474,1452,1410,1392,1365,1342,1311,1283,1256,1229,1153,1084,939,943,918,891,867,861,877,865,869,863,854,864,889,888,881,887,884,903,897,905,910,916,917,914,908,891,896,922,903,890,917,894,898,907,887,1378,1403,1397,1475,1834,2350,2626,2791,2841,2860,2829,2782,2725,2677,2632,2587,2560,2484,2457,2419,2370,2311,2262,2211,2153,2100,2007,1676,1658,1567,1504,1480,1472,1434,1412,1411,1418,1410,1393,1370,1386,1447,1384,1409,1406,1403,1403,1442,1427,1405,1410,1414,1425,1420,1424,1413,1426,1411,1410,1409,1417,1421,1391,1497,1403,1415,1420,1426,1555,1936,2491,2783,2927,2970,2984,2948,2896,2834,2781,2731,2679,2643,2569,2533,2488,2438,2368,2322,2268,2212,2173,2102,1971,1646,1608,1543,1533,1494,1452,1440,1443,1449,1440,1435,1424,1466,1472,1447,1450,1461,1451,1454,1450,1470,1448,1451,1461,1464,1495,1463,1460,1455,1471,1465,1458,1480,1464,1465,1590,1467,948,946,954,959,992,1157,1577,1755,1834,1848,1934,1854,1834,1790,1728,1694,1703,1644,1642,1600,1578,1541,1522,1491,1430,1425,1402,1303,1199,1210,1059,1013,1007,981,959,958,885,855,843,846,838,846,867,877,872,886,863,883,880,893,873,878,878,875,885,866,881,887,880,889,884,882,879,886,871,0,0,0,0,0,0,0,0,0,0,0,0,0,0,0,0,0,0,0,0,0,0,0,0,0,0,0,0,0,0,0,0,0,0,0,0,0,0,0,0,0,0,0,0,0,0,0,0,0,0,0,0,0,0,0,0,0,0,0,0,0,0,0,0,0,1378,1403,1397,1475,1834,2350,2626,2791,2841,2860,2829,2782,2725,2677,2632,2587,2560,2484,2457,2419,2370,2311,2262,2211,2153,2100,2025,1676,1658,1567,1504,1480,1472,1434,1412,1410,1417,1409,1380,1367,1384,1445,1381,1406,1403,1401,1403,1429,1427,1404,1407,1413,1425,1419,1424,1413,1425,1410,1408,1407,1416,1421,1391,1488,1403,1483,1494,1495,1598,1971,2544,2820,2973,3022,3038,3006,2951,2882,2840,2793,2744,2701,2638,2591,2548,2491,2442,2386,2289,2290,2129,1792,1744,1716,1685,1615,1593,1566,1523,1473,1462,1470,1457,1441,1443,1467,1493,1447,1478,1475,1457,1457,1462,1485,1460,1462,1472,1476,1496,1462,1469,1464,1502,1491,1462,1477,1461,1454,1531,1466,152,152,153,153,153,192,217,243,268,293,311,305,301,295,291,286,281,276,271,266,261,256,251,246,242,236,232,226,222,216,212,206,202,196,192,153,189,189,147,145,150,152,148,147,148,147,146,150,189,191,190,153,153,153,149,153,147,150,146,147,149,147,147,148,191,388,390,391,392,394,517,583,650,716,768,779,767,755,743,731,719,706,694,682,669,657,645,633,621,609,597,585,573,561,547,535,523,418,408,398,395,396,396,387,399,396,400,384,389,384,396,397,384,401,401,397,402,403,403,404,382,402,401,451,397,396,404,401,388,386,829,832,827,836,876,1179,1347,1515,1587,1656,1639,1612,1586,1578,1534,1508,1481,1455,1428,1403,1377,1350,1324,1334,1272,1246,1219,1193,1181,1029,1006,981,869,865,837,842,837,855,848,843,854,853,856,858,864,860,859,871,889,873,867,867,864,873,872,865,864,870,857,864,863,875,861,903,862,1240,1244,1249,1284,1401,1911,2153,2313,2446,2464,2453,2387,2348,2335,2274,2256,2201,2160,2124,2084,2044,2004,1964,1927,1887,1847,1825,1673,1552,1540,1370,1343,1298,1272,1272,1259,1221,1228,1241,1223,1220,1263,1221,1242,1261,1285,1272,1247,1243,1228,1255,1248,1286,1269,1286,1271,1265,1253,1263,1280,1269,1249,1224,1242,1224,1095,1099,1104,1112,1371,1597,1904,2205,2366,2396,2379,2316,2302,2247,2200,2162,2115,2077,2032,2035,1939,1895,1851,1805,1762,1719,1674,1637,1587,1558,1357,1192,1157,1130,1147,1113,1124,1162,1126,1117,1126,1130,1129,1133,1139,1140,1139,1142,1186,1141,1137,1139,1141,1159,1145,1160,1142,1144,1145,1143,1144,1157,1140,1159,1154,303,304,305,306,306,389,444,495,544,590,606,597,587,578,568,559,550,541,531,522,512,503,493,485,475,466,456,447,437,429,419,410,400,391,359,354,355,356,309,289,291,292,292,295,294,297,294,294,297,293,294,297,294,297,299,298,299,298,297,297,297,299,299,300,301,554,556,558,558,570,763,864,965,1060,1109,1116,1098,1081,1062,1045,1027,1009,992,974,955,938,920,903,885,867,849,909,814,796,778,809,742,724,578,566,562,564,565,566,566,567,567,576,579,599,605,576,625,586,583,579,577,576,593,601,585,582,574,570,579,579,585,577,599,580,972,963,966,986,1048,1406,1613,1767,1901,1916,1908,1877,1846,1839,1786,1755,1746,1695,1664,1633,1623,1592,1562,1530,1481,1468,1437,1390,1359,1251,1197,1120,1025,991,1006,974,977,980,990,1002,996,1002,1009,999,1006,1014,1017,1011,1032,1006,1008,1017,1016,1021,1019,1070,1022,1025,1033,1014,1022,1029,1031,1049,1031,1492,1506,1519,1668,1892,2512,2750,2933,3030,3028,3015,2961,2980,2856,2855,2744,2693,2642,2675,2559,2507,2455,2456,2230,1870,2103,1810,1745,1861,1710,1650,1581,1565,1527,1535,1524,1518,1527,1525,1521,1535,1548,1536,1545,1534,1550,1537,1549,1559,1537,1540,1548,1548,1568,1562,1553,1551,1546,1551,1555,1555,1550,1533,1562,1541,0,0,0,0,0,0,0,0,0,0,0,0,0,0,0,0,0,0,0,0,0,0,0,0,0,0,0,0,0,0,0,0,0,0,0,0,0,0,0,0,0,0,0,0,0,0,0,0,0,0,0,0,0,0,0,0,0,0,0,0,0,0,0,0,0,152,152,153,153,153,192,217,243,268,293,311,305,301,295,291,286,281,276,271,266,261,256,251,246,242,236,232,226,222,216,212,206,202,196,192,153,189,189,147,145,150,152,148,147,148,147,146,150,189,191,190,153,153,153,149,153,147,150,146,147,149,147,147,148,191,0,0,0,0,0,0,0,0,0,0,0,0,0,0,0,0,0,0,0,0,0,0,0,0,0,0,0,0,0,0,0,0,0,0,0,0,0,0,0,0,0,0,0,0,0,0,0,0,0,0,0,0,0,0,0,0,0,0,0,0,0,0,0,0,0,270,271,272,272,273,352,396,441,485,528,541,533,524,517,508,499,491,482,475,466,457,449,441,432,424,415,408,399,390,382,374,366,357,348,279,274,275,276,264,272,270,278,274,343,271,349,270,279,272,267,273,277,343,343,278,274,273,270,347,279,270,273,269,274,270,694,697,699,702,747,998,1140,1262,1367,1393,1392,1370,1348,1326,1303,1296,1277,1237,1232,1218,1195,1148,1150,1127,1081,1059,1037,1014,992,1004,948,848,803,723,702,721,707,709,707,712,708,747,718,711,719,762,715,727,724,729,725,718,711,720,723,728,717,720,711,717,714,728,754,782,715,1133,1125,1129,1155,1272,1719,1930,2082,2182,2228,2239,2176,2136,2102,2068,2030,1999,1959,1926,1890,1854,1826,1788,1773,1711,1683,1645,1624,1573,1453,1358,1207,1177,1167,1139,1138,1100,1103,1094,1108,1109,1128,1127,1151,1127,1151,1129,1169,1144,1170,1162,1134,1154,1171,1160,1138,1142,1135,1139,1171,1164,1156,1158,1151,1144,946,949,951,961,1222,1405,1687,1909,2051,2120,2102,2065,2022,1986,1943,1907,1867,1824,1788,1762,1709,1669,1626,1587,1551,1521,1468,1428,1389,1349,1351,1178,1007,979,963,960,1003,973,980,972,976,978,982,986,991,993,993,993,1000,1001,1006,998,998,1006,1004,1007,995,1003,1004,1006,1009,1010,1007,1007,1007,260,261,261,262,263,334,376,417,457,500,519,511,502,495,487,479,471,463,455,447,440,431,423,415,408,399,391,383,376,367,359,352,344,335,268,264,264,265,231,232,235,232,235,234,235,265,237,241,237,239,236,245,236,253,258,240,238,236,231,237,238,238,230,230,230,522,524,525,527,536,599,802,865,986,1041,1053,1039,1025,1008,991,930,917,909,893,880,870,854,842,834,819,801,785,768,752,734,718,701,685,596,534,531,531,533,509,515,510,513,518,516,516,527,511,514,515,515,511,519,518,528,517,516,519,514,526,527,517,551,510,510,510,854,856,846,888,895,1214,1401,1525,1637,1687,1680,1654,1628,1600,1574,1546,1520,1596,1466,1439,1433,1386,1358,1332,1305,1278,1251,1224,1197,1171,1066,914,904,872,857,854,856,858,850,875,851,877,868,869,872,893,920,911,929,889,930,923,916,924,900,921,875,900,887,876,873,882,931,912,886,1477,1514,1505,1607,1794,2466,2706,2878,2990,3004,2973,2998,2882,2821,2779,2731,2669,2645,2568,2517,2482,2440,2367,2285,2159,1955,1771,1764,1764,1647,1674,1643,1549,1512,1510,1497,1503,1512,1510,1509,1518,1528,1514,1541,1519,1526,1521,1521,1542,1522,1515,1532,1521,1555,1539,1539,1529,1536,1537,1539,1536,1536,1518,1550,1528,260,261,261,262,263,334,376,417,457,500,519,511,502,495,487,479,471,463,455,447,440,431,423,415,408,399,391,383,376,367,359,352,344,335,268,264,264,265,231,226,229,230,231,228,228,230,227,235,234,232,230,234,228,229,228,232,235,237,231,228,236,234,230,230,230,0,0,0,0,0,0,0,0,0,0,0,0,0,0,0,0,0,0,0,0,0,0,0,0,0,0,0,0,0,0,0,0,0,0,0,0,0,0,0,0,0,0,0,0,0,0,0,0,0,0,0,0,0,0,0,0,0,0,0,0,0,0,0,0,0 ]);
