n = 10;
D = [192,190,175,142,107,281,194,250,275,246 ];
q = 0;
prec = array2d(1..0,1..2,[]);
steps = 64;
l = 360;
r = 0;
which = [];
interval = array2d(1..0,1..2,[]);
T = array3d(1..11,1..11,0..64,[0,0,0,0,0,0,0,0,0,0,0,0,0,0,0,0,0,0,0,0,0,0,0,0,0,0,0,0,0,0,0,0,0,0,0,0,0,0,0,0,0,0,0,0,0,0,0,0,0,0,0,0,0,0,0,0,0,0,0,0,0,0,0,0,0,629,630,632,634,642,789,935,1073,1179,1239,1245,1233,1215,1227,1176,1148,1137,1116,1068,1049,1030,1010,1002,973,953,935,916,897,877,867,851,684,681,679,662,638,639,636,620,616,618,617,620,631,628,638,627,632,634,625,625,628,628,635,635,633,634,627,629,629,628,638,630,633,624,837,837,855,846,933,1034,1345,1493,1598,1708,1620,1625,1599,1541,1524,1481,1493,1447,1376,1392,1388,1335,1313,1276,1265,1200,1204,940,1181,946,878,857,860,859,832,819,852,848,817,816,833,828,834,819,835,835,835,832,836,836,837,837,837,838,838,838,838,838,838,838,839,839,839,838,837,739,742,744,751,785,965,1126,1298,1406,1472,1479,1450,1428,1429,1404,1359,1335,1320,1271,1236,1213,1201,1179,1157,1134,1100,1078,1054,1032,941,978,849,839,776,769,751,753,735,713,705,709,713,711,719,713,722,718,723,721,731,726,732,720,714,717,717,721,718,711,713,717,719,718,715,714,482,485,485,488,490,570,685,796,896,958,979,959,944,920,910,881,875,864,815,802,803,787,771,756,727,712,699,683,685,542,630,599,517,511,494,493,494,425,374,376,374,375,396,389,395,396,384,396,388,385,387,379,381,392,390,378,391,380,381,388,387,396,388,389,385,1068,1069,1074,1080,1131,1548,1850,2122,2176,2217,2242,2134,2096,2041,2040,1981,1943,1939,1925,1884,1845,1797,1755,1726,1687,1623,1602,1545,1414,1219,1284,1153,1090,1090,1073,1083,1082,1087,1051,1057,1056,1061,1095,1085,1065,1080,1068,1084,1087,1084,1084,1088,1092,1091,1082,1092,1087,1089,1085,1085,1084,1118,1083,1086,1074,1341,1343,1355,1355,1650,2117,2497,2761,2786,2825,2828,2715,2666,2600,2598,2516,2467,2448,2424,2371,2313,2272,2208,2138,2108,2055,1997,1900,1655,1523,1489,1415,1373,1346,1349,1372,1359,1377,1368,1367,1370,1381,1393,1389,1389,1398,1383,1382,1398,1383,1381,1384,1381,1390,1390,1391,1388,1382,1391,1389,1397,1420,1404,1390,1386,597,606,608,615,617,726,898,1040,1133,1198,1205,1193,1175,1169,1136,1112,1099,1070,1029,1010,996,976,951,932,921,900,882,863,845,722,763,705,705,655,609,613,615,582,560,552,556,560,558,566,560,569,565,570,568,578,578,579,567,561,564,564,568,565,558,560,564,566,565,562,561,618,628,630,637,639,757,934,1079,1175,1239,1245,1233,1214,1201,1174,1149,1136,1107,1065,1045,1031,1010,984,965,952,930,912,892,874,750,790,732,693,666,630,638,637,582,560,552,556,560,558,566,560,569,565,570,568,578,578,579,567,561,564,564,568,565,558,560,564,566,565,562,561,251,251,259,260,273,318,359,402,445,487,487,502,495,486,478,471,462,454,449,440,433,423,416,409,399,392,380,372,364,356,347,339,332,326,245,279,279,279,220,222,220,222,231,227,230,233,227,234,229,227,230,228,229,232,231,223,231,224,224,228,227,233,229,233,226,0,0,0,0,0,0,0,0,0,0,0,0,0,0,0,0,0,0,0,0,0,0,0,0,0,0,0,0,0,0,0,0,0,0,0,0,0,0,0,0,0,0,0,0,0,0,0,0,0,0,0,0,0,0,0,0,0,0,0,0,0,0,0,0,0,611,609,592,585,619,655,953,1066,1143,1147,1166,1174,1169,1150,1131,1105,1112,1074,1007,1053,1018,999,982,964,943,936,905,845,828,799,832,755,619,645,635,588,619,591,553,551,564,564,567,582,567,578,574,575,576,573,581,573,572,604,572,570,579,582,567,572,573,582,571,582,578,0,0,0,0,0,0,0,0,0,0,0,0,0,0,0,0,0,0,0,0,0,0,0,0,0,0,0,0,0,0,0,0,0,0,0,0,0,0,0,0,0,0,0,0,0,0,0,0,0,0,0,0,0,0,0,0,0,0,0,0,0,0,0,0,0,1236,1262,1262,1304,1383,1695,2178,2362,2429,2466,2471,2419,2364,2332,2243,2267,2170,2126,2134,2107,2066,2022,1937,1883,1901,1791,1809,1649,1518,1503,1378,1372,1274,1288,1253,1238,1224,1235,1187,1199,1208,1202,1219,1231,1204,1231,1226,1238,1231,1229,1233,1228,1224,1244,1226,1222,1233,1231,1223,1225,1226,1237,1225,1235,1231,214,215,216,216,216,277,336,349,387,423,437,431,424,416,410,403,396,389,381,375,385,377,354,347,339,333,326,319,312,305,298,291,284,277,221,217,217,218,205,208,210,217,210,204,207,212,210,209,275,272,215,214,276,272,221,207,209,212,216,212,211,212,210,207,207,426,428,433,434,438,468,621,713,778,830,842,831,820,807,795,794,780,769,754,741,730,717,699,686,671,659,644,624,612,604,586,482,468,466,441,437,435,405,325,330,327,334,334,334,330,336,325,338,329,334,339,344,340,365,340,331,331,328,341,341,342,364,334,342,329,653,649,657,658,696,878,1025,1174,1392,1436,1431,1404,1379,1353,1360,1301,1275,1247,1223,1195,1161,1142,1130,1101,1068,1041,1016,999,972,938,788,765,703,701,703,684,668,679,640,637,641,645,646,654,649,654,649,649,660,649,646,650,648,654,650,652,651,651,650,654,647,657,649,702,652,933,909,910,939,1005,1328,1564,1816,1998,2036,2026,1986,1949,1910,1896,1859,1820,1781,1744,1704,1666,1627,1566,1561,1514,1479,1442,1403,1366,1323,1274,1035,993,958,959,960,955,961,943,954,953,954,964,967,961,977,970,966,979,975,967,992,972,983,969,965,985,973,965,971,985,983,967,975,963,246,247,248,249,250,293,364,407,451,492,506,498,489,481,474,487,457,448,441,433,424,416,409,400,392,383,376,368,359,352,344,314,327,299,292,251,252,252,187,186,185,190,190,188,189,191,188,191,191,198,219,220,217,223,193,185,187,191,195,194,198,217,194,198,189,271,272,273,274,275,318,397,443,490,534,548,539,529,521,513,525,495,485,478,469,459,451,443,433,425,414,406,398,389,381,373,342,354,283,318,272,277,277,187,186,185,190,190,188,189,191,188,191,191,198,215,216,211,223,193,185,187,191,195,194,198,217,194,198,189,420,421,424,425,427,449,633,707,778,842,870,844,828,815,800,787,773,760,746,732,719,705,691,677,665,651,636,623,609,595,581,499,488,442,442,428,429,431,380,377,388,389,406,406,390,405,397,407,401,398,404,397,398,428,395,393,400,406,392,396,397,406,395,405,401,611,609,592,585,619,655,953,1066,1143,1147,1166,1174,1169,1150,1131,1105,1112,1074,1007,1053,1018,999,982,964,943,936,905,845,828,799,832,755,619,645,635,588,619,591,553,551,564,564,567,582,567,578,574,575,576,573,581,573,572,604,572,570,579,582,567,572,573,582,571,582,578,778,783,783,786,816,1028,1231,1377,1519,1596,1556,1530,1504,1484,1455,1420,1405,1380,1356,1325,1307,1281,1256,1232,1206,1181,1157,1123,1103,1052,973,970,894,797,786,790,793,774,745,744,752,794,761,768,762,764,791,776,770,771,761,764,759,769,762,769,763,761,760,765,770,792,781,791,771,1343,1336,1353,1409,1605,2067,2364,2524,2585,2596,2564,2569,2520,2491,2447,2376,2362,2326,2267,2241,2183,2137,2085,2091,2023,1954,1906,1664,1584,1523,1443,1430,1386,1378,1371,1348,1316,1299,1296,1293,1302,1316,1297,1322,1303,1306,1318,1316,1331,1308,1311,1310,1304,1341,1346,1318,1311,1319,1310,1319,1314,1332,1312,1347,1318,0,0,0,0,0,0,0,0,0,0,0,0,0,0,0,0,0,0,0,0,0,0,0,0,0,0,0,0,0,0,0,0,0,0,0,0,0,0,0,0,0,0,0,0,0,0,0,0,0,0,0,0,0,0,0,0,0,0,0,0,0,0,0,0,0,1435,1430,1450,1494,1732,2288,2575,2671,2760,2754,2792,2717,2669,2662,2592,2547,2504,2475,2448,2389,2356,2305,2217,2226,2147,2074,2006,1646,1665,1622,1557,1515,1499,1457,1473,1452,1379,1360,1355,1359,1368,1378,1359,1383,1364,1367,1379,1377,1392,1369,1372,1371,1365,1402,1407,1379,1372,1380,1371,1380,1375,1393,1373,1408,1379,1136,1138,1149,1157,1211,1704,1981,2101,2209,2203,2257,2179,2146,2145,2083,2039,2002,1979,1971,1906,1890,1853,1768,1789,1723,1717,1642,1528,1525,1354,1300,1208,1233,1160,1171,1116,1027,1013,1005,1000,1029,1031,1006,1033,1013,1026,1031,1028,1044,1016,1020,1023,1017,1050,1062,1027,1020,1033,1023,1038,1027,1046,1026,1061,1032,1520,1531,1596,1839,2438,3036,3283,3470,3561,3520,3475,3467,3366,3293,3185,3094,3025,3003,2964,2930,2802,2537,2395,2338,2262,2227,1907,1867,1827,1773,1680,1640,1623,1572,1566,1576,1587,1587,1660,1678,1697,1711,1691,1709,1692,1692,1687,1700,1807,1702,1721,1792,1788,1807,1827,1795,1709,1710,1720,1720,1706,1714,1704,1812,1788,1374,1377,1407,1526,2182,2618,2956,3142,3226,3203,3159,3078,3009,2946,2905,2820,2770,2693,2651,2626,2503,2454,2390,2333,2263,2200,2125,2019,1794,1583,1540,1494,1446,1423,1403,1410,1438,1437,1516,1560,1524,1543,1560,1556,1541,1556,1554,1550,1567,1544,1547,1568,1565,1571,1580,1716,1585,1582,1662,1656,1655,1654,1644,1779,1717,1279,1277,1291,1335,1466,1993,2271,2384,2507,2482,2523,2445,2412,2397,2329,2288,2250,2218,2208,2147,2115,2073,1982,2011,1932,1922,1839,1641,1632,1517,1428,1350,1370,1302,1322,1299,1226,1207,1202,1208,1215,1225,1206,1230,1211,1214,1226,1224,1239,1216,1219,1218,1212,1249,1254,1226,1219,1227,1218,1227,1222,1240,1220,1255,1226,1300,1298,1313,1364,1501,2029,2312,2424,2543,2521,2561,2483,2449,2434,2365,2323,2285,2252,2241,2180,2147,2104,2012,2036,1961,1951,1867,1520,1524,1474,1439,1372,1387,1323,1340,1299,1226,1207,1202,1208,1215,1225,1206,1230,1211,1214,1226,1224,1239,1216,1219,1218,1212,1249,1254,1226,1219,1227,1218,1227,1222,1240,1220,1255,1226,915,905,920,922,998,1326,1554,1651,1782,1771,1838,1763,1733,1739,1713,1647,1619,1620,1603,1562,1533,1504,1433,1461,1390,1410,1388,1300,1317,1193,1058,973,1039,929,950,928,873,859,851,847,863,869,849,873,856,860,872,870,888,865,868,865,858,895,899,871,863,870,863,871,868,886,866,901,872,778,783,783,786,816,1028,1231,1377,1519,1596,1556,1530,1504,1484,1455,1420,1405,1380,1356,1325,1307,1281,1256,1232,1206,1181,1157,1123,1103,1052,973,970,894,797,786,790,793,774,745,744,752,794,761,768,762,764,791,776,770,771,761,764,759,769,762,769,763,761,760,765,770,792,781,791,771,765,771,780,785,796,929,1203,1337,1452,1524,1518,1527,1449,1432,1403,1378,1389,1366,1318,1307,1296,1241,1224,1197,1176,1151,1125,1068,1052,997,931,871,803,796,779,787,779,751,724,730,738,735,737,740,737,737,738,739,737,737,744,750,747,748,744,748,746,740,747,747,747,748,741,742,742,306,306,320,350,308,400,446,492,539,650,590,638,573,564,555,546,537,623,521,559,503,495,486,477,469,460,501,491,434,471,416,408,400,320,313,309,310,311,303,303,301,313,310,301,306,307,306,307,320,343,347,341,342,359,312,307,313,310,306,306,308,306,306,308,307,1390,1394,1399,1472,1690,2047,2463,2611,2672,2720,2704,2679,2600,2584,2519,2473,2461,2396,2341,2342,2261,2219,2147,2156,2091,1924,1896,1589,1595,1539,1539,1458,1437,1418,1428,1390,1397,1381,1353,1365,1371,1373,1378,1375,1366,1385,1383,1387,1385,1379,1386,1386,1390,1394,1388,1394,1388,1382,1391,1393,1391,1392,1386,1385,1385,0,0,0,0,0,0,0,0,0,0,0,0,0,0,0,0,0,0,0,0,0,0,0,0,0,0,0,0,0,0,0,0,0,0,0,0,0,0,0,0,0,0,0,0,0,0,0,0,0,0,0,0,0,0,0,0,0,0,0,0,0,0,0,0,0,400,402,415,422,406,448,593,631,668,705,723,746,709,701,694,687,679,672,665,657,651,651,639,628,616,605,593,582,570,558,546,533,433,423,409,424,407,373,351,347,349,350,354,359,350,359,350,361,353,352,357,356,362,364,359,357,358,355,361,361,357,359,353,352,352,579,582,583,585,586,713,885,987,1087,1154,1161,1142,1125,1106,1087,1070,1051,1032,1014,996,977,960,941,922,904,886,867,851,830,812,794,693,676,610,592,588,590,577,536,540,542,548,552,544,547,546,542,549,543,543,544,546,546,547,546,547,549,541,547,546,544,560,543,547,545,844,846,858,845,868,1112,1314,1444,1553,1613,1615,1597,1568,1544,1521,1496,1473,1455,1427,1405,1380,1361,1333,1314,1287,1256,1239,1200,1192,1152,1049,1025,895,881,862,865,866,840,810,812,810,819,821,821,820,830,830,817,828,816,816,841,861,839,819,817,816,825,823,821,819,835,818,822,820,200,201,201,259,203,257,285,312,340,368,382,408,371,366,360,355,349,346,338,333,327,350,343,312,306,318,312,301,284,279,273,268,262,257,251,203,204,204,164,164,165,167,167,169,164,168,164,171,164,164,167,168,171,174,169,167,169,165,170,174,169,171,165,164,164,184,185,185,186,186,193,261,287,312,337,349,376,339,334,330,324,320,314,310,305,300,322,316,286,280,276,270,266,260,256,205,201,198,193,189,187,187,188,164,164,165,167,167,169,164,168,164,171,164,164,167,168,171,174,169,167,169,165,170,174,169,171,165,164,164,567,575,584,593,608,707,875,971,1069,1139,1147,1162,1122,1105,1085,1039,1055,1042,982,991,972,935,913,924,875,872,849,823,816,796,782,737,708,592,591,594,583,585,556,560,563,569,568,572,563,569,563,565,563,565,568,574,573,575,573,572,576,566,579,580,575,580,569,572,572,765,771,780,785,796,929,1203,1337,1452,1524,1518,1527,1449,1432,1403,1378,1389,1366,1318,1307,1296,1241,1224,1197,1176,1151,1125,1068,1052,997,931,871,803,796,779,787,779,751,724,730,738,735,737,740,737,737,738,739,737,737,744,750,747,748,744,748,746,740,747,747,747,748,741,742,742,455,457,458,459,460,514,665,742,838,908,924,907,895,875,864,845,834,822,804,785,776,759,744,729,715,701,686,672,620,605,541,547,534,505,491,462,462,465,414,408,414,417,415,415,414,417,413,420,420,415,419,424,424,419,422,425,419,422,418,421,416,422,420,417,417,476,486,478,480,486,581,733,771,891,939,917,996,902,914,898,874,900,853,838,822,820,792,776,721,707,691,677,711,642,673,629,603,562,546,495,527,484,486,464,457,454,460,470,465,458,466,459,474,467,465,465,469,470,470,469,472,463,477,471,470,471,468,469,465,464,1080,1086,1089,1078,1147,1420,1804,1955,2098,2140,2146,2107,2067,2044,2031,1968,1955,1905,1866,1821,1818,1766,1744,1699,1665,1600,1598,1536,1288,1219,1227,1184,1160,1129,1106,1112,1067,1082,1044,1042,1050,1053,1053,1056,1049,1046,1061,1065,1068,1063,1062,1066,1069,1065,1070,1069,1065,1064,1061,1065,1062,1068,1064,1062,1062,445,447,495,450,453,596,667,738,806,864,856,847,836,827,816,801,788,776,762,765,738,724,734,698,686,673,660,646,640,662,608,598,545,537,456,510,453,454,422,428,424,434,431,438,428,431,424,427,429,425,424,439,431,437,434,438,433,435,456,435,434,441,425,432,430,0,0,0,0,0,0,0,0,0,0,0,0,0,0,0,0,0,0,0,0,0,0,0,0,0,0,0,0,0,0,0,0,0,0,0,0,0,0,0,0,0,0,0,0,0,0,0,0,0,0,0,0,0,0,0,0,0,0,0,0,0,0,0,0,0,948,976,954,973,1075,1376,1558,1732,1856,1925,1915,1884,1853,1823,1793,1762,1732,1701,1670,1685,1621,1579,1549,1505,1471,1450,1413,1401,1347,1268,1089,1029,1018,1013,966,966,955,966,922,928,944,971,948,950,969,951,938,968,938,939,935,941,949,953,952,950,941,942,941,948,949,950,960,952,951,1186,1184,1187,1238,1323,1776,1927,2126,2226,2279,2276,2231,2198,2164,2130,2099,2055,2029,1995,2006,1918,1891,1860,1824,1790,1757,1719,1636,1482,1324,1299,1271,1233,1220,1212,1197,1180,1191,1200,1193,1209,1220,1227,1233,1213,1212,1219,1226,1217,1225,1232,1237,1237,1252,1249,1229,1222,1231,1224,1224,1210,1230,1222,1244,1210,382,384,385,387,390,456,517,543,568,594,610,605,598,594,589,584,580,574,568,563,558,554,548,543,539,532,529,523,517,513,490,479,466,398,394,392,390,392,310,318,311,320,319,325,315,320,314,314,319,313,312,326,321,326,324,326,324,323,340,323,324,329,311,315,314,331,332,333,334,334,414,440,465,490,516,532,526,521,517,512,507,502,497,491,486,482,477,472,467,463,456,452,447,442,437,432,427,421,417,412,335,335,336,269,275,270,277,278,284,275,277,270,274,275,272,271,286,278,283,280,284,280,282,304,282,280,286,271,276,275,260,261,261,262,270,275,377,421,466,509,537,524,515,512,498,489,481,473,465,451,443,438,431,422,413,404,392,388,379,367,361,354,279,275,268,264,262,262,238,240,240,241,242,243,242,242,241,244,246,241,244,248,248,245,246,249,244,243,242,247,243,246,247,245,245,455,457,458,459,460,514,665,742,838,908,924,907,895,875,864,845,834,822,804,785,776,759,744,729,715,701,686,672,620,605,541,547,534,505,491,462,462,465,414,408,414,417,415,415,414,417,413,420,420,415,419,424,424,419,422,425,419,422,418,421,416,422,420,417,417,1052,1054,1057,1098,1110,1601,1927,2118,2177,2202,2195,2135,2118,2079,2043,2093,1999,1919,1871,1841,1820,1764,1738,1712,1648,1614,1598,1538,1235,1205,1173,1160,1112,1094,1081,1067,1049,1041,1029,1039,1030,1052,1039,1048,1039,1060,1047,1054,1054,1050,1056,1055,1066,1058,1074,1067,1066,1070,1065,1062,1066,1080,1057,1056,1055,670,672,674,675,696,827,1107,1250,1368,1424,1417,1393,1368,1344,1320,1294,1273,1246,1223,1199,1173,1147,1123,1098,1075,1049,1025,1001,980,951,812,748,718,711,676,681,684,644,645,645,652,664,642,657,652,651,651,655,663,657,651,650,651,669,671,653,648,659,650,657,656,647,659,655,650,1502,1500,1541,1657,2176,2666,3064,3289,3450,3431,3405,3334,3260,3184,3142,3046,2982,2928,2875,2778,2724,2672,2585,2439,2230,2164,1884,1828,1827,1695,1654,1602,1598,1539,1516,1531,1547,1552,1595,1583,1585,1603,1603,1603,1605,1614,1610,1605,1613,1604,1605,1604,1603,1610,1604,1603,1605,1608,1605,1601,1605,1606,1603,1608,1603,730,726,734,718,777,956,1131,1257,1360,1420,1420,1399,1377,1355,1333,1310,1290,1269,1247,1226,1204,1182,1156,1139,1105,1089,1080,1053,1031,1009,962,896,791,737,725,736,742,725,714,701,708,710,701,723,715,725,720,719,738,711,712,715,711,725,718,720,716,716,714,712,719,718,718,718,718,964,967,969,978,1059,1311,1635,1780,1854,1908,1901,1875,1855,1819,1795,1769,1746,1716,1696,1657,1626,1604,1563,1531,1500,1469,1442,1408,1386,1242,1076,1047,1027,999,981,979,948,943,933,921,929,929,929,940,935,934,938,951,957,946,959,961,960,959,953,958,957,963,963,971,962,951,956,956,954,0,0,0,0,0,0,0,0,0,0,0,0,0,0,0,0,0,0,0,0,0,0,0,0,0,0,0,0,0,0,0,0,0,0,0,0,0,0,0,0,0,0,0,0,0,0,0,0,0,0,0,0,0,0,0,0,0,0,0,0,0,0,0,0,0,461,462,464,465,466,565,647,710,782,843,864,852,840,828,816,804,792,779,767,755,744,732,720,708,696,684,672,660,647,635,623,611,585,480,471,468,468,469,430,432,431,436,439,437,439,444,434,442,441,443,444,443,455,455,460,442,441,445,455,452,455,454,446,454,450,781,782,783,785,846,1009,1298,1439,1517,1571,1568,1542,1525,1492,1480,1442,1424,1391,1374,1348,1322,1291,1273,1247,1224,1191,1186,1140,1115,1097,965,939,830,811,793,792,771,773,749,738,742,739,743,749,749,744,749,763,767,758,768,771,770,769,764,768,766,776,784,783,776,768,768,768,768,781,784,773,778,819,1042,1267,1405,1484,1540,1535,1511,1494,1461,1437,1413,1395,1364,1347,1314,1296,1266,1246,1222,1198,1167,1148,1117,1093,1075,992,834,814,794,783,780,771,773,749,738,742,739,743,749,749,744,749,763,767,758,768,771,770,769,764,768,766,776,774,769,765,768,768,768,768,970,946,949,960,1059,1431,1674,1863,1970,2009,1995,1960,1925,1889,1855,1877,1784,1800,1713,1678,1642,1609,1574,1540,1504,1468,1434,1398,1362,1327,1133,1103,999,975,960,959,951,957,948,957,961,968,964,979,964,991,978,985,981,969,981,986,987,983,993,998,975,981,986,993,977,988,977,987,975,1052,1054,1057,1098,1110,1601,1927,2118,2177,2202,2195,2135,2118,2079,2043,2093,1999,1919,1871,1841,1820,1764,1738,1712,1648,1614,1598,1538,1235,1205,1173,1160,1112,1094,1081,1067,1049,1041,1029,1039,1030,1052,1039,1048,1039,1060,1047,1054,1054,1050,1056,1055,1066,1058,1074,1067,1066,1070,1065,1062,1066,1080,1057,1056,1055,1268,1276,1286,1306,1607,2097,2457,2567,2676,2688,2650,2611,2586,2505,2467,2443,2355,2307,2259,2229,2164,2148,2094,2020,1991,1951,1887,1846,1666,1439,1430,1385,1328,1310,1289,1286,1265,1265,1262,1278,1285,1291,1296,1290,1290,1310,1285,1297,1296,1286,1290,1301,1312,1327,1321,1330,1317,1306,1304,1300,1289,1283,1294,1310,1278,886,883,890,891,1024,1364,1601,1789,1889,1911,1896,1862,1827,1794,1760,1729,1694,1660,1623,1589,1555,1521,1487,1453,1418,1384,1350,1320,1282,1248,1170,994,937,911,899,900,864,869,870,885,879,882,876,873,878,884,879,891,891,895,892,891,891,884,897,898,888,894,889,890,896,889,918,908,907,1546,1535,1588,1726,2308,2774,3175,3316,3394,3363,3312,3256,3182,3132,3075,3016,2921,2854,2788,2715,2678,2582,2524,2457,2393,2332,1983,1995,1737,1687,1638,1578,1533,1530,1514,1561,1547,1572,1630,1631,1640,1708,1646,1669,1649,1711,1654,1660,1669,1648,1648,1656,1652,1726,1731,1670,1650,1668,1697,1658,1658,1645,1657,1720,1645,962,976,966,968,1111,1397,1610,1746,1823,1889,1824,1815,1831,1761,1762,1692,1680,1694,1626,1575,1559,1555,1494,1492,1443,1427,1400,1386,1347,1312,1042,1134,1008,989,969,979,985,987,969,979,988,990,999,978,996,994,987,1013,1029,1007,1026,1008,1018,1002,1019,1009,1004,1021,1040,1047,1035,1011,1036,1043,1024,1180,1183,1185,1194,1375,1766,2060,2209,2262,2279,2262,2228,2251,2159,2124,2105,2075,2134,1985,1951,1916,1882,1848,1854,1778,1743,1709,1674,1642,1313,1297,1268,1234,1211,1197,1164,1172,1168,1169,1187,1192,1189,1177,1177,1194,1186,1193,1207,1218,1203,1217,1212,1202,1203,1222,1213,1199,1218,1217,1209,1218,1193,1242,1212,1211,520,546,523,525,533,681,817,904,983,1021,1027,1012,1041,983,968,953,939,936,909,895,880,865,851,836,821,807,792,777,763,749,716,695,682,544,564,528,530,531,524,524,531,527,524,533,529,526,530,534,537,530,529,531,534,535,536,535,534,533,537,534,532,539,530,535,533,0,0,0,0,0,0,0,0,0,0,0,0,0,0,0,0,0,0,0,0,0,0,0,0,0,0,0,0,0,0,0,0,0,0,0,0,0,0,0,0,0,0,0,0,0,0,0,0,0,0,0,0,0,0,0,0,0,0,0,0,0,0,0,0,0,995,998,1000,1001,1197,1542,1769,1902,1974,2050,1969,1954,1967,1907,1876,1818,1831,1823,1769,1687,1695,1670,1625,1591,1538,1552,1488,1476,1430,1253,1103,1080,1048,1027,1009,1012,1018,1018,1004,1019,1025,1017,1031,1011,1015,1023,1020,1077,1078,1039,1069,1035,1054,1039,1046,1036,1039,1053,1073,1073,1067,1035,1067,1050,1049,1017,1019,1018,1026,1166,1513,1735,1868,1942,2005,1938,1923,1937,1864,1848,1790,1802,1785,1742,1661,1667,1645,1584,1567,1514,1518,1466,1491,1406,1135,1102,1101,1053,1048,1031,1037,1018,1018,1004,1019,1025,1017,1031,1011,1015,1023,1020,1077,1078,1039,1068,1035,1054,1039,1046,1036,1039,1053,1062,1073,1067,1035,1067,1050,1049,1187,1191,1167,1201,1460,1935,2212,2390,2475,2485,2458,2414,2371,2326,2282,2238,2194,2148,2105,2105,2013,1971,1971,1919,1838,1834,1749,1731,1685,1398,1286,1277,1215,1188,1178,1202,1196,1183,1193,1209,1216,1222,1227,1221,1221,1241,1216,1228,1227,1217,1221,1232,1243,1258,1252,1261,1248,1237,1235,1231,1220,1214,1225,1241,1209,1268,1276,1286,1306,1607,2097,2457,2567,2676,2688,2650,2611,2586,2505,2467,2443,2355,2307,2259,2229,2164,2148,2094,2020,1991,1951,1887,1846,1666,1439,1430,1385,1328,1310,1289,1286,1265,1265,1262,1278,1285,1291,1296,1290,1290,1310,1285,1297,1296,1286,1290,1301,1312,1327,1321,1330,1317,1306,1304,1300,1289,1283,1294,1310,1278,591,591,594,593,600,699,911,1010,1119,1172,1170,1153,1127,1115,1100,1083,1054,1041,1028,1006,985,971,950,928,914,896,886,863,806,766,751,742,672,613,604,601,603,583,562,566,573,568,570,571,572,569,570,572,574,573,577,583,580,574,575,578,577,575,577,573,578,577,576,578,575,232,233,233,234,286,297,337,375,414,453,470,464,458,448,442,434,426,419,411,406,399,391,381,374,367,361,352,344,337,330,322,314,309,300,292,286,287,282,195,196,197,195,197,196,198,197,197,196,197,196,199,196,199,194,196,196,196,196,196,196,196,196,196,196,196,1208,1216,1212,1287,1416,1751,2113,2281,2355,2384,2378,2322,2312,2269,2222,2207,2156,2101,2083,2026,1993,1965,1911,1890,1870,1802,1748,1536,1486,1377,1359,1306,1278,1266,1260,1209,1228,1212,1191,1203,1208,1202,1206,1214,1201,1213,1206,1220,1221,1215,1219,1218,1217,1220,1219,1224,1219,1214,1221,1219,1222,1221,1221,1221,1218,177,177,178,178,179,226,257,287,325,347,361,356,350,344,338,333,327,321,315,310,304,298,292,287,281,275,269,264,258,253,246,240,235,229,223,210,211,211,153,153,153,153,153,153,153,153,153,153,153,153,153,153,153,153,153,153,153,153,153,153,153,153,153,153,153,227,227,229,230,230,291,326,359,392,381,393,391,389,387,379,377,375,372,370,368,366,372,365,358,352,345,339,332,326,320,313,306,298,292,285,236,236,237,187,183,184,183,187,190,186,191,186,190,189,188,190,188,191,190,190,190,189,190,191,187,188,188,188,188,188,756,758,761,763,778,939,1165,1324,1434,1501,1503,1481,1466,1433,1410,1386,1361,1338,1314,1290,1277,1243,1219,1194,1172,1147,1123,1098,1075,1056,1006,821,801,783,771,767,771,733,693,693,693,693,693,693,693,693,693,693,693,693,693,693,693,693,693,693,693,693,693,693,693,693,693,693,693,1015,1023,1036,1028,1069,1338,1612,1783,1894,1956,1958,1924,1904,1866,1837,1810,1785,1749,1723,1694,1677,1636,1607,1571,1549,1520,1491,1460,1420,1310,1287,1115,1069,1044,1037,1045,1022,1007,965,965,965,965,965,965,965,965,965,965,965,965,965,965,965,965,965,965,965,965,965,965,965,965,965,965,965,0,0,0,0,0,0,0,0,0,0,0,0,0,0,0,0,0,0,0,0,0,0,0,0,0,0,0,0,0,0,0,0,0,0,0,0,0,0,0,0,0,0,0,0,0,0,0,0,0,0,0,0,0,0,0,0,0,0,0,0,0,0,0,0,0,25,25,25,25,25,25,29,33,36,39,42,42,41,40,40,39,38,38,37,37,36,35,35,34,33,33,31,30,30,29,29,28,27,27,26,25,25,25,0,0,0,0,0,0,0,0,0,0,0,0,0,0,0,0,0,0,0,0,0,0,0,0,0,0,0,399,401,418,417,405,519,627,671,742,788,794,782,803,757,777,765,720,708,691,684,672,655,646,661,645,610,608,607,573,557,551,563,535,462,410,403,408,428,390,397,397,401,400,404,398,403,396,403,399,399,405,407,409,411,408,405,407,400,409,412,408,410,403,410,403,591,591,594,593,600,699,911,1010,1119,1172,1170,1153,1127,1115,1100,1083,1054,1041,1028,1006,985,971,950,928,914,896,886,863,806,766,751,742,672,613,604,601,603,583,562,566,573,568,570,571,572,569,570,572,574,573,577,583,580,574,575,578,577,575,577,573,578,577,576,578,575,615,617,617,618,634,732,954,1070,1177,1230,1233,1219,1192,1183,1151,1134,1109,1097,1074,1056,1036,1017,998,976,960,936,918,889,845,795,773,714,738,639,623,627,624,598,582,586,597,597,589,588,588,588,598,588,590,595,596,609,605,597,594,600,597,600,597,595,606,595,595,595,595,258,259,260,261,261,330,374,417,460,504,524,515,510,502,491,485,475,468,457,449,441,433,424,416,408,402,391,383,377,367,349,352,342,333,266,261,262,257,227,230,228,228,228,227,228,230,231,226,231,227,230,226,232,228,232,231,230,228,230,227,229,230,224,226,226,1236,1249,1236,1306,1475,1784,2153,2336,2402,2465,2442,2379,2373,2319,2290,2261,2191,2114,2109,2086,2050,2014,1956,1915,1903,1867,1787,1536,1524,1459,1353,1336,1331,1272,1282,1231,1241,1227,1211,1223,1232,1231,1225,1231,1217,1232,1234,1236,1237,1237,1238,1242,1242,1243,1238,1246,1239,1239,1241,1241,1250,1239,1239,1239,1239,162,227,162,163,163,206,234,261,289,316,348,344,321,315,310,305,300,294,289,283,279,273,268,262,257,253,247,242,236,272,226,221,215,210,204,201,201,202,153,153,154,157,153,154,153,154,154,153,154,153,153,153,153,154,154,154,153,153,153,153,154,155,154,156,155,249,250,252,253,254,319,332,344,356,368,376,374,370,368,366,364,361,358,356,354,352,349,346,344,342,339,337,335,332,330,348,341,323,323,316,255,255,256,211,211,210,209,212,210,214,216,211,221,214,210,215,215,211,211,215,216,212,216,208,214,210,212,211,210,210,741,776,745,748,762,919,1135,1285,1398,1470,1493,1470,1430,1405,1382,1359,1345,1313,1289,1266,1243,1218,1192,1171,1148,1125,1101,1078,1054,1071,1011,810,786,767,755,753,754,717,693,695,698,706,701,697,699,695,699,700,695,700,696,699,699,701,700,701,696,698,699,699,698,715,697,703,700,1006,1036,1021,1013,1054,1318,1570,1757,1864,1925,1941,1913,1868,1842,1812,1784,1765,1731,1698,1669,1643,1612,1580,1556,1527,1498,1469,1433,1401,1383,1268,1087,1048,1044,1032,1030,1013,991,965,965,970,975,978,973,983,986,967,984,969,971,992,1014,991,974,972,968,980,974,974,974,973,990,972,978,975,89,89,89,89,110,111,126,141,156,171,185,182,178,175,173,168,166,162,159,157,154,150,147,145,141,138,136,133,129,127,124,121,118,115,112,110,110,111,41,43,41,43,41,41,40,43,44,40,44,41,41,40,43,43,44,42,44,41,43,41,44,43,40,39,39,0,0,0,0,0,0,0,0,0,0,0,0,0,0,0,0,0,0,0,0,0,0,0,0,0,0,0,0,0,0,0,0,0,0,0,0,0,0,0,0,0,0,0,0,0,0,0,0,0,0,0,0,0,0,0,0,0,0,0,0,0,0,0,0,0,424,426,442,427,430,526,643,741,795,850,858,840,830,817,803,816,775,766,748,734,720,701,694,679,668,652,639,624,611,597,603,536,578,444,432,429,485,432,419,425,423,429,430,432,426,434,423,438,430,431,429,433,441,438,435,435,434,433,435,434,432,435,427,429,426,615,617,617,618,634,732,954,1070,1177,1230,1233,1219,1192,1183,1151,1134,1109,1097,1074,1056,1036,1017,998,976,960,936,918,889,845,795,773,714,738,639,623,627,624,598,582,586,597,597,589,588,588,588,598,588,590,595,596,609,605,597,594,600,597,600,597,595,606,595,595,595,595,198,198,199,199,200,255,288,321,354,387,403,398,391,383,378,371,365,358,353,345,339,333,326,320,313,308,301,294,288,281,276,269,262,256,250,231,231,232,181,173,174,176,175,175,176,177,173,177,177,175,175,177,176,174,176,177,177,179,176,175,176,176,176,176,175,475,476,477,479,485,543,728,794,873,950,969,944,929,915,908,893,878,854,840,832,809,803,787,773,750,742,720,712,690,668,653,638,534,497,486,482,483,501,448,449,454,456,450,462,454,465,456,457,456,456,456,457,457,457,457,457,456,456,457,457,456,456,456,457,456,846,824,852,853,917,1101,1354,1520,1612,1696,1651,1624,1614,1587,1565,1564,1531,1487,1454,1434,1400,1380,1358,1332,1299,1268,1254,1222,1213,1112,1000,909,907,879,854,867,847,836,814,807,822,817,813,820,825,814,826,833,831,830,831,831,831,826,834,831,829,833,825,831,829,829,831,830,830,556,551,560,562,575,639,841,939,1013,1097,1117,1100,1098,1073,1053,1047,1037,1003,999,962,950,931,915,909,892,877,844,827,809,797,765,618,604,581,577,565,562,561,509,515,510,515,523,520,516,525,517,518,517,517,517,518,518,518,518,518,517,517,518,518,517,517,517,518,517,258,266,267,268,273,326,369,423,456,511,537,531,523,515,507,493,484,476,468,458,452,443,433,425,417,413,401,394,380,370,364,354,346,290,282,274,275,275,162,163,163,163,177,172,166,171,166,177,169,168,169,165,166,170,170,166,172,165,166,171,169,175,169,171,168,951,945,959,979,993,1365,1649,1814,1966,1989,1965,1939,1908,1873,1829,1799,1765,1724,1697,1669,1629,1605,1556,1531,1498,1456,1416,1372,1352,1249,1079,1028,1025,973,964,959,954,959,921,932,934,926,944,939,939,947,937,943,934,936,934,935,943,939,941,937,938,933,933,937,937,936,966,941,940,1206,1226,1213,1227,1404,1933,2265,2446,2590,2582,2577,2543,2484,2437,2381,2339,2288,2240,2196,2154,2112,2077,2016,1966,1922,1881,1826,1664,1664,1392,1341,1318,1278,1256,1232,1239,1228,1244,1225,1220,1238,1233,1246,1238,1255,1245,1231,1229,1241,1235,1231,1231,1231,1238,1238,1235,1235,1226,1234,1234,1257,1275,1265,1233,1232,397,406,421,402,404,496,607,671,756,811,849,815,818,805,787,757,761,764,718,705,697,675,662,673,660,634,609,626,586,577,567,544,480,425,434,404,411,430,356,362,357,362,370,367,363,372,364,365,364,364,364,365,365,365,365,365,364,364,365,365,364,364,364,365,364,419,425,427,427,426,520,640,707,785,853,888,855,858,844,825,795,798,795,755,741,732,710,696,703,691,665,639,635,615,606,595,571,507,451,445,425,433,430,356,362,357,362,370,367,363,372,364,365,364,364,364,365,365,365,365,365,364,364,365,365,364,364,364,365,364,0,0,0,0,0,0,0,0,0,0,0,0,0,0,0,0,0,0,0,0,0,0,0,0,0,0,0,0,0,0,0,0,0,0,0,0,0,0,0,0,0,0,0,0,0,0,0,0,0,0,0,0,0,0,0,0,0,0,0,0,0,0,0,0,0,198,198,199,199,200,255,288,321,354,387,403,398,391,383,378,371,365,358,353,345,339,333,326,320,313,308,301,294,288,281,276,269,262,256,250,231,231,232,181,173,174,176,175,175,176,177,173,177,177,175,175,177,176,174,176,177,177,179,176,175,176,176,176,176,175,0,0,0,0,0,0,0,0,0,0,0,0,0,0,0,0,0,0,0,0,0,0,0,0,0,0,0,0,0,0,0,0,0,0,0,0,0,0,0,0,0,0,0,0,0,0,0,0,0,0,0,0,0,0,0,0,0,0,0,0,0,0,0,0,0,629,630,632,634,642,789,935,1073,1179,1239,1245,1233,1215,1227,1176,1148,1137,1116,1068,1049,1030,1010,1002,973,953,935,916,897,877,867,851,684,681,679,662,638,639,636,620,616,618,617,620,631,628,638,627,632,634,625,625,628,628,635,635,633,634,627,629,629,628,638,630,633,624,837,837,855,846,933,1034,1345,1493,1598,1708,1620,1625,1599,1541,1524,1481,1493,1447,1376,1392,1388,1335,1313,1276,1265,1200,1204,940,1181,946,878,857,860,859,832,819,852,848,817,816,833,828,834,819,835,835,835,832,836,836,837,837,837,838,838,838,838,838,838,838,839,839,839,838,837,739,742,744,751,785,965,1126,1298,1406,1472,1479,1450,1428,1429,1404,1359,1335,1320,1271,1236,1213,1201,1179,1157,1134,1100,1078,1054,1032,941,978,849,839,776,769,751,753,735,713,705,709,713,711,719,713,722,718,723,721,731,726,732,720,714,717,717,721,718,711,713,717,719,718,715,714,482,485,485,488,490,570,685,796,896,958,979,959,944,920,910,881,875,864,815,802,803,787,771,756,727,712,699,683,685,542,630,599,517,511,494,493,494,425,374,376,374,375,396,389,395,396,384,396,388,385,387,379,381,392,390,378,391,380,381,388,387,396,388,389,385,1068,1069,1074,1080,1131,1548,1850,2122,2176,2217,2242,2134,2096,2041,2040,1981,1943,1939,1925,1884,1845,1797,1755,1726,1687,1623,1602,1545,1414,1219,1284,1153,1090,1090,1073,1083,1082,1087,1051,1057,1056,1061,1095,1085,1065,1080,1068,1084,1087,1084,1084,1088,1092,1091,1082,1092,1087,1089,1085,1085,1084,1118,1083,1086,1074,1341,1343,1355,1355,1650,2117,2497,2761,2786,2825,2828,2715,2666,2600,2598,2516,2467,2448,2424,2371,2313,2272,2208,2138,2108,2055,1997,1900,1655,1523,1489,1415,1373,1346,1349,1372,1359,1377,1368,1367,1370,1381,1393,1389,1389,1398,1383,1382,1398,1383,1381,1384,1381,1390,1390,1391,1388,1382,1391,1389,1397,1420,1404,1390,1386,597,606,608,615,617,726,898,1040,1133,1198,1205,1193,1175,1169,1136,1112,1099,1070,1029,1010,996,976,951,932,921,900,882,863,845,722,763,705,705,655,609,613,615,582,560,552,556,560,558,566,560,569,565,570,568,578,578,579,567,561,564,564,568,565,558,560,564,566,565,562,561,618,628,630,637,639,757,934,1079,1175,1239,1245,1233,1214,1201,1174,1149,1136,1107,1065,1045,1031,1010,984,965,952,930,912,892,874,750,790,732,693,666,630,638,637,582,560,552,556,560,558,566,560,569,565,570,568,578,578,579,567,561,564,564,568,565,558,560,564,566,565,562,561,251,251,259,260,273,318,359,402,445,487,487,502,495,486,478,471,462,454,449,440,433,423,416,409,399,392,380,372,364,356,347,339,332,326,245,279,279,279,220,222,220,222,231,227,230,233,227,234,229,227,230,228,229,232,231,223,231,224,224,228,227,233,229,233,226,0,0,0,0,0,0,0,0,0,0,0,0,0,0,0,0,0,0,0,0,0,0,0,0,0,0,0,0,0,0,0,0,0,0,0,0,0,0,0,0,0,0,0,0,0,0,0,0,0,0,0,0,0,0,0,0,0,0,0,0,0,0,0,0,0 ]);
