n = 10;
D = [224,161,127,248,164,173,233,283,259,178 ];
q = 0;
prec = array2d(1..0,1..2,[]);
steps = 64;
l = 360;
r = 0;
which = [];
interval = array2d(1..0,1..2,[]);
T = array3d(1..11,1..11,0..64,[0,0,0,0,0,0,0,0,0,0,0,0,0,0,0,0,0,0,0,0,0,0,0,0,0,0,0,0,0,0,0,0,0,0,0,0,0,0,0,0,0,0,0,0,0,0,0,0,0,0,0,0,0,0,0,0,0,0,0,0,0,0,0,0,0,137,138,138,139,140,216,244,272,301,330,345,340,334,330,324,318,313,307,302,296,291,285,279,274,268,264,258,253,247,241,236,230,225,219,143,140,140,140,131,131,131,132,149,139,137,149,137,150,139,136,140,132,133,139,139,132,148,132,132,139,138,151,141,141,138,496,494,495,497,503,555,895,1018,1123,1196,1207,1189,1170,1152,1130,1111,1093,1074,1063,1036,1018,998,979,967,947,928,903,891,865,564,550,552,525,539,542,499,500,518,457,454,454,456,462,458,462,468,458,460,464,459,462,466,466,467,469,470,486,465,467,466,463,469,479,468,468,176,176,171,171,245,278,315,351,387,423,442,433,426,418,412,405,398,391,384,378,370,363,356,350,343,336,328,321,315,308,290,294,288,280,251,246,246,246,158,158,166,177,158,160,160,160,160,158,160,160,158,160,160,160,160,161,160,160,160,160,160,161,160,160,160,578,581,582,563,585,625,1083,1226,1319,1411,1431,1407,1385,1359,1334,1310,1289,1270,1245,1216,1197,1171,1156,1133,1110,1030,1062,1037,935,911,835,696,626,602,592,587,561,589,532,528,530,531,535,533,534,537,534,544,543,542,542,544,544,546,547,547,543,544,543,544,542,547,544,541,541,224,224,231,274,227,322,406,454,500,549,566,554,544,536,526,517,509,499,490,481,472,464,454,445,436,427,418,410,398,390,385,340,330,323,300,231,295,295,210,208,212,214,208,215,215,219,216,215,219,211,212,210,210,212,211,211,211,211,211,209,209,212,210,214,212,291,292,281,283,284,302,514,541,645,666,684,679,669,671,665,660,649,639,630,600,614,578,566,535,526,490,518,526,463,488,457,414,303,406,288,296,285,286,262,265,264,273,273,272,271,280,265,277,273,271,272,278,276,277,273,275,280,280,282,273,274,279,269,269,268,322,371,324,372,360,350,644,675,775,837,855,795,822,811,763,786,734,722,696,739,685,714,702,688,621,624,650,637,610,610,374,585,447,364,356,374,328,363,346,350,346,358,371,371,358,370,356,372,373,368,373,373,373,375,362,363,367,377,369,368,368,371,364,364,362,654,646,654,655,664,715,1219,1420,1540,1594,1601,1558,1546,1506,1487,1476,1437,1409,1380,1371,1337,1306,1292,1267,1227,1205,1191,1155,1063,1056,797,722,705,688,661,658,660,667,622,620,624,627,624,630,634,629,625,634,638,630,631,631,638,633,640,642,633,633,628,633,631,635,633,629,629,671,657,655,664,711,783,1222,1422,1551,1597,1603,1568,1548,1527,1491,1479,1449,1416,1398,1373,1341,1321,1290,1270,1244,1221,1188,1172,1038,1006,861,774,743,704,663,660,662,676,634,628,630,635,634,635,636,641,633,641,642,636,640,643,644,639,642,645,643,637,639,640,633,644,642,638,638,0,0,0,0,0,0,0,0,0,0,0,0,0,0,0,0,0,0,0,0,0,0,0,0,0,0,0,0,0,0,0,0,0,0,0,0,0,0,0,0,0,0,0,0,0,0,0,0,0,0,0,0,0,0,0,0,0,0,0,0,0,0,0,0,0,140,140,142,142,152,219,248,274,303,331,351,345,340,334,328,323,317,312,306,302,296,290,285,278,274,267,262,256,251,245,241,235,228,223,217,153,215,215,98,98,98,98,98,98,98,98,98,98,98,98,98,98,98,98,98,98,98,98,98,98,98,98,98,98,98,0,0,0,0,0,0,0,0,0,0,0,0,0,0,0,0,0,0,0,0,0,0,0,0,0,0,0,0,0,0,0,0,0,0,0,0,0,0,0,0,0,0,0,0,0,0,0,0,0,0,0,0,0,0,0,0,0,0,0,0,0,0,0,0,0,500,502,504,505,512,643,961,1069,1184,1226,1227,1209,1189,1171,1152,1126,1121,1102,1074,1054,1043,1023,997,984,956,944,919,900,801,790,765,548,535,584,511,533,560,489,477,473,474,476,482,479,484,501,485,481,486,481,481,482,481,489,485,483,506,484,481,480,482,486,510,489,502,104,104,104,105,105,108,183,204,224,246,259,255,252,247,243,240,235,231,226,223,219,214,211,207,202,199,194,190,187,182,178,175,170,166,108,106,106,106,98,99,96,100,117,107,101,117,101,117,106,117,103,100,101,105,104,102,117,107,102,107,104,117,105,105,103,587,589,591,572,595,677,1120,1260,1348,1454,1453,1428,1400,1382,1355,1334,1308,1289,1263,1238,1219,1197,1173,1146,1126,1102,1078,1054,922,863,755,732,626,620,604,568,568,600,550,549,549,553,559,557,562,559,559,567,567,565,565,564,558,567,565,564,565,562,561,566,564,569,566,570,565,152,152,153,153,154,160,269,302,334,365,383,377,372,366,360,352,346,340,334,328,322,315,310,303,297,291,284,279,273,265,259,215,210,204,157,154,155,155,135,137,133,136,141,139,138,140,137,139,138,138,138,136,136,138,137,136,138,136,135,137,136,138,137,138,136,296,291,292,286,287,400,516,582,682,715,735,726,722,690,678,667,656,644,632,620,609,584,585,561,562,550,540,516,517,505,493,429,419,305,297,294,295,296,260,260,260,260,260,260,260,260,260,260,260,260,260,260,260,260,260,260,260,260,260,260,260,260,260,260,260,276,294,415,284,289,470,517,583,641,721,710,722,711,680,666,655,645,660,623,600,631,579,610,597,554,548,565,513,502,528,479,508,496,468,424,295,306,281,274,274,274,274,274,274,274,274,274,274,274,274,274,274,274,274,274,274,274,274,274,274,274,274,274,274,274,663,654,667,665,674,759,1252,1467,1581,1616,1612,1578,1561,1527,1509,1500,1467,1425,1399,1381,1362,1325,1310,1284,1243,1222,1201,1166,1071,1037,816,734,697,677,675,673,669,663,640,641,643,649,648,654,656,651,650,656,659,653,654,651,652,654,656,656,655,651,646,654,653,657,654,658,654,680,661,675,667,700,833,1328,1487,1583,1618,1615,1597,1563,1542,1512,1503,1469,1444,1410,1383,1366,1339,1313,1287,1255,1256,1203,1178,1038,981,818,716,725,708,672,675,672,665,652,647,650,657,654,656,658,666,656,658,661,658,659,659,660,661,658,658,663,656,657,656,652,661,655,660,654,140,140,142,142,152,219,248,274,303,331,351,345,340,334,328,323,317,312,306,302,296,290,285,278,274,267,262,256,251,245,241,235,228,223,217,153,215,215,98,98,98,98,98,98,98,98,98,98,98,98,98,98,98,98,98,98,98,98,98,98,98,98,98,98,98,523,526,528,532,532,637,994,1122,1220,1291,1277,1258,1254,1233,1197,1194,1172,1150,1132,1110,1075,1068,1048,1025,1007,983,965,918,807,840,787,578,565,567,543,533,533,478,432,422,426,441,453,469,439,466,460,457,466,447,452,442,442,458,443,444,457,441,438,458,459,462,455,461,447,535,537,540,541,543,724,1034,1149,1271,1324,1328,1308,1285,1264,1242,1221,1200,1178,1157,1136,1113,1092,1070,1048,1028,1006,984,962,941,884,847,802,574,560,549,545,556,540,493,484,491,497,506,527,503,525,513,517,525,504,518,506,504,520,507,502,519,507,499,514,513,517,515,521,506,0,0,0,0,0,0,0,0,0,0,0,0,0,0,0,0,0,0,0,0,0,0,0,0,0,0,0,0,0,0,0,0,0,0,0,0,0,0,0,0,0,0,0,0,0,0,0,0,0,0,0,0,0,0,0,0,0,0,0,0,0,0,0,0,0,574,577,578,580,583,795,1114,1238,1366,1417,1418,1398,1374,1350,1327,1305,1282,1258,1236,1214,1190,1168,1144,1122,1098,1075,1051,1029,992,930,909,759,614,599,588,584,596,577,531,521,526,538,548,566,542,569,552,559,565,544,554,544,544,558,544,542,557,541,537,552,554,556,554,558,543,515,532,518,547,549,759,994,1111,1216,1268,1273,1252,1268,1212,1191,1172,1152,1188,1111,1090,1070,1050,1059,1060,1039,968,975,934,815,806,792,773,673,537,557,538,540,526,522,517,531,535,524,542,525,536,527,532,536,524,524,531,528,536,532,532,529,530,533,534,530,531,524,554,532,622,625,626,627,634,897,1221,1375,1487,1536,1537,1513,1487,1463,1438,1413,1389,1364,1338,1314,1289,1262,1239,1214,1188,1038,1141,988,961,949,942,806,713,648,636,633,644,629,581,565,570,592,607,620,594,621,604,614,623,600,613,602,599,614,599,598,617,601,614,613,608,617,612,619,604,567,565,566,568,578,704,1126,1226,1346,1388,1408,1375,1356,1338,1319,1297,1289,1248,1214,1192,1169,1158,1124,1116,1072,1032,981,960,939,908,794,767,638,598,588,572,592,561,543,533,536,538,539,557,543,565,550,546,560,544,547,550,548,551,542,544,553,548,544,546,545,546,546,558,549,780,765,767,771,799,1105,1524,1679,1783,1823,1823,1794,1766,1739,1710,1683,1654,1629,1599,1618,1541,1514,1489,1501,1427,1364,1335,1248,1181,1085,1016,824,805,788,777,775,776,716,712,708,716,721,718,730,723,728,734,725,746,750,747,749,735,750,730,727,734,735,728,728,730,735,727,736,726,419,440,441,423,428,646,831,884,1024,1030,1039,1023,1006,1035,973,1000,940,968,951,932,914,856,841,824,807,790,811,793,741,701,685,657,654,439,428,446,447,448,440,438,439,441,442,440,440,441,442,440,444,441,441,442,444,441,444,448,443,445,442,444,448,447,445,444,442,420,443,444,424,429,648,837,886,1044,1033,1041,1024,1009,1040,975,1005,942,970,954,936,919,860,843,826,810,794,814,798,744,705,689,660,657,440,431,448,449,451,441,432,436,443,433,442,436,442,444,444,446,445,445,442,442,443,446,444,437,451,440,446,447,439,447,446,444,523,526,528,532,532,637,994,1122,1220,1291,1277,1258,1254,1233,1197,1194,1172,1150,1132,1110,1075,1068,1048,1025,1007,983,965,918,807,840,787,578,565,567,543,533,533,478,432,422,426,441,453,469,439,466,460,457,466,447,452,442,442,458,443,444,457,441,438,458,459,462,455,461,447,200,201,201,202,203,314,358,399,442,483,499,492,483,476,468,460,452,444,436,428,421,412,405,397,390,381,373,366,357,350,342,334,326,319,207,204,204,204,170,171,171,171,172,174,170,174,171,172,170,172,171,176,174,175,174,176,175,175,175,178,175,179,173,173,173,101,102,102,103,103,105,178,199,220,241,255,252,247,243,240,235,231,228,223,219,214,211,207,202,199,195,190,187,182,178,175,113,111,108,105,103,104,104,94,95,94,96,118,119,104,120,104,120,111,111,118,99,101,111,106,99,119,101,98,120,110,119,117,112,106,601,604,606,607,613,748,1139,1270,1404,1466,1471,1447,1424,1411,1377,1361,1329,1308,1285,1260,1237,1214,1190,1168,1144,1120,1099,1075,924,910,858,661,636,638,612,610,611,592,571,568,568,572,583,582,583,590,582,585,584,581,587,581,582,587,591,582,599,585,579,582,591,605,620,601,608,0,0,0,0,0,0,0,0,0,0,0,0,0,0,0,0,0,0,0,0,0,0,0,0,0,0,0,0,0,0,0,0,0,0,0,0,0,0,0,0,0,0,0,0,0,0,0,0,0,0,0,0,0,0,0,0,0,0,0,0,0,0,0,0,0,668,690,676,673,697,847,1288,1489,1568,1654,1685,1659,1632,1600,1577,1550,1526,1498,1452,1410,1415,1388,1348,1333,1316,1288,1261,1231,1104,943,848,727,732,718,702,665,680,665,640,645,642,652,659,662,659,657,661,660,669,668,667,660,663,675,665,664,669,663,659,674,664,666,667,664,660,124,124,125,125,130,133,218,244,270,295,314,309,304,300,295,288,283,278,273,268,264,258,254,248,243,238,232,229,224,217,212,208,202,197,133,130,130,130,120,102,102,103,110,108,108,103,103,107,120,108,113,116,118,115,107,107,111,120,118,118,106,106,119,104,102,348,332,332,327,335,468,601,686,742,799,844,832,821,786,772,759,746,762,720,706,726,680,667,654,641,626,644,629,588,574,550,539,527,348,339,329,336,337,314,319,320,323,323,322,321,323,317,325,319,320,322,325,325,324,324,326,324,321,325,327,322,325,318,325,320,288,395,363,290,300,477,530,584,637,686,699,686,679,657,656,645,639,628,619,609,598,589,566,555,546,549,568,554,542,510,519,489,481,302,339,301,302,293,289,279,283,283,281,289,285,293,290,287,291,285,286,286,285,291,287,290,286,287,285,286,287,289,286,292,292,754,760,768,768,779,1106,1501,1680,1801,1850,1836,1825,1776,1748,1743,1694,1661,1644,1614,1595,1542,1525,1506,1466,1435,1410,1377,1346,1207,941,941,847,808,785,772,771,773,755,734,736,739,744,754,758,751,748,751,755,757,754,755,750,750,760,759,752,760,747,749,759,753,755,756,752,749,780,763,776,770,803,1181,1506,1686,1803,1852,1864,1827,1794,1768,1750,1728,1694,1646,1616,1602,1575,1528,1514,1475,1440,1444,1381,1364,1167,1007,990,829,800,816,774,778,776,767,746,744,750,750,757,758,759,761,761,765,761,759,764,759,760,762,766,757,769,757,751,759,763,769,764,768,760,200,201,201,202,203,314,358,399,442,483,499,492,483,476,468,460,452,444,436,428,421,412,405,397,390,381,373,366,357,350,342,334,326,319,207,204,204,204,170,171,171,171,172,174,170,174,171,172,170,172,171,176,174,175,174,176,175,175,175,178,175,179,173,173,173,687,690,689,692,700,772,1344,1505,1632,1673,1684,1643,1616,1592,1572,1534,1514,1496,1465,1441,1404,1381,1359,1332,1309,1272,1245,1142,984,821,791,761,729,709,703,696,697,594,560,555,557,571,571,565,570,564,574,570,571,572,566,568,573,572,567,576,572,573,576,578,582,574,571,568,568,696,698,697,700,708,934,1365,1529,1658,1700,1711,1670,1643,1616,1595,1556,1540,1517,1484,1460,1426,1399,1378,1350,1324,1293,1266,1179,996,923,886,798,738,720,711,705,705,656,623,617,624,624,630,628,635,621,629,629,630,631,632,633,637,633,631,633,636,640,635,638,638,633,631,628,628,560,562,564,566,600,901,1087,1215,1321,1370,1375,1352,1330,1309,1287,1266,1244,1222,1201,1179,1150,1129,1113,1092,1064,1048,1021,999,970,950,882,745,701,583,572,569,571,551,547,545,541,547,554,555,549,555,557,574,551,550,547,552,551,543,551,556,551,554,546,551,551,554,549,554,547,735,738,736,744,748,1008,1449,1625,1751,1791,1800,1758,1729,1700,1679,1639,1620,1596,1562,1537,1502,1473,1452,1420,1393,1362,1334,1246,992,973,950,839,778,759,751,745,745,693,661,654,659,665,672,667,674,665,668,671,670,671,668,671,677,671,668,673,674,674,673,676,679,672,670,667,667,0,0,0,0,0,0,0,0,0,0,0,0,0,0,0,0,0,0,0,0,0,0,0,0,0,0,0,0,0,0,0,0,0,0,0,0,0,0,0,0,0,0,0,0,0,0,0,0,0,0,0,0,0,0,0,0,0,0,0,0,0,0,0,0,0,681,679,696,690,713,921,1394,1552,1633,1710,1702,1722,1654,1621,1592,1583,1514,1510,1500,1423,1414,1379,1375,1353,1294,1285,1262,1205,1030,878,855,823,727,699,704,691,707,688,660,655,656,658,661,666,666,661,670,665,664,665,672,673,675,677,672,669,668,673,668,680,673,668,669,663,663,731,733,748,740,756,932,1494,1668,1798,1834,1829,1806,1778,1749,1719,1663,1654,1594,1584,1562,1533,1478,1477,1447,1412,1388,1330,1248,1113,1028,933,836,796,755,762,759,757,706,674,669,671,673,678,677,679,675,676,679,681,681,679,680,682,681,679,682,684,685,684,687,685,683,679,676,676,955,953,952,957,1010,1346,1981,2169,2252,2296,2300,2243,2226,2185,2159,2097,2077,2039,2011,1974,1922,1886,1867,1833,1758,1630,1618,1516,1358,1075,1100,1011,1015,981,968,955,948,913,882,874,881,889,892,888,887,887,888,891,893,893,891,892,894,893,891,894,896,897,896,899,897,895,891,888,888,352,353,354,355,356,379,631,705,764,830,843,831,818,806,766,781,768,728,716,739,727,713,702,689,676,655,642,630,616,604,591,527,377,369,360,357,363,359,325,326,325,326,327,331,330,330,330,332,332,334,335,334,337,337,345,338,339,342,339,341,341,340,342,340,340,300,301,302,303,304,447,545,604,664,724,740,728,717,705,693,682,670,660,648,636,625,613,602,590,578,567,555,544,532,520,510,498,440,431,402,399,400,376,285,286,286,287,288,288,290,290,290,292,292,293,294,294,296,296,297,298,299,299,299,300,301,301,301,300,300,687,690,689,692,700,772,1344,1505,1632,1673,1684,1643,1616,1592,1572,1534,1514,1496,1465,1441,1404,1381,1359,1332,1309,1272,1245,1142,984,821,791,761,729,709,703,696,697,594,560,555,557,571,571,565,570,564,574,570,571,572,566,568,573,572,567,576,572,573,576,578,582,574,571,568,568,287,288,289,291,292,345,509,567,627,691,715,706,694,684,669,659,649,636,626,616,603,592,578,569,556,546,534,522,388,381,371,366,354,334,296,292,292,294,228,229,230,233,235,236,234,233,231,232,233,233,232,241,235,237,235,236,237,236,239,237,235,235,233,233,230,150,150,151,151,180,220,266,297,328,360,376,370,364,358,352,346,368,334,328,322,316,310,304,298,292,286,280,274,268,262,256,250,244,238,232,216,217,218,130,133,132,133,134,135,134,133,131,132,132,132,131,139,134,135,135,135,135,136,145,135,135,134,133,133,132,548,549,551,552,555,683,1063,1177,1301,1360,1344,1322,1302,1280,1258,1237,1215,1208,1173,1152,1143,1120,1091,1078,1051,1029,1004,982,952,923,808,624,584,570,559,556,557,538,517,520,519,529,530,529,534,528,526,526,527,527,524,532,526,533,557,554,529,533,527,523,527,526,545,531,524,116,116,116,145,145,181,204,228,250,274,289,285,280,276,271,267,262,258,253,248,244,240,235,230,226,222,217,212,207,204,199,194,189,186,181,146,147,147,97,95,98,112,103,95,92,96,96,113,111,98,103,102,99,96,103,103,95,95,95,95,95,92,98,98,91,569,571,573,574,576,835,1070,1220,1362,1421,1405,1381,1359,1336,1315,1286,1268,1261,1228,1142,1191,1168,1131,1121,1096,1073,1046,1020,966,863,755,692,585,571,586,578,550,555,547,546,546,550,552,555,554,557,555,559,559,562,557,559,556,564,561,559,560,560,559,561,561,562,559,562,559,0,0,0,0,0,0,0,0,0,0,0,0,0,0,0,0,0,0,0,0,0,0,0,0,0,0,0,0,0,0,0,0,0,0,0,0,0,0,0,0,0,0,0,0,0,0,0,0,0,0,0,0,0,0,0,0,0,0,0,0,0,0,0,0,0,417,412,420,436,420,448,785,874,970,1032,1057,1042,1003,968,972,940,928,903,906,889,872,857,841,823,806,777,799,759,739,701,608,603,474,472,427,417,418,426,390,396,395,397,399,400,399,399,394,400,396,398,398,404,404,405,406,404,406,401,405,402,406,407,402,405,400,375,443,388,388,380,513,688,775,849,903,914,894,886,873,890,844,862,819,806,793,780,769,752,735,726,708,698,685,681,678,645,644,535,392,401,380,391,396,367,364,368,370,366,375,368,377,371,368,373,370,365,370,373,378,374,377,375,372,374,374,376,378,371,378,373,642,636,648,650,655,943,1290,1430,1551,1603,1560,1565,1533,1512,1480,1455,1436,1429,1385,1359,1321,1315,1282,1288,1233,1232,1161,1153,1123,1030,859,753,776,705,674,654,656,657,637,638,640,646,641,652,654,649,646,649,654,650,646,646,650,651,656,654,650,649,644,650,650,650,648,650,648,668,661,671,666,702,914,1323,1472,1594,1648,1626,1587,1571,1546,1515,1504,1460,1436,1424,1401,1360,1357,1322,1291,1262,1234,1205,1189,1038,939,923,816,707,704,673,672,680,666,649,649,653,654,657,661,658,665,660,665,662,660,656,660,659,666,667,662,662,657,655,661,662,665,656,666,659,287,288,289,291,292,345,509,567,627,691,715,706,694,684,669,659,649,636,626,616,603,592,578,569,556,546,534,522,388,381,371,366,354,334,296,292,292,294,228,229,230,233,235,236,234,233,231,232,233,233,232,241,235,237,235,236,237,236,239,237,235,235,233,233,230,194,195,197,197,297,306,350,379,412,446,438,449,433,438,430,424,419,412,407,402,395,390,384,377,372,365,360,353,348,343,337,331,323,318,300,297,297,298,156,157,156,162,157,157,158,162,156,156,156,160,158,156,156,157,157,156,156,158,155,157,155,156,157,156,154,327,329,331,331,333,445,587,647,709,783,770,775,754,753,741,729,718,706,695,686,677,664,653,641,631,618,607,597,584,574,523,477,467,430,341,335,337,337,284,284,284,292,286,285,289,291,284,286,289,288,289,288,288,287,296,288,284,287,283,285,284,287,287,286,282,581,583,599,629,607,849,1096,1213,1314,1364,1357,1348,1321,1300,1282,1271,1244,1225,1206,1186,1167,1147,1137,1117,1090,1079,1051,1018,924,888,875,681,616,603,592,589,591,571,555,546,550,552,552,554,556,559,553,557,558,552,551,560,560,560,559,560,558,559,562,564,559,557,557,557,557,336,336,347,338,340,444,625,695,744,799,802,790,807,768,756,745,733,722,710,698,687,675,664,652,661,630,618,607,595,581,571,536,439,447,343,340,374,342,314,315,322,336,315,317,318,322,316,314,316,320,316,316,316,317,317,317,316,318,315,317,315,317,317,316,314,693,697,676,698,701,915,1358,1515,1620,1675,1654,1635,1609,1586,1503,1537,1508,1486,1460,1435,1408,1383,1356,1331,1317,1290,1265,1181,1127,1057,889,846,791,724,704,674,704,668,652,657,658,674,666,671,661,670,669,668,672,673,669,671,678,702,676,679,674,675,678,679,686,693,674,679,673,392,393,403,396,406,426,749,819,895,944,971,931,946,929,888,875,861,846,833,843,804,815,777,764,771,735,743,709,692,679,597,557,426,416,400,402,422,389,362,363,366,376,365,372,373,368,369,371,364,371,370,364,366,365,365,365,362,366,363,366,364,365,367,370,359,0,0,0,0,0,0,0,0,0,0,0,0,0,0,0,0,0,0,0,0,0,0,0,0,0,0,0,0,0,0,0,0,0,0,0,0,0,0,0,0,0,0,0,0,0,0,0,0,0,0,0,0,0,0,0,0,0,0,0,0,0,0,0,0,0,262,262,306,308,308,350,356,469,502,537,556,550,544,536,531,525,518,512,504,499,491,486,479,472,466,460,453,445,354,288,427,422,413,407,267,345,265,266,222,221,222,222,222,222,223,227,227,222,222,222,222,223,223,227,223,222,222,223,222,222,221,221,221,221,221,738,740,762,776,784,985,1452,1611,1711,1755,1741,1725,1696,1664,1639,1612,1594,1568,1542,1516,1490,1472,1444,1419,1403,1366,1351,1292,1272,954,935,793,794,790,781,749,771,744,726,723,723,724,725,726,730,732,725,729,730,725,724,729,732,732,732,732,732,730,729,736,732,730,730,730,730,741,743,759,790,797,989,1454,1612,1713,1757,1742,1727,1698,1666,1641,1615,1590,1571,1544,1519,1493,1474,1447,1421,1406,1369,1354,1294,1288,956,883,796,826,806,759,751,753,746,730,725,725,726,727,728,732,734,727,731,732,727,726,731,734,734,734,734,734,732,731,738,734,732,732,732,732,194,195,197,197,297,306,350,379,412,446,438,449,433,438,430,424,419,412,407,402,395,390,384,377,372,365,360,353,348,343,337,331,323,318,300,297,297,298,156,157,156,162,157,157,158,162,156,156,156,160,158,156,156,157,157,156,156,158,155,157,155,156,157,156,154,304,305,339,307,308,510,560,614,673,698,703,687,678,700,666,673,648,643,646,633,624,612,601,580,578,567,555,544,532,518,518,498,412,490,343,337,309,341,285,287,286,286,297,293,309,312,293,310,296,296,296,293,292,312,312,293,298,290,289,297,293,302,293,301,293,339,340,392,341,379,548,627,661,768,763,765,754,744,734,723,714,709,699,707,672,662,674,642,653,620,610,600,590,579,568,578,548,538,352,486,343,344,344,333,328,332,334,328,341,337,346,340,336,344,335,337,338,335,344,337,338,335,338,334,333,337,338,336,341,332,754,758,759,761,778,1285,1531,1695,1782,1800,1785,1755,1725,1699,1680,1670,1627,1605,1591,1559,1532,1506,1477,1438,1417,1389,1363,1284,1096,1068,837,972,806,787,785,774,748,760,724,716,722,734,726,738,731,735,730,732,747,738,748,752,751,746,776,743,732,737,736,742,744,742,740,738,737,305,306,430,307,319,439,559,584,685,676,679,670,662,652,644,634,631,624,633,600,590,604,573,586,555,546,537,529,519,511,519,493,484,316,483,308,309,310,293,288,292,293,288,300,295,305,300,295,306,294,297,294,294,302,296,297,294,297,293,292,297,297,296,310,300,868,871,852,874,901,1512,1789,1938,2060,2069,2053,1951,1978,1946,1922,1910,1866,1779,1823,1783,1720,1719,1690,1647,1602,1592,1540,1456,1342,1110,1023,957,936,914,908,858,893,857,813,817,817,821,830,827,838,831,837,841,842,838,839,836,840,851,853,839,842,834,832,840,838,844,838,841,833,362,363,478,379,377,507,671,711,826,823,822,839,800,787,803,766,806,749,756,720,708,721,686,697,664,652,642,651,618,607,613,602,542,375,533,366,367,360,348,346,348,352,347,356,352,353,352,352,353,349,350,350,351,352,353,353,352,352,352,352,351,358,351,355,353,309,310,311,318,336,446,576,631,661,712,702,704,703,684,680,679,655,646,637,643,637,625,613,593,589,566,582,554,546,504,497,488,324,472,327,321,308,326,303,305,307,309,310,308,312,310,305,313,311,308,312,318,318,313,316,314,311,308,311,309,311,311,307,312,307,0,0,0,0,0,0,0,0,0,0,0,0,0,0,0,0,0,0,0,0,0,0,0,0,0,0,0,0,0,0,0,0,0,0,0,0,0,0,0,0,0,0,0,0,0,0,0,0,0,0,0,0,0,0,0,0,0,0,0,0,0,0,0,0,0,912,913,917,941,959,1607,1947,2091,2172,2190,2170,2124,2090,2056,2030,2013,1970,1936,1916,1878,1846,1810,1774,1740,1716,1672,1635,1567,1287,1176,1070,1031,968,945,952,933,920,932,898,902,902,910,912,917,910,914,911,909,918,914,925,928,927,916,935,916,914,910,911,912,911,918,916,917,916,913,915,920,923,960,1609,1949,2094,2179,2192,2165,2127,2092,2058,2032,2016,1966,1944,1918,1881,1849,1813,1778,1742,1706,1676,1637,1508,1353,1176,1006,1094,956,948,954,936,922,934,900,904,904,916,914,919,912,916,913,911,920,916,927,930,929,918,937,918,916,912,913,914,913,920,918,919,918,304,305,339,307,308,510,560,614,673,698,703,687,678,700,666,673,648,643,646,633,624,612,601,580,578,567,555,544,532,518,518,498,412,490,343,337,309,341,285,287,286,286,297,293,309,312,293,310,296,296,296,293,292,312,312,293,298,290,289,297,293,302,293,301,293,611,596,615,618,631,740,1189,1306,1448,1520,1494,1463,1438,1428,1405,1371,1316,1332,1308,1283,1257,1205,1188,1188,1164,1139,1106,1037,869,776,757,693,661,643,624,620,622,539,490,488,490,503,503,503,504,512,513,502,519,506,501,500,505,507,498,508,505,508,507,507,511,508,503,503,503,618,618,623,626,664,898,1209,1359,1473,1545,1519,1500,1474,1452,1425,1392,1369,1353,1331,1306,1281,1248,1233,1208,1183,1158,1124,1099,1084,912,818,755,668,652,632,629,630,601,553,550,557,556,562,566,569,569,568,561,578,565,567,565,569,568,562,565,569,575,566,567,567,567,563,563,563,436,437,438,440,445,694,822,911,1005,1065,1072,1054,1038,1021,1004,987,970,954,937,931,944,886,870,853,836,818,801,784,768,751,734,717,700,481,445,442,444,423,392,392,394,399,399,402,396,398,398,415,400,399,400,402,407,441,405,406,414,403,406,407,409,427,403,404,404,657,658,662,671,683,946,1292,1452,1566,1636,1609,1589,1560,1537,1509,1475,1449,1432,1411,1384,1357,1323,1306,1280,1253,1228,1191,1165,1012,959,897,809,708,692,672,676,670,638,591,587,592,597,604,605,608,613,607,603,618,605,603,603,609,606,599,605,607,609,604,605,608,606,602,602,602,236,237,238,239,266,274,423,470,517,562,578,570,560,552,543,534,525,516,507,499,489,481,472,463,454,445,436,428,418,410,402,392,283,277,271,266,267,268,210,212,212,216,227,232,228,234,226,227,232,225,228,220,222,233,227,218,226,222,218,226,224,226,224,229,229,649,663,668,653,683,770,1252,1397,1502,1591,1614,1585,1566,1534,1510,1477,1440,1443,1408,1381,1378,1312,1300,1281,1248,1191,1194,1125,1065,946,732,717,708,679,670,677,656,674,590,588,589,590,593,604,600,609,609,597,613,599,607,605,607,612,603,601,601,609,600,607,603,600,601,598,598,652,650,653,656,695,837,1311,1438,1567,1624,1602,1575,1550,1539,1514,1472,1430,1422,1400,1370,1349,1297,1301,1277,1262,1226,1194,1104,908,1005,857,734,731,675,666,661,668,651,604,602,604,605,610,615,613,623,615,611,628,615,614,612,614,616,610,614,617,620,615,616,614,617,611,611,611,880,858,864,884,957,1270,1802,1944,2069,2112,2077,2064,2023,1994,1986,1895,1876,1862,1837,1816,1769,1719,1696,1667,1646,1568,1482,1454,1243,1138,1077,934,933,884,875,872,878,846,812,807,814,821,824,826,821,831,827,823,833,827,826,824,826,828,822,826,829,832,826,828,826,829,823,823,823,0,0,0,0,0,0,0,0,0,0,0,0,0,0,0,0,0,0,0,0,0,0,0,0,0,0,0,0,0,0,0,0,0,0,0,0,0,0,0,0,0,0,0,0,0,0,0,0,0,0,0,0,0,0,0,0,0,0,0,0,0,0,0,0,0,40,40,40,40,61,61,68,74,81,88,94,93,92,91,90,88,86,85,84,82,81,80,79,76,75,74,73,72,70,69,67,66,64,63,62,61,61,61,16,15,16,16,16,16,16,16,16,16,16,16,16,16,16,16,15,16,16,16,16,16,16,16,15,16,16,611,596,615,618,631,740,1189,1306,1448,1520,1494,1463,1438,1428,1405,1371,1316,1332,1308,1283,1257,1205,1188,1188,1164,1139,1106,1037,869,776,757,693,661,643,624,620,622,539,490,488,490,503,503,503,504,512,513,502,519,506,501,500,505,507,498,508,505,508,507,507,511,508,503,503,503,572,578,581,584,586,808,1119,1243,1367,1433,1400,1379,1371,1349,1327,1303,1270,1257,1236,1215,1190,1167,1110,1121,1125,1076,1059,1012,849,801,836,627,597,583,589,586,588,510,474,473,478,485,487,487,488,505,497,486,503,490,485,484,489,491,483,492,489,492,491,491,495,492,488,489,484,584,588,589,592,595,898,1141,1269,1396,1457,1425,1419,1394,1404,1353,1328,1305,1282,1259,1235,1212,1188,1154,1136,1180,1095,1075,1053,1028,969,813,689,627,655,597,595,596,572,536,534,540,541,546,550,553,562,552,545,562,549,551,549,553,552,547,549,553,559,550,551,551,551,548,549,544,401,403,404,405,408,664,757,837,924,980,988,973,957,942,926,910,895,880,865,849,874,818,802,787,818,756,740,724,709,693,678,662,646,420,411,408,408,389,376,377,378,382,383,386,380,383,381,399,384,384,384,385,391,455,390,390,398,387,390,391,393,411,388,390,388,623,626,628,632,634,969,1224,1360,1489,1548,1515,1508,1480,1489,1437,1411,1388,1362,1339,1313,1288,1263,1227,1210,1250,1165,1142,1120,992,938,848,754,666,654,637,636,636,609,574,571,575,582,588,589,592,606,591,587,602,589,587,587,593,590,584,589,591,593,588,589,592,590,587,588,583,203,204,204,204,205,213,358,398,438,476,493,486,478,471,463,456,448,441,433,426,418,411,404,396,388,381,374,366,358,351,344,336,219,214,209,205,206,207,194,197,196,200,211,216,212,219,210,211,218,209,212,204,206,217,212,202,210,206,202,210,208,210,209,215,206,609,629,631,620,661,929,1189,1327,1426,1502,1522,1492,1507,1452,1428,1389,1405,1379,1337,1329,1307,1245,1232,1233,1182,1128,1130,1079,1020,924,824,700,654,648,654,624,643,639,574,573,573,574,577,588,584,603,593,581,598,583,591,589,591,596,588,585,585,593,584,591,587,584,586,584,578,617,623,629,626,622,813,1221,1343,1486,1536,1508,1510,1490,1477,1437,1413,1378,1350,1334,1316,1286,1266,1237,1201,1221,1161,1142,1076,888,841,793,707,668,629,653,630,628,621,588,587,588,589,594,599,597,616,599,595,612,599,598,596,598,600,595,598,601,604,599,600,598,601,596,597,592,844,834,837,848,850,1282,1718,1863,1988,2053,1983,1983,1971,1957,1909,1843,1820,1791,1770,1752,1725,1684,1617,1591,1618,1515,1430,1364,1223,1204,1042,887,869,868,863,839,842,808,796,792,798,805,808,810,805,815,811,807,817,811,810,808,810,812,807,810,813,816,810,812,810,813,808,809,804,86,86,86,86,86,87,92,98,104,109,115,114,112,111,110,109,108,106,105,104,103,102,100,100,99,98,97,96,94,93,92,91,90,88,87,86,87,87,40,40,39,39,39,43,40,40,40,40,40,41,41,40,41,41,48,40,40,43,40,41,40,39,41,40,39,0,0,0,0,0,0,0,0,0,0,0,0,0,0,0,0,0,0,0,0,0,0,0,0,0,0,0,0,0,0,0,0,0,0,0,0,0,0,0,0,0,0,0,0,0,0,0,0,0,0,0,0,0,0,0,0,0,0,0,0,0,0,0,0,0,572,578,581,584,586,808,1119,1243,1367,1433,1400,1379,1371,1349,1327,1303,1270,1257,1236,1215,1190,1167,1110,1121,1125,1076,1059,1012,849,801,836,627,597,583,589,586,588,510,474,473,478,485,487,487,488,505,497,486,503,490,485,484,489,491,483,492,489,492,491,491,495,492,488,489,484,0,0,0,0,0,0,0,0,0,0,0,0,0,0,0,0,0,0,0,0,0,0,0,0,0,0,0,0,0,0,0,0,0,0,0,0,0,0,0,0,0,0,0,0,0,0,0,0,0,0,0,0,0,0,0,0,0,0,0,0,0,0,0,0,0,137,138,138,139,140,216,244,272,301,330,345,340,334,330,324,318,313,307,302,296,291,285,279,274,268,264,258,253,247,241,236,230,225,219,143,140,140,140,131,131,131,132,149,139,137,149,137,150,139,136,140,132,133,139,139,132,148,132,132,139,138,151,141,141,138,496,494,495,497,503,555,895,1018,1123,1196,1207,1189,1170,1152,1130,1111,1093,1074,1063,1036,1018,998,979,967,947,928,903,891,865,564,550,552,525,539,542,499,500,518,457,454,454,456,462,458,462,468,458,460,464,459,462,466,466,467,469,470,486,465,467,466,463,469,479,468,468,176,176,171,171,245,278,315,351,387,423,442,433,426,418,412,405,398,391,384,378,370,363,356,350,343,336,328,321,315,308,290,294,288,280,251,246,246,246,158,158,166,177,158,160,160,160,160,158,160,160,158,160,160,160,160,161,160,160,160,160,160,161,160,160,160,578,581,582,563,585,625,1083,1226,1319,1411,1431,1407,1385,1359,1334,1310,1289,1270,1245,1216,1197,1171,1156,1133,1110,1030,1062,1037,935,911,835,696,626,602,592,587,561,589,532,528,530,531,535,533,534,537,534,544,543,542,542,544,544,546,547,547,543,544,543,544,542,547,544,541,541,224,224,231,274,227,322,406,454,500,549,566,554,544,536,526,517,509,499,490,481,472,464,454,445,436,427,418,410,398,390,385,340,330,323,300,231,295,295,210,208,212,214,208,215,215,219,216,215,219,211,212,210,210,212,211,211,211,211,211,209,209,212,210,214,212,291,292,281,283,284,302,514,541,645,666,684,679,669,671,665,660,649,639,630,600,614,578,566,535,526,490,518,526,463,488,457,414,303,406,288,296,285,286,262,265,264,273,273,272,271,280,265,277,273,271,272,278,276,277,273,275,280,280,282,273,274,279,269,269,268,322,371,324,372,360,350,644,675,775,837,855,795,822,811,763,786,734,722,696,739,685,714,702,688,621,624,650,637,610,610,374,585,447,364,356,374,328,363,346,350,346,358,371,371,358,370,356,372,373,368,373,373,373,375,362,363,367,377,369,368,368,371,364,364,362,654,646,654,655,664,715,1219,1420,1540,1594,1601,1558,1546,1506,1487,1476,1437,1409,1380,1371,1337,1306,1292,1267,1227,1205,1191,1155,1063,1056,797,722,705,688,661,658,660,667,622,620,624,627,624,630,634,629,625,634,638,630,631,631,638,633,640,642,633,633,628,633,631,635,633,629,629,671,657,655,664,711,783,1222,1422,1551,1597,1603,1568,1548,1527,1491,1479,1449,1416,1398,1373,1341,1321,1290,1270,1244,1221,1188,1172,1038,1006,861,774,743,704,663,660,662,676,634,628,630,635,634,635,636,641,633,641,642,636,640,643,644,639,642,645,643,637,639,640,633,644,642,638,638,0,0,0,0,0,0,0,0,0,0,0,0,0,0,0,0,0,0,0,0,0,0,0,0,0,0,0,0,0,0,0,0,0,0,0,0,0,0,0,0,0,0,0,0,0,0,0,0,0,0,0,0,0,0,0,0,0,0,0,0,0,0,0,0,0 ]);
