n = 10;
D = [105,141,140,143,116,107,193,108,249,74 ];
q = 0;
prec = array2d(1..0,1..2,[]);
steps = 64;
l = 360;
r = 0;
which = [];
interval = array2d(1..0,1..2,[]);
T = array3d(1..11,1..11,0..64,[0,0,0,0,0,0,0,0,0,0,0,0,0,0,0,0,0,0,0,0,0,0,0,0,0,0,0,0,0,0,0,0,0,0,0,0,0,0,0,0,0,0,0,0,0,0,0,0,0,0,0,0,0,0,0,0,0,0,0,0,0,0,0,0,0,204,204,205,206,207,216,367,410,452,495,513,505,496,489,481,472,464,456,447,440,432,423,415,406,398,390,382,374,366,357,232,227,222,216,211,207,208,208,198,188,190,190,196,199,192,193,193,193,195,196,194,194,199,198,202,199,194,198,196,199,196,201,204,204,203,744,745,748,758,816,1374,1595,1793,1914,1961,1949,1915,1880,1844,1810,1775,1742,1705,1671,1636,1605,1570,1535,1500,1466,1431,1394,1360,1230,1107,933,910,794,823,759,757,761,717,711,721,716,718,715,733,724,731,731,736,734,723,737,732,739,738,735,735,737,734,738,732,733,739,735,743,735,625,577,578,580,652,999,1179,1376,1504,1526,1522,1496,1527,1442,1432,1407,1381,1334,1329,1303,1278,1251,1224,1171,1144,1141,1090,1063,1036,1050,992,882,770,615,586,584,588,591,590,592,583,591,583,592,587,595,602,595,596,603,608,608,606,619,618,605,602,600,603,610,601,602,608,608,607,529,531,532,534,549,687,1000,1107,1215,1270,1276,1257,1238,1218,1198,1179,1160,1141,1122,1102,1083,1063,1044,1024,1005,986,967,948,927,908,777,737,679,596,558,536,538,539,518,518,527,535,523,525,521,525,524,521,523,525,523,528,526,530,530,536,532,532,531,534,534,539,542,551,535,834,850,853,861,917,1561,1835,2028,2139,2192,2171,2138,2089,2050,2032,1981,1936,1898,1860,1828,1806,1762,1724,1675,1630,1555,1493,1456,1369,1183,1132,942,896,879,848,878,832,836,846,859,860,854,872,858,873,876,870,863,874,863,874,866,876,873,872,884,871,875,867,866,864,863,872,873,855,1360,1361,1416,1512,2376,2898,3573,3718,3802,3808,3753,3676,3591,3525,3459,3367,3276,3198,3139,3052,2959,2703,2552,2208,2098,1896,1790,1740,1590,1540,1504,1439,1404,1383,1396,1367,1388,1410,1457,1453,1456,1460,1453,1457,1457,1459,1457,1456,1460,1455,1457,1453,1455,1458,1457,1457,1453,1455,1453,1453,1457,1455,1457,1464,1459,1118,1122,1107,1139,1400,2189,2545,2718,2815,2832,2822,2760,2694,2670,2611,2529,2526,2460,2419,2365,2302,2275,2219,2179,2128,1884,1930,1803,1609,1382,1252,1225,1183,1140,1133,1136,1094,1088,1098,1073,1078,1086,1081,1090,1090,1144,1093,1089,1096,1088,1093,1093,1093,1093,1097,1092,1101,1097,1092,1088,1095,1176,1096,1094,1094,993,1020,999,1021,1161,1965,2225,2410,2513,2549,2528,2539,2437,2394,2348,2312,2269,2224,2180,2134,2089,2044,2057,1955,1911,1875,1828,1708,1480,1364,1101,1097,1047,1023,1010,1032,942,947,957,947,952,960,955,964,964,996,967,963,970,962,967,967,967,967,971,966,975,971,966,962,969,1027,970,968,968,215,216,216,216,217,227,386,430,475,518,535,526,518,510,501,493,484,476,468,459,451,442,434,426,417,409,400,392,384,375,244,239,233,228,222,218,219,219,221,216,210,212,228,234,221,230,228,233,232,239,241,235,234,241,233,227,233,236,232,232,234,233,232,232,232,0,0,0,0,0,0,0,0,0,0,0,0,0,0,0,0,0,0,0,0,0,0,0,0,0,0,0,0,0,0,0,0,0,0,0,0,0,0,0,0,0,0,0,0,0,0,0,0,0,0,0,0,0,0,0,0,0,0,0,0,0,0,0,0,0,140,140,141,141,142,219,249,278,307,337,354,348,343,337,331,326,320,314,308,303,297,291,286,280,274,268,264,258,252,247,241,235,229,224,218,142,143,143,141,130,132,131,138,139,132,138,132,132,136,138,136,136,140,152,143,153,136,140,138,141,152,142,152,152,144,0,0,0,0,0,0,0,0,0,0,0,0,0,0,0,0,0,0,0,0,0,0,0,0,0,0,0,0,0,0,0,0,0,0,0,0,0,0,0,0,0,0,0,0,0,0,0,0,0,0,0,0,0,0,0,0,0,0,0,0,0,0,0,0,0,768,760,784,788,808,1264,1543,1725,1798,1892,1838,1810,1790,1755,1749,1699,1716,1646,1610,1592,1565,1530,1498,1455,1443,1398,1384,1353,1312,1166,993,860,800,804,770,779,750,751,745,745,751,753,749,749,752,758,756,766,768,766,753,759,755,761,765,770,760,761,753,758,758,761,765,781,754,653,655,676,672,689,1095,1323,1501,1661,1744,1705,1675,1645,1615,1585,1575,1526,1518,1466,1460,1486,1401,1372,1316,1310,1256,1226,1196,1184,1028,843,832,797,705,664,684,667,682,670,671,681,680,682,695,676,688,676,691,689,679,681,687,694,697,695,691,685,684,693,694,690,691,679,697,688,386,388,388,389,391,630,704,778,853,910,920,907,892,879,865,852,838,824,811,796,783,770,756,808,729,715,702,687,674,661,646,633,567,555,395,392,392,393,382,380,384,384,393,380,384,390,389,388,387,384,386,386,392,400,402,404,406,398,392,388,392,388,389,389,387,816,829,848,836,932,1354,1699,1901,1980,2045,1987,1992,1960,1914,1860,1827,1847,1764,1757,1724,1669,1636,1640,1594,1542,1509,1478,1446,1332,1194,1099,983,893,861,830,845,830,820,814,818,820,822,830,821,831,828,831,839,836,844,847,838,833,840,836,838,835,833,825,826,833,840,868,866,825,1266,1256,1306,1405,2266,2765,3199,3420,3585,3592,3555,3458,3410,3353,3276,3168,3113,3033,2965,2895,2806,2663,2420,2320,2215,2052,2000,1887,1621,1445,1396,1364,1331,1286,1272,1277,1291,1307,1323,1312,1314,1327,1327,1329,1327,1332,1331,1328,1334,1327,1329,1328,1327,1331,1327,1327,1328,1331,1327,1326,1328,1328,1327,1329,1325,1200,1199,1205,1219,1520,2366,2654,2854,2996,3014,2984,2930,2871,2832,2781,2691,2645,2623,2543,2512,2500,2407,2366,2186,2128,2018,1921,1661,1540,1320,1309,1283,1249,1228,1206,1222,1173,1167,1166,1164,1172,1186,1168,1192,1174,1179,1173,1175,1195,1176,1170,1183,1180,1204,1193,1188,1183,1189,1188,1189,1186,1193,1173,1187,1179,1071,1073,1084,1109,1263,2022,2414,2606,2706,2732,2686,2658,2632,2564,2516,2469,2419,2389,2369,2321,2257,2192,2145,2097,2044,1986,1737,1710,1389,1328,1240,1155,1125,1100,1088,1086,1022,1041,1029,1027,1046,1060,1038,1066,1039,1053,1047,1049,1069,1050,1044,1057,1054,1070,1066,1062,1051,1063,1062,1063,1060,1065,1047,1061,1053,129,130,130,165,196,201,227,252,278,304,321,316,312,307,302,296,291,286,282,277,272,266,261,256,252,247,241,236,231,226,222,216,211,206,201,196,198,198,74,74,74,73,74,75,73,77,75,74,78,75,75,74,73,77,73,73,74,75,73,73,74,73,73,72,71,140,140,141,141,142,219,249,278,307,337,354,348,343,337,331,326,320,314,308,303,297,291,286,280,274,268,264,258,252,247,241,235,229,224,218,142,143,143,141,130,132,131,138,139,132,138,132,132,136,138,136,136,140,152,143,153,136,140,138,141,152,142,152,152,144,654,656,657,659,666,1098,1478,1662,1811,1845,1840,1787,1766,1737,1692,1657,1622,1593,1557,1521,1485,1449,1413,1377,1341,1305,1269,1232,1198,1137,1096,940,723,679,667,667,680,676,647,647,647,647,647,647,647,647,647,647,647,647,647,647,647,647,647,647,647,647,647,647,647,647,647,647,647,758,760,762,764,781,994,1566,1760,1866,1892,1885,1856,1827,1800,1771,1761,1712,1732,1657,1627,1629,1569,1540,1519,1488,1459,1423,1388,1244,1135,924,866,838,784,790,772,775,733,699,699,699,699,699,699,699,699,699,699,699,699,699,699,699,699,699,699,699,699,699,699,699,699,699,699,699,0,0,0,0,0,0,0,0,0,0,0,0,0,0,0,0,0,0,0,0,0,0,0,0,0,0,0,0,0,0,0,0,0,0,0,0,0,0,0,0,0,0,0,0,0,0,0,0,0,0,0,0,0,0,0,0,0,0,0,0,0,0,0,0,0,251,251,259,252,281,284,428,503,541,575,596,588,582,575,569,566,558,550,543,534,524,524,504,475,494,459,453,443,437,427,419,333,328,304,258,254,274,256,200,200,200,200,200,200,200,200,200,200,200,200,200,200,200,200,200,200,200,200,200,200,200,200,200,200,200,508,510,512,513,533,545,950,1083,1184,1225,1226,1208,1191,1173,1156,1156,1120,1150,1084,1068,1081,1032,1014,996,976,961,952,931,887,869,850,693,551,545,513,516,518,512,474,474,474,474,474,474,474,474,474,474,474,474,474,474,474,474,474,474,474,474,474,474,474,474,474,474,474,192,193,193,194,195,306,346,387,428,469,484,477,469,462,453,446,439,430,423,415,408,399,392,384,376,368,361,352,345,337,330,321,314,306,298,196,196,295,173,173,173,173,173,173,173,173,173,173,173,173,173,173,173,173,173,173,173,173,173,173,173,173,173,173,173,1049,1073,1074,1060,1146,1730,2288,2482,2534,2572,2507,2510,2478,2426,2386,2363,2255,2285,2192,2201,2152,2108,2013,1955,1916,1717,1533,1408,1289,1296,1169,1156,1130,1103,1083,1079,1073,1045,1021,1021,1021,1021,1021,1021,1021,1021,1021,1021,1021,1021,1021,1021,1021,1021,1021,1021,1021,1021,1021,1021,1021,1021,1021,1021,1021,591,606,607,608,617,798,1161,1304,1434,1487,1486,1459,1404,1393,1388,1346,1345,1317,1268,1270,1246,1201,1200,1175,1151,1120,1105,1073,1022,1026,933,763,654,634,616,613,615,613,560,560,560,560,560,560,560,560,560,560,560,560,560,560,560,560,560,560,560,560,560,560,560,560,560,560,560,470,472,472,473,482,559,903,1006,1107,1161,1170,1147,1129,1110,1092,1072,1054,1035,1017,998,979,962,942,923,904,886,867,840,826,809,719,547,504,510,480,477,479,441,389,389,389,389,389,389,389,389,389,389,389,389,389,389,389,389,389,389,389,389,389,389,389,389,389,389,389,780,817,784,812,842,1077,1644,1853,1957,1981,1972,1944,1914,1885,1856,1844,1797,1816,1735,1710,1711,1649,1618,1594,1561,1536,1421,1394,1225,951,972,905,866,807,832,832,824,802,767,767,767,767,767,767,767,767,767,767,767,767,767,767,767,767,767,767,767,767,767,767,767,767,767,767,767,654,656,657,659,666,1098,1478,1662,1811,1845,1840,1787,1766,1737,1692,1657,1622,1593,1557,1521,1485,1449,1413,1377,1341,1305,1269,1232,1198,1137,1096,940,723,679,667,667,680,676,647,647,647,647,647,647,647,647,647,647,647,647,647,647,647,647,647,647,647,647,647,647,647,647,647,647,647,525,526,528,528,530,880,1047,1237,1391,1520,1506,1477,1450,1420,1392,1354,1330,1301,1270,1246,1208,1198,1149,1123,1094,1062,1033,1018,974,960,916,872,744,561,537,531,542,546,521,524,519,524,526,531,556,575,525,531,532,557,533,527,529,564,534,531,531,530,529,531,528,533,536,545,545,629,629,637,633,641,1058,1224,1406,1558,1682,1670,1642,1614,1580,1555,1512,1492,1460,1432,1404,1356,1337,1306,1280,1251,1219,1189,1150,1130,1101,1002,695,676,656,677,636,648,612,590,592,595,601,596,602,610,604,600,598,604,605,612,609,610,615,601,601,604,603,605,604,603,602,602,599,599,251,252,252,252,253,320,455,484,506,528,532,529,542,520,516,512,507,504,499,495,490,507,499,493,485,469,474,449,441,434,335,330,267,333,332,254,327,255,189,187,189,194,192,194,194,201,194,195,193,200,193,201,200,221,197,192,193,198,194,196,193,193,193,193,193,0,0,0,0,0,0,0,0,0,0,0,0,0,0,0,0,0,0,0,0,0,0,0,0,0,0,0,0,0,0,0,0,0,0,0,0,0,0,0,0,0,0,0,0,0,0,0,0,0,0,0,0,0,0,0,0,0,0,0,0,0,0,0,0,0,558,561,565,563,565,846,1042,1148,1256,1327,1334,1306,1286,1280,1261,1239,1219,1199,1179,1159,1139,1119,1086,1080,1059,1026,1020,985,978,960,939,745,591,577,568,566,568,571,524,526,526,527,529,528,527,529,525,529,525,525,527,530,530,530,530,528,527,525,532,530,526,526,526,527,525,388,390,391,392,395,545,726,797,872,898,898,905,891,878,866,853,841,831,819,802,789,808,798,752,742,727,714,686,582,571,562,552,521,492,396,394,395,377,351,355,354,359,360,360,362,369,358,362,357,364,359,369,369,374,368,360,358,364,362,362,357,357,357,357,357,1126,1150,1151,1187,1281,2134,2441,2641,2696,2702,2709,2631,2602,2534,2522,2458,2400,2394,2358,2311,2293,2262,2181,2092,1917,1723,1711,1506,1272,1306,1237,1282,1187,1166,1166,1135,1144,1133,1110,1117,1120,1124,1132,1141,1125,1155,1136,1150,1146,1145,1149,1138,1140,1153,1156,1149,1156,1142,1146,1151,1137,1149,1135,1153,1126,680,683,685,687,691,1029,1352,1482,1583,1634,1617,1592,1568,1530,1525,1483,1474,1450,1426,1402,1385,1369,1363,1312,1269,1265,1222,1181,928,910,870,802,717,709,692,691,692,670,649,658,661,657,668,673,673,685,672,677,673,677,681,670,675,685,686,674,688,677,671,680,669,681,667,682,655,547,549,550,552,554,882,1061,1163,1260,1315,1302,1284,1264,1245,1232,1208,1189,1170,1152,1132,1117,1124,1107,1057,1038,1023,1000,969,948,889,837,684,659,594,556,555,556,498,478,483,480,481,493,497,492,509,494,501,498,496,500,489,494,504,507,500,507,496,497,502,488,500,486,504,477,651,680,688,660,702,1111,1354,1621,1788,1867,1870,1770,1837,1705,1671,1678,1688,1584,1550,1502,1473,1450,1392,1382,1327,1312,1265,1237,1201,1166,1093,904,721,723,700,693,704,675,664,666,668,675,671,675,685,679,674,676,679,680,686,682,687,688,674,675,679,676,678,678,676,675,674,668,668,525,526,528,528,530,880,1047,1237,1391,1520,1506,1477,1450,1420,1392,1354,1330,1301,1270,1246,1208,1198,1149,1123,1094,1062,1033,1018,974,960,916,872,744,561,537,531,542,546,521,524,519,524,526,531,556,575,525,531,532,557,533,527,529,564,534,531,531,530,529,531,528,533,536,545,545,444,455,447,457,462,522,843,949,1045,1119,1134,1116,1097,1080,1061,1033,1027,1008,979,972,955,936,917,897,879,854,843,824,806,716,701,686,498,522,473,451,464,465,381,383,386,389,390,402,384,384,384,384,384,384,384,384,384,384,384,384,384,384,384,384,384,384,384,384,384,316,316,317,319,320,343,569,642,708,771,791,779,766,754,741,726,717,700,688,678,666,653,640,625,613,603,588,574,562,545,487,476,465,332,324,320,321,322,249,253,254,258,258,264,252,252,252,252,252,252,252,252,252,252,252,252,252,252,252,252,252,252,252,252,252,598,599,591,607,616,1021,1154,1278,1386,1447,1431,1411,1393,1376,1348,1328,1307,1287,1266,1238,1224,1255,1182,1161,1112,1090,1068,1046,1040,1003,924,844,638,623,618,610,612,579,572,572,575,581,572,593,582,588,583,589,584,581,587,584,588,589,592,587,582,590,585,592,589,583,593,590,589,666,668,672,675,736,1165,1392,1489,1568,1637,1637,1614,1590,1567,1543,1517,1462,1468,1445,1421,1362,1400,1310,1286,1297,1235,1210,1186,1160,1027,875,820,708,691,700,677,679,663,665,664,657,665,663,664,677,665,680,665,669,665,665,670,674,665,678,669,675,672,671,677,674,671,660,671,663,0,0,0,0,0,0,0,0,0,0,0,0,0,0,0,0,0,0,0,0,0,0,0,0,0,0,0,0,0,0,0,0,0,0,0,0,0,0,0,0,0,0,0,0,0,0,0,0,0,0,0,0,0,0,0,0,0,0,0,0,0,0,0,0,0,644,656,664,652,684,1122,1290,1440,1542,1586,1608,1560,1534,1509,1484,1459,1432,1435,1382,1357,1357,1413,1280,1255,1230,1204,1179,1174,1129,1102,902,843,684,668,676,655,656,647,639,646,644,650,671,672,675,683,666,678,677,671,688,666,671,684,670,661,676,673,660,672,676,720,680,684,669,1475,1490,1514,1618,2152,3243,3475,3591,3643,3682,3617,3558,3489,3440,3387,3338,3276,3175,3010,2854,2701,2556,2253,1893,1892,1871,1812,1760,1712,1692,1608,1559,1524,1516,1498,1505,1529,1526,1535,1538,1532,1542,1557,1538,1558,1558,1562,1564,1567,1568,1568,1560,1566,1568,1568,1566,1568,1568,1562,1568,1568,1568,1568,1568,1568,1094,1111,1115,1127,1300,2120,2415,2534,2619,2633,2625,2580,2517,2488,2438,2397,2378,2308,2272,2247,2210,2247,2106,2082,2021,1917,1780,1599,1566,1376,1205,1173,1133,1138,1126,1100,1076,1069,1068,1080,1074,1078,1089,1086,1088,1095,1089,1091,1099,1101,1105,1095,1098,1107,1103,1098,1111,1102,1091,1106,1110,1131,1114,1116,1101,951,964,968,979,1061,1786,2066,2197,2283,2331,2323,2260,2231,2203,2150,2118,2081,2035,2006,1962,1935,2000,1856,1822,1786,1687,1653,1418,1386,1236,1069,1016,1004,999,977,964,904,898,893,899,898,903,913,905,912,917,913,916,918,920,924,914,917,928,929,917,930,928,913,925,929,950,936,938,923,364,365,367,368,370,494,652,720,792,860,879,866,853,840,826,813,800,787,772,759,746,733,720,706,693,680,666,652,639,535,523,513,502,382,373,369,371,372,318,321,319,325,332,339,325,325,325,325,325,325,325,325,325,325,325,325,325,325,325,325,325,325,325,325,325,444,455,447,457,462,522,843,949,1045,1119,1134,1116,1097,1080,1061,1033,1027,1008,979,972,955,936,917,897,879,854,843,824,806,716,701,686,498,522,473,451,464,465,381,383,386,389,390,402,384,384,384,384,384,384,384,384,384,384,384,384,384,384,384,384,384,384,384,384,384,714,716,717,719,726,1337,1621,1832,1965,1999,1983,1945,1906,1869,1831,1843,1754,1730,1678,1651,1613,1563,1536,1488,1449,1411,1372,1334,1297,1253,1030,858,771,738,737,725,731,769,734,731,738,740,738,742,760,737,738,754,762,752,756,769,758,755,780,780,748,756,763,753,762,765,773,768,755,818,820,822,824,841,1426,1801,1980,2105,2143,2140,2102,2067,2032,1989,2000,1912,1885,1834,1795,1757,1719,1681,1644,1609,1567,1532,1490,1316,1125,1043,1014,866,845,833,830,814,842,812,812,813,822,822,823,830,828,816,824,820,820,820,846,827,829,852,857,832,826,822,827,823,825,842,827,822,144,144,144,203,204,225,255,285,315,344,361,355,350,344,338,332,326,321,315,309,303,298,292,286,280,274,270,264,258,252,247,241,235,229,223,204,219,220,133,132,136,137,139,135,136,141,135,136,136,136,144,137,133,137,142,160,132,135,136,138,136,139,136,133,132,310,319,312,314,314,466,580,636,702,760,769,757,747,733,721,710,705,684,672,670,648,636,624,612,598,598,577,562,561,540,526,514,503,398,318,315,316,316,295,291,295,293,299,301,293,298,299,304,307,294,300,300,299,317,301,300,294,316,297,338,299,298,294,317,319,624,632,638,638,649,885,1202,1365,1479,1559,1521,1497,1474,1452,1471,1407,1384,1362,1353,1335,1294,1273,1243,1227,1206,1170,1160,1149,1106,1005,821,688,779,649,636,657,637,632,611,610,614,618,628,618,618,619,616,621,618,623,625,617,614,621,624,628,616,616,616,622,618,624,618,615,612,0,0,0,0,0,0,0,0,0,0,0,0,0,0,0,0,0,0,0,0,0,0,0,0,0,0,0,0,0,0,0,0,0,0,0,0,0,0,0,0,0,0,0,0,0,0,0,0,0,0,0,0,0,0,0,0,0,0,0,0,0,0,0,0,0,972,977,985,974,1036,1421,2102,2270,2329,2380,2384,2344,2280,2286,2234,2184,2142,2082,2057,2011,2004,1943,1932,1862,1833,1631,1749,1405,1199,1186,1120,1088,1038,1011,994,987,965,974,953,950,958,960,955,958,964,961,964,960,971,971,970,969,967,971,969,968,969,969,963,972,968,968,968,968,968,530,520,532,525,536,702,999,1111,1233,1303,1316,1284,1242,1223,1205,1202,1161,1138,1115,1118,1097,1056,1060,1040,997,980,976,935,856,838,819,684,646,557,533,533,533,528,490,492,491,499,497,494,496,509,494,497,498,498,502,501,499,504,501,498,494,501,498,497,497,497,497,497,497,384,385,388,388,391,463,704,787,869,948,964,948,933,916,902,886,870,856,840,823,808,788,774,758,742,727,716,697,626,612,573,475,442,410,392,390,391,366,318,321,316,318,321,319,320,328,318,319,322,323,321,320,318,323,320,319,320,320,317,323,319,319,319,319,319,840,877,844,881,903,1513,1915,2106,2238,2306,2257,2222,2186,2153,2159,2086,2050,2009,1988,1942,1918,1840,1838,1783,1688,1642,1624,1578,1225,1129,1119,970,934,900,895,887,888,907,886,885,887,897,895,900,903,902,894,899,895,894,893,914,900,902,921,921,905,899,896,900,896,897,911,896,891,714,716,717,719,726,1337,1621,1832,1965,1999,1983,1945,1906,1869,1831,1843,1754,1730,1678,1651,1613,1563,1536,1488,1449,1411,1372,1334,1297,1253,1030,858,771,738,737,725,731,769,734,731,738,740,738,742,760,737,738,754,762,752,756,769,758,755,780,780,748,756,763,753,762,765,773,768,755,1280,1268,1312,1441,2340,3068,3378,3591,3660,3648,3595,3582,3423,3350,3301,3205,3132,3058,3064,2961,2839,2700,2570,2439,2104,2036,1941,1831,1668,1454,1405,1370,1320,1308,1290,1297,1322,1321,1398,1399,1412,1433,1413,1428,1416,1410,1409,1419,1485,1440,1454,1457,1460,1604,1554,1486,1423,1429,1437,1436,1434,1434,1425,1542,1439,1239,1242,1283,1517,2493,2976,3319,3535,3603,3592,3602,3529,3435,3360,3250,3154,3082,3010,2960,3015,2917,2557,2409,2284,2112,1977,1830,1787,1642,1540,1380,1345,1296,1284,1300,1301,1297,1296,1375,1375,1388,1409,1411,1409,1415,1387,1390,1394,1468,1398,1443,1445,1448,1526,1464,1455,1399,1404,1412,1408,1406,1408,1399,1519,1519,1033,1032,1046,1045,1097,1901,2230,2351,2472,2462,2495,2435,2395,2393,2327,2274,2238,2202,2192,2122,2112,2072,1976,2000,1920,1918,1755,1524,1406,1283,1175,1098,1106,1055,1064,1054,1016,974,963,962,980,994,973,1001,982,981,994,992,1011,986,986,988,985,1015,1018,991,988,995,987,994,992,1010,991,1022,995,1166,1157,1152,1173,1269,2085,2455,2675,2758,2767,2733,2720,2691,2655,2602,2482,2506,2441,2360,2380,2316,2254,2212,2204,2143,2081,1738,1507,1313,1379,1252,1262,1176,1204,1174,1142,1159,1130,1118,1119,1127,1147,1120,1152,1141,1140,1141,1146,1158,1137,1138,1132,1139,1168,1170,1142,1139,1148,1144,1153,1151,1169,1150,1161,1154,1522,1520,1547,1632,2164,3042,3397,3474,3569,3544,3558,3481,3424,3412,3338,3259,3215,3169,2966,2684,2632,2272,1912,1919,1872,1812,1786,1827,1739,1695,1633,1596,1582,1545,1556,1527,1494,1452,1441,1443,1458,1468,1445,1473,1453,1451,1464,1464,1483,1457,1457,1459,1456,1486,1489,1463,1461,1468,1458,1465,1462,1479,1460,1491,1464,954,953,966,964,999,1722,2035,2163,2287,2280,2318,2260,2223,2225,2161,2111,2077,2044,2037,1969,1962,1924,1831,1857,1782,1782,1640,1477,1392,1251,1068,1018,1027,977,984,975,936,894,883,882,890,901,882,908,888,887,900,899,918,892,892,894,891,921,924,898,896,903,893,901,897,915,896,927,900,0,0,0,0,0,0,0,0,0,0,0,0,0,0,0,0,0,0,0,0,0,0,0,0,0,0,0,0,0,0,0,0,0,0,0,0,0,0,0,0,0,0,0,0,0,0,0,0,0,0,0,0,0,0,0,0,0,0,0,0,0,0,0,0,0,570,556,548,560,596,893,1088,1241,1314,1387,1340,1378,1355,1334,1309,1256,1265,1244,1191,1199,1148,1126,1123,1109,1067,1021,999,1001,974,920,620,631,592,600,566,553,579,570,564,562,564,586,570,577,568,572,572,580,585,570,573,582,584,621,615,581,570,577,571,576,572,578,572,571,568,702,698,711,712,719,1163,1407,1537,1667,1680,1729,1680,1652,1660,1602,1570,1543,1515,1520,1461,1464,1435,1354,1380,1324,1324,1276,1221,1207,919,864,756,829,720,724,717,719,678,670,666,675,683,664,689,674,673,683,680,699,675,675,675,672,704,706,679,674,682,676,683,681,699,682,713,686,1207,1210,1245,1332,2412,2895,3241,3458,3478,3519,3469,3458,3254,3230,3183,3088,3018,2947,2854,2853,2691,2662,2480,2351,2250,2078,2020,1896,1655,1476,1348,1313,1241,1252,1211,1240,1264,1264,1329,1335,1344,1358,1352,1364,1353,1353,1346,1359,1372,1362,1357,1376,1420,1491,1441,1416,1362,1372,1381,1372,1369,1367,1365,1440,1439,1280,1268,1312,1441,2340,3068,3378,3591,3660,3648,3595,3582,3423,3350,3301,3205,3132,3058,3064,2961,2839,2700,2570,2439,2104,2036,1941,1831,1668,1454,1405,1370,1320,1308,1290,1297,1322,1321,1398,1399,1412,1433,1413,1428,1416,1410,1409,1419,1485,1440,1454,1457,1460,1604,1554,1486,1423,1429,1437,1436,1434,1434,1425,1542,1439,1007,1009,1012,1034,1398,1925,2336,2539,2641,2668,2643,2626,2526,2495,2430,2396,2372,2297,2249,2225,2157,2115,2083,2011,1972,1928,1864,1728,1434,1209,1199,1120,1051,1058,1042,1028,1035,1042,1022,1031,1026,1029,1042,1035,1035,1038,1042,1064,1050,1048,1049,1049,1051,1046,1047,1044,1054,1065,1053,1068,1049,1048,1064,1060,1056,1110,1115,1130,1149,1405,2105,2481,2697,2778,2823,2796,2784,2683,2651,2586,2551,2527,2452,2403,2382,2318,2257,2231,2052,2022,1942,1864,1666,1500,1241,1232,1224,1158,1154,1147,1113,1108,1120,1103,1106,1086,1082,1117,1100,1112,1119,1108,1109,1116,1114,1117,1119,1125,1119,1112,1128,1122,1125,1127,1120,1123,1113,1118,1112,1110,506,522,509,524,524,669,956,1068,1204,1280,1251,1264,1212,1231,1172,1152,1160,1112,1092,1072,1052,1032,1012,1029,972,952,932,912,892,773,568,555,560,528,547,536,516,509,434,431,433,435,450,450,450,449,450,453,455,454,451,453,455,454,452,455,457,457,455,456,456,456,454,453,453,616,618,618,622,661,881,1170,1276,1409,1508,1508,1484,1464,1435,1407,1383,1358,1339,1318,1287,1270,1252,1226,1198,1171,1150,1144,1100,1083,936,760,750,728,639,632,625,625,607,593,587,588,592,596,601,597,600,605,606,602,606,599,604,604,598,606,608,609,607,600,605,602,605,610,611,590,988,996,1002,1020,1076,1627,2014,2203,2369,2407,2368,2344,2304,2290,2229,2190,2162,2114,2076,2037,2006,1971,1929,1892,1860,1826,1737,1632,1300,1232,1212,1058,1052,1024,1010,1010,996,975,912,909,914,920,921,923,921,922,920,923,926,926,923,924,926,925,923,926,928,929,928,929,926,928,923,922,922,428,443,430,444,437,548,800,895,1012,1088,1064,1080,1029,1043,996,979,990,944,927,910,894,876,859,877,825,808,790,774,757,613,576,562,532,448,458,456,436,418,354,351,353,355,359,357,359,356,356,359,361,361,358,359,361,360,358,361,363,364,363,364,362,363,359,358,358,497,511,512,513,506,605,817,1067,1172,1235,1230,1239,1216,1198,1175,1157,1130,1110,1075,1078,1057,1037,1019,979,933,926,920,902,867,883,834,744,599,585,520,506,518,510,478,485,482,495,496,484,492,504,482,496,490,500,499,505,497,503,497,495,501,502,512,491,494,500,501,497,492,0,0,0,0,0,0,0,0,0,0,0,0,0,0,0,0,0,0,0,0,0,0,0,0,0,0,0,0,0,0,0,0,0,0,0,0,0,0,0,0,0,0,0,0,0,0,0,0,0,0,0,0,0,0,0,0,0,0,0,0,0,0,0,0,0,192,193,194,195,195,301,343,383,422,468,486,478,470,463,454,447,439,432,423,416,408,400,392,385,376,369,361,354,345,338,330,322,314,307,298,196,223,224,138,138,139,139,140,140,140,141,142,142,142,142,141,142,142,141,141,143,144,143,143,145,145,145,143,144,144,1168,1152,1161,1208,1473,2282,2694,2844,2936,2994,2984,2947,2820,2855,2712,2728,2665,2588,2498,2501,2397,2378,2314,2238,2092,1928,1802,1672,1532,1340,1295,1249,1213,1196,1204,1187,1182,1181,1176,1180,1161,1155,1194,1175,1186,1197,1183,1184,1190,1187,1194,1192,1198,1193,1187,1201,1195,1199,1200,1193,1195,1182,1187,1181,1179,1007,1009,1012,1034,1398,1925,2336,2539,2641,2668,2643,2626,2526,2495,2430,2396,2372,2297,2249,2225,2157,2115,2083,2011,1972,1928,1864,1728,1434,1209,1199,1120,1051,1058,1042,1028,1035,1042,1022,1031,1026,1029,1042,1035,1035,1038,1042,1064,1050,1048,1049,1049,1051,1046,1047,1044,1054,1065,1053,1068,1049,1048,1064,1060,1056,923,926,910,918,1045,1527,2075,2312,2405,2435,2420,2367,2320,2274,2226,2230,2149,2104,2059,2013,1969,1932,1878,1833,1791,1745,1698,1666,1434,1246,1011,981,952,932,922,924,929,929,884,893,887,890,903,895,898,897,900,920,908,906,908,907,909,905,906,901,910,922,910,923,904,903,921,916,916,1027,1031,1015,1033,1151,1705,2184,2464,2550,2598,2571,2523,2475,2429,2389,2381,2294,2260,2214,2168,2124,2085,2032,1993,1934,1900,1853,1676,1438,1228,1162,1084,1058,1036,1027,1028,1001,1007,965,968,969,974,983,976,989,978,968,969,974,972,984,977,983,978,985,985,978,982,984,980,985,967,975,971,971,367,369,336,337,339,456,652,733,766,823,834,820,807,794,781,768,753,740,727,714,700,687,674,661,648,634,621,608,651,580,567,520,476,453,343,340,340,341,296,293,294,296,309,310,310,308,308,311,313,312,310,311,313,313,311,312,313,314,312,311,311,311,311,309,309,518,521,504,517,516,619,951,1062,1173,1231,1234,1218,1195,1178,1156,1136,1117,1098,1077,1060,1039,1018,999,992,960,940,932,903,924,862,685,627,630,552,512,508,510,494,455,449,449,453,456,465,457,459,467,470,460,466,458,462,465,457,465,465,465,465,463,464,468,470,470,468,468,850,853,830,823,864,1241,1666,1862,1940,2011,1974,1944,1914,1903,1893,1825,1820,1764,1736,1729,1675,1662,1616,1584,1555,1520,1490,1459,1300,1170,1084,890,858,840,832,829,854,818,774,771,772,777,787,784,782,780,779,781,783,784,782,782,784,784,782,783,784,786,785,784,782,782,781,778,778,289,290,257,258,259,315,509,571,577,628,643,632,621,612,601,591,580,571,560,549,540,529,519,508,499,488,477,468,514,447,436,389,416,313,305,260,260,261,216,213,214,216,219,217,219,215,214,217,219,219,217,217,219,219,217,218,219,221,220,219,217,218,216,214,214,726,711,744,736,748,1070,1441,1618,1714,1802,1797,1764,1712,1710,1662,1650,1605,1589,1542,1549,1486,1490,1446,1436,1378,1345,1196,1154,1201,1060,908,780,778,759,753,745,752,740,706,707,711,719,719,718,722,717,711,726,727,726,726,726,725,728,726,727,726,727,726,726,727,727,725,726,726,267,267,276,276,277,418,472,525,580,634,664,654,644,633,624,612,601,592,581,571,560,550,539,529,519,508,497,488,477,466,456,445,435,425,319,278,279,280,249,246,252,260,252,254,253,259,253,255,254,252,258,258,258,260,258,257,251,259,258,251,256,259,257,258,258,0,0,0,0,0,0,0,0,0,0,0,0,0,0,0,0,0,0,0,0,0,0,0,0,0,0,0,0,0,0,0,0,0,0,0,0,0,0,0,0,0,0,0,0,0,0,0,0,0,0,0,0,0,0,0,0,0,0,0,0,0,0,0,0,0,1061,1054,1064,1095,1181,1880,2271,2546,2661,2685,2675,2637,2593,2537,2496,2469,2420,2380,2310,2286,2253,2200,2154,2068,2008,1977,1939,1585,1407,1386,1143,1110,1079,1094,1084,1086,1075,1081,1039,1041,1043,1049,1056,1053,1064,1052,1046,1044,1049,1046,1057,1054,1056,1051,1060,1060,1051,1055,1058,1053,1060,1039,1044,1040,1040,923,926,910,918,1045,1527,2075,2312,2405,2435,2420,2367,2320,2274,2226,2230,2149,2104,2059,2013,1969,1932,1878,1833,1791,1745,1698,1666,1434,1246,1011,981,952,932,922,924,929,929,884,893,887,890,903,895,898,897,900,920,908,906,908,907,909,905,906,901,910,922,910,923,904,903,921,916,916,221,222,223,224,224,349,397,442,488,536,556,547,538,530,520,512,502,494,486,476,468,458,450,440,432,423,414,405,396,387,379,369,361,351,298,224,225,226,191,197,194,196,198,198,197,199,194,198,195,195,198,198,224,224,202,199,198,196,219,202,197,196,196,196,196,147,147,148,148,222,230,260,291,322,352,370,364,358,352,346,340,334,328,322,316,310,304,298,294,288,282,276,270,264,258,252,246,240,234,228,222,223,223,144,139,139,139,141,141,140,141,138,144,141,139,141,141,140,140,143,142,141,141,141,144,141,142,141,143,142,790,804,795,807,901,1404,1604,1788,1880,1946,1979,1904,1884,1836,1803,1773,1753,1772,1704,1675,1621,1608,1560,1533,1501,1458,1432,1388,1374,1166,990,894,841,825,805,801,782,779,775,781,783,788,790,794,791,795,789,792,791,789,792,796,795,781,787,793,789,788,793,791,786,787,787,787,787,672,658,703,697,720,1100,1397,1653,1771,1827,1801,1770,1738,1752,1694,1644,1653,1592,1573,1542,1525,1462,1426,1389,1360,1317,1281,1263,1209,1028,921,813,737,685,691,705,694,680,659,645,653,651,657,669,653,663,656,662,673,668,668,675,680,688,682,677,665,672,680,677,666,667,667,667,667,431,432,433,434,437,686,794,878,963,1020,1028,1012,998,982,967,951,936,920,906,890,874,886,843,829,813,798,782,766,751,736,721,704,670,449,440,436,437,439,431,430,432,435,468,432,437,447,438,437,436,436,435,441,448,453,480,480,475,478,443,436,444,435,450,438,433,848,852,878,884,973,1549,1842,1945,2037,2092,2151,2074,2016,2006,1933,1899,1867,1869,1838,1808,1778,1716,1699,1635,1602,1588,1556,1492,1443,1260,1135,914,885,889,884,872,888,856,865,874,864,876,873,869,880,888,879,869,874,894,901,879,884,886,881,877,881,881,874,878,878,900,886,877,870,1199,1204,1224,1296,2202,2699,3082,3296,3433,3445,3397,3325,3250,3205,3111,3051,2983,2917,2840,2762,2713,2630,2487,2412,2230,2105,2017,1937,1764,1550,1352,1283,1255,1220,1204,1232,1228,1236,1260,1256,1262,1265,1295,1269,1283,1294,1277,1300,1307,1294,1305,1297,1299,1304,1313,1298,1281,1286,1280,1278,1268,1290,1290,1290,1290,1177,1160,1214,1246,1364,2319,2692,2856,2987,3069,3019,2982,2898,2860,2790,2736,2682,2638,2572,2533,2464,2421,2366,2348,2159,2079,1949,1781,1582,1317,1330,1280,1241,1192,1175,1195,1192,1181,1143,1160,1149,1191,1150,1167,1160,1175,1167,1169,1163,1160,1169,1168,1179,1174,1180,1191,1180,1173,1195,1176,1179,1193,1193,1193,1193,1075,1104,1102,1137,1278,2072,2470,2707,2761,2808,2822,2741,2691,2667,2603,2548,2502,2457,2440,2358,2329,2275,2231,2169,2086,2060,1838,1710,1452,1236,1237,1165,1137,1108,1115,1086,1049,1036,1017,1026,1023,1048,1024,1041,1034,1049,1041,1043,1037,1034,1043,1042,1053,1048,1054,1062,1054,1047,1063,1050,1053,1067,1067,1067,1067,0,0,0,0,0,0,0,0,0,0,0,0,0,0,0,0,0,0,0,0,0,0,0,0,0,0,0,0,0,0,0,0,0,0,0,0,0,0,0,0,0,0,0,0,0,0,0,0,0,0,0,0,0,0,0,0,0,0,0,0,0,0,0,0,0,221,222,223,224,224,349,397,442,488,536,556,547,538,530,520,512,502,494,486,476,468,458,450,440,432,423,414,405,396,387,379,369,361,351,298,224,225,226,191,197,194,196,198,198,197,199,194,198,195,195,198,198,224,224,202,199,198,196,219,202,197,196,196,196,196,0,0,0,0,0,0,0,0,0,0,0,0,0,0,0,0,0,0,0,0,0,0,0,0,0,0,0,0,0,0,0,0,0,0,0,0,0,0,0,0,0,0,0,0,0,0,0,0,0,0,0,0,0,0,0,0,0,0,0,0,0,0,0,0,0,204,204,205,206,207,216,367,410,452,495,513,505,496,489,481,472,464,456,447,440,432,423,415,406,398,390,382,374,366,357,232,227,222,216,211,207,208,208,198,188,190,190,196,199,192,193,193,193,195,196,194,194,199,198,202,199,194,198,196,199,196,201,204,204,203,744,745,748,758,816,1374,1595,1793,1914,1961,1949,1915,1880,1844,1810,1775,1742,1705,1671,1636,1605,1570,1535,1500,1466,1431,1394,1360,1230,1107,933,910,794,823,759,757,761,717,711,721,716,718,715,733,724,731,731,736,734,723,737,732,739,738,735,735,737,734,738,732,733,739,735,743,735,625,577,578,580,652,999,1179,1376,1504,1526,1522,1496,1527,1442,1432,1407,1381,1334,1329,1303,1278,1251,1224,1171,1144,1141,1090,1063,1036,1050,992,882,770,615,586,584,588,591,590,592,583,591,583,592,587,595,602,595,596,603,608,608,606,619,618,605,602,600,603,610,601,602,608,608,607,529,531,532,534,549,687,1000,1107,1215,1270,1276,1257,1238,1218,1198,1179,1160,1141,1122,1102,1083,1063,1044,1024,1005,986,967,948,927,908,777,737,679,596,558,536,538,539,518,518,527,535,523,525,521,525,524,521,523,525,523,528,526,530,530,536,532,532,531,534,534,539,542,551,535,834,850,853,861,917,1561,1835,2028,2139,2192,2171,2138,2089,2050,2032,1981,1936,1898,1860,1828,1806,1762,1724,1675,1630,1555,1493,1456,1369,1183,1132,942,896,879,848,878,832,836,846,859,860,854,872,858,873,876,870,863,874,863,874,866,876,873,872,884,871,875,867,866,864,863,872,873,855,1360,1361,1416,1512,2376,2898,3573,3718,3802,3808,3753,3676,3591,3525,3459,3367,3276,3198,3139,3052,2959,2703,2552,2208,2098,1896,1790,1740,1590,1540,1504,1439,1404,1383,1396,1367,1388,1410,1457,1453,1456,1460,1453,1457,1457,1459,1457,1456,1460,1455,1457,1453,1455,1458,1457,1457,1453,1455,1453,1453,1457,1455,1457,1464,1459,1118,1122,1107,1139,1400,2189,2545,2718,2815,2832,2822,2760,2694,2670,2611,2529,2526,2460,2419,2365,2302,2275,2219,2179,2128,1884,1930,1803,1609,1382,1252,1225,1183,1140,1133,1136,1094,1088,1098,1073,1078,1086,1081,1090,1090,1144,1093,1089,1096,1088,1093,1093,1093,1093,1097,1092,1101,1097,1092,1088,1095,1176,1096,1094,1094,993,1020,999,1021,1161,1965,2225,2410,2513,2549,2528,2539,2437,2394,2348,2312,2269,2224,2180,2134,2089,2044,2057,1955,1911,1875,1828,1708,1480,1364,1101,1097,1047,1023,1010,1032,942,947,957,947,952,960,955,964,964,996,967,963,970,962,967,967,967,967,971,966,975,971,966,962,969,1027,970,968,968,215,216,216,216,217,227,386,430,475,518,535,526,518,510,501,493,484,476,468,459,451,442,434,426,417,409,400,392,384,375,244,239,233,228,222,218,219,219,221,216,210,212,228,234,221,230,228,233,232,239,241,235,234,241,233,227,233,236,232,232,234,233,232,232,232,0,0,0,0,0,0,0,0,0,0,0,0,0,0,0,0,0,0,0,0,0,0,0,0,0,0,0,0,0,0,0,0,0,0,0,0,0,0,0,0,0,0,0,0,0,0,0,0,0,0,0,0,0,0,0,0,0,0,0,0,0,0,0,0,0 ]);
