n = 30;
D = [282,261,246,221,297,209,259,124,298,131,201,195,211,125,210,185,208,133,153,74,78,138,144,157,247,104,200,262,287,201 ];
q = 0;
prec = array2d(1..0,1..2,[]);
steps = 64;
l = 360;
r = 0;
which = [];
interval = array2d(1..0,1..2,[]);
T = array3d(1..31,1..31,0..64,[0,0,0,0,0,0,0,0,0,0,0,0,0,0,0,0,0,0,0,0,0,0,0,0,0,0,0,0,0,0,0,0,0,0,0,0,0,0,0,0,0,0,0,0,0,0,0,0,0,0,0,0,0,0,0,0,0,0,0,0,0,0,0,0,0,618,620,621,623,632,677,765,853,937,994,1016,1000,984,968,952,936,920,904,888,872,856,840,824,808,792,776,760,744,728,712,696,680,664,648,634,627,629,630,623,624,628,634,639,631,631,630,632,633,649,642,653,664,660,646,630,640,645,636,630,644,637,638,636,642,637,948,883,885,873,961,1021,1155,1285,1464,1405,1429,1451,1356,1333,1312,1395,1267,1246,1224,1225,1202,1212,1235,1135,1172,1136,1081,1127,1051,1017,957,934,930,892,879,952,877,937,898,908,904,923,922,924,913,925,914,919,913,909,913,928,921,928,935,937,937,931,939,932,930,966,946,958,950,1094,1169,1091,1109,1183,1288,1441,1572,1652,1698,1709,1684,1659,1628,1603,1583,1558,1606,1508,1482,1457,1432,1407,1382,1356,1332,1306,1281,1256,1230,1192,1177,1151,1119,1120,1100,1102,1119,1137,1134,1137,1146,1126,1143,1139,1142,1158,1196,1145,1152,1156,1157,1156,1175,1180,1160,1152,1150,1156,1165,1150,1158,1154,1162,1157,568,570,587,602,594,680,731,832,942,969,1003,987,913,895,914,889,878,838,861,839,833,814,797,748,729,738,702,700,699,669,644,650,609,604,593,604,581,611,603,572,580,587,573,601,586,593,592,586,613,586,584,586,584,602,599,590,585,591,587,590,592,590,588,619,598,715,717,736,704,796,827,937,1020,1148,1175,1255,1139,1112,1093,1100,1154,1062,1020,1001,1007,1010,941,949,931,933,867,853,855,818,837,799,762,762,726,729,751,727,729,729,736,720,825,752,732,739,755,740,731,738,748,751,733,725,735,738,744,735,736,726,736,726,740,744,738,717,732,765,768,783,788,920,960,1145,1212,1288,1286,1265,1161,1189,1167,1168,1128,1066,1134,1070,1009,989,1040,951,932,994,894,900,891,856,818,856,800,787,778,775,777,804,755,760,768,774,772,781,767,778,768,792,777,774,781,783,794,808,794,789,795,787,798,802,799,806,791,797,793,967,947,974,1003,1059,1160,1333,1526,1509,1564,1576,1559,1540,1497,1499,1480,1415,1484,1404,1354,1329,1332,1388,1261,1236,1228,1203,1162,1153,1091,1050,1041,1016,1002,978,982,980,964,970,966,983,998,971,985,975,978,978,986,1004,997,989,996,996,1005,996,1000,986,1001,1000,999,1005,999,996,1020,1020,1121,1076,1103,1085,1208,1332,1474,1611,1685,1755,1736,1771,1654,1627,1716,1597,1627,1518,1490,1543,1489,1491,1370,1375,1448,1379,1412,1245,1218,1256,1188,1136,1150,1086,1073,1089,1072,1077,1120,1108,1111,1120,1115,1129,1182,1187,1115,1151,1134,1131,1123,1168,1176,1190,1179,1154,1180,1190,1200,1174,1152,1152,1127,1124,1126,293,294,294,295,296,308,343,378,421,446,459,455,450,445,440,427,430,425,407,400,394,387,380,374,367,361,369,347,341,334,327,321,314,316,301,304,297,298,285,288,289,299,299,297,295,314,289,307,305,339,299,300,308,310,297,297,307,317,307,297,300,303,294,294,294,715,761,720,700,768,805,913,1020,1108,1149,1176,1123,1112,1093,1068,1082,1038,1020,1062,1007,982,946,928,930,913,873,854,836,818,857,781,762,762,726,700,726,711,708,720,716,715,723,706,717,714,717,735,799,721,737,746,743,741,751,761,731,723,730,737,746,733,738,741,751,736,1575,1577,1630,1723,1920,2136,2348,2404,2466,2483,2456,2391,2383,2383,2307,2293,2272,2192,2199,2137,2098,2084,1999,1967,1933,1954,1878,1818,1781,1752,1681,1685,1664,1628,1622,1598,1616,1588,1739,1692,1705,1709,1734,1701,1709,1720,1715,1746,1757,1746,1746,1877,1758,1742,1881,1757,1749,1762,1766,1758,1764,1761,1776,1790,1800,254,255,255,256,257,269,305,340,376,411,423,416,410,403,396,390,383,376,369,363,356,349,343,336,339,322,316,309,302,296,289,282,275,269,262,258,258,259,245,247,245,253,318,292,270,299,276,320,286,294,291,257,265,288,274,258,302,272,256,289,282,314,293,280,277,1019,999,1026,1084,1149,1227,1411,1550,1582,1636,1647,1629,1643,1565,1567,1550,1481,1548,1468,1417,1392,1393,1363,1321,1322,1286,1259,1230,1208,1146,1104,1094,1068,1054,1031,1055,1032,1016,1083,1083,1058,1067,1062,1084,1075,1090,1091,1162,1083,1123,1120,1124,1092,1173,1129,1081,1081,1073,1110,1141,1122,1157,1139,1141,1114,693,696,712,722,738,829,905,1008,1128,1175,1188,1167,1101,1078,1093,1067,1049,1010,1017,1015,984,937,949,901,882,886,844,855,836,796,776,780,740,732,723,726,702,735,737,709,714,726,714,720,720,729,720,720,722,713,725,729,733,728,730,724,716,732,724,717,717,740,725,735,723,606,608,624,634,638,713,773,895,975,1025,1040,1022,959,938,956,932,931,880,890,881,862,858,832,787,814,777,761,751,735,713,680,686,648,643,635,636,615,645,614,610,609,614,629,626,621,628,633,656,639,649,640,642,638,636,646,639,645,647,648,656,647,653,655,660,647,517,525,503,506,509,554,635,712,783,829,836,833,810,797,767,759,759,745,713,720,708,695,682,664,658,644,611,602,606,592,563,550,537,523,520,508,509,511,513,510,524,522,531,531,527,534,527,544,541,539,534,531,526,534,531,531,530,527,522,529,526,530,526,536,526,1296,1225,1214,1308,1449,1535,1783,1896,1995,2004,2100,2068,1911,1827,1883,1897,1802,1732,1727,1745,1703,1646,1599,1562,1582,1505,1475,1484,1373,1423,1339,1315,1302,1267,1206,1282,1324,1271,1355,1299,1300,1314,1298,1309,1322,1317,1342,1392,1327,1348,1440,1342,1346,1435,1351,1336,1332,1344,1432,1504,1531,1567,1567,1396,1390,1080,1083,1064,1127,1188,1274,1485,1586,1699,1673,1747,1664,1658,1667,1608,1611,1583,1568,1528,1588,1472,1444,1368,1341,1331,1332,1302,1274,1246,1173,1193,1120,1099,1115,1101,1057,1060,1085,1096,1121,1131,1098,1105,1120,1142,1133,1124,1114,1175,1111,1137,1116,1130,1146,1159,1170,1156,1127,1137,1137,1127,1121,1119,1181,1098,836,841,825,794,890,961,1067,1191,1299,1314,1361,1312,1253,1277,1248,1232,1193,1192,1163,1166,1125,1088,1060,1079,1057,1015,999,978,951,944,893,869,869,820,818,832,851,833,831,830,836,841,848,854,847,843,844,848,854,854,896,909,934,890,861,866,858,877,861,845,862,839,852,859,836,1305,1321,1319,1343,1538,1709,1851,2142,2028,2074,2101,2027,1993,1960,1972,1938,1846,1830,1783,1801,1755,1811,1680,1655,1621,1661,1570,1517,1457,1475,1418,1386,1359,1320,1308,1350,1295,1326,1374,1378,1420,1677,1435,1366,1432,1517,1445,1395,1490,1470,1411,1420,1498,1482,1460,1373,1409,1406,1448,1455,1382,1434,1401,1397,1401,410,411,428,440,429,463,506,565,624,696,727,715,657,647,675,643,637,604,635,618,571,561,570,539,528,536,507,516,519,474,464,453,442,442,436,416,418,419,406,415,414,417,418,419,416,418,411,429,414,415,418,422,432,441,433,424,425,417,430,426,426,430,420,430,422,744,746,757,751,776,843,956,1083,1156,1223,1227,1230,1188,1168,1162,1129,1109,1177,1070,1062,1031,1011,1010,990,952,933,913,894,874,864,835,825,811,776,761,770,772,774,766,762,776,814,794,798,792,769,785,802,804,782,810,815,835,815,817,801,776,787,776,781,774,787,782,821,767,726,766,730,733,804,850,969,1087,1175,1214,1212,1192,1172,1153,1133,1113,1093,1073,1053,1033,1013,993,973,953,966,913,893,898,854,834,814,794,774,754,740,738,740,742,733,748,744,748,769,741,753,770,751,747,762,746,764,755,769,771,924,874,783,762,755,749,747,743,762,784,741,872,819,821,825,860,938,1062,1185,1270,1321,1337,1316,1295,1273,1252,1231,1210,1263,1244,1146,1125,1104,1082,1061,1040,1019,997,976,955,934,912,891,870,849,835,829,831,833,839,846,840,877,863,852,862,875,853,874,879,870,864,858,852,861,855,863,855,856,851,847,847,858,853,855,835,650,649,666,682,687,779,834,938,1075,1085,1115,1100,1025,1062,1100,1028,982,992,968,945,923,921,897,839,826,832,789,791,788,748,724,782,694,684,672,684,664,694,661,676,674,689,748,718,691,737,687,771,715,749,718,693,716,744,717,697,740,713,703,728,717,754,718,715,701,513,527,517,530,537,577,650,726,769,834,840,827,841,828,815,792,771,781,744,715,717,704,689,675,647,648,652,622,607,592,584,566,552,539,526,530,524,560,519,525,526,553,529,540,524,531,525,523,533,529,526,538,537,544,532,540,538,538,542,533,533,547,521,533,527,914,916,823,928,886,968,1136,1191,1309,1328,1374,1331,1330,1423,1258,1265,1243,1268,1199,1292,1155,1232,1093,1072,1067,1045,1023,1001,979,936,936,893,878,947,856,836,838,841,850,840,844,847,882,879,891,884,874,901,876,863,877,852,854,870,868,861,881,854,851,873,874,896,884,889,881,1143,1218,1140,1165,1248,1361,1523,1654,1732,1776,1786,1760,1733,1702,1675,1654,1627,1674,1574,1548,1521,1495,1468,1442,1415,1390,1362,1336,1309,1283,1244,1227,1200,1168,1169,1149,1152,1169,1197,1198,1203,1222,1228,1229,1223,1233,1216,1248,1237,1236,1233,1264,1277,1271,1260,1233,1216,1233,1222,1215,1204,1233,1219,1236,1197,1298,1288,1256,1318,1417,1575,1756,1863,2027,1952,1974,1986,1884,1867,1823,1915,1782,1730,1712,1691,1780,1660,1706,1566,1592,1548,1486,1555,1454,1395,1354,1296,1324,1260,1259,1346,1275,1315,1321,1311,1340,1350,1356,1391,1341,1357,1361,1372,1402,1364,1369,1410,1425,1415,1388,1366,1356,1380,1355,1358,1356,1386,1363,1384,1369,0,0,0,0,0,0,0,0,0,0,0,0,0,0,0,0,0,0,0,0,0,0,0,0,0,0,0,0,0,0,0,0,0,0,0,0,0,0,0,0,0,0,0,0,0,0,0,0,0,0,0,0,0,0,0,0,0,0,0,0,0,0,0,0,0,720,742,724,726,745,810,918,1025,1115,1176,1187,1168,1149,1130,1111,1092,1073,1054,1036,1017,998,979,960,941,922,903,884,865,846,827,809,790,771,752,737,731,733,735,732,745,733,748,752,755,744,761,744,748,740,741,738,751,751,748,748,748,749,741,756,759,744,753,740,752,744,0,0,0,0,0,0,0,0,0,0,0,0,0,0,0,0,0,0,0,0,0,0,0,0,0,0,0,0,0,0,0,0,0,0,0,0,0,0,0,0,0,0,0,0,0,0,0,0,0,0,0,0,0,0,0,0,0,0,0,0,0,0,0,0,0,1192,1161,1164,1200,1312,1549,1729,1900,2025,2080,2017,1999,1906,1909,1871,1897,1756,1732,1759,1664,1619,1585,1542,1516,1546,1511,1423,1479,1364,1320,1311,1251,1217,1234,1169,1177,1182,1229,1259,1227,1237,1239,1268,1307,1262,1275,1269,1276,1329,1284,1289,1300,1298,1312,1257,1267,1285,1303,1300,1299,1276,1294,1298,1276,1276,627,628,630,631,639,685,758,831,901,968,959,945,931,918,904,890,877,863,849,835,830,816,802,781,767,753,739,737,715,702,689,676,663,649,638,634,635,637,632,632,629,642,640,634,641,654,641,645,652,657,732,731,737,680,654,642,649,651,639,645,651,639,640,644,640,1022,1022,1025,1069,1121,1288,1438,1555,1672,1664,1693,1652,1597,1604,1544,1527,1534,1507,1540,1423,1390,1363,1340,1310,1316,1280,1249,1238,1181,1157,1143,1104,1119,1053,1052,1039,1065,1061,1074,1073,1118,1387,1128,1060,1110,1205,1142,1081,1176,1154,1101,1111,1187,1165,1157,1067,1103,1096,1144,1144,1087,1126,1091,1093,1111,1149,1153,1193,1216,1285,1525,1659,1792,1863,1880,1882,1878,1779,1793,1722,1739,1678,1649,1734,1589,1566,1552,1522,1492,1461,1430,1376,1381,1340,1338,1277,1250,1220,1199,1219,1190,1218,1173,1213,1230,1238,1257,1259,1241,1239,1274,1237,1242,1253,1229,1251,1249,1262,1267,1419,1366,1273,1251,1253,1244,1234,1230,1245,1275,1228,1183,1187,1234,1234,1414,1627,1705,1817,2075,1916,2008,1917,1845,1815,1785,1754,1848,1693,1769,1750,1674,1608,1541,1580,1504,1519,1441,1486,1402,1328,1374,1268,1305,1216,1216,1201,1219,1288,1266,1285,1282,1297,1312,1292,1291,1327,1291,1291,1305,1284,1307,1306,1320,1325,1476,1425,1332,1310,1314,1305,1298,1299,1318,1348,1298,495,496,498,499,480,562,608,723,766,816,832,841,782,769,756,743,730,739,745,691,678,680,691,677,664,612,599,606,596,571,571,558,545,528,497,493,494,482,491,492,499,515,504,500,507,517,499,504,508,515,530,522,532,517,496,500,507,514,511,495,506,515,502,506,503,1529,1513,1598,1656,1797,2028,2326,2472,2448,2527,2398,2491,2304,2372,2229,2287,2168,2130,2210,2054,2015,2085,1960,1991,1909,1824,1863,1776,1709,1692,1646,1689,1588,1611,1553,1579,1566,1539,1700,1697,1692,1723,1749,1744,1726,1727,1739,1786,1739,1778,1792,1776,1733,1758,1749,1756,1759,1736,1788,1843,1807,1819,1820,1765,1758,621,623,624,626,640,721,794,886,971,1014,1020,1004,987,971,955,939,923,907,982,874,858,842,826,809,793,777,779,776,729,712,711,680,680,648,634,630,646,649,648,622,626,629,625,634,634,644,638,634,641,633,636,636,634,640,639,637,640,639,636,631,638,642,642,648,645,959,966,969,977,1058,1205,1408,1586,1658,1694,1662,1652,1616,1573,1540,1514,1484,1465,1447,1405,1365,1335,1297,1276,1246,1237,1196,1163,1146,1107,1066,1052,1017,982,973,976,981,991,1019,1001,1009,1004,1006,1004,1080,1075,1008,1047,1032,1012,1007,1068,1070,1087,1078,1088,1075,1099,1093,1063,1045,1037,1014,1012,1013,1868,1924,2075,2162,2417,2779,2959,3049,3118,3183,3093,3116,2951,2912,2931,2942,2735,2679,2722,2594,2519,2477,2477,2430,2399,2347,2223,2268,2193,2122,2061,2015,1940,1917,1923,1919,1926,1972,2272,2264,2274,2301,2381,2375,2336,2359,2359,2384,2446,2440,2455,2502,2475,2477,2506,2508,2534,2567,2603,2550,2559,2600,2643,2638,2611,703,706,708,710,743,845,917,1024,1124,1152,1156,1137,1119,1100,1093,1063,1045,1027,1107,990,971,953,934,916,897,879,883,873,824,805,802,777,769,732,718,714,730,737,729,735,728,740,744,739,737,754,726,740,736,735,731,745,743,740,739,740,743,738,751,749,733,744,731,740,735,546,548,549,551,533,657,672,795,840,890,926,912,852,839,825,811,797,825,810,756,742,743,753,738,724,672,658,664,678,627,636,636,622,603,549,545,546,534,541,531,534,541,559,526,531,533,537,555,559,555,550,676,555,541,674,557,549,556,561,559,556,552,570,568,575,1141,1147,1149,1184,1280,1479,1636,1750,1874,1849,1872,1850,1787,1754,1731,1706,1708,1639,1716,1583,1553,1527,1487,1469,1433,1404,1395,1377,1315,1287,1271,1229,1251,1173,1173,1160,1180,1187,1235,1234,1214,1226,1218,1248,1227,1236,1264,1311,1243,1262,1262,1261,1253,1283,1277,1252,1252,1242,1258,1282,1251,1265,1274,1264,1250,1144,1109,1116,1081,1160,1352,1546,1618,1775,1848,1820,1712,1725,1697,1598,1576,1598,1584,1599,1463,1549,1483,1375,1358,1325,1298,1350,1276,1280,1192,1178,1138,1162,1176,1130,1137,1139,1097,1133,1174,1139,1152,1160,1143,1151,1157,1165,1157,1169,1153,1168,1160,1164,1168,1175,1182,1176,1180,1205,1168,1189,1215,1234,1210,1202,1001,1005,990,1040,1075,1171,1345,1471,1582,1635,1628,1613,1559,1535,1509,1518,1460,1435,1434,1408,1382,1320,1307,1299,1257,1217,1229,1216,1142,1117,1118,1095,1039,1035,1003,997,1017,1045,1035,1028,1040,1063,1050,1052,1047,1050,1057,1059,1060,1047,1084,1082,1104,1084,1077,1063,1039,1063,1051,1047,1042,1072,1052,1077,1043,1471,1461,1497,1563,1732,1995,2272,2422,2462,2557,2407,2388,2337,2313,2242,2200,2158,2149,2097,2044,1993,1951,1901,1887,1859,1805,1790,1794,1770,1661,1577,1572,1539,1508,1487,1472,1488,1491,1585,1586,1581,1601,1629,1646,1619,1632,1614,1642,1663,1639,1647,1637,1658,1666,1664,1642,1643,1667,1663,1671,1655,1647,1665,1694,1670,562,564,566,568,576,629,711,830,876,922,1017,912,897,883,868,853,871,824,809,825,780,765,750,735,749,706,691,677,662,647,633,618,603,588,575,594,614,574,567,570,573,602,573,586,569,576,571,563,580,576,605,617,613,587,575,586,584,587,591,579,579,593,568,580,576,1034,1022,1039,1060,1152,1283,1537,1682,1775,1778,1783,1734,1726,1681,1619,1618,1567,1566,1547,1503,1435,1408,1390,1367,1311,1324,1266,1241,1229,1187,1125,1129,1078,1057,1049,1052,1036,1047,1050,1039,1066,1100,1083,1083,1054,1070,1075,1119,1084,1084,1107,1164,1177,1162,1167,1104,1080,1119,1091,1085,1083,1120,1090,1129,1077,1698,1632,1683,1793,1993,2371,2485,2638,2747,2788,2752,2716,2635,2573,2562,2537,2388,2354,2519,2292,2207,2162,2152,2072,2184,2042,1989,1987,1889,1895,1788,1757,1685,1703,1639,1649,1681,1744,1866,1877,1847,1866,1864,1914,1873,1904,1922,1995,1900,1935,1908,1924,1907,1955,1932,1902,1915,1897,1909,1943,1924,1952,1931,1946,1910,860,863,866,872,918,1057,1173,1285,1416,1404,1422,1381,1358,1336,1313,1291,1269,1246,1322,1202,1179,1157,1135,1155,1090,1068,1067,1054,1001,978,971,934,963,890,889,873,890,897,913,879,891,912,897,900,893,902,899,907,906,893,908,940,958,940,939,911,891,919,901,896,888,923,905,928,899,281,282,283,283,284,299,338,378,418,457,469,462,454,447,439,432,424,417,409,402,394,387,379,407,399,357,350,342,335,327,320,312,305,297,290,285,286,287,279,280,280,277,279,278,282,281,279,284,279,282,285,280,286,285,285,282,281,280,282,282,282,286,282,281,284,735,737,739,741,784,885,1037,1195,1275,1310,1293,1282,1260,1223,1189,1176,1153,1141,1130,1094,1060,1036,1004,990,966,963,929,896,892,858,819,811,788,756,742,749,752,756,747,761,761,774,768,760,766,770,764,771,767,775,772,779,794,792,776,779,774,762,774,768,779,768,767,774,766,344,345,346,347,348,370,418,466,514,558,569,560,551,542,533,524,515,506,497,488,479,470,461,452,443,434,426,417,408,399,390,381,372,363,354,349,350,351,346,345,334,343,340,342,356,354,358,347,342,339,334,341,343,343,361,345,348,343,349,347,365,349,338,340,338,1095,1101,1104,1159,1215,1404,1558,1791,1851,1812,1804,1769,1713,1718,1746,1637,1642,1672,1644,1518,1491,1462,1431,1414,1414,1373,1339,1363,1262,1236,1220,1179,1199,1127,1126,1113,1139,1141,1159,1165,1211,1471,1213,1152,1202,1303,1241,1173,1275,1242,1192,1199,1276,1258,1242,1160,1181,1188,1225,1233,1162,1218,1183,1189,1195,772,791,745,748,777,859,974,1088,1217,1215,1217,1198,1217,1197,1139,1120,1100,1081,1152,1042,1023,1036,984,964,945,925,906,917,867,847,828,864,827,769,756,752,754,756,754,793,751,749,770,754,762,771,767,782,791,761,767,772,777,778,775,791,782,781,797,769,786,791,809,772,769,346,347,348,349,350,372,421,470,519,565,575,566,557,548,539,530,520,511,502,493,484,475,466,456,447,438,429,420,411,402,392,383,374,365,356,351,352,353,342,341,339,340,349,350,379,355,347,354,349,351,349,346,343,351,347,348,353,346,343,350,349,353,351,349,347,675,677,678,680,694,747,828,959,1018,1050,1039,1024,1055,994,978,963,948,933,918,903,897,882,866,843,828,813,798,794,771,756,742,727,713,699,687,683,705,686,692,677,670,675,694,703,691,705,713,722,702,735,741,725,702,730,715,718,743,710,741,817,779,795,785,745,747,1558,1554,1546,1638,1817,2125,2345,2461,2574,2713,2547,2520,2499,2406,2367,2353,2272,2204,2241,2111,2065,2023,1972,1956,1978,1939,1835,1909,1758,1732,1688,1605,1596,1587,1591,1579,1539,1602,1683,1670,1674,1673,1804,1710,1712,1721,1702,1713,1793,1800,1719,1724,1725,1754,1879,1751,1729,1732,1762,1749,1738,1727,1759,1788,1763,720,742,724,726,745,810,918,1025,1115,1176,1187,1168,1149,1130,1111,1092,1073,1054,1036,1017,998,979,960,941,922,903,884,865,846,827,809,790,771,752,737,731,733,735,732,745,733,748,752,755,744,761,744,748,740,741,738,751,751,748,748,748,749,741,756,759,744,753,740,752,744,998,986,1005,1005,1085,1194,1380,1518,1565,1601,1627,1613,1545,1519,1518,1538,1444,1433,1393,1367,1367,1316,1291,1265,1240,1238,1188,1186,1139,1112,1118,1061,1036,1013,1018,1026,1029,1031,1030,1042,1038,1053,1082,1047,1030,1042,1046,1082,1088,1085,1112,1075,1069,1047,1119,1080,1058,1089,1133,1103,1080,1055,1116,1107,1074,1311,1340,1373,1425,1534,1819,1899,2034,2088,2134,2256,2232,2074,2119,1971,1954,1900,1919,1855,1908,1779,1733,1709,1744,1651,1666,1587,1593,1486,1515,1441,1460,1405,1375,1370,1365,1382,1378,1445,1426,1441,1442,1458,1498,1459,1474,1471,1479,1478,1481,1483,1496,1491,1501,1466,1466,1487,1479,1486,1501,1481,1499,1483,1481,1484,0,0,0,0,0,0,0,0,0,0,0,0,0,0,0,0,0,0,0,0,0,0,0,0,0,0,0,0,0,0,0,0,0,0,0,0,0,0,0,0,0,0,0,0,0,0,0,0,0,0,0,0,0,0,0,0,0,0,0,0,0,0,0,0,0,1391,1390,1440,1544,1738,1975,2263,2446,2464,2521,2444,2378,2394,2321,2315,2261,2175,2131,2077,2050,2006,1962,1917,1867,1855,1779,1740,1708,1652,1581,1563,1541,1602,1582,1421,1447,1430,1462,1560,1568,1608,1885,1633,1557,1621,1725,1636,1601,1694,1671,1610,1613,1683,1672,1654,1571,1596,1593,1633,1639,1568,1619,1588,1588,1580,416,417,418,420,421,453,514,574,634,682,691,680,669,658,647,636,625,614,603,592,581,570,559,548,537,526,515,504,493,482,472,459,450,437,426,422,423,424,415,423,418,432,425,433,420,426,418,418,422,418,416,431,425,430,427,433,430,432,441,433,427,440,418,427,423,251,252,253,253,254,266,301,337,372,407,421,415,408,401,394,388,381,374,367,361,354,347,340,334,327,320,313,307,300,293,286,280,273,266,259,255,256,256,248,236,241,243,238,256,242,256,254,245,261,247,248,248,246,253,246,246,249,250,247,246,248,251,248,255,248,756,758,761,763,793,877,993,1113,1217,1231,1256,1237,1200,1179,1177,1140,1164,1146,1097,1116,1043,1021,1002,984,986,942,923,903,883,861,844,825,804,824,771,809,769,771,778,781,779,791,779,787,784,798,797,778,795,784,790,784,786,794,789,790,785,794,785,792,786,802,789,795,790,1051,1049,1052,1097,1219,1409,1654,1852,1881,1934,1881,1846,1850,1752,1789,1742,1665,1630,1585,1568,1533,1497,1462,1420,1419,1350,1321,1298,1250,1215,1179,1167,1106,1082,1086,1073,1080,1086,1131,1114,1128,1124,1122,1118,1193,1192,1123,1161,1147,1122,1120,1182,1187,1206,1191,1200,1183,1204,1210,1183,1160,1150,1124,1127,1133,444,446,480,449,451,487,595,615,680,728,737,725,714,703,690,728,667,703,644,678,665,608,596,585,573,561,550,538,526,514,502,491,479,467,456,452,453,454,431,433,446,470,435,433,432,439,444,434,437,438,434,441,438,441,440,444,442,452,444,450,447,476,470,475,479,761,734,736,738,765,845,994,1113,1201,1212,1263,1235,1218,1206,1121,1187,1118,1099,1045,1105,1007,988,1037,988,931,912,893,940,855,836,817,798,779,760,746,743,745,747,753,756,752,764,768,768,777,785,764,769,772,778,774,774,777,783,774,767,772,775,770,766,762,777,764,771,755,462,447,448,450,456,493,554,620,677,733,772,730,718,673,694,682,670,636,624,613,623,611,599,587,575,564,552,540,528,516,504,492,480,469,457,453,454,455,450,453,452,455,453,458,453,456,453,457,456,450,452,452,456,461,458,455,455,453,456,458,452,462,450,458,453,752,754,749,758,782,842,966,1051,1149,1203,1184,1186,1168,1131,1131,1113,1094,1059,1057,1022,1020,1002,983,950,946,928,900,877,872,883,836,817,786,772,766,755,765,766,769,760,759,774,760,764,815,812,766,799,784,767,764,799,838,874,828,827,829,836,825,808,804,787,769,776,771,740,727,729,746,776,863,974,1061,1175,1215,1189,1196,1151,1132,1137,1147,1099,1079,1059,1040,999,1002,983,952,924,905,907,867,873,829,826,791,787,753,754,751,753,756,752,754,756,762,760,758,767,761,763,760,766,760,766,761,771,779,774,784,772,770,774,764,769,770,774,778,768,1136,1135,1138,1195,1295,1539,1708,1903,1972,1976,1935,1901,1907,1810,1833,1823,1783,1746,1649,1633,1642,1570,1531,1524,1487,1450,1386,1379,1344,1309,1258,1246,1164,1168,1145,1152,1139,1145,1174,1202,1198,1207,1289,1231,1222,1280,1218,1285,1259,1266,1250,1216,1249,1272,1411,1344,1297,1249,1225,1244,1230,1261,1250,1274,1211,534,536,535,537,546,593,675,754,832,873,884,866,875,838,827,813,799,803,768,774,743,747,731,700,683,669,658,658,627,616,599,585,586,559,559,542,544,545,563,532,536,538,533,542,540,550,544,570,547,538,540,541,542,541,547,546,542,545,541,541,542,545,544,552,549,537,539,535,540,549,594,675,753,830,871,905,864,854,837,826,812,799,785,767,757,743,729,742,701,680,671,660,646,629,618,601,588,584,562,570,542,543,545,534,531,532,532,536,537,539,540,541,546,545,549,555,550,548,554,553,552,553,556,562,568,565,565,575,572,577,747,768,756,752,794,864,985,1100,1196,1226,1218,1216,1188,1160,1144,1129,1110,1098,1059,1026,1044,1012,975,969,943,931,905,905,873,873,831,817,799,779,766,755,781,758,767,790,740,737,764,753,759,764,766,783,807,766,764,783,792,785,755,786,786,787,814,769,776,778,810,754,749,564,565,567,569,577,631,715,799,881,944,984,919,904,897,874,859,844,829,828,799,798,769,754,739,724,709,694,680,665,650,635,620,605,600,576,572,574,575,571,579,570,602,575,596,573,602,580,588,586,579,593,585,599,602,599,598,598,595,605,593,598,608,605,616,614,1637,1617,1682,1819,2010,2346,2501,2764,2726,2720,2668,2655,2615,2569,2550,2585,2448,2404,2340,2336,2279,2168,2196,2096,2144,2038,1955,1956,1902,1817,1781,1733,1696,1651,1660,1660,1657,1667,1828,1815,1816,1831,1831,1854,1859,1866,1847,1862,1887,1871,1949,1941,1953,1919,1895,1859,1872,1881,1873,1888,1882,1866,1887,1930,1889,490,488,496,498,543,545,623,698,759,802,811,799,787,764,755,742,730,707,704,692,719,666,645,648,628,623,639,625,612,580,556,543,527,518,502,498,499,500,487,481,490,508,483,493,486,495,486,485,492,486,483,486,487,491,491,495,487,488,491,488,491,496,485,500,493,475,477,478,479,482,520,588,655,722,902,780,768,755,743,731,719,706,694,682,670,657,645,633,621,609,596,584,572,560,547,535,523,511,537,487,482,483,485,477,478,495,521,501,475,495,517,503,486,521,510,492,496,526,513,513,484,494,499,509,507,495,503,494,490,493,539,540,542,544,563,601,680,759,855,882,888,892,860,846,832,818,804,805,775,761,747,733,719,705,691,690,663,661,634,620,639,592,578,564,551,558,560,561,548,548,546,559,549,552,552,555,553,555,555,552,559,556,559,556,556,562,562,561,559,554,563,563,561,561,561,1331,1354,1357,1414,1581,1796,2047,2232,2256,2293,2247,2284,2208,2127,2157,2121,1995,1959,1934,1898,1858,1819,1783,1734,1728,1656,1614,1573,1534,1495,1465,1439,1386,1364,1358,1382,1363,1367,1429,1435,1438,1456,1473,1470,1463,1470,1455,1479,1478,1478,1463,1468,1476,1482,1479,1467,1464,1466,1458,1452,1442,1478,1468,1467,1430,747,749,751,750,787,877,998,1120,1207,1240,1240,1220,1204,1179,1159,1143,1122,1102,1082,1061,1041,1020,1000,979,959,938,918,897,877,857,836,816,792,775,816,758,761,763,772,766,771,769,771,768,772,777,777,777,768,776,778,790,784,784,782,789,782,782,778,795,786,790,775,778,781,1114,1113,1099,1133,1256,1536,1663,1858,1990,1933,1892,1859,1865,1768,1792,1762,1765,1680,1609,1594,1560,1526,1492,1452,1452,1385,1349,1372,1310,1256,1222,1211,1152,1149,1122,1118,1192,1129,1197,1197,1185,1205,1243,1239,1215,1210,1230,1262,1233,1271,1265,1261,1207,1214,1241,1249,1250,1222,1268,1318,1260,1253,1269,1242,1241,348,349,350,351,352,374,423,472,521,566,577,568,559,550,541,531,522,513,504,495,486,477,467,458,449,440,431,422,412,403,394,385,376,367,358,353,354,355,354,347,361,411,369,347,349,354,353,388,412,370,377,371,363,357,356,373,349,353,347,349,354,349,354,360,361,680,682,684,686,701,786,887,975,1076,1117,1120,1141,1084,1066,1048,1031,1013,1020,976,958,940,915,909,877,906,857,839,822,788,779,761,743,725,707,694,690,692,686,691,686,692,698,700,697,702,700,708,700,697,697,700,717,731,721,723,715,695,714,703,694,705,695,701,707,686,1396,1419,1504,1497,1676,1951,2152,2507,2358,2392,2345,2304,2302,2261,2248,2211,2226,2085,2057,2116,2073,1900,1977,1812,1867,1850,1688,1779,1717,1594,1639,1514,1452,1430,1507,1421,1531,1530,1559,1551,1544,1562,1562,1590,1590,1605,1581,1595,1612,1606,1680,1674,1680,1652,1628,1590,1608,1604,1593,1624,1612,1598,1609,1656,1611,1381,1357,1434,1526,1695,2016,2306,2405,2424,2465,2404,2323,2380,2324,2286,2186,2101,2092,2057,2012,1968,1932,1896,1829,1818,1713,1675,1632,1588,1551,1527,1480,1440,1392,1426,1410,1418,1426,1480,1455,1455,1461,1499,1520,1501,1496,1491,1499,1537,1525,1556,1524,1544,1535,1575,1516,1533,1566,1596,1574,1548,1556,1595,1654,1555,371,378,379,374,381,406,459,512,565,611,622,612,602,583,583,573,563,553,544,534,524,514,504,495,485,475,465,455,446,436,426,416,406,397,387,382,383,384,377,380,379,377,379,379,384,387,379,383,379,381,385,384,388,386,387,385,383,383,388,387,383,387,385,386,386,998,986,1005,1005,1085,1194,1380,1518,1565,1601,1627,1613,1545,1519,1518,1538,1444,1433,1393,1367,1367,1316,1291,1265,1240,1238,1188,1186,1139,1112,1118,1061,1036,1013,1018,1026,1029,1031,1030,1042,1038,1053,1082,1047,1030,1042,1046,1082,1088,1085,1112,1075,1069,1047,1119,1080,1058,1089,1133,1103,1080,1055,1116,1107,1074,1234,1237,1245,1280,1392,1538,1715,1855,1928,1961,1933,1903,1927,1844,1815,1800,1756,1849,1697,1667,1638,1608,1579,1549,1520,1490,1461,1431,1402,1372,1343,1313,1285,1263,1252,1251,1254,1267,1304,1310,1284,1297,1302,1321,1317,1340,1332,1337,1358,1333,1335,1341,1349,1350,1325,1352,1345,1355,1365,1349,1342,1351,1351,1325,1328,638,639,641,643,657,713,792,871,944,979,983,969,1010,940,926,912,898,950,884,856,842,828,814,800,786,772,758,744,730,716,702,688,674,660,649,646,647,649,636,633,642,664,639,646,644,657,652,641,654,641,668,668,676,661,648,647,642,663,648,639,646,663,647,659,645,1171,1233,1177,1213,1340,1649,1811,1978,2060,2135,2130,2015,1978,1991,1960,1915,1879,1791,1753,1716,1679,1641,1604,1567,1596,1535,1455,1417,1380,1342,1305,1268,1231,1255,1188,1191,1199,1242,1245,1242,1253,1261,1260,1268,1260,1288,1269,1279,1269,1267,1275,1275,1277,1273,1282,1295,1279,1290,1282,1276,1281,1291,1285,1295,1271,0,0,0,0,0,0,0,0,0,0,0,0,0,0,0,0,0,0,0,0,0,0,0,0,0,0,0,0,0,0,0,0,0,0,0,0,0,0,0,0,0,0,0,0,0,0,0,0,0,0,0,0,0,0,0,0,0,0,0,0,0,0,0,0,0,1325,1324,1306,1360,1515,1765,2012,2173,2251,2261,2237,2202,2156,2115,2078,2035,1999,2024,1956,1922,1837,1792,1797,1752,1671,1670,1590,1584,1543,1469,1429,1419,1351,1321,1311,1355,1354,1374,1411,1422,1369,1382,1414,1407,1405,1426,1426,1424,1468,1420,1424,1435,1440,1441,1415,1457,1475,1453,1482,1457,1433,1443,1476,1418,1421,1243,1245,1249,1312,1446,1669,1939,2119,2184,2209,2162,2129,2079,2057,2017,1966,1928,1894,1848,1829,1764,1721,1692,1656,1612,1582,1538,1498,1459,1419,1385,1337,1303,1284,1258,1256,1272,1275,1332,1358,1305,1321,1352,1341,1335,1355,1334,1342,1373,1338,1365,1365,1374,1372,1359,1371,1374,1379,1432,1353,1353,1371,1425,1374,1343,1415,1418,1470,1564,1680,1952,2174,2342,2496,2396,2370,2509,2323,2299,2203,2161,2172,2166,2099,1997,1984,1910,1913,1873,1811,1769,1701,1687,1662,1634,1533,1545,1455,1472,1479,1437,1448,1454,1542,1533,1541,1603,1573,1583,1580,1551,1557,1578,1572,1570,1559,1597,1656,1679,1591,1567,1571,1568,1559,1558,1550,1577,1557,1583,1536,397,398,399,400,402,429,486,543,600,650,661,651,640,629,619,608,598,587,577,566,556,545,534,524,513,503,492,482,471,461,450,439,429,418,408,403,404,405,395,395,399,415,400,402,400,409,400,400,401,397,407,410,417,411,408,406,399,415,406,397,401,418,406,411,401,1613,1656,1663,1815,1999,2357,2566,2672,2740,2800,2784,2679,2613,2609,2616,2517,2471,2373,2326,2278,2230,2182,2171,2146,2064,2006,2068,1895,1854,1799,1751,1718,1668,1726,1628,1648,1640,1685,1804,1827,1816,1834,1879,1840,1838,1848,1843,1845,1868,1857,1850,1856,1859,1865,1902,1885,1873,1871,1917,1857,1873,1889,1899,1889,1871,1102,1104,1167,1135,1247,1428,1626,1746,1812,1907,1852,1793,1805,1738,1742,1670,1655,1664,1600,1550,1533,1546,1478,1462,1414,1454,1368,1336,1301,1266,1221,1195,1161,1147,1117,1153,1128,1135,1181,1173,1170,1176,1170,1191,1242,1243,1180,1208,1195,1180,1182,1221,1231,1245,1241,1219,1229,1241,1250,1226,1204,1212,1187,1190,1183,973,980,977,990,1084,1272,1491,1664,1761,1779,1755,1730,1689,1656,1631,1590,1557,1524,1492,1459,1426,1399,1360,1327,1300,1261,1228,1195,1162,1129,1097,1064,1036,1001,987,990,1002,1004,1003,1019,1020,1030,1053,1028,1029,1062,1023,1037,1035,1024,1027,1037,1055,1060,1206,1150,1061,1043,1043,1034,1022,1022,1035,1053,1017,1755,1780,1867,2167,2572,2884,2984,3166,3244,3223,3259,3121,3080,3006,2967,2904,2847,2752,2707,2638,2584,2540,2491,2398,2329,2259,2189,2120,2057,1980,1917,1845,1808,1798,1790,1824,1824,1850,2194,2117,2113,2139,2126,2174,2206,2200,2180,2262,2174,2177,2268,2215,2226,2309,2223,2229,2211,2243,2306,2361,2389,2409,2389,2217,2199,1220,1222,1240,1234,1361,1597,1767,1884,1948,2039,1998,1933,1990,1862,1854,1845,1783,1814,1748,1661,1641,1673,1592,1564,1514,1515,1499,1465,1392,1355,1358,1280,1244,1234,1201,1250,1212,1219,1276,1250,1254,1259,1257,1265,1260,1260,1271,1340,1267,1277,1289,1290,1292,1303,1319,1304,1292,1292,1294,1304,1298,1297,1299,1312,1310,448,472,451,452,454,486,549,611,673,724,771,759,711,700,688,677,665,654,674,631,620,608,597,585,574,563,551,540,528,517,505,518,483,471,460,455,456,457,447,444,453,448,444,453,448,445,449,462,471,464,463,467,465,465,462,463,455,465,465,465,467,461,458,473,483,1536,1444,1444,1511,1697,2001,2205,2362,2472,2443,2416,2385,2329,2286,2253,2200,2168,2190,2112,2075,1995,1940,1970,2011,1988,1813,1724,1715,1671,1618,1551,1539,1471,1442,1461,1477,1499,1502,1543,1536,1541,1596,1552,1568,1549,1568,1572,1573,1597,1574,1587,1578,1566,1590,1620,1582,1577,1589,1585,1586,1590,1581,1603,1621,1594,1447,1443,1442,1511,1696,1994,2203,2360,2470,2442,2410,2385,2329,2286,2253,2200,2164,2191,2112,2076,1996,1941,1971,1984,1894,1815,1726,1717,1673,1621,1554,1542,1474,1445,1461,1480,1498,1505,1581,1543,1565,1582,1581,1594,1583,1594,1603,1619,1605,1616,1642,1674,1693,1682,1617,1608,1594,1634,1620,1621,1602,1633,1627,1625,1605,1394,1389,1420,1535,1647,1914,2104,2256,2362,2362,2342,2294,2301,2224,2177,2122,2117,2113,2002,1968,1927,1872,1934,1895,1749,1758,1670,1628,1639,1547,1506,1506,1433,1465,1404,1410,1426,1450,1475,1481,1491,1514,1501,1507,1495,1510,1490,1491,1507,1497,1529,1543,1531,1514,1510,1522,1518,1529,1528,1505,1529,1529,1514,1517,1512,1461,1477,1507,1641,1763,2080,2295,2524,2522,2541,2507,2467,2499,2413,2374,2287,2230,2185,2161,2142,2052,2038,1995,1970,1880,1828,1827,1738,1694,1667,1619,1560,1545,1520,1481,1556,1494,1538,1621,1627,1671,1948,1696,1618,1680,1782,1698,1667,1765,1733,1673,1674,1747,1736,1721,1634,1656,1658,1696,1702,1629,1681,1651,1649,1644,636,642,640,641,656,711,791,870,956,989,995,1096,970,944,945,915,901,887,872,858,849,830,816,818,787,773,759,764,730,716,702,687,673,659,648,644,646,651,641,641,647,657,661,654,647,646,654,659,685,668,677,690,703,689,722,689,660,662,653,656,647,660,666,659,646,1048,1036,1052,1078,1179,1360,1578,1783,1837,1868,1846,1833,1772,1764,1709,1678,1667,1606,1572,1537,1495,1487,1431,1400,1366,1328,1314,1263,1245,1210,1175,1141,1106,1081,1049,1066,1058,1080,1090,1090,1096,1145,1118,1123,1113,1092,1114,1122,1142,1120,1167,1145,1153,1136,1135,1126,1111,1106,1105,1112,1110,1108,1101,1141,1098,1662,1709,1698,1840,2084,2415,2565,2770,2781,2841,2824,2758,2652,2774,2610,2584,2508,2410,2362,2314,2265,2217,2169,2391,2182,2263,2158,1927,1879,1830,1819,1777,1699,1725,1659,1689,1713,1754,1862,1894,1882,1905,1895,1880,1900,1918,1932,1948,1919,1925,1941,1947,2030,1975,1995,1978,1996,2008,2007,2010,2031,2044,2019,2088,2080,1365,1368,1387,1426,1582,1853,2024,2136,2194,2267,2248,2214,2232,2089,2076,2064,2024,2100,1973,1865,1842,1869,1807,1753,1700,1696,1676,1632,1594,1522,1506,1474,1433,1397,1360,1418,1372,1410,1471,1476,1429,1440,1478,1460,1463,1470,1460,1466,1536,1471,1493,1504,1518,1498,1484,1499,1505,1531,1559,1482,1487,1502,1560,1497,1470,487,489,490,492,475,511,617,677,715,766,777,765,783,771,727,715,703,737,664,686,653,664,622,611,631,619,608,569,561,541,529,516,525,512,500,495,496,497,481,480,480,493,483,481,483,491,486,481,483,488,487,485,484,486,488,488,488,491,485,490,490,513,514,514,509,749,751,752,753,807,946,1112,1275,1372,1397,1388,1361,1334,1308,1281,1255,1228,1201,1175,1148,1121,1095,1068,1042,1015,988,962,935,908,882,855,829,802,775,761,763,769,774,767,784,782,786,774,771,775,779,777,814,813,795,814,790,790,783,809,798,785,805,883,825,813,787,822,807,813,574,576,577,579,587,635,705,774,842,879,884,871,915,846,834,821,809,904,784,771,758,746,733,721,708,696,683,671,658,645,633,620,608,639,584,581,583,584,588,568,573,577,571,587,582,595,591,582,594,578,583,582,579,588,585,583,585,587,582,577,582,586,585,592,586,1340,1323,1336,1395,1552,1794,2128,2287,2298,2306,2281,2301,2218,2158,2152,2099,2059,2000,1936,1953,1886,1841,1885,1772,1755,1693,1647,1582,1564,1500,1459,1436,1380,1351,1381,1342,1349,1357,1411,1417,1434,1449,1430,1451,1430,1448,1428,1452,1456,1444,1443,1459,1461,1471,1463,1463,1445,1463,1471,1464,1464,1452,1448,1484,1474,1002,999,1006,1020,1106,1355,1490,1659,1749,1769,1754,1723,1691,1659,1628,1631,1598,1564,1501,1470,1438,1407,1375,1343,1312,1280,1249,1260,1185,1154,1122,1091,1059,1030,1017,1019,1025,1032,1032,1031,1031,1045,1037,1058,1053,1061,1051,1073,1062,1043,1055,1039,1049,1060,1055,1053,1062,1046,1051,1047,1055,1066,1060,1088,1072,513,515,516,517,522,558,618,678,746,780,787,835,773,754,743,732,721,710,699,688,677,666,655,649,633,622,611,600,589,577,566,555,548,533,523,520,524,526,516,510,519,538,525,524,518,526,525,531,536,523,534,563,584,564,557,538,519,546,526,519,518,544,533,545,523,227,228,228,229,230,238,268,299,330,360,376,370,365,359,353,347,341,335,329,323,317,311,306,300,294,288,282,276,270,264,258,252,247,241,235,230,231,232,218,219,219,222,223,225,222,223,219,218,222,219,219,232,223,224,225,227,228,231,234,224,227,231,219,223,223,1521,1595,1561,1687,1873,2255,2385,2610,2608,2695,2680,2558,2490,2494,2491,2455,2484,2281,2215,2170,2116,2078,2032,2004,2005,1937,1849,1803,1790,1711,1691,1636,1599,1609,1542,1572,1555,1615,1716,1708,1698,1733,1715,1731,1709,1731,1743,1831,1709,1719,1739,1723,1770,1701,1721,1736,1746,1739,1701,1711,1746,1733,1726,1720,1703,1234,1237,1245,1280,1392,1538,1715,1855,1928,1961,1933,1903,1927,1844,1815,1800,1756,1849,1697,1667,1638,1608,1579,1549,1520,1490,1461,1431,1402,1372,1343,1313,1285,1263,1252,1251,1254,1267,1304,1310,1284,1297,1302,1321,1317,1340,1332,1337,1358,1333,1335,1341,1349,1350,1325,1352,1345,1355,1365,1349,1342,1351,1351,1325,1328,631,651,618,620,633,706,803,908,967,1009,1012,996,979,963,973,931,939,900,883,867,851,834,818,795,786,766,754,738,741,705,689,673,657,641,628,624,643,627,624,618,632,644,647,657,622,653,629,628,639,642,636,645,654,675,659,666,634,652,652,661,668,659,667,683,661,1033,1028,1043,1089,1152,1266,1469,1563,1633,1665,1684,1676,1648,1624,1597,1587,1567,1522,1489,1433,1412,1384,1360,1356,1341,1310,1254,1259,1201,1182,1177,1121,1096,1099,1061,1076,1045,1046,1049,1050,1052,1053,1060,1061,1063,1069,1075,1083,1077,1083,1081,1080,1080,1083,1097,1093,1098,1098,1099,1110,1106,1103,1114,1120,1129,411,412,414,415,416,446,504,562,620,667,675,666,655,644,749,622,612,601,592,580,570,559,548,538,527,518,506,496,485,474,464,453,442,432,422,417,418,419,412,414,416,418,415,420,415,419,417,419,419,414,415,415,417,422,420,417,417,416,418,420,415,425,414,420,416,1341,1373,1413,1479,1636,1926,2161,2298,2507,2366,2343,2326,2259,2216,2167,2147,2086,2094,2005,1959,1920,1895,1833,1788,1748,1710,1660,1633,1576,1547,1491,1465,1444,1396,1389,1407,1415,1410,1494,1487,1479,1570,1550,1534,1518,1518,1533,1574,1526,1567,1587,1552,1510,1542,1533,1542,1555,1522,1574,1643,1608,1616,1625,1562,1558,0,0,0,0,0,0,0,0,0,0,0,0,0,0,0,0,0,0,0,0,0,0,0,0,0,0,0,0,0,0,0,0,0,0,0,0,0,0,0,0,0,0,0,0,0,0,0,0,0,0,0,0,0,0,0,0,0,0,0,0,0,0,0,0,0,269,270,270,271,272,286,355,346,380,460,465,463,412,406,399,434,405,415,373,367,360,391,347,341,334,358,321,315,308,313,306,299,317,284,277,273,274,274,264,265,262,276,263,272,264,270,269,271,266,265,266,265,268,264,266,268,270,266,266,261,268,270,265,269,268,415,414,418,419,449,450,509,568,631,692,700,677,660,655,640,629,619,628,611,586,575,563,552,543,531,538,513,511,488,481,470,455,448,433,422,419,420,420,406,409,412,430,410,419,408,416,410,407,412,409,406,414,412,414,412,419,415,416,418,417,414,424,410,417,414,1001,1003,1028,1040,1131,1338,1550,1695,1770,1791,1777,1741,1711,1677,1637,1627,1574,1537,1511,1475,1444,1428,1375,1342,1308,1279,1242,1221,1172,1153,1133,1088,1073,1024,1016,1033,1040,1034,1054,1051,1054,1049,1074,1112,1062,1090,1093,1104,1104,1099,1088,1097,1084,1108,1072,1076,1089,1089,1072,1108,1093,1106,1087,1095,1106,553,555,556,558,566,618,692,876,864,894,913,889,896,870,891,841,826,844,798,782,768,753,739,733,710,696,708,666,651,629,622,610,595,579,565,555,556,564,573,562,586,567,582,609,569,567,579,605,610,601,601,611,606,593,582,587,569,598,571,587,590,584,577,582,628,438,433,434,442,444,467,543,596,676,668,759,748,751,697,664,641,659,649,644,590,592,605,583,573,592,571,547,529,515,504,498,489,470,459,448,445,439,445,438,439,440,438,439,446,471,458,452,447,449,447,442,448,450,479,450,453,450,446,457,454,446,455,448,507,452,393,386,387,389,390,433,474,513,564,609,617,608,598,588,579,569,560,550,540,531,521,512,502,493,483,473,464,454,445,447,455,426,416,406,395,427,392,392,393,392,387,424,397,402,395,387,393,396,393,417,438,394,400,414,391,391,396,387,399,404,416,391,384,395,387,1075,1083,1099,1102,1189,1323,1532,1632,1711,1780,1733,1738,1656,1738,1623,1623,1554,1527,1606,1470,1464,1437,1400,1353,1363,1316,1303,1278,1254,1201,1188,1192,1152,1119,1130,1075,1086,1087,1120,1127,1121,1138,1166,1166,1179,1189,1147,1189,1188,1184,1192,1174,1176,1187,1175,1161,1185,1168,1158,1167,1176,1173,1168,1192,1160,386,387,388,390,391,419,476,577,595,642,677,668,671,645,634,599,667,618,568,558,547,537,526,538,527,516,485,475,464,454,444,433,423,413,402,392,393,394,389,389,394,415,401,391,397,411,396,397,411,419,452,442,455,437,393,394,404,410,403,393,402,410,403,403,403,1082,1089,1099,1136,1245,1465,1690,1745,1822,1844,1820,1796,1768,1759,1720,1671,1636,1616,1565,1587,1519,1482,1443,1446,1410,1351,1315,1317,1248,1215,1211,1148,1159,1110,1074,1120,1119,1100,1115,1128,1129,1170,1169,1154,1146,1161,1142,1143,1157,1164,1150,1187,1169,1161,1166,1176,1177,1157,1133,1193,1157,1196,1169,1203,1173,127,128,128,128,129,132,149,166,183,201,213,209,206,203,199,196,193,189,186,182,179,176,172,169,166,162,159,156,152,149,145,142,139,135,132,129,130,130,119,121,120,120,121,121,121,125,119,121,119,120,121,124,124,124,124,121,120,119,125,128,120,121,121,123,121,130,131,131,131,132,134,150,166,183,199,211,207,204,201,198,195,192,188,185,182,179,176,173,170,166,163,160,157,154,151,147,144,141,138,135,132,133,133,136,116,116,117,117,119,117,119,116,117,117,117,117,118,118,118,119,119,118,118,118,118,118,118,118,119,119,339,340,341,342,342,364,412,459,486,531,598,552,525,534,525,516,508,498,490,465,472,464,452,446,436,414,419,411,402,393,384,375,366,358,349,344,345,346,343,328,331,330,369,350,339,337,339,342,368,361,365,361,369,345,381,353,355,371,381,366,351,355,383,388,363,842,824,811,829,929,996,1125,1179,1323,1295,1292,1332,1256,1250,1215,1233,1224,1200,1183,1198,1231,1116,1131,1062,1054,1022,1025,1002,928,920,899,877,884,835,918,818,820,822,830,824,840,867,839,846,836,850,851,847,861,837,852,881,900,885,875,856,836,866,843,838,835,868,850,868,840,1444,1446,1477,1570,1828,2029,2242,2357,2433,2422,2434,2420,2321,2283,2242,2199,2161,2130,2102,2028,1990,1973,1942,1877,1839,1751,1782,1742,1663,1613,1570,1533,1491,1468,1508,1467,1487,1491,1563,1571,1577,1593,1601,1623,1609,1635,1605,1628,1644,1642,1636,1603,1635,1667,1620,1634,1656,1644,1626,1629,1637,1611,1640,1703,1643,486,540,481,483,486,543,597,649,714,760,766,754,742,730,719,707,695,683,762,659,647,635,624,612,600,588,576,564,552,552,558,527,514,502,490,486,487,488,480,473,486,502,491,488,484,491,491,498,502,491,500,531,550,531,524,502,486,510,493,490,484,509,499,509,488,797,800,777,917,838,925,1003,1132,1253,1308,1291,1291,1226,1259,1211,1217,1170,1149,1282,1109,1089,1071,1048,1008,1008,988,967,947,927,899,887,842,848,826,828,802,804,813,805,799,812,824,817,821,812,828,821,830,825,816,824,851,869,854,846,837,813,822,814,816,807,825,822,836,810,172,172,173,173,174,190,214,225,248,271,284,280,276,271,267,262,258,253,249,244,240,236,231,227,222,218,213,209,204,200,196,191,187,182,178,174,175,175,163,167,167,167,169,169,167,167,164,175,165,166,170,167,175,180,173,169,170,164,169,170,169,172,165,169,164,1213,1224,1217,1239,1324,1498,1695,1821,1947,1963,1964,1896,1865,1835,1918,1794,1765,1712,1700,1697,1630,1622,1568,1570,1506,1461,1463,1413,1391,1406,1311,1295,1250,1242,1221,1219,1271,1244,1271,1292,1246,1243,1284,1262,1277,1285,1279,1277,1325,1283,1287,1305,1304,1312,1281,1309,1319,1312,1336,1288,1298,1307,1345,1283,1282,763,688,707,692,717,812,989,1003,1091,1129,1128,1110,1096,1076,1051,1037,1018,996,982,963,948,994,909,890,872,854,835,817,796,792,788,758,735,718,706,696,699,701,695,690,701,713,707,710,699,716,710,718,715,707,714,738,760,744,730,725,700,709,702,703,695,710,709,722,698,1047,1059,1064,1165,1169,1363,1561,1700,1778,1800,1777,1753,1725,1717,1747,1630,1595,1559,1549,1546,1471,1491,1405,1416,1396,1314,1278,1238,1287,1245,1176,1133,1139,1072,1062,1095,1084,1066,1105,1114,1129,1143,1167,1144,1139,1141,1130,1141,1126,1115,1128,1135,1139,1145,1157,1144,1121,1118,1131,1130,1122,1134,1135,1146,1120,81,82,82,82,82,83,94,104,115,125,134,132,130,128,126,124,121,119,117,115,113,111,109,107,105,103,101,99,97,95,93,91,89,87,85,83,83,83,69,60,60,62,60,62,62,62,60,62,62,60,62,62,62,60,63,62,62,62,62,62,62,62,62,62,63,471,472,474,475,479,520,590,665,733,787,792,771,759,747,742,730,718,698,685,680,661,656,643,631,612,606,587,581,563,544,532,519,507,494,482,478,479,481,475,484,477,486,486,488,485,499,477,488,481,479,481,491,492,487,491,488,483,484,495,484,478,479,480,490,481,1384,1289,1401,1352,1453,1645,1849,1972,2049,2064,2107,2151,2003,1970,1972,1885,1999,1839,1787,1747,1714,1740,1649,1616,1584,1570,1537,1486,1521,1421,1408,1361,1345,1308,1287,1285,1310,1311,1340,1338,1352,1382,1351,1375,1355,1356,1351,1358,1387,1371,1376,1388,1386,1389,1384,1392,1366,1376,1389,1378,1379,1381,1365,1399,1392,1333,1301,1403,1461,1621,1914,2164,2252,2276,2347,2303,2258,2239,2176,2128,2093,2047,2072,1957,1921,1882,1843,1795,1774,1743,1651,1642,1584,1573,1511,1475,1491,1408,1360,1352,1345,1378,1336,1440,1438,1429,1471,1452,1436,1450,1457,1449,1461,1466,1455,1467,1448,1444,1444,1449,1467,1441,1453,1433,1444,1442,1457,1447,1445,1424,759,761,764,766,795,879,997,1167,1202,1266,1241,1261,1202,1236,1275,1142,1122,1102,1084,1084,1117,1024,1004,984,965,946,925,905,886,860,863,826,807,788,774,856,804,831,783,785,790,823,792,800,785,791,790,782,798,798,840,854,848,809,795,809,812,813,815,804,809,840,815,828,822,631,651,618,620,633,706,803,908,967,1009,1012,996,979,963,973,931,939,900,883,867,851,834,818,795,786,766,754,738,741,705,689,673,657,641,628,624,643,627,624,618,632,644,647,657,622,653,629,628,639,642,636,645,654,675,659,666,634,652,652,661,668,659,667,683,661,730,749,734,752,782,845,957,1070,1187,1197,1196,1177,1158,1139,1120,1152,1111,1122,1041,1024,1006,986,964,973,929,911,884,890,872,834,833,796,756,778,745,741,736,745,745,743,748,755,756,761,760,749,760,763,769,760,782,759,762,753,758,768,759,752,756,770,759,760,756,766,751,1113,1116,1108,1178,1221,1412,1650,1719,1749,1788,1783,1752,1725,1682,1654,1646,1595,1570,1658,1529,1526,1496,1431,1404,1407,1348,1340,1293,1315,1262,1267,1268,1187,1145,1120,1135,1121,1123,1168,1158,1176,1225,1193,1202,1190,1168,1183,1199,1192,1182,1183,1220,1249,1238,1212,1193,1182,1188,1179,1180,1172,1193,1183,1205,1173,241,242,243,243,244,254,286,318,349,381,395,389,383,377,371,365,358,352,346,340,334,328,322,316,310,304,298,291,285,279,273,267,261,255,249,245,245,246,232,233,232,232,235,235,235,238,238,246,235,234,236,236,235,235,239,238,238,236,234,236,238,245,245,246,243,1350,1335,1347,1412,1630,1854,2106,2262,2351,2369,2315,2324,2209,2227,2197,2132,2105,2028,2009,1963,1951,1886,1811,1767,1727,1685,1643,1645,1591,1517,1464,1432,1412,1364,1397,1357,1383,1383,1461,1449,1464,1470,1452,1455,1528,1532,1465,1494,1488,1456,1457,1513,1522,1545,1526,1539,1516,1541,1543,1520,1494,1496,1461,1470,1471,164,164,165,165,166,171,193,216,238,261,274,270,266,261,257,253,248,244,239,235,231,226,222,218,213,209,205,200,196,191,187,183,178,174,170,166,167,167,157,157,161,165,173,178,175,156,164,171,157,159,170,157,156,157,156,157,156,156,157,159,162,157,158,164,156,0,0,0,0,0,0,0,0,0,0,0,0,0,0,0,0,0,0,0,0,0,0,0,0,0,0,0,0,0,0,0,0,0,0,0,0,0,0,0,0,0,0,0,0,0,0,0,0,0,0,0,0,0,0,0,0,0,0,0,0,0,0,0,0,0,564,570,582,573,582,637,721,808,887,950,941,982,906,913,895,862,847,865,832,802,789,769,757,743,743,724,698,695,678,700,638,623,609,625,583,576,578,580,601,579,576,580,578,586,582,590,582,583,585,577,579,583,582,583,588,588,583,584,588,590,580,594,584,593,588,982,966,968,982,1125,1274,1493,1663,1758,1793,1748,1739,1682,1686,1668,1611,1594,1549,1515,1478,1476,1421,1352,1356,1286,1253,1220,1233,1187,1121,1077,1055,1040,993,1024,983,1008,1007,1028,1023,1017,1030,1029,1024,1031,1031,1032,1023,1028,1028,1042,1028,1032,1029,1028,1038,1027,1040,1022,1032,1031,1045,1029,1029,1021,456,434,435,437,463,473,536,598,661,709,718,744,695,683,672,661,649,638,626,615,603,623,611,569,558,546,535,523,536,501,515,478,528,455,467,439,440,463,452,456,446,449,458,460,485,488,454,461,462,470,464,454,457,465,465,458,464,457,456,458,455,464,463,470,450,524,524,536,538,521,573,712,714,781,861,893,887,811,826,815,775,763,825,750,728,714,702,703,676,677,656,650,621,633,595,625,605,555,541,534,534,531,528,542,533,536,532,540,538,542,539,545,540,540,541,550,544,549,545,541,550,539,548,545,540,546,548,544,541,538,381,396,357,358,359,383,434,485,536,617,592,607,573,605,595,577,535,554,552,528,528,524,478,469,459,450,440,431,427,412,391,393,383,415,384,360,381,362,361,362,363,380,372,363,368,377,368,366,384,391,498,483,499,407,364,365,377,377,373,365,371,372,370,370,372,929,925,946,941,1005,1095,1255,1389,1453,1508,1507,1481,1458,1434,1392,1388,1365,1341,1354,1275,1272,1248,1225,1202,1164,1142,1132,1109,1086,1062,1025,1008,993,959,958,987,957,947,957,991,971,1006,978,975,975,1005,984,1009,970,965,984,980,1043,986,1007,980,999,991,1003,973,996,1006,985,1006,997,472,474,475,476,480,521,639,659,728,834,815,825,757,777,764,720,707,746,748,670,657,645,679,620,631,627,626,570,579,545,571,558,508,495,483,479,481,482,477,480,481,493,499,496,499,525,500,503,507,521,525,496,508,537,499,495,506,517,499,502,507,513,504,503,502,1070,1054,1054,1076,1235,1342,1551,1713,1791,1926,1802,1794,1739,1744,1711,1701,1640,1627,1569,1543,1551,1494,1424,1460,1389,1325,1319,1354,1281,1198,1155,1143,1099,1079,1105,1063,1095,1117,1108,1100,1095,1110,1098,1134,1103,1111,1136,1189,1113,1133,1131,1135,1128,1131,1151,1127,1118,1124,1126,1136,1130,1134,1135,1145,1124,278,283,284,285,286,301,340,380,420,459,471,463,456,470,460,433,426,436,428,403,396,385,381,373,381,358,351,343,333,328,321,313,306,298,291,286,287,288,278,278,276,281,282,284,281,289,282,285,284,287,286,299,289,300,286,284,288,285,278,300,284,284,282,288,282,281,286,287,288,289,302,341,380,418,456,468,461,454,447,439,432,425,418,410,403,396,385,381,374,367,359,352,345,335,330,323,316,308,301,294,289,290,291,279,276,281,286,282,278,279,280,281,281,282,279,280,282,282,288,279,280,280,289,280,291,282,282,280,285,291,490,499,501,502,506,548,623,686,761,804,819,807,794,775,763,755,734,729,716,691,670,667,655,646,628,615,612,599,579,552,577,546,531,522,509,505,507,502,493,507,504,515,516,518,507,527,500,532,514,539,510,516,532,547,527,521,523,524,527,523,521,527,508,517,508,732,698,711,739,766,848,1025,1015,1164,1204,1246,1144,1149,1146,1148,1107,1088,1152,1036,1004,1011,992,973,1016,947,987,895,876,891,797,888,834,769,755,774,743,709,775,746,746,766,838,770,749,761,804,775,770,793,781,767,760,799,790,785,760,758,767,777,777,761,769,763,762,759,1547,1532,1571,1666,1900,2160,2404,2566,2560,2573,2537,2530,2460,2373,2365,2340,2311,2241,2268,2175,2143,2139,2016,2006,1954,1933,1868,1822,1798,1732,1656,1630,1629,1573,1616,1557,1585,1576,1687,1733,1694,1704,1720,1704,1723,1723,1725,1721,1740,1715,1736,1720,1736,1748,1747,1759,1750,1748,1774,1721,1751,1757,1778,1756,1740,429,437,438,433,441,475,528,599,660,708,716,705,683,682,671,660,649,646,617,615,604,592,581,582,550,578,536,525,535,502,489,482,473,451,446,435,443,444,439,444,448,453,447,440,445,454,449,439,491,479,441,461,494,494,510,460,456,464,481,446,439,449,458,441,434,664,666,668,670,686,754,852,950,1039,1102,1100,1101,1050,1033,1016,999,982,965,930,944,913,896,879,862,845,828,797,794,814,760,742,739,696,679,691,661,675,758,672,679,677,679,700,675,686,702,687,680,699,682,700,689,701,699,853,804,724,707,692,684,699,679,694,713,676,286,287,288,289,290,305,345,385,425,463,475,468,460,453,445,438,430,423,415,408,400,393,385,378,370,363,355,348,340,333,325,318,322,303,295,291,292,292,278,278,279,279,282,278,280,280,282,281,281,281,281,281,282,282,288,291,287,288,287,282,291,284,282,282,281,1252,1246,1284,1305,1481,1693,1911,2055,2038,2072,2070,2035,2017,1968,1936,1910,1855,1825,1829,1774,1787,1723,1671,1674,1597,1560,1557,1511,1512,1412,1364,1338,1321,1326,1306,1265,1301,1301,1356,1366,1337,1351,1355,1398,1357,1379,1391,1461,1375,1420,1407,1415,1392,1463,1427,1376,1381,1368,1402,1437,1417,1448,1425,1436,1398,678,680,682,681,707,786,895,1004,1095,1132,1135,1166,1184,1086,1067,1040,1023,1004,989,967,982,935,910,892,873,887,836,816,799,775,761,745,724,707,691,688,691,693,689,700,699,697,707,718,713,705,701,702,702,702,703,708,714,720,715,728,708,718,718,703,705,697,716,717,700,1028,1013,1016,1054,1164,1300,1506,1669,1747,1791,1759,1751,1696,1702,1670,1711,1599,1571,1552,1526,1503,1440,1382,1375,1319,1288,1256,1271,1215,1162,1140,1099,1086,1090,1070,1066,1053,1039,1061,1059,1059,1078,1068,1076,1066,1080,1076,1068,1069,1072,1069,1072,1067,1066,1069,1075,1073,1074,1066,1076,1072,1085,1082,1087,1073,96,96,96,97,97,98,111,123,136,148,158,156,153,151,148,146,143,141,139,136,134,131,129,126,124,121,119,117,114,112,109,107,104,102,99,97,98,98,77,78,80,83,78,78,79,78,78,77,78,78,78,78,78,79,78,78,78,78,78,78,78,78,78,78,78,507,509,510,512,517,563,679,706,778,822,827,814,801,788,775,762,750,737,724,711,698,685,672,659,646,634,621,608,648,613,628,613,576,561,519,515,516,518,524,522,516,525,529,555,524,531,542,534,525,531,521,529,530,517,527,532,530,529,524,524,534,541,537,541,531,1400,1312,1325,1385,1573,1800,2017,2159,2304,2243,2212,2288,2112,2062,2029,2041,1983,1952,1952,1896,1869,1840,1751,1720,1674,1636,1600,1583,1670,1481,1432,1404,1387,1421,1373,1331,1445,1367,1466,1456,1453,1484,1513,1505,1484,1481,1497,1534,1506,1540,1545,1547,1498,1498,1516,1518,1521,1506,1551,1589,1531,1529,1549,1514,1510,1314,1328,1283,1341,1552,1810,2086,2210,2314,2328,2353,2256,2211,2230,2267,2092,2017,2031,1970,1924,1881,1849,1795,1754,1710,1647,1626,1608,1561,1495,1428,1371,1376,1328,1360,1320,1347,1353,1403,1404,1396,1403,1406,1409,1418,1426,1412,1420,1415,1421,1425,1411,1414,1415,1417,1430,1405,1421,1409,1411,1405,1426,1413,1412,1394,604,617,592,627,615,706,747,834,917,1023,968,976,937,922,906,944,876,860,858,851,814,799,784,768,753,768,741,707,685,676,661,662,630,615,602,597,639,601,591,599,611,595,592,602,607,606,607,607,610,609,599,601,610,613,609,614,631,611,613,611,616,617,616,629,615,730,749,734,752,782,845,957,1070,1187,1197,1196,1177,1158,1139,1120,1152,1111,1122,1041,1024,1006,986,964,973,929,911,884,890,872,834,833,796,756,778,745,741,736,745,745,743,748,755,756,761,760,749,760,763,769,760,782,759,762,753,758,768,759,752,756,770,759,760,756,766,751,711,671,708,693,693,766,886,1020,1128,1115,1146,1082,1064,1094,1082,1010,994,1052,959,1043,966,899,949,872,871,982,878,853,836,818,797,780,746,728,746,696,680,688,698,712,710,721,737,723,721,732,709,723,714,715,714,731,729,743,822,783,730,724,730,720,709,713,728,722,708,1189,1175,1226,1206,1303,1447,1634,1826,1907,1889,1963,1871,1829,1799,1768,1737,1720,1692,1649,1648,1617,1528,1580,1556,1541,1525,1441,1411,1379,1349,1314,1281,1270,1227,1203,1198,1193,1177,1226,1223,1229,1236,1233,1238,1244,1265,1243,1251,1242,1245,1252,1252,1252,1254,1260,1271,1261,1268,1266,1254,1273,1266,1280,1272,1264,717,740,722,736,748,848,965,1041,1129,1162,1205,1152,1196,1138,1097,1099,1330,1041,1044,1025,986,1014,1051,930,912,893,896,856,838,819,890,782,772,747,744,728,730,747,752,749,758,770,763,769,774,784,771,769,783,771,799,793,797,786,764,761,772,772,776,759,767,778,764,777,771,1230,1232,1246,1294,1431,1655,1901,2074,2129,2144,2155,2088,2051,2013,1973,1935,1897,1859,1821,1783,1745,1719,1680,1641,1592,1561,1526,1488,1439,1401,1363,1325,1288,1260,1261,1263,1272,1270,1363,1328,1322,1411,1381,1378,1365,1344,1358,1387,1407,1380,1396,1403,1375,1373,1348,1382,1391,1386,1422,1420,1360,1346,1403,1336,1335,470,473,473,474,478,518,586,654,724,769,780,776,758,742,719,718,705,693,680,664,655,643,630,615,605,604,581,568,565,543,531,516,506,493,481,475,473,494,471,477,473,487,546,517,491,530,490,554,515,532,514,485,500,519,502,490,531,503,491,517,507,542,513,503,495,689,654,693,675,738,809,930,996,1105,1125,1161,1116,1113,1103,1062,1065,1003,1007,1015,1005,910,953,929,898,880,862,844,826,808,789,800,753,754,686,715,726,730,719,721,732,702,708,722,723,772,722,715,751,720,713,708,714,718,718,721,720,724,749,778,725,725,725,717,715,715,0,0,0,0,0,0,0,0,0,0,0,0,0,0,0,0,0,0,0,0,0,0,0,0,0,0,0,0,0,0,0,0,0,0,0,0,0,0,0,0,0,0,0,0,0,0,0,0,0,0,0,0,0,0,0,0,0,0,0,0,0,0,0,0,0,1295,1266,1285,1379,1516,1770,2022,2174,2266,2253,2259,2189,2241,2108,2065,2024,1982,1941,1900,1858,1842,1776,1734,1727,1651,1617,1579,1537,1507,1445,1403,1362,1339,1296,1297,1299,1298,1306,1336,1341,1358,1380,1382,1369,1358,1388,1356,1366,1369,1353,1350,1372,1379,1402,1552,1488,1389,1379,1376,1366,1359,1357,1373,1387,1360,649,720,651,655,683,738,833,934,1021,1063,1068,1145,1039,1038,1000,983,971,897,932,1075,911,881,864,934,915,817,796,778,760,744,830,714,693,676,673,669,790,723,692,691,699,712,713,705,697,698,706,713,737,721,738,753,766,747,777,741,709,715,703,707,697,712,716,712,697,767,768,756,772,782,812,883,954,1025,1071,1107,1065,1052,1040,1027,1014,1001,988,975,1048,949,938,925,912,955,1035,873,893,879,874,853,805,779,760,791,775,806,754,777,776,778,779,779,779,792,798,782,786,783,784,789,790,795,794,799,795,785,792,806,792,787,797,790,789,789,831,845,844,840,875,1031,1118,1242,1326,1452,1363,1325,1337,1296,1266,1306,1212,1211,1177,1222,1186,1106,1147,1078,1056,1102,1023,985,976,954,942,942,964,858,857,890,908,881,890,882,881,892,886,890,944,930,888,920,908,886,884,928,937,940,930,950,939,953,946,921,913,904,897,888,881,1221,1243,1236,1292,1454,1652,1769,1853,1955,1953,1989,1958,1870,1852,1861,1792,1842,1663,1724,1815,1643,1684,1585,1571,1684,1521,1478,1448,1422,1400,1367,1313,1297,1272,1241,1239,1280,1264,1352,1321,1317,1406,1373,1371,1357,1338,1351,1381,1396,1373,1391,1397,1369,1365,1343,1375,1383,1375,1410,1412,1353,1341,1392,1332,1330,717,729,704,726,750,812,923,1009,1085,1129,1132,1139,1141,1113,1071,1038,1020,1028,1009,1010,948,930,952,894,892,1212,877,859,854,825,804,750,732,714,731,715,822,719,731,739,723,726,720,729,723,731,749,723,747,746,751,752,744,755,758,763,770,741,758,737,745,746,779,736,725,1353,1318,1364,1439,1582,1882,2096,2246,2337,2322,2328,2258,2300,2207,2131,2089,2047,2005,1962,1920,1903,1836,1794,1786,1709,1700,1661,1618,1586,1498,1456,1414,1401,1348,1349,1352,1351,1382,1419,1426,1432,1444,1448,1473,1442,1466,1435,1476,1473,1489,1435,1449,1474,1486,1466,1482,1487,1483,1473,1465,1456,1460,1474,1535,1473,317,318,319,317,321,336,384,429,474,565,529,520,512,504,495,482,478,470,461,453,445,436,428,419,411,403,390,386,377,369,357,352,340,335,323,322,323,324,308,311,314,319,318,319,324,325,315,317,319,320,320,325,325,327,318,315,322,320,324,317,322,325,317,316,317,379,380,382,383,384,409,462,515,568,614,624,614,604,611,585,588,565,555,546,536,526,516,507,497,487,477,467,457,447,437,428,417,409,399,389,385,386,387,377,373,376,378,374,378,374,373,371,374,376,380,373,378,429,480,379,374,388,380,380,381,383,384,384,381,377,255,256,257,258,258,270,305,340,374,409,422,415,409,402,395,389,382,370,369,362,356,349,343,336,329,323,316,310,303,297,285,283,277,270,263,259,260,261,263,243,245,246,251,247,248,251,243,247,247,246,248,249,248,248,255,253,255,250,251,253,249,249,251,251,255,1251,1250,1322,1315,1429,1653,1811,1986,2024,2057,2016,1986,2014,1944,1877,1921,1856,1840,1814,1774,1677,1693,1637,1641,1608,1599,1514,1491,1522,1411,1452,1371,1338,1305,1308,1294,1307,1293,1337,1388,1343,1356,1369,1363,1358,1373,1366,1363,1387,1357,1359,1380,1375,1384,1380,1403,1392,1387,1411,1375,1394,1420,1419,1392,1379,1077,1083,1094,1126,1237,1432,1660,1823,1898,1917,1932,1868,1834,1795,1764,1729,1694,1659,1625,1590,1555,1520,1486,1462,1416,1388,1354,1322,1277,1242,1204,1173,1138,1110,1110,1108,1108,1114,1123,1127,1126,1162,1114,1165,1134,1160,1149,1153,1173,1137,1150,1142,1151,1168,1161,1153,1156,1157,1162,1152,1158,1164,1156,1197,1176,924,956,938,1002,987,1110,1298,1394,1475,1586,1507,1467,1476,1433,1402,1474,1343,1340,1303,1340,1271,1226,1240,1193,1169,1212,1132,1092,1080,1056,1042,1051,1040,952,952,1028,968,1007,1004,973,983,1003,988,993,985,994,991,998,1005,984,999,1028,1047,1029,1028,1007,985,1011,992,989,982,1017,1000,1017,992,933,968,912,979,1037,1156,1303,1357,1522,1599,1552,1529,1431,1539,1454,1439,1405,1258,1326,1420,1254,1254,1231,1235,1241,1239,1134,1179,1086,1062,1039,1012,991,967,959,932,953,956,959,966,951,1060,988,974,971,988,984,970,969,984,984,970,958,965,974,981,971,968,959,968,969,981,991,986,960,395,395,396,398,400,429,485,540,597,644,653,640,641,622,612,602,591,579,585,560,550,546,529,550,509,565,488,534,520,507,446,435,438,414,405,401,402,403,401,410,403,408,414,410,409,415,404,408,406,409,403,414,414,414,410,409,411,407,417,424,408,416,404,411,409,1233,1236,1311,1385,1533,1676,1878,2107,2204,2180,2164,2091,2024,2051,1956,1942,1921,1869,1842,1837,1779,1715,1744,1713,1667,1567,1608,1552,1447,1477,1417,1375,1292,1266,1266,1266,1306,1335,1338,1356,1364,1351,1344,1360,1379,1371,1359,1359,1410,1353,1371,1360,1378,1383,1386,1398,1391,1373,1384,1373,1365,1364,1357,1401,1335,1041,1127,1031,1164,1155,1295,1472,1609,1686,1670,1788,1654,1650,1580,1595,1526,1499,1511,1462,1497,1391,1363,1434,1309,1378,1476,1263,1236,1215,1267,1222,1092,1065,1076,1060,1057,1167,1035,1091,1085,1089,1095,1078,1093,1093,1093,1113,1175,1101,1114,1124,1121,1111,1129,1139,1113,1104,1110,1119,1129,1112,1120,1124,1135,1121,1360,1375,1443,1451,1585,1769,1968,2152,2226,2202,2270,2173,2127,2092,2056,2020,1997,1964,1917,1910,1874,1780,1826,1818,1750,1774,1668,1672,1596,1567,1502,1458,1419,1396,1427,1397,1396,1380,1503,1502,1475,1494,1491,1534,1501,1513,1529,1591,1510,1540,1534,1541,1522,1573,1537,1511,1503,1506,1511,1529,1534,1556,1532,1539,1502,534,541,538,541,546,598,681,761,839,876,890,876,862,848,828,959,798,791,777,756,755,728,711,706,788,678,660,649,635,621,603,608,575,571,548,548,549,550,531,536,542,568,538,545,534,541,538,533,539,540,534,541,542,547,544,554,547,548,549,553,552,575,559,568,561,828,831,817,838,891,982,1112,1238,1315,1356,1356,1309,1312,1247,1270,1209,1189,1204,1160,1366,1102,1082,1098,1042,1037,1150,1017,997,983,946,922,870,849,828,845,841,867,816,851,861,815,813,853,835,839,845,843,858,896,847,855,871,870,862,852,874,873,883,914,871,860,869,911,853,847,1170,1200,1185,1226,1359,1572,1810,2023,2041,2058,2169,2004,1968,1935,1986,1854,1909,1782,1740,1794,1669,1717,1596,1570,1524,1525,1460,1421,1376,1339,1302,1263,1263,1201,1220,1202,1195,1202,1251,1244,1256,1276,1259,1258,1275,1273,1266,1279,1290,1271,1296,1318,1333,1320,1319,1303,1269,1297,1298,1268,1274,1306,1279,1290,1268,1278,1281,1298,1354,1500,1735,1983,2199,2207,2268,2278,2193,2124,2114,2044,2005,1965,1926,1886,1847,1808,1780,1741,1700,1650,1618,1582,1542,1493,1453,1414,1374,1337,1309,1310,1313,1321,1319,1349,1396,1353,1371,1382,1373,1371,1383,1379,1375,1390,1372,1383,1383,1386,1392,1396,1406,1401,1401,1434,1389,1406,1429,1432,1415,1399,1081,1106,1072,1158,1173,1361,1521,1692,1726,1787,1756,1696,1788,1700,1674,1607,1710,1552,1560,1497,1469,1467,1494,1385,1358,1411,1346,1256,1229,1202,1290,1163,1128,1099,1097,1082,1085,1119,1119,1135,1143,1160,1166,1144,1144,1177,1141,1151,1151,1133,1143,1152,1169,1170,1322,1267,1176,1159,1159,1150,1137,1137,1152,1170,1135,711,671,708,693,693,766,886,1020,1128,1115,1146,1082,1064,1094,1082,1010,994,1052,959,1043,966,899,949,872,871,982,878,853,836,818,797,780,746,728,746,696,680,688,698,712,710,721,737,723,721,732,709,723,714,715,714,731,729,743,822,783,730,724,730,720,709,713,728,722,708,1083,1087,1090,1110,1178,1318,1492,1637,1738,1766,1758,1730,1702,1674,1646,1618,1590,1562,1534,1506,1478,1449,1421,1393,1365,1337,1309,1303,1253,1225,1197,1169,1141,1127,1102,1100,1102,1105,1127,1122,1129,1166,1141,1120,1128,1146,1133,1193,1252,1144,1156,1151,1139,1133,1137,1161,1124,1127,1123,1126,1126,1139,1135,1156,1124,488,499,491,492,496,537,606,675,745,792,800,787,775,762,750,737,725,712,700,687,674,662,649,637,624,612,599,587,574,562,560,547,524,512,500,495,497,508,496,485,488,508,486,511,492,498,500,502,524,502,503,496,496,516,532,499,492,508,494,503,501,494,503,526,500,1082,977,980,1036,1132,1204,1396,1611,1709,1799,1730,1700,1669,1639,1608,1578,1603,1565,1486,1456,1492,1470,1364,1338,1305,1272,1209,1180,1150,1202,1107,1060,1031,1082,1081,985,990,995,1069,1062,1038,1046,1042,1062,1053,1069,1067,1135,1061,1100,1097,1101,1070,1151,1107,1058,1059,1050,1088,1118,1098,1128,1112,1112,1087,382,383,384,385,387,410,464,517,570,618,631,621,611,601,591,581,571,561,552,542,532,522,512,502,492,482,472,462,452,442,432,422,413,403,393,388,389,390,379,379,383,397,384,385,385,394,384,383,385,380,389,391,396,392,388,388,383,397,389,383,386,402,389,394,386,1094,1097,1102,1128,1299,1478,1601,1809,1903,1935,1918,1884,1850,1866,1783,1750,1716,1682,1649,1620,1633,1602,1561,1587,1493,1413,1347,1318,1282,1249,1233,1183,1150,1123,1145,1109,1150,1116,1188,1184,1159,1169,1164,1185,1174,1198,1200,1265,1191,1219,1206,1214,1195,1254,1223,1187,1199,1177,1198,1230,1200,1228,1215,1225,1196,1057,1049,1052,1068,1162,1328,1524,1724,1832,1869,1849,1816,1784,1747,1725,1686,1659,1593,1585,1549,1517,1504,1457,1418,1407,1372,1288,1262,1230,1194,1154,1127,1103,1076,1076,1062,1055,1077,1076,1080,1076,1096,1088,1098,1083,1093,1100,1088,1084,1089,1088,1093,1084,1083,1096,1093,1089,1091,1082,1098,1092,1104,1105,1106,1091,1417,1422,1417,1556,1645,1924,2216,2386,2472,2509,2460,2378,2357,2345,2246,2202,2210,2165,2101,2029,1982,1982,1894,1880,1806,1846,1718,1738,1630,1625,1568,1573,1483,1429,1413,1416,1427,1458,1541,1541,1532,1620,1587,1586,1571,1565,1580,1613,1579,1617,1628,1606,1557,1590,1586,1598,1601,1570,1624,1686,1652,1654,1664,1602,1602,0,0,0,0,0,0,0,0,0,0,0,0,0,0,0,0,0,0,0,0,0,0,0,0,0,0,0,0,0,0,0,0,0,0,0,0,0,0,0,0,0,0,0,0,0,0,0,0,0,0,0,0,0,0,0,0,0,0,0,0,0,0,0,0,0,1487,1412,1435,1568,1657,1889,2119,2322,2474,2501,2397,2396,2325,2263,2232,2191,2204,2116,2109,2026,2037,2015,1902,1920,1842,1799,1705,1665,1624,1627,1560,1503,1467,1469,1450,1425,1431,1438,1522,1517,1513,1531,1524,1549,1554,1566,1545,1551,1580,1564,1590,1602,1602,1603,1589,1558,1568,1566,1549,1573,1567,1555,1564,1602,1559,906,908,911,951,992,1090,1318,1484,1581,1617,1594,1581,1552,1524,1496,1468,1440,1411,1383,1376,1371,1345,1319,1247,1216,1185,1142,1115,1069,1073,1032,987,959,933,921,915,950,970,942,935,932,935,935,970,965,966,952,963,974,961,959,955,957,984,988,960,968,968,967,983,974,970,978,1023,985,782,779,780,788,826,934,1097,1292,1405,1434,1436,1402,1376,1350,1324,1298,1280,1247,1221,1195,1169,1153,1123,1096,1067,1045,986,960,929,904,896,854,828,803,790,784,789,793,806,793,784,799,853,898,815,813,830,845,825,854,851,853,820,823,843,840,855,830,851,916,871,882,893,853,855,1733,1732,1835,1958,2242,2369,2575,2762,2889,2905,2833,2829,2811,2679,2633,2641,2601,2568,2453,2406,2388,2383,2255,2232,2213,2112,2030,1996,1970,1967,1872,1813,1813,1794,1775,1730,1730,1739,1983,2061,2007,2016,2045,2014,2033,2073,2035,2032,2080,2011,2047,2042,2064,2068,2229,2191,2096,2055,2078,2029,2045,2053,2088,2106,2035,989,992,994,1044,1114,1238,1459,1660,1718,1787,1726,1710,1715,1650,1619,1589,1607,1528,1498,1492,1500,1463,1425,1350,1318,1285,1246,1213,1162,1183,1155,1073,1044,1017,1005,999,1049,1058,1059,1040,1049,1049,1084,1129,1068,1093,1098,1118,1126,1139,1129,1135,1096,1120,1106,1092,1106,1103,1113,1174,1134,1150,1135,1131,1138,101,101,102,102,102,103,114,125,137,148,157,155,153,151,149,146,144,142,140,138,135,133,131,129,127,124,122,120,118,116,113,111,109,107,104,102,103,103,86,85,86,87,86,88,85,88,89,86,87,85,86,87,86,88,87,87,86,89,86,88,87,87,87,89,89,1213,1216,1232,1268,1475,1703,1798,2002,2091,2162,2099,2063,2026,2071,2047,1917,1881,1844,1808,1812,1786,1759,1708,1728,1641,1552,1484,1458,1412,1376,1357,1305,1270,1244,1266,1259,1295,1238,1289,1330,1288,1305,1318,1300,1309,1319,1315,1319,1329,1317,1338,1318,1325,1330,1335,1333,1335,1335,1371,1327,1355,1365,1381,1343,1337,1216,1219,1234,1269,1474,1701,1796,2000,2090,2161,2098,2062,2173,2071,2047,1912,1881,1844,1808,1813,1787,1760,1709,1726,1642,1554,1485,1460,1414,1379,1360,1308,1273,1247,1269,1262,1289,1241,1283,1291,1298,1320,1311,1315,1303,1309,1298,1297,1313,1304,1334,1349,1343,1329,1312,1322,1325,1332,1332,1311,1333,1334,1303,1315,1311,1348,1352,1376,1450,1550,1757,1936,2102,2164,2185,2171,2125,2092,2069,2021,2010,2018,1962,1922,1863,1838,1796,1792,1713,1687,1680,1607,1574,1539,1507,1501,1472,1436,1425,1386,1378,1402,1424,1447,1433,1437,1438,1441,1472,1473,1468,1461,1474,1491,1474,1479,1473,1473,1499,1513,1484,1488,1499,1501,1513,1505,1496,1522,1564,1534,1285,1298,1321,1369,1510,1687,1888,2089,2200,2200,2392,2199,2243,2116,2031,1992,1983,1977,1879,1842,1864,1791,1727,1695,1653,1613,1543,1506,1469,1432,1445,1374,1375,1295,1284,1279,1311,1328,1366,1372,1367,1379,1383,1380,1372,1398,1369,1379,1372,1372,1372,1396,1389,1390,1389,1387,1387,1379,1390,1403,1375,1391,1375,1388,1379,686,689,715,687,707,797,889,1020,1082,1115,1126,1108,1090,1092,1054,1047,1011,1001,983,965,980,929,911,893,869,851,833,822,832,814,768,781,732,714,701,691,699,726,692,689,694,710,695,709,694,705,716,701,703,697,697,703,697,698,700,706,703,709,700,702,708,717,710,721,712,852,836,841,860,936,1034,1185,1389,1514,1550,1542,1522,1487,1459,1432,1404,1376,1349,1321,1293,1266,1230,1185,1187,1157,1127,1067,1017,1013,970,976,932,910,879,866,860,850,855,904,860,851,869,921,963,886,876,889,901,925,890,900,904,906,901,883,902,922,919,927,950,898,906,953,883,879,1547,1443,1468,1598,1892,1932,2162,2359,2503,2516,2437,2513,2406,2312,2270,2229,2291,2240,2104,2091,2085,2052,1937,1943,1856,1811,1827,1738,1656,1695,1693,1570,1498,1551,1551,1456,1462,1510,1632,1614,1632,1636,1625,1621,1698,1700,1633,1664,1652,1620,1624,1681,1694,1721,1694,1687,1678,1701,1706,1703,1658,1664,1626,1642,1651,1176,1179,1165,1215,1313,1473,1720,1914,1967,2077,1967,1947,1948,1879,1845,1811,1816,1742,1708,1714,1674,1652,1640,1557,1505,1469,1427,1390,1335,1329,1311,1235,1202,1176,1164,1186,1187,1193,1243,1246,1242,1332,1295,1292,1275,1267,1285,1318,1284,1328,1328,1330,1266,1274,1294,1304,1304,1273,1314,1366,1318,1305,1319,1291,1296,383,384,385,387,388,415,470,525,580,627,638,628,618,607,597,587,577,644,556,546,536,526,516,575,495,485,475,465,455,444,434,424,414,404,394,389,390,391,376,383,388,399,391,395,384,394,380,410,387,384,395,389,409,426,402,394,401,392,399,396,403,412,387,393,386,554,555,556,557,567,638,747,904,1008,1054,1055,1035,1016,996,977,957,938,918,899,879,859,850,820,806,784,761,708,690,671,652,651,614,596,577,565,558,561,564,570,569,560,569,563,564,564,570,580,562,572,588,584,585,595,616,586,573,576,569,590,585,575,580,583,575,567,268,269,270,271,272,284,322,360,397,434,449,442,435,427,420,413,406,399,392,384,377,370,363,356,349,341,334,327,320,313,306,299,291,284,277,272,273,274,259,262,263,265,268,263,263,265,264,263,279,272,263,270,281,279,323,293,274,271,269,266,266,272,276,265,264,1167,1126,1172,1179,1251,1454,1651,1857,1948,1978,2027,1927,1925,1859,1886,1821,1816,1724,1688,1652,1604,1594,1577,1551,1503,1498,1380,1371,1313,1267,1256,1229,1179,1152,1217,1135,1154,1176,1190,1190,1189,1190,1196,1192,1206,1216,1197,1204,1207,1220,1285,1282,1235,1215,1228,1249,1259,1321,1313,1213,1251,1332,1341,1315,1241,809,808,813,813,847,952,1136,1289,1391,1431,1426,1402,1416,1352,1328,1303,1279,1254,1229,1205,1207,1165,1131,1133,1084,1105,1045,975,951,967,921,880,887,832,820,813,817,821,838,809,817,817,816,825,827,837,831,827,837,827,830,830,828,837,833,832,836,835,831,827,836,840,840,850,844,521,523,524,520,525,578,655,731,807,847,862,848,835,821,807,726,772,766,752,738,725,711,697,672,663,649,636,629,615,601,587,525,560,546,533,523,530,532,548,508,514,516,516,529,516,525,517,522,536,527,519,526,525,539,531,534,523,526,526,532,538,536,534,555,538,430,432,433,434,436,467,528,589,651,700,712,701,690,678,715,656,644,633,622,611,599,588,577,566,554,543,532,520,509,498,487,475,464,453,442,437,438,439,444,435,450,442,445,435,449,453,440,449,456,439,439,452,450,462,447,456,445,456,460,458,449,444,434,439,447,1405,1343,1332,1503,1611,1771,1978,2253,2266,2344,2268,2229,2181,2209,2167,2072,2109,2074,1955,1916,1962,1904,1831,1764,1765,1716,1690,1589,1556,1619,1473,1418,1383,1454,1460,1367,1346,1352,1434,1412,1429,1433,1426,1443,1435,1435,1438,1452,1478,1459,1465,1471,1470,1482,1467,1473,1463,1489,1493,1491,1487,1478,1498,1511,1516,1083,1087,1090,1110,1178,1318,1492,1637,1738,1766,1758,1730,1702,1674,1646,1618,1590,1562,1534,1506,1478,1449,1421,1393,1365,1337,1309,1303,1253,1225,1197,1169,1141,1127,1102,1100,1102,1105,1127,1122,1129,1166,1141,1120,1128,1146,1133,1193,1252,1144,1156,1151,1139,1133,1137,1161,1124,1127,1123,1126,1126,1139,1135,1156,1124,1247,1250,1247,1323,1373,1543,1752,1875,2022,1916,1953,1929,1897,1871,1828,1811,1819,1741,1709,1670,1642,1641,1586,1578,1527,1495,1455,1411,1404,1408,1360,1298,1285,1255,1232,1255,1243,1239,1269,1267,1272,1280,1276,1284,1287,1310,1288,1295,1285,1289,1295,1296,1296,1296,1304,1314,1305,1312,1309,1297,1318,1310,1322,1315,1306,1592,1577,1646,1838,1985,2153,2328,2472,2594,2600,2659,2535,2430,2390,2467,2311,2271,2231,2226,2152,2140,2112,2053,2020,1967,1964,1961,1844,1792,1821,1814,1821,1669,1629,1664,1725,1641,1644,1811,1811,1809,1832,1862,1863,1853,1870,1842,1868,1884,1862,1866,1865,1880,1910,2016,1948,1887,1892,1881,1889,1873,1868,1902,1907,1893,635,635,639,641,655,717,811,905,992,1036,1040,1020,1007,991,974,958,942,922,909,892,876,860,841,824,810,794,773,761,745,728,712,695,679,663,649,645,647,646,639,646,656,678,663,661,654,677,648,680,666,676,709,699,725,723,667,662,677,674,670,662,676,690,657,663,655,1808,1850,1951,2195,2496,2810,2954,3051,3107,3063,3105,2974,2965,2867,2844,2803,2707,2817,2642,2705,2547,2487,2386,2350,2341,2244,2169,2119,2112,2004,2003,1913,1882,1837,1887,1860,1906,1917,2223,2217,2236,2272,2253,2251,2262,2247,2249,2268,2276,2257,2328,2312,2284,2275,2305,2312,2299,2330,2341,2261,2294,2347,2355,2356,2280,630,652,643,636,637,732,824,921,1007,1045,1053,1054,1037,1008,985,968,952,951,918,901,855,868,851,834,822,794,780,761,747,724,713,699,674,662,664,648,628,643,638,636,648,661,660,666,645,671,644,678,654,644,656,648,661,676,663,654,661,645,654,661,656,666,647,659,648,652,659,661,663,676,745,849,949,1007,1073,1075,1081,1041,1023,1006,989,980,955,937,928,884,867,907,858,841,823,782,766,765,748,737,714,702,679,666,667,664,665,682,671,640,638,679,670,660,659,666,670,723,679,695,703,702,682,684,695,691,718,748,708,691,690,744,701,682,690,690,708,694,715,824,911,1001,1086,1128,1130,1154,1112,1135,1095,1040,1022,1039,986,969,967,932,946,945,893,879,842,824,806,788,770,779,735,755,715,712,702,702,729,715,713,713,710,717,720,721,717,716,718,716,720,716,721,720,724,724,718,720,723,725,717,735,722,728,726,1467,1456,1497,1664,1890,2185,2364,2475,2543,2508,2561,2436,2437,2347,2333,2323,2227,2194,2168,2102,2089,2052,1944,1917,1918,1845,1788,1760,1724,1650,1631,1542,1510,1491,1513,1520,1529,1539,1617,1614,1619,1717,1681,1659,1657,1650,1650,1690,1721,1665,1696,1685,1696,1686,1693,1673,1643,1649,1634,1641,1631,1648,1649,1685,1604,0,0,0,0,0,0,0,0,0,0,0,0,0,0,0,0,0,0,0,0,0,0,0,0,0,0,0,0,0,0,0,0,0,0,0,0,0,0,0,0,0,0,0,0,0,0,0,0,0,0,0,0,0,0,0,0,0,0,0,0,0,0,0,0,0,1005,1023,1015,1030,1141,1241,1339,1506,1646,1623,1634,1623,1578,1492,1521,1511,1492,1459,1432,1414,1370,1352,1373,1283,1278,1215,1223,1198,1145,1127,1130,1116,1058,1026,1060,1041,1025,1035,1039,1050,1040,1054,1052,1061,1057,1068,1061,1067,1054,1063,1057,1052,1045,1050,1059,1065,1051,1053,1044,1050,1051,1066,1065,1068,1046,842,844,844,880,936,1042,1140,1259,1405,1437,1432,1355,1382,1311,1351,1316,1245,1223,1238,1164,1201,1206,1112,1090,1112,1088,1024,1041,1031,980,984,914,897,871,866,888,891,897,891,870,869,870,883,899,882,890,890,911,916,923,920,927,914,923,911,907,916,916,929,953,924,932,930,948,936,624,626,646,648,659,718,797,896,960,1024,1028,1069,978,981,948,950,923,902,903,878,861,839,841,825,809,779,778,757,733,731,702,687,672,661,643,651,653,654,631,647,636,669,634,657,640,663,648,656,651,644,657,651,662,661,660,661,663,659,670,656,662,669,662,671,672,960,1017,963,976,1062,1205,1290,1453,1581,1573,1644,1568,1511,1461,1464,1436,1459,1426,1388,1336,1311,1286,1292,1237,1226,1167,1169,1139,1096,1087,1067,1069,1012,974,1007,991,1000,980,994,1004,1003,1026,1036,1045,1044,1024,1014,1036,1011,1004,1023,1019,1016,1007,1042,1030,1004,1000,1013,1008,1005,1013,1017,1028,1001,1526,1539,1581,1779,2023,2234,2415,2554,2597,2594,2607,2494,2497,2467,2395,2386,2327,2259,2278,2175,2144,2157,2047,1989,1991,1906,1863,1852,1814,1729,1711,1623,1591,1578,1600,1622,1616,1627,1755,1741,1728,1762,1740,1765,1793,1811,1776,1886,1753,1753,1762,1799,1843,1792,1808,1828,1824,1825,1786,1779,1800,1774,1755,1750,1729,496,497,499,500,505,579,622,694,767,814,821,866,795,782,806,755,742,781,716,747,690,677,696,651,638,625,650,598,585,572,559,573,533,520,507,503,504,503,490,490,501,519,493,504,494,502,493,494,500,496,492,496,498,504,500,503,498,500,501,499,498,506,491,500,499,577,579,588,590,600,680,736,822,905,950,954,995,924,909,931,878,863,960,832,827,802,786,803,756,740,725,719,695,679,664,649,660,618,603,590,586,587,586,590,594,592,599,600,608,594,614,595,596,596,594,593,609,605,607,602,606,607,601,609,616,601,615,592,602,600,834,841,846,851,894,1015,1098,1238,1317,1379,1358,1309,1309,1282,1304,1239,1223,1237,1185,1157,1168,1122,1127,1117,1051,1034,1009,987,970,944,928,928,882,859,861,847,848,846,845,838,856,873,851,869,846,852,847,846,863,853,855,856,858,874,862,864,851,861,858,870,862,869,853,874,875,724,726,729,731,757,844,949,1060,1151,1191,1191,1172,1153,1149,1115,1096,1077,1058,1039,1020,1001,988,962,943,924,905,886,867,848,829,810,791,772,753,739,735,737,739,718,725,733,743,741,746,730,749,729,768,744,768,745,746,767,787,761,753,763,758,759,760,763,770,747,752,747,1713,1743,1852,2069,2262,2599,2733,2838,2884,2910,2928,2846,2816,2705,2692,2605,2553,2520,2454,2404,2338,2309,2348,2194,2181,2107,2055,2004,1955,1891,1894,1869,1839,1753,1761,1781,1774,1776,2012,2053,2056,2086,2080,2113,2050,2076,2078,2081,2106,2103,2123,2162,2121,2145,2121,2148,2163,2179,2200,2160,2184,2223,2216,2206,2201,924,926,931,972,1010,1102,1245,1391,1474,1500,1501,1475,1467,1427,1414,1382,1376,1341,1321,1274,1265,1251,1214,1216,1160,1145,1130,1103,1070,1054,1031,998,977,952,932,958,961,941,992,975,985,978,981,971,1004,983,971,965,983,978,975,977,978,977,971,982,978,978,982,988,973,986,978,977,976,298,299,300,301,301,316,356,396,436,475,489,481,474,466,458,451,443,436,428,421,413,405,398,390,383,375,368,360,352,345,337,330,322,315,307,302,303,304,292,288,293,293,289,300,295,302,301,295,304,294,296,294,294,300,297,296,294,296,294,294,295,297,296,304,301,779,776,833,776,872,896,1015,1141,1338,1258,1258,1245,1225,1209,1178,1172,1152,1124,1104,1078,1057,1043,1023,1003,993,957,937,904,899,888,915,837,817,798,784,790,790,785,781,778,784,786,786,797,800,804,800,831,805,794,790,792,791,799,794,795,798,797,795,793,794,800,789,804,798,1749,1813,1831,2018,2237,2452,2642,2766,2894,2830,2902,2791,2690,2646,2647,2578,2551,2524,2483,2400,2365,2333,2256,2214,2181,2132,2114,2040,2026,1934,1938,1824,1827,1764,1811,1792,1837,1812,2109,2108,2079,2103,2107,2153,2114,2137,2162,2236,2140,2170,2155,2164,2147,2185,2162,2142,2153,2144,2134,2172,2163,2185,2163,2172,2132,1163,1231,1222,1216,1321,1537,1732,1812,1898,1911,1915,1863,1893,1800,1779,1751,1714,1683,1672,1619,1687,1601,1528,1492,1482,1437,1407,1381,1372,1312,1308,1250,1202,1198,1187,1246,1205,1192,1244,1233,1251,1252,1243,1239,1245,1250,1242,1272,1281,1250,1260,1300,1322,1295,1291,1261,1245,1268,1252,1243,1245,1260,1252,1272,1257,1515,1504,1544,1788,1910,2189,2371,2566,2554,2520,2565,2452,2455,2460,2354,2345,2236,2219,2194,2130,2105,2084,1977,1951,1954,1870,1867,1788,1811,1714,1676,1589,1557,1537,1547,1599,1591,1573,1667,1660,1669,1683,1664,1680,1678,1680,1690,1766,1682,1688,1709,1706,1717,1725,1728,1717,1700,1716,1709,1713,1712,1728,1712,1731,1720,584,584,587,589,600,657,741,831,926,957,962,947,929,916,901,885,870,852,837,824,809,794,778,763,763,732,717,700,686,671,656,641,625,610,597,593,594,596,590,593,586,595,596,596,621,628,598,598,599,606,601,592,594,605,602,596,600,601,593,600,594,602,600,609,592,995,976,998,1042,1141,1207,1369,1500,1625,1637,1584,1579,1554,1528,1512,1478,1453,1427,1381,1377,1351,1364,1301,1311,1265,1239,1199,1173,1147,1152,1127,1087,1073,1034,1056,1051,998,1028,1031,1039,1044,1078,1059,1055,1046,1057,1047,1050,1052,1051,1085,1101,1091,1066,1067,1076,1080,1076,1077,1067,1069,1110,1087,1098,1095,1874,1827,1968,2206,2392,2603,2745,2910,2992,3082,2997,2885,2803,2868,2775,2721,2637,2573,2573,2482,2450,2416,2333,2299,2279,2205,2149,2172,2049,2011,1977,1922,1940,1859,1850,1901,1901,1879,2179,2198,2208,2223,2248,2277,2246,2270,2267,2279,2308,2303,2323,2361,2330,2349,2347,2374,2407,2409,2432,2393,2424,2456,2461,2465,2446,1815,1783,1877,2153,2454,2748,2913,3011,3063,2986,3066,2898,2926,2853,2771,2752,2677,2664,2605,2531,2496,2464,2319,2328,2304,2226,2131,2109,2057,1976,1960,1877,1859,1841,1840,1848,1869,1880,2154,2150,2179,2205,2216,2197,2218,2253,2257,2271,2312,2306,2362,2324,2298,2335,2387,2354,2336,2352,2437,2433,2451,2483,2483,2459,2425,615,617,619,621,633,694,785,877,962,1006,1010,994,978,962,946,930,914,898,882,866,850,834,818,802,786,770,754,738,722,706,690,674,658,642,628,624,626,627,618,637,625,646,641,642,640,654,630,641,631,630,638,647,645,646,671,668,639,641,652,636,629,632,647,648,636,1247,1250,1247,1323,1373,1543,1752,1875,2022,1916,1953,1929,1897,1871,1828,1811,1819,1741,1709,1670,1642,1641,1586,1578,1527,1495,1455,1411,1404,1408,1360,1298,1285,1255,1232,1255,1243,1239,1269,1267,1272,1280,1276,1284,1287,1310,1288,1295,1285,1289,1295,1296,1296,1296,1304,1314,1305,1312,1309,1297,1318,1310,1322,1315,1306,411,412,413,423,416,448,505,562,619,643,644,636,628,620,614,607,598,599,589,578,567,557,546,536,526,526,505,518,484,473,483,462,442,431,421,417,427,419,414,410,417,435,425,417,418,427,422,425,432,435,499,501,521,460,434,424,424,440,427,419,423,434,426,435,423,664,666,668,670,688,757,858,958,1046,1365,1091,1223,1057,1039,1021,1004,987,969,952,934,917,900,882,865,848,830,813,796,779,761,744,726,709,691,678,674,676,677,672,666,672,683,714,726,694,737,713,724,735,715,707,693,694,724,700,686,722,705,691,705,703,729,703,713,694,738,723,770,779,752,897,936,1155,1185,1218,1195,1175,1226,1112,1120,1076,1057,1064,1102,1003,985,1020,948,930,912,996,941,857,839,840,802,784,766,748,784,731,733,735,733,733,736,735,739,739,762,758,751,755,762,749,749,760,766,787,753,758,751,753,760,766,753,761,751,801,754,1213,1216,1350,1264,1310,1463,1641,1782,1842,2059,1855,1972,1823,1780,1765,1736,1697,1659,1642,1610,1575,1559,1531,1515,1476,1448,1421,1389,1364,1393,1352,1266,1287,1248,1227,1246,1241,1248,1297,1285,1302,1306,1296,1313,1302,1314,1325,1307,1340,1309,1327,1318,1319,1323,1310,1319,1306,1327,1300,1312,1317,1329,1304,1321,1320,429,431,432,433,437,499,527,591,692,688,704,693,685,666,660,670,679,651,616,605,594,620,572,561,550,539,528,517,506,495,514,473,462,451,437,435,437,440,431,432,433,438,440,437,433,430,432,435,435,448,475,437,444,455,434,432,437,435,440,441,449,438,433,435,432,579,574,605,561,588,645,728,812,861,959,966,951,910,894,905,875,849,842,820,782,790,775,739,746,710,696,688,667,672,658,678,627,620,581,568,581,583,592,592,570,575,579,578,588,587,593,587,585,592,582,576,579,577,586,582,580,584,580,582,577,578,585,573,587,582,590,592,594,635,606,665,750,836,997,960,963,1010,933,918,903,888,872,857,897,827,850,797,782,767,752,760,721,706,758,676,661,646,631,616,634,599,621,602,596,606,601,618,607,618,603,613,606,602,608,605,603,617,611,616,616,624,619,622,630,622,621,640,619,631,624,844,847,849,853,956,1082,1290,1453,1546,1567,1551,1523,1494,1466,1437,1408,1380,1351,1319,1278,1266,1237,1201,1171,1131,1132,1082,1053,1014,994,962,934,914,876,854,872,867,872,893,882,882,889,889,891,900,892,897,906,908,893,900,906,909,913,905,920,901,919,902,891,909,917,891,897,882,923,916,981,927,1010,1094,1237,1355,1576,1618,1505,1514,1458,1474,1410,1391,1371,1338,1291,1267,1275,1251,1227,1200,1139,1152,1203,1080,1057,1053,1010,1068,987,942,929,919,929,931,939,977,937,940,966,943,952,955,957,974,971,959,977,960,966,969,974,974,966,973,1008,977,994,998,1015,977,970,0,0,0,0,0,0,0,0,0,0,0,0,0,0,0,0,0,0,0,0,0,0,0,0,0,0,0,0,0,0,0,0,0,0,0,0,0,0,0,0,0,0,0,0,0,0,0,0,0,0,0,0,0,0,0,0,0,0,0,0,0,0,0,0,0,574,558,605,561,570,624,698,786,844,937,940,925,902,868,880,840,825,836,790,775,768,811,737,725,704,696,681,661,647,658,624,604,595,576,568,564,566,567,562,567,560,564,575,572,596,607,571,579,576,582,578,567,569,584,583,571,578,570,565,573,569,580,576,583,567,1450,1456,1483,1508,1669,1894,2062,2277,2382,2304,2265,2230,2196,2191,2164,2046,2001,2110,2003,1920,1890,1846,1821,1786,1782,1703,1744,1657,1613,1665,1575,1576,1487,1456,1454,1443,1473,1425,1578,1567,1542,1562,1565,1604,1572,1581,1604,1671,1590,1637,1632,1641,1598,1644,1632,1589,1579,1593,1613,1647,1635,1655,1637,1633,1598,113,113,113,114,114,116,129,142,155,168,178,175,173,170,168,165,163,160,157,155,152,150,147,145,142,139,137,134,132,129,127,124,121,119,116,114,114,115,98,100,100,100,100,100,100,100,98,101,98,100,100,102,102,102,101,101,101,101,103,103,101,102,100,101,101,902,928,950,946,1027,1202,1335,1592,1596,1619,1604,1577,1550,1512,1560,1457,1461,1413,1397,1342,1377,1311,1269,1240,1222,1200,1182,1150,1109,1087,1024,1013,1001,935,940,959,926,975,970,988,958,959,969,969,1031,984,968,1003,1009,968,981,971,982,985,994,992,990,1007,1042,989,982,977,966,996,958,550,552,554,553,565,616,695,775,885,888,899,882,875,857,842,825,815,801,784,770,759,737,730,716,706,688,671,657,643,631,612,603,589,585,562,560,558,571,564,561,561,569,550,561,557,559,577,613,560,570,576,575,580,588,596,573,568,565,571,576,568,569,572,575,570,463,464,465,517,471,507,574,710,781,826,832,820,731,794,781,688,755,800,729,770,635,709,678,717,652,577,566,554,542,531,514,508,496,495,475,471,521,482,483,478,480,480,481,478,481,479,483,480,479,480,486,488,485,487,491,486,487,488,488,496,490,494,487,485,492,473,514,493,494,500,556,633,678,785,781,731,723,715,707,699,691,683,711,699,686,650,652,649,637,624,625,599,587,574,559,530,537,525,502,502,497,498,499,491,499,494,508,506,510,507,507,494,506,503,496,500,511,506,511,529,517,507,506,515,507,502,517,499,510,500,1131,1144,1145,1110,1405,1310,1544,1661,1725,1846,1794,1700,1688,1658,1666,1655,1535,1524,1585,1522,1499,1469,1456,1416,1323,1408,1331,1279,1216,1246,1165,1137,1146,1112,1067,1069,1070,1091,1104,1110,1154,1411,1169,1095,1152,1245,1173,1121,1215,1195,1138,1150,1227,1206,1187,1099,1137,1130,1180,1183,1114,1161,1126,1127,1137,1194,1145,1194,1210,1333,1480,1612,1783,1892,2100,1862,2121,1816,1849,1783,1694,1696,1635,1606,1644,1613,1518,1488,1483,1430,1427,1387,1357,1375,1346,1278,1225,1196,1196,1200,1158,1184,1164,1233,1236,1191,1187,1233,1213,1222,1230,1226,1242,1282,1230,1241,1254,1254,1257,1234,1262,1269,1274,1306,1266,1250,1257,1309,1241,1246,678,676,710,666,684,750,859,949,1025,1126,1104,1108,1069,1046,1042,975,995,1009,960,902,926,885,891,874,820,818,822,810,793,789,734,736,704,701,673,684,686,688,680,676,675,690,676,678,718,715,680,707,693,682,680,705,744,776,731,729,735,738,726,715,712,698,684,691,689,1176,1136,1344,1185,1365,1530,1625,1743,1956,1959,1878,1875,1816,1790,1742,1688,1642,1654,1586,1556,1544,1515,1486,1469,1413,1442,1434,1356,1327,1425,1268,1266,1212,1176,1178,1161,1153,1257,1223,1219,1233,1256,1246,1257,1251,1239,1248,1292,1259,1245,1257,1268,1303,1272,1276,1260,1234,1265,1245,1243,1239,1268,1256,1272,1239,269,270,270,271,272,285,320,355,390,425,436,430,423,417,410,403,397,390,383,377,370,363,357,350,343,337,330,323,317,310,303,297,290,283,277,273,273,274,261,264,263,268,269,278,271,284,279,270,285,273,270,270,269,278,269,268,273,272,268,268,266,272,266,274,263,858,888,854,869,904,997,1196,1284,1354,1576,1379,1505,1358,1335,1299,1290,1268,1245,1203,1237,1159,1156,1133,1100,1088,1066,1026,1004,989,1006,954,960,937,888,860,871,901,903,886,892,877,914,897,893,900,920,892,889,896,906,902,892,891,897,899,902,897,901,892,898,888,904,899,898,882,525,520,521,523,536,577,654,720,816,855,856,844,831,818,806,793,780,768,751,726,730,717,696,682,658,675,641,627,604,600,584,572,557,545,523,526,534,529,530,527,529,536,530,534,532,539,530,536,533,530,532,529,536,541,533,533,534,536,537,533,533,546,530,537,531,864,867,870,876,921,1023,1159,1289,1485,1534,1408,1507,1448,1348,1318,1296,1273,1251,1229,1206,1184,1162,1139,1117,1094,1072,1050,1027,1005,983,961,978,915,894,881,877,880,882,888,882,892,912,897,897,892,901,904,905,913,893,907,935,957,938,931,914,892,917,901,894,889,924,906,924,897,502,530,505,507,514,592,636,699,820,814,820,807,798,785,769,789,850,825,718,705,692,723,666,653,648,628,615,602,589,577,600,551,538,525,516,519,511,514,510,515,517,534,525,518,522,541,519,526,531,545,569,569,579,568,521,518,530,534,527,524,527,534,526,527,524,286,306,288,289,309,305,346,405,444,470,477,470,471,452,451,446,442,438,437,428,438,431,415,407,388,378,371,374,356,358,347,335,310,302,295,310,311,292,288,296,296,305,300,308,294,311,293,309,297,291,297,301,307,311,304,300,301,295,309,305,296,301,292,299,294,1028,927,949,939,1018,1127,1255,1391,1506,1723,1526,1764,1456,1588,1436,1384,1360,1336,1312,1414,1382,1240,1216,1216,1168,1144,1136,1112,1094,1048,1024,1000,976,954,955,937,940,942,951,951,950,966,990,952,960,976,966,967,976,983,1061,1063,1084,1016,1051,1046,1009,997,971,968,983,960,978,970,961,1177,1177,1158,1224,1377,1540,1767,1862,1921,2118,1932,2047,1897,1883,1836,1806,1858,1779,1708,1675,1638,1647,1592,1575,1534,1506,1477,1425,1400,1329,1316,1279,1214,1211,1165,1198,1205,1193,1244,1244,1242,1252,1268,1251,1269,1272,1267,1257,1268,1275,1345,1298,1327,1318,1259,1268,1272,1284,1271,1265,1283,1257,1265,1283,1257,1087,1099,1158,1150,1274,1393,1489,1761,1787,1777,1746,1741,1758,1638,1635,1575,1577,1553,1617,1475,1448,1473,1393,1366,1339,1430,1349,1258,1230,1222,1176,1149,1122,1115,1137,1085,1088,1091,1105,1110,1115,1135,1264,1196,1149,1193,1143,1282,1179,1200,1195,1137,1167,1220,1174,1146,1230,1162,1149,1204,1189,1265,1196,1189,1162,411,412,413,423,416,448,505,562,619,643,644,636,628,620,614,607,598,599,589,578,567,557,546,536,526,526,505,518,484,473,483,462,442,431,421,417,427,419,414,410,417,435,425,417,418,427,422,425,432,435,499,501,521,460,434,424,424,440,427,419,423,434,426,435,423,786,788,781,784,828,907,1027,1162,1234,1285,1271,1251,1229,1210,1191,1170,1149,1129,1110,1115,1080,1048,1053,1008,986,967,947,926,906,886,876,845,825,805,800,797,799,793,809,794,794,801,806,806,812,808,807,817,817,809,813,820,821,814,815,828,818,829,814,804,822,823,806,805,795,987,984,979,1007,1065,1222,1435,1583,1685,1719,1695,1676,1646,1612,1575,1555,1539,1495,1464,1434,1409,1376,1348,1313,1283,1253,1220,1192,1173,1131,1093,1071,1040,1035,997,1007,1000,1005,1035,1004,1020,1050,1035,1031,1031,1049,1039,1044,1063,1059,1207,1239,1344,1126,1049,1032,1038,1049,1040,1021,1027,1046,1031,1055,1037,290,291,292,293,294,308,347,365,426,464,476,469,462,454,447,439,432,425,417,410,402,395,388,380,373,366,358,351,343,336,329,321,314,306,299,295,295,296,281,282,287,300,289,289,289,300,287,293,289,286,297,301,309,307,300,294,288,302,296,287,292,305,294,300,289,1057,1059,1062,1082,1170,1369,1607,1789,1915,1921,1903,1868,1861,1797,1761,1726,1706,1655,1620,1584,1563,1513,1478,1442,1407,1371,1336,1301,1394,1230,1168,1132,1096,1218,1085,1075,1092,1084,1124,1124,1172,1424,1176,1108,1167,1257,1191,1134,1230,1205,1153,1166,1241,1218,1199,1115,1146,1144,1190,1198,1126,1173,1142,1138,1156,345,346,347,348,349,376,421,471,520,564,581,566,556,547,538,529,520,511,506,492,483,479,465,456,446,441,432,419,410,401,391,382,373,364,363,350,351,352,338,341,338,347,343,354,340,349,349,345,342,341,342,347,342,342,345,348,346,343,348,348,347,351,347,354,347,260,260,261,262,263,276,313,350,386,429,441,434,427,414,407,401,394,387,380,373,366,359,352,345,338,331,324,306,300,293,286,279,282,275,268,264,264,265,255,254,253,253,255,250,254,253,255,253,253,253,255,255,256,257,258,256,254,255,255,256,257,257,255,255,257,753,774,757,757,804,883,990,1102,1190,1246,1247,1208,1193,1169,1156,1130,1110,1095,1083,1054,1050,1076,1009,975,964,992,935,895,920,856,840,817,809,779,774,761,763,777,771,770,786,868,797,769,794,824,793,782,787,787,790,786,798,794,792,777,791,782,801,808,784,804,779,786,795,689,691,692,694,725,852,1015,1177,1294,1332,1325,1298,1272,1246,1220,1193,1183,1141,1115,1089,1077,1036,1010,984,957,931,905,879,865,826,800,774,759,721,713,702,718,724,710,721,725,744,797,776,739,786,740,818,766,795,769,741,769,812,767,744,794,760,748,777,772,809,762,756,745,669,671,673,698,720,735,886,930,1017,1099,1133,1079,1065,1047,1061,1009,1013,977,926,909,893,876,859,898,829,784,819,774,757,740,723,706,712,696,683,700,681,696,679,677,686,701,698,692,687,692,690,701,703,693,699,733,753,736,726,702,693,706,699,694,686,710,695,710,690,519,520,522,494,520,540,652,682,805,845,859,848,849,815,821,777,765,735,764,727,739,666,692,641,666,652,638,590,577,564,551,538,526,513,522,497,498,530,495,501,495,508,498,501,500,510,503,494,502,502,502,498,499,502,502,503,501,506,500,507,498,513,502,507,500,0,0,0,0,0,0,0,0,0,0,0,0,0,0,0,0,0,0,0,0,0,0,0,0,0,0,0,0,0,0,0,0,0,0,0,0,0,0,0,0,0,0,0,0,0,0,0,0,0,0,0,0,0,0,0,0,0,0,0,0,0,0,0,0,0,1021,1068,1060,1035,1100,1204,1378,1478,1616,1637,1643,1618,1627,1556,1541,1516,1490,1454,1439,1414,1380,1347,1314,1302,1277,1261,1235,1210,1232,1203,1119,1108,1070,1053,1073,1032,1014,1042,1053,1059,1051,1063,1081,1053,1060,1089,1059,1089,1062,1101,1085,1095,1078,1097,1096,1121,1099,1091,1093,1106,1116,1100,1112,1101,1129,499,500,502,504,507,552,626,699,772,818,826,812,798,786,773,799,747,734,720,707,694,681,668,655,640,628,615,602,589,576,563,549,536,523,511,506,508,509,504,501,507,514,508,506,510,511,510,508,513,511,530,539,545,526,513,509,510,518,514,510,510,518,509,514,511,770,772,778,752,826,964,1082,1234,1344,1424,1366,1352,1327,1348,1266,1277,1227,1221,1231,1152,1127,1102,1083,1090,1062,1047,1005,977,927,902,869,852,849,802,799,788,777,783,814,784,783,793,771,792,782,792,791,832,805,785,784,789,810,795,806,787,790,795,792,792,801,800,787,821,795,463,532,466,468,471,521,579,646,714,761,782,756,744,732,719,707,695,683,683,658,646,645,690,609,625,595,610,560,548,536,523,511,499,487,483,470,472,473,469,465,477,506,479,464,481,495,479,473,476,477,479,476,483,480,485,477,475,473,484,484,473,484,475,477,480,466,520,469,471,473,523,579,645,706,759,781,754,742,730,718,706,694,677,682,658,646,646,690,610,626,597,612,562,550,538,526,513,501,489,486,473,475,476,470,479,477,485,487,488,488,495,476,487,483,476,484,493,487,486,508,491,481,481,493,492,477,485,479,490,480,688,682,684,696,694,785,875,984,1059,1125,1087,1103,1091,1050,1037,1037,1019,962,976,948,948,950,877,894,862,851,834,824,791,787,753,736,721,708,698,679,681,708,694,690,694,698,699,694,702,693,698,702,706,697,706,710,708,708,723,712,699,701,700,705,698,708,706,708,702,600,601,603,605,616,677,767,873,959,988,991,1018,960,953,937,921,904,880,864,890,833,830,801,785,810,771,738,722,717,690,674,658,683,626,613,609,610,612,602,610,606,621,606,610,613,616,616,618,610,613,610,614,616,616,619,628,618,614,617,615,625,626,618,619,618,1263,1257,1294,1341,1465,1678,1949,2068,2124,2149,2153,2178,2120,2041,2003,2018,1938,1900,1833,1796,1838,1725,1687,1647,1637,1600,1578,1575,1486,1466,1418,1393,1320,1291,1274,1274,1303,1303,1356,1357,1361,1404,1395,1374,1381,1394,1379,1406,1417,1403,1391,1394,1401,1405,1406,1392,1387,1390,1379,1374,1363,1395,1388,1394,1352,174,175,175,176,176,182,205,229,252,276,289,285,280,276,271,267,262,258,253,248,244,239,235,230,226,221,217,212,208,203,199,194,189,185,180,177,177,178,161,162,162,162,163,162,164,164,164,164,164,165,165,165,165,166,165,165,166,166,165,165,166,167,169,167,167,752,754,757,759,787,869,983,1072,1186,1226,1226,1240,1187,1168,1181,1129,1110,1090,1071,1052,1032,1013,994,1024,955,935,916,897,877,858,839,819,800,781,767,763,765,767,804,755,759,768,756,794,763,792,784,768,798,767,769,771,772,783,775,769,775,779,771,769,768,779,766,782,771,476,479,479,481,484,526,596,653,734,772,787,776,763,751,738,726,713,701,719,676,663,643,638,626,603,601,615,576,557,544,538,526,514,500,496,484,485,486,481,486,479,500,510,501,498,503,495,492,507,511,507,530,524,514,500,506,511,499,478,537,496,498,495,517,493,968,1000,959,987,1043,1213,1395,1575,1676,1710,1687,1709,1624,1596,1566,1546,1516,1485,1455,1424,1382,1355,1336,1303,1272,1270,1212,1208,1151,1121,1111,1051,1020,1029,987,986,1041,985,997,1000,1017,1038,1013,1032,1011,1030,1011,1030,1028,1009,1013,1023,1029,1049,1032,1029,1022,1016,1032,1031,1028,1029,1013,1040,1022,452,453,455,456,459,496,562,628,694,743,750,739,787,715,703,691,679,667,655,643,631,619,657,595,583,571,559,547,535,566,511,499,487,475,463,459,460,461,450,457,463,472,470,475,457,478,454,493,468,491,468,468,488,509,481,472,480,475,477,476,478,484,460,465,460,736,737,732,741,773,888,1039,1189,1299,1408,1322,1309,1284,1249,1224,1303,1186,1161,1137,1112,1087,1063,1038,1013,989,964,940,936,890,866,833,817,792,767,750,748,752,757,747,747,751,752,758,749,754,755,758,761,763,764,766,779,767,768,779,769,772,775,775,774,776,777,782,782,784,331,332,333,334,335,356,402,449,496,539,550,541,532,590,515,506,498,489,480,531,463,454,445,437,428,472,411,402,393,384,376,367,358,350,341,336,337,338,328,332,328,332,333,334,335,342,333,332,337,341,328,332,333,337,335,333,337,335,334,334,333,337,330,334,334,437,439,440,442,444,480,544,610,673,717,766,716,703,693,719,670,659,647,635,623,614,600,588,615,558,558,541,536,525,514,503,492,481,460,440,444,445,447,432,434,433,444,438,452,435,439,449,442,437,439,435,440,439,434,441,445,442,438,439,440,447,454,449,456,447,1033,1039,1112,1059,1162,1308,1551,1681,1780,1812,1787,1766,1877,1692,1660,1787,1606,1575,1543,1511,1504,1450,1418,1383,1351,1347,1287,1399,1223,1191,1152,1147,1196,1068,1053,1053,1055,1080,1090,1103,1103,1135,1083,1128,1101,1128,1114,1134,1144,1115,1130,1118,1127,1134,1127,1126,1120,1127,1160,1126,1130,1128,1120,1156,1152,1021,1037,1026,1059,1147,1444,1586,1747,1880,1901,1893,1789,1755,1757,1722,1686,1660,1640,1578,1545,1590,1456,1408,1421,1369,1350,1299,1264,1228,1193,1158,1097,1087,1063,1038,1013,1045,1087,1075,1065,1057,1061,1076,1118,1098,1103,1092,1112,1116,1123,1123,1118,1105,1139,1139,1100,1116,1114,1126,1165,1130,1142,1145,1198,1141,663,634,642,644,658,723,818,879,999,1044,1037,1030,1037,988,980,964,969,931,914,889,901,884,848,850,814,828,781,765,748,731,715,698,682,665,651,663,649,645,644,633,636,638,693,654,647,644,647,647,676,683,678,666,679,656,705,664,664,684,712,670,660,666,685,692,663,786,788,781,784,828,907,1027,1162,1234,1285,1271,1251,1229,1210,1191,1170,1149,1129,1110,1115,1080,1048,1053,1008,986,967,947,926,906,886,876,845,825,805,800,797,799,793,809,794,794,801,806,806,812,808,807,817,817,809,813,820,821,814,815,828,818,829,814,804,822,823,806,805,795,1671,1651,1702,1900,2115,2314,2499,2559,2659,2710,2627,2628,2490,2436,2408,2358,2380,2347,2263,2222,2184,2164,2139,2087,2040,2001,1926,1945,1880,1823,1759,1748,1722,1688,1647,1665,1710,1643,1871,1846,1833,1856,1849,1903,1914,1920,1892,1978,1884,1897,1904,1945,1933,1962,1955,1938,1916,1946,1941,1940,1931,1931,1908,1909,1874,1845,1876,1982,2260,2646,2880,2970,3077,3126,3293,3167,3150,3002,2955,3027,2861,2927,2903,2759,2770,2658,2657,2587,2522,2447,2397,2337,2257,2191,2136,2062,1979,1932,1903,1885,1914,1960,1964,2278,2292,2287,2321,2345,2358,2337,2369,2375,2378,2396,2409,2427,2468,2436,2463,2453,2497,2500,2550,2545,2523,2535,2570,2574,2613,2604,882,887,887,896,982,1091,1181,1314,1402,1435,1486,1462,1365,1343,1321,1298,1297,1277,1255,1232,1250,1227,1164,1141,1118,1095,1070,1050,1062,1004,982,956,934,914,901,898,932,902,909,915,925,945,928,923,929,932,930,923,994,961,928,955,997,980,1001,945,938,946,959,939,922,942,946,924,916,1650,1656,1716,1917,2285,2767,3079,3222,3304,3264,3214,3165,3077,3014,2940,2872,2809,2754,2667,2617,2548,2462,2394,2326,2258,2229,2121,2092,1984,1916,1848,1783,1735,1695,1696,1715,1729,1753,2007,1994,1965,1987,1986,2030,2050,2063,2031,2129,2024,2048,2044,2087,2068,2142,2095,2063,2050,2071,2073,2088,2078,2092,2053,2055,2011,1081,1044,1063,1138,1240,1328,1471,1617,1702,1716,1774,1729,1638,1598,1575,1548,1545,1518,1502,1474,1450,1453,1388,1376,1337,1297,1269,1254,1248,1199,1172,1135,1108,1096,1092,1075,1105,1102,1104,1095,1107,1127,1113,1113,1110,1121,1120,1122,1130,1112,1126,1154,1175,1158,1153,1136,1115,1139,1122,1115,1110,1146,1128,1146,1120,906,909,921,921,1012,1128,1244,1380,1462,1482,1600,1503,1420,1383,1359,1336,1337,1328,1303,1266,1296,1271,1195,1183,1148,1158,1100,1077,1088,1029,1006,992,968,936,923,920,954,934,930,930,950,1043,952,937,953,989,967,940,960,947,953,945,957,960,974,958,950,948,957,966,943,970,948,960,960,1147,1126,1141,1148,1345,1392,1551,1715,1807,1802,1808,1771,1714,1683,1655,1812,1653,1732,1618,1564,1583,1491,1451,1452,1396,1365,1336,1331,1303,1263,1224,1227,1178,1152,1157,1160,1136,1145,1200,1208,1181,1192,1196,1226,1202,1219,1231,1294,1214,1259,1248,1254,1225,1294,1262,1214,1214,1205,1236,1268,1245,1277,1264,1269,1233,1615,1610,1706,2009,2329,2690,2778,2878,2932,2943,2943,2891,2862,2721,2673,2618,2586,2582,2521,2438,2395,2333,2266,2207,2144,2078,2083,1952,1975,1831,1779,1705,1665,1648,1645,1654,1669,1684,1797,1848,1809,1831,1851,1846,1830,1845,1841,1841,1857,1830,1836,1862,1856,1865,1876,1884,1879,1874,1897,1882,1891,1924,1915,1909,1899,595,597,599,601,648,670,758,923,986,1029,982,966,924,909,894,878,888,872,857,841,825,810,794,778,763,747,770,716,700,684,669,653,671,622,608,604,606,607,603,613,605,616,616,623,613,629,614,618,608,609,611,622,622,618,621,618,615,611,629,626,614,616,613,621,613,1441,1477,1477,1591,1733,1871,2043,2172,2289,2319,2308,2288,2198,2109,2147,2057,2113,2045,2029,1936,1951,1897,1828,1817,1776,1720,1682,1643,1645,1586,1552,1502,1487,1493,1477,1438,1508,1458,1587,1526,1525,1545,1531,1559,1551,1550,1578,1632,1559,1579,1664,1572,1578,1652,1578,1566,1563,1578,1656,1727,1763,1796,1789,1621,1611,1131,1142,1135,1166,1303,1426,1594,1719,1808,1824,1867,1872,1744,1751,1686,1657,1649,1616,1594,1564,1600,1525,1477,1421,1418,1389,1379,1324,1301,1249,1220,1211,1160,1162,1153,1131,1182,1153,1203,1191,1188,1188,1192,1199,1207,1204,1206,1204,1208,1200,1208,1210,1219,1219,1218,1227,1207,1218,1216,1212,1214,1234,1206,1213,1203,0,0,0,0,0,0,0,0,0,0,0,0,0,0,0,0,0,0,0,0,0,0,0,0,0,0,0,0,0,0,0,0,0,0,0,0,0,0,0,0,0,0,0,0,0,0,0,0,0,0,0,0,0,0,0,0,0,0,0,0,0,0,0,0,0,1391,1403,1418,1563,1676,1819,2016,2118,2219,2290,2312,2249,2129,2118,2094,2071,2088,1977,1959,1949,1895,1844,1859,1756,1716,1682,1744,1595,1627,1539,1532,1546,1441,1482,1427,1420,1462,1407,1512,1517,1501,1521,1527,1526,1518,1570,1543,1555,1533,1612,1578,1583,1542,1633,1572,1589,1559,1536,1564,1611,1593,1600,1586,1582,1570,1686,1697,1816,2077,2384,2741,2830,2921,2977,3000,3066,3012,2832,2838,2736,2682,2651,2634,2594,2506,2500,2435,2334,2280,2210,2153,2160,2015,2067,1891,1865,1791,1752,1737,1732,1732,1728,1743,1948,2007,1958,1989,2003,1994,1996,2018,1993,2011,2014,1984,2007,2015,2022,2022,2058,2040,2026,2017,2047,2025,2032,2057,2070,2062,2050,942,931,944,932,1050,1111,1236,1380,1478,1498,1505,1477,1421,1394,1374,1470,1381,1409,1319,1308,1349,1244,1208,1215,1161,1133,1113,1136,1075,1038,1017,1015,1010,957,959,931,937,936,954,957,957,965,971,976,970,967,968,969,984,988,1069,1065,1082,1011,969,986,989,998,983,974,992,963,977,978,965,1023,1013,1026,1022,1165,1229,1369,1517,1612,1630,1634,1604,1546,1517,1495,1515,1498,1496,1431,1418,1419,1350,1312,1316,1260,1231,1208,1211,1166,1135,1104,1100,1095,1082,1042,1014,1020,1019,1060,1057,1063,1093,1073,1066,1124,1126,1074,1104,1158,1113,1095,1174,1216,1208,1204,1147,1127,1151,1149,1113,1081,1092,1087,1070,1051,1282,1261,1291,1311,1501,1619,1784,1932,2011,2029,2040,1990,1915,1883,1864,1816,1850,1785,1748,1754,1693,1664,1632,1628,1567,1532,1503,1489,1449,1411,1374,1365,1308,1291,1317,1267,1290,1293,1333,1328,1321,1344,1341,1368,1338,1349,1345,1351,1381,1371,1395,1414,1409,1392,1365,1373,1378,1387,1382,1392,1383,1391,1369,1397,1392,881,884,897,891,943,1048,1217,1322,1403,1443,1436,1417,1394,1371,1348,1325,1302,1279,1256,1233,1210,1187,1176,1119,1118,1095,1068,1045,1046,1002,999,959,933,908,908,877,897,897,893,894,890,897,912,911,906,931,915,936,916,931,928,922,911,937,922,929,928,913,920,946,925,942,923,925,920,1501,1503,1544,1713,2033,2532,3034,3109,3056,3049,3002,2942,2871,2811,2741,2676,2615,2657,2480,2433,2367,2284,2219,2154,2085,2064,1955,1933,1828,1762,1697,1633,1584,1543,1607,1561,1563,1597,1717,1713,1725,1809,1767,1764,1761,1750,1743,1786,1781,1763,1755,1785,1807,1808,1779,1765,1748,1749,1739,1735,1728,1755,1743,1769,1713,1172,1208,1205,1222,1349,1531,1668,1797,1877,1910,1938,1913,1802,1774,1753,1756,1715,1677,1642,1626,1641,1598,1541,1499,1478,1453,1421,1399,1377,1335,1289,1253,1227,1207,1195,1198,1223,1216,1242,1249,1261,1277,1287,1274,1277,1277,1264,1274,1261,1252,1264,1271,1273,1275,1291,1281,1257,1256,1267,1260,1257,1266,1275,1283,1258,354,355,357,358,359,379,428,476,525,570,582,573,537,528,520,511,528,519,509,500,491,482,473,464,455,446,437,428,419,410,401,392,383,374,364,360,361,362,345,348,349,360,349,354,348,354,353,353,351,350,353,354,354,355,356,357,357,355,358,357,357,366,363,368,364,1211,1196,1196,1295,1419,1522,1797,1831,1921,2062,1961,1938,1837,1794,1777,1737,1751,1707,1676,1646,1618,1609,1554,1556,1492,1471,1424,1400,1464,1339,1309,1298,1258,1237,1276,1211,1256,1275,1284,1288,1298,1305,1297,1328,1300,1315,1298,1317,1322,1310,1291,1311,1325,1325,1319,1336,1332,1323,1332,1320,1305,1297,1328,1391,1332,1697,1665,1809,1935,2291,2889,3093,3235,3281,3348,3228,3257,3118,3051,3032,2984,2902,2844,2754,2700,2628,2539,2461,2328,2339,2235,2176,2099,2039,1920,1891,1831,1761,1739,1736,1717,1769,1847,1992,2006,2037,2054,2044,2053,2069,2096,2090,2098,2127,2110,2149,2134,2130,2146,2191,2197,2178,2185,2225,2208,2220,2237,2224,2245,2252,1378,1381,1405,1555,1750,2032,2112,2233,2303,2318,2351,2313,2205,2168,2131,2094,2077,2042,2110,2039,1970,1931,1956,1818,1781,1743,1703,1679,1629,1583,1533,1479,1436,1415,1407,1412,1422,1433,1509,1509,1483,1501,1498,1542,1506,1524,1543,1606,1529,1581,1566,1581,1539,1595,1583,1529,1526,1532,1568,1603,1582,1605,1593,1593,1564,1718,1661,1796,2111,2339,2697,2787,2878,2934,2958,2985,2971,2791,2741,2695,2642,2612,2595,2549,2468,2427,2366,2342,2243,2173,2157,2171,2067,2049,1875,1881,1753,1729,1686,1757,1734,1728,1792,2035,2018,1994,2004,2009,2056,2067,2081,2052,2155,2057,2073,2061,2126,2099,2165,2124,2092,2083,2102,2102,2118,2106,2115,2072,2072,2032,1026,1006,1007,1078,1149,1242,1390,1528,1624,1640,1665,1656,1557,1522,1506,1471,1478,1452,1426,1400,1377,1388,1322,1318,1264,1241,1210,1186,1168,1139,1113,1087,1061,1047,1064,1023,1057,1028,1061,1047,1042,1054,1057,1082,1060,1067,1076,1134,1062,1060,1060,1067,1074,1046,1060,1073,1061,1078,1052,1052,1073,1068,1053,1058,1044,1403,1397,1380,1493,1637,1927,1979,2135,2178,2198,2234,2198,2092,2058,2024,1980,1973,1942,1995,1906,1909,1846,1767,1732,1697,1669,1624,1685,1590,1593,1487,1449,1501,1400,1426,1386,1421,1393,1461,1522,1470,1490,1498,1491,1495,1517,1496,1504,1510,1487,1506,1504,1516,1513,1521,1524,1519,1520,1559,1495,1518,1521,1541,1529,1516,1614,1597,1685,1881,2182,2678,2989,3236,3185,3182,3127,3071,3046,2936,2889,2821,2732,2738,2629,2546,2478,2429,2358,2294,2192,2163,2057,2030,1923,1884,1788,1722,1708,1701,1658,1653,1651,1689,1910,1891,1862,1885,1885,1945,1950,1962,1931,2024,1930,1963,1954,2007,1968,2030,2008,1972,1954,1976,1994,2011,1984,1992,1965,1961,1920,1699,1709,1777,1989,2368,2892,3203,3345,3377,3337,3314,3235,3146,3082,3007,2938,2873,2817,2730,2678,2608,2521,2452,2382,2313,2283,2174,2144,2035,1966,1897,1832,1784,1744,1746,1765,1799,1803,2131,2075,2083,2088,2083,2114,2141,2153,2130,2191,2129,2121,2176,2163,2180,2240,2184,2124,2150,2148,2224,2260,2268,2286,2263,2146,2132,772,774,777,777,811,896,1042,1133,1217,1260,1257,1241,1221,1201,1181,1161,1141,1121,1101,1081,1061,1041,1021,979,981,961,938,918,922,881,947,838,821,798,787,766,786,785,793,786,793,797,793,792,804,808,795,798,795,799,800,806,808,807,810,808,804,810,822,813,806,816,802,801,805,1671,1651,1702,1900,2115,2314,2499,2559,2659,2710,2627,2628,2490,2436,2408,2358,2380,2347,2263,2222,2184,2164,2139,2087,2040,2001,1926,1945,1880,1823,1759,1748,1722,1688,1647,1665,1710,1643,1871,1846,1833,1856,1849,1903,1914,1920,1892,1978,1884,1897,1904,1945,1933,1962,1955,1938,1916,1946,1941,1940,1931,1931,1908,1909,1874,431,432,434,435,437,496,534,597,659,721,714,703,691,680,669,657,646,635,623,612,612,601,578,566,566,544,532,521,510,508,487,476,464,462,442,438,447,440,435,438,434,442,502,476,477,483,453,506,471,479,479,444,452,475,462,449,486,457,444,473,462,499,478,472,457,763,776,770,773,804,891,1021,1135,1235,1259,1257,1237,1217,1197,1178,1170,1149,1130,1120,1102,1083,1052,1032,1000,980,970,941,913,903,873,853,833,811,794,790,785,787,817,786,787,783,833,813,786,793,812,798,817,850,810,815,801,792,797,800,813,794,795,786,793,793,807,820,815,792,611,613,614,616,628,689,849,869,1013,997,1000,984,968,953,937,920,957,890,874,858,842,900,899,795,779,763,797,731,716,700,684,669,707,696,624,620,622,623,631,630,633,631,670,661,677,679,646,680,669,670,666,645,652,683,664,652,667,652,640,659,655,677,661,670,663,1146,1121,1123,1185,1301,1639,1774,1939,2042,2042,2022,1994,1970,1934,1891,1854,1816,1778,1740,1747,1641,1627,1565,1551,1514,1476,1438,1412,1336,1325,1298,1249,1184,1181,1165,1167,1185,1181,1213,1218,1269,1526,1268,1207,1257,1355,1291,1229,1335,1298,1248,1252,1330,1314,1298,1215,1235,1241,1280,1284,1216,1272,1238,1243,1249,384,385,386,391,389,417,477,528,590,630,639,629,619,609,598,588,578,568,563,552,537,527,517,507,496,486,476,466,456,445,435,425,415,405,394,390,391,392,383,385,385,388,393,387,389,389,386,387,386,391,386,393,392,394,388,386,394,389,394,401,392,397,386,389,391,463,491,466,467,471,511,579,622,684,735,743,757,745,733,720,683,696,694,671,636,624,644,632,609,597,564,612,560,548,517,523,511,498,469,474,470,471,456,456,460,461,468,475,476,478,476,468,472,475,477,478,488,481,486,470,468,477,469,471,473,475,473,464,468,467,610,612,614,616,629,766,810,873,958,1002,1005,989,973,957,999,925,909,893,916,861,845,829,885,797,816,765,749,733,774,734,685,669,653,692,623,676,621,623,617,624,628,638,624,641,628,644,629,648,636,630,638,639,649,648,647,645,648,641,655,648,648,654,642,651,647,778,780,782,784,839,1091,1168,1432,1447,1478,1468,1440,1411,1382,1354,1325,1296,1268,1239,1256,1182,1153,1124,1096,1067,1039,1010,994,953,924,907,867,838,810,793,793,810,805,806,801,798,808,816,845,806,818,830,818,812,818,808,818,820,814,824,829,818,822,816,823,835,854,851,863,846,803,829,808,836,838,942,1068,1289,1328,1316,1313,1292,1257,1286,1230,1209,1218,1164,1133,1125,1135,1083,1062,1041,1020,999,1025,984,936,915,894,936,845,832,839,839,817,817,832,812,824,817,821,831,828,817,823,841,867,847,852,856,855,858,845,848,840,863,867,861,853,844,862,864,877,171,180,172,172,173,177,212,235,229,270,253,279,275,272,268,240,237,235,232,229,227,244,241,237,234,234,217,205,214,197,193,189,185,181,176,173,174,174,161,162,162,164,161,179,162,169,161,165,162,164,164,162,162,164,163,163,163,165,166,169,163,163,163,164,162,442,484,449,446,453,485,557,622,688,735,743,731,788,700,695,676,664,660,648,629,624,612,600,582,570,564,552,592,579,517,505,493,481,469,494,498,455,456,455,455,458,467,454,460,457,458,461,457,458,453,455,455,456,458,456,458,458,457,458,464,456,465,455,460,460,1312,1341,1325,1355,1475,1670,1868,2053,2106,2094,2105,2041,2003,2033,1921,1899,1938,1841,1809,1788,1745,1750,1681,1659,1658,1608,1552,1533,1516,1447,1422,1462,1387,1365,1327,1331,1335,1316,1422,1404,1391,1404,1406,1434,1472,1476,1428,1593,1433,1409,1410,1465,1481,1456,1467,1487,1466,1494,1451,1437,1449,1432,1403,1411,1394,0,0,0,0,0,0,0,0,0,0,0,0,0,0,0,0,0,0,0,0,0,0,0,0,0,0,0,0,0,0,0,0,0,0,0,0,0,0,0,0,0,0,0,0,0,0,0,0,0,0,0,0,0,0,0,0,0,0,0,0,0,0,0,0,0,866,838,868,872,940,1153,1301,1526,1497,1569,1521,1494,1466,1439,1437,1425,1416,1386,1317,1306,1257,1263,1231,1200,1171,1140,1074,1091,1017,1017,969,945,918,896,852,874,879,876,882,877,884,890,891,890,891,890,898,902,894,900,927,899,900,897,907,911,901,908,908,907,901,912,899,916,893,503,504,506,516,512,558,644,706,795,826,832,819,806,792,779,766,753,739,738,725,699,686,673,660,646,633,620,607,593,580,567,553,540,527,514,510,512,536,501,502,501,504,527,549,514,508,509,511,510,508,510,513,513,513,511,515,515,514,513,518,525,531,538,519,519,484,484,487,519,487,559,602,705,822,869,830,817,804,791,738,730,752,739,738,725,698,687,645,660,618,634,605,581,595,582,546,533,520,530,494,510,489,539,491,488,500,519,495,503,487,499,494,486,494,494,488,495,498,506,500,508,494,503,500,507,506,514,503,511,507,492,511,495,514,520,553,631,705,788,834,839,826,813,799,786,773,759,747,726,720,707,693,671,647,671,640,627,614,601,583,574,560,547,527,522,538,519,515,515,513,518,539,532,519,524,532,525,527,534,540,599,603,623,564,536,526,529,541,530,521,526,538,527,540,525,1010,986,1003,1000,1078,1142,1402,1454,1504,1631,1532,1519,1486,1464,1435,1581,1444,1385,1341,1365,1347,1328,1273,1225,1254,1233,1207,1122,1155,1086,1058,1059,1030,1024,998,983,1002,998,999,1006,1019,1029,1054,1027,1032,1024,1021,1026,1015,1008,1019,1022,1026,1029,1045,1032,1008,1007,1015,1014,1013,1020,1028,1035,1012,1240,1291,1299,1305,1442,1584,1832,2012,2035,2095,2000,1998,2002,1905,1974,1854,1877,1790,1798,1738,1784,1792,1632,1616,1557,1551,1542,1498,1448,1432,1360,1351,1295,1334,1312,1292,1312,1349,1334,1337,1360,1375,1352,1375,1350,1371,1351,1382,1380,1366,1367,1380,1388,1405,1388,1387,1369,1376,1391,1391,1389,1384,1368,1402,1394,551,552,568,570,569,633,717,801,882,927,916,894,887,886,872,857,842,827,784,757,764,741,735,745,706,709,694,679,664,650,635,601,590,579,597,573,575,581,564,569,571,576,579,578,585,576,572,583,577,573,580,583,580,580,600,587,582,583,584,580,586,586,582,587,582,1034,1159,1040,1074,1146,1263,1428,1568,1679,1868,1671,1659,1618,1606,1578,1537,1559,1485,1459,1447,1406,1365,1353,1341,1313,1415,1247,1235,1208,1246,1155,1103,1101,1079,1061,1050,1053,1066,1108,1053,1062,1060,1076,1089,1072,1080,1070,1085,1114,1105,1099,1108,1114,1129,1112,1120,1095,1124,1129,1127,1129,1115,1142,1151,1139,289,290,291,291,292,341,348,388,428,467,479,471,464,456,449,441,434,426,419,411,403,396,388,381,373,366,358,351,343,335,328,320,313,336,298,293,294,295,292,291,289,288,292,287,292,291,291,289,288,289,293,292,293,293,294,292,289,289,292,295,292,293,292,291,293,957,956,957,979,1040,1161,1328,1518,1540,1550,1566,1527,1502,1531,1467,1453,1428,1383,1389,1366,1342,1294,1280,1244,1219,1186,1159,1121,1105,1071,1062,1037,1010,1032,972,982,970,1006,981,1000,999,1004,1004,1003,1001,1019,996,1021,1001,1020,1006,1007,1029,1037,1026,1021,1012,1008,1019,1015,1014,1023,996,1009,996,475,476,477,479,482,600,604,770,755,802,808,795,781,768,754,741,728,714,701,687,674,660,647,633,620,606,593,579,566,553,539,526,512,499,486,482,484,485,473,477,481,491,480,480,478,495,481,483,496,496,490,485,500,499,491,485,480,484,488,483,484,485,486,481,477,825,827,866,906,885,1112,1189,1465,1453,1512,1478,1451,1424,1396,1369,1367,1315,1288,1309,1266,1295,1264,1167,1148,1099,1072,1037,1018,991,956,937,910,883,922,833,907,844,841,864,870,859,877,871,870,877,893,867,870,874,877,874,870,868,873,875,877,870,878,870,875,864,879,870,874,861,457,466,474,469,472,512,580,647,698,762,769,757,745,732,720,708,696,684,671,659,647,635,623,610,598,586,574,552,549,537,525,513,500,480,476,472,473,475,463,476,469,483,498,494,480,509,473,508,491,524,484,484,496,509,494,487,498,499,493,494,487,504,483,488,479,263,264,288,266,267,287,317,352,392,417,428,421,415,409,405,406,399,392,385,372,373,368,363,349,341,335,328,322,314,310,304,297,291,285,279,275,276,269,264,259,263,310,273,264,255,262,264,295,322,268,277,271,268,264,282,273,262,265,258,262,262,256,271,268,257,1022,1050,1051,1051,1122,1254,1434,1624,1690,1818,1666,1670,1757,1587,1719,1546,1519,1493,1477,1452,1427,1511,1362,1324,1297,1297,1267,1227,1209,1173,1132,1105,1076,1166,1144,1049,1143,1102,1092,1096,1106,1120,1106,1108,1103,1116,1100,1130,1113,1111,1130,1128,1150,1165,1141,1134,1130,1135,1134,1131,1142,1161,1127,1138,1130,1130,1088,1109,1117,1227,1601,1819,2019,2029,2022,2032,1965,1947,1909,1816,1814,1849,1739,1702,1661,1626,1605,1551,1483,1476,1438,1372,1343,1341,1288,1224,1213,1150,1144,1129,1144,1176,1158,1211,1173,1172,1189,1172,1204,1185,1188,1212,1262,1191,1206,1252,1206,1206,1251,1213,1202,1195,1199,1236,1295,1320,1343,1336,1228,1219,967,978,958,978,1037,1180,1390,1473,1589,1563,1589,1532,1530,1474,1449,1431,1459,1383,1359,1354,1402,1348,1365,1235,1254,1203,1208,1135,1111,1086,1099,1037,1090,1048,977,974,976,986,1003,986,989,991,1001,1029,1021,1019,1008,1019,1044,1022,1027,1021,1027,1038,1061,1023,1028,1042,1040,1046,1032,1029,1054,1099,1047,431,432,434,435,437,496,534,597,659,721,714,703,691,680,669,657,646,635,623,612,612,601,578,566,566,544,532,521,510,508,487,476,464,462,442,438,447,440,435,438,434,442,502,476,477,483,453,506,471,479,479,444,452,475,462,449,486,457,444,473,462,499,478,472,457,1027,1030,1034,1050,1106,1234,1398,1539,1641,1677,1686,1645,1618,1591,1565,1538,1511,1485,1458,1431,1405,1378,1351,1325,1298,1283,1245,1218,1191,1165,1138,1111,1085,1061,1046,1043,1045,1048,1057,1054,1069,1096,1073,1093,1062,1068,1061,1063,1085,1074,1076,1087,1087,1106,1085,1089,1078,1088,1089,1091,1085,1096,1066,1095,1092,432,434,435,436,438,470,530,591,651,699,709,698,687,676,665,654,642,631,620,609,598,587,576,565,554,543,532,521,510,498,487,476,465,454,443,439,440,441,430,444,440,464,427,433,427,441,442,427,533,517,442,465,536,523,517,425,447,458,477,442,441,449,454,432,429,1050,1053,1056,1122,1161,1329,1538,1846,1793,1822,1811,1779,1906,1715,1741,1652,1620,1588,1681,1524,1493,1461,1479,1397,1366,1397,1302,1270,1324,1207,1175,1143,1111,1084,1159,1068,1073,1078,1127,1135,1112,1120,1113,1137,1129,1143,1146,1221,1139,1180,1175,1179,1149,1230,1182,1136,1136,1130,1166,1196,1179,1210,1192,1192,1167,540,541,542,544,548,583,647,711,774,820,830,818,806,795,783,772,760,748,737,725,713,702,690,678,667,655,643,632,620,609,597,585,574,562,551,546,548,549,546,550,539,548,556,555,563,556,550,550,553,557,548,552,555,559,552,553,559,554,552,560,549,561,550,554,542,1169,1175,1222,1217,1322,1567,1829,1897,1986,2015,2053,1962,1927,1892,1921,1870,1832,1753,1718,1736,1648,1668,1579,1548,1578,1556,1523,1404,1369,1371,1338,1265,1231,1204,1189,1188,1194,1287,1239,1235,1250,1340,1259,1242,1258,1291,1268,1256,1267,1267,1267,1266,1279,1273,1281,1274,1269,1271,1280,1285,1274,1289,1274,1283,1289,1108,1113,1129,1160,1261,1447,1668,1826,1893,1942,1929,1883,1867,1826,1796,1770,1708,1691,1653,1611,1606,1565,1523,1488,1454,1435,1403,1349,1314,1283,1254,1219,1191,1152,1137,1141,1148,1159,1175,1189,1188,1221,1168,1214,1188,1214,1200,1221,1230,1202,1218,1205,1215,1222,1215,1214,1208,1215,1250,1214,1219,1216,1210,1246,1242,1439,1445,1496,1554,1763,2073,2263,2426,2583,2522,2494,2384,2482,2358,2316,2303,2223,2227,2261,2074,2081,1997,1980,1909,1908,1900,1832,1754,1681,1740,1632,1548,1509,1525,1488,1547,1474,1508,1589,1601,1589,1616,1619,1597,1605,1639,1606,1633,1608,1647,1634,1641,1626,1644,1643,1669,1656,1640,1642,1642,1669,1651,1659,1648,1678,286,287,288,288,289,303,343,384,424,463,478,470,463,455,447,440,432,425,417,409,402,394,386,379,371,364,356,348,341,333,325,318,310,303,295,290,291,292,278,278,278,285,279,282,280,287,284,277,279,282,281,278,278,285,282,280,278,286,277,282,278,280,279,280,280,1484,1496,1579,1681,1774,2083,2258,2451,2481,2498,2522,2433,2467,2357,2361,2262,2220,2177,2255,2092,2050,2008,2013,1922,1880,1898,1795,1752,1764,1667,1625,1583,1548,1522,1535,1516,1514,1521,1608,1598,1598,1614,1712,1694,1651,1686,1649,1753,1702,1710,1698,1649,1660,1709,1700,1659,1728,1700,1675,1732,1704,1758,1739,1762,1719,982,963,981,979,1056,1144,1295,1431,1538,1547,1558,1533,1509,1484,1459,1434,1431,1385,1381,1335,1341,1285,1278,1269,1211,1204,1162,1137,1112,1087,1062,1038,1013,1005,991,990,1002,1005,1003,1008,993,1031,1015,1007,1016,1038,1006,1007,1013,1022,1019,1009,1006,1013,1015,1019,1013,1019,1008,1013,1004,1020,1014,1014,997,852,854,857,867,917,1058,1222,1382,1482,1516,1510,1482,1463,1435,1408,1373,1346,1319,1292,1264,1237,1210,1189,1155,1128,1101,1074,1046,1019,997,965,937,910,884,868,867,871,876,870,864,886,908,877,908,875,893,877,899,905,877,879,886,892,921,904,889,888,884,892,897,892,893,875,911,884,1772,1811,1904,2097,2298,2496,2673,2998,2896,2906,2948,2829,2997,2734,2788,2655,2678,2551,2602,2445,2414,2408,2373,2261,2204,2293,2159,2111,2115,1959,1911,1868,1852,1832,1826,1808,1855,1828,2084,2093,2102,2125,2192,2192,2153,2180,2183,2207,2247,2261,2263,2312,2275,2289,2314,2324,2351,2361,2396,2360,2378,2420,2433,2528,2469,1065,1046,1074,1072,1164,1325,1435,1607,1678,1682,1726,1663,1637,1610,1583,1556,1563,1502,1509,1448,1475,1403,1384,1372,1313,1332,1293,1257,1213,1178,1151,1124,1097,1088,1110,1085,1086,1090,1099,1114,1108,1121,1177,1172,1189,1215,1136,1204,1176,1177,1174,1166,1193,1241,1200,1199,1229,1212,1183,1197,1179,1177,1176,1173,1141,0,0,0,0,0,0,0,0,0,0,0,0,0,0,0,0,0,0,0,0,0,0,0,0,0,0,0,0,0,0,0,0,0,0,0,0,0,0,0,0,0,0,0,0,0,0,0,0,0,0,0,0,0,0,0,0,0,0,0,0,0,0,0,0,0,1289,1301,1351,1361,1520,1869,2024,2088,2174,2207,2234,2140,2102,2065,2090,2036,1996,1914,1876,1891,1830,1845,1753,1698,1719,1694,1667,1537,1563,1498,1461,1386,1351,1324,1310,1309,1315,1415,1390,1396,1410,1422,1409,1447,1413,1429,1407,1425,1425,1412,1405,1418,1428,1434,1426,1442,1428,1441,1436,1421,1411,1404,1425,1426,1399,1292,1304,1353,1358,1520,1830,2022,2087,2172,2200,2233,2140,2102,2064,2090,2036,1996,2030,1877,1891,1831,1832,1754,1700,1720,1696,1669,1535,1565,1500,1464,1389,1354,1327,1313,1312,1318,1418,1392,1394,1384,1407,1399,1399,1404,1415,1401,1404,1397,1420,1411,1404,1404,1406,1407,1412,1412,1413,1399,1405,1407,1441,1448,1442,1432,1291,1302,1327,1361,1484,1673,1835,1996,2109,2139,2136,2054,2008,2025,1955,1933,1888,1859,1848,1833,1758,1726,1692,1712,1620,1578,1573,1549,1479,1466,1433,1379,1350,1344,1363,1329,1321,1336,1361,1364,1411,1677,1419,1357,1403,1497,1436,1379,1478,1456,1398,1409,1506,1511,1459,1372,1413,1401,1447,1445,1395,1430,1403,1407,1419,1340,1367,1430,1494,1584,1873,2027,2225,2259,2372,2260,2221,2248,2143,2141,2065,2040,1986,2010,1909,1869,1848,1846,1844,1712,1709,1650,1595,1584,1551,1494,1475,1408,1377,1393,1398,1368,1389,1450,1438,1461,1529,1475,1497,1474,1466,1475,1480,1488,1465,1470,1502,1559,1585,1497,1479,1468,1484,1465,1459,1459,1493,1468,1501,1455,631,633,635,636,651,713,807,901,988,1074,1037,1050,1033,987,971,954,938,921,905,889,872,856,839,823,806,790,773,777,807,745,728,691,674,658,644,640,642,644,629,630,636,651,634,654,636,646,660,640,646,637,638,641,637,641,642,645,642,642,639,640,647,659,653,666,651,927,929,932,968,1007,1154,1339,1502,1599,1631,1623,1594,1601,1537,1494,1479,1450,1401,1392,1348,1334,1293,1258,1225,1201,1172,1160,1115,1108,1073,1044,1015,986,945,929,942,947,952,968,959,973,1004,998,974,975,975,970,1012,1044,991,1007,993,983,990,988,998,975,978,970,988,977,971,981,985,992,1515,1561,1556,1700,1876,2074,2369,2586,2584,2538,2515,2504,2624,2509,2399,2300,2257,2214,2292,2158,2114,2071,2076,1999,1914,1977,1855,1785,1909,1699,1694,1614,1616,1553,1629,1576,1571,1552,1681,1680,1694,1729,1701,1724,1698,1711,1696,1695,1729,1703,1732,1749,1733,1731,1725,1726,1719,1738,1732,1715,1739,1733,1719,1743,1719,1246,1204,1235,1269,1377,1518,1695,1872,2006,1974,1991,1901,1870,1839,1862,1830,1773,1769,1735,1654,1648,1593,1585,1564,1500,1491,1499,1466,1377,1374,1353,1304,1255,1251,1270,1250,1237,1258,1314,1314,1291,1304,1298,1328,1309,1318,1334,1390,1321,1345,1341,1348,1332,1390,1355,1318,1314,1314,1336,1358,1332,1356,1359,1349,1322,327,328,329,330,331,350,396,443,489,533,546,538,529,520,512,503,494,485,477,468,459,451,442,433,424,416,407,398,389,381,372,363,355,346,337,332,333,334,320,320,324,325,325,325,328,323,325,330,332,325,330,331,330,328,342,333,327,327,327,330,326,331,331,332,328,629,630,632,634,655,745,868,991,1096,1137,1138,1117,1096,1075,1054,1033,1013,992,971,950,929,908,887,867,846,825,804,783,762,742,721,700,679,658,642,640,643,647,636,644,648,662,678,677,653,686,651,701,669,682,670,660,680,700,678,666,685,669,671,682,676,691,664,670,661,182,182,183,183,184,189,214,239,264,289,305,300,295,290,286,281,276,271,266,261,256,252,247,242,237,232,227,222,218,213,208,203,198,193,188,184,185,185,172,177,174,175,177,178,175,179,173,178,173,174,175,180,180,182,180,178,178,175,184,186,177,179,175,178,177,1186,1190,1207,1251,1421,1581,1809,1943,2044,2056,2042,2026,2031,1997,1933,1864,1812,1849,1847,1706,1741,1649,1668,1605,1544,1527,1549,1457,1419,1366,1329,1318,1260,1221,1218,1282,1246,1266,1312,1291,1313,1326,1313,1304,1359,1350,1313,1355,1351,1314,1337,1403,1425,1405,1406,1379,1366,1369,1367,1364,1341,1344,1320,1327,1318,885,884,886,893,942,1066,1227,1416,1513,1513,1508,1482,1456,1465,1404,1401,1352,1424,1331,1275,1283,1223,1197,1252,1145,1119,1093,1067,1042,1016,990,964,938,913,919,900,900,904,909,907,924,923,936,973,930,944,944,945,971,945,943,952,948,957,935,936,939,947,934,938,945,955,938,950,953,465,467,468,470,472,510,577,645,712,783,772,789,777,735,723,710,698,686,673,661,649,637,624,612,600,587,575,563,550,559,547,514,501,489,477,472,474,475,470,455,468,476,473,484,463,479,470,463,473,478,468,471,480,500,487,492,467,481,476,481,495,486,493,506,491,588,590,591,593,600,643,715,787,857,901,910,897,931,918,906,845,832,870,806,793,780,767,754,741,754,715,702,689,676,663,650,637,625,612,600,596,618,598,587,594,599,613,632,629,609,637,601,653,621,633,621,610,630,649,626,615,636,618,618,632,624,641,613,619,609,1400,1419,1460,1550,1668,2007,2118,2409,2348,2366,2346,2328,2441,2443,2277,2194,2178,2076,2136,2003,1962,1902,1943,1869,1781,1850,1737,1660,1746,1622,1533,1535,1479,1467,1513,1423,1470,1435,1524,1531,1556,1578,1593,1574,1567,1571,1562,1571,1548,1537,1555,1564,1557,1558,1588,1577,1550,1550,1563,1559,1557,1582,1602,1606,1573,1027,1030,1034,1050,1106,1234,1398,1539,1641,1677,1686,1645,1618,1591,1565,1538,1511,1485,1458,1431,1405,1378,1351,1325,1298,1283,1245,1218,1191,1165,1138,1111,1085,1061,1046,1043,1045,1048,1057,1054,1069,1096,1073,1093,1062,1068,1061,1063,1085,1074,1076,1087,1087,1106,1085,1089,1078,1088,1089,1091,1085,1096,1066,1095,1092,770,772,775,795,829,899,1066,1165,1286,1261,1260,1240,1220,1201,1228,1160,1130,1120,1144,1079,1059,1039,1042,1012,979,979,939,911,896,879,858,838,818,798,782,782,784,786,790,795,789,800,804,804,800,818,793,799,799,794,794,807,807,809,806,804,806,798,813,814,797,812,794,805,801,1197,1225,1198,1250,1347,1514,1782,1830,2013,1911,1940,1872,1902,1871,1785,1770,1770,1746,1688,1684,1613,1584,1594,1537,1493,1482,1432,1400,1373,1372,1311,1278,1249,1227,1239,1222,1220,1221,1284,1276,1273,1279,1273,1296,1345,1346,1283,1312,1298,1282,1285,1323,1334,1348,1346,1322,1333,1343,1352,1330,1306,1317,1291,1296,1289,434,435,436,438,439,473,534,595,656,704,712,701,690,679,668,656,645,634,623,612,601,589,578,567,556,545,534,522,511,500,489,478,467,455,444,440,441,442,438,441,439,442,444,447,441,449,442,441,441,441,439,449,447,450,446,449,450,444,446,449,447,456,438,446,444,1454,1471,1495,1668,1811,2058,2311,2555,2498,2519,2501,2479,2475,2429,2327,2280,2291,2172,2131,2087,2041,2072,1955,2000,1857,1871,1797,1752,1743,1634,1651,1561,1572,1504,1497,1485,1494,1550,1648,1647,1647,1681,1705,1702,1673,1674,1690,1733,1698,1719,1725,1747,1726,1727,1721,1716,1709,1688,1716,1757,1706,1724,1724,1710,1689,197,197,198,199,199,206,234,261,288,316,330,324,319,314,309,303,298,293,288,282,277,272,267,261,256,251,246,240,235,230,225,219,214,209,204,200,200,201,184,186,184,187,186,190,186,187,190,188,185,186,186,187,186,186,187,188,187,186,186,185,188,188,188,190,187,405,415,408,409,411,442,501,561,620,669,677,665,654,643,632,621,611,600,632,578,567,557,546,535,524,513,503,492,481,470,459,448,445,427,416,412,413,414,407,400,409,424,418,410,403,409,415,423,423,425,469,495,519,465,442,418,411,429,414,412,406,418,414,431,409,288,288,289,290,291,306,359,386,426,465,495,488,479,471,463,457,449,441,433,426,418,409,387,380,372,365,369,349,342,334,327,319,312,304,296,292,293,294,282,277,285,292,289,288,280,280,287,295,299,287,291,320,337,320,318,299,282,295,284,285,278,293,291,300,282,1152,1161,1141,1204,1345,1567,1839,1964,2008,2070,2028,2018,1933,1896,1889,1826,1785,1772,1715,1710,1640,1610,1570,1557,1493,1445,1425,1379,1343,1311,1270,1232,1200,1188,1172,1165,1190,1173,1190,1189,1195,1202,1197,1203,1208,1229,1208,1215,1207,1211,1218,1216,1218,1219,1226,1235,1226,1233,1230,1220,1238,1231,1244,1237,1229,504,506,507,509,547,559,664,707,859,827,834,858,897,882,781,814,754,741,728,714,733,688,705,661,648,635,621,636,595,582,568,555,604,528,516,564,537,514,516,517,522,533,519,532,523,524,537,526,524,522,521,524,521,519,525,527,525,523,523,524,529,539,533,542,534,601,594,596,598,614,659,753,827,900,952,955,969,937,921,900,887,889,861,845,832,818,790,806,782,738,725,719,710,695,679,663,655,641,626,611,608,603,614,607,606,613,606,609,619,642,629,608,623,629,628,622,618,623,637,624,625,621,617,617,616,618,619,617,644,630,547,532,534,535,542,591,692,743,818,862,894,853,840,825,813,798,786,772,758,744,731,718,704,690,677,663,650,636,623,658,595,582,568,555,542,538,540,541,532,533,544,560,547,548,541,553,540,564,548,545,575,573,596,592,565,554,557,562,557,550,563,577,550,561,547,1031,1029,1044,1047,1182,1255,1517,1547,1726,1644,1657,1709,1677,1723,1536,1517,1551,1466,1434,1410,1389,1358,1338,1323,1303,1271,1230,1220,1186,1169,1128,1117,1091,1069,1056,1097,1054,1046,1057,1096,1059,1062,1097,1084,1072,1088,1083,1099,1103,1080,1084,1092,1104,1108,1113,1118,1101,1107,1119,1118,1128,1136,1150,1138,1129,547,549,550,553,560,612,692,775,854,899,902,889,875,860,846,831,815,803,788,775,760,780,731,717,702,688,672,659,674,630,615,650,587,573,560,555,557,558,559,561,562,564,567,561,568,569,561,564,563,568,568,571,572,572,568,564,575,571,579,579,572,580,567,568,572,1210,1243,1246,1306,1462,1619,1888,1998,2060,2124,2083,2058,1990,1979,1972,1945,1864,1820,1791,1821,1728,1683,1675,1660,1565,1510,1522,1474,1420,1388,1366,1292,1259,1258,1231,1224,1277,1250,1313,1305,1304,1315,1315,1330,1383,1391,1315,1348,1335,1326,1321,1365,1373,1392,1378,1350,1376,1383,1394,1371,1348,1351,1321,1322,1317,0,0,0,0,0,0,0,0,0,0,0,0,0,0,0,0,0,0,0,0,0,0,0,0,0,0,0,0,0,0,0,0,0,0,0,0,0,0,0,0,0,0,0,0,0,0,0,0,0,0,0,0,0,0,0,0,0,0,0,0,0,0,0,0,0,100,101,101,101,102,103,117,131,145,158,170,167,164,161,159,156,153,151,148,145,142,140,137,134,131,129,126,123,121,118,115,112,110,107,104,102,102,102,88,87,88,88,90,89,90,94,93,90,89,88,89,88,89,93,89,88,90,88,88,89,89,90,90,90,90,357,358,359,360,361,384,434,484,534,579,589,580,571,562,552,543,534,524,515,506,497,487,478,467,459,450,441,432,422,413,404,395,385,376,367,362,363,364,362,358,353,355,378,378,365,377,373,385,385,396,394,395,386,388,391,372,386,387,396,410,393,407,408,417,386,1003,952,996,1020,1027,1200,1364,1461,1549,1604,1539,1537,1491,1533,1442,1502,1456,1423,1340,1372,1340,1326,1237,1274,1256,1241,1208,1189,1141,1085,1115,1068,1043,1016,1007,1005,983,1010,1003,1007,1014,1027,997,1027,1013,1023,1023,1036,1051,1028,1035,1027,1030,1039,1034,1034,1023,1034,1059,1032,1040,1034,1031,1061,1057,1305,1322,1335,1427,1594,1820,2074,2188,2271,2281,2281,2263,2183,2162,2121,2077,2000,1975,1938,1897,1855,1858,1776,1777,1684,1654,1630,1590,1531,1478,1449,1408,1375,1350,1345,1332,1339,1361,1396,1402,1415,1448,1425,1438,1421,1429,1419,1425,1441,1417,1421,1429,1426,1452,1441,1451,1422,1433,1438,1426,1426,1412,1432,1461,1415,640,626,628,630,643,706,822,887,970,1012,1041,998,983,966,951,934,919,903,888,871,856,840,824,808,792,777,761,745,729,761,697,682,666,650,637,633,635,636,647,648,647,653,642,641,657,659,644,648,695,656,670,660,679,707,675,678,671,656,668,667,660,649,639,678,634,723,752,753,810,847,861,1140,1083,1260,1178,1213,1261,1260,1350,1142,1120,1068,1049,1061,1042,993,1004,985,937,947,928,911,890,872,852,807,815,770,752,763,816,736,818,751,795,783,755,770,760,760,786,787,770,787,768,768,784,799,794,805,818,797,810,808,801,807,801,837,815,809,327,328,329,330,331,350,396,442,488,531,542,533,524,516,507,499,490,482,473,465,456,447,439,429,422,412,405,395,387,379,370,362,353,345,336,332,332,333,320,325,323,330,325,334,326,337,334,325,338,325,325,325,325,333,327,327,327,328,326,326,324,331,324,332,324,1349,1352,1370,1433,1603,1805,2014,2132,2235,2216,2165,2166,2117,2075,2065,2004,1960,1935,1948,1853,1819,1830,1827,1755,1746,1665,1684,1601,1539,1507,1488,1438,1422,1382,1376,1369,1372,1376,1455,1465,1437,1452,1445,1493,1457,1476,1488,1548,1470,1504,1489,1502,1483,1544,1511,1472,1471,1466,1487,1506,1502,1527,1507,1518,1488,848,834,836,847,889,996,1157,1261,1350,1383,1393,1345,1327,1305,1279,1265,1239,1226,1198,1179,1153,1124,1104,1087,1061,1032,1022,1053,975,957,931,908,886,864,850,849,847,849,858,856,868,901,876,858,877,893,870,868,869,873,875,874,883,881,878,868,876,871,889,890,873,890,869,873,878,1192,1228,1190,1250,1379,1576,1843,1953,2016,2081,2040,2066,1948,1937,1956,1846,1806,1867,1739,1782,1690,1626,1644,1633,1527,1473,1483,1418,1384,1353,1333,1297,1247,1244,1227,1210,1301,1216,1296,1288,1284,1290,1285,1309,1357,1358,1295,1323,1311,1294,1297,1336,1346,1361,1359,1334,1344,1356,1365,1343,1319,1329,1304,1309,1302,241,242,242,243,244,255,288,321,354,387,400,394,388,382,375,369,363,356,350,344,337,331,325,318,312,306,299,293,287,280,274,268,261,255,249,245,245,246,234,241,232,238,241,242,241,249,240,236,242,242,240,236,238,241,238,236,239,239,235,238,233,239,236,238,232,638,634,642,643,660,725,853,913,998,1078,1043,1026,1007,991,1015,959,943,926,909,893,876,898,843,826,844,795,776,762,746,723,713,693,675,664,651,647,643,651,644,648,652,664,677,679,687,655,655,675,655,651,668,659,656,652,683,670,646,645,649,652,649,656,662,667,647,1391,1408,1435,1516,1831,1867,2120,2322,2336,2316,2306,2263,2212,2168,2157,2095,2049,2022,2033,1974,1969,1911,1956,1867,1785,1758,1732,1689,1624,1573,1542,1502,1532,1444,1443,1420,1431,1453,1512,1537,1543,1513,1556,1535,1544,1571,1558,1556,1565,1566,1568,1593,1588,1611,1560,1571,1572,1567,1570,1582,1573,1578,1567,1617,1570,1503,1509,1503,1626,1840,2109,2391,2497,2547,2642,2547,2537,2435,2354,2396,2302,2252,2233,2164,2150,2073,1989,2006,1962,1891,1834,1805,1750,1713,1665,1629,1569,1510,1513,1498,1516,1543,1513,1603,1660,1609,1635,1641,1629,1643,1660,1634,1648,1658,1625,1654,1648,1655,1651,1689,1677,1655,1650,1692,1633,1649,1669,1688,1667,1654,782,784,786,805,822,932,1031,1151,1239,1278,1291,1256,1236,1216,1218,1197,1177,1172,1135,1128,1074,1053,1053,1012,993,991,1019,949,912,885,871,850,830,836,797,793,795,797,806,798,809,801,825,846,807,810,815,828,830,825,830,833,829,832,822,822,812,828,815,839,830,831,825,829,847,770,772,775,795,829,899,1066,1165,1286,1261,1260,1240,1220,1201,1228,1160,1130,1120,1144,1079,1059,1039,1042,1012,979,979,939,911,896,879,858,838,818,798,782,782,784,786,790,795,789,800,804,804,800,818,793,799,799,794,794,807,807,809,806,804,806,798,813,814,797,812,794,805,801,708,709,711,711,738,815,923,1031,1120,1159,1160,1168,1123,1152,1086,1069,1049,1031,1004,994,975,957,938,920,915,925,864,846,827,809,784,772,753,731,721,718,714,722,709,709,713,739,713,726,714,720,710,710,722,715,713,723,723,732,721,730,722,723,728,717,722,732,708,730,720,1159,1162,1144,1197,1274,1426,1611,1761,1851,1828,1867,1776,1765,1754,1694,1718,1655,1638,1590,1558,1531,1504,1477,1449,1493,1390,1394,1330,1334,1267,1269,1232,1185,1155,1156,1143,1143,1149,1188,1180,1197,1203,1190,1185,1192,1202,1190,1218,1234,1203,1234,1271,1271,1249,1228,1207,1192,1220,1202,1183,1196,1206,1202,1218,1206,462,464,465,467,469,507,573,639,704,752,759,747,735,723,711,700,688,676,664,652,640,628,616,604,592,580,568,557,545,533,521,509,497,485,474,469,471,472,476,462,461,463,460,467,464,467,465,463,468,462,463,463,463,465,469,469,465,465,468,470,463,478,467,473,470,1534,1534,1477,1627,1910,2172,2327,2475,2539,2586,2541,2495,2427,2451,2413,2312,2301,2197,2175,2129,2097,2037,1992,1946,1900,1854,1809,1763,1752,1683,1637,1580,1594,1517,1551,1511,1519,1527,1646,1621,1646,1658,1675,1715,1659,1677,1681,1695,1733,1688,1694,1736,1753,1743,1701,1688,1686,1705,1688,1698,1675,1711,1695,1702,1685,175,176,176,177,177,183,207,231,255,279,293,289,284,279,275,270,265,261,256,251,247,242,237,233,228,223,219,214,209,205,200,195,191,186,181,178,178,179,165,165,171,175,187,192,188,165,173,182,166,169,174,166,164,166,164,165,165,165,166,167,170,166,166,174,165,434,436,437,438,434,476,540,604,645,691,700,727,678,667,656,645,634,623,612,601,591,580,584,572,561,536,537,514,514,492,491,471,460,449,445,441,442,411,423,425,429,439,434,438,431,435,431,431,435,432,444,460,455,447,438,440,442,455,454,435,441,449,434,440,437,373,375,372,373,374,399,452,505,557,603,614,604,594,584,580,565,555,546,536,526,516,507,497,487,477,468,458,448,438,429,419,409,432,390,380,376,377,378,371,372,372,373,387,372,380,387,374,392,378,376,383,381,380,383,392,387,392,387,384,385,381,387,389,388,393,1165,1163,1130,1169,1312,1525,1852,1967,1980,1999,1980,1944,1907,1870,1890,1796,1795,1723,1686,1649,1626,1575,1538,1501,1465,1428,1391,1354,1353,1292,1255,1207,1223,1145,1177,1137,1144,1151,1192,1185,1197,1206,1187,1216,1197,1204,1204,1214,1227,1213,1196,1199,1218,1220,1216,1231,1236,1218,1221,1216,1213,1212,1229,1291,1243,588,608,573,581,591,693,756,864,923,946,1023,991,939,905,894,952,890,885,870,892,831,828,760,769,774,764,742,726,692,655,697,665,654,602,649,601,587,677,608,608,601,608,616,645,610,617,634,622,613,617,610,618,618,609,623,623,619,618,616,623,630,652,646,655,642,570,572,538,539,540,573,720,794,829,847,882,869,828,816,793,794,804,771,759,731,732,718,704,682,687,657,649,641,675,614,595,581,575,561,547,537,535,540,539,545,554,573,553,546,550,557,555,545,600,585,541,562,602,595,613,555,554,565,584,552,541,557,567,542,538,544,546,584,549,557,607,685,762,840,884,889,875,885,847,833,844,805,792,838,786,750,736,722,708,694,680,666,707,638,624,610,596,591,569,556,552,554,555,555,550,554,553,552,550,555,556,555,553,553,554,559,560,562,559,555,555,560,560,563,569,560,568,557,556,563,1123,1126,1098,1139,1217,1461,1497,1690,1768,1758,1790,1760,1712,1668,1659,1666,1647,1655,1589,1549,1539,1511,1472,1401,1425,1419,1365,1369,1274,1273,1242,1221,1182,1147,1150,1119,1140,1149,1174,1170,1175,1180,1189,1183,1173,1192,1174,1198,1193,1226,1210,1218,1192,1225,1205,1235,1203,1204,1204,1229,1233,1205,1212,1212,1246,525,527,487,489,493,535,663,741,748,795,802,789,776,764,751,738,725,712,700,687,674,661,649,636,623,610,597,585,619,559,546,534,521,508,496,492,493,494,485,495,486,502,498,511,491,513,498,500,494,491,494,504,502,501,501,503,501,498,514,511,499,508,495,508,499,1235,1249,1221,1269,1386,1589,1901,2017,2113,2052,2024,2025,1964,1993,2011,1857,1912,1776,1799,1705,1735,1643,1607,1571,1533,1527,1491,1449,1446,1375,1344,1266,1309,1227,1258,1196,1203,1238,1315,1290,1302,1296,1304,1292,1328,1300,1296,1288,1305,1298,1305,1302,1304,1297,1289,1309,1298,1307,1299,1306,1298,1310,1297,1295,1289,101,101,101,102,102,104,117,131,144,158,168,166,163,160,158,155,152,150,147,144,142,139,136,134,131,128,126,123,120,118,115,113,110,107,105,102,102,103,87,86,87,89,86,89,87,89,88,87,89,87,87,87,87,89,88,88,87,88,87,87,88,88,87,89,88,0,0,0,0,0,0,0,0,0,0,0,0,0,0,0,0,0,0,0,0,0,0,0,0,0,0,0,0,0,0,0,0,0,0,0,0,0,0,0,0,0,0,0,0,0,0,0,0,0,0,0,0,0,0,0,0,0,0,0,0,0,0,0,0,0,288,289,290,292,293,308,347,387,427,466,476,470,461,455,448,440,433,424,418,409,401,394,388,381,373,366,358,351,343,336,328,319,313,306,298,294,293,295,286,284,285,285,300,294,289,299,288,302,293,292,296,295,296,305,303,303,295,300,296,304,302,307,308,314,308,998,1022,1040,1021,1114,1246,1412,1544,1624,1674,1612,1624,1602,1510,1514,1510,1484,1407,1382,1387,1390,1335,1342,1327,1259,1207,1231,1198,1178,1159,1104,1104,1053,1029,1047,1034,1032,1040,1051,1036,1043,1049,1053,1060,1051,1062,1062,1074,1091,1069,1073,1083,1082,1088,1085,1083,1082,1090,1098,1081,1099,1103,1101,1115,1110,1370,1373,1393,1499,1717,1963,2269,2328,2384,2364,2373,2319,2305,2235,2206,2136,2118,2046,2007,1994,1921,1879,1843,1810,1761,1713,1685,1630,1620,1550,1527,1459,1440,1410,1411,1424,1406,1415,1495,1506,1481,1497,1496,1533,1501,1535,1542,1606,1519,1552,1543,1544,1522,1580,1558,1531,1521,1506,1525,1562,1533,1565,1542,1554,1516,637,639,678,643,658,722,815,907,992,1137,1036,1020,1041,988,971,979,939,923,967,913,874,858,842,826,809,793,777,816,745,728,712,696,688,664,650,665,649,675,652,660,651,666,667,675,661,678,662,667,660,663,657,670,669,667,667,668,668,663,676,678,663,674,661,670,662,808,860,819,828,865,1007,1037,1349,1313,1422,1362,1498,1272,1266,1230,1270,1215,1302,1170,1186,1134,1142,1069,1074,1044,1076,1001,1007,1028,1028,935,896,992,957,839,825,845,866,882,883,875,889,877,871,892,896,885,909,907,891,871,874,892,882,891,900,894,911,925,889,898,890,890,954,916,313,314,266,266,267,280,316,352,389,425,438,431,424,417,411,478,397,390,383,376,369,362,420,348,341,335,328,321,314,307,355,293,286,279,272,268,269,269,262,254,265,299,270,255,253,258,259,308,354,263,274,274,273,262,269,277,256,259,258,258,261,258,262,269,258,1295,1298,1316,1403,1453,1700,1831,1989,2061,2106,2092,2050,2003,2018,1958,1993,1891,1838,1797,1791,1782,1705,1672,1651,1646,1600,1603,1507,1490,1456,1411,1417,1353,1331,1306,1304,1302,1326,1351,1346,1355,1397,1375,1386,1387,1364,1369,1386,1372,1376,1373,1378,1386,1394,1388,1387,1395,1389,1389,1382,1402,1390,1387,1403,1388,850,848,814,817,862,962,1131,1281,1310,1347,1344,1322,1300,1278,1328,1234,1250,1190,1168,1146,1124,1102,1080,1058,1036,1013,991,969,985,925,903,881,903,838,898,822,824,827,838,860,847,851,851,864,850,867,861,899,878,894,906,882,874,878,902,875,877,884,963,939,904,892,911,908,900,1201,1200,1167,1206,1346,1648,1856,1973,1988,2009,1981,1982,1922,1887,1908,1816,1817,1736,1710,1665,1640,1604,1569,1556,1499,1463,1428,1393,1393,1368,1287,1252,1259,1192,1223,1182,1188,1237,1234,1259,1264,1235,1275,1253,1241,1291,1271,1274,1277,1281,1285,1309,1297,1305,1276,1283,1285,1284,1276,1292,1289,1287,1297,1287,1283,248,248,249,250,251,261,296,330,364,398,411,405,399,392,386,379,373,366,360,353,347,340,334,327,321,314,308,301,295,288,282,275,269,262,256,251,252,253,238,241,239,245,240,243,239,242,240,239,241,240,240,240,242,242,242,246,242,243,245,247,242,251,242,247,243,610,612,612,603,626,675,784,918,930,976,980,965,955,938,924,909,890,881,867,845,830,815,800,781,770,750,734,718,717,694,679,664,649,634,610,606,608,608,601,615,614,619,616,614,618,622,616,630,610,614,613,621,630,641,633,633,619,613,626,628,630,633,618,623,614,1360,1364,1388,1485,1586,1761,1984,2093,2208,2206,2190,2303,2140,2153,2050,2084,1980,1964,2021,1875,1901,1917,1880,1729,1756,1708,1646,1610,1560,1525,1478,1455,1419,1397,1402,1400,1475,1500,1487,1476,1510,1521,1509,1534,1509,1547,1534,1535,1564,1527,1535,1566,1586,1582,1548,1536,1520,1539,1522,1517,1514,1542,1517,1554,1526,1485,1505,1485,1586,1763,2089,2415,2516,2519,2528,2463,2481,2435,2353,2374,2238,2262,2262,2177,2058,2062,2016,1923,1878,1863,1809,1792,1726,1715,1635,1596,1544,1545,1455,1569,1489,1501,1571,1637,1620,1600,1619,1608,1650,1678,1677,1657,1734,1647,1641,1642,1690,1690,1715,1711,1703,1680,1695,1682,1673,1664,1655,1639,1633,1610,810,840,831,819,849,950,1075,1241,1351,1324,1322,1301,1280,1259,1238,1231,1210,1175,1191,1133,1112,1091,1070,1049,1066,1007,979,965,944,967,902,919,854,839,826,823,824,827,824,818,818,822,817,848,846,848,838,840,858,841,838,833,837,860,868,844,852,850,845,861,851,846,853,892,853,708,709,711,711,738,815,923,1031,1120,1159,1160,1168,1123,1152,1086,1069,1049,1031,1004,994,975,957,938,920,915,925,864,846,827,809,784,772,753,731,721,718,714,722,709,709,713,739,713,726,714,720,710,710,722,715,713,723,723,732,721,730,722,723,728,717,722,732,708,730,720,494,502,496,498,503,554,619,691,775,810,817,814,791,788,765,752,749,724,713,700,687,674,669,648,643,630,617,604,583,577,564,544,537,525,506,501,509,504,495,502,510,525,515,515,506,519,501,531,513,517,519,514,538,559,521,515,525,517,521,514,525,532,510,517,509,951,954,958,984,1007,1121,1268,1406,1508,1578,1545,1579,1553,1472,1447,1423,1399,1428,1350,1327,1301,1276,1252,1227,1203,1178,1154,1129,1105,1081,1056,1031,1045,984,968,965,968,970,971,961,980,1005,991,962,967,983,982,1037,1078,992,1076,1076,1020,985,999,1047,1026,1087,1088,990,1028,1106,1113,1095,1015,671,602,604,606,617,676,764,853,936,980,983,968,964,949,934,905,890,875,859,844,828,813,797,782,766,751,735,720,704,689,673,658,642,627,613,610,611,652,606,603,613,633,608,616,614,626,622,611,621,608,622,624,629,626,619,618,611,631,617,609,614,633,618,629,615,1337,1366,1348,1411,1582,1795,1988,2115,2204,2262,2220,2231,2213,2124,2091,2050,2029,1989,1945,1920,1867,1827,1786,1746,1705,1665,1635,1584,1543,1503,1501,1419,1383,1384,1352,1364,1360,1370,1415,1412,1420,1457,1424,1460,1426,1427,1427,1424,1458,1436,1464,1472,1466,1461,1468,1447,1445,1471,1455,1447,1459,1452,1434,1466,1440,316,317,318,317,320,339,384,429,474,516,527,517,523,514,505,483,477,466,456,452,441,457,448,416,409,401,393,384,395,386,359,350,342,334,325,319,322,322,326,303,308,309,304,317,311,319,317,311,319,308,310,309,309,312,312,311,311,312,310,308,309,311,310,316,314,572,569,583,578,553,645,712,843,899,921,939,932,929,906,899,855,856,833,818,811,795,781,765,743,735,728,704,689,674,623,632,628,613,598,553,581,583,552,568,569,565,571,583,580,577,598,584,603,584,593,591,587,577,598,587,594,591,579,582,601,586,599,584,585,579,356,383,398,399,424,429,455,507,599,666,591,606,573,624,614,567,557,616,572,562,551,541,531,489,510,486,460,450,468,458,447,437,419,416,382,377,378,379,371,368,370,372,373,372,373,374,372,378,378,377,377,379,378,376,378,381,383,385,380,380,385,384,384,384,384,1192,1217,1202,1313,1432,1663,1857,2035,2060,2145,2073,2137,2015,1999,1920,1905,1828,1821,1789,1714,1712,1713,1634,1635,1557,1485,1505,1443,1399,1347,1348,1286,1245,1209,1258,1220,1225,1279,1314,1269,1275,1303,1268,1298,1273,1312,1307,1300,1300,1287,1304,1288,1321,1303,1302,1298,1312,1297,1285,1287,1306,1298,1298,1307,1295,745,744,785,750,778,841,967,1130,1179,1207,1225,1198,1177,1174,1163,1120,1111,1072,1097,1034,1102,1005,964,965,925,918,899,914,868,841,854,810,790,785,757,771,761,760,766,762,763,772,767,771,769,778,766,779,770,766,770,768,774,778,777,775,776,776,777,774,771,785,771,777,774,589,515,516,524,521,562,631,700,768,768,798,798,797,773,782,771,760,740,723,710,699,686,677,685,652,636,624,611,599,586,574,571,589,536,534,520,529,596,529,534,542,563,548,545,544,563,537,557,553,563,593,583,603,593,548,547,559,561,556,545,557,570,547,550,545,678,731,679,684,706,779,879,987,1075,1112,1126,1097,1096,1075,1102,1028,1064,992,972,1008,938,920,903,901,867,948,830,818,795,786,759,792,723,726,692,740,690,690,694,706,712,724,714,722,712,729,707,720,712,705,708,718,720,721,720,717,714,717,725,716,710,708,705,720,707,1267,1314,1297,1363,1444,1571,1782,1921,2003,2005,2030,1995,1964,1969,1879,1951,1890,1785,1783,1717,1717,1716,1636,1601,1564,1531,1499,1475,1530,1424,1381,1420,1320,1320,1350,1276,1298,1325,1390,1356,1357,1371,1353,1371,1366,1364,1390,1438,1368,1386,1437,1394,1388,1441,1404,1386,1375,1380,1421,1490,1499,1525,1529,1411,1406,563,476,477,479,482,524,593,675,732,778,786,773,772,748,736,723,711,699,696,673,661,648,639,623,613,598,586,573,560,548,535,523,510,506,488,481,483,575,487,491,492,501,503,506,509,511,502,501,508,506,506,509,509,515,500,498,508,504,506,496,504,510,499,501,498,1280,1276,1263,1381,1528,1756,1906,2098,2182,2218,2111,2136,2139,2113,1964,1967,1907,1936,1865,1789,1821,1782,1704,1718,1628,1558,1601,1537,1475,1438,1427,1375,1327,1268,1317,1292,1312,1338,1388,1387,1369,1378,1367,1389,1373,1380,1403,1458,1389,1413,1412,1409,1403,1433,1422,1396,1399,1388,1402,1426,1396,1412,1419,1410,1404,317,318,319,320,321,337,385,430,475,516,528,519,526,517,509,486,478,470,461,453,444,436,427,419,411,401,394,385,377,369,358,350,342,335,326,322,323,324,311,304,314,312,305,324,312,326,324,316,340,317,320,319,318,327,316,317,315,320,314,312,318,318,314,332,325,230,230,231,232,232,239,271,302,332,362,376,371,379,373,367,347,342,336,330,324,318,313,307,301,295,288,284,278,272,266,258,253,249,243,237,233,234,234,220,227,227,231,231,232,226,231,222,240,225,225,230,230,240,249,238,231,231,223,233,232,231,234,224,230,223,0,0,0,0,0,0,0,0,0,0,0,0,0,0,0,0,0,0,0,0,0,0,0,0,0,0,0,0,0,0,0,0,0,0,0,0,0,0,0,0,0,0,0,0,0,0,0,0,0,0,0,0,0,0,0,0,0,0,0,0,0,0,0,0,0,1151,1160,1165,1154,1295,1455,1557,1779,1793,1881,1846,1863,1832,1791,1778,1683,1665,1656,1627,1568,1571,1562,1510,1445,1426,1418,1387,1357,1331,1279,1226,1236,1211,1143,1161,1170,1181,1122,1226,1206,1207,1211,1246,1291,1229,1252,1258,1275,1290,1296,1291,1298,1259,1281,1266,1253,1266,1268,1281,1340,1291,1312,1298,1291,1296,1177,1217,1184,1237,1380,1596,1833,1985,2046,2069,2103,2013,2027,1973,1902,1864,1827,1786,1750,1716,1679,1642,1605,1568,1530,1493,1456,1416,1382,1345,1346,1268,1231,1234,1200,1198,1205,1215,1266,1229,1237,1244,1231,1267,1249,1259,1257,1259,1284,1261,1264,1258,1260,1283,1288,1259,1259,1277,1257,1265,1267,1262,1276,1298,1273,771,841,773,856,812,900,1016,1139,1226,1260,1272,1240,1237,1214,1275,1279,1207,1122,1100,1167,1062,1042,1021,1017,981,1036,940,925,901,889,859,895,820,821,786,831,785,785,793,800,807,828,817,818,813,828,800,813,808,804,812,821,820,824,847,830,805,807,821,818,809,817,818,828,814,965,964,1007,1023,1070,1167,1334,1483,1566,1554,1603,1565,1552,1557,1479,1492,1421,1406,1362,1357,1341,1316,1270,1236,1220,1207,1182,1138,1157,1108,1065,1065,1015,1006,1062,995,1064,1025,1022,1032,1047,1069,1030,1052,1034,1047,1031,1059,1063,1050,1047,1052,1057,1072,1060,1057,1040,1050,1083,1061,1057,1052,1037,1070,1059,243,244,244,245,246,256,290,323,356,405,417,412,405,400,376,371,364,356,352,346,340,333,327,335,314,308,300,295,289,282,276,270,263,255,251,247,247,246,235,232,235,241,240,239,238,235,238,245,239,239,241,255,258,253,258,243,238,246,239,235,238,240,238,248,235,1086,1081,1085,1139,1172,1332,1485,1683,1721,1787,1751,1802,1773,1667,1652,1611,1583,1628,1527,1500,1490,1443,1415,1405,1369,1341,1303,1322,1263,1219,1200,1217,1188,1112,1096,1108,1097,1156,1145,1137,1152,1176,1164,1168,1157,1164,1169,1169,1173,1161,1197,1195,1220,1205,1195,1182,1151,1180,1166,1165,1161,1190,1172,1200,1162,888,929,895,899,958,1072,1175,1358,1394,1511,1423,1464,1377,1413,1330,1348,1386,1260,1276,1214,1228,1246,1180,1219,1132,1074,1084,1062,1033,995,988,964,937,901,946,904,905,978,934,925,929,940,932,934,936,932,943,931,939,929,945,936,940,937,934,945,934,946,931,938,942,952,935,938,931,1150,1154,1159,1212,1265,1417,1602,1738,1833,1896,1858,1886,1963,1770,1740,1711,1682,1714,1622,1594,1563,1533,1503,1474,1444,1415,1385,1356,1326,1296,1267,1237,1246,1185,1170,1167,1170,1174,1228,1235,1208,1223,1218,1259,1227,1244,1262,1325,1241,1298,1281,1295,1250,1310,1297,1243,1238,1238,1275,1313,1294,1317,1298,1303,1275,401,403,404,405,407,438,494,552,610,656,665,655,656,646,636,612,602,591,581,571,540,550,539,509,517,507,496,486,475,465,454,445,540,424,479,408,409,410,416,425,420,427,431,430,429,435,422,431,423,423,427,441,444,440,438,433,425,427,439,437,423,430,425,435,426,676,662,682,679,713,776,838,978,1025,1065,1068,1116,1029,1077,999,1026,965,946,970,914,936,919,902,877,868,811,834,812,789,765,766,739,785,698,701,761,688,690,689,692,693,703,708,700,701,709,703,712,700,699,707,708,705,707,718,716,721,713,712,712,714,737,738,740,740,1152,1175,1181,1215,1295,1430,1641,1745,1870,1933,1894,1900,1869,1915,1745,1743,1714,1717,1754,1623,1574,1562,1626,1612,1448,1418,1497,1365,1335,1320,1269,1256,1254,1207,1191,1175,1270,1292,1262,1254,1254,1267,1266,1259,1273,1275,1268,1269,1268,1261,1273,1268,1285,1287,1292,1291,1292,1282,1282,1266,1281,1287,1287,1292,1284,1385,1415,1402,1473,1654,1925,2069,2195,2328,2385,2343,2305,2335,2195,2189,2119,2097,2055,2010,1984,1930,1888,1846,1829,1822,1721,1690,1638,1596,1554,1551,1468,1432,1433,1401,1414,1409,1420,1478,1486,1494,1499,1512,1537,1516,1527,1497,1531,1516,1498,1506,1509,1518,1535,1525,1534,1520,1514,1522,1512,1509,1504,1519,1545,1505,1035,951,955,966,1044,1142,1293,1430,1544,1546,1540,1539,1503,1478,1455,1439,1491,1390,1402,1321,1348,1272,1246,1222,1197,1166,1148,1124,1099,1075,1050,1042,1001,979,966,979,958,1044,996,1000,1013,1035,1015,1013,1015,1016,1019,1011,1052,1050,1005,1034,1074,1060,1058,1030,1022,1030,1049,1027,1006,1027,1035,1013,1001,494,502,496,498,503,554,619,691,775,810,817,814,791,788,765,752,749,724,713,700,687,674,669,648,643,630,617,604,583,577,564,544,537,525,506,501,509,504,495,502,510,525,515,515,506,519,501,531,513,517,519,514,538,559,521,515,525,517,521,514,525,532,510,517,509,1389,1374,1392,1519,1644,1821,1993,2106,2183,2235,2243,2153,2148,2083,2077,2037,1992,1941,1909,1874,1835,1804,1769,1734,1700,1677,1622,1595,1573,1556,1477,1448,1434,1396,1411,1389,1410,1396,1443,1495,1451,1468,1480,1473,1468,1480,1475,1472,1489,1465,1475,1487,1482,1490,1498,1509,1502,1502,1539,1486,1503,1527,1525,1511,1497,1463,1474,1504,1712,1826,2129,2358,2497,2555,2560,2523,2506,2454,2427,2361,2304,2257,2212,2166,2240,2075,2029,1989,1937,1909,1855,1796,1764,1707,1672,1610,1669,1531,1505,1500,1511,1518,1622,1633,1639,1658,1678,1671,1674,1659,1675,1654,1675,1682,1672,1667,1690,1689,1709,1784,1749,1681,1690,1695,1685,1680,1677,1690,1709,1695,585,586,588,590,597,655,741,822,909,953,958,943,928,913,898,882,867,852,837,822,807,792,777,762,747,732,716,701,686,671,656,641,626,611,595,593,595,597,591,594,598,594,600,611,608,600,605,600,606,600,603,601,608,618,613,621,608,608,610,608,608,606,609,611,601,1548,1553,1592,1729,1992,2406,2567,2695,2746,2749,2717,2697,2643,2565,2525,2463,2427,2361,2311,2378,2259,2158,2107,2057,2006,1955,1904,1862,1776,1725,1674,1721,1620,1557,1578,1591,1592,1682,1772,1771,1755,1859,1788,1772,1792,1800,1790,1785,1794,1795,1804,1789,1792,1807,1801,1819,1785,1803,1788,1786,1790,1817,1793,1793,1761,799,802,804,876,846,938,1063,1187,1273,1310,1309,1288,1267,1249,1225,1204,1184,1163,1142,1121,1100,1081,1058,1037,1016,995,974,953,934,923,891,870,849,828,815,811,814,816,802,808,802,820,810,823,810,820,828,812,810,815,813,812,809,808,815,817,814,815,808,814,817,829,827,831,818,634,636,638,706,656,722,818,915,1001,1044,1047,1030,1013,997,980,963,946,930,913,896,879,863,846,829,812,796,779,762,745,740,712,695,678,661,648,644,646,647,637,647,642,661,649,660,645,653,648,647,648,646,645,659,655,660,659,664,662,661,671,664,662,691,670,682,674,1109,1100,1104,1132,1214,1358,1538,1675,1813,1802,1776,1764,1717,1689,1660,1649,1660,1575,1551,1519,1491,1503,1484,1399,1405,1385,1323,1294,1278,1236,1208,1179,1193,1171,1148,1145,1118,1198,1184,1174,1204,1192,1204,1242,1199,1208,1208,1230,1243,1231,1231,1243,1239,1235,1210,1212,1207,1229,1210,1221,1221,1229,1203,1216,1239,1179,1182,1185,1258,1441,1716,1967,2108,2171,2184,2162,2120,2106,2036,2005,1952,1925,1868,1826,1905,1741,1699,1657,1615,1573,1531,1489,1456,1405,1363,1321,1379,1248,1212,1205,1216,1216,1339,1306,1311,1351,1617,1359,1298,1345,1441,1381,1315,1418,1388,1337,1338,1421,1399,1397,1306,1334,1327,1375,1375,1315,1365,1326,1336,1346,674,676,678,680,699,770,872,975,1063,1106,1108,1091,1073,1055,1038,1020,1050,985,967,949,932,914,896,879,861,843,826,808,790,772,755,737,719,702,688,684,686,688,684,676,689,699,692,691,685,686,693,699,703,691,698,733,753,731,724,703,689,706,693,694,683,707,697,709,691,1164,1152,1130,1163,1290,1407,1617,1789,1854,1856,1874,1818,1795,1768,1736,1706,1691,1687,1628,1612,1528,1488,1518,1505,1476,1408,1391,1321,1320,1264,1261,1231,1202,1192,1193,1133,1166,1217,1260,1220,1212,1298,1296,1272,1253,1235,1249,1289,1297,1267,1283,1272,1253,1256,1239,1271,1283,1275,1307,1315,1251,1246,1303,1231,1227,746,749,742,753,771,775,896,1098,1199,1226,1240,1207,1200,1143,1148,1105,1108,992,974,1050,990,972,917,899,951,906,887,892,887,830,772,754,794,775,761,746,748,761,740,747,748,761,761,766,753,771,760,761,755,752,759,767,762,764,769,769,770,764,774,770,767,792,787,794,789,749,750,745,754,752,837,942,1066,1155,1196,1188,1168,1148,1133,1115,1097,1078,1059,1053,1035,1016,998,970,958,953,922,910,888,870,851,836,817,794,780,764,746,762,762,746,740,752,752,746,761,749,752,754,763,778,769,767,771,772,782,772,775,761,776,776,777,783,775,774,797,797,1109,1113,1116,1175,1254,1410,1564,1852,1774,1802,1818,1764,1736,1734,1678,1650,1647,1630,1570,1535,1507,1478,1449,1480,1424,1385,1335,1306,1298,1288,1252,1200,1208,1141,1155,1126,1148,1147,1180,1168,1167,1169,1175,1213,1204,1215,1198,1207,1220,1208,1210,1211,1206,1235,1237,1208,1215,1218,1216,1241,1221,1221,1234,1283,1231,1264,1263,1271,1360,1513,1840,2016,2243,2260,2239,2290,2177,2230,2095,2125,2032,1972,1982,1890,1971,1815,1768,1747,1685,1645,1630,1582,1551,1498,1470,1392,1465,1334,1293,1285,1275,1294,1397,1411,1396,1405,1402,1403,1402,1484,1476,1404,1444,1430,1411,1406,1470,1473,1489,1474,1484,1479,1501,1501,1468,1447,1442,1410,1409,1414,904,907,909,918,970,1080,1223,1358,1466,1478,1474,1450,1427,1403,1380,1356,1370,1309,1289,1262,1235,1215,1191,1161,1183,1121,1097,1074,1050,1027,1003,980,956,962,921,917,920,960,950,922,936,961,948,948,947,963,952,959,971,961,1035,1073,1141,1015,962,946,948,960,953,936,939,959,943,966,948,921,947,927,925,991,1102,1247,1382,1465,1499,1495,1506,1447,1420,1400,1373,1352,1323,1305,1277,1258,1243,1221,1187,1163,1139,1115,1092,1076,1056,1021,997,996,951,938,935,938,963,1005,942,945,955,938,946,954,953,965,991,957,968,1024,973,973,1031,989,970,965,965,1013,1070,1082,1107,1110,997,998,1135,1133,1144,1161,1271,1412,1597,1774,1811,1831,1821,1792,1779,1733,1705,1675,1657,1635,1608,1559,1537,1525,1474,1446,1416,1375,1369,1332,1296,1269,1268,1218,1200,1159,1172,1134,1179,1182,1203,1189,1202,1225,1212,1220,1208,1213,1219,1221,1222,1208,1248,1244,1267,1250,1245,1228,1202,1227,1214,1213,1206,1235,1215,1242,1207,0,0,0,0,0,0,0,0,0,0,0,0,0,0,0,0,0,0,0,0,0,0,0,0,0,0,0,0,0,0,0,0,0,0,0,0,0,0,0,0,0,0,0,0,0,0,0,0,0,0,0,0,0,0,0,0,0,0,0,0,0,0,0,0,0,1756,1763,1836,2072,2361,2652,2862,2927,2995,3005,2989,2956,2847,2783,2831,2797,2707,2573,2520,2718,2416,2390,2313,2329,2270,2178,2150,2087,1996,1944,1899,1947,1806,1781,1777,1788,1809,1928,2104,2100,2110,2138,2215,2209,2169,2192,2192,2217,2275,2271,2285,2330,2303,2305,2337,2337,2361,2392,2425,2376,2387,2429,2466,2467,2438,597,599,600,603,613,639,739,845,929,974,979,963,948,908,917,878,928,837,822,840,803,788,777,762,763,732,716,716,701,670,655,640,639,624,610,606,608,609,602,592,605,617,610,607,601,603,609,617,614,609,616,654,671,652,645,616,603,622,610,609,598,621,609,628,606,618,620,622,616,625,697,788,879,964,1007,1012,996,980,964,948,932,916,900,884,868,852,836,821,805,789,773,748,741,725,709,693,677,661,645,632,620,629,631,652,606,613,616,614,636,616,629,619,621,644,630,621,628,626,648,642,637,624,632,629,636,641,638,639,668,640,923,926,928,1010,1008,1107,1254,1389,1471,1505,1501,1477,1470,1429,1405,1381,1371,1333,1309,1286,1262,1238,1214,1251,1166,1155,1118,1094,1070,1058,1045,999,985,953,940,937,939,942,947,942,938,957,944,953,960,954,951,963,977,969,967,963,961,980,970,967,965,976,969,969,973,967,970,981,989,1443,1491,1494,1685,1803,2106,2350,2489,2531,2583,2514,2469,2445,2387,2352,2282,2265,2203,2157,2219,2065,2019,2008,1959,1935,1835,1812,1805,1725,1650,1588,1689,1547,1494,1489,1542,1525,1601,1670,1671,1627,1621,1662,1647,1655,1662,1658,1666,1720,1672,1680,1695,1695,1701,1675,1708,1705,1716,1748,1708,1693,1700,1748,1685,1687,953,956,959,973,1056,1215,1385,1539,1619,1648,1640,1612,1595,1554,1538,1497,1468,1439,1411,1382,1353,1325,1296,1267,1239,1210,1181,1162,1124,1095,1066,1038,1009,984,972,979,975,979,1006,968,978,976,982,981,982,991,982,994,1003,994,998,1003,1007,1003,1009,1003,1000,1007,1008,1004,1008,1008,1005,1022,1024,1219,1229,1235,1302,1472,1732,1972,2116,2169,2196,2260,2134,2131,2053,2024,1972,1932,1891,1851,1932,1770,1729,1709,1648,1629,1586,1601,1518,1446,1405,1357,1424,1285,1259,1250,1330,1260,1363,1340,1348,1358,1369,1368,1378,1368,1388,1360,1401,1372,1358,1364,1368,1378,1398,1388,1386,1376,1357,1375,1383,1380,1388,1368,1397,1369,731,733,736,849,765,846,958,1070,1158,1198,1198,1179,1160,1141,1122,1103,1084,1065,1046,1027,1007,988,969,950,931,912,893,874,855,847,817,842,778,759,746,742,744,746,745,741,736,745,752,781,746,754,768,759,748,753,745,754,754,744,758,760,756,756,752,756,764,786,782,791,777,1088,1099,1072,1113,1178,1354,1501,1678,1754,1782,1762,1738,1670,1679,1662,1624,1606,1596,1554,1523,1453,1429,1485,1405,1377,1355,1311,1255,1272,1236,1216,1178,1150,1156,1142,1080,1083,1153,1153,1139,1139,1145,1158,1170,1149,1158,1158,1198,1151,1151,1156,1158,1157,1160,1167,1166,1154,1161,1151,1180,1162,1165,1167,1168,1160,1537,1530,1569,1885,2072,2385,2454,2591,2631,2681,2611,2643,2538,2479,2588,2410,2492,2289,2241,2434,2146,2099,2054,2004,1979,1909,1884,1846,1766,1719,1684,1727,1586,1561,1555,1566,1564,1770,1744,1780,1736,1742,1769,1764,1769,1777,1769,1766,1809,1766,1773,1784,1793,1807,1780,1813,1805,1797,1825,1765,1788,1796,1828,1781,1769,1540,1530,1587,1797,1910,2246,2526,2676,2785,2671,2640,2627,2584,2551,2505,2390,2374,2323,2272,2340,2162,2120,2086,2019,1939,1925,1859,1898,1763,1715,1678,1770,1604,1548,1534,1554,1554,1668,1749,1726,1748,1738,1750,1743,1785,1769,1727,1759,1767,1802,1779,1781,1758,1795,1765,1811,1770,1771,1769,1789,1788,1769,1781,1790,1804,216,217,218,218,219,227,255,284,313,342,357,351,346,340,335,329,324,318,312,307,301,296,290,285,279,274,268,262,257,251,246,240,235,229,223,219,220,221,201,201,204,205,204,207,202,203,203,212,205,205,208,207,212,218,211,209,212,208,210,211,213,216,209,210,209,1389,1374,1392,1519,1644,1821,1993,2106,2183,2235,2243,2153,2148,2083,2077,2037,1992,1941,1909,1874,1835,1804,1769,1734,1700,1677,1622,1595,1573,1556,1477,1448,1434,1396,1411,1389,1410,1396,1443,1495,1451,1468,1480,1473,1468,1480,1475,1472,1489,1465,1475,1487,1482,1490,1498,1509,1502,1502,1539,1486,1503,1527,1525,1511,1497,1141,1154,1169,1199,1280,1454,1629,1761,1712,1845,1833,1769,1777,1695,1667,1694,1665,1637,1628,1582,1545,1517,1505,1479,1393,1410,1379,1351,1327,1281,1259,1179,1232,1185,1161,1164,1180,1177,1202,1198,1205,1215,1202,1233,1212,1215,1213,1219,1228,1218,1212,1211,1226,1231,1226,1241,1235,1237,1229,1223,1222,1222,1234,1230,1216,719,722,724,726,750,826,934,1041,1146,1216,1218,1155,1136,1133,1140,1096,1062,1044,1025,1007,1002,970,951,933,914,896,877,859,840,822,803,785,766,748,734,740,732,734,729,724,740,737,751,789,743,759,760,762,787,762,761,764,761,769,749,752,752,762,745,753,759,767,756,764,769,1451,1588,1481,1652,1799,2093,2343,2483,2600,2550,2523,2535,2488,2437,2338,2292,2246,2199,2199,2196,2128,2015,1968,1971,1922,1937,1849,1737,1738,1683,1639,1593,1512,1486,1531,1518,1567,1498,1644,1643,1642,1677,1702,1697,1669,1670,1686,1728,1694,1713,1720,1742,1723,1721,1717,1712,1703,1682,1710,1751,1702,1719,1719,1704,1683,679,681,683,684,695,750,836,922,1003,1050,1056,1041,1026,1011,995,980,965,950,934,919,904,888,873,858,843,827,812,797,782,766,751,736,721,705,692,688,689,691,678,678,690,715,700,699,686,701,692,717,705,703,775,775,809,761,720,703,708,713,705,697,709,725,699,715,694,1554,1501,1553,1658,1875,2147,2398,2523,2440,2586,2568,2509,2453,2391,2310,2316,2308,2264,2235,2140,2116,2104,2024,1978,1932,1903,1827,1784,1761,1718,1647,1602,1581,1610,1521,1528,1536,1531,1644,1628,1636,1634,1765,1671,1673,1681,1663,1671,1753,1759,1678,1680,1682,1706,1838,1711,1689,1690,1723,1703,1698,1688,1719,1748,1724,1525,1648,1566,1669,1928,2208,2452,2615,2669,2640,2612,2595,2576,2485,2446,2395,2341,2293,2256,2237,2149,2079,2040,2060,1969,1965,1927,1795,1815,1718,1672,1625,1577,1580,1559,1539,1636,1583,1715,1713,1704,1729,1744,1756,1739,1738,1750,1785,1748,1773,1777,1781,1734,1763,1757,1770,1777,1746,1788,1801,1807,1807,1795,1779,1780,1250,1249,1232,1278,1419,1663,1890,2091,2153,2205,2130,2220,2054,2068,2046,1936,1930,1923,1855,1802,1748,1755,1717,1631,1592,1554,1519,1524,1458,1402,1363,1325,1289,1336,1242,1241,1250,1255,1335,1338,1310,1327,1329,1374,1332,1355,1365,1432,1349,1394,1375,1388,1358,1418,1391,1346,1348,1340,1366,1397,1380,1410,1389,1399,1359,747,750,752,754,783,866,1052,1121,1215,1243,1309,1250,1204,1185,1204,1145,1109,1143,1155,1074,1045,1025,1006,972,990,933,913,894,874,854,835,815,796,776,762,759,801,763,754,760,767,782,839,813,779,820,777,867,806,837,810,783,809,843,808,790,837,805,793,820,814,854,810,805,793,1793,1789,1864,2104,2248,2520,2777,2941,2987,3002,2898,2987,2840,2859,2767,2679,2628,2608,2511,2429,2425,2491,2308,2271,2179,2129,2125,2116,2073,1966,1915,1874,1838,1884,1763,1853,1801,1819,2127,2140,2154,2437,2172,2153,2162,2277,2230,2228,2248,2255,2186,2205,2263,2303,2264,2136,2167,2153,2220,2237,2179,2238,2192,2206,2188,1208,1211,1218,1281,1421,1552,1720,1853,1926,1999,1942,1935,1920,1849,1818,1787,1756,1726,1715,1664,1633,1590,1588,1559,1509,1509,1465,1433,1417,1354,1323,1292,1269,1379,1244,1226,1229,1232,1280,1304,1311,1281,1321,1300,1288,1332,1319,1319,1325,1328,1330,1353,1351,1369,1320,1327,1336,1329,1321,1341,1337,1335,1329,1333,1329,1252,1386,1264,1335,1521,1772,2038,2176,2246,2254,2232,2197,2156,2106,2064,2023,1988,1939,1897,1900,1813,1771,1729,1743,1651,1673,1628,1520,1526,1436,1399,1357,1312,1286,1277,1279,1364,1295,1328,1323,1327,1327,1461,1344,1341,1346,1353,1364,1424,1455,1372,1365,1391,1373,1533,1404,1383,1390,1406,1390,1383,1375,1405,1382,1401,1563,1576,1606,1806,2174,2617,2931,3071,3133,3233,3082,3016,2950,2883,2817,2818,2684,2616,2552,2485,2419,2354,2300,2220,2147,2087,2026,1949,1895,1829,1750,1692,1630,1601,1607,1629,1627,1639,1780,1765,1766,1781,1793,1813,1811,1818,1799,1813,1846,1827,1909,1901,1915,1870,1859,1813,1828,1842,1832,1846,1836,1823,1848,1897,1842,1291,1295,1330,1401,1555,1699,1861,1990,2061,2085,2084,2074,2069,1973,1975,1906,1873,1840,1842,1774,1767,1722,1692,1664,1608,1629,1563,1530,1519,1443,1440,1403,1385,1410,1331,1310,1322,1317,1371,1366,1369,1424,1376,1399,1378,1397,1399,1398,1421,1398,1411,1397,1391,1415,1435,1405,1401,1412,1406,1407,1413,1405,1424,1442,1413,799,801,804,807,841,929,1121,1195,1402,1315,1381,1321,1274,1254,1272,1245,1176,1208,1219,1138,1108,1088,1067,1033,1049,992,971,951,930,935,889,869,848,828,814,834,876,815,813,833,821,854,820,839,828,851,837,843,832,830,839,837,848,850,850,854,846,840,855,845,852,859,848,858,856,1458,1431,1456,1539,1763,2061,2231,2425,2473,2504,2439,2558,2358,2343,2307,2221,2182,2166,2129,2091,2012,2014,1948,1880,1837,1793,1749,1784,1725,1621,1578,1531,1498,1543,1448,1452,1462,1467,1529,1562,1526,1532,1572,1520,1540,1548,1550,1566,1588,1563,1570,1690,1573,1564,1701,1588,1581,1587,1617,1567,1588,1588,1626,1598,1602,1467,1432,1449,1539,1737,1992,2243,2379,2469,2450,2432,2423,2316,2311,2321,2215,2186,2181,2144,2046,2003,1996,1910,1862,1827,1802,1731,1705,1661,1607,1562,1528,1493,1559,1454,1440,1445,1442,1575,1572,1543,1564,1565,1609,1574,1587,1604,1671,1586,1623,1620,1625,1596,1654,1617,1583,1581,1583,1593,1625,1627,1650,1625,1624,1587,1252,1199,1210,1252,1420,1627,1891,2027,2097,2111,2096,2101,2008,1980,2014,1905,1884,1879,1848,1755,1720,1721,1642,1597,1557,1529,1488,1450,1430,1373,1341,1304,1267,1338,1220,1214,1220,1276,1321,1328,1311,1336,1371,1364,1343,1342,1353,1387,1350,1387,1391,1373,1332,1358,1351,1368,1372,1338,1386,1440,1398,1398,1404,1365,1360,1759,1785,1835,2153,2345,2578,2813,3000,2990,2991,2957,2942,2874,2922,2766,2691,2685,2603,2576,2523,2450,2371,2349,2336,2236,2263,2169,2062,2045,1945,1898,1851,1842,1780,1832,1776,1874,1794,2124,2095,2091,2109,2107,2160,2169,2168,2144,2240,2138,2136,2141,2187,2197,2201,2211,2221,2193,2215,2190,2184,2184,2167,2148,2160,2140,0,0,0,0,0,0,0,0,0,0,0,0,0,0,0,0,0,0,0,0,0,0,0,0,0,0,0,0,0,0,0,0,0,0,0,0,0,0,0,0,0,0,0,0,0,0,0,0,0,0,0,0,0,0,0,0,0,0,0,0,0,0,0,0,0,1327,1331,1329,1433,1619,1893,2148,2300,2320,2366,2328,2278,2234,2191,2168,2105,2081,2025,1994,1969,1907,1863,1820,1825,1722,1758,1712,1607,1584,1515,1451,1414,1388,1347,1353,1360,1441,1372,1466,1456,1453,1484,1513,1505,1484,1481,1497,1534,1506,1540,1545,1547,1498,1498,1516,1518,1521,1506,1551,1589,1531,1529,1549,1514,1510,1736,1714,1801,1979,2434,2848,3135,3201,3421,3358,3313,3254,3133,3083,2995,2919,2835,2788,2744,2675,2604,2511,2473,2408,2331,2257,2147,2091,2048,1979,1899,1820,1766,1737,1734,1803,1766,1775,2014,2091,2037,2052,2076,2045,2064,2104,2065,2063,2108,2044,2076,2075,2095,2100,2257,2221,2127,2086,2108,2058,2076,2083,2119,2131,2065,1441,1451,1466,1506,1736,1902,2123,2258,2188,2325,2309,2307,2286,2161,2205,2133,2134,2051,2020,2011,1931,1912,1929,1887,1749,1821,1753,1709,1698,1627,1568,1484,1506,1459,1460,1470,1449,1465,1534,1533,1543,1554,1558,1555,1554,1587,1562,1562,1571,1586,1591,1589,1573,1579,1574,1585,1578,1578,1565,1579,1582,1610,1579,1589,1589,456,457,459,460,463,500,567,633,700,748,757,835,733,721,709,697,685,673,661,648,636,624,612,600,588,576,564,552,540,528,515,503,491,479,467,463,464,465,444,444,455,476,450,455,442,450,447,442,448,452,445,448,452,458,456,456,447,455,449,455,456,455,454,460,456,1028,1031,1033,1068,1198,1400,1640,1796,1866,1890,1874,1838,1802,1767,1731,1695,1659,1623,1588,1592,1516,1480,1445,1459,1373,1408,1370,1266,1279,1194,1158,1123,1087,1060,1050,1051,1135,1065,1095,1098,1077,1078,1097,1129,1104,1124,1116,1146,1130,1172,1174,1153,1153,1159,1193,1120,1133,1161,1164,1212,1173,1173,1192,1197,1167,717,719,722,724,774,825,1017,1042,1131,1172,1146,1155,1137,1118,1156,1081,1062,1044,1120,1006,988,969,950,932,913,895,876,857,839,820,801,783,764,727,732,710,730,732,748,730,726,735,737,753,795,791,741,771,755,737,745,784,789,795,785,804,790,808,789,772,768,753,739,736,726,1641,1592,1682,1775,2009,2283,2557,2656,2558,2695,2693,2614,2569,2505,2410,2414,2469,2370,2366,2360,2232,2197,2108,2063,2029,2000,1924,1877,1846,1788,1771,1690,1650,1679,1629,1616,1621,1660,1784,1782,1778,1802,1842,1842,1825,1833,1813,1841,1859,1849,1853,1847,1863,1873,1923,1881,1851,1874,1870,1865,1851,1848,1888,1893,1870,1282,1316,1299,1359,1574,1773,1925,2053,2122,2145,2131,2097,2080,2029,2039,1960,1926,1892,1908,1824,1790,1744,1722,1746,1665,1686,1585,1551,1517,1498,1448,1380,1342,1363,1306,1308,1352,1323,1386,1381,1389,1407,1390,1407,1404,1419,1401,1421,1435,1409,1401,1402,1418,1427,1424,1428,1441,1419,1422,1417,1414,1419,1460,1422,1405,327,328,329,330,331,350,395,441,486,529,542,534,525,517,508,500,491,482,474,465,457,448,440,431,423,414,405,397,388,380,371,363,354,346,337,332,333,334,325,331,325,330,337,332,332,339,330,331,333,332,326,328,330,334,333,330,334,328,330,333,330,335,327,333,331,727,729,731,733,750,812,902,992,1070,1111,1116,1100,1084,1134,1052,1036,1020,1004,988,972,956,940,924,909,893,877,861,845,829,813,797,781,765,749,738,737,735,740,735,736,736,741,745,746,749,759,745,744,749,752,748,749,752,758,747,743,754,752,755,758,749,761,744,748,746,1800,1827,1909,2178,2367,2693,2968,3070,3134,3076,3040,3238,2987,2928,2957,2760,2734,2659,2668,2668,2561,2460,2387,2428,2323,2346,2250,2157,2148,2043,2012,1924,1869,1835,1843,1877,1881,1855,2160,2162,2203,2221,2244,2231,2264,2278,2275,2306,2335,2356,2404,2360,2346,2391,2436,2416,2391,2443,2505,2523,2527,2571,2570,2598,2571,1141,1154,1169,1199,1280,1454,1629,1761,1712,1845,1833,1769,1777,1695,1667,1694,1665,1637,1628,1582,1545,1517,1505,1479,1393,1410,1379,1351,1327,1281,1259,1179,1232,1185,1161,1164,1180,1177,1202,1198,1205,1215,1202,1233,1212,1215,1213,1219,1228,1218,1212,1211,1226,1231,1226,1241,1235,1237,1229,1223,1222,1222,1234,1230,1216,939,941,945,957,1025,1162,1330,1430,1497,1567,1541,1504,1492,1453,1428,1405,1394,1357,1332,1308,1283,1270,1235,1211,1197,1172,1137,1113,1089,1063,1040,1024,991,989,965,953,956,958,992,971,968,976,966,977,975,981,989,1049,983,1009,1021,1016,997,1031,1029,989,982,991,1013,1028,1013,1030,1028,1029,1012,1063,1068,1078,1091,1178,1353,1566,1714,1809,1847,1834,1825,1769,1737,1705,1672,1671,1598,1575,1543,1514,1479,1444,1414,1442,1349,1317,1287,1252,1220,1190,1155,1123,1096,1080,1072,1085,1083,1123,1096,1099,1103,1096,1107,1103,1101,1114,1188,1107,1118,1128,1129,1131,1139,1154,1141,1127,1129,1128,1138,1134,1131,1134,1145,1143,360,361,362,363,364,385,435,484,534,580,592,583,573,564,555,546,536,527,518,509,499,490,481,472,462,453,444,435,426,416,407,398,389,379,370,365,366,367,356,362,358,364,366,361,373,369,357,366,361,360,368,368,365,364,392,373,357,356,362,360,355,363,365,368,360,1140,1143,1157,1177,1292,1509,1759,1956,2038,2047,2054,1991,1954,2156,1879,1841,1804,1766,1706,1692,1654,1630,1579,1542,1504,1442,1429,1392,1355,1317,1280,1242,1178,1174,1159,1160,1178,1149,1204,1212,1206,1225,1251,1252,1264,1274,1234,1275,1277,1269,1295,1280,1276,1272,1262,1252,1272,1254,1242,1253,1262,1261,1257,1279,1246,530,508,513,511,528,572,637,712,787,833,852,826,813,826,829,772,784,746,732,719,717,692,689,686,652,652,625,615,607,588,571,567,545,539,536,514,516,517,506,511,511,513,511,509,518,516,519,518,513,518,514,519,518,522,525,532,519,519,523,527,531,531,525,524,524,419,426,428,429,437,455,535,580,641,700,697,699,672,674,666,641,618,631,620,608,586,589,563,552,541,527,516,511,500,485,474,466,465,443,438,438,439,440,427,430,429,437,493,470,452,479,456,498,469,470,467,439,446,467,453,440,477,450,439,467,458,488,465,463,453,944,926,926,927,1005,1103,1237,1373,1457,1489,1497,1461,1453,1439,1432,1366,1381,1333,1341,1272,1259,1239,1211,1197,1159,1166,1106,1092,1067,1054,1011,996,964,960,946,977,931,933,944,942,953,944,945,960,982,967,948,975,984,980,974,973,976,988,975,977,967,971,973,971,974,970,966,1003,994,772,774,786,777,831,974,1153,1326,1449,1463,1471,1425,1397,1369,1341,1312,1284,1256,1227,1199,1171,1157,1114,1086,1058,1029,1001,973,944,916,888,860,842,803,787,787,803,798,816,806,805,810,807,823,873,874,810,841,824,812,813,855,862,876,871,847,863,873,881,854,838,832,816,815,812,804,794,796,799,835,924,1060,1169,1256,1296,1315,1276,1265,1234,1213,1192,1172,1189,1130,1110,1089,1084,1048,1027,1006,986,965,944,937,903,896,862,841,833,807,803,813,808,825,833,828,912,864,854,843,833,848,867,853,854,861,850,828,828,839,862,853,837,856,864,844,829,858,831,830,651,653,655,657,674,769,908,972,1094,1139,1122,1098,1068,1083,1035,1018,1002,985,969,916,986,882,865,848,831,814,797,853,828,806,729,712,695,679,665,661,663,665,660,695,651,647,674,654,664,672,669,679,700,667,667,679,682,682,667,692,684,680,702,661,679,683,705,663,661,161,161,162,162,163,167,190,212,234,257,271,267,262,258,254,249,245,241,236,232,228,223,219,215,210,206,202,197,193,189,184,180,176,171,167,163,164,164,152,158,154,156,161,156,157,159,155,157,156,156,154,156,156,158,157,155,157,154,156,157,155,157,154,157,155,1086,1077,1106,1116,1188,1322,1504,1649,1714,1760,1753,1707,1698,1671,1632,1616,1622,1562,1518,1508,1480,1453,1420,1389,1341,1328,1308,1276,1249,1222,1195,1173,1141,1131,1105,1102,1106,1156,1165,1144,1164,1168,1158,1149,1226,1227,1160,1195,1179,1151,1151,1213,1222,1250,1219,1212,1208,1230,1234,1227,1189,1180,1152,1161,1174,661,662,665,667,685,783,887,953,1041,1120,1087,1070,1053,1034,1016,1001,983,966,949,931,913,897,879,862,845,827,810,792,775,757,740,722,705,688,675,671,673,675,675,674,674,680,682,686,678,690,678,679,685,678,677,683,683,689,689,691,680,687,689,691,686,698,687,700,690,830,848,857,861,899,1048,1286,1367,1470,1586,1507,1480,1453,1425,1398,1395,1404,1307,1343,1313,1283,1231,1225,1158,1161,1100,1073,1070,1040,1010,965,949,930,862,845,845,862,869,878,878,875,890,909,881,890,909,892,891,897,906,978,984,992,944,1021,969,924,914,892,892,905,885,901,892,886,671,627,638,631,665,720,804,899,985,1027,1043,1014,998,1008,1007,948,957,916,899,883,877,850,844,837,800,804,767,761,744,793,702,694,669,660,656,635,637,638,630,630,644,660,647,649,639,651,641,667,648,642,660,669,676,674,677,659,657,664,660,654,661,683,656,669,651,675,630,641,634,667,721,804,897,982,1025,1036,1013,996,1006,1007,948,956,915,899,883,878,850,845,838,802,806,769,759,746,730,704,697,672,663,659,638,640,641,639,640,641,656,645,642,641,651,640,642,646,639,640,647,642,644,645,651,646,652,651,651,646,656,644,652,647,859,846,852,850,917,1014,1136,1263,1343,1387,1396,1363,1341,1344,1338,1254,1278,1229,1189,1170,1157,1127,1130,1104,1073,1058,1034,990,996,965,932,919,903,890,878,848,853,856,867,871,871,886,892,890,898,893,869,890,881,869,881,888,885,878,909,898,873,871,882,874,866,878,885,886,870,486,487,489,490,494,536,608,679,750,816,808,795,782,769,756,744,744,717,718,691,678,665,652,640,627,614,601,588,575,563,549,536,523,510,498,493,495,496,491,486,490,492,502,508,501,514,506,511,511,506,501,492,494,503,500,495,502,499,493,499,495,507,500,508,501,1333,1352,1380,1430,1589,1879,2195,2225,2245,2333,2360,2216,2238,2198,2186,2133,2076,2001,1942,1977,1867,1849,1813,1746,1779,1694,1629,1590,1618,1533,1517,1433,1414,1386,1355,1380,1368,1376,1459,1468,1438,1456,1451,1499,1460,1488,1503,1563,1480,1512,1489,1503,1484,1533,1509,1478,1488,1470,1482,1514,1496,1521,1502,1514,1478,0,0,0,0,0,0,0,0,0,0,0,0,0,0,0,0,0,0,0,0,0,0,0,0,0,0,0,0,0,0,0,0,0,0,0,0,0,0,0,0,0,0,0,0,0,0,0,0,0,0,0,0,0,0,0,0,0,0,0,0,0,0,0,0,0,822,824,827,830,869,961,1087,1212,1333,1338,1337,1316,1295,1274,1253,1232,1211,1189,1168,1147,1126,1105,1084,1062,1041,1068,1046,978,957,936,914,919,872,851,874,875,836,839,851,856,855,875,869,874,863,883,858,863,867,860,875,900,892,882,874,878,877,889,900,881,870,886,867,877,870,655,633,644,645,663,736,822,922,1005,1038,1063,1034,1018,1026,1026,958,978,933,917,901,894,867,861,854,816,809,784,766,759,733,716,708,683,674,662,649,667,652,651,648,668,666,661,683,668,686,683,676,708,679,678,682,679,694,671,668,677,683,676,668,675,682,662,684,684,1051,1047,1087,1148,1168,1343,1542,1706,1801,1853,1825,1793,1747,1715,1709,1663,1631,1589,1566,1534,1539,1457,1436,1404,1518,1339,1307,1274,1232,1209,1208,1144,1112,1085,1060,1089,1074,1072,1099,1081,1083,1089,1185,1162,1126,1130,1120,1176,1177,1150,1170,1133,1149,1158,1205,1133,1170,1160,1165,1182,1152,1188,1199,1242,1166,535,536,538,540,546,596,675,754,833,879,885,871,857,843,829,846,800,786,772,758,744,730,715,701,687,673,659,645,631,617,602,588,574,560,547,543,544,546,538,538,540,546,553,542,547,544,544,548,556,556,616,607,615,562,550,547,554,554,549,545,560,549,547,549,549,818,813,823,826,877,1008,1175,1322,1528,1572,1463,1436,1410,1383,1356,1330,1303,1266,1273,1223,1196,1170,1187,1139,1090,1063,1036,1010,1004,956,929,972,905,879,834,825,837,834,851,866,864,867,877,893,877,883,866,875,870,864,869,879,886,894,885,897,877,885,894,878,870,866,879,885,863,515,495,496,498,502,545,617,689,761,808,815,802,789,820,810,750,758,724,711,698,685,672,659,647,634,621,608,595,582,569,556,543,530,517,536,501,502,503,498,490,491,496,521,519,524,523,511,531,517,506,518,499,501,515,509,503,518,501,495,513,514,526,518,521,513,591,612,603,605,609,712,802,846,972,972,991,962,1000,931,966,906,891,868,853,837,820,840,796,806,764,759,743,717,701,686,665,654,668,618,604,600,602,604,618,593,600,608,595,616,609,618,615,608,631,605,606,607,602,618,609,613,606,608,606,605,610,610,608,636,615,1209,1192,1125,1262,1253,1441,1823,1811,1904,1998,2085,1891,1886,1852,1952,1903,1721,1677,1653,1619,1588,1576,1517,1483,1522,1415,1382,1348,1335,1280,1248,1212,1178,1244,1155,1244,1140,1139,1216,1210,1226,1259,1241,1249,1239,1230,1239,1252,1249,1233,1243,1273,1297,1283,1266,1253,1231,1253,1236,1233,1229,1262,1249,1272,1233,1118,1099,1123,1138,1269,1428,1746,1893,2014,2007,1988,1940,1934,1896,1859,1766,1730,1728,1690,1650,1624,1596,1580,1504,1504,1466,1363,1398,1337,1300,1217,1206,1169,1138,1122,1108,1105,1111,1160,1158,1167,1181,1202,1207,1166,1204,1161,1172,1180,1185,1182,1197,1210,1221,1219,1219,1177,1199,1207,1203,1214,1207,1208,1234,1211,605,601,609,611,622,680,769,859,943,989,994,979,963,947,931,916,900,884,868,853,837,821,805,789,774,758,742,726,711,695,679,663,648,632,612,614,610,617,614,614,610,625,623,615,622,634,624,625,633,638,714,712,718,664,633,624,630,632,621,626,632,621,623,624,621,939,941,945,957,1025,1162,1330,1430,1497,1567,1541,1504,1492,1453,1428,1405,1394,1357,1332,1308,1283,1270,1235,1211,1197,1172,1137,1113,1089,1063,1040,1024,991,989,965,953,956,958,992,971,968,976,966,977,975,981,989,1049,983,1009,1021,1016,997,1031,1029,989,982,991,1013,1028,1013,1030,1028,1029,1012,1386,1385,1440,1467,1604,1808,2074,2207,2197,2271,2256,2194,2108,2108,2072,2056,1992,2044,1981,1909,1852,1843,1793,1747,1731,1652,1680,1882,1589,1576,1558,1431,1433,1433,1370,1387,1403,1409,1486,1464,1480,1540,1499,1514,1498,1482,1489,1504,1503,1487,1490,1524,1581,1601,1522,1501,1490,1502,1487,1483,1480,1513,1491,1520,1479,1764,1775,1868,1986,2218,2396,2590,2822,2760,2901,2739,2719,2685,2643,2579,2624,2477,2443,2496,2433,2320,2336,2241,2201,2195,2166,2023,2083,1988,1941,1910,1843,1804,1763,1787,1796,1816,1796,2007,2024,2061,2075,2069,2081,2104,2121,2109,2125,2149,2146,2183,2163,2167,2191,2226,2237,2214,2244,2270,2262,2267,2291,2291,2302,2323,621,625,627,626,641,701,793,884,970,1011,1016,1004,984,972,956,936,920,908,891,875,859,843,824,811,795,776,760,747,728,714,698,680,666,650,636,632,632,636,614,602,607,614,632,600,605,607,610,629,633,629,624,751,630,616,748,633,625,632,637,634,632,628,646,645,652,1736,1753,1837,2042,2484,2761,2959,3025,3098,3085,3050,3041,2925,2892,2842,2764,2727,2667,2606,2576,2545,2461,2411,2354,2302,2274,2207,2143,2087,2027,1942,1867,1887,2036,1821,1883,1901,1883,2277,2255,2255,2284,2264,2278,2305,2330,2297,2417,2285,2269,2283,2328,2377,2320,2329,2344,2347,2349,2313,2316,2329,2299,2275,2272,2259,797,794,806,802,822,953,1079,1254,1255,1336,1300,1305,1256,1242,1221,1207,1179,1179,1144,1114,1114,1124,1057,1031,1015,1037,1010,976,955,924,892,866,850,830,816,822,809,802,812,804,817,836,832,830,818,816,829,851,824,831,859,874,906,886,871,840,825,833,831,829,824,838,823,855,816,654,656,648,650,667,733,831,928,1016,1059,1064,1047,1044,1013,1010,979,975,958,928,910,893,876,873,842,825,808,791,774,768,751,723,706,689,672,658,654,656,658,660,672,659,662,672,676,678,689,668,684,679,683,674,667,664,672,672,676,668,669,662,664,657,669,667,667,651,926,867,937,859,905,1056,1196,1304,1349,1453,1418,1473,1344,1311,1342,1277,1290,1284,1211,1186,1217,1142,1120,1100,1078,1054,1081,1052,1034,1009,946,921,901,878,865,964,859,893,875,881,892,916,901,901,892,915,888,920,907,917,948,939,967,962,909,906,922,919,916,906,922,937,906,912,904,1472,1483,1559,1706,1879,2156,2370,2448,2533,2529,2504,2472,2396,2372,2331,2261,2248,2182,2154,2109,2092,2011,1970,1921,1882,1859,1800,1745,1697,1646,1609,1557,1514,1537,1530,1508,1525,1505,1644,1609,1617,1656,1620,1647,1623,1672,1657,1649,1656,1643,1677,1663,1696,1673,1647,1640,1671,1655,1644,1635,1657,1657,1643,1651,1639,334,335,336,337,338,357,405,452,499,543,556,548,539,530,521,512,503,495,486,477,468,459,450,441,433,424,415,406,397,388,380,371,362,353,344,339,340,341,331,328,334,341,338,331,335,339,338,332,342,338,332,333,341,343,370,350,340,343,356,334,332,335,338,333,332,1148,1158,1163,1221,1292,1481,1657,1844,1797,1866,1863,1831,1780,1759,1730,1737,1680,1689,1667,1594,1564,1535,1525,1446,1492,1418,1384,1357,1325,1330,1286,1268,1209,1187,1190,1172,1165,1171,1241,1241,1233,1259,1289,1282,1262,1259,1276,1307,1279,1317,1315,1309,1256,1260,1285,1295,1296,1273,1315,1360,1309,1302,1319,1288,1288,865,865,873,861,927,1030,1168,1264,1375,1408,1382,1426,1337,1343,1320,1271,1279,1238,1237,1208,1217,1169,1148,1124,1105,1076,1099,1033,1011,988,965,934,898,893,904,876,881,864,882,885,882,894,884,890,890,900,900,884,898,889,897,890,892,897,894,898,892,900,890,898,893,909,894,900,891,489,490,492,501,496,531,595,659,723,771,780,768,757,745,733,722,710,698,687,675,674,652,640,628,617,605,593,582,570,558,547,535,523,512,500,552,497,498,491,486,488,491,527,493,495,494,496,496,511,524,514,503,507,506,536,509,506,508,533,517,518,519,524,516,513,1132,1105,1137,1174,1303,1458,1614,1764,1756,1882,1834,1814,1725,1702,1674,1665,1660,1667,1609,1574,1555,1510,1448,1409,1416,1374,1364,1409,1335,1280,1259,1211,1218,1152,1155,1167,1119,1125,1190,1182,1174,1185,1188,1210,1190,1198,1205,1341,1193,1187,1193,1196,1208,1168,1189,1203,1189,1210,1172,1177,1200,1197,1179,1189,1174,1553,1566,1660,1780,1969,2205,2505,2489,2587,2585,2561,2530,2518,2433,2449,2346,2362,2247,2220,2167,2160,2082,2039,1989,1980,1952,1895,1838,1767,1724,1689,1632,1596,1617,1620,1595,1612,1581,1718,1704,1709,1709,1840,1746,1747,1757,1738,1749,1828,1836,1757,1762,1763,1790,1915,1788,1766,1767,1799,1786,1774,1764,1796,1825,1801,696,655,660,662,679,798,900,985,1033,1140,1113,1121,1045,1020,1007,994,1012,1013,942,921,961,890,869,856,853,821,852,815,815,797,732,718,701,683,670,706,662,664,678,674,678,686,691,687,699,678,682,689,685,676,686,685,682,682,713,699,679,680,676,682,682,691,693,687,682,779,736,741,744,772,906,1023,1122,1169,1274,1245,1279,1173,1145,1130,1115,1130,1130,1056,1033,1071,998,975,960,954,921,949,910,916,887,821,804,785,766,752,789,745,747,766,763,771,764,781,785,801,779,768,784,792,786,792,782,785,806,786,785,779,783,775,789,778,783,776,792,797,1017,1007,1024,1012,1071,1266,1435,1536,1582,1673,1649,1649,1554,1542,1503,1499,1492,1486,1407,1375,1396,1330,1293,1279,1248,1226,1242,1194,1193,1168,1096,1084,1039,1026,1023,1050,1018,1019,1037,1043,1039,1047,1053,1045,1046,1061,1035,1050,1040,1040,1047,1062,1058,1053,1062,1052,1045,1046,1059,1060,1038,1046,1050,1057,1044,772,774,777,780,812,844,957,1070,1160,1216,1201,1197,1162,1207,1186,1105,1085,1080,1095,1046,1078,1007,970,951,932,924,909,923,902,835,816,841,778,769,745,741,743,745,739,745,752,766,785,782,763,790,755,808,776,789,777,767,785,806,784,772,794,777,776,790,784,801,774,779,769,1587,1674,1659,1835,2393,2873,3043,3118,3160,3179,3120,3072,2977,2899,2936,2836,2820,2730,2662,2521,2525,2476,2431,2291,2267,2182,2050,1979,1912,2028,1792,1717,1742,1712,1787,1722,1729,1833,2007,2015,1994,2006,2003,2019,2007,2037,2037,2110,2026,2061,2055,2056,2032,2095,2067,2039,2032,2017,2034,2069,2038,2073,2057,2061,2033,903,912,918,954,984,1099,1239,1365,1453,1486,1484,1458,1438,1419,1431,1361,1346,1317,1334,1277,1258,1235,1209,1189,1166,1124,1130,1089,1071,1039,1012,989,982,948,981,929,955,934,974,967,966,965,970,975,976,974,980,971,977,973,983,976,983,980,980,989,973,983,981,981,978,994,980,984,976,0,0,0,0,0,0,0,0,0,0,0,0,0,0,0,0,0,0,0,0,0,0,0,0,0,0,0,0,0,0,0,0,0,0,0,0,0,0,0,0,0,0,0,0,0,0,0,0,0,0,0,0,0,0,0,0,0,0,0,0,0,0,0,0,0,931,928,937,995,1006,1119,1311,1456,1453,1546,1516,1493,1442,1515,1418,1408,1370,1384,1335,1300,1276,1280,1225,1202,1245,1198,1165,1238,1100,1086,1094,1007,984,1035,948,964,941,954,983,989,984,997,1000,994,992,1008,983,993,990,991,990,1003,1000,999,996,996,997,992,1006,1014,988,1000,988,994,989,1784,1782,1894,2076,2267,2542,2734,2813,2941,2932,2863,2866,2785,2719,2662,2600,2595,2513,2514,2423,2411,2326,2393,2228,2243,2158,2084,2066,1987,1921,1953,1832,1797,1849,1819,1810,1796,1776,2108,2121,2094,2110,2108,2142,2118,2144,2162,2233,2138,2176,2155,2167,2148,2205,2176,2142,2154,2137,2148,2197,2161,2191,2178,2183,2148,1167,1173,1178,1221,1325,1489,1685,1876,1889,1912,1980,1875,1898,1813,1777,1804,1716,1689,1658,1627,1596,1565,1531,1503,1571,1438,1407,1378,1345,1367,1285,1252,1224,1203,1243,1188,1190,1245,1230,1235,1246,1262,1274,1253,1251,1281,1245,1258,1251,1243,1243,1259,1269,1283,1442,1378,1279,1266,1264,1251,1245,1243,1264,1268,1248,1519,1532,1626,1740,1927,2160,2431,2445,2544,2542,2519,2488,2413,2391,2352,2372,2286,2207,2181,2128,2122,2042,2027,1989,1993,1918,1848,1817,1732,1709,1654,1597,1562,1583,1575,1589,1587,1547,1681,1674,1697,1736,1694,1732,1697,1721,1698,1718,1751,1708,1695,1709,1713,1736,1724,1734,1720,1716,1729,1724,1709,1694,1753,1740,1686,751,742,750,746,782,857,1006,1084,1170,1249,1224,1196,1173,1164,1144,1118,1105,1111,1066,1041,1022,1032,989,961,950,946,948,912,892,872,833,813,794,770,761,752,753,755,776,751,743,755,804,850,771,764,777,784,791,771,776,778,778,776,768,786,804,787,794,824,784,792,822,770,772,1092,1106,1120,1147,1259,1372,1552,1763,1763,1789,1828,1786,1816,1700,1671,1782,1611,1588,1557,1570,1500,1504,1445,1407,1391,1361,1325,1300,1277,1242,1214,1175,1182,1175,1163,1119,1120,1221,1164,1204,1156,1166,1184,1166,1176,1192,1181,1181,1212,1179,1183,1193,1195,1199,1183,1207,1207,1197,1220,1166,1196,1204,1225,1184,1183,1676,1692,1768,1962,2422,2646,2881,3074,2998,2988,2958,2920,2839,2809,2790,2761,2645,2598,2597,2504,2491,2405,2553,2304,2259,2231,2149,2074,2007,2000,1881,1836,1833,1831,1755,1814,1849,1879,2081,2095,2125,2144,2136,2144,2160,2190,2185,2202,2222,2206,2240,2225,2221,2237,2280,2287,2271,2278,2315,2300,2309,2328,2313,2335,2340,1785,1807,1900,2169,2417,2720,2919,3012,3058,3045,3122,2933,2884,2877,2769,2744,2689,2694,2592,2507,2512,2424,2416,2287,2268,2209,2216,2195,2024,1991,1946,1906,1882,1954,1870,1846,1857,1864,2214,2220,2223,2198,2256,2269,2238,2283,2257,2274,2301,2290,2302,2318,2318,2339,2316,2278,2300,2309,2303,2337,2305,2307,2326,2383,2307,652,654,667,658,674,701,794,886,972,1015,1019,1003,987,1019,1018,938,922,906,938,892,914,859,825,809,793,777,777,796,765,712,696,714,664,648,634,662,632,633,623,610,615,623,640,608,613,615,617,638,641,637,631,758,637,622,755,640,632,640,642,639,639,633,652,649,655,1386,1385,1440,1467,1604,1808,2074,2207,2197,2271,2256,2194,2108,2108,2072,2056,1992,2044,1981,1909,1852,1843,1793,1747,1731,1652,1680,1882,1589,1576,1558,1431,1433,1433,1370,1387,1403,1409,1486,1464,1480,1540,1499,1514,1498,1482,1489,1504,1503,1487,1490,1524,1581,1601,1522,1501,1490,1502,1487,1483,1480,1513,1491,1520,1479,444,446,447,449,451,488,552,617,681,729,736,752,713,701,689,678,666,654,643,631,704,607,596,584,572,561,549,537,525,514,502,490,479,467,455,468,452,454,435,438,445,470,439,446,435,444,439,434,441,439,433,440,440,444,441,449,444,446,445,448,444,457,439,448,445,895,898,900,907,939,1043,1180,1311,1411,1462,1457,1460,1411,1388,1365,1342,1319,1296,1273,1250,1249,1204,1181,1157,1134,1111,1088,1065,1042,1019,1064,973,950,928,911,926,911,954,938,931,960,951,961,999,954,965,965,985,1011,985,984,996,992,988,961,966,959,982,959,965,971,980,957,971,999,572,659,574,577,678,639,722,807,886,928,937,922,907,887,878,863,864,833,889,804,789,865,867,853,836,715,785,686,757,656,642,692,612,608,584,631,582,583,591,591,594,601,637,628,618,641,619,645,631,630,619,602,607,628,614,602,631,610,603,617,615,636,615,619,611,1324,1298,1306,1402,1538,1706,1909,2026,2113,2153,2139,2132,2083,2042,2010,1978,1939,1907,1882,1854,1886,1786,1744,1761,1719,1690,1647,1593,1525,1521,1440,1425,1408,1356,1320,1323,1352,1375,1421,1426,1432,1467,1452,1442,1459,1481,1443,1459,1456,1460,1455,1447,1451,1458,1455,1449,1445,1444,1456,1457,1438,1460,1443,1442,1433,246,247,245,249,249,261,296,331,366,395,413,407,400,389,387,380,374,367,375,354,361,340,334,327,321,310,307,313,290,287,281,286,268,261,254,250,251,252,239,245,241,249,249,253,246,261,242,254,253,278,245,250,254,258,251,253,255,264,257,253,250,256,245,248,245,407,433,410,435,413,445,504,600,623,706,718,668,657,683,672,660,654,603,626,581,570,559,580,537,557,516,610,494,508,500,461,450,440,457,418,414,439,416,418,420,418,427,493,461,457,477,440,501,462,493,463,432,440,461,446,435,478,455,434,462,452,490,467,458,445,456,404,405,406,408,438,495,553,710,658,667,656,646,666,625,614,604,593,582,572,561,551,610,529,519,533,521,487,476,466,455,445,434,424,413,409,410,411,399,399,397,408,399,401,399,404,399,402,401,400,404,402,407,406,403,406,408,404,408,406,403,408,408,409,409,955,958,960,973,1082,1263,1482,1672,1750,1755,1777,1708,1675,1642,1609,1591,1543,1510,1477,1444,1411,1378,1345,1312,1279,1258,1225,1192,1146,1125,1092,1047,1037,985,974,975,981,999,993,985,983,984,1028,1019,1000,1007,1014,1024,1036,1055,1054,1034,1058,1035,1111,1032,1038,1068,1065,1070,1049,1051,1083,1076,1052,788,862,759,794,880,940,1047,1169,1279,1331,1288,1256,1250,1265,1199,1164,1178,1147,1158,1106,1052,1064,1044,1069,991,984,961,912,951,895,894,861,854,834,818,786,777,777,805,812,805,817,817,820,815,831,809,815,816,810,809,821,822,822,820,817,822,814,828,829,813,825,809,820,817,377,371,381,382,386,401,464,503,553,586,626,616,583,578,551,555,548,540,543,524,515,517,475,498,500,470,443,448,439,438,420,403,411,399,389,385,379,385,388,386,383,387,379,380,424,435,381,410,456,420,377,448,488,498,488,422,430,450,463,423,403,400,393,376,369,508,510,519,513,518,575,651,728,804,850,847,834,825,802,793,768,762,752,728,732,718,694,702,695,657,650,627,622,609,590,581,568,554,540,528,516,520,526,518,519,524,536,536,527,530,531,526,533,531,532,532,552,559,553,546,531,534,538,539,533,529,544,529,541,529,1273,1265,1311,1381,1418,1595,1783,1998,2050,2022,2020,1988,1937,1908,1882,1834,1836,1845,1842,1777,1689,1702,1669,1593,1610,1579,1559,1477,1449,1421,1390,1449,1347,1317,1286,1335,1288,1324,1380,1392,1383,1445,1432,1428,1417,1414,1421,1452,1428,1441,1437,1442,1407,1420,1407,1430,1436,1406,1427,1445,1421,1412,1426,1403,1401,327,328,329,330,331,351,398,444,490,533,544,535,527,518,510,501,492,484,475,466,458,449,440,432,423,414,406,397,388,380,371,362,354,345,374,332,333,334,324,326,326,330,376,355,345,348,339,379,345,339,355,349,337,351,342,333,363,335,334,357,349,376,355,347,343,1036,1016,1042,1060,1190,1388,1589,1704,1783,1808,1820,1836,1731,1699,1731,1635,1661,1626,1591,1508,1521,1451,1470,1382,1348,1317,1286,1254,1222,1188,1182,1136,1126,1071,1033,1062,1060,1086,1103,1105,1059,1057,1097,1081,1088,1093,1092,1104,1147,1097,1105,1119,1121,1121,1097,1127,1133,1137,1172,1133,1115,1118,1172,1103,1108,364,366,367,368,369,394,446,496,548,593,603,593,584,574,564,555,560,536,526,530,520,500,491,481,471,462,449,442,433,423,414,404,394,384,375,370,379,378,366,369,369,370,392,383,384,410,380,400,383,385,383,380,377,393,395,381,389,374,370,386,381,396,379,385,379,277,278,279,280,280,294,331,368,480,523,534,526,518,509,501,493,484,476,468,459,451,377,370,363,356,349,401,335,328,321,315,307,300,293,285,281,290,357,274,274,284,293,278,281,276,281,276,281,279,277,276,278,279,279,279,280,280,279,280,280,278,281,274,278,277,302,303,304,305,306,322,364,396,447,487,499,492,484,476,468,460,452,445,437,429,421,395,396,380,372,381,374,361,358,350,340,333,327,319,311,307,308,308,296,295,299,310,301,301,301,309,301,300,301,299,308,310,317,311,308,305,299,315,305,296,302,317,307,311,302,946,948,956,962,1022,1193,1352,1472,1684,1586,1634,1633,1491,1476,1490,1443,1389,1403,1473,1399,1341,1392,1401,1297,1315,1262,1212,1163,1134,1072,1048,1051,1014,1010,1026,1012,959,965,1007,1005,1004,1028,1016,1013,1020,1027,1028,1023,1027,1035,1101,1101,1116,1052,1023,1036,1031,1051,1034,1023,1044,1009,1023,1020,1009,1314,1346,1389,1398,1518,1683,1883,2003,2123,2194,2140,2131,2107,2072,2050,2003,1947,1901,1878,1907,1795,1747,1734,1673,1639,1692,1572,1538,1525,1494,1482,1409,1417,1395,1397,1351,1360,1401,1424,1428,1438,1532,1474,1465,1442,1468,1445,1457,1464,1447,1453,1461,1452,1482,1613,1543,1464,1460,1463,1455,1444,1436,1467,1480,1438,626,614,638,612,646,703,816,889,998,1040,1042,1004,1009,981,976,948,932,906,879,900,864,831,815,827,810,794,751,760,728,705,701,694,677,647,633,636,645,633,647,634,637,638,644,642,648,649,648,647,646,644,652,652,654,649,648,659,647,657,652,646,654,652,646,645,639,1035,1032,1026,1065,1080,1204,1386,1568,1647,1670,1609,1584,1610,1528,1548,1477,1471,1481,1453,1429,1512,1329,1347,1278,1301,1227,1244,1176,1146,1161,1138,1115,1048,1058,1013,1043,1027,1055,1058,1060,1081,1104,1121,1119,1128,1084,1080,1116,1074,1062,1073,1080,1075,1067,1098,1088,1063,1063,1072,1063,1060,1069,1078,1098,1060,0,0,0,0,0,0,0,0,0,0,0,0,0,0,0,0,0,0,0,0,0,0,0,0,0,0,0,0,0,0,0,0,0,0,0,0,0,0,0,0,0,0,0,0,0,0,0,0,0,0,0,0,0,0,0,0,0,0,0,0,0,0,0,0,0,1030,1066,1090,1121,1100,1250,1417,1545,1639,1672,1663,1663,1610,1584,1570,1530,1562,1477,1470,1424,1431,1390,1355,1329,1302,1338,1248,1221,1185,1168,1132,1120,1078,1056,1039,1063,1049,1083,1067,1047,1050,1054,1084,1095,1075,1066,1070,1076,1116,1099,1100,1093,1103,1097,1144,1092,1093,1119,1119,1114,1096,1093,1130,1164,1112,651,653,655,657,677,751,950,961,1051,1092,1093,1075,1057,1039,1021,1003,985,967,949,931,913,895,877,859,841,823,805,787,769,751,733,715,697,679,665,662,664,666,647,645,661,741,670,647,667,695,675,662,671,668,670,666,676,672,676,666,670,668,679,686,671,683,675,679,686,1002,1005,1007,1024,1122,1341,1552,1645,1739,1765,1777,1745,1714,1657,1626,1594,1563,1531,1523,1469,1483,1406,1433,1386,1345,1280,1270,1217,1186,1147,1123,1111,1083,1099,1038,1020,1026,1053,1054,1055,1050,1092,1039,1099,1059,1087,1076,1080,1098,1068,1082,1065,1081,1099,1105,1075,1078,1091,1084,1081,1080,1082,1084,1118,1095,325,326,324,328,329,352,398,440,491,523,547,530,574,514,505,496,488,484,478,462,460,445,437,428,419,401,407,398,382,377,374,365,351,343,338,333,330,331,325,325,318,320,333,338,330,342,341,351,341,350,340,345,338,345,338,335,354,340,340,362,342,350,347,353,339,440,440,442,444,446,483,551,618,671,716,723,720,708,691,685,673,663,648,643,626,615,604,589,582,571,560,563,538,527,509,505,494,474,462,451,445,475,460,445,447,448,452,447,453,450,449,456,450,452,447,452,452,447,450,454,453,450,449,452,454,453,463,460,467,460,1096,1105,1156,1137,1221,1346,1524,1651,1743,1819,1808,1805,1864,1721,1815,1663,1615,1606,1558,1548,1516,1473,1437,1409,1380,1414,1323,1295,1288,1238,1230,1187,1250,1150,1212,1129,1115,1179,1172,1177,1180,1211,1168,1212,1182,1211,1196,1212,1222,1198,1211,1204,1216,1225,1213,1214,1206,1214,1226,1210,1218,1220,1210,1248,1246,1263,1291,1321,1361,1502,1798,1991,2106,2191,2277,2262,2206,2156,2106,2081,2023,2007,1973,1933,1918,1825,1807,1765,1693,1682,1640,1570,1555,1514,1491,1431,1389,1372,1320,1311,1312,1320,1301,1367,1357,1366,1376,1359,1386,1372,1381,1379,1378,1406,1383,1383,1384,1384,1406,1404,1397,1383,1396,1391,1394,1398,1399,1394,1432,1406,914,1033,940,979,1094,1122,1245,1382,1465,1496,1495,1471,1448,1441,1422,1376,1381,1329,1373,1281,1250,1322,1314,1292,1266,1139,1239,1091,1161,1043,1020,1087,972,976,937,1000,962,953,951,992,952,950,973,954,968,976,971,970,996,967,973,980,980,986,983,994,992,988,1001,970,993,1000,1021,984,986,444,446,447,449,451,488,552,617,681,729,736,752,713,701,689,678,666,654,643,631,704,607,596,584,572,561,549,537,525,514,502,490,479,467,455,468,452,454,435,438,445,470,439,446,435,444,439,434,441,439,433,440,440,444,441,449,444,446,445,448,444,457,439,448,445,958,961,964,976,1019,1135,1286,1423,1526,1569,1563,1538,1529,1488,1463,1439,1414,1389,1378,1339,1314,1289,1264,1239,1214,1189,1164,1139,1114,1101,1064,1039,1015,992,976,972,975,978,981,985,992,1022,998,1011,999,999,994,992,1006,989,1001,1008,1007,1005,1006,1015,996,993,1004,1000,990,1004,993,1008,992,363,365,366,367,368,391,440,490,540,585,596,587,577,568,559,550,540,531,522,512,503,494,485,475,466,457,448,438,429,420,410,401,392,383,373,369,370,371,354,360,355,369,355,364,357,365,362,364,363,362,366,362,369,370,368,368,370,368,371,365,371,374,373,377,377,1115,1177,1120,1149,1306,1509,1667,1997,2035,1935,1919,1984,1852,1974,1798,1752,1718,1732,1651,1739,1629,1674,1517,1483,1450,1533,1383,1359,1360,1320,1249,1221,1183,1151,1133,1135,1142,1150,1188,1177,1192,1223,1211,1205,1206,1225,1213,1226,1239,1234,1383,1417,1520,1300,1228,1211,1218,1226,1218,1200,1204,1223,1211,1235,1218,399,400,401,402,403,422,464,507,549,587,599,591,583,575,567,559,551,543,535,527,519,511,504,496,488,480,472,464,456,448,440,432,424,416,408,404,405,406,391,384,393,404,402,400,388,391,400,411,401,402,404,449,475,453,444,409,395,412,401,397,389,406,401,424,395,1235,1237,1248,1293,1442,1646,1814,1952,2035,2057,2008,1998,2005,1917,1978,1849,1860,1864,1827,1780,1739,1702,1645,1629,1584,1559,1521,1466,1446,1410,1408,1342,1304,1271,1254,1255,1271,1271,1355,1359,1351,1379,1405,1403,1382,1383,1391,1426,1389,1420,1424,1414,1379,1395,1390,1407,1414,1382,1420,1458,1418,1420,1424,1398,1395,1183,1196,1183,1224,1354,1571,1795,1943,2033,2044,2030,2021,1965,1938,1913,1859,1834,1777,1746,1694,1668,1650,1604,1571,1547,1499,1467,1446,1391,1359,1324,1292,1259,1215,1204,1203,1215,1223,1280,1266,1311,1566,1319,1253,1307,1399,1335,1287,1374,1342,1298,1297,1376,1353,1350,1267,1285,1288,1330,1338,1268,1322,1288,1294,1300,1300,1303,1340,1372,1499,1751,2089,2222,2281,2309,2304,2277,2201,2226,2137,2146,2034,2014,1950,1941,1867,1825,1786,1741,1729,1658,1642,1577,1575,1509,1449,1407,1437,1383,1319,1320,1355,1337,1427,1398,1432,1458,1434,1437,1463,1420,1425,1437,1457,1428,1453,1451,1449,1440,1451,1448,1421,1434,1421,1422,1411,1433,1427,1461,1407,331,332,333,334,335,311,352,393,434,474,553,544,535,526,517,509,500,491,482,473,464,456,447,438,429,420,412,403,394,385,376,367,359,350,341,336,337,338,333,320,326,324,326,334,324,331,327,330,337,334,331,332,333,341,337,334,330,332,332,337,338,338,335,346,340,1583,1589,1597,1710,1937,2247,2383,2571,2607,2607,2580,2602,2492,2544,2416,2359,2332,2317,2267,2215,2134,2214,2050,2006,1962,1967,1926,1839,1827,1773,1696,1659,1682,1589,1573,1575,1584,1601,1754,1720,1732,1758,1732,1769,1744,1772,1776,1794,1784,1769,1802,1803,1820,1815,1796,1776,1786,1787,1788,1774,1787,1796,1774,1807,1786,850,853,855,861,904,1004,1137,1291,1375,1412,1386,1385,1341,1319,1320,1275,1253,1231,1209,1187,1165,1254,1140,1132,1077,1055,1033,1011,1019,984,945,937,901,880,866,863,865,883,878,889,878,883,902,913,906,912,890,906,899,907,893,893,890,901,896,899,896,893,891,892,888,901,893,891,874,917,924,926,930,1013,1168,1355,1509,1602,1630,1620,1612,1562,1533,1524,1475,1446,1417,1388,1359,1330,1307,1272,1243,1214,1195,1162,1137,1103,1069,1040,1021,987,950,938,938,941,953,975,953,955,962,966,965,1022,1015,973,1007,988,968,978,1012,1021,1028,1020,1031,1022,1049,1021,1006,1005,990,976,974,965,1640,1656,1708,1938,2349,2687,2834,3109,3207,3084,2993,3045,2912,3013,2858,2745,2710,2705,2600,2621,2578,2460,2395,2315,2308,2201,2112,2062,1973,1993,1833,1766,1713,1687,1678,1690,1710,1779,1968,1950,1956,2014,1993,1962,2044,2060,1973,2033,2049,1991,1993,2035,2033,2062,2049,2056,2031,2052,2050,2032,2002,1996,1979,1975,1956,933,994,947,950,1007,1122,1271,1434,1524,1559,1519,1528,1470,1446,1470,1398,1399,1384,1360,1336,1329,1355,1253,1237,1205,1164,1166,1107,1184,1078,1034,1024,985,1043,975,955,950,993,968,966,983,986,985,1023,980,994,999,996,1022,996,1000,1005,1000,1006,992,996,990,1006,988,999,1000,1013,1001,1009,1015,383,384,385,386,387,367,413,459,505,548,626,616,607,597,587,577,568,558,548,539,529,519,509,500,490,480,471,461,451,442,432,422,412,403,393,388,389,390,379,372,381,393,391,387,378,378,387,399,389,389,392,435,461,437,430,397,381,401,386,384,378,392,388,407,380,1361,1357,1384,1441,1620,1798,1999,2229,2221,2247,2201,2183,2123,2090,2153,2022,2015,1988,1990,1981,1891,1851,1800,1814,1730,1673,1662,1600,1575,1536,1593,1476,1426,1391,1374,1376,1400,1393,1464,1467,1484,1506,1483,1522,1493,1503,1482,1491,1509,1482,1483,1495,1499,1525,1514,1516,1491,1506,1511,1501,1493,1481,1495,1528,1487,1285,1360,1375,1359,1541,1731,1997,2082,2076,2241,2061,2182,1988,2089,2024,1894,1951,1866,1917,1863,1847,1852,1767,1707,1682,1570,1609,1599,1578,1471,1503,1387,1337,1397,1377,1328,1310,1377,1434,1425,1419,1428,1434,1436,1513,1516,1434,1470,1458,1449,1441,1488,1495,1517,1502,1505,1498,1510,1510,1486,1464,1468,1440,1438,1428,1221,1226,1240,1293,1363,1566,1721,1862,2002,1980,2042,1936,1923,1874,1855,1858,1780,1749,1789,1724,1679,1664,1601,1561,1530,1498,1468,1436,1404,1392,1371,1311,1281,1257,1277,1253,1256,1246,1284,1330,1285,1297,1306,1296,1304,1319,1311,1314,1335,1304,1313,1318,1321,1326,1321,1338,1337,1329,1344,1305,1337,1346,1361,1325,1321,1405,1416,1430,1553,1692,1937,2189,2300,2391,2390,2368,2430,2352,2262,2217,2177,2123,2086,2087,2026,1967,1967,1876,1905,1812,1764,1714,1694,1635,1625,1581,1542,1499,1450,1427,1455,1454,1475,1520,1498,1509,1525,1516,1534,1526,1525,1528,1542,1567,1542,1554,1537,1543,1572,1558,1550,1554,1566,1557,1582,1578,1570,1588,1601,1604,425,426,428,429,431,463,524,671,645,693,703,692,681,669,658,647,636,625,614,603,592,580,569,558,547,536,525,514,503,491,480,469,458,447,436,431,433,434,429,425,434,446,448,455,444,426,441,454,450,445,461,464,484,465,461,446,430,444,434,438,435,441,441,450,427,992,980,982,1011,1088,1246,1467,1605,1696,1745,1719,1716,1672,1611,1623,1580,1549,1494,1494,1457,1408,1377,1353,1309,1303,1283,1242,1221,1161,1140,1119,1099,1049,1012,1008,1009,1022,1012,1042,1043,1039,1047,1068,1059,1044,1049,1050,1083,1103,1089,1143,1084,1103,1075,1116,1077,1074,1114,1221,1158,1137,1133,1177,1159,1104,1580,1649,1676,1788,2051,2269,2425,2732,2756,2647,2652,2670,2531,2692,2505,2427,2382,2458,2263,2365,2217,2249,2085,2040,1995,2160,1906,1965,1951,1845,1808,1730,1823,1620,1604,1644,1615,1650,1815,1823,1774,1785,1816,1809,1813,1826,1822,1831,1879,1827,1841,1853,1855,1859,1834,1864,1878,1878,1912,1865,1858,1868,1920,1854,1859,1090,1170,1097,1126,1223,1351,1529,1690,1775,1806,1762,1755,1706,1678,1747,1622,1618,1600,1572,1544,1548,1555,1450,1469,1394,1341,1347,1285,1344,1261,1293,1186,1144,1182,1134,1107,1110,1153,1199,1203,1192,1279,1245,1248,1233,1221,1233,1268,1230,1262,1261,1260,1208,1234,1233,1250,1252,1216,1252,1300,1259,1251,1264,1234,1234,0,0,0,0,0,0,0,0,0,0,0,0,0,0,0,0,0,0,0,0,0,0,0,0,0,0,0,0,0,0,0,0,0,0,0,0,0,0,0,0,0,0,0,0,0,0,0,0,0,0,0,0,0,0,0,0,0,0,0,0,0,0,0,0,0,693,695,696,698,737,845,981,1118,1218,1254,1250,1241,1205,1182,1173,1137,1114,1092,1069,1046,1024,1001,978,956,933,921,888,875,842,820,797,780,752,725,706,706,713,719,733,720,720,725,723,724,789,782,726,755,739,726,728,775,779,791,793,793,778,790,791,768,752,748,732,730,728,324,325,326,327,328,347,392,437,482,524,536,527,519,510,502,494,485,477,468,460,451,443,435,426,418,409,401,393,384,376,367,359,350,342,334,329,330,331,322,334,319,325,335,328,339,339,325,328,328,331,328,324,325,330,328,325,330,326,325,328,323,331,327,332,323,1263,1267,1267,1341,1487,1724,1955,2081,2148,2176,2125,2126,2110,2021,2013,1957,1963,1906,1835,1798,1831,1772,1687,1665,1627,1611,1576,1525,1478,1441,1414,1390,1357,1288,1283,1329,1293,1344,1369,1367,1360,1378,1372,1414,1376,1390,1401,1394,1398,1396,1405,1405,1403,1410,1397,1401,1391,1396,1390,1405,1405,1417,1405,1412,1394,946,948,950,985,1055,1177,1349,1471,1598,1586,1580,1605,1529,1550,1478,1453,1453,1446,1397,1352,1361,1314,1286,1259,1231,1214,1176,1158,1171,1099,1118,1069,1032,1001,988,988,1020,976,1020,994,997,1030,992,1016,1044,1076,1097,998,1001,994,1008,991,1004,994,1061,996,997,1001,1004,1020,1031,1013,998,1008,994,260,261,262,262,263,274,310,346,382,418,434,427,420,413,406,399,392,386,379,372,365,358,351,344,337,330,324,317,310,303,296,289,282,275,269,264,265,265,255,261,254,257,274,266,270,278,261,272,266,271,268,258,261,269,268,259,270,261,259,268,262,272,266,270,261,448,449,450,451,453,479,529,579,678,670,680,671,662,699,643,634,624,615,606,596,587,578,569,559,550,541,531,522,513,503,494,485,476,466,457,453,454,455,449,448,450,453,453,454,454,462,455,461,448,458,452,467,462,458,453,463,454,456,456,467,457,458,447,457,450,1459,1555,1497,1614,1810,2083,2343,2482,2555,2500,2475,2506,2404,2521,2317,2287,2200,2204,2116,2192,2115,2112,1947,1923,1863,1965,1796,1747,1738,1705,1626,1575,1575,1504,1487,1490,1498,1499,1608,1601,1600,1618,1613,1641,1641,1654,1635,1648,1670,1659,1703,1659,1667,1715,1679,1643,1657,1670,1659,1679,1667,1652,1675,1721,1682,958,961,964,976,1019,1135,1286,1423,1526,1569,1563,1538,1529,1488,1463,1439,1414,1389,1378,1339,1314,1289,1264,1239,1214,1189,1164,1139,1114,1101,1064,1039,1015,992,976,972,975,978,981,985,992,1022,998,1011,999,999,994,992,1006,989,1001,1008,1007,1005,1006,1015,996,993,1004,1000,990,1004,993,1008,992,743,745,739,741,769,912,966,1077,1164,1203,1203,1230,1165,1145,1126,1107,1088,1093,1050,1065,1046,992,973,958,935,916,951,877,859,839,820,800,781,771,749,745,747,750,749,756,752,766,771,762,769,777,749,766,758,758,759,775,767,767,793,795,763,769,772,755,753,754,772,769,755,780,782,784,779,819,925,959,1071,1160,1302,1201,1182,1163,1143,1124,1105,1086,1067,1048,1029,1009,990,971,952,933,914,998,876,885,837,818,863,780,761,747,744,788,792,760,759,772,786,790,801,761,795,766,777,778,781,777,786,804,830,806,808,777,789,795,805,812,804,804,824,798,804,807,809,811,847,935,1049,1163,1244,1334,1333,1255,1236,1217,1256,1178,1159,1188,1120,1101,1081,1062,1043,1023,1004,985,965,957,927,907,888,869,871,830,818,815,817,819,830,830,828,846,846,847,867,868,845,858,861,854,855,852,839,879,863,855,847,840,836,853,847,850,850,873,841,858,860,833,866,908,1048,1241,1422,1542,1596,1585,1555,1542,1495,1465,1435,1420,1410,1346,1315,1285,1255,1239,1195,1163,1135,1102,1075,1045,1015,985,955,925,896,845,882,876,882,896,892,901,897,943,935,943,945,911,950,940,938,943,917,924,957,938,921,935,923,909,938,924,946,927,939,940,675,724,679,683,701,775,864,958,1039,1129,1089,1059,1042,1026,1010,993,982,1012,944,928,912,895,879,863,846,830,814,797,781,765,748,779,715,699,687,684,686,688,684,682,692,726,710,715,708,683,701,718,720,698,723,725,744,726,730,716,693,698,690,697,690,698,694,732,682,754,735,766,760,801,860,957,1090,1171,1171,1190,1158,1166,1122,1129,1111,1068,1082,1032,1014,996,1000,982,942,945,906,887,889,880,834,834,826,797,779,774,748,766,768,767,774,769,776,777,787,779,784,778,791,785,786,782,775,771,782,782,785,770,781,770,774,769,774,777,774,763,914,917,976,929,1032,1095,1260,1376,1458,1492,1558,1494,1440,1415,1433,1369,1345,1349,1298,1308,1302,1295,1203,1204,1155,1132,1154,1084,1097,1037,1034,989,1028,1005,1024,978,950,966,971,976,971,994,969,962,966,989,986,1073,965,975,994,976,1021,974,984,985,1001,984,968,978,993,985,988,982,976,491,492,493,494,497,572,694,816,933,998,998,977,973,936,915,895,890,869,833,812,791,771,764,729,709,688,667,647,626,605,585,564,543,523,513,509,503,508,504,516,515,518,516,514,519,519,518,527,511,516,513,521,526,536,531,532,519,513,524,526,529,530,518,522,516,1094,1156,1122,1179,1213,1412,1524,1722,1723,1810,1749,1741,1682,1690,1628,1601,1574,1597,1521,1484,1551,1470,1413,1386,1387,1420,1342,1278,1300,1225,1198,1253,1144,1144,1154,1122,1113,1106,1149,1139,1158,1183,1172,1176,1167,1152,1167,1184,1176,1165,1169,1206,1230,1213,1196,1181,1165,1176,1166,1168,1158,1182,1175,1195,1164,352,353,354,356,357,379,429,478,528,572,583,573,564,554,546,537,527,518,509,500,491,482,472,463,454,445,436,426,417,408,399,390,381,371,362,358,359,360,346,353,350,356,347,345,351,364,355,357,377,355,386,349,370,355,370,366,360,356,357,362,360,353,347,381,347,606,608,610,611,624,683,773,848,925,965,975,952,937,930,916,893,879,864,849,835,827,805,791,783,761,747,732,729,703,694,679,659,666,630,618,615,616,623,616,614,615,615,614,631,651,639,618,631,640,632,625,623,624,645,638,630,628,624,624,626,625,626,626,661,628,1534,1543,1627,1669,1814,2036,2215,2350,2408,2463,2516,2346,2316,2284,2309,2338,2180,2189,2090,2079,2023,2027,1959,1953,1915,1839,1842,1785,1738,1700,1664,1628,1628,1565,1554,1556,1565,1568,1702,1695,1689,1725,1711,1720,1779,1790,1706,1759,1746,1728,1723,1758,1762,1785,1777,1751,1765,1776,1779,1758,1732,1738,1715,1713,1695,435,436,438,439,441,476,540,603,666,713,721,710,698,686,675,664,652,652,629,653,606,595,583,598,560,549,537,526,515,503,492,480,469,457,454,442,443,444,452,446,452,493,454,442,514,525,457,475,503,475,441,503,534,546,544,508,507,518,530,494,465,465,454,442,440,571,573,574,568,587,679,766,906,1073,1048,1064,1030,1010,991,961,952,933,913,951,928,869,883,874,837,814,758,769,746,699,701,678,641,635,613,600,579,576,579,579,578,579,582,584,584,585,586,584,590,587,587,590,595,596,594,603,596,601,595,600,598,601,603,598,605,599,794,843,798,810,838,939,1041,1155,1235,1321,1278,1245,1225,1206,1187,1167,1233,1179,1109,1090,1071,1051,1032,1012,993,974,954,935,916,896,877,991,838,819,807,805,807,809,807,799,813,828,822,824,812,829,824,837,820,823,828,868,896,875,859,839,815,830,821,817,810,828,824,847,813,788,790,796,793,831,935,1055,1152,1233,1319,1276,1238,1224,1200,1186,1167,1233,1141,1109,1090,1071,1053,1033,1014,994,975,956,936,918,899,873,855,840,816,824,808,802,812,812,813,825,902,829,812,832,860,837,820,831,824,829,820,833,829,835,822,820,817,831,840,816,844,822,832,835,813,815,801,803,858,931,1100,1205,1291,1328,1325,1297,1301,1262,1233,1195,1198,1179,1133,1160,1115,1088,1082,1070,1025,1010,985,968,935,942,905,883,860,842,815,825,827,808,828,823,830,852,840,839,832,847,840,837,851,847,913,915,937,882,855,847,836,860,844,837,843,862,848,868,846,1174,1118,1101,1128,1231,1353,1548,1746,1723,1974,1737,1711,1683,1661,1667,1646,1628,1577,1522,1495,1467,1536,1413,1387,1379,1332,1305,1289,1278,1224,1197,1192,1201,1122,1120,1122,1149,1212,1149,1191,1151,1149,1172,1154,1169,1179,1174,1174,1198,1169,1175,1183,1184,1190,1184,1198,1198,1192,1206,1173,1198,1207,1228,1189,1185,1051,1077,1077,1077,1185,1381,1520,1752,1988,1830,1833,1816,1750,1719,1709,1655,1655,1595,1560,1558,1525,1468,1461,1401,1388,1338,1306,1336,1243,1211,1201,1163,1125,1091,1094,1068,1075,1087,1103,1089,1091,1092,1091,1124,1124,1116,1110,1121,1138,1119,1123,1118,1119,1143,1151,1126,1128,1139,1138,1150,1139,1131,1154,1195,1160,681,683,685,687,707,776,857,964,1022,1092,1083,1035,1050,1007,1004,980,992,948,952,935,919,909,868,870,853,837,820,815,775,771,755,738,744,706,693,681,697,694,672,675,677,676,689,677,689,693,684,693,687,687,693,694,692,698,701,695,706,700,695,693,699,706,707,706,708,1268,1272,1280,1332,1441,1613,1802,1926,1992,2067,2099,1966,1935,1904,1962,1942,1812,1828,1862,1825,1762,1657,1626,1595,1564,1533,1503,1527,1441,1410,1379,1348,1340,1298,1287,1286,1289,1293,1364,1371,1365,1396,1418,1412,1391,1394,1403,1433,1403,1424,1441,1436,1414,1406,1401,1418,1425,1396,1421,1445,1411,1410,1415,1399,1394,591,593,629,597,608,666,772,843,926,970,973,958,943,926,912,896,881,865,850,869,819,803,788,798,757,741,726,710,729,680,664,649,669,618,604,600,602,634,592,600,602,625,605,601,600,602,600,599,600,602,600,602,601,605,606,608,608,607,605,610,609,633,629,633,626,769,798,764,768,840,978,1068,1205,1311,1384,1350,1350,1325,1300,1265,1251,1264,1204,1176,1151,1126,1140,1077,1052,1018,1034,977,945,927,902,878,853,828,805,785,781,805,780,778,785,791,806,863,837,804,844,804,892,831,862,837,808,835,869,835,815,863,831,820,847,841,882,837,832,821,0,0,0,0,0,0,0,0,0,0,0,0,0,0,0,0,0,0,0,0,0,0,0,0,0,0,0,0,0,0,0,0,0,0,0,0,0,0,0,0,0,0,0,0,0,0,0,0,0,0,0,0,0,0,0,0,0,0,0,0,0,0,0,0,0,537,538,540,601,619,615,726,836,969,1004,1020,986,967,948,918,910,891,872,853,834,815,822,777,758,730,720,701,682,663,644,625,606,587,568,550,545,541,545,550,557,554,570,592,585,570,591,564,591,586,616,583,582,586,594,577,576,595,590,582,580,580,600,573,578,572,756,797,760,762,793,862,982,1089,1170,1244,1216,1184,1166,1147,1129,1111,1093,1125,1056,1038,1019,1001,983,964,946,928,899,880,873,854,836,885,799,781,769,766,760,770,754,767,760,794,755,783,763,789,776,782,778,767,782,772,784,785,782,782,789,785,793,781,784,793,786,799,801,253,254,255,255,256,266,294,322,350,377,389,383,378,373,367,362,356,351,346,340,335,330,324,319,313,308,303,297,292,287,281,276,271,265,260,256,257,258,259,240,242,245,251,247,253,248,251,249,258,268,310,269,265,279,265,253,253,270,316,320,322,337,343,297,284,834,837,858,835,885,1029,1168,1360,1701,1487,1496,1450,1424,1398,1361,1345,1318,1295,1265,1239,1212,1189,1159,1133,1098,1080,1054,1052,1001,974,948,921,1000,953,851,847,844,875,883,882,881,894,902,886,900,908,898,893,907,908,982,980,990,948,901,893,898,898,893,900,896,896,892,916,894,822,799,840,836,838,1006,1209,1338,1501,1555,1545,1515,1485,1418,1388,1396,1330,1336,1306,1365,1264,1217,1187,1157,1127,1097,1046,1009,980,998,940,933,889,877,812,819,840,845,850,851,850,863,867,866,873,881,862,870,873,877,873,883,891,892,882,867,869,875,867,863,856,877,862,874,852,1169,1157,1161,1195,1308,1438,1657,1768,1813,1916,1905,1795,1782,1740,1768,1683,1655,1674,1598,1590,1542,1533,1485,1476,1447,1412,1373,1355,1316,1315,1260,1231,1234,1182,1187,1170,1173,1201,1229,1223,1213,1229,1220,1257,1226,1237,1257,1314,1237,1269,1269,1271,1253,1276,1280,1244,1236,1249,1262,1277,1274,1289,1280,1284,1259,743,745,739,741,769,912,966,1077,1164,1203,1203,1230,1165,1145,1126,1107,1088,1093,1050,1065,1046,992,973,958,935,916,951,877,859,839,820,800,781,771,749,745,747,750,749,756,752,766,771,762,769,777,749,766,758,758,759,775,767,767,793,795,763,769,772,755,753,754,772,769,755,957,980,963,975,1018,1134,1285,1422,1525,1568,1561,1536,1511,1487,1462,1437,1412,1387,1362,1337,1312,1287,1262,1237,1213,1188,1163,1160,1113,1088,1063,1038,1013,991,974,971,974,977,1003,971,969,1007,967,1008,1065,1096,1075,998,984,970,984,998,1014,1015,1076,1014,1014,1022,1016,1022,1024,993,970,983,966,362,363,364,366,367,390,441,489,539,584,594,585,575,566,557,548,538,529,520,511,501,492,483,474,465,455,446,437,428,418,420,400,391,381,372,368,369,370,354,350,353,355,356,355,356,357,355,361,361,360,360,362,361,358,361,364,365,368,363,363,368,366,366,366,366,928,931,968,941,997,1141,1325,1548,1651,1631,1767,1593,1564,1590,1565,1531,1449,1420,1462,1409,1334,1305,1277,1248,1219,1190,1161,1133,1104,1075,1046,1018,989,962,944,943,947,952,965,946,944,952,988,1011,971,981,981,1005,1015,996,1016,998,997,1015,1028,982,1007,1012,1009,1040,1015,1031,1046,1077,1022,578,611,613,615,588,629,774,769,838,883,891,1008,866,854,841,828,816,803,790,778,765,827,740,727,715,702,748,677,716,651,639,668,653,637,623,585,620,622,598,609,599,611,619,616,611,615,614,615,609,614,613,608,607,610,614,615,617,610,609,617,616,637,629,633,621,1047,1053,1053,1075,1150,1319,1528,1690,1787,1823,1810,1778,1746,1762,1757,1697,1619,1587,1602,1523,1496,1459,1430,1437,1426,1332,1300,1303,1236,1204,1205,1144,1109,1082,1116,1094,1068,1074,1084,1083,1088,1092,1091,1096,1101,1119,1101,1106,1099,1101,1108,1106,1108,1108,1114,1123,1116,1120,1119,1112,1128,1121,1120,1124,1118,1000,1002,1010,1022,1091,1253,1454,1640,1712,1755,1734,1703,1679,1655,1613,1570,1580,1521,1486,1452,1432,1401,1365,1357,1314,1278,1254,1216,1185,1123,1108,1084,1050,1030,1025,1017,1030,1026,1030,1072,1034,1030,1044,1031,1040,1049,1045,1047,1068,1044,1050,1053,1058,1062,1066,1077,1061,1063,1075,1051,1073,1080,1091,1063,1066,1388,1467,1465,1512,1690,1929,2147,2276,2232,2348,2218,2216,2176,2145,2121,2075,2005,1970,1934,1978,1864,1899,1822,1826,1793,1775,1651,1659,1633,1680,1549,1474,1496,1502,1430,1449,1425,1457,1513,1499,1505,1509,1728,1585,1552,1564,1550,1632,1654,1652,1595,1552,1563,1597,1724,1588,1619,1572,1596,1617,1596,1637,1636,1650,1618,277,278,278,279,280,294,333,372,411,449,463,455,448,440,433,426,418,411,404,396,389,381,374,367,359,352,345,337,330,322,315,308,300,293,286,281,282,282,272,277,272,278,284,284,280,284,279,279,282,282,272,277,279,287,278,279,281,277,278,280,278,284,272,281,274,1362,1365,1429,1450,1653,1815,2094,2255,2344,2313,2397,2252,2252,2212,2169,2137,2055,2015,2034,1948,1919,1857,1817,1778,1738,1699,1659,1619,1580,1544,1501,1461,1426,1399,1383,1383,1403,1422,1437,1417,1447,1457,1471,1479,1499,1505,1471,1483,1513,1490,1512,1503,1480,1495,1543,1535,1501,1532,1549,1527,1531,1547,1539,1539,1567,824,827,829,850,905,969,1097,1293,1308,1347,1345,1347,1302,1333,1306,1258,1216,1195,1174,1152,1131,1109,1118,1067,1045,1043,1003,981,960,954,933,896,874,869,840,837,839,857,847,851,864,893,869,859,859,866,870,864,938,908,914,974,1073,957,945,879,868,885,896,867,850,876,885,866,852,735,732,734,736,764,875,1023,1170,1278,1323,1318,1294,1270,1246,1229,1197,1173,1149,1125,1100,1083,1052,1028,1004,980,955,937,907,889,859,834,810,786,762,744,742,746,755,777,752,751,759,764,769,822,813,768,799,783,763,766,812,814,815,809,830,818,835,809,789,793,778,762,759,748,1692,1667,1773,1830,2069,2283,2484,2696,2788,2790,2850,2683,2621,2634,2592,2583,2439,2399,2430,2352,2304,2262,2212,2135,2080,2030,1998,1952,1898,1860,1806,1802,1737,1699,1711,1738,1695,1696,1893,1899,1923,1938,1907,1957,1917,1931,1912,1943,1955,1932,1923,1935,1943,1956,1946,1961,1933,1958,1977,1946,1937,1916,1938,1960,1932,907,910,913,942,1008,1086,1267,1444,1447,1483,1490,1490,1431,1442,1430,1396,1337,1313,1289,1266,1242,1219,1225,1206,1148,1146,1101,1077,1053,1062,1026,983,959,956,924,921,923,966,944,939,963,959,957,997,948,960,967,981,1007,982,984,992,986,981,965,971,953,982,954,970,969,981,960,974,1004,261,262,263,263,264,274,308,342,376,410,425,418,412,405,399,393,386,380,373,367,360,354,347,341,334,328,321,315,308,302,295,289,282,276,269,265,266,266,255,258,254,261,259,263,258,270,256,261,261,257,257,263,263,261,262,264,261,262,268,264,258,265,258,264,259,1166,1178,1174,1213,1339,1501,1726,1883,1976,2008,2027,1958,1923,1935,1928,1865,1784,1780,1769,1680,1685,1610,1613,1582,1567,1471,1436,1436,1367,1332,1330,1272,1229,1286,1237,1215,1190,1255,1254,1295,1254,1266,1284,1265,1275,1283,1281,1283,1294,1282,1302,1284,1288,1295,1299,1297,1298,1299,1334,1291,1319,1328,1345,1306,1299,1169,1181,1176,1214,1339,1499,1724,1881,1975,2007,2026,1957,1922,1935,1927,1865,1784,1780,1758,1680,1686,1611,1614,1583,1572,1473,1438,1439,1369,1335,1332,1275,1232,1205,1240,1218,1193,1258,1258,1246,1243,1260,1373,1356,1295,1332,1295,1380,1355,1360,1355,1303,1322,1348,1351,1299,1374,1351,1322,1379,1336,1401,1384,1426,1341,1220,1250,1229,1276,1361,1535,1729,1850,1996,1979,1977,1946,1941,1885,1842,1848,1779,1794,1739,1698,1662,1622,1606,1559,1550,1518,1487,1471,1435,1414,1366,1309,1308,1256,1260,1238,1259,1253,1344,1332,1328,1421,1387,1380,1368,1358,1381,1418,1379,1440,1465,1434,1356,1391,1399,1396,1394,1373,1452,1539,1493,1491,1503,1415,1422,1217,1276,1264,1274,1415,1656,1851,2027,2111,2108,2076,2050,2003,2020,1942,1895,1888,1822,1814,1808,1715,1704,1654,1605,1588,1589,1498,1504,1440,1389,1389,1316,1295,1269,1261,1262,1257,1255,1340,1295,1295,1310,1294,1323,1310,1310,1336,1388,1319,1335,1406,1333,1343,1413,1348,1332,1327,1333,1396,1466,1493,1524,1511,1376,1371,653,655,657,639,653,718,840,964,994,1038,1041,1024,1007,1055,974,958,941,925,992,892,875,859,842,826,809,816,776,760,743,726,731,693,677,660,647,643,681,646,648,654,649,667,730,705,697,715,671,744,706,735,698,670,678,709,685,677,720,693,674,702,690,732,701,709,680,805,807,809,812,850,1189,1135,1291,1396,1439,1433,1385,1381,1355,1308,1303,1277,1252,1226,1200,1174,1148,1122,1096,1070,1050,995,998,966,941,899,874,853,837,819,818,822,812,823,817,831,855,843,841,841,855,847,851,866,856,930,966,1035,909,854,838,841,853,847,829,833,853,837,860,840,1486,1396,1455,1486,1619,1858,2091,2331,2385,2354,2473,2352,2284,2322,2260,2183,2092,2052,2080,2017,1932,1892,1901,1812,1772,1732,1719,1652,1655,1572,1558,1492,1457,1430,1414,1495,1457,1426,1496,1555,1501,1525,1531,1520,1534,1555,1525,1540,1551,1517,1537,1543,1547,1548,1573,1566,1548,1537,1570,1524,1541,1562,1580,1554,1543,1064,1068,1071,1117,1209,1364,1525,1701,1718,1896,1722,1729,1667,1674,1658,1620,1557,1530,1502,1475,1447,1420,1422,1399,1338,1332,1283,1255,1228,1232,1192,1145,1118,1114,1083,1080,1096,1127,1116,1115,1167,1415,1169,1098,1154,1245,1182,1128,1223,1197,1146,1157,1233,1211,1192,1108,1137,1138,1183,1191,1119,1166,1136,1131,1149,342,343,345,355,356,379,418,480,530,575,586,576,567,544,548,539,529,520,498,501,492,483,473,464,455,434,436,427,417,408,389,389,380,371,361,357,358,359,347,353,347,358,368,369,357,377,353,368,368,396,356,364,363,370,363,366,373,383,373,369,365,380,360,362,358,507,508,509,511,516,585,687,788,887,940,943,925,907,889,872,854,836,818,801,783,765,748,730,712,694,677,659,641,623,606,588,570,552,535,518,515,519,522,524,529,522,547,532,525,536,546,526,544,539,542,538,529,523,530,533,538,526,527,521,523,519,523,529,525,509,0,0,0,0,0,0,0,0,0,0,0,0,0,0,0,0,0,0,0,0,0,0,0,0,0,0,0,0,0,0,0,0,0,0,0,0,0,0,0,0,0,0,0,0,0,0,0,0,0,0,0,0,0,0,0,0,0,0,0,0,0,0,0,0,0,1076,1100,1082,1132,1189,1395,1578,1738,1834,1935,1837,1823,1821,1758,1715,1712,1682,1652,1615,1546,1529,1523,1464,1432,1427,1417,1382,1325,1292,1236,1190,1184,1126,1116,1094,1093,1122,1168,1137,1150,1143,1172,1143,1176,1157,1174,1160,1164,1164,1150,1167,1158,1176,1183,1179,1184,1180,1173,1189,1172,1172,1188,1185,1198,1188,760,787,767,766,792,894,1032,1169,1313,1319,1316,1293,1313,1247,1224,1201,1179,1156,1165,1110,1087,1090,1042,1019,996,973,950,927,905,882,859,836,813,791,799,771,775,804,784,782,791,808,807,799,795,797,798,808,810,801,802,839,860,841,832,810,800,812,804,800,792,817,801,816,793,436,437,438,420,422,454,540,574,634,683,691,680,669,688,647,636,625,614,631,592,581,570,559,548,537,550,515,504,493,482,493,460,449,438,427,423,424,425,419,422,424,417,416,424,424,418,423,437,432,423,419,426,420,427,429,430,423,423,424,425,424,423,422,438,426,626,660,662,664,641,690,845,846,921,965,972,1086,944,977,964,902,888,874,860,846,832,892,859,790,776,762,806,817,772,706,692,720,703,707,672,634,670,671,667,672,671,676,679,680,674,685,674,678,675,680,695,718,710,695,683,692,684,682,685,692,677,692,670,683,679,1278,1297,1372,1344,1449,1663,1931,2168,2249,2204,2252,2219,2079,2103,2105,2058,1938,1913,1984,1891,1788,1751,1746,1676,1677,1601,1564,1526,1489,1451,1430,1377,1341,1342,1331,1313,1303,1309,1364,1360,1374,1398,1386,1396,1391,1383,1389,1464,1397,1381,1407,1420,1433,1409,1418,1402,1374,1407,1382,1381,1381,1410,1394,1415,1381,957,980,963,975,1018,1134,1285,1422,1525,1568,1561,1536,1511,1487,1462,1437,1412,1387,1362,1337,1312,1287,1262,1237,1213,1188,1163,1160,1113,1088,1063,1038,1013,991,974,971,974,977,1003,971,969,1007,967,1008,1065,1096,1075,998,984,970,984,998,1014,1015,1076,1014,1014,1022,1016,1022,1024,993,970,983,966,763,765,727,729,793,899,947,1058,1212,1185,1263,1166,1186,1214,1182,1148,1131,1098,1078,1057,1039,1040,1021,1000,980,940,921,936,890,871,860,831,770,800,778,734,736,738,741,751,761,775,761,771,755,778,755,776,762,753,760,767,774,783,774,770,768,761,775,774,766,770,756,767,758,1162,1138,1139,1166,1263,1406,1591,1736,1783,1813,1818,1807,1776,1749,1702,1673,1645,1725,1586,1557,1550,1499,1484,1441,1409,1396,1404,1325,1332,1281,1247,1359,1192,1168,1153,1192,1147,1150,1207,1189,1190,1199,1185,1198,1191,1190,1208,1244,1197,1210,1219,1220,1241,1235,1252,1231,1225,1225,1231,1234,1237,1234,1231,1246,1243,336,337,338,339,340,359,405,451,497,540,551,543,534,525,517,508,500,491,482,474,465,457,448,440,431,422,414,405,397,388,379,371,362,354,345,341,341,342,325,322,323,326,326,327,326,328,326,330,330,330,328,331,330,327,330,333,333,334,332,331,334,334,334,334,333,1379,1411,1430,1553,1725,1989,2269,2438,2450,2473,2433,2409,2345,2294,2257,2210,2166,2137,2092,2033,1994,1947,1906,1874,1811,1773,1729,1739,1634,1603,1574,1509,1435,1441,1408,1431,1447,1449,1536,1535,1517,1532,1522,1556,1531,1540,1568,1619,1542,1566,1567,1566,1556,1588,1583,1556,1554,1543,1557,1601,1558,1573,1582,1574,1562,177,177,178,178,179,185,205,229,253,276,296,286,287,282,277,273,268,263,258,254,249,247,242,237,232,225,221,216,211,208,202,197,194,189,184,179,180,180,167,167,167,170,170,169,169,170,170,171,172,173,184,186,184,177,171,172,173,171,169,175,172,171,170,172,170,307,308,309,310,311,329,373,417,461,503,527,506,498,490,481,473,465,457,448,440,432,424,416,407,399,391,383,374,366,358,350,341,333,325,317,312,313,314,330,292,294,294,343,322,307,297,299,304,362,328,342,339,358,320,350,316,322,364,381,339,309,318,366,360,308,473,505,476,478,481,521,589,659,727,775,799,784,783,762,733,745,732,695,683,671,658,667,633,621,608,596,584,571,559,558,546,521,509,497,485,480,482,483,485,488,477,611,514,494,483,492,498,504,492,504,516,494,483,490,522,500,493,493,493,495,490,477,510,498,472,1038,1041,1043,1105,1208,1394,1672,1844,1867,1901,1870,1856,1931,1758,1730,1692,1657,1636,1601,1550,1520,1484,1450,1428,1373,1344,1309,1274,1231,1210,1191,1133,1094,1069,1062,1062,1071,1073,1082,1090,1112,1121,1145,1119,1126,1113,1114,1119,1100,1093,1107,1108,1105,1103,1134,1122,1093,1097,1101,1100,1100,1110,1134,1130,1103,477,479,494,482,510,516,596,701,736,783,791,781,765,811,740,728,715,702,690,664,665,652,639,627,614,608,589,576,564,551,521,509,514,501,489,485,486,487,479,477,476,481,493,500,514,495,486,502,507,494,495,485,486,514,500,493,495,490,483,495,492,501,495,517,492,530,532,540,535,549,592,677,733,831,849,956,903,883,819,831,806,807,795,767,768,775,740,744,751,690,678,665,688,611,619,600,582,568,560,542,538,540,541,537,544,539,552,546,554,542,548,545,545,544,542,542,550,547,548,552,550,550,547,556,556,547,554,547,554,549,431,432,433,435,437,472,535,598,661,709,717,705,694,682,671,659,648,636,625,613,602,590,579,566,556,544,533,522,510,499,504,475,464,453,442,437,438,440,444,435,446,437,442,452,438,445,449,444,453,445,448,450,450,458,453,448,440,456,446,456,452,450,448,458,472,999,1020,1019,1043,1100,1182,1349,1507,1579,1648,1607,1581,1545,1561,1528,1497,1472,1440,1398,1379,1372,1330,1299,1275,1239,1247,1207,1174,1164,1131,1097,1078,1071,1034,1017,1018,1016,1031,1032,1028,1022,1031,1120,1111,1069,1087,1069,1149,1099,1084,1103,1058,1062,1112,1101,1061,1126,1074,1065,1133,1099,1146,1122,1153,1103,485,487,488,490,494,537,608,679,750,797,879,823,803,790,776,763,750,737,723,710,697,684,671,676,644,631,618,641,573,560,547,534,522,509,497,493,494,495,485,486,491,504,486,492,492,498,493,490,492,484,491,487,491,493,488,492,488,495,493,488,490,503,490,495,491,1119,1099,1125,1171,1320,1461,1707,1895,2001,1925,1924,1895,1899,1805,1789,1752,1718,1684,1650,1616,1630,1592,1518,1532,1475,1444,1407,1349,1342,1302,1280,1224,1191,1155,1148,1120,1174,1160,1212,1219,1208,1295,1260,1259,1246,1235,1244,1275,1248,1267,1264,1267,1225,1241,1243,1260,1261,1231,1258,1289,1254,1243,1262,1238,1236,188,188,189,189,190,196,222,248,274,299,314,335,330,324,294,314,308,279,274,269,264,281,254,249,244,239,234,229,224,219,214,209,204,199,194,190,191,191,180,177,180,181,177,185,181,179,180,180,192,181,180,182,180,187,181,182,179,181,180,181,184,181,180,193,187,191,191,192,192,193,198,223,248,272,297,312,330,302,297,292,288,283,278,273,269,264,259,254,250,245,240,235,230,226,221,216,211,207,202,197,193,194,194,187,184,180,184,181,197,226,225,181,207,192,182,182,213,217,228,219,227,223,230,223,211,197,189,184,184,181,408,398,400,401,426,430,504,547,604,650,659,646,638,629,614,624,597,587,577,581,553,545,535,524,500,504,493,483,473,462,452,441,431,421,410,403,404,405,379,381,393,412,384,385,384,385,388,385,386,387,386,389,387,389,391,393,393,392,392,394,396,418,416,418,416,891,873,872,904,955,1063,1205,1318,1387,1460,1448,1432,1393,1409,1333,1315,1287,1320,1235,1262,1243,1199,1189,1132,1105,1106,1112,1041,1027,1024,969,966,943,921,892,902,879,869,901,899,898,899,904,907,899,899,907,912,902,911,908,913,912,909,911,914,915,914,912,914,920,945,947,948,948,1503,1484,1519,1664,1967,2178,2339,2466,2536,2531,2535,2456,2433,2371,2324,2370,2255,2193,2178,2172,2074,2045,2017,1955,1874,1864,1810,1776,1705,1684,1631,1596,1538,1572,1512,1526,1519,1524,1605,1631,1650,1654,1654,1648,1647,1678,1640,1639,1672,1628,1646,1648,1669,1690,1831,1782,1690,1654,1656,1650,1642,1637,1649,1710,1635,524,525,527,529,535,583,660,737,813,859,865,851,837,824,810,796,782,769,755,740,727,713,700,685,672,658,645,631,617,604,607,576,562,549,536,531,533,535,549,529,526,530,526,536,531,534,532,531,534,527,530,530,531,532,538,537,532,533,534,539,530,544,533,541,538,696,723,740,729,751,784,932,1040,1127,1169,1170,1156,1135,1137,1158,1079,1062,1042,1024,1006,1149,972,953,903,887,902,878,833,842,823,787,769,769,724,736,732,708,710,725,739,714,724,733,716,774,728,729,749,737,730,716,722,736,732,738,723,732,754,793,729,737,737,730,723,724,311,312,313,314,315,333,389,434,479,521,516,524,500,492,484,489,481,459,451,442,435,425,418,409,401,393,386,377,369,360,353,345,337,329,321,316,317,318,318,300,303,305,301,314,307,317,315,308,318,304,307,307,305,310,309,309,308,310,308,305,307,310,308,315,310,1318,1322,1336,1366,1512,1692,1881,2002,2072,2105,2097,2103,2110,2034,1983,1949,1916,1950,1828,1887,1783,1728,1750,1661,1642,1623,1629,1527,1523,1479,1435,1438,1374,1368,1369,1363,1339,1346,1384,1390,1409,1424,1405,1425,1404,1421,1402,1425,1429,1418,1417,1433,1435,1445,1436,1440,1417,1434,1443,1436,1433,1426,1425,1458,1448,734,736,738,743,778,857,1069,1111,1192,1226,1225,1213,1185,1161,1148,1124,1104,1084,1064,1048,1027,1006,987,967,940,926,905,886,858,840,836,805,779,762,751,742,748,751,752,748,738,751,800,848,766,767,776,786,766,777,774,774,764,774,770,783,800,764,768,820,791,804,808,778,779,1085,1131,1091,1152,1268,1418,1662,1850,1863,1882,1881,1852,1800,1763,1747,1711,1677,1644,1611,1576,1547,1513,1480,1529,1418,1380,1345,1313,1271,1240,1291,1178,1205,1136,1108,1107,1115,1126,1177,1159,1169,1166,1166,1165,1241,1238,1167,1207,1193,1173,1172,1231,1236,1252,1238,1249,1241,1265,1262,1230,1210,1205,1175,1173,1177,0,0,0,0,0,0,0,0,0,0,0,0,0,0,0,0,0,0,0,0,0,0,0,0,0,0,0,0,0,0,0,0,0,0,0,0,0,0,0,0,0,0,0,0,0,0,0,0,0,0,0,0,0,0,0,0,0,0,0,0,0,0,0,0,0,544,546,548,549,557,610,691,773,852,897,882,887,854,840,826,812,797,783,769,755,741,727,713,699,684,670,656,642,628,627,613,599,584,570,544,553,554,556,539,549,541,554,550,554,547,548,553,547,546,548,547,548,547,548,552,555,553,549,550,555,555,572,564,570,561,1384,1388,1408,1484,1635,1845,1988,2152,2338,2249,2353,2200,2205,2128,2075,2040,2005,2001,2052,1936,1902,1940,1848,1864,1718,1698,1702,1630,1624,1658,1532,1504,1520,1540,1436,1402,1405,1413,1540,1522,1514,1533,1529,1563,1535,1540,1565,1624,1545,1573,1582,1579,1563,1577,1579,1555,1541,1562,1560,1575,1582,1594,1581,1582,1551,1371,1349,1390,1512,1683,1946,2181,2397,2431,2416,2382,2373,2266,2274,2182,2171,2170,2083,2040,1995,1964,1880,1868,1824,1774,1707,1692,1649,1570,1529,1501,1447,1429,1379,1412,1380,1410,1488,1460,1453,1459,1463,1453,1470,1467,1463,1482,1558,1475,1483,1494,1494,1496,1507,1520,1509,1494,1498,1499,1510,1504,1506,1505,1520,1517,683,679,687,689,709,781,884,987,1065,1118,1162,1102,1084,1090,1049,1031,1005,1052,977,960,962,924,906,908,871,853,854,818,791,782,781,747,729,705,691,693,711,697,694,701,705,723,703,699,709,717,709,703,766,744,700,729,768,766,785,724,721,730,751,716,709,730,724,705,700,763,765,727,729,793,899,947,1058,1212,1185,1263,1166,1186,1214,1182,1148,1131,1098,1078,1057,1039,1040,1021,1000,980,940,921,936,890,871,860,831,770,800,778,734,736,738,741,751,761,775,761,771,755,778,755,776,762,753,760,767,774,783,774,770,768,761,775,774,766,770,756,767,758,599,610,603,605,617,688,767,856,941,981,968,954,941,940,913,909,893,889,861,846,832,818,798,794,767,762,746,720,704,688,673,657,642,636,612,608,619,621,624,596,605,610,598,625,610,616,616,610,637,610,608,610,607,626,623,614,608,615,610,614,616,615,614,645,622,773,765,767,770,801,887,1057,1156,1253,1250,1249,1263,1209,1224,1169,1187,1130,1277,1126,1107,1087,1095,1048,1028,997,1017,930,950,958,910,851,831,811,842,778,774,776,778,775,777,783,815,791,802,777,791,782,774,792,795,818,837,836,817,801,817,801,813,814,806,815,832,812,828,816,679,648,650,652,668,734,829,926,1013,1123,1070,1131,1024,1112,991,1068,958,940,924,942,891,874,857,922,824,807,791,774,757,740,724,707,690,674,660,656,658,660,657,651,666,655,670,698,660,664,674,678,686,676,677,684,679,680,670,672,664,682,664,677,679,680,676,678,699,1019,993,1024,1039,1077,1334,1530,1713,1818,1871,1849,1798,1781,1730,1712,1662,1628,1594,1537,1526,1631,1458,1400,1390,1356,1322,1288,1254,1216,1187,1164,1119,1085,1054,1035,1036,1042,1048,1058,1057,1070,1076,1075,1113,1069,1087,1090,1084,1113,1089,1092,1093,1089,1097,1081,1085,1078,1093,1077,1093,1089,1107,1089,1099,1104,423,421,423,424,426,459,520,581,642,690,711,687,676,665,659,642,631,625,614,598,587,575,564,553,542,531,520,512,497,486,475,464,453,442,431,426,428,429,420,417,423,429,433,433,423,432,423,434,427,424,430,429,429,440,437,434,426,433,429,440,433,433,433,440,434,482,533,490,487,517,554,605,702,776,822,840,815,813,763,775,801,748,735,722,686,695,682,669,656,642,629,616,583,589,576,592,550,519,506,511,490,508,509,509,484,490,493,486,504,496,513,507,496,516,494,498,495,494,504,500,500,495,499,495,493,499,501,499,518,504,818,781,784,786,844,981,1030,1183,1237,1405,1377,1331,1219,1200,1182,1244,1224,1132,1139,1154,1139,1106,1030,1035,990,993,949,929,909,888,889,848,827,854,794,791,793,795,804,805,815,814,825,863,817,832,833,833,860,832,833,838,835,841,823,827,824,836,818,828,830,840,829,838,843,651,653,654,656,677,851,947,1099,1217,1258,1269,1227,1219,1177,1169,1128,1103,1078,1054,1029,1004,980,955,930,905,881,856,831,807,782,769,732,708,683,663,663,668,673,663,687,679,667,668,678,677,684,678,705,689,694,703,684,686,686,702,692,689,697,766,723,712,693,710,702,710,862,841,837,839,892,988,1123,1252,1333,1373,1383,1345,1327,1340,1283,1261,1302,1247,1227,1164,1152,1130,1138,1086,1093,1042,1020,1084,1003,955,933,911,911,889,855,851,875,847,894,873,870,881,883,904,942,939,889,922,902,885,889,931,935,937,931,952,939,958,935,916,916,900,885,882,870,232,233,233,234,235,244,276,307,375,423,410,432,428,424,393,419,382,376,371,365,359,354,312,306,300,294,288,282,276,270,264,258,252,246,240,236,236,237,233,220,219,220,240,242,227,228,231,234,247,240,253,250,257,236,247,238,248,258,258,262,236,245,265,277,240,497,483,500,497,501,534,599,652,748,819,769,769,768,776,750,730,709,698,686,674,662,650,624,626,622,609,572,583,590,557,555,542,519,494,494,478,495,488,486,501,483,493,496,494,506,515,488,490,493,498,493,487,491,494,495,493,494,492,492,495,486,500,492,502,486,1367,1344,1390,1424,1543,1728,1959,2022,2178,2218,2208,2091,2134,2072,2015,1968,1935,1900,1913,1868,1819,1808,1725,1701,1663,1706,1628,1568,1526,1502,1468,1421,1404,1369,1370,1368,1359,1375,1430,1429,1435,1480,1465,1457,1459,1467,1458,1488,1487,1475,1497,1493,1509,1499,1491,1474,1452,1465,1453,1452,1442,1466,1451,1474,1427,298,299,325,301,302,319,361,412,424,452,461,455,450,444,439,433,428,422,417,411,406,401,402,394,400,391,384,377,384,365,361,331,323,315,307,303,304,304,297,302,299,302,304,304,302,309,299,302,300,301,300,307,308,307,304,304,304,302,311,318,302,309,301,305,304,725,726,712,741,742,927,1033,1158,1329,1309,1304,1306,1246,1222,1210,1251,1163,1197,1133,1092,1069,1055,1064,998,1010,983,947,930,872,876,861,810,796,763,752,721,748,732,743,785,744,746,763,746,755,761,761,766,776,754,766,759,768,764,774,778,774,776,805,760,777,779,798,772,771,547,540,542,544,551,602,682,762,840,885,903,876,862,848,847,819,805,803,789,763,748,734,720,706,692,677,663,659,635,620,606,592,578,564,551,547,548,550,536,531,539,559,533,545,537,547,536,538,542,538,533,537,539,545,541,546,539,539,541,539,541,547,534,549,541,550,543,542,547,553,603,682,760,838,883,901,875,861,847,846,819,805,803,789,763,749,730,716,707,693,679,665,661,633,623,609,595,581,567,554,550,551,553,540,547,548,542,544,540,550,549,550,545,544,545,549,547,553,546,553,557,546,545,548,549,549,553,544,549,545,661,680,682,684,684,770,870,979,1069,1093,1092,1059,1060,1038,1021,1014,1005,988,970,962,948,921,891,855,864,867,829,807,769,756,758,722,723,713,692,688,690,692,671,677,674,689,678,684,679,690,691,678,682,684,685,682,678,682,685,686,684,686,680,685,686,700,698,702,691,971,971,1006,1039,1066,1245,1405,1541,1564,1598,1546,1587,1539,1508,1495,1546,1497,1490,1363,1466,1314,1290,1252,1286,1204,1175,1150,1204,1135,1179,1093,1057,1070,1037,1035,1001,990,997,1000,1000,1006,1014,1021,1027,1032,1014,1020,1031,1021,1027,1043,1027,1028,1024,1037,1034,1035,1042,1040,1036,1054,1040,1040,1049,1039,1212,1215,1222,1263,1371,1580,1892,1963,2022,2088,2027,2074,1986,1990,1866,1871,1803,1843,1861,1743,1759,1667,1659,1596,1603,1524,1528,1482,1435,1406,1398,1322,1298,1249,1252,1234,1280,1250,1321,1296,1312,1371,1332,1344,1332,1317,1323,1337,1334,1318,1323,1356,1386,1379,1353,1335,1317,1333,1318,1312,1310,1342,1325,1351,1312,558,549,570,572,560,653,733,764,855,915,887,922,888,859,879,910,816,810,769,775,761,748,708,702,676,675,644,698,665,662,622,622,625,589,585,575,571,568,588,571,556,560,580,580,583,585,571,578,608,602,601,608,605,640,575,572,586,596,622,608,592,607,611,586,580,1085,1073,1066,1100,1177,1316,1554,1627,1706,1751,1739,1711,1687,1658,1632,1621,1605,1581,1508,1586,1437,1440,1398,1371,1358,1303,1427,1274,1247,1221,1179,1165,1133,1102,1089,1099,1089,1092,1135,1128,1118,1129,1227,1222,1172,1195,1175,1261,1206,1204,1222,1179,1175,1228,1216,1167,1236,1184,1181,1262,1215,1271,1243,1280,1219,457,458,460,461,464,502,568,634,700,731,736,773,716,706,696,739,683,671,659,647,637,627,611,599,587,575,563,551,539,527,515,504,492,490,468,464,465,466,458,456,457,461,462,461,464,460,467,465,462,462,467,467,468,463,464,471,464,468,461,469,470,468,465,463,460,923,998,935,936,1038,1196,1338,1458,1639,1564,1558,1567,1486,1518,1458,1450,1409,1427,1394,1370,1325,1308,1279,1250,1202,1224,1142,1195,1123,1124,1038,1019,1017,957,946,938,940,945,974,942,948,948,984,974,960,955,959,975,1015,998,1001,1004,1009,988,1015,991,990,1016,1030,1012,993,996,1023,1036,1009,325,326,327,328,329,394,396,442,488,532,542,534,525,516,508,499,490,482,473,464,456,447,438,430,421,412,404,395,387,378,369,361,352,343,335,330,331,332,318,318,318,319,323,326,323,324,326,326,324,324,325,326,325,326,328,328,328,327,328,332,331,347,346,349,346,690,692,701,770,726,946,973,1113,1222,1265,1260,1293,1300,1180,1167,1144,1121,1098,1075,1052,1029,1006,983,960,928,992,910,867,836,821,798,775,752,729,711,777,713,717,737,741,735,833,774,755,764,768,754,756,760,770,774,772,756,767,754,758,760,749,748,751,753,751,754,748,733,501,502,504,506,510,555,628,702,761,821,840,814,801,788,775,762,749,735,709,709,696,683,670,657,643,630,617,604,591,578,555,551,538,525,513,509,510,511,539,490,487,487,513,509,511,496,496,508,553,515,532,537,541,536,509,514,525,556,572,549,513,513,567,516,509,0,0,0,0,0,0,0,0,0,0,0,0,0,0,0,0,0,0,0,0,0,0,0,0,0,0,0,0,0,0,0,0,0,0,0,0,0,0,0,0,0,0,0,0,0,0,0,0,0,0,0,0,0,0,0,0,0,0,0,0,0,0,0,0,0,1068,1091,1001,1039,1085,1250,1444,1611,1676,1832,1659,1826,1742,1614,1553,1563,1500,1516,1624,1456,1447,1391,1361,1330,1315,1269,1339,1238,1196,1194,1138,1087,1056,1110,1012,1094,1102,1110,1080,1114,1082,1092,1121,1108,1087,1101,1103,1119,1113,1088,1099,1105,1116,1126,1116,1122,1103,1115,1120,1130,1133,1134,1137,1137,1127,983,1003,962,1002,1043,1326,1519,1670,1737,1778,1791,1768,1686,1690,1656,1623,1608,1574,1564,1511,1454,1420,1386,1352,1340,1255,1251,1217,1183,1123,1089,1082,1049,1032,998,999,980,1025,1038,1035,1040,1062,1046,1046,1108,1104,1049,1074,1128,1080,1032,1112,1156,1156,1170,1123,1110,1123,1128,1097,1063,1070,1065,1044,1030,1048,998,1016,1034,1135,1209,1367,1507,1631,1728,1625,1698,1631,1638,1578,1612,1459,1467,1428,1436,1356,1365,1305,1377,1284,1228,1202,1194,1161,1118,1100,1074,1049,1042,1013,1056,1029,1016,1038,1039,1037,1050,1050,1045,1074,1069,1058,1057,1069,1072,1146,1147,1160,1119,1072,1066,1068,1069,1067,1069,1070,1066,1061,1111,1063,599,610,603,605,617,688,767,856,941,981,968,954,941,940,913,909,893,889,861,846,832,818,798,794,767,762,746,720,704,688,673,657,642,636,612,608,619,621,624,596,605,610,598,625,610,616,616,610,637,610,608,610,607,626,623,614,608,615,610,614,616,615,614,645,622,1021,1025,1028,1044,1099,1227,1389,1530,1632,1669,1662,1636,1609,1583,1556,1530,1503,1477,1450,1424,1397,1371,1344,1317,1291,1264,1261,1211,1185,1158,1132,1105,1079,1055,1040,1037,1040,1042,1089,1077,1069,1157,1136,1128,1111,1098,1118,1158,1124,1158,1161,1149,1093,1103,1128,1135,1138,1112,1154,1208,1149,1141,1169,1126,1126,427,428,429,430,432,464,523,583,643,690,700,705,678,667,656,645,634,623,612,601,590,593,568,557,547,536,525,514,503,492,481,470,459,448,437,433,434,435,419,427,425,427,425,423,432,431,433,431,425,430,425,432,432,434,438,444,430,429,434,438,440,440,435,434,433,1270,1232,1293,1283,1432,1704,2043,2020,2206,2113,2083,2059,2023,1975,1950,1914,1889,1895,1804,1768,1743,1707,1695,1613,1586,1550,1559,1477,1441,1405,1368,1324,1294,1263,1304,1252,1297,1268,1333,1300,1303,1306,1341,1364,1346,1349,1338,1342,1382,1365,1404,1365,1384,1390,1412,1352,1367,1398,1426,1429,1411,1425,1457,1491,1394,458,459,460,461,463,486,537,588,639,682,696,686,677,667,658,648,639,629,620,610,601,591,582,572,563,553,544,534,525,515,506,496,487,477,468,463,464,465,442,449,452,472,460,453,453,457,449,454,453,454,452,447,448,453,452,450,454,452,447,455,450,460,454,455,452,1316,1322,1334,1398,1580,1730,1943,2066,2136,2125,2107,2148,2079,2004,1978,1942,1962,1875,1873,1862,1829,1757,1724,1759,1649,1622,1627,1582,1532,1497,1478,1414,1414,1383,1371,1363,1341,1380,1440,1437,1418,1432,1424,1455,1432,1440,1471,1518,1447,1468,1467,1467,1459,1489,1482,1458,1457,1448,1463,1494,1456,1471,1482,1467,1453,1314,1276,1337,1372,1501,1765,1975,2143,2265,2224,2193,2131,2130,2091,2055,2019,1993,1948,1904,1866,1829,1809,1765,1702,1673,1635,1606,1570,1499,1486,1443,1394,1376,1335,1321,1325,1325,1354,1371,1411,1411,1404,1488,1438,1434,1484,1424,1484,1471,1464,1455,1419,1448,1474,1618,1558,1516,1450,1429,1449,1434,1470,1453,1497,1410,1325,1306,1318,1379,1505,1703,1992,2114,2206,2268,2247,2191,2133,2093,2097,2047,2027,2004,1926,1914,1819,1809,1756,1716,1686,1619,1624,1540,1526,1558,1501,1405,1370,1361,1299,1320,1307,1314,1384,1395,1396,1412,1471,1472,1424,1460,1415,1494,1451,1480,1436,1419,1444,1471,1444,1448,1476,1467,1440,1452,1440,1468,1460,1448,1415,491,495,497,499,503,499,565,656,725,746,781,743,731,744,706,694,682,670,658,646,634,622,659,675,586,594,607,550,538,544,532,541,490,478,466,521,503,504,487,501,484,490,499,495,509,515,490,493,495,501,494,488,493,496,498,493,496,492,493,494,488,498,493,502,487,1705,1676,1766,1845,2094,2399,2694,2712,2888,2779,2789,2737,2695,2635,2563,2516,2481,2474,2375,2368,2293,2245,2213,2122,2124,2047,2044,1953,1906,1859,1812,1754,1732,1702,1744,1693,1711,1711,1896,1892,1910,1918,1916,1955,1923,1942,1914,1957,1950,1927,1914,1923,1940,1952,1942,1958,1958,1937,1943,1938,1927,1922,1952,2035,1956,913,916,919,928,1000,1092,1237,1371,1477,1489,1485,1462,1438,1415,1391,1367,1366,1362,1296,1273,1249,1225,1202,1195,1155,1149,1125,1100,1090,1065,1028,989,966,958,946,927,930,932,974,951,955,948,960,959,1008,1006,962,1000,986,961,962,1019,1022,1022,1017,1030,1017,1043,1021,1004,999,981,961,959,953,1035,1033,1040,1060,1177,1348,1549,1707,1845,1811,1786,1774,1734,1691,1678,1639,1619,1582,1543,1511,1491,1459,1412,1374,1352,1320,1294,1256,1225,1193,1166,1121,1095,1062,1049,1051,1058,1065,1074,1080,1074,1128,1073,1113,1081,1112,1101,1104,1121,1088,1105,1092,1095,1113,1105,1104,1101,1098,1111,1096,1103,1106,1105,1142,1115,1613,1635,1680,1903,2304,2883,3033,3124,3311,3186,3160,3084,3025,2950,2882,2822,2754,2687,2612,2552,2484,2425,2351,2281,2217,2166,2079,2017,1943,1883,1803,1814,1691,1673,1657,1689,1695,1706,1877,1888,1839,1856,1882,1877,1874,1895,1886,1900,1945,1892,1909,1917,1922,1928,1905,1932,1945,1941,1983,1933,1925,1935,1986,1925,1932,997,1000,1003,1020,1123,1213,1424,1547,1627,1625,1618,1628,1566,1541,1515,1489,1519,1437,1411,1420,1395,1360,1332,1299,1256,1252,1226,1195,1183,1156,1116,1076,1100,1068,1039,1012,1014,1058,1035,1037,1046,1060,1047,1050,1045,1059,1043,1068,1054,1052,1069,1069,1090,1103,1083,1076,1069,1076,1074,1068,1081,1099,1069,1081,1070,543,547,549,550,557,557,629,725,800,820,854,815,802,814,776,763,750,737,724,711,698,685,750,688,646,681,665,608,595,600,587,596,567,530,518,573,578,579,548,536,547,549,533,561,537,550,545,559,567,561,537,545,553,548,548,555,570,560,555,561,549,547,562,621,582,1434,1444,1470,1553,1759,1899,2209,2260,2316,2312,2293,2286,2274,2180,2149,2107,2125,2040,1997,2085,1958,1918,1877,1870,1783,1767,1754,1716,1660,1622,1608,1534,1535,1539,1485,1456,1463,1509,1589,1588,1579,1667,1634,1635,1625,1613,1627,1664,1627,1665,1679,1665,1606,1642,1635,1649,1650,1620,1673,1739,1704,1703,1716,1652,1654,1346,1355,1369,1436,1637,1831,2058,2172,2172,2172,2231,2150,2141,2124,2089,2054,2065,1990,1948,1880,1905,1863,1844,1812,1774,1719,1691,1663,1567,1529,1517,1501,1471,1450,1395,1369,1375,1439,1466,1463,1468,1465,1491,1533,1481,1509,1511,1537,1527,1526,1511,1520,1511,1535,1501,1504,1518,1517,1501,1537,1524,1537,1518,1527,1541,1315,1262,1270,1336,1450,1638,1855,1978,2106,2130,2126,2063,2011,2015,1947,1900,1901,1878,1801,1793,1737,1717,1680,1660,1640,1572,1565,1535,1501,1451,1407,1374,1317,1321,1277,1293,1308,1292,1318,1315,1313,1313,1321,1340,1329,1338,1345,1356,1346,1363,1364,1349,1369,1368,1419,1363,1371,1394,1373,1395,1381,1372,1401,1391,1401,1541,1525,1586,1656,1898,2148,2393,2489,2634,2565,2573,2496,2451,2441,2364,2321,2296,2330,2190,2146,2126,2076,2062,1962,1956,1931,1884,1820,1776,1725,1715,1653,1587,1565,1566,1547,1593,1569,1697,1693,1697,1708,1693,1710,1708,1709,1720,1796,1713,1720,1735,1733,1740,1753,1758,1750,1734,1744,1742,1748,1747,1757,1747,1763,1757,220,220,221,222,222,230,260,289,319,349,364,358,352,347,341,335,330,324,318,313,307,301,295,290,284,278,273,267,261,256,250,244,238,233,227,223,223,224,208,209,210,216,213,212,216,220,211,212,215,223,215,215,217,217,211,213,217,222,219,212,216,220,213,216,215,1091,1108,1111,1140,1268,1437,1678,1802,1953,1925,1898,1877,1830,1798,1776,1723,1702,1652,1623,1590,1564,1553,1498,1465,1441,1413,1401,1324,1306,1273,1239,1198,1170,1127,1125,1117,1134,1124,1159,1144,1145,1149,1147,1180,1180,1188,1168,1176,1195,1175,1176,1175,1175,1206,1208,1175,1181,1192,1190,1202,1191,1182,1204,1242,1205,1736,1749,1836,1892,2136,2469,2926,2754,2921,2819,2778,2742,2695,2637,2600,2553,2518,2510,2411,2364,2356,2328,2256,2165,2127,2080,2116,1985,1938,1890,1843,1792,1820,1770,1775,1724,1823,1742,2014,2046,2018,2039,2047,2060,2037,2050,2046,2067,2080,2046,2042,2047,2075,2079,2071,2090,2087,2068,2081,2069,2081,2088,2114,2101,2072,1154,1157,1162,1200,1347,1447,1672,1802,1865,1871,1860,1866,1852,1771,1742,1712,1738,1693,1623,1628,1598,1559,1528,1587,1480,1437,1440,1405,1355,1325,1282,1250,1258,1265,1198,1171,1174,1218,1245,1221,1225,1229,1223,1235,1229,1228,1242,1311,1236,1246,1257,1259,1261,1271,1285,1271,1259,1260,1261,1272,1267,1266,1268,1280,1279,164,164,165,165,166,170,193,215,238,260,275,270,266,261,257,253,248,244,240,235,231,226,222,218,213,209,205,200,196,192,187,183,178,174,170,166,167,167,155,161,161,163,164,165,159,166,157,170,159,161,162,163,170,177,167,163,164,158,167,166,163,165,158,162,157,807,809,810,813,886,1008,1166,1318,1457,1438,1419,1406,1381,1343,1330,1304,1291,1253,1227,1202,1188,1162,1115,1090,1074,1048,1023,997,972,946,921,887,867,837,823,823,830,836,845,844,839,846,854,858,900,885,850,871,875,867,940,968,990,934,886,912,909,923,901,875,888,851,861,859,846,424,426,427,428,430,462,522,583,643,691,700,689,678,667,656,645,634,623,612,601,590,579,568,557,546,535,523,512,501,490,479,468,457,446,435,431,432,433,429,424,429,431,433,439,425,437,440,429,433,432,433,437,437,448,441,444,432,447,439,449,448,457,456,464,463,1395,1381,1418,1461,1639,1840,2116,2181,2248,2235,2223,2284,2199,2121,2080,2042,2096,1984,1979,1963,1932,1854,1819,1793,1761,1722,1730,1668,1588,1574,1522,1472,1460,1400,1445,1424,1415,1436,1482,1486,1499,1540,1533,1519,1501,1533,1506,1514,1525,1503,1504,1519,1519,1549,1704,1636,1534,1524,1521,1513,1506,1499,1524,1542,1502,1071,1037,1040,1062,1136,1269,1439,1575,1740,1686,1718,1652,1625,1598,1571,1544,1517,1491,1464,1437,1461,1383,1356,1391,1302,1313,1249,1278,1224,1197,1197,1148,1113,1092,1052,1049,1052,1087,1089,1087,1087,1090,1120,1137,1103,1123,1110,1146,1123,1137,1131,1130,1116,1137,1119,1129,1122,1111,1111,1146,1127,1146,1127,1123,1126,0,0,0,0,0,0,0,0,0,0,0,0,0,0,0,0,0,0,0,0,0,0,0,0,0,0,0,0,0,0,0,0,0,0,0,0,0,0,0,0,0,0,0,0,0,0,0,0,0,0,0,0,0,0,0,0,0,0,0,0,0,0,0,0,0,506,507,509,510,514,544,603,715,720,765,777,811,755,791,733,771,712,701,719,707,668,657,647,662,625,614,603,592,581,571,560,549,538,527,538,533,513,515,508,509,516,527,521,532,529,544,532,524,541,526,534,532,533,541,522,521,531,533,533,517,527,536,521,533,523,1621,1634,1694,1768,1954,2311,2577,2602,2773,2650,2611,2579,2533,2499,2457,2399,2367,2354,2257,2240,2205,2179,2157,2050,1996,1945,1951,1862,1855,1772,1728,1723,1688,1616,1674,1635,1670,1625,1800,1793,1812,1885,1816,1854,1812,1839,1817,1842,1872,1833,1824,1828,1835,1859,1869,1854,1838,1845,1855,1850,1828,1808,1879,1858,1802,1021,1025,1028,1044,1099,1227,1389,1530,1632,1669,1662,1636,1609,1583,1556,1530,1503,1477,1450,1424,1397,1371,1344,1317,1291,1264,1261,1211,1185,1158,1132,1105,1079,1055,1040,1037,1040,1042,1089,1077,1069,1157,1136,1128,1111,1098,1118,1158,1124,1158,1161,1149,1093,1103,1128,1135,1138,1112,1154,1208,1149,1141,1169,1126,1126,1267,1271,1281,1320,1426,1606,1841,1909,1980,1996,1985,1954,2004,1894,1892,1833,1803,1772,1742,1712,1681,1651,1621,1590,1560,1530,1499,1469,1439,1409,1378,1348,1320,1307,1286,1285,1288,1291,1310,1342,1353,1357,1359,1342,1350,1378,1341,1343,1365,1329,1349,1349,1368,1378,1527,1479,1395,1352,1357,1349,1336,1335,1348,1392,1323,671,673,685,677,694,767,887,923,998,1032,1037,1022,1023,992,977,977,947,933,918,903,888,873,858,843,828,813,799,784,769,754,739,724,709,694,683,690,692,683,676,680,670,680,675,697,675,686,693,772,677,677,671,678,697,663,680,680,676,684,670,671,685,684,671,683,672,1185,1151,1153,1187,1307,1529,1781,2105,2044,2063,2018,1980,1968,1930,1868,1903,1817,1779,1741,1703,1666,1628,1636,1552,1514,1476,1532,1401,1363,1325,1287,1250,1212,1181,1219,1168,1227,1181,1230,1223,1237,1257,1241,1243,1243,1249,1254,1290,1260,1243,1258,1283,1305,1285,1279,1268,1243,1269,1251,1246,1241,1274,1256,1277,1249,212,213,213,214,215,221,250,278,306,334,350,344,339,333,328,323,317,312,306,301,295,290,285,279,274,268,263,257,252,247,241,236,230,225,219,215,216,216,202,202,204,210,209,204,204,209,209,207,209,207,204,203,210,212,241,222,210,209,208,207,205,205,207,207,203,1267,1270,1321,1337,1476,1781,1981,2150,2311,2250,2202,2211,2146,2106,2041,2000,2029,1942,1901,1903,1820,1819,1738,1697,1656,1615,1617,1537,1493,1493,1443,1373,1389,1302,1320,1289,1297,1378,1397,1399,1395,1427,1450,1443,1424,1424,1440,1474,1438,1481,1496,1495,1447,1436,1453,1457,1460,1437,1478,1520,1473,1470,1476,1455,1452,1223,1210,1229,1263,1414,1660,1901,2079,2168,2181,2145,2095,2039,2043,1970,1924,1936,1887,1865,1812,1767,1721,1661,1642,1602,1560,1614,1482,1432,1394,1371,1332,1282,1254,1251,1239,1247,1264,1276,1322,1288,1315,1305,1296,1295,1306,1307,1298,1318,1298,1303,1305,1310,1313,1320,1336,1327,1327,1356,1314,1332,1372,1373,1357,1346,1453,1457,1456,1534,1737,1994,2230,2362,2554,2484,2455,2397,2335,2354,2250,2207,2167,2152,2082,2109,1994,2008,1908,1919,1850,1845,1788,1722,1699,1610,1593,1550,1509,1460,1466,1475,1459,1468,1586,1579,1574,1613,1598,1589,1663,1669,1591,1643,1633,1610,1604,1644,1644,1665,1656,1665,1649,1658,1659,1635,1616,1620,1597,1596,1578,430,432,433,434,436,468,530,593,655,706,716,704,693,682,670,659,647,636,624,613,602,590,579,567,556,544,533,522,510,499,487,476,464,453,442,437,438,439,434,426,432,439,432,461,439,463,460,441,471,444,444,445,441,457,442,439,448,449,442,440,442,450,440,455,439,1657,1590,1646,1740,1997,2270,2513,2697,2771,2731,2675,2673,2604,2602,2484,2496,2410,2362,2314,2306,2257,2169,2137,2072,2024,1975,2047,1908,1831,1782,1768,1695,1649,1627,1636,1636,1661,1625,1834,1813,1801,1811,1803,1843,1858,1862,1850,1934,1850,1839,1835,1893,1891,1905,1909,1895,1877,1901,1879,1876,1864,1851,1832,1826,1805,1078,1082,1084,1110,1214,1490,1655,1785,1865,1883,1859,1845,1825,1774,1759,1731,1733,1704,1623,1604,1568,1533,1498,1462,1445,1390,1355,1320,1301,1265,1213,1168,1174,1102,1172,1098,1135,1110,1162,1131,1131,1137,1181,1198,1172,1162,1165,1179,1212,1195,1238,1195,1213,1216,1238,1182,1200,1228,1254,1262,1241,1260,1289,1320,1222,954,952,959,965,1054,1237,1460,1641,1745,1760,1720,1687,1679,1646,1588,1555,1546,1512,1479,1446,1419,1379,1346,1312,1279,1246,1306,1179,1151,1112,1079,1045,1012,981,966,967,973,984,988,983,978,988,1005,1016,1006,1011,1008,1015,1034,1026,1020,1009,1016,1035,1026,1014,1016,1027,1017,1029,1032,1029,1026,1049,1047,1768,1783,2006,2146,2468,2708,2942,3281,3217,3155,3099,3097,3011,2967,2879,2904,2788,2750,2738,2653,2587,2532,2507,2458,2364,2315,2243,2159,2082,2012,1942,1877,1832,1832,1813,1819,1852,1865,2199,2170,2165,2185,2182,2236,2245,2245,2220,2316,2215,2213,2218,2264,2275,2278,2290,2299,2271,2293,2268,2262,2263,2245,2228,2239,2221,1162,1165,1169,1207,1328,1624,1796,1922,2062,2016,1989,1973,1964,1898,1881,1850,1841,1819,1789,1715,1711,1640,1612,1564,1554,1523,1451,1414,1396,1363,1300,1261,1258,1186,1227,1182,1234,1195,1271,1268,1246,1261,1254,1298,1259,1275,1303,1351,1276,1298,1294,1295,1287,1312,1311,1283,1283,1273,1287,1317,1288,1300,1302,1304,1287,482,483,485,486,489,526,624,661,729,780,789,776,764,752,774,727,715,703,690,678,666,653,641,629,616,604,592,580,567,555,543,554,518,506,494,512,490,492,478,483,490,500,492,495,486,495,485,510,491,487,499,494,513,529,507,500,506,499,504,502,510,521,498,503,496,1386,1413,1454,1494,1648,1980,2175,2455,2504,2432,2381,2387,2320,2276,2209,2165,2271,2101,2058,2056,1999,1967,1883,1867,1796,1752,1751,1675,1621,1619,1566,1499,1516,1445,1441,1410,1483,1508,1533,1521,1519,1542,1635,1610,1575,1605,1571,1623,1651,1637,1644,1597,1619,1639,1663,1585,1628,1617,1618,1626,1606,1632,1648,1693,1623,1389,1416,1456,1494,1647,1978,2173,2439,2502,2431,2381,2386,2319,2271,2208,2165,2271,2102,2058,2057,2000,1968,1885,1864,1798,1754,1753,1677,1624,1621,1569,1502,1519,1448,1444,1413,1486,1511,1560,1556,1559,1597,1619,1610,1583,1582,1606,1649,1606,1646,1649,1678,1639,1631,1651,1631,1620,1606,1640,1688,1627,1639,1642,1634,1613,1434,1459,1432,1553,1669,1937,2179,2386,2390,2439,2382,2384,2290,2284,2218,2224,2197,2109,2042,2008,1966,1963,1882,1906,1791,1746,1787,1717,1632,1601,1598,1552,1486,1439,1444,1478,1432,1437,1517,1550,1554,1554,1570,1551,1562,1591,1556,1552,1577,1541,1565,1565,1582,1595,1746,1696,1613,1570,1575,1566,1558,1573,1588,1636,1564,1464,1503,1468,1549,1726,2015,2265,2437,2561,2547,2463,2419,2419,2355,2284,2306,2219,2194,2197,2095,2038,2022,1956,1974,1917,1829,1811,1776,1715,1633,1597,1592,1529,1474,1495,1488,1497,1478,1611,1574,1582,1621,1586,1612,1588,1635,1621,1613,1621,1608,1641,1626,1660,1636,1612,1604,1635,1620,1610,1600,1621,1623,1609,1617,1604,670,672,673,679,693,752,843,922,1009,1043,1049,1026,1023,995,980,965,950,935,920,905,907,874,859,844,829,814,814,784,769,758,739,728,712,693,682,678,680,682,671,671,682,698,686,702,695,718,706,691,720,698,728,722,725,721,689,687,701,705,702,683,697,706,691,706,693,1029,1027,1029,1032,1148,1324,1581,1737,1853,1875,1811,1798,1788,1724,1678,1659,1629,1613,1585,1543,1490,1455,1420,1403,1368,1333,1392,1263,1228,1193,1158,1128,1088,1045,1042,1043,1040,1055,1066,1068,1061,1080,1076,1078,1067,1074,1072,1069,1067,1070,1066,1075,1070,1065,1072,1078,1074,1072,1069,1077,1073,1088,1080,1085,1074,1650,1621,1670,1778,2022,2324,2535,2836,2915,2921,2715,2725,2642,2663,2522,2543,2447,2428,2350,2301,2252,2252,2199,2106,2103,2050,2094,2094,1862,1855,1933,1719,1706,1727,1690,1640,1738,1656,1923,1911,1878,1901,1900,1963,1968,1984,1943,2039,1938,1964,1956,2004,1981,2056,2008,1981,1968,1980,1991,2003,1989,2003,1966,1966,1924,1345,1323,1336,1413,1547,1846,2052,2173,2274,2317,2299,2207,2194,2124,2103,2069,2083,2025,1997,1919,1942,1851,1795,1753,1730,1746,1629,1588,1566,1521,1464,1442,1408,1345,1364,1342,1373,1398,1429,1426,1436,1472,1451,1452,1450,1483,1473,1474,1457,1451,1450,1453,1475,1441,1467,1458,1455,1463,1451,1464,1459,1473,1450,1468,1459,521,522,524,531,530,575,652,694,756,823,832,818,805,792,778,765,752,723,711,700,721,677,666,655,643,661,620,612,598,579,566,553,539,546,534,529,530,532,523,521,525,530,530,532,532,527,530,536,538,532,532,544,540,534,544,538,533,532,532,544,530,534,533,540,530,726,728,729,731,780,914,1084,1251,1355,1386,1352,1325,1324,1297,1245,1219,1216,1189,1162,1135,1108,1081,1054,1027,999,972,945,918,891,864,837,810,783,756,740,739,745,750,740,747,753,781,755,764,746,753,748,746,755,756,751,767,766,775,763,772,767,770,774,767,769,791,766,779,772,608,609,611,612,624,675,797,825,897,1024,938,925,998,898,885,871,858,844,831,894,809,883,777,764,750,737,724,710,697,683,670,656,643,630,619,615,617,618,595,593,609,697,621,595,615,642,623,608,617,615,616,613,622,622,639,623,619,615,625,632,616,628,622,625,631,1296,1343,1311,1381,1518,1775,2057,2264,2348,2296,2271,2237,2179,2148,2142,2058,2066,2037,1954,1936,1911,1837,1779,1758,1691,1649,1697,1624,1517,1470,1442,1426,1423,1375,1317,1318,1326,1364,1371,1369,1375,1382,1379,1384,1390,1411,1390,1398,1389,1394,1402,1401,1402,1404,1411,1420,1411,1419,1415,1410,1426,1418,1432,1424,1415,979,984,977,995,1076,1249,1460,1635,1733,1758,1763,1687,1681,1649,1617,1561,1588,1541,1518,1457,1458,1425,1361,1329,1297,1265,1262,1200,1168,1136,1104,1072,1040,1036,995,996,1001,1007,1019,1013,1031,1063,1043,1053,1039,1037,1050,1047,1051,1031,1059,1073,1093,1076,1065,1049,1024,1060,1034,1035,1030,1059,1044,1065,1029,550,548,549,551,557,598,663,728,801,843,842,838,818,806,794,782,770,758,753,735,723,711,699,687,675,663,656,639,627,616,604,592,580,568,557,554,555,556,555,550,550,557,559,552,567,556,556,559,556,555,564,563,557,559,588,573,557,559,555,557,560,565,564,561,557,0,0,0,0,0,0,0,0,0,0,0,0,0,0,0,0,0,0,0,0,0,0,0,0,0,0,0,0,0,0,0,0,0,0,0,0,0,0,0,0,0,0,0,0,0,0,0,0,0,0,0,0,0,0,0,0,0,0,0,0,0,0,0,0,0,1535,1502,1654,1657,1811,2104,2355,2661,2584,2601,2548,2524,2480,2481,2385,2464,2296,2361,2223,2157,2130,2083,2148,1990,1944,1910,1924,1787,1741,1695,1719,1618,1596,1576,1573,1538,1609,1566,1681,1742,1690,1718,1732,1715,1724,1741,1718,1729,1727,1712,1735,1733,1739,1741,1772,1772,1743,1744,1781,1716,1734,1741,1776,1756,1735,1267,1271,1281,1320,1426,1606,1841,1909,1980,1996,1985,1954,2004,1894,1892,1833,1803,1772,1742,1712,1681,1651,1621,1590,1560,1530,1499,1469,1439,1409,1378,1348,1320,1307,1286,1285,1288,1291,1310,1342,1353,1357,1359,1342,1350,1378,1341,1343,1365,1329,1349,1349,1368,1378,1527,1479,1395,1352,1357,1349,1336,1335,1348,1392,1323,1153,1164,1168,1232,1273,1428,1666,1808,1881,1871,1869,1839,1840,1780,1750,1734,1690,1695,1631,1601,1563,1543,1532,1526,1452,1398,1411,1386,1332,1302,1294,1243,1214,1192,1218,1177,1181,1163,1228,1228,1226,1236,1252,1235,1253,1256,1251,1241,1252,1259,1329,1277,1306,1302,1243,1252,1256,1268,1254,1249,1267,1241,1249,1267,1241,1488,1516,1561,1687,1755,2015,2200,2535,2530,2539,2380,2330,2277,2259,2224,2186,2179,2114,2092,2163,1990,1974,1941,1962,1827,1790,1828,1809,1687,1699,1602,1587,1573,1577,1556,1500,1581,1560,1665,1679,1648,1663,1663,1708,1671,1700,1719,1787,1694,1729,1705,1718,1702,1755,1727,1695,1706,1688,1703,1739,1716,1743,1725,1740,1704,377,378,380,381,382,407,459,511,564,610,620,610,601,591,581,571,562,552,542,533,523,513,504,494,484,475,465,455,446,436,426,416,407,397,387,383,384,385,373,376,376,384,426,418,399,431,404,427,414,429,416,388,395,420,401,385,430,402,388,416,410,433,419,407,403,1744,1604,1651,1814,2053,2345,2626,2744,2722,2728,2739,2625,2603,2562,2513,2607,2443,2360,2350,2271,2229,2150,2130,2078,2008,2006,1932,1882,1836,1787,1709,1675,1651,1606,1626,1634,1660,1645,1785,1802,1769,1790,1782,1832,1793,1826,1842,1912,1819,1854,1833,1843,1830,1881,1854,1822,1835,1817,1834,1868,1843,1873,1854,1870,1836,591,593,595,598,609,668,757,845,929,973,977,961,949,930,914,899,883,867,852,836,821,805,789,774,758,743,729,711,696,680,665,649,633,618,606,601,602,604,592,598,599,606,609,609,614,605,600,614,606,601,609,613,610,614,631,618,613,611,616,609,616,617,609,617,609,427,428,429,431,433,467,530,592,654,702,710,699,688,676,665,654,642,631,619,608,597,585,574,563,551,540,528,517,506,494,483,472,460,449,438,433,434,436,442,437,442,484,445,433,504,516,448,465,494,465,432,494,525,537,534,499,498,509,521,485,456,456,445,433,431,913,931,894,901,946,1049,1197,1330,1406,1450,1448,1425,1449,1379,1356,1333,1310,1287,1280,1324,1217,1237,1171,1151,1127,1102,1079,1057,1033,1035,1001,964,942,919,907,902,918,960,922,925,927,945,954,937,951,959,947,943,954,963,1017,953,978,1008,943,937,948,950,942,943,946,945,939,966,945,1250,1230,1236,1332,1494,1725,2023,2134,2146,2163,2155,2078,2063,2033,1993,1954,1942,1866,1866,1795,1762,1716,1681,1637,1614,1584,1518,1504,1439,1400,1357,1303,1279,1261,1253,1259,1285,1268,1328,1332,1329,1322,1329,1318,1332,1333,1320,1338,1352,1327,1330,1338,1344,1337,1337,1335,1332,1334,1335,1338,1338,1340,1328,1334,1344,466,468,469,471,474,512,580,648,716,763,773,761,748,736,724,711,699,687,674,662,650,637,625,613,601,588,576,564,551,539,527,514,502,490,478,473,475,476,470,473,473,492,513,500,486,517,495,514,516,522,628,626,645,547,495,478,517,486,478,496,496,511,502,498,495,908,911,913,965,975,1086,1286,1379,1500,1481,1567,1518,1463,1440,1430,1359,1371,1347,1321,1301,1241,1218,1232,1171,1147,1124,1100,1077,1054,1093,1007,983,995,938,925,977,924,926,967,947,967,971,962,953,1026,1028,965,996,983,954,952,1015,1023,1051,1014,1012,1011,1032,1035,1029,991,978,954,963,975,622,618,629,622,642,706,800,894,980,1024,1054,970,999,977,961,972,928,911,895,871,867,839,854,813,818,780,786,747,731,718,698,659,665,649,635,650,664,635,638,651,656,667,647,674,661,662,652,655,764,744,677,687,763,749,735,642,654,676,698,666,649,659,672,642,623,612,614,627,629,639,697,766,882,965,1011,1001,986,934,919,905,907,908,893,880,832,838,818,803,803,788,773,758,729,726,712,695,674,667,644,630,633,634,628,608,608,610,613,613,614,616,617,616,621,622,623,623,625,625,625,628,631,631,634,634,636,638,639,640,640,641,901,904,922,931,967,1110,1247,1364,1463,1499,1494,1445,1421,1421,1374,1374,1351,1311,1287,1280,1304,1210,1187,1184,1160,1136,1158,1104,1046,1041,999,976,953,948,936,931,917,920,938,944,962,984,999,1000,1008,966,965,996,954,944,955,962,959,952,983,971,946,946,957,951,943,953,965,984,946,1335,1305,1327,1403,1550,1786,2055,2186,2199,2217,2210,2134,2187,2081,2053,2034,2058,1980,1978,1906,1870,1788,1741,1708,1682,1682,1615,1601,1516,1493,1417,1390,1337,1348,1355,1338,1362,1345,1390,1368,1379,1392,1386,1406,1392,1396,1394,1413,1434,1406,1418,1401,1407,1436,1421,1413,1415,1426,1418,1442,1434,1427,1441,1456,1457,708,725,700,699,718,792,925,1011,1091,1141,1167,1126,1103,1089,1067,1053,1035,1016,998,999,962,962,940,907,885,870,848,834,812,813,776,761,742,724,710,706,708,725,710,707,706,715,710,733,744,733,715,724,737,726,722,717,718,741,741,725,724,722,720,724,723,723,726,762,722,711,716,718,716,744,820,924,1031,1124,1160,1165,1147,1122,1104,1086,1073,1051,1068,1049,999,981,962,944,923,907,889,879,874,833,815,793,778,760,741,755,724,726,728,715,721,716,732,723,735,723,732,739,723,723,728,725,724,721,722,728,729,726,726,721,726,729,741,738,744,730,926,929,932,943,1023,1118,1269,1385,1476,1501,1492,1481,1450,1423,1400,1403,1354,1326,1306,1289,1257,1234,1214,1186,1160,1142,1136,1092,1072,1074,1020,1002,965,957,967,941,935,942,942,945,969,982,1001,1000,1009,966,971,997,958,951,962,963,958,958,986,977,952,954,954,954,958,966,989,990,958,304,305,306,307,308,324,367,411,454,496,509,501,493,485,477,468,460,452,444,436,428,420,411,403,395,387,379,371,362,354,346,338,330,322,314,309,310,310,300,305,309,314,314,319,305,320,303,322,308,303,309,314,320,328,317,312,314,305,319,319,310,317,302,309,303,1720,1755,1835,2064,2347,2590,2839,2949,2986,2952,2962,2879,2895,2801,2814,2782,2710,2629,2637,2535,2450,2440,2325,2367,2276,2207,2174,2145,2032,1991,1947,1864,1813,1766,1782,1795,1802,1839,2077,2076,2108,2129,2142,2126,2148,2174,2171,2192,2223,2223,2276,2230,2214,2245,2298,2275,2251,2274,2353,2347,2367,2398,2390,2353,2349,636,636,638,640,638,698,812,868,1059,1018,1044,1028,1011,968,952,942,920,928,888,895,877,862,823,807,812,795,778,797,727,733,685,681,679,694,648,644,632,642,634,633,639,648,641,640,638,655,642,661,644,640,651,638,649,649,652,655,640,657,648,649,651,647,660,651,644,495,496,498,499,503,545,616,686,757,792,811,798,786,773,760,748,735,722,709,697,684,671,658,646,633,620,607,595,582,569,557,544,531,518,506,502,503,505,498,493,501,513,510,509,503,499,511,518,515,510,536,531,547,532,526,517,501,508,504,507,501,509,503,519,498,715,717,719,721,759,839,1024,1043,1131,1171,1171,1153,1134,1115,1097,1093,1060,1041,1022,1004,985,966,948,929,910,905,873,855,836,817,799,780,761,743,729,726,727,741,743,713,716,718,744,744,754,749,737,760,743,730,743,722,724,736,736,729,743,723,720,737,736,752,743,747,740,1558,1533,1550,1664,1843,2130,2391,2511,2564,2530,2504,2437,2418,2412,2328,2297,2280,2190,2196,2114,2072,2072,1987,2085,1898,1920,1817,1798,1762,1687,1640,1576,1621,1544,1535,1568,1594,1549,1654,1652,1667,1697,1670,1695,1673,1673,1671,1679,1706,1685,1692,1705,1704,1710,1702,1715,1682,1694,1704,1702,1695,1701,1692,1726,1711,923,926,928,1041,1002,1122,1271,1416,1496,1529,1523,1498,1473,1448,1423,1399,1369,1349,1324,1299,1274,1249,1224,1199,1174,1150,1125,1100,1075,1050,1022,1000,972,953,940,938,941,944,953,948,946,957,952,958,1011,997,957,992,975,954,953,997,1006,1012,1001,1019,1009,1026,1023,993,984,976,970,961,955,1297,1271,1305,1362,1509,1741,2010,2142,2155,2174,2168,2092,2079,2040,2036,1974,1964,1912,1914,1871,1777,1746,1703,1670,1636,1620,1577,1543,1480,1480,1401,1341,1327,1308,1346,1303,1328,1310,1352,1396,1351,1364,1373,1363,1371,1383,1378,1381,1402,1369,1381,1384,1388,1390,1387,1405,1404,1397,1407,1371,1404,1412,1427,1389,1386,523,525,527,528,534,582,659,736,813,858,864,850,837,823,809,795,782,768,754,741,727,713,699,686,672,746,644,631,617,603,589,576,562,548,608,531,533,534,533,536,539,550,586,569,557,584,552,592,569,587,562,548,556,573,559,547,578,560,550,567,561,582,561,556,554,856,859,861,938,922,1006,1152,1283,1395,1436,1391,1377,1343,1332,1310,1288,1267,1245,1223,1201,1176,1153,1131,1114,1086,1070,1072,1026,996,965,943,938,901,885,872,869,871,874,878,894,881,939,904,866,936,912,899,905,924,909,875,886,923,917,931,882,894,913,963,897,889,899,891,877,881,1596,1573,1628,1752,1990,2236,2495,2612,2622,2628,2643,2532,2661,2466,2640,2459,2368,2313,2416,2233,2153,2233,2065,2229,2007,1963,2006,1869,1802,1811,1706,1642,1711,1610,1601,1698,1661,1616,1838,1777,1803,1840,1818,1858,1822,1834,1839,1847,1863,1824,1827,1868,1896,1889,1863,1835,1834,1846,1832,1825,1823,1853,1827,1868,1823,1597,1540,1602,1758,1952,2296,2596,2788,2643,2708,2785,2585,2581,2523,2499,2392,2405,2322,2311,2233,2178,2106,2092,2056,2064,1985,1896,1886,1772,1743,1674,1639,1628,1597,1564,1610,1671,1608,1762,1728,1739,1766,1739,1774,1751,1780,1782,1801,1792,1777,1818,1815,1835,1824,1804,1781,1793,1795,1796,1781,1795,1804,1784,1813,1794,0,0,0,0,0,0,0,0,0,0,0,0,0,0,0,0,0,0,0,0,0,0,0,0,0,0,0,0,0,0,0,0,0,0,0,0,0,0,0,0,0,0,0,0,0,0,0,0,0,0,0,0,0,0,0,0,0,0,0,0,0,0,0,0,0,1153,1164,1168,1232,1273,1428,1666,1808,1881,1871,1869,1839,1840,1780,1750,1734,1690,1695,1631,1601,1563,1543,1532,1526,1452,1398,1411,1386,1332,1302,1294,1243,1214,1192,1218,1177,1181,1163,1228,1228,1226,1236,1252,1235,1253,1256,1251,1241,1252,1259,1329,1277,1306,1302,1243,1252,1256,1268,1254,1249,1267,1241,1249,1267,1241,0,0,0,0,0,0,0,0,0,0,0,0,0,0,0,0,0,0,0,0,0,0,0,0,0,0,0,0,0,0,0,0,0,0,0,0,0,0,0,0,0,0,0,0,0,0,0,0,0,0,0,0,0,0,0,0,0,0,0,0,0,0,0,0,0,618,620,621,623,632,677,765,853,937,994,1016,1000,984,968,952,936,920,904,888,872,856,840,824,808,792,776,760,744,728,712,696,680,664,648,634,627,629,630,623,624,628,634,639,631,631,630,632,633,649,642,653,664,660,646,630,640,645,636,630,644,637,638,636,642,637,948,883,885,873,961,1021,1155,1285,1464,1405,1429,1451,1356,1333,1312,1395,1267,1246,1224,1225,1202,1212,1235,1135,1172,1136,1081,1127,1051,1017,957,934,930,892,879,952,877,937,898,908,904,923,922,924,913,925,914,919,913,909,913,928,921,928,935,937,937,931,939,932,930,966,946,958,950,1094,1169,1091,1109,1183,1288,1441,1572,1652,1698,1709,1684,1659,1628,1603,1583,1558,1606,1508,1482,1457,1432,1407,1382,1356,1332,1306,1281,1256,1230,1192,1177,1151,1119,1120,1100,1102,1119,1137,1134,1137,1146,1126,1143,1139,1142,1158,1196,1145,1152,1156,1157,1156,1175,1180,1160,1152,1150,1156,1165,1150,1158,1154,1162,1157,568,570,587,602,594,680,731,832,942,969,1003,987,913,895,914,889,878,838,861,839,833,814,797,748,729,738,702,700,699,669,644,650,609,604,593,604,581,611,603,572,580,587,573,601,586,593,592,586,613,586,584,586,584,602,599,590,585,591,587,590,592,590,588,619,598,715,717,736,704,796,827,937,1020,1148,1175,1255,1139,1112,1093,1100,1154,1062,1020,1001,1007,1010,941,949,931,933,867,853,855,818,837,799,762,762,726,729,751,727,729,729,736,720,825,752,732,739,755,740,731,738,748,751,733,725,735,738,744,735,736,726,736,726,740,744,738,717,732,765,768,783,788,920,960,1145,1212,1288,1286,1265,1161,1189,1167,1168,1128,1066,1134,1070,1009,989,1040,951,932,994,894,900,891,856,818,856,800,787,778,775,777,804,755,760,768,774,772,781,767,778,768,792,777,774,781,783,794,808,794,789,795,787,798,802,799,806,791,797,793,967,947,974,1003,1059,1160,1333,1526,1509,1564,1576,1559,1540,1497,1499,1480,1415,1484,1404,1354,1329,1332,1388,1261,1236,1228,1203,1162,1153,1091,1050,1041,1016,1002,978,982,980,964,970,966,983,998,971,985,975,978,978,986,1004,997,989,996,996,1005,996,1000,986,1001,1000,999,1005,999,996,1020,1020,1121,1076,1103,1085,1208,1332,1474,1611,1685,1755,1736,1771,1654,1627,1716,1597,1627,1518,1490,1543,1489,1491,1370,1375,1448,1379,1412,1245,1218,1256,1188,1136,1150,1086,1073,1089,1072,1077,1120,1108,1111,1120,1115,1129,1182,1187,1115,1151,1134,1131,1123,1168,1176,1190,1179,1154,1180,1190,1200,1174,1152,1152,1127,1124,1126,293,294,294,295,296,308,343,378,421,446,459,455,450,445,440,427,430,425,407,400,394,387,380,374,367,361,369,347,341,334,327,321,314,316,301,304,297,298,285,288,289,299,299,297,295,314,289,307,305,339,299,300,308,310,297,297,307,317,307,297,300,303,294,294,294,715,761,720,700,768,805,913,1020,1108,1149,1176,1123,1112,1093,1068,1082,1038,1020,1062,1007,982,946,928,930,913,873,854,836,818,857,781,762,762,726,700,726,711,708,720,716,715,723,706,717,714,717,735,799,721,737,746,743,741,751,761,731,723,730,737,746,733,738,741,751,736,1575,1577,1630,1723,1920,2136,2348,2404,2466,2483,2456,2391,2383,2383,2307,2293,2272,2192,2199,2137,2098,2084,1999,1967,1933,1954,1878,1818,1781,1752,1681,1685,1664,1628,1622,1598,1616,1588,1739,1692,1705,1709,1734,1701,1709,1720,1715,1746,1757,1746,1746,1877,1758,1742,1881,1757,1749,1762,1766,1758,1764,1761,1776,1790,1800,254,255,255,256,257,269,305,340,376,411,423,416,410,403,396,390,383,376,369,363,356,349,343,336,339,322,316,309,302,296,289,282,275,269,262,258,258,259,245,247,245,253,318,292,270,299,276,320,286,294,291,257,265,288,274,258,302,272,256,289,282,314,293,280,277,1019,999,1026,1084,1149,1227,1411,1550,1582,1636,1647,1629,1643,1565,1567,1550,1481,1548,1468,1417,1392,1393,1363,1321,1322,1286,1259,1230,1208,1146,1104,1094,1068,1054,1031,1055,1032,1016,1083,1083,1058,1067,1062,1084,1075,1090,1091,1162,1083,1123,1120,1124,1092,1173,1129,1081,1081,1073,1110,1141,1122,1157,1139,1141,1114,693,696,712,722,738,829,905,1008,1128,1175,1188,1167,1101,1078,1093,1067,1049,1010,1017,1015,984,937,949,901,882,886,844,855,836,796,776,780,740,732,723,726,702,735,737,709,714,726,714,720,720,729,720,720,722,713,725,729,733,728,730,724,716,732,724,717,717,740,725,735,723,606,608,624,634,638,713,773,895,975,1025,1040,1022,959,938,956,932,931,880,890,881,862,858,832,787,814,777,761,751,735,713,680,686,648,643,635,636,615,645,614,610,609,614,629,626,621,628,633,656,639,649,640,642,638,636,646,639,645,647,648,656,647,653,655,660,647,517,525,503,506,509,554,635,712,783,829,836,833,810,797,767,759,759,745,713,720,708,695,682,664,658,644,611,602,606,592,563,550,537,523,520,508,509,511,513,510,524,522,531,531,527,534,527,544,541,539,534,531,526,534,531,531,530,527,522,529,526,530,526,536,526,1296,1225,1214,1308,1449,1535,1783,1896,1995,2004,2100,2068,1911,1827,1883,1897,1802,1732,1727,1745,1703,1646,1599,1562,1582,1505,1475,1484,1373,1423,1339,1315,1302,1267,1206,1282,1324,1271,1355,1299,1300,1314,1298,1309,1322,1317,1342,1392,1327,1348,1440,1342,1346,1435,1351,1336,1332,1344,1432,1504,1531,1567,1567,1396,1390,1080,1083,1064,1127,1188,1274,1485,1586,1699,1673,1747,1664,1658,1667,1608,1611,1583,1568,1528,1588,1472,1444,1368,1341,1331,1332,1302,1274,1246,1173,1193,1120,1099,1115,1101,1057,1060,1085,1096,1121,1131,1098,1105,1120,1142,1133,1124,1114,1175,1111,1137,1116,1130,1146,1159,1170,1156,1127,1137,1137,1127,1121,1119,1181,1098,836,841,825,794,890,961,1067,1191,1299,1314,1361,1312,1253,1277,1248,1232,1193,1192,1163,1166,1125,1088,1060,1079,1057,1015,999,978,951,944,893,869,869,820,818,832,851,833,831,830,836,841,848,854,847,843,844,848,854,854,896,909,934,890,861,866,858,877,861,845,862,839,852,859,836,1305,1321,1319,1343,1538,1709,1851,2142,2028,2074,2101,2027,1993,1960,1972,1938,1846,1830,1783,1801,1755,1811,1680,1655,1621,1661,1570,1517,1457,1475,1418,1386,1359,1320,1308,1350,1295,1326,1374,1378,1420,1677,1435,1366,1432,1517,1445,1395,1490,1470,1411,1420,1498,1482,1460,1373,1409,1406,1448,1455,1382,1434,1401,1397,1401,410,411,428,440,429,463,506,565,624,696,727,715,657,647,675,643,637,604,635,618,571,561,570,539,528,536,507,516,519,474,464,453,442,442,436,416,418,419,406,415,414,417,418,419,416,418,411,429,414,415,418,422,432,441,433,424,425,417,430,426,426,430,420,430,422,744,746,757,751,776,843,956,1083,1156,1223,1227,1230,1188,1168,1162,1129,1109,1177,1070,1062,1031,1011,1010,990,952,933,913,894,874,864,835,825,811,776,761,770,772,774,766,762,776,814,794,798,792,769,785,802,804,782,810,815,835,815,817,801,776,787,776,781,774,787,782,821,767,726,766,730,733,804,850,969,1087,1175,1214,1212,1192,1172,1153,1133,1113,1093,1073,1053,1033,1013,993,973,953,966,913,893,898,854,834,814,794,774,754,740,738,740,742,733,748,744,748,769,741,753,770,751,747,762,746,764,755,769,771,924,874,783,762,755,749,747,743,762,784,741,872,819,821,825,860,938,1062,1185,1270,1321,1337,1316,1295,1273,1252,1231,1210,1263,1244,1146,1125,1104,1082,1061,1040,1019,997,976,955,934,912,891,870,849,835,829,831,833,839,846,840,877,863,852,862,875,853,874,879,870,864,858,852,861,855,863,855,856,851,847,847,858,853,855,835,650,649,666,682,687,779,834,938,1075,1085,1115,1100,1025,1062,1100,1028,982,992,968,945,923,921,897,839,826,832,789,791,788,748,724,782,694,684,672,684,664,694,661,676,674,689,748,718,691,737,687,771,715,749,718,693,716,744,717,697,740,713,703,728,717,754,718,715,701,513,527,517,530,537,577,650,726,769,834,840,827,841,828,815,792,771,781,744,715,717,704,689,675,647,648,652,622,607,592,584,566,552,539,526,530,524,560,519,525,526,553,529,540,524,531,525,523,533,529,526,538,537,544,532,540,538,538,542,533,533,547,521,533,527,914,916,823,928,886,968,1136,1191,1309,1328,1374,1331,1330,1423,1258,1265,1243,1268,1199,1292,1155,1232,1093,1072,1067,1045,1023,1001,979,936,936,893,878,947,856,836,838,841,850,840,844,847,882,879,891,884,874,901,876,863,877,852,854,870,868,861,881,854,851,873,874,896,884,889,881,1143,1218,1140,1165,1248,1361,1523,1654,1732,1776,1786,1760,1733,1702,1675,1654,1627,1674,1574,1548,1521,1495,1468,1442,1415,1390,1362,1336,1309,1283,1244,1227,1200,1168,1169,1149,1152,1169,1197,1198,1203,1222,1228,1229,1223,1233,1216,1248,1237,1236,1233,1264,1277,1271,1260,1233,1216,1233,1222,1215,1204,1233,1219,1236,1197,1298,1288,1256,1318,1417,1575,1756,1863,2027,1952,1974,1986,1884,1867,1823,1915,1782,1730,1712,1691,1780,1660,1706,1566,1592,1548,1486,1555,1454,1395,1354,1296,1324,1260,1259,1346,1275,1315,1321,1311,1340,1350,1356,1391,1341,1357,1361,1372,1402,1364,1369,1410,1425,1415,1388,1366,1356,1380,1355,1358,1356,1386,1363,1384,1369,0,0,0,0,0,0,0,0,0,0,0,0,0,0,0,0,0,0,0,0,0,0,0,0,0,0,0,0,0,0,0,0,0,0,0,0,0,0,0,0,0,0,0,0,0,0,0,0,0,0,0,0,0,0,0,0,0,0,0,0,0,0,0,0,0 ]);
