n = 10;
D = [202,200,141,80,151,228,101,292,160,246 ];
q = 0;
prec = array2d(1..0,1..2,[]);
steps = 64;
l = 360;
r = 0;
which = [];
interval = array2d(1..0,1..2,[]);
T = array3d(1..11,1..11,0..64,[0,0,0,0,0,0,0,0,0,0,0,0,0,0,0,0,0,0,0,0,0,0,0,0,0,0,0,0,0,0,0,0,0,0,0,0,0,0,0,0,0,0,0,0,0,0,0,0,0,0,0,0,0,0,0,0,0,0,0,0,0,0,0,0,0,857,822,808,860,851,961,1087,1310,1331,1351,1350,1361,1290,1267,1315,1227,1206,1185,1186,1143,1145,1101,1080,1084,1046,1036,1022,1031,975,917,956,905,888,872,818,840,843,892,856,856,852,866,878,859,868,878,868,869,879,885,957,961,967,916,958,916,892,890,870,869,885,863,875,868,862,886,853,837,891,898,1006,1139,1295,1399,1385,1407,1417,1337,1345,1340,1273,1263,1229,1252,1190,1215,1143,1121,1130,1058,1074,1074,1067,1001,952,993,943,919,903,848,871,904,932,909,883,891,905,897,904,907,920,904,905,917,906,938,932,936,921,900,898,908,907,911,894,901,913,899,912,907,1656,1617,1669,1857,2100,2370,2547,2691,2758,2717,2678,2730,2650,2640,2485,2464,2375,2277,2325,2226,2179,2199,2084,2047,2051,1964,1869,1902,1835,1795,1715,1697,1613,1648,1638,1656,1645,1678,1803,1810,1763,1773,1807,1795,1800,1813,1808,1818,1866,1816,1827,1839,1839,1843,1823,1850,1863,1863,1897,1850,1845,1851,1905,1841,1848,942,910,907,939,941,1082,1223,1357,1451,1490,1519,1500,1415,1423,1418,1351,1341,1328,1345,1273,1254,1216,1183,1184,1134,1136,1114,1140,1052,1013,1036,983,987,961,918,929,917,967,957,938,945,944,976,1019,961,982,989,1008,1014,1029,1023,1029,990,1009,1000,986,997,996,1007,1067,1027,1042,1029,1023,1034,836,808,810,814,853,947,1073,1197,1281,1383,1325,1312,1296,1268,1234,1273,1192,1184,1150,1212,1120,1099,1078,1056,1025,1008,980,1068,975,917,897,979,855,863,829,818,819,832,845,832,824,828,885,937,853,848,862,875,861,862,861,862,859,859,862,874,891,864,864,914,874,883,901,863,864,138,139,139,140,140,143,162,180,199,218,231,227,223,220,216,213,209,205,202,198,194,191,187,183,180,176,173,169,165,162,158,154,151,147,143,140,141,141,128,129,131,131,135,128,128,132,131,128,139,136,128,133,140,142,181,151,138,134,133,129,128,131,133,129,127,879,891,910,933,980,1052,1191,1327,1417,1414,1438,1487,1442,1438,1347,1380,1297,1278,1232,1231,1212,1183,1164,1184,1137,1095,1072,1065,1091,1024,981,980,932,920,921,913,897,902,916,912,911,922,925,945,954,953,929,946,950,940,938,936,931,970,970,937,938,936,923,947,937,939,939,971,934,596,598,600,601,613,674,763,922,938,981,985,969,953,938,922,906,890,875,859,843,827,812,796,780,764,794,783,717,742,723,670,654,638,622,609,605,607,651,614,619,616,624,625,625,624,638,615,628,619,618,623,633,631,626,631,626,625,624,639,634,621,625,622,626,623,922,934,959,976,1023,1095,1234,1370,1460,1457,1481,1530,1485,1477,1390,1416,1340,1321,1275,1274,1255,1226,1222,1227,1180,1151,1127,1108,1118,1076,1024,1030,982,969,970,962,946,951,968,973,967,980,981,980,978,996,970,975,976,974,971,984,985,985,981,983,984,978,985,990,975,986,975,985,983,0,0,0,0,0,0,0,0,0,0,0,0,0,0,0,0,0,0,0,0,0,0,0,0,0,0,0,0,0,0,0,0,0,0,0,0,0,0,0,0,0,0,0,0,0,0,0,0,0,0,0,0,0,0,0,0,0,0,0,0,0,0,0,0,0,991,1037,1031,1121,1111,1268,1402,1597,1744,1635,1624,1675,1532,1508,1522,1497,1472,1409,1384,1360,1404,1311,1320,1330,1295,1244,1219,1217,1168,1114,1163,1114,1040,1046,1034,1040,1008,1008,1043,1038,1049,1070,1069,1068,1063,1068,1068,1076,1076,1073,1097,1098,1120,1106,1091,1073,1063,1073,1067,1065,1057,1080,1059,1084,1050,0,0,0,0,0,0,0,0,0,0,0,0,0,0,0,0,0,0,0,0,0,0,0,0,0,0,0,0,0,0,0,0,0,0,0,0,0,0,0,0,0,0,0,0,0,0,0,0,0,0,0,0,0,0,0,0,0,0,0,0,0,0,0,0,0,92,92,92,92,92,92,92,92,92,92,92,92,92,92,92,92,92,92,92,92,92,92,92,92,92,92,92,92,92,92,92,92,92,92,92,92,92,92,67,67,67,67,67,67,67,69,67,69,69,69,69,69,69,69,69,69,69,70,70,70,70,70,70,70,70,1034,1017,1019,1056,1132,1264,1422,1582,1660,1634,1701,1600,1577,1553,1530,1507,1481,1502,1437,1471,1379,1410,1369,1318,1290,1317,1247,1243,1183,1173,1158,1140,1100,1075,1051,1054,1058,1032,1061,1065,1061,1080,1073,1081,1067,1076,1084,1072,1068,1074,1072,1078,1069,1067,1080,1077,1073,1075,1067,1082,1076,1089,1089,1090,1076,138,139,139,139,140,143,157,170,170,192,170,170,194,192,191,170,170,170,170,170,170,177,175,172,169,167,164,161,158,156,153,150,147,145,142,140,140,140,132,125,126,126,132,127,128,132,126,127,128,127,129,129,128,131,133,132,133,132,131,129,129,132,132,132,133,459,461,466,460,488,531,571,632,687,735,738,721,713,698,694,683,661,661,680,639,628,607,603,590,603,562,587,545,539,526,534,506,495,484,486,486,471,472,464,476,473,480,487,480,484,481,471,486,471,476,478,487,487,496,515,509,481,481,484,477,476,477,488,485,472,857,902,862,933,911,1048,1142,1328,1481,1375,1369,1413,1326,1305,1284,1263,1242,1221,1200,1178,1157,1136,1115,1120,1098,1051,1030,1033,988,967,992,947,903,883,871,869,871,896,916,864,876,888,876,911,886,914,901,888,917,889,889,893,894,907,893,886,898,901,894,886,892,904,884,904,891,341,342,343,344,345,323,367,418,436,454,462,458,453,448,444,442,438,434,431,427,423,420,416,433,426,418,369,365,360,340,335,329,324,319,313,345,346,347,314,304,308,309,317,318,318,327,318,326,320,314,320,307,311,316,316,312,316,309,307,311,315,319,317,323,318,543,569,575,553,555,620,672,768,849,878,883,856,881,840,852,817,800,814,843,761,737,756,723,727,696,674,687,649,640,626,631,600,592,574,580,574,560,556,552,560,556,571,559,569,560,579,569,560,572,560,563,562,563,570,564,565,564,570,565,569,560,576,562,571,560,389,390,391,392,394,366,410,461,479,497,505,501,496,491,513,485,481,477,474,470,466,463,477,476,469,461,412,408,403,383,378,381,367,369,362,394,395,396,364,364,365,365,365,365,366,373,368,369,364,366,368,376,373,373,369,371,369,370,370,372,369,372,364,368,368,991,1037,1031,1121,1111,1268,1402,1597,1744,1635,1624,1675,1532,1508,1522,1497,1472,1409,1384,1360,1404,1311,1320,1330,1295,1244,1219,1217,1168,1114,1163,1114,1040,1046,1034,1040,1008,1008,1043,1038,1049,1070,1069,1068,1063,1068,1068,1076,1076,1073,1097,1098,1120,1106,1091,1073,1063,1073,1067,1065,1057,1080,1059,1084,1050,1013,1045,1066,1039,1137,1280,1392,1582,1676,1674,1660,1760,1685,1595,1558,1533,1504,1482,1457,1441,1370,1346,1355,1339,1346,1244,1251,1185,1161,1165,1140,1115,1060,1041,1081,1029,1081,1062,1072,1055,1054,1058,1072,1106,1092,1095,1081,1095,1116,1104,1112,1106,1106,1122,1136,1093,1106,1119,1124,1141,1118,1123,1144,1193,1127,106,106,103,103,106,106,103,103,103,103,103,103,103,103,103,103,103,103,103,103,103,103,103,103,103,103,103,103,103,103,103,103,103,103,103,106,106,106,83,82,83,83,83,82,83,83,82,82,83,83,83,83,83,83,82,83,83,83,83,82,82,83,83,83,83,0,0,0,0,0,0,0,0,0,0,0,0,0,0,0,0,0,0,0,0,0,0,0,0,0,0,0,0,0,0,0,0,0,0,0,0,0,0,0,0,0,0,0,0,0,0,0,0,0,0,0,0,0,0,0,0,0,0,0,0,0,0,0,0,0,1001,1003,983,1049,1113,1178,1329,1466,1555,1598,1580,1592,1531,1525,1497,1650,1439,1430,1382,1385,1341,1316,1279,1359,1248,1311,1176,1175,1135,1095,1122,1082,1047,1032,1057,995,1029,1043,1022,1016,1029,1031,1037,1022,1029,1046,1035,1049,1057,1045,1128,1120,1068,1046,1063,1097,1084,1150,1149,1053,1085,1169,1168,1141,1074,80,80,81,81,81,82,88,96,86,107,86,86,110,109,107,86,86,86,86,86,86,99,98,97,97,96,95,94,90,88,87,86,85,83,82,81,81,81,64,62,59,60,64,65,64,65,64,70,64,74,75,74,65,73,70,64,65,65,75,86,82,86,82,77,75,430,447,448,434,436,471,531,603,644,693,658,651,690,670,656,636,658,613,607,598,609,587,581,571,560,545,534,523,506,495,501,468,462,451,437,453,437,438,424,427,432,452,430,440,429,441,430,430,434,431,425,433,433,438,434,438,435,437,440,435,432,444,426,435,430,879,908,896,893,968,1128,1174,1313,1457,1415,1405,1553,1400,1342,1320,1299,1275,1257,1235,1214,1193,1172,1150,1129,1137,1110,1091,1059,1011,1016,968,947,924,906,892,893,917,898,899,900,900,898,905,901,915,912,915,901,902,901,909,906,915,905,915,920,912,925,917,904,927,902,907,911,898,365,328,348,329,330,392,385,451,498,516,531,524,518,506,503,499,470,492,509,501,495,456,478,472,408,401,393,386,379,371,364,395,350,342,335,331,332,333,326,327,323,387,341,332,328,331,332,337,328,334,338,331,323,328,338,335,333,326,325,327,326,322,337,337,319,576,593,589,579,613,648,703,837,884,947,917,931,916,907,857,851,842,827,840,823,806,835,755,767,753,739,686,696,662,651,616,622,612,597,568,567,585,568,573,579,579,591,579,578,603,582,579,601,593,587,583,586,577,584,585,593,584,580,582,580,580,579,583,590,577,410,376,397,378,379,435,428,494,541,559,574,567,561,549,546,542,513,535,552,544,538,499,521,515,451,444,436,429,422,414,407,438,401,392,384,380,381,382,368,363,364,365,365,364,369,369,370,371,372,379,394,380,373,385,379,374,373,379,396,412,420,427,427,394,394,1013,1045,1066,1039,1137,1280,1392,1582,1676,1674,1660,1760,1685,1595,1558,1533,1504,1482,1457,1441,1370,1346,1355,1339,1346,1244,1251,1185,1161,1165,1140,1115,1060,1041,1081,1029,1081,1062,1072,1055,1054,1058,1072,1106,1092,1095,1081,1095,1116,1104,1112,1106,1106,1122,1136,1093,1106,1119,1124,1141,1118,1123,1144,1193,1127,1682,1828,1823,1895,2111,2467,2642,2793,2819,2898,2794,2767,2730,2673,2642,2612,2556,2483,2434,2413,2374,2295,2255,2137,2183,2079,2091,2001,1907,1882,1845,1784,1754,1687,1680,1696,1721,1748,1902,1896,1937,2208,1950,1916,1937,2035,2001,2007,2017,2009,1962,1968,2037,2019,2031,1924,1939,1948,1989,2007,1938,1979,1958,1971,1960,973,976,979,988,1046,1158,1299,1438,1515,1571,1598,1538,1519,1506,1464,1428,1410,1422,1401,1346,1332,1298,1271,1238,1225,1195,1167,1135,1111,1096,1072,1080,1017,1011,990,987,989,1001,1001,1017,1007,1039,1051,1043,1031,1045,1027,1028,1043,1046,1032,1067,1053,1042,1045,1057,1057,1036,1015,1075,1034,1062,1030,1067,1036,947,923,924,935,990,1154,1248,1382,1464,1515,1547,1483,1462,1435,1400,1377,1353,1378,1323,1294,1270,1246,1208,1186,1162,1138,1138,1082,1058,1043,1019,996,964,950,937,934,934,931,921,919,921,927,928,930,936,936,935,940,937,938,942,944,944,939,953,953,954,960,957,950,967,958,955,960,958,0,0,0,0,0,0,0,0,0,0,0,0,0,0,0,0,0,0,0,0,0,0,0,0,0,0,0,0,0,0,0,0,0,0,0,0,0,0,0,0,0,0,0,0,0,0,0,0,0,0,0,0,0,0,0,0,0,0,0,0,0,0,0,0,0,873,876,894,885,951,1036,1197,1304,1387,1440,1472,1437,1390,1368,1331,1308,1336,1294,1302,1251,1208,1185,1150,1127,1105,1082,1060,1028,1006,992,969,947,916,918,905,886,904,935,890,898,906,928,915,915,907,932,904,936,921,934,963,961,985,989,927,920,937,931,929,929,938,950,921,927,920,1024,999,1002,1051,1068,1191,1349,1534,1628,1630,1784,1597,1571,1545,1534,1535,1467,1441,1415,1462,1364,1338,1352,1322,1260,1380,1208,1215,1227,1130,1135,1078,1052,1059,1014,1011,1013,1016,1055,1070,1051,1139,1103,1093,1074,1085,1088,1115,1091,1106,1099,1088,1063,1076,1076,1096,1099,1072,1089,1111,1082,1075,1096,1072,1061,1547,1626,1623,1736,1931,2246,2382,2635,2570,2655,2594,2530,2498,2483,2417,2357,2372,2270,2225,2242,2172,2098,2130,1979,1997,1928,1913,1856,1765,1715,1750,1611,1641,1551,1544,1559,1584,1583,1716,1678,1692,1717,1685,1696,1702,1704,1723,1784,1723,1718,1787,1762,1782,1824,1769,1734,1708,1738,1766,1819,1828,1885,1870,1774,1749,868,870,890,876,930,1026,1223,1378,1476,1523,1501,1475,1449,1460,1412,1370,1378,1327,1311,1285,1271,1219,1189,1158,1149,1098,1068,1053,1008,978,964,952,922,857,910,882,914,850,877,870,894,915,883,914,881,897,883,909,911,883,886,892,900,930,911,896,897,891,897,902,900,902,879,916,890,1069,1072,1074,1100,1217,1335,1588,1785,1835,1926,1860,1813,1783,1787,1730,1682,1698,1617,1585,1552,1529,1493,1503,1420,1404,1376,1346,1316,1279,1202,1170,1129,1126,1061,1087,1087,1133,1074,1108,1100,1095,1110,1098,1134,1103,1111,1136,1189,1113,1133,1131,1135,1128,1131,1151,1127,1118,1124,1126,1136,1130,1134,1135,1145,1124,846,848,846,854,908,992,1184,1343,1442,1484,1469,1444,1419,1438,1368,1343,1334,1283,1267,1241,1248,1197,1167,1136,1127,1068,1046,1009,986,956,920,908,878,835,872,860,875,828,886,866,854,863,846,860,856,861,876,923,864,876,882,878,873,901,905,873,866,860,875,884,867,876,881,876,871,1682,1828,1823,1895,2111,2467,2642,2793,2819,2898,2794,2767,2730,2673,2642,2612,2556,2483,2434,2413,2374,2295,2255,2137,2183,2079,2091,2001,1907,1882,1845,1784,1754,1687,1680,1696,1721,1748,1902,1896,1937,2208,1950,1916,1937,2035,2001,2007,2017,2009,1962,1968,2037,2019,2031,1924,1939,1948,1989,2007,1938,1979,1958,1971,1960,1137,1081,1120,1080,1157,1295,1465,1601,1800,1802,1723,1727,1709,1686,1653,1591,1534,1531,1517,1453,1462,1434,1406,1405,1319,1316,1337,1268,1211,1203,1186,1210,1146,1108,1096,1136,1069,1107,1126,1123,1169,1437,1177,1111,1159,1258,1193,1133,1229,1212,1154,1164,1242,1218,1206,1118,1153,1149,1195,1198,1136,1177,1142,1142,1161,187,184,187,184,184,189,189,193,197,201,206,205,204,203,202,201,200,200,199,198,197,196,195,194,194,193,192,191,197,189,189,188,187,186,185,188,184,188,175,163,164,164,170,169,170,166,166,170,179,171,175,175,175,175,172,171,173,181,185,181,173,171,187,177,178,105,105,105,105,105,105,110,114,118,122,127,126,125,124,123,122,121,121,120,119,118,117,116,115,115,114,113,112,111,110,110,109,108,107,106,105,105,105,87,87,89,93,88,88,90,94,89,89,89,89,93,89,92,90,88,89,89,94,93,88,92,95,92,92,90,981,981,972,1007,1062,1171,1347,1491,1532,1755,1553,1675,1514,1489,1465,1473,1417,1381,1368,1340,1308,1296,1290,1247,1223,1216,1191,1163,1141,1118,1079,1038,1019,991,978,1087,994,986,1003,994,1009,1049,1022,996,1000,1015,1014,1057,1076,1024,1105,1105,1051,1019,1034,1074,1060,1122,1121,1023,1062,1139,1146,1124,1051,0,0,0,0,0,0,0,0,0,0,0,0,0,0,0,0,0,0,0,0,0,0,0,0,0,0,0,0,0,0,0,0,0,0,0,0,0,0,0,0,0,0,0,0,0,0,0,0,0,0,0,0,0,0,0,0,0,0,0,0,0,0,0,0,0,409,414,410,416,434,475,502,559,622,629,630,624,617,611,604,633,591,602,585,581,565,554,577,533,544,515,507,496,505,475,460,450,441,433,422,418,420,417,410,408,414,420,424,440,423,448,440,434,449,432,429,420,422,438,424,422,431,432,420,423,424,434,426,437,423,958,920,959,932,987,1100,1244,1466,1576,1547,1511,1520,1464,1445,1416,1397,1343,1344,1296,1273,1249,1226,1230,1205,1155,1157,1181,1085,1061,1065,1050,1031,1011,946,933,969,933,935,948,942,951,985,966,982,947,966,950,942,967,967,983,1004,1005,998,985,997,970,990,985,976,996,996,977,999,981,383,402,385,404,406,409,490,545,599,605,611,625,624,623,578,602,594,582,572,562,552,542,542,552,512,502,491,481,471,461,451,441,411,421,392,407,408,390,400,399,394,399,392,391,394,401,396,472,394,391,395,396,412,391,403,397,397,402,394,394,400,400,393,400,399,632,599,659,614,621,713,758,899,945,1031,1054,1037,995,977,987,945,976,890,876,857,864,806,812,818,777,771,752,731,734,719,701,720,644,617,653,642,625,622,609,608,610,613,616,609,613,614,615,619,622,622,623,636,623,624,636,626,628,630,631,631,631,631,636,636,638,431,451,433,453,449,452,551,588,642,648,654,668,667,666,621,645,637,625,615,605,615,585,585,595,555,559,534,537,514,504,494,484,461,464,441,456,457,439,444,444,447,442,463,461,480,464,449,469,467,464,465,453,457,477,460,461,462,455,448,458,456,468,460,469,462,1137,1081,1120,1080,1157,1295,1465,1601,1800,1802,1723,1727,1709,1686,1653,1591,1534,1531,1517,1453,1462,1434,1406,1405,1319,1316,1337,1268,1211,1203,1186,1210,1146,1108,1096,1136,1069,1107,1126,1123,1169,1437,1177,1111,1159,1258,1193,1133,1229,1212,1154,1164,1242,1218,1206,1118,1153,1149,1195,1198,1136,1177,1142,1142,1161,1017,959,994,975,1036,1197,1424,1541,1594,1607,1599,1564,1548,1514,1497,1483,1446,1461,1395,1369,1350,1324,1319,1337,1241,1249,1190,1164,1147,1084,1108,1062,1009,1054,1001,981,992,1003,1000,1007,1011,1036,1022,1029,1017,1019,1013,1011,1028,1017,1047,1060,1050,1028,1024,1034,1035,1043,1042,1022,1039,1042,1013,1027,1021,389,390,391,421,398,420,474,528,623,628,679,628,625,647,642,642,578,568,558,548,538,534,551,514,498,488,478,474,473,449,459,456,419,435,399,394,408,396,403,389,394,397,392,409,399,412,409,400,412,395,400,397,396,404,402,400,399,402,397,396,396,401,399,408,401,375,371,372,365,366,399,452,492,565,603,620,612,587,590,580,563,561,544,534,524,515,494,495,475,476,466,457,437,443,428,418,408,399,389,379,375,376,377,369,369,372,388,379,370,373,383,374,377,391,397,506,488,510,418,371,371,384,381,378,376,379,381,377,377,379,1043,1032,1035,1054,1114,1240,1416,1533,1624,1677,1669,1639,1618,1592,1566,1540,1514,1481,1454,1455,1402,1499,1359,1333,1307,1298,1255,1229,1191,1177,1152,1126,1086,1063,1049,1058,1047,1050,1122,1084,1076,1160,1131,1127,1115,1093,1111,1138,1156,1127,1139,1136,1115,1113,1099,1134,1139,1136,1170,1170,1110,1096,1158,1089,1087,357,352,353,353,354,384,416,460,509,533,556,542,538,536,523,524,507,511,490,482,492,466,458,450,441,433,425,431,409,401,392,384,385,368,360,355,363,364,355,341,347,347,343,355,350,358,355,350,360,349,350,349,350,356,353,354,349,353,350,349,353,353,353,361,357,0,0,0,0,0,0,0,0,0,0,0,0,0,0,0,0,0,0,0,0,0,0,0,0,0,0,0,0,0,0,0,0,0,0,0,0,0,0,0,0,0,0,0,0,0,0,0,0,0,0,0,0,0,0,0,0,0,0,0,0,0,0,0,0,0,857,878,834,832,901,969,1132,1237,1356,1347,1344,1355,1301,1311,1258,1251,1254,1214,1173,1151,1139,1138,1113,1073,1044,1082,1001,979,958,937,925,894,872,847,862,856,837,839,848,841,856,874,870,875,866,851,864,876,871,862,882,900,922,898,891,871,853,870,859,862,853,874,866,881,853,573,574,577,621,623,642,726,810,940,936,995,926,957,946,924,908,851,836,821,806,791,822,799,747,732,728,702,687,685,659,662,658,612,627,584,580,582,585,585,586,584,593,609,607,613,617,600,605,600,605,605,592,596,618,608,601,603,605,593,611,603,617,610,619,605,515,517,519,548,526,612,651,728,822,894,856,841,827,815,800,830,838,799,785,731,739,741,690,702,663,684,636,623,644,626,581,567,588,585,528,523,525,555,533,534,539,557,544,539,547,564,541,547,553,563,593,591,593,573,542,544,553,567,557,547,556,563,554,553,552,621,617,625,667,666,685,769,853,983,979,1038,969,1027,989,967,951,894,879,885,849,834,883,859,790,790,785,745,730,728,702,705,701,663,670,633,629,625,634,616,624,628,624,619,623,624,626,630,644,642,645,647,642,644,638,646,647,645,649,672,660,654,644,648,649,662,1017,959,994,975,1036,1197,1424,1541,1594,1607,1599,1564,1548,1514,1497,1483,1446,1461,1395,1369,1350,1324,1319,1337,1241,1249,1190,1164,1147,1084,1108,1062,1009,1054,1001,981,992,1003,1000,1007,1011,1036,1022,1029,1017,1019,1013,1011,1028,1017,1047,1060,1050,1028,1024,1034,1035,1043,1042,1022,1039,1042,1013,1027,1021,207,208,208,209,210,217,246,275,304,333,348,343,337,332,326,321,315,309,304,298,293,287,281,276,270,265,259,254,248,242,237,231,226,220,214,210,211,212,213,194,195,194,201,202,195,203,196,196,200,201,198,201,203,207,208,208,198,204,203,203,207,207,209,210,209,791,811,793,796,853,923,1044,1141,1266,1313,1305,1285,1285,1227,1226,1186,1167,1145,1147,1105,1084,1046,1044,1027,1029,1028,965,954,921,901,898,860,859,820,835,803,822,821,815,821,805,809,832,844,830,854,843,874,846,876,854,868,847,882,850,838,864,848,858,891,869,896,874,896,863,822,852,824,828,900,967,1091,1195,1342,1347,1371,1320,1299,1274,1253,1260,1234,1192,1215,1149,1131,1088,1083,1088,1073,1073,1002,957,957,936,932,893,889,851,866,834,853,852,867,854,855,860,858,859,923,920,861,890,874,863,862,911,915,928,922,927,917,929,934,909,892,891,869,867,867,1575,1637,1637,1724,1995,2387,2511,2727,2704,2717,2645,2656,2546,2526,2482,2446,2402,2280,2263,2267,2191,2154,2113,2028,1946,1966,1888,1883,1782,1764,1691,1661,1595,1649,1609,1600,1588,1628,1771,1769,1764,1795,1822,1816,1799,1801,1811,1848,1811,1849,1869,1851,1810,1835,1824,1832,1836,1813,1866,1915,1886,1899,1901,1846,1839,879,909,891,888,944,1043,1169,1273,1445,1452,1469,1403,1348,1373,1331,1338,1287,1254,1261,1223,1216,1150,1176,1128,1126,1123,1068,1041,1020,1008,1000,952,945,909,908,898,915,910,919,916,914,929,930,921,931,932,937,928,938,945,1024,1022,1037,962,932,939,943,951,936,931,957,923,932,932,923,777,780,782,795,831,965,1029,1153,1252,1289,1273,1253,1296,1212,1244,1218,1154,1145,1124,1139,1083,1052,1042,1015,989,980,948,928,918,887,901,856,836,816,802,820,801,793,794,795,822,832,848,841,844,814,824,846,810,802,810,813,807,806,824,824,808,814,808,807,817,816,839,839,810,0,0,0,0,0,0,0,0,0,0,0,0,0,0,0,0,0,0,0,0,0,0,0,0,0,0,0,0,0,0,0,0,0,0,0,0,0,0,0,0,0,0,0,0,0,0,0,0,0,0,0,0,0,0,0,0,0,0,0,0,0,0,0,0,0,854,877,855,860,914,1052,1154,1362,1422,1376,1397,1412,1348,1326,1369,1298,1280,1239,1210,1194,1170,1160,1163,1112,1120,1097,1019,1017,995,973,951,929,945,918,901,901,917,870,901,899,896,907,913,904,909,908,914,915,923,931,1017,1012,1024,943,907,922,931,940,919,916,945,914,913,916,908,568,570,571,573,583,638,723,809,891,935,940,925,910,895,880,865,849,834,819,860,844,774,759,744,729,714,699,684,669,654,639,624,609,594,580,576,578,580,571,584,573,602,579,594,580,607,584,593,587,579,594,590,596,596,598,594,601,594,606,591,592,610,606,615,614,897,920,904,911,957,1115,1197,1405,1465,1419,1440,1481,1391,1369,1412,1341,1323,1282,1253,1237,1213,1203,1206,1155,1163,1140,1062,1060,1038,1016,994,993,972,961,950,951,935,913,942,948,951,970,981,984,990,970,953,980,959,950,970,966,962,955,986,976,950,950,961,955,950,958,965,971,950,207,208,208,209,210,217,246,275,304,333,348,343,337,332,326,321,315,309,304,298,293,287,281,276,270,265,259,254,248,242,237,231,226,220,214,210,211,212,213,194,195,194,201,202,195,203,196,196,200,201,198,201,203,207,208,208,198,204,203,203,207,207,209,210,209,1087,1091,1192,1091,1299,1347,1486,1653,1674,1736,1678,1694,1668,1602,1616,1590,1556,1530,1512,1451,1461,1459,1460,1350,1376,1299,1338,1291,1238,1185,1252,1175,1108,1114,1076,1103,1106,1108,1126,1130,1133,1151,1128,1169,1138,1153,1144,1151,1157,1143,1143,1141,1158,1164,1158,1168,1165,1166,1167,1157,1150,1152,1160,1161,1149,267,267,268,268,269,279,320,319,332,345,350,348,345,343,340,338,335,333,330,328,325,341,336,332,328,357,324,303,299,294,290,285,281,276,273,269,272,270,254,258,256,268,258,265,255,262,255,255,258,256,253,259,259,262,259,264,261,262,265,265,258,271,254,262,257,321,321,322,323,323,320,419,395,408,421,426,424,461,419,416,414,411,409,406,404,401,395,390,385,379,374,434,350,344,338,349,326,320,352,349,324,348,325,310,311,310,314,319,314,322,315,314,316,312,316,316,322,316,316,340,341,324,331,320,311,328,315,326,317,312,875,877,899,839,934,1066,1352,1453,1586,1602,1583,1555,1557,1434,1469,1412,1420,1333,1305,1336,1285,1301,1173,1200,1119,1139,1110,1044,1052,987,993,964,915,917,888,889,894,857,894,877,879,885,899,909,900,899,900,919,937,908,923,905,907,932,924,907,919,927,917,938,929,922,940,942,942,315,316,317,317,318,335,436,452,510,522,504,526,482,519,494,514,477,471,466,460,455,413,408,402,396,429,435,366,359,353,347,341,334,349,343,319,341,320,308,314,314,315,311,308,317,315,318,316,310,315,309,316,314,317,319,325,312,311,315,318,322,320,316,314,312,681,686,684,686,711,775,924,968,1092,1068,1088,1071,1050,1046,999,1001,988,963,946,931,918,932,941,879,863,873,851,822,788,763,779,737,723,707,695,693,693,714,684,683,684,712,690,687,686,691,692,710,701,697,706,690,702,705,708,706,700,713,705,710,708,705,705,712,702,926,953,1028,942,1025,1145,1264,1385,1494,1478,1504,1444,1423,1401,1379,1357,1365,1343,1292,1270,1248,1251,1257,1183,1191,1139,1142,1108,1059,1039,1084,1036,972,1019,941,939,942,969,971,969,971,974,970,974,986,989,978,976,980,977,981,980,986,986,991,991,978,986,998,986,981,999,983,986,984,0,0,0,0,0,0,0,0,0,0,0,0,0,0,0,0,0,0,0,0,0,0,0,0,0,0,0,0,0,0,0,0,0,0,0,0,0,0,0,0,0,0,0,0,0,0,0,0,0,0,0,0,0,0,0,0,0,0,0,0,0,0,0,0,0,638,640,655,621,660,681,776,938,966,973,995,943,966,964,949,923,909,897,869,834,844,858,860,828,787,797,762,749,714,706,721,664,651,643,649,647,658,650,630,640,644,653,653,657,645,663,640,666,647,649,647,655,664,677,663,657,656,648,664,663,656,660,644,654,645,92,92,92,92,92,92,92,92,92,92,92,92,92,92,92,92,92,92,92,92,92,92,92,92,92,92,92,92,92,92,92,92,92,92,92,92,92,92,66,66,66,66,66,67,67,67,67,67,67,67,69,69,69,69,69,69,69,69,70,70,70,70,70,70,70,1087,1091,1192,1091,1299,1347,1486,1653,1674,1736,1678,1694,1668,1602,1616,1590,1556,1530,1512,1451,1461,1459,1460,1350,1376,1299,1338,1291,1238,1185,1252,1175,1108,1114,1076,1103,1106,1108,1126,1130,1133,1151,1128,1169,1138,1153,1144,1151,1157,1143,1143,1141,1158,1164,1158,1168,1165,1166,1167,1157,1150,1152,1160,1161,1149,662,691,693,696,717,785,919,995,1084,1125,1092,1117,1057,1080,1054,1076,1047,1018,952,971,953,954,928,883,874,856,838,843,824,806,787,747,729,670,676,700,716,691,686,680,698,787,710,685,705,735,710,701,709,706,705,703,710,707,728,714,710,707,713,717,706,716,708,712,717,537,555,540,542,548,598,653,719,786,834,856,844,793,819,793,805,792,757,744,732,739,724,711,700,684,670,678,647,629,616,602,589,593,568,549,551,547,554,539,542,541,554,548,544,546,556,548,544,546,552,552,549,547,553,555,554,554,556,549,554,554,579,580,579,575,572,574,576,578,598,657,743,795,862,938,932,920,869,895,869,882,866,851,836,824,806,797,763,768,747,718,737,688,673,658,643,628,625,598,585,581,583,594,587,582,587,603,609,608,652,623,594,642,600,587,601,613,628,633,631,637,625,645,629,623,614,599,591,603,588,1035,1038,1032,1023,1158,1325,1605,1764,1798,1879,1862,1798,1793,1729,1724,1661,1669,1687,1585,1550,1572,1481,1446,1411,1338,1391,1270,1272,1216,1182,1168,1113,1099,1036,1010,1046,1061,1067,1062,1076,1085,1095,1091,1111,1092,1103,1082,1093,1089,1080,1084,1093,1100,1108,1100,1113,1093,1101,1110,1092,1085,1080,1092,1100,1078,586,588,590,591,602,728,765,868,947,960,1027,1021,966,965,936,921,906,892,877,844,847,795,780,765,749,734,740,704,688,673,658,643,627,612,599,595,596,628,587,593,592,605,596,596,596,607,605,599,598,602,602,600,596,601,603,603,603,606,598,602,605,632,633,633,625,574,576,577,579,589,646,732,818,900,944,947,932,972,902,887,872,857,842,826,811,796,781,865,751,736,721,744,690,675,660,645,630,615,611,618,583,584,586,580,579,588,601,595,601,596,607,601,598,608,596,599,608,613,617,605,595,601,605,603,596,596,610,593,608,594,529,530,532,534,540,583,687,737,814,860,874,860,846,832,810,862,812,776,762,749,735,740,753,711,672,659,645,654,640,626,611,604,589,533,541,537,553,554,536,554,555,554,547,538,553,572,556,544,605,560,561,553,590,578,646,600,580,554,559,553,544,548,547,591,534,417,419,420,421,423,455,515,574,634,681,705,694,644,672,646,635,624,656,602,591,581,570,559,548,537,526,537,504,493,483,472,461,450,439,428,424,425,426,410,407,419,427,408,418,415,418,416,415,419,411,412,411,412,416,414,415,411,412,411,409,411,411,409,416,417,0,0,0,0,0,0,0,0,0,0,0,0,0,0,0,0,0,0,0,0,0,0,0,0,0,0,0,0,0,0,0,0,0,0,0,0,0,0,0,0,0,0,0,0,0,0,0,0,0,0,0,0,0,0,0,0,0,0,0,0,0,0,0,0,0,466,467,469,464,473,498,558,617,677,724,748,737,687,715,689,678,667,699,645,634,624,613,602,591,580,569,580,547,536,526,515,504,501,489,477,467,474,469,468,470,458,471,476,473,481,488,471,472,473,483,477,469,470,476,475,475,475,472,465,469,465,471,473,471,458,662,691,693,696,717,785,919,995,1084,1125,1092,1117,1057,1080,1054,1076,1047,1018,952,971,953,954,928,883,874,856,838,843,824,806,787,747,729,670,676,700,716,691,686,680,698,787,710,685,705,735,710,701,709,706,705,703,710,707,728,714,710,707,713,717,706,716,708,712,717,1052,1055,1058,1162,1193,1295,1463,1598,1738,1758,1698,1719,1700,1623,1637,1572,1585,1522,1525,1517,1476,1455,1429,1403,1316,1408,1263,1236,1248,1212,1185,1130,1138,1116,1096,1094,1113,1132,1124,1114,1110,1126,1114,1149,1118,1126,1150,1205,1129,1146,1146,1150,1142,1143,1164,1142,1131,1139,1137,1147,1144,1146,1146,1157,1136,258,259,259,260,260,270,299,310,355,368,372,370,367,365,362,360,357,355,352,350,341,345,390,354,307,314,298,303,298,292,287,281,276,270,265,261,295,296,255,259,262,269,265,266,262,271,258,272,262,263,265,264,273,280,268,265,268,266,271,265,269,273,261,264,259,312,313,313,314,315,312,349,386,431,444,448,446,443,441,438,436,433,431,428,426,435,421,412,406,383,364,395,350,343,336,329,322,332,326,319,316,316,317,299,301,301,307,360,337,322,340,323,358,328,331,333,312,316,337,322,308,345,315,310,335,330,354,334,325,322,840,853,801,838,880,1072,1213,1411,1518,1543,1530,1528,1473,1444,1416,1359,1358,1273,1284,1282,1197,1200,1197,1169,1141,1089,1084,1056,1028,953,971,943,915,855,905,833,883,897,864,863,867,875,856,877,877,884,881,883,884,870,879,869,877,883,882,882,882,877,883,873,882,885,883,900,898,306,307,308,309,310,327,365,442,531,512,526,509,521,498,516,514,498,493,488,482,453,471,429,423,425,380,411,366,358,351,344,336,329,322,314,311,311,312,299,299,301,303,303,302,303,307,301,303,303,314,303,308,308,308,302,302,309,310,310,316,308,312,303,304,308,675,677,675,674,697,769,873,976,1101,1077,1084,1057,1068,1044,1030,1011,1006,1016,978,962,936,931,943,900,847,864,821,801,786,788,748,726,734,717,684,701,678,685,674,679,685,698,708,709,687,716,685,731,703,715,703,698,715,733,713,702,720,706,708,717,712,724,699,706,699,918,920,923,959,988,1101,1242,1374,1476,1501,1487,1512,1443,1421,1400,1378,1356,1334,1341,1291,1263,1247,1225,1204,1153,1202,1107,1083,1060,1037,1014,991,967,946,933,931,977,995,955,957,1004,1258,1013,940,997,1091,1022,967,1062,1039,985,998,1073,1049,1034,950,981,978,1024,1029,961,1008,976,977,986,56,56,56,56,56,56,56,56,56,56,56,56,56,56,56,56,56,56,56,56,56,56,56,56,56,56,56,56,56,56,56,56,56,56,56,56,56,56,24,24,24,24,24,24,24,24,24,24,24,24,24,24,24,24,24,24,24,24,24,24,24,24,24,24,24,574,576,578,585,589,646,765,833,899,967,939,925,910,895,882,867,853,839,860,810,819,781,767,761,747,734,720,712,717,680,672,625,640,597,585,583,588,585,586,584,578,586,593,608,587,598,600,629,588,590,584,591,591,579,593,595,594,594,585,587,592,594,590,594,590,0,0,0,0,0,0,0,0,0,0,0,0,0,0,0,0,0,0,0,0,0,0,0,0,0,0,0,0,0,0,0,0,0,0,0,0,0,0,0,0,0,0,0,0,0,0,0,0,0,0,0,0,0,0,0,0,0,0,0,0,0,0,0,0,0,1052,1055,1058,1162,1193,1295,1463,1598,1738,1758,1698,1719,1700,1623,1637,1572,1585,1522,1525,1517,1476,1455,1429,1403,1316,1408,1263,1236,1248,1212,1185,1130,1138,1116,1096,1094,1113,1132,1124,1114,1110,1126,1114,1149,1118,1126,1150,1205,1129,1146,1146,1150,1142,1143,1164,1142,1131,1139,1137,1147,1144,1146,1146,1157,1136,0,0,0,0,0,0,0,0,0,0,0,0,0,0,0,0,0,0,0,0,0,0,0,0,0,0,0,0,0,0,0,0,0,0,0,0,0,0,0,0,0,0,0,0,0,0,0,0,0,0,0,0,0,0,0,0,0,0,0,0,0,0,0,0,0,857,822,808,860,851,961,1087,1310,1331,1351,1350,1361,1290,1267,1315,1227,1206,1185,1186,1143,1145,1101,1080,1084,1046,1036,1022,1031,975,917,956,905,888,872,818,840,843,892,856,856,852,866,878,859,868,878,868,869,879,885,957,961,967,916,958,916,892,890,870,869,885,863,875,868,862,886,853,837,891,898,1006,1139,1295,1399,1385,1407,1417,1337,1345,1340,1273,1263,1229,1252,1190,1215,1143,1121,1130,1058,1074,1074,1067,1001,952,993,943,919,903,848,871,904,932,909,883,891,905,897,904,907,920,904,905,917,906,938,932,936,921,900,898,908,907,911,894,901,913,899,912,907,1656,1617,1669,1857,2100,2370,2547,2691,2758,2717,2678,2730,2650,2640,2485,2464,2375,2277,2325,2226,2179,2199,2084,2047,2051,1964,1869,1902,1835,1795,1715,1697,1613,1648,1638,1656,1645,1678,1803,1810,1763,1773,1807,1795,1800,1813,1808,1818,1866,1816,1827,1839,1839,1843,1823,1850,1863,1863,1897,1850,1845,1851,1905,1841,1848,942,910,907,939,941,1082,1223,1357,1451,1490,1519,1500,1415,1423,1418,1351,1341,1328,1345,1273,1254,1216,1183,1184,1134,1136,1114,1140,1052,1013,1036,983,987,961,918,929,917,967,957,938,945,944,976,1019,961,982,989,1008,1014,1029,1023,1029,990,1009,1000,986,997,996,1007,1067,1027,1042,1029,1023,1034,836,808,810,814,853,947,1073,1197,1281,1383,1325,1312,1296,1268,1234,1273,1192,1184,1150,1212,1120,1099,1078,1056,1025,1008,980,1068,975,917,897,979,855,863,829,818,819,832,845,832,824,828,885,937,853,848,862,875,861,862,861,862,859,859,862,874,891,864,864,914,874,883,901,863,864,138,139,139,140,140,143,162,180,199,218,231,227,223,220,216,213,209,205,202,198,194,191,187,183,180,176,173,169,165,162,158,154,151,147,143,140,141,141,128,129,131,131,135,128,128,132,131,128,139,136,128,133,140,142,181,151,138,134,133,129,128,131,133,129,127,879,891,910,933,980,1052,1191,1327,1417,1414,1438,1487,1442,1438,1347,1380,1297,1278,1232,1231,1212,1183,1164,1184,1137,1095,1072,1065,1091,1024,981,980,932,920,921,913,897,902,916,912,911,922,925,945,954,953,929,946,950,940,938,936,931,970,970,937,938,936,923,947,937,939,939,971,934,596,598,600,601,613,674,763,922,938,981,985,969,953,938,922,906,890,875,859,843,827,812,796,780,764,794,783,717,742,723,670,654,638,622,609,605,607,651,614,619,616,624,625,625,624,638,615,628,619,618,623,633,631,626,631,626,625,624,639,634,621,625,622,626,623,922,934,959,976,1023,1095,1234,1370,1460,1457,1481,1530,1485,1477,1390,1416,1340,1321,1275,1274,1255,1226,1222,1227,1180,1151,1127,1108,1118,1076,1024,1030,982,969,970,962,946,951,968,973,967,980,981,980,978,996,970,975,976,974,971,984,985,985,981,983,984,978,985,990,975,986,975,985,983,0,0,0,0,0,0,0,0,0,0,0,0,0,0,0,0,0,0,0,0,0,0,0,0,0,0,0,0,0,0,0,0,0,0,0,0,0,0,0,0,0,0,0,0,0,0,0,0,0,0,0,0,0,0,0,0,0,0,0,0,0,0,0,0,0 ]);
