n = 10;
D = [283,144,135,190,84,291,158,148,172,89 ];
q = 0;
prec = array2d(1..0,1..2,[]);
steps = 64;
l = 360;
r = 0;
which = [];
interval = array2d(1..0,1..2,[]);
T = array3d(1..11,1..11,0..64,[0,0,0,0,0,0,0,0,0,0,0,0,0,0,0,0,0,0,0,0,0,0,0,0,0,0,0,0,0,0,0,0,0,0,0,0,0,0,0,0,0,0,0,0,0,0,0,0,0,0,0,0,0,0,0,0,0,0,0,0,0,0,0,0,0,735,818,801,827,771,959,1038,1161,1203,1289,1288,1283,1246,1188,1205,1112,1180,1198,1073,1159,1109,1058,1040,957,1042,923,958,953,917,902,909,823,803,854,819,797,837,751,809,799,814,864,835,841,828,806,821,839,830,822,820,855,884,876,851,830,816,823,813,815,808,825,820,840,807,710,723,726,730,734,864,960,1070,1108,1179,1181,1138,1114,1158,1105,1074,1056,1023,1030,987,1010,1004,945,936,950,919,882,877,824,805,787,786,751,754,738,733,748,719,725,731,730,747,735,752,735,749,759,738,744,738,739,739,735,738,740,743,740,743,736,739,744,756,752,761,744,963,965,967,976,1066,1238,1445,1614,1717,1740,1729,1697,1665,1633,1601,1569,1537,1505,1473,1441,1408,1376,1344,1310,1280,1248,1211,1184,1152,1120,1087,1055,1023,994,980,980,985,993,1006,1015,1027,1045,1042,1035,1030,1046,1020,1031,1028,1022,1022,1038,1037,1051,1131,1096,1039,1034,1038,1026,1019,1021,1036,1036,1021,1388,1380,1379,1437,1598,1775,2029,2105,2119,2199,2175,2110,2110,2094,2048,2005,1971,1937,1914,1888,1820,1827,1746,1744,1706,1651,1678,1565,1579,1569,1514,1499,1431,1395,1408,1412,1424,1348,1493,1491,1490,1521,1510,1503,1522,1536,1505,1528,1529,1526,1521,1518,1517,1526,1528,1524,1514,1521,1527,1519,1509,1525,1510,1510,1495,436,438,439,440,443,480,563,607,667,720,729,740,726,713,678,690,659,648,636,645,609,597,586,574,566,572,543,531,528,509,518,482,470,459,450,443,457,445,449,442,442,445,460,449,449,456,444,465,450,445,455,454,452,456,462,458,458,457,455,463,454,456,457,460,461,1209,1141,1179,1181,1270,1487,1609,1796,1816,1848,1886,1894,1779,1845,1762,1691,1772,1714,1631,1573,1542,1564,1521,1485,1499,1451,1457,1366,1309,1315,1279,1278,1190,1173,1157,1155,1158,1124,1221,1205,1204,1203,1238,1271,1226,1239,1238,1273,1254,1289,1294,1283,1252,1289,1256,1250,1261,1250,1279,1353,1330,1356,1336,1296,1306,453,454,498,457,460,505,564,669,696,744,752,782,728,716,704,692,680,668,656,644,632,674,608,596,584,572,593,548,536,524,512,500,488,515,492,460,503,463,458,464,471,479,475,484,464,481,464,494,472,469,475,477,491,506,487,479,486,473,487,488,483,490,469,477,471,716,683,678,685,693,759,893,947,1034,1077,1067,1063,1053,1038,1023,1008,994,964,948,949,915,916,899,903,848,878,830,799,782,766,749,732,724,711,748,682,684,728,712,717,708,714,724,715,723,720,714,715,714,721,716,720,722,725,722,718,722,716,722,733,720,730,715,721,720,701,676,682,682,703,750,838,959,990,1053,1043,1071,1026,1011,995,979,964,948,932,917,902,885,899,868,839,841,828,810,800,786,757,739,713,714,685,686,682,684,692,678,685,680,818,691,694,691,692,697,771,789,709,713,717,709,836,739,715,713,752,716,712,709,736,715,728,0,0,0,0,0,0,0,0,0,0,0,0,0,0,0,0,0,0,0,0,0,0,0,0,0,0,0,0,0,0,0,0,0,0,0,0,0,0,0,0,0,0,0,0,0,0,0,0,0,0,0,0,0,0,0,0,0,0,0,0,0,0,0,0,0,802,796,782,798,810,871,993,1156,1199,1247,1292,1258,1231,1209,1182,1168,1182,1107,1087,1067,1059,1040,1032,981,961,934,957,902,932,863,848,826,817,778,804,810,793,795,777,790,787,805,790,786,799,815,792,786,790,794,790,790,790,795,797,794,797,801,794,802,795,829,823,835,825,0,0,0,0,0,0,0,0,0,0,0,0,0,0,0,0,0,0,0,0,0,0,0,0,0,0,0,0,0,0,0,0,0,0,0,0,0,0,0,0,0,0,0,0,0,0,0,0,0,0,0,0,0,0,0,0,0,0,0,0,0,0,0,0,0,1063,1041,1061,1043,1210,1239,1400,1539,1680,1652,1686,1777,1659,1614,1541,1572,1489,1462,1443,1409,1385,1358,1333,1306,1281,1286,1228,1233,1192,1162,1136,1126,1076,1137,1065,1032,1118,1066,1084,1075,1072,1075,1078,1118,1108,1121,1103,1112,1120,1113,1107,1106,1104,1141,1136,1105,1120,1114,1114,1144,1123,1122,1129,1176,1134,1715,1761,1874,1964,2192,2546,2745,3007,2848,2896,2813,2764,2779,2632,2676,2639,2540,2509,2469,2416,2336,2226,2225,2175,2105,2102,2030,1997,1967,1901,1874,1919,1778,1785,1768,1757,1716,1767,1996,2037,2040,2070,2064,2096,2034,2060,2062,2065,2090,2087,2107,2145,2104,2129,2103,2131,2147,2163,2183,2144,2168,2206,2199,2190,2184,967,957,960,974,1022,1163,1311,1405,1510,1542,1595,1534,1492,1486,1462,1438,1396,1378,1340,1306,1317,1293,1269,1245,1221,1171,1158,1128,1111,1100,1076,1052,1015,1005,992,969,971,978,992,969,983,984,983,998,988,988,989,1000,1030,1008,1011,1016,1017,1027,1012,1014,1004,1029,1032,1028,1022,1013,1031,1040,1042,724,714,710,680,699,770,872,974,1094,1151,1108,1091,1120,1055,1038,1090,996,985,967,949,931,908,896,878,861,843,825,808,873,780,755,737,719,701,719,684,686,687,682,677,683,699,685,692,683,689,692,690,686,686,682,690,683,678,686,692,691,692,685,684,693,701,697,702,693,628,630,632,634,649,714,828,903,990,1030,1036,1019,1003,986,970,953,1032,920,903,887,870,854,837,821,802,788,771,755,738,722,709,689,672,673,642,638,638,641,625,628,639,654,642,645,637,648,637,661,642,639,656,657,678,687,666,654,656,661,657,652,662,679,654,663,651,1040,1045,1037,1023,1089,1215,1380,1511,1627,1625,1630,1596,1637,1552,1518,1549,1483,1437,1419,1385,1360,1337,1312,1280,1263,1231,1204,1183,1170,1141,1113,1083,1055,1028,1046,1013,1012,1016,1038,1043,1037,1050,1055,1050,1043,1062,1036,1049,1044,1046,1043,1062,1057,1055,1055,1053,1053,1052,1062,1073,1044,1058,1049,1057,1047,1151,1135,1159,1154,1319,1350,1531,1699,1794,1754,1747,1799,1784,1722,1666,1682,1632,1583,1539,1515,1507,1470,1425,1424,1381,1368,1330,1341,1289,1267,1228,1224,1165,1242,1161,1136,1192,1151,1218,1181,1190,1190,1223,1264,1215,1226,1223,1231,1288,1239,1242,1257,1253,1268,1211,1223,1241,1259,1258,1256,1228,1243,1254,1227,1227,1194,1169,1189,1189,1361,1444,1628,1766,1887,1868,1861,1827,1870,1787,1743,1767,1689,1659,1615,1598,1573,1551,1491,1494,1460,1412,1392,1373,1338,1298,1288,1253,1209,1271,1190,1165,1269,1174,1242,1231,1226,1229,1242,1284,1267,1284,1267,1281,1282,1287,1283,1283,1272,1310,1306,1274,1285,1279,1283,1325,1294,1302,1302,1358,1304,802,796,782,798,810,871,993,1156,1199,1247,1292,1258,1231,1209,1182,1168,1182,1107,1087,1067,1059,1040,1032,981,961,934,957,902,932,863,848,826,817,778,804,810,793,795,777,790,787,805,790,786,799,815,792,786,790,794,790,790,790,795,797,794,797,801,794,802,795,829,823,835,825,727,739,742,754,760,854,981,1047,1156,1155,1161,1143,1158,1116,1112,1072,1072,1036,1026,1022,994,966,980,930,912,895,906,853,823,868,833,814,770,797,757,738,739,767,753,739,741,744,777,774,785,781,767,794,772,759,774,747,749,766,763,755,774,749,745,767,766,785,774,777,770,1132,1167,1135,1189,1237,1398,1550,1681,1800,1727,1797,1773,1708,1717,1600,1600,1647,1581,1569,1530,1517,1519,1442,1402,1387,1359,1329,1323,1288,1248,1212,1276,1174,1116,1132,1169,1104,1129,1184,1187,1165,1180,1170,1213,1176,1190,1219,1267,1193,1215,1210,1211,1204,1228,1228,1202,1202,1190,1203,1230,1204,1216,1215,1215,1197,0,0,0,0,0,0,0,0,0,0,0,0,0,0,0,0,0,0,0,0,0,0,0,0,0,0,0,0,0,0,0,0,0,0,0,0,0,0,0,0,0,0,0,0,0,0,0,0,0,0,0,0,0,0,0,0,0,0,0,0,0,0,0,0,0,1045,1029,1032,1050,1245,1251,1446,1540,1623,1626,1656,1591,1636,1544,1520,1496,1473,1491,1425,1402,1396,1379,1331,1304,1282,1259,1230,1206,1196,1153,1127,1229,1090,1054,1042,1035,1093,1045,1105,1107,1093,1116,1152,1143,1121,1115,1137,1169,1138,1176,1173,1167,1112,1118,1147,1154,1154,1127,1170,1221,1166,1154,1177,1145,1146,1354,1392,1380,1519,1611,1738,1906,2211,2264,2182,2109,2093,2044,2017,1986,1964,1921,1943,1867,1825,1805,1791,1749,1750,1717,1638,1620,1555,1562,1508,1476,1443,1440,1393,1374,1381,1370,1380,1444,1406,1415,1413,1428,1443,1428,1436,1430,1447,1472,1464,1463,1472,1476,1493,1475,1484,1463,1493,1497,1499,1502,1489,1517,1529,1521,538,531,523,526,531,601,650,720,784,831,830,818,804,793,779,770,792,744,729,717,706,694,679,666,653,654,631,618,604,616,590,567,554,543,546,528,530,531,522,522,515,523,524,549,522,530,538,565,526,529,519,526,531,515,527,530,527,531,522,524,533,532,525,531,524,1311,1319,1324,1459,1449,1703,1871,2241,2146,2030,2012,2190,1949,1918,1929,1857,1819,1794,1763,1768,1742,1666,1672,1706,1671,1542,1543,1534,1445,1474,1429,1374,1323,1331,1292,1365,1307,1293,1386,1378,1361,1380,1368,1405,1376,1379,1412,1460,1388,1399,1404,1401,1398,1406,1412,1397,1382,1389,1381,1391,1395,1398,1392,1389,1369,323,324,325,353,327,366,385,424,463,500,507,500,493,485,478,470,463,456,448,441,434,462,419,412,404,397,390,382,406,368,390,353,345,338,348,354,355,329,322,328,332,340,335,340,326,334,325,353,331,327,335,334,350,368,346,338,345,331,341,341,345,351,328,335,328,138,139,139,139,140,143,157,170,170,192,170,170,194,192,191,170,170,170,170,170,170,177,175,172,169,167,164,161,158,156,153,150,147,145,142,140,140,140,132,125,126,126,132,127,128,132,126,127,128,127,129,129,128,131,133,132,133,132,131,129,129,132,132,132,133,166,167,167,168,168,173,192,211,264,296,270,288,296,297,294,256,265,264,265,263,261,219,216,212,208,205,201,197,193,190,186,182,179,175,171,168,169,169,158,157,158,159,158,162,159,162,161,159,162,158,159,159,159,161,162,159,159,161,159,162,159,162,161,164,163,727,739,742,754,760,854,981,1047,1156,1155,1161,1143,1158,1116,1112,1072,1072,1036,1026,1022,994,966,980,930,912,895,906,853,823,868,833,814,770,797,757,738,739,767,753,739,741,744,777,774,785,781,767,794,772,759,774,747,749,766,763,755,774,749,745,767,766,785,774,777,770,1024,1027,1029,1050,1124,1360,1526,1757,1803,1839,1824,1791,1818,1724,1741,1657,1623,1640,1559,1569,1489,1459,1423,1389,1400,1322,1332,1255,1222,1188,1155,1121,1090,1059,1040,1040,1046,1053,1065,1076,1083,1096,1089,1104,1133,1131,1074,1110,1092,1076,1077,1123,1133,1149,1134,1153,1130,1142,1142,1113,1097,1083,1091,1096,1074,1637,1642,1691,1827,2120,2442,2708,2904,2987,3034,2964,2880,2840,2790,2735,2668,2611,2557,2581,2430,2366,2315,2364,2283,2237,2105,2066,1976,1918,1854,1816,1756,1711,1677,1665,1673,1716,1728,1923,1911,1878,1901,1900,1963,1968,1984,1943,2039,1938,1964,1956,2004,1981,2056,2008,1981,1968,1980,1991,2003,1989,2003,1966,1966,1924,1035,1038,1041,1101,1123,1241,1426,1562,1629,1650,1737,1619,1604,1568,1548,1522,1545,1467,1429,1416,1391,1366,1361,1336,1290,1265,1265,1214,1198,1190,1163,1113,1088,1089,1053,1050,1052,1082,1085,1089,1085,1122,1110,1097,1108,1120,1098,1123,1126,1116,1112,1111,1104,1111,1110,1110,1110,1104,1104,1105,1098,1111,1100,1105,1085,0,0,0,0,0,0,0,0,0,0,0,0,0,0,0,0,0,0,0,0,0,0,0,0,0,0,0,0,0,0,0,0,0,0,0,0,0,0,0,0,0,0,0,0,0,0,0,0,0,0,0,0,0,0,0,0,0,0,0,0,0,0,0,0,0,1585,1583,1635,1836,2210,2677,2960,3171,3167,3163,3106,3040,2972,2912,2838,2799,2712,2636,2571,2511,2459,2379,2311,2246,2249,2206,2071,1971,1904,1845,1784,1720,1651,1630,1615,1633,1651,1669,1820,1810,1825,1856,1832,1848,1841,1833,1859,1918,1857,1861,1870,1878,1900,1891,1914,1861,1836,1869,1862,1868,1850,1884,1877,1888,1854,1400,1380,1409,1534,1608,1809,2092,2130,2198,2223,2318,2195,2160,2108,2068,2069,2011,2011,1935,1925,1849,1814,1781,1786,1768,1679,1670,1647,1575,1533,1494,1502,1437,1410,1440,1399,1406,1454,1482,1472,1471,1483,1478,1513,1481,1484,1510,1577,1491,1506,1505,1513,1517,1514,1536,1527,1513,1518,1510,1520,1527,1524,1520,1535,1525,1533,1530,1593,1721,2017,2442,2749,2910,2975,2980,2936,2867,2806,2740,2683,2630,2591,2524,2440,2400,2360,2264,2203,2155,2142,2020,1999,1930,1842,1811,1716,1678,1598,1624,1557,1589,1601,1603,1728,1706,1719,1733,1731,1747,1733,1738,1735,1756,1782,1756,1765,1750,1756,1785,1777,1766,1767,1780,1773,1795,1789,1782,1800,1815,1819,1083,1086,1090,1129,1179,1318,1493,1634,1734,1767,1759,1730,1723,1695,1754,1618,1609,1576,1534,1506,1478,1449,1421,1393,1365,1337,1325,1281,1253,1240,1211,1169,1141,1131,1102,1113,1134,1105,1115,1134,1131,1119,1118,1128,1133,1136,1134,1161,1151,1151,1168,1147,1150,1146,1169,1159,1153,1172,1243,1196,1185,1161,1193,1183,1196,957,938,940,996,1008,1122,1270,1406,1489,1523,1634,1518,1494,1446,1422,1441,1393,1350,1334,1322,1277,1253,1229,1244,1199,1156,1148,1108,1084,1060,1035,1011,987,965,967,949,951,997,1004,1000,977,985,982,1000,993,1009,1006,1072,1000,1040,1037,1040,1009,1091,1046,997,999,990,1028,1055,1037,1067,1051,1050,1026,902,905,926,961,992,1080,1224,1388,1442,1505,1567,1450,1426,1403,1379,1355,1332,1308,1296,1261,1238,1214,1213,1189,1143,1120,1096,1072,1049,1025,1020,978,955,933,919,934,919,1026,935,932,934,937,939,937,940,940,939,946,947,945,948,950,950,950,953,959,954,962,952,955,962,961,960,960,957,1024,1027,1029,1050,1124,1360,1526,1757,1803,1839,1824,1791,1818,1724,1741,1657,1623,1640,1559,1569,1489,1459,1423,1389,1400,1322,1332,1255,1222,1188,1155,1121,1090,1059,1040,1040,1046,1053,1065,1076,1083,1096,1089,1104,1133,1131,1074,1110,1092,1076,1077,1123,1133,1149,1134,1153,1130,1142,1142,1113,1097,1083,1091,1096,1074,1258,1237,1267,1295,1538,1677,1755,1894,1982,2000,2020,1956,1894,1863,1832,2064,1825,1887,1788,1717,1757,1684,1603,1598,1540,1550,1481,1468,1492,1382,1350,1355,1289,1276,1298,1252,1274,1274,1340,1318,1289,1300,1320,1311,1310,1321,1329,1334,1365,1330,1356,1345,1352,1350,1322,1359,1374,1364,1386,1368,1353,1341,1410,1332,1340,731,733,735,738,765,846,1078,1071,1159,1327,1202,1183,1163,1144,1125,1315,1086,1066,1048,1029,1009,990,971,1034,932,913,894,875,929,836,817,865,779,759,811,808,744,746,791,766,764,771,777,778,839,831,778,814,798,776,779,829,831,835,827,848,836,853,829,807,809,793,777,772,762,1356,1350,1369,1444,1608,1740,1939,2059,2139,2160,2222,2164,2059,1984,2016,1981,1949,1915,1899,1867,1831,1787,1747,1723,1664,1631,1624,1547,1530,1494,1476,1452,1398,1399,1378,1388,1432,1363,1432,1444,1468,1493,1506,1512,1509,1483,1472,1504,1460,1450,1466,1474,1470,1472,1499,1489,1459,1461,1474,1470,1467,1482,1504,1514,1474,1554,1563,1614,1804,2133,2630,2943,3091,3140,3138,3083,3027,2956,2894,2891,2753,2691,2698,2556,2507,2440,2351,2289,2217,2156,2127,2022,1995,1889,1886,1756,1689,1641,1600,1591,1620,1618,1656,1781,1816,1772,1778,1815,1782,1807,1823,1808,1797,1846,1803,1809,1823,1839,1851,1849,1874,1851,1836,1862,1800,1823,1834,1865,1818,1805,0,0,0,0,0,0,0,0,0,0,0,0,0,0,0,0,0,0,0,0,0,0,0,0,0,0,0,0,0,0,0,0,0,0,0,0,0,0,0,0,0,0,0,0,0,0,0,0,0,0,0,0,0,0,0,0,0,0,0,0,0,0,0,0,0,1073,1058,1055,1112,1232,1319,1470,1617,1752,1716,1728,1697,1629,1607,1584,1540,1546,1518,1491,1464,1440,1441,1382,1392,1334,1303,1265,1245,1234,1202,1169,1136,1109,1097,1092,1076,1083,1082,1088,1128,1096,1111,1131,1113,1104,1113,1116,1120,1122,1104,1113,1120,1124,1129,1129,1137,1127,1126,1136,1135,1146,1176,1182,1174,1165,505,533,534,536,543,592,652,749,826,850,879,865,851,816,823,809,795,781,767,734,739,725,711,697,682,652,654,640,626,597,598,570,570,556,543,539,541,529,541,530,533,538,542,540,542,538,542,546,545,541,552,547,547,538,539,552,547,555,539,540,552,548,545,542,537,1381,1353,1369,1464,1612,1778,1976,2084,2176,2194,2204,2174,2036,2024,2007,1926,1968,1920,1890,1856,1823,1806,1750,1705,1682,1655,1604,1578,1566,1517,1471,1458,1418,1405,1360,1370,1418,1353,1448,1436,1433,1453,1465,1486,1482,1484,1465,1472,1506,1491,1488,1506,1503,1516,1511,1487,1497,1494,1474,1541,1490,1484,1504,1562,1502,1441,1477,1477,1591,1733,1871,2043,2172,2289,2319,2308,2288,2198,2109,2147,2057,2113,2045,2029,1936,1951,1897,1828,1817,1776,1720,1682,1643,1645,1586,1552,1502,1487,1493,1477,1438,1508,1458,1587,1526,1525,1545,1531,1559,1551,1550,1578,1632,1559,1579,1664,1572,1578,1652,1578,1566,1563,1578,1656,1727,1763,1796,1789,1621,1611,1480,1504,1511,1645,1819,1971,2164,2265,2364,2402,2355,2334,2260,2180,2228,2100,2167,2086,2077,1976,2021,1969,1865,1863,1811,1784,1714,1701,1684,1646,1581,1530,1552,1522,1517,1467,1548,1497,1590,1575,1574,1590,1598,1619,1618,1627,1605,1619,1651,1634,1715,1708,1720,1674,1670,1621,1633,1648,1635,1648,1640,1625,1651,1697,1642,1258,1237,1267,1295,1538,1677,1755,1894,1982,2000,2020,1956,1894,1863,1832,2064,1825,1887,1788,1717,1757,1684,1603,1598,1540,1550,1481,1468,1492,1382,1350,1355,1289,1276,1298,1252,1274,1274,1340,1318,1289,1300,1320,1311,1310,1321,1329,1334,1365,1330,1356,1345,1352,1350,1322,1359,1374,1364,1386,1368,1353,1341,1410,1332,1340,494,495,477,479,503,566,625,680,748,768,801,805,789,762,763,750,724,695,712,664,652,673,633,647,649,596,584,595,582,546,556,534,538,518,505,492,502,504,492,494,500,525,518,503,506,515,506,514,522,527,598,636,706,576,519,506,510,522,516,500,504,518,507,519,506,768,749,768,765,777,855,969,1088,1167,1231,1200,1181,1187,1142,1189,1108,1092,1165,1057,1123,1035,941,1001,950,940,954,919,882,860,841,840,820,813,766,773,777,777,753,764,768,764,774,776,772,774,789,762,774,768,767,771,781,782,777,778,777,771,769,785,783,766,770,772,778,770,391,392,392,393,394,423,476,532,586,632,641,673,621,611,601,591,581,571,560,551,542,531,521,510,501,490,481,470,462,450,441,431,422,411,401,396,397,399,389,393,389,389,422,458,401,392,395,403,396,392,394,395,394,395,400,397,393,394,389,397,402,408,417,395,392,1362,1347,1360,1444,1677,1773,1953,2091,2177,2177,2187,2126,2107,2104,2060,1989,1991,1912,1932,1869,1950,1775,1858,1770,1684,1636,1626,1601,1580,1497,1484,1452,1402,1398,1364,1363,1359,1382,1472,1453,1494,1761,1502,1443,1489,1586,1522,1461,1562,1531,1481,1483,1565,1542,1544,1452,1479,1471,1519,1520,1459,1509,1470,1480,1491,1134,1140,1141,1178,1286,1423,1578,1693,1807,1867,1801,1772,1754,1791,1733,1669,1624,1608,1563,1547,1560,1484,1472,1415,1403,1374,1349,1303,1277,1241,1273,1211,1171,1153,1143,1158,1144,1149,1174,1172,1187,1196,1195,1230,1185,1208,1202,1203,1229,1199,1204,1213,1205,1211,1197,1204,1196,1213,1196,1205,1204,1220,1203,1214,1218,0,0,0,0,0,0,0,0,0,0,0,0,0,0,0,0,0,0,0,0,0,0,0,0,0,0,0,0,0,0,0,0,0,0,0,0,0,0,0,0,0,0,0,0,0,0,0,0,0,0,0,0,0,0,0,0,0,0,0,0,0,0,0,0,0,1023,1089,1028,1027,1178,1290,1416,1555,1642,1665,1657,1663,1653,1659,1637,1522,1538,1498,1423,1419,1392,1429,1355,1293,1289,1260,1223,1207,1162,1184,1192,1137,1067,1058,1039,1102,1039,1029,1059,1097,1058,1061,1090,1061,1076,1082,1080,1092,1093,1082,1101,1084,1090,1095,1103,1100,1096,1101,1135,1100,1120,1128,1145,1106,1101,369,373,371,370,374,404,457,510,558,604,619,607,600,587,575,565,555,545,534,531,518,506,495,487,481,465,461,447,438,432,421,413,399,389,382,375,376,377,368,374,371,383,397,394,379,407,376,407,393,426,385,383,393,404,389,387,400,401,389,394,389,406,385,386,380,483,489,480,491,485,522,604,670,716,763,783,769,776,736,702,691,706,696,685,674,674,650,638,625,612,598,573,561,567,573,543,542,514,502,495,491,493,495,479,481,478,483,506,527,492,487,488,490,488,488,490,490,487,490,487,490,488,487,488,496,500,507,511,493,493,522,517,515,519,525,579,646,743,815,846,867,852,837,825,815,803,791,781,761,737,735,724,711,696,677,648,640,618,616,628,595,574,561,544,548,520,521,545,530,532,527,532,572,562,578,592,552,579,567,569,565,541,546,570,563,545,570,550,540,557,552,579,563,567,547,494,495,477,479,503,566,625,680,748,768,801,805,789,762,763,750,724,695,712,664,652,673,633,647,649,596,584,595,582,546,556,534,538,518,505,492,502,504,492,494,500,525,518,503,506,515,506,514,522,527,598,636,706,576,519,506,510,522,516,500,504,518,507,519,506,1173,1152,1156,1193,1316,1438,1666,1874,1833,1901,1890,1846,1821,1764,1734,1709,1666,1650,1616,1591,1557,1519,1498,1468,1439,1409,1380,1378,1321,1346,1299,1232,1203,1181,1244,1166,1248,1172,1233,1237,1244,1257,1250,1279,1253,1271,1245,1277,1277,1295,1245,1259,1283,1294,1274,1289,1285,1289,1283,1269,1264,1260,1282,1279,1245,561,563,565,567,576,630,714,799,880,974,929,914,900,885,870,855,840,825,810,795,781,766,751,736,721,706,691,676,662,647,632,617,602,587,574,570,572,573,567,567,575,598,585,576,583,587,580,585,595,598,619,641,626,618,591,580,583,596,588,572,578,591,580,592,582,1287,1272,1317,1300,1452,1637,1813,1955,1993,2041,2058,1995,1962,1891,1904,1828,1867,1806,1883,1759,1692,1660,1628,1635,1564,1551,1545,1468,1421,1462,1363,1368,1310,1352,1285,1314,1302,1337,1352,1343,1336,1356,1470,1453,1392,1434,1390,1498,1451,1466,1455,1407,1417,1459,1452,1396,1472,1445,1429,1488,1445,1514,1488,1520,1443,1593,1595,1658,1828,2138,2655,2913,3065,3075,3216,3072,3028,2914,2835,2776,2731,2651,2583,2527,2464,2403,2339,2280,2215,2143,2107,2071,1964,1896,1840,1745,1713,1638,1590,1592,1592,1610,1632,1777,1756,1755,1772,1772,1807,1776,1771,1803,1871,1786,1794,1805,1808,1812,1799,1822,1822,1807,1819,1792,1805,1822,1813,1808,1818,1803,654,656,658,660,671,732,860,955,998,1045,1142,1032,1016,1000,1020,969,976,937,944,927,911,873,901,841,825,841,793,777,761,775,729,713,714,681,667,663,665,683,677,666,669,666,671,670,675,671,678,672,671,675,684,680,685,680,677,685,676,684,683,687,683,687,678,676,676,968,971,989,988,1051,1182,1328,1519,1558,1631,1622,1563,1525,1499,1474,1458,1423,1398,1399,1353,1323,1304,1282,1247,1222,1197,1181,1147,1130,1105,1079,1054,1021,999,1058,990,986,988,1000,1005,1001,1040,990,1042,1009,1037,1023,1027,1046,1011,1023,1015,1026,1043,1035,1026,1027,1028,1036,1023,1028,1034,1026,1067,1046,0,0,0,0,0,0,0,0,0,0,0,0,0,0,0,0,0,0,0,0,0,0,0,0,0,0,0,0,0,0,0,0,0,0,0,0,0,0,0,0,0,0,0,0,0,0,0,0,0,0,0,0,0,0,0,0,0,0,0,0,0,0,0,0,0,1267,1271,1324,1300,1443,1653,1826,1969,1980,2052,2080,2015,1986,1895,1909,1831,1840,1821,1858,1739,1710,1685,1655,1612,1581,1553,1524,1482,1460,1420,1376,1360,1323,1310,1288,1288,1317,1301,1349,1328,1328,1333,1366,1396,1371,1382,1364,1372,1405,1391,1412,1398,1412,1406,1441,1376,1394,1425,1435,1426,1397,1406,1442,1517,1409,1360,1361,1414,1418,1565,1797,1927,2068,2165,2231,2205,2144,2116,1990,2054,1926,1963,1950,2011,1860,1804,1772,1739,1714,1668,1652,1632,1574,1521,1546,1494,1461,1405,1428,1375,1410,1387,1412,1463,1465,1456,1467,1480,1471,1483,1502,1474,1483,1489,1503,1513,1505,1483,1498,1497,1510,1522,1498,1503,1497,1506,1503,1522,1499,1489,1388,1402,1484,1457,1644,1902,2026,2162,2230,2298,2274,2210,2192,2099,2130,2015,2059,2022,2083,1904,1861,1842,1808,1764,1719,1700,1665,1606,1565,1581,1499,1499,1443,1457,1419,1439,1453,1459,1514,1520,1471,1481,1514,1502,1506,1517,1511,1520,1571,1517,1527,1540,1542,1543,1519,1549,1559,1558,1591,1541,1536,1544,1593,1522,1524,1173,1152,1156,1193,1316,1438,1666,1874,1833,1901,1890,1846,1821,1764,1734,1709,1666,1650,1616,1591,1557,1519,1498,1468,1439,1409,1380,1378,1321,1346,1299,1232,1203,1181,1244,1166,1248,1172,1233,1237,1244,1257,1250,1279,1253,1271,1245,1277,1277,1295,1245,1259,1283,1294,1274,1289,1285,1289,1283,1269,1264,1260,1282,1279,1245,500,509,506,512,511,555,637,711,775,831,837,816,811,788,784,762,757,740,723,713,704,687,678,664,651,634,617,611,598,581,567,551,541,532,519,515,516,518,514,511,510,521,531,536,549,533,522,539,544,531,532,521,522,549,539,529,531,524,518,531,527,538,532,554,527,1001,1054,991,1007,1079,1240,1352,1562,1639,1654,1689,1696,1594,1558,1500,1530,1539,1538,1398,1393,1367,1402,1336,1300,1239,1224,1200,1173,1163,1165,1096,1126,1082,1058,1050,1100,1003,994,1036,1040,1049,1054,1051,1058,1042,1058,1042,1073,1055,1053,1060,1063,1077,1096,1077,1072,1072,1065,1073,1076,1074,1084,1059,1069,1065,253,254,255,256,256,267,301,334,368,402,415,408,402,395,389,383,376,370,363,357,351,344,338,332,325,319,312,306,300,293,287,280,274,268,261,257,258,258,241,242,242,243,243,242,245,245,245,246,245,246,246,247,246,247,248,250,248,248,248,249,253,251,250,249,250,1122,1169,1152,1177,1248,1366,1565,1691,1760,1753,1948,1718,1678,1654,1659,1607,1770,1579,1536,1500,1601,1451,1539,1403,1410,1464,1330,1321,1297,1272,1232,1209,1281,1263,1182,1153,1261,1145,1228,1245,1198,1208,1243,1227,1226,1236,1226,1229,1265,1233,1253,1252,1259,1257,1244,1258,1265,1271,1312,1237,1244,1260,1313,1258,1230,1330,1364,1351,1429,1525,1762,1934,2035,2121,2204,2126,2145,2103,2077,2012,1960,1929,1929,1865,1810,1843,1771,1766,1711,1701,1673,1605,1590,1515,1524,1516,1455,1401,1364,1383,1362,1404,1365,1419,1419,1442,1458,1437,1459,1434,1452,1435,1466,1464,1448,1452,1464,1472,1488,1471,1471,1453,1461,1473,1473,1473,1467,1451,1483,1475,372,374,373,374,376,403,455,508,563,622,620,607,616,587,582,571,558,548,535,527,519,511,499,489,479,469,460,454,440,430,420,410,401,390,382,377,378,379,389,358,365,365,361,373,369,377,372,369,377,366,368,366,366,371,370,371,368,370,368,365,368,369,368,376,373,1279,1291,1288,1450,1428,1753,1852,1929,1976,2028,2014,1979,2009,1917,1885,1850,1951,1786,1772,1800,1669,1709,1641,1635,1622,1529,1531,1498,1430,1479,1449,1367,1306,1321,1362,1326,1380,1381,1414,1404,1402,1495,1460,1453,1442,1432,1453,1491,1450,1513,1556,1516,1435,1479,1468,1470,1467,1445,1533,1626,1579,1573,1580,1498,1499,0,0,0,0,0,0,0,0,0,0,0,0,0,0,0,0,0,0,0,0,0,0,0,0,0,0,0,0,0,0,0,0,0,0,0,0,0,0,0,0,0,0,0,0,0,0,0,0,0,0,0,0,0,0,0,0,0,0,0,0,0,0,0,0,0,303,303,303,303,303,304,307,311,314,317,320,319,318,318,317,316,316,315,314,314,313,312,312,311,310,310,309,308,308,307,306,306,305,304,304,303,303,303,280,280,278,289,279,281,280,285,279,284,282,281,284,282,285,284,282,285,287,285,285,279,284,286,285,286,286,259,259,259,259,259,263,270,278,286,293,296,295,293,292,290,289,287,286,284,283,281,280,278,277,275,274,272,271,269,268,266,265,263,262,260,259,260,260,240,246,242,247,248,253,246,247,242,245,245,243,242,255,248,253,250,253,251,253,261,253,250,255,243,248,246,500,509,506,512,511,555,637,711,775,831,837,816,811,788,784,762,757,740,723,713,704,687,678,664,651,634,617,611,598,581,567,551,541,532,519,515,516,518,514,511,510,521,531,536,549,533,522,539,544,531,532,521,522,549,539,529,531,524,518,531,527,538,532,554,527,676,678,664,703,730,790,891,1021,1077,1099,1100,1086,1078,1048,1050,1004,996,1030,962,944,964,977,892,907,858,853,823,806,830,815,781,730,746,685,704,686,735,673,692,675,678,677,697,687,690,686,687,694,715,705,712,707,712,712,713,706,708,723,732,723,712,713,740,724,724,1142,1140,1161,1117,1199,1468,1617,1788,1726,1809,1796,1810,1688,1702,1665,1693,1559,1592,1523,1618,1495,1487,1491,1434,1394,1404,1301,1333,1377,1367,1205,1160,1135,1185,1147,1105,1125,1124,1184,1193,1162,1176,1181,1226,1183,1205,1220,1281,1198,1244,1228,1238,1211,1274,1245,1196,1197,1188,1219,1253,1231,1261,1242,1253,1214,187,184,187,184,184,189,189,193,197,201,206,205,204,203,202,201,200,200,199,198,197,196,195,194,194,193,192,191,197,189,189,188,187,186,185,188,184,188,175,163,164,164,170,169,170,166,166,170,179,171,175,175,175,175,172,171,173,181,185,181,173,171,187,177,178,1106,961,983,975,1060,1173,1306,1444,1557,1774,1576,1813,1505,1635,1484,1430,1406,1381,1356,1457,1425,1282,1257,1257,1208,1183,1175,1150,1131,1085,1060,1035,1010,988,989,972,974,977,981,980,984,984,988,981,990,996,999,985,986,984,990,986,996,989,1024,1011,997,998,1000,993,1000,994,990,997,990,1450,1456,1483,1508,1669,1894,2062,2277,2382,2304,2265,2230,2196,2191,2164,2046,2001,2110,2003,1920,1890,1846,1821,1786,1782,1703,1744,1657,1613,1665,1575,1576,1487,1456,1454,1443,1473,1425,1578,1567,1542,1562,1565,1604,1572,1581,1604,1671,1590,1637,1632,1641,1598,1644,1632,1589,1579,1593,1613,1647,1635,1655,1637,1633,1598,468,470,471,472,478,517,585,648,751,756,783,755,746,734,734,702,698,685,671,659,647,631,619,611,605,587,575,563,551,539,523,516,503,502,481,476,476,488,475,472,475,477,496,486,480,492,476,495,484,483,488,487,490,501,501,500,490,494,490,500,496,495,500,507,500,1493,1337,1435,1416,1541,1782,1927,2053,2288,2238,2150,2150,2085,2056,2016,1987,1921,1890,1856,1862,1786,1847,1721,1713,1633,1644,1691,1533,1519,1503,1482,1524,1430,1366,1383,1451,1387,1395,1463,1465,1421,1418,1463,1447,1455,1463,1459,1478,1518,1466,1478,1491,1493,1495,1472,1503,1509,1514,1548,1510,1494,1501,1554,1487,1493,272,273,273,274,275,289,325,361,397,406,411,408,405,402,399,396,393,396,389,382,376,386,362,355,387,341,335,328,321,314,307,300,293,287,280,276,276,277,266,272,270,274,276,280,273,274,270,272,272,270,270,282,276,279,280,280,279,280,288,279,278,282,271,276,273,0,0,0,0,0,0,0,0,0,0,0,0,0,0,0,0,0,0,0,0,0,0,0,0,0,0,0,0,0,0,0,0,0,0,0,0,0,0,0,0,0,0,0,0,0,0,0,0,0,0,0,0,0,0,0,0,0,0,0,0,0,0,0,0,0,129,130,130,130,130,132,115,147,157,153,163,160,158,155,153,150,148,145,143,157,155,153,151,148,146,144,142,140,118,116,144,142,140,139,132,131,131,131,115,115,117,120,117,116,118,121,116,118,117,117,120,118,120,120,117,118,118,121,121,118,120,124,120,119,119,676,678,664,703,730,790,891,1021,1077,1099,1100,1086,1078,1048,1050,1004,996,1030,962,944,964,977,892,907,858,853,823,806,830,815,781,730,746,685,704,686,735,673,692,675,678,677,697,687,690,686,687,694,715,705,712,707,712,712,713,706,708,723,732,723,712,713,740,724,724,678,677,682,677,704,776,871,961,1038,1070,1096,1082,1071,1021,1034,988,972,995,944,927,916,906,885,867,847,834,816,802,811,769,752,736,719,703,691,687,689,691,693,686,691,693,691,691,702,705,694,695,693,695,698,702,703,702,710,706,701,706,717,705,701,709,699,699,699,1122,1159,1155,1199,1257,1404,1637,1738,1932,1876,1873,1795,1817,1746,1747,1729,1642,1613,1592,1588,1563,1530,1468,1443,1458,1420,1428,1359,1297,1309,1240,1235,1220,1159,1184,1185,1147,1208,1196,1243,1200,1214,1216,1208,1215,1229,1222,1227,1242,1213,1223,1223,1229,1233,1236,1248,1244,1236,1248,1215,1248,1257,1268,1238,1241,234,234,235,235,236,243,288,289,294,299,304,303,302,301,300,299,298,297,313,308,304,299,295,290,304,281,276,272,267,263,258,254,262,244,240,236,237,237,223,220,217,216,216,230,220,223,223,226,223,232,234,223,242,235,265,224,226,245,227,236,227,222,238,223,224,885,938,891,897,963,1052,1191,1324,1561,1445,1456,1494,1395,1372,1349,1346,1448,1281,1257,1234,1283,1305,1180,1143,1235,1226,1074,1051,1129,1041,983,960,1028,915,902,899,901,1039,977,966,950,1000,1006,997,975,975,984,1008,1006,1000,1006,991,973,973,976,1003,1004,989,1013,1029,977,967,1009,965,959,1452,1482,1525,1588,1738,1984,2201,2230,2343,2317,2376,2269,2300,2263,2165,2184,2098,2074,2122,1983,1965,1946,1867,1852,1805,1833,1731,1723,1651,1660,1578,1586,1520,1496,1478,1478,1535,1485,1578,1574,1585,1588,1582,1575,1594,1605,1589,1590,1598,1601,1675,1685,1642,1610,1619,1636,1644,1717,1706,1602,1644,1729,1729,1702,1639,511,513,512,513,519,568,641,719,791,837,844,832,814,810,787,775,757,751,735,722,722,695,683,668,657,640,627,614,601,588,574,566,570,533,518,517,518,520,518,515,510,525,515,529,513,529,518,521,523,525,526,523,536,542,538,539,530,533,534,530,544,542,545,554,548,1372,1438,1468,1466,1601,2087,2001,2124,2239,2215,2221,2228,2194,2123,2054,2062,2068,1952,1999,1879,1846,1811,1818,1796,1756,1691,1636,1598,1637,1530,1477,1473,1429,1482,1427,1488,1488,1527,1567,1559,1554,1582,1573,1568,1648,1654,1570,1620,1602,1589,1580,1626,1626,1650,1640,1647,1633,1643,1643,1618,1597,1601,1575,1574,1556,254,313,255,256,257,268,296,324,377,379,389,393,387,390,374,384,356,351,374,371,335,364,326,319,314,308,302,299,293,288,282,277,272,266,261,257,258,259,240,242,243,240,241,243,243,242,242,249,246,243,243,246,246,246,247,248,247,246,247,246,247,246,247,250,248,126,127,127,128,128,129,134,139,145,150,155,154,153,152,151,150,149,148,147,146,145,143,142,141,140,139,138,137,136,135,134,133,132,134,130,128,128,129,112,110,110,110,139,119,112,112,112,112,129,131,126,123,129,113,144,121,119,127,136,118,115,119,127,133,117,0,0,0,0,0,0,0,0,0,0,0,0,0,0,0,0,0,0,0,0,0,0,0,0,0,0,0,0,0,0,0,0,0,0,0,0,0,0,0,0,0,0,0,0,0,0,0,0,0,0,0,0,0,0,0,0,0,0,0,0,0,0,0,0,0,678,677,682,677,704,776,871,961,1038,1070,1096,1082,1071,1021,1034,988,972,995,944,927,916,906,885,867,847,834,816,802,811,769,752,736,719,703,691,687,689,691,693,686,691,693,691,691,702,705,694,695,693,695,698,702,703,702,710,706,701,706,717,705,701,709,699,699,699,0,0,0,0,0,0,0,0,0,0,0,0,0,0,0,0,0,0,0,0,0,0,0,0,0,0,0,0,0,0,0,0,0,0,0,0,0,0,0,0,0,0,0,0,0,0,0,0,0,0,0,0,0,0,0,0,0,0,0,0,0,0,0,0,0,735,818,801,827,771,959,1038,1161,1203,1289,1288,1283,1246,1188,1205,1112,1180,1198,1073,1159,1109,1058,1040,957,1042,923,958,953,917,902,909,823,803,854,819,797,837,751,809,799,814,864,835,841,828,806,821,839,830,822,820,855,884,876,851,830,816,823,813,815,808,825,820,840,807,710,723,726,730,734,864,960,1070,1108,1179,1181,1138,1114,1158,1105,1074,1056,1023,1030,987,1010,1004,945,936,950,919,882,877,824,805,787,786,751,754,738,733,748,719,725,731,730,747,735,752,735,749,759,738,744,738,739,739,735,738,740,743,740,743,736,739,744,756,752,761,744,963,965,967,976,1066,1238,1445,1614,1717,1740,1729,1697,1665,1633,1601,1569,1537,1505,1473,1441,1408,1376,1344,1310,1280,1248,1211,1184,1152,1120,1087,1055,1023,994,980,980,985,993,1006,1015,1027,1045,1042,1035,1030,1046,1020,1031,1028,1022,1022,1038,1037,1051,1131,1096,1039,1034,1038,1026,1019,1021,1036,1036,1021,1388,1380,1379,1437,1598,1775,2029,2105,2119,2199,2175,2110,2110,2094,2048,2005,1971,1937,1914,1888,1820,1827,1746,1744,1706,1651,1678,1565,1579,1569,1514,1499,1431,1395,1408,1412,1424,1348,1493,1491,1490,1521,1510,1503,1522,1536,1505,1528,1529,1526,1521,1518,1517,1526,1528,1524,1514,1521,1527,1519,1509,1525,1510,1510,1495,436,438,439,440,443,480,563,607,667,720,729,740,726,713,678,690,659,648,636,645,609,597,586,574,566,572,543,531,528,509,518,482,470,459,450,443,457,445,449,442,442,445,460,449,449,456,444,465,450,445,455,454,452,456,462,458,458,457,455,463,454,456,457,460,461,1209,1141,1179,1181,1270,1487,1609,1796,1816,1848,1886,1894,1779,1845,1762,1691,1772,1714,1631,1573,1542,1564,1521,1485,1499,1451,1457,1366,1309,1315,1279,1278,1190,1173,1157,1155,1158,1124,1221,1205,1204,1203,1238,1271,1226,1239,1238,1273,1254,1289,1294,1283,1252,1289,1256,1250,1261,1250,1279,1353,1330,1356,1336,1296,1306,453,454,498,457,460,505,564,669,696,744,752,782,728,716,704,692,680,668,656,644,632,674,608,596,584,572,593,548,536,524,512,500,488,515,492,460,503,463,458,464,471,479,475,484,464,481,464,494,472,469,475,477,491,506,487,479,486,473,487,488,483,490,469,477,471,716,683,678,685,693,759,893,947,1034,1077,1067,1063,1053,1038,1023,1008,994,964,948,949,915,916,899,903,848,878,830,799,782,766,749,732,724,711,748,682,684,728,712,717,708,714,724,715,723,720,714,715,714,721,716,720,722,725,722,718,722,716,722,733,720,730,715,721,720,701,676,682,682,703,750,838,959,990,1053,1043,1071,1026,1011,995,979,964,948,932,917,902,885,899,868,839,841,828,810,800,786,757,739,713,714,685,686,682,684,692,678,685,680,818,691,694,691,692,697,771,789,709,713,717,709,836,739,715,713,752,716,712,709,736,715,728,0,0,0,0,0,0,0,0,0,0,0,0,0,0,0,0,0,0,0,0,0,0,0,0,0,0,0,0,0,0,0,0,0,0,0,0,0,0,0,0,0,0,0,0,0,0,0,0,0,0,0,0,0,0,0,0,0,0,0,0,0,0,0,0,0 ]);
