n = 10;
D = [255,99,204,147,285,156,215,112,182,242 ];
q = 0;
prec = array2d(1..0,1..2,[]);
steps = 64;
l = 360;
r = 0;
which = [];
interval = array2d(1..0,1..2,[]);
T = array3d(1..11,1..11,0..64,[0,0,0,0,0,0,0,0,0,0,0,0,0,0,0,0,0,0,0,0,0,0,0,0,0,0,0,0,0,0,0,0,0,0,0,0,0,0,0,0,0,0,0,0,0,0,0,0,0,0,0,0,0,0,0,0,0,0,0,0,0,0,0,0,0,301,302,303,303,304,320,360,401,441,480,492,485,477,470,462,454,447,439,432,424,416,409,401,393,386,378,371,363,355,348,340,333,325,317,310,305,306,307,294,303,301,309,305,312,302,318,300,311,303,297,304,308,312,312,309,305,304,301,316,310,300,304,299,305,301,772,775,777,780,823,914,1071,1157,1243,1267,1266,1246,1226,1206,1185,1179,1161,1125,1120,1108,1087,1044,1046,1025,983,963,943,922,902,913,862,841,813,804,780,802,786,788,786,792,787,820,798,791,799,814,795,808,805,810,806,798,791,800,804,809,797,801,791,797,794,809,815,814,795,1276,1280,1267,1342,1402,1563,1760,1908,2030,2026,2055,2027,1944,1916,1929,1846,1822,1786,1775,1759,1686,1674,1626,1625,1556,1531,1496,1549,1444,1470,1388,1353,1308,1320,1269,1268,1292,1290,1345,1348,1303,1300,1340,1328,1334,1338,1340,1360,1398,1346,1356,1369,1372,1372,1348,1380,1383,1390,1426,1389,1372,1374,1427,1360,1365,1055,1090,1057,1079,1161,1358,1661,1784,1916,1953,1911,1878,1839,1806,1767,1734,1698,1659,1626,1633,1554,1518,1479,1443,1410,1418,1335,1299,1263,1227,1229,1158,1119,1088,1071,1069,1115,1084,1106,1107,1106,1119,1110,1112,1107,1115,1116,1116,1112,1122,1118,1118,1118,1118,1116,1121,1122,1124,1116,1120,1124,1154,1158,1156,1153,289,290,291,292,293,306,344,382,420,458,472,465,457,450,443,436,429,421,414,407,400,392,385,378,371,363,356,349,342,334,327,320,313,305,298,294,294,295,280,281,286,296,288,287,288,299,285,291,294,303,318,314,319,304,287,289,295,304,300,286,295,302,292,291,291,581,583,584,586,596,651,798,865,920,950,958,947,936,925,914,846,834,881,812,800,852,777,766,794,745,729,714,699,684,668,653,638,623,607,594,590,591,593,571,573,580,592,577,591,579,586,598,582,590,580,584,585,580,587,586,588,587,588,585,586,591,603,599,608,596,949,952,941,987,995,1104,1274,1387,1489,1534,1528,1504,1480,1455,1431,1406,1382,1513,1333,1309,1303,1260,1235,1211,1187,1162,1138,1113,1089,1065,1040,1016,1005,969,953,949,952,954,945,973,946,975,965,966,969,993,1103,1013,1116,988,1077,1133,1213,1058,1000,1024,973,1001,986,974,970,980,1027,1014,985,1642,1752,1707,1819,2010,2285,2639,2828,2719,2731,2703,2735,2663,2565,2650,2531,2427,2483,2335,2289,2296,2242,2152,2216,2100,2014,1968,1961,1960,1830,1861,1826,1847,1680,1766,1667,1674,1681,1952,1940,1948,1980,1964,1948,2034,2045,1956,2017,2007,1973,1966,2019,2019,2049,2025,2041,2018,2038,2041,2018,1988,1987,1956,1960,1948,289,290,291,292,293,306,344,382,420,458,472,465,457,450,443,436,429,421,414,407,400,392,385,378,371,363,356,349,342,334,327,320,313,305,298,294,294,295,284,280,284,296,292,285,282,286,288,293,297,300,358,368,387,325,301,288,289,295,287,286,285,289,287,296,286,0,0,0,0,0,0,0,0,0,0,0,0,0,0,0,0,0,0,0,0,0,0,0,0,0,0,0,0,0,0,0,0,0,0,0,0,0,0,0,0,0,0,0,0,0,0,0,0,0,0,0,0,0,0,0,0,0,0,0,0,0,0,0,0,0,377,378,380,381,316,374,379,464,509,550,571,562,595,586,576,566,556,507,498,527,517,547,462,453,444,396,388,416,410,402,393,385,376,368,322,317,318,319,320,323,324,327,330,340,333,346,341,331,347,334,331,331,330,342,330,328,334,335,328,328,328,334,326,335,326,0,0,0,0,0,0,0,0,0,0,0,0,0,0,0,0,0,0,0,0,0,0,0,0,0,0,0,0,0,0,0,0,0,0,0,0,0,0,0,0,0,0,0,0,0,0,0,0,0,0,0,0,0,0,0,0,0,0,0,0,0,0,0,0,0,575,576,589,580,590,645,731,817,899,972,950,935,920,904,889,874,884,856,921,813,798,794,768,753,737,722,707,744,677,662,646,631,616,601,596,583,585,587,583,584,576,584,583,605,582,592,598,653,584,586,578,585,592,571,585,588,584,588,577,579,588,588,580,588,579,1055,1089,1062,1123,1194,1299,1476,1612,1715,1762,1774,1723,1700,1672,1644,1616,1578,1560,1540,1463,1436,1437,1420,1393,1351,1336,1329,1309,1252,1224,1210,1168,1129,1117,1091,1086,1092,1127,1145,1133,1152,1135,1164,1193,1144,1143,1156,1206,1180,1175,1177,1189,1182,1167,1165,1170,1144,1176,1143,1172,1168,1164,1157,1162,1204,1025,1061,1083,1052,1158,1254,1398,1536,1697,1668,1669,1721,1616,1638,1562,1600,1509,1483,1473,1429,1403,1376,1349,1354,1312,1269,1296,1245,1224,1197,1163,1122,1133,1060,1046,1106,1097,1072,1116,1095,1085,1099,1108,1139,1168,1164,1129,1153,1126,1111,1105,1160,1165,1158,1161,1183,1168,1183,1158,1139,1150,1143,1122,1123,1104,546,548,549,551,533,657,672,795,840,890,926,912,852,839,825,811,797,825,810,756,742,743,753,738,724,672,658,664,678,627,636,636,622,603,549,545,546,534,555,550,559,565,560,559,561,560,562,562,563,560,564,584,590,582,575,563,560,569,564,564,557,571,561,570,562,825,828,830,834,847,1041,1088,1242,1252,1371,1358,1340,1323,1305,1230,1257,1195,1177,1159,1141,1123,1114,1156,1109,1053,1015,994,992,1020,940,931,910,889,876,832,828,831,819,832,852,845,850,873,845,855,877,851,852,862,846,866,860,876,879,1030,976,884,861,862,854,848,844,862,886,841,760,762,765,767,792,864,979,1094,1182,1242,1252,1232,1212,1192,1172,1172,1132,1112,1092,1072,1052,1032,1012,992,972,969,932,912,892,872,852,832,812,792,777,771,773,776,755,759,777,792,774,784,763,781,764,793,774,768,775,778,790,802,789,783,790,778,787,791,786,794,772,782,777,1840,1751,1860,1995,2251,2391,2713,2926,2787,2824,2727,2813,2674,2684,2538,2601,2466,2423,2542,2336,2293,2335,2269,2238,2139,2076,2109,2054,1945,1924,1873,1900,1829,1838,1780,1793,1795,1768,2047,2096,2055,2060,2084,2067,2088,2100,2116,2113,2144,2122,2132,2146,2163,2175,2165,2195,2188,2174,2191,2153,2174,2182,2217,2241,2188,546,548,549,551,533,657,672,795,840,890,926,912,852,839,825,811,797,825,810,756,742,743,753,738,724,672,658,664,678,627,636,636,622,603,549,545,546,534,541,531,534,541,559,526,531,533,537,555,559,555,550,676,555,541,674,557,549,556,561,559,556,552,570,568,575,377,378,380,381,316,374,379,464,509,550,571,562,595,586,576,566,556,507,498,527,517,547,462,453,444,396,388,416,410,402,393,385,376,368,322,317,318,319,320,323,324,327,330,340,333,346,341,331,347,334,331,331,330,342,330,328,334,335,328,328,328,334,326,335,326,867,822,851,832,938,1044,1135,1261,1439,1390,1471,1361,1339,1357,1256,1279,1253,1231,1271,1192,1166,1180,1123,1102,1115,1052,1143,1043,997,973,913,972,873,876,856,835,855,878,851,870,864,879,886,884,877,901,871,907,882,907,875,883,900,920,901,899,896,893,896,900,898,913,881,889,876,597,599,601,602,614,673,762,851,935,980,983,968,953,936,921,906,889,874,859,842,827,811,796,780,764,749,849,717,702,686,670,655,639,623,610,606,608,609,598,608,608,614,637,611,616,623,607,618,605,609,609,621,628,646,758,702,638,619,617,608,610,613,625,622,606,0,0,0,0,0,0,0,0,0,0,0,0,0,0,0,0,0,0,0,0,0,0,0,0,0,0,0,0,0,0,0,0,0,0,0,0,0,0,0,0,0,0,0,0,0,0,0,0,0,0,0,0,0,0,0,0,0,0,0,0,0,0,0,0,0,524,525,527,529,519,583,660,733,814,860,865,851,790,801,810,796,738,725,751,741,718,714,700,683,672,660,627,614,617,575,590,578,562,580,521,532,533,566,521,525,539,553,536,544,529,545,525,547,532,526,532,537,544,549,541,537,538,530,541,541,533,538,524,532,527,706,734,711,713,766,814,914,1048,1118,1166,1162,1140,1097,1101,1085,1066,1041,1007,1028,993,984,983,937,932,923,912,864,861,827,790,807,789,790,765,721,717,740,752,720,761,721,722,737,723,731,736,737,749,753,730,741,735,743,740,746,753,746,751,778,736,752,754,770,747,743,866,861,840,875,922,1055,1290,1381,1567,1537,1491,1509,1474,1422,1485,1369,1402,1372,1342,1312,1286,1217,1222,1193,1129,1100,1075,1049,1043,1013,983,942,895,897,882,890,887,890,914,881,885,960,898,912,891,904,906,905,927,905,912,902,892,913,927,908,898,907,906,907,908,900,915,935,906,877,879,882,887,963,1130,1333,1514,1612,1637,1624,1593,1586,1608,1549,1468,1437,1431,1375,1344,1313,1281,1250,1219,1188,1178,1126,1094,1063,1032,1020,970,939,909,893,894,899,964,914,921,919,934,958,950,938,952,930,951,955,980,975,981,974,953,947,948,967,971,961,946,963,967,942,945,943,312,313,313,314,315,331,367,404,441,460,468,477,470,471,452,448,449,436,429,426,418,416,417,396,388,384,376,368,361,354,347,340,328,326,319,316,317,309,303,305,303,310,332,324,320,339,315,330,326,328,334,333,330,335,331,316,332,320,317,324,320,341,319,323,318,1259,1203,1261,1291,1331,1465,1745,1893,1863,1890,1878,1847,1986,1819,1758,1728,1720,1669,1696,1762,1629,1595,1520,1624,1481,1505,1440,1429,1360,1349,1344,1269,1222,1200,1253,1221,1188,1191,1218,1215,1214,1215,1219,1237,1230,1237,1244,1253,1244,1258,1260,1248,1269,1266,1303,1260,1268,1289,1269,1290,1277,1269,1294,1283,1291,866,861,840,875,922,1055,1290,1381,1567,1537,1491,1509,1474,1422,1485,1369,1402,1372,1342,1312,1286,1217,1222,1193,1129,1100,1075,1049,1043,1013,983,942,895,897,882,890,887,890,879,892,888,913,970,966,915,962,927,989,943,957,939,908,927,952,931,914,965,927,915,948,942,980,940,939,928,867,822,851,832,938,1044,1135,1261,1439,1390,1471,1361,1339,1357,1256,1279,1253,1231,1271,1192,1166,1180,1123,1102,1115,1052,1143,1043,997,973,913,972,873,876,856,835,855,878,851,870,864,879,886,884,877,901,871,907,882,907,875,883,900,920,901,899,896,893,896,900,898,913,881,889,876,1227,1348,1259,1321,1467,1582,1771,1910,2056,2030,1976,2039,2033,1951,1889,1861,1831,1798,1789,1734,1703,1668,1629,1607,1564,1544,1541,1483,1488,1408,1382,1339,1349,1285,1287,1270,1272,1252,1314,1313,1325,1361,1325,1353,1326,1327,1328,1320,1367,1328,1348,1366,1356,1353,1348,1351,1342,1352,1348,1341,1345,1356,1329,1365,1341,1059,1100,1063,1082,1144,1278,1442,1591,1694,1720,1711,1744,1657,1660,1601,1579,1553,1524,1520,1470,1443,1413,1388,1361,1334,1307,1338,1256,1266,1195,1168,1144,1114,1093,1079,1077,1078,1081,1130,1099,1110,1107,1141,1179,1128,1144,1158,1181,1169,1214,1234,1211,1153,1198,1176,1153,1158,1166,1210,1313,1276,1298,1277,1220,1242,643,649,645,647,663,685,745,830,861,931,940,901,890,879,869,858,847,836,846,814,822,810,798,787,768,766,738,727,728,716,704,694,675,654,654,639,650,652,639,653,649,648,661,656,664,653,653,655,653,653,655,661,669,677,669,680,662,670,670,654,660,653,668,671,651,0,0,0,0,0,0,0,0,0,0,0,0,0,0,0,0,0,0,0,0,0,0,0,0,0,0,0,0,0,0,0,0,0,0,0,0,0,0,0,0,0,0,0,0,0,0,0,0,0,0,0,0,0,0,0,0,0,0,0,0,0,0,0,0,0,303,304,305,305,306,323,365,408,450,490,502,494,486,478,470,462,454,446,439,431,423,415,407,399,391,383,375,367,359,351,343,336,328,320,312,307,308,309,297,297,299,301,302,300,301,301,299,300,299,302,301,305,305,305,300,300,305,303,307,314,304,310,301,302,304,1220,1266,1252,1359,1503,1823,1997,2083,2175,2128,2210,2072,2035,2062,2022,1982,1995,1902,1836,1777,1792,1747,1702,1642,1593,1618,1519,1527,1479,1454,1354,1396,1348,1276,1266,1266,1304,1330,1367,1369,1366,1396,1420,1413,1394,1392,1410,1443,1406,1448,1450,1450,1399,1402,1424,1428,1428,1405,1447,1491,1441,1440,1447,1425,1422,1280,1265,1317,1406,1537,1869,2132,2211,2298,2246,2323,2285,2140,2125,2058,2017,2052,1958,1893,1852,1884,1814,1728,1687,1646,1665,1584,1547,1481,1472,1399,1398,1363,1318,1305,1288,1319,1345,1372,1363,1372,1383,1375,1395,1378,1382,1383,1395,1419,1417,1475,1479,1504,1427,1387,1411,1427,1419,1403,1399,1411,1380,1411,1468,1415,324,325,326,327,328,348,394,440,485,528,540,532,523,514,506,497,489,480,471,463,454,446,437,428,420,410,402,394,385,377,368,359,351,342,334,329,330,331,318,323,322,326,330,324,327,327,323,324,324,327,323,327,328,330,324,323,330,326,330,328,327,332,323,327,325,1011,938,946,956,1058,1271,1268,1449,1488,1621,1517,1493,1469,1473,1420,1400,1372,1373,1324,1307,1277,1258,1228,1248,1223,1157,1137,1165,1083,1065,1036,1014,968,965,1077,982,945,1017,985,977,973,976,981,1019,1008,1014,1000,1012,1021,1013,1009,1006,1004,1034,1036,1007,1021,1014,1015,1044,1023,1023,1030,1076,1034,1220,1266,1252,1359,1503,1823,1997,2083,2175,2128,2210,2072,2035,2062,2022,1982,1995,1902,1836,1777,1792,1747,1702,1642,1593,1618,1519,1527,1479,1454,1354,1396,1348,1276,1266,1266,1304,1330,1345,1346,1346,1382,1336,1380,1355,1382,1363,1379,1396,1365,1364,1360,1386,1391,1383,1390,1398,1379,1398,1388,1380,1394,1433,1403,1384,1227,1348,1259,1321,1467,1582,1771,1910,2056,2030,1976,2039,2033,1951,1889,1861,1831,1798,1789,1734,1703,1668,1629,1607,1564,1544,1541,1483,1488,1408,1382,1339,1349,1285,1287,1270,1272,1252,1314,1313,1325,1361,1325,1353,1326,1327,1328,1320,1367,1328,1348,1366,1356,1353,1348,1351,1342,1352,1348,1341,1345,1356,1329,1365,1341,1061,1063,1124,1155,1207,1416,1660,1956,1944,2034,1956,2023,1852,1815,1779,1742,1706,1670,1633,1597,1560,1524,1487,1451,1414,1378,1341,1305,1330,1294,1195,1159,1122,1128,1156,1081,1205,1096,1221,1185,1179,1265,1260,1236,1218,1200,1214,1253,1257,1230,1246,1233,1215,1218,1205,1235,1246,1236,1266,1277,1215,1211,1262,1198,1193,1044,1047,1097,1065,1124,1255,1501,1569,1668,1771,1691,1664,1637,1610,1583,1557,1530,1503,1499,1450,1405,1528,1427,1326,1316,1289,1262,1235,1208,1200,1202,1161,1101,1078,1109,1060,1062,1065,1096,1098,1106,1113,1107,1135,1112,1120,1106,1131,1129,1122,1105,1116,1137,1145,1131,1144,1137,1131,1137,1126,1120,1111,1141,1137,1104,694,716,700,700,719,794,909,1006,1092,1146,1122,1112,1104,1077,1059,1067,1061,1006,990,982,954,934,917,939,881,922,845,826,810,793,773,754,739,733,720,700,702,736,721,722,723,720,725,738,758,753,735,745,741,738,733,737,735,753,741,745,743,730,730,736,735,739,735,768,735,259,260,260,261,262,274,310,346,382,417,430,423,394,410,403,396,389,383,376,369,362,355,349,342,335,328,321,308,301,301,294,287,281,274,267,263,263,264,243,243,243,245,245,246,246,247,247,247,248,248,249,249,250,250,250,251,251,253,253,254,254,254,255,255,256,0,0,0,0,0,0,0,0,0,0,0,0,0,0,0,0,0,0,0,0,0,0,0,0,0,0,0,0,0,0,0,0,0,0,0,0,0,0,0,0,0,0,0,0,0,0,0,0,0,0,0,0,0,0,0,0,0,0,0,0,0,0,0,0,0,1141,1166,1146,1255,1308,1530,1782,1988,2040,2157,2073,2001,1963,1957,1887,1880,1842,1803,1735,1697,1659,1649,1611,1565,1534,1469,1519,1480,1355,1317,1279,1241,1203,1173,1160,1162,1212,1198,1258,1246,1294,1542,1297,1233,1287,1379,1313,1259,1358,1326,1275,1280,1359,1338,1329,1244,1262,1265,1309,1313,1244,1300,1267,1269,1279,1312,1307,1340,1395,1484,1704,1992,2106,2242,2270,2251,2156,2176,2081,2043,2005,2026,1930,1892,1867,1816,1779,1741,1740,1665,1628,1627,1597,1515,1477,1449,1432,1397,1337,1334,1348,1356,1342,1425,1433,1387,1383,1432,1415,1422,1436,1441,1435,1484,1438,1440,1455,1453,1459,1433,1474,1499,1473,1501,1482,1453,1461,1505,1437,1442,453,454,498,457,460,505,564,669,696,744,752,782,728,716,704,692,680,668,656,644,632,674,608,596,584,572,593,548,536,524,512,500,488,515,492,460,503,463,458,464,471,479,475,484,464,481,464,494,472,469,475,477,491,506,487,479,486,473,487,488,483,490,469,477,471,992,993,980,990,1051,1171,1325,1519,1544,1579,1621,1593,1523,1494,1473,1448,1451,1424,1415,1348,1323,1311,1273,1280,1297,1253,1198,1149,1124,1134,1074,1079,1024,1026,1047,985,988,953,1028,1007,1008,1027,1044,1058,1027,1076,1051,1101,1066,1045,1039,1027,1053,1053,1043,1019,1058,1044,1029,1037,1045,1069,1035,1052,1031,1141,1166,1146,1255,1308,1530,1782,1988,2040,2157,2073,2001,1963,1957,1887,1880,1842,1803,1735,1697,1659,1649,1611,1565,1534,1469,1519,1480,1355,1317,1279,1241,1203,1173,1160,1162,1212,1198,1229,1235,1241,1254,1267,1267,1261,1274,1243,1276,1258,1246,1254,1260,1258,1275,1310,1299,1266,1254,1260,1257,1251,1257,1269,1288,1256,1061,1063,1124,1155,1207,1416,1660,1956,1944,2034,1956,2023,1852,1815,1779,1742,1706,1670,1633,1597,1560,1524,1487,1451,1414,1378,1341,1305,1330,1294,1195,1159,1122,1128,1156,1081,1205,1096,1221,1185,1179,1265,1260,1236,1218,1200,1214,1253,1257,1230,1246,1233,1215,1218,1205,1235,1246,1236,1266,1277,1215,1211,1262,1198,1193,169,169,170,170,171,175,198,221,244,267,283,278,274,269,265,260,256,251,247,242,238,233,229,224,220,215,211,206,202,197,193,188,184,179,175,171,172,172,164,159,159,159,162,162,163,164,164,169,166,171,172,167,166,171,165,165,167,169,172,177,172,173,179,173,173,432,434,435,436,438,470,530,591,651,699,709,698,687,676,665,654,642,631,620,609,598,587,576,565,554,543,532,521,510,498,487,476,465,454,443,439,440,441,430,430,439,442,457,462,457,438,439,450,433,437,444,435,439,448,433,435,435,435,438,438,445,439,438,446,437,922,925,919,929,983,1081,1225,1389,1443,1506,1490,1466,1442,1435,1395,1371,1347,1323,1299,1276,1252,1228,1204,1213,1157,1133,1109,1085,1074,1037,1014,990,966,962,931,936,930,951,944,945,953,973,976,957,963,962,960,970,976,974,965,976,988,985,982,967,973,973,969,965,954,983,970,978,953,1378,1391,1423,1474,1610,1784,1980,2138,2240,2240,2234,2177,2203,2144,2073,2157,2001,1976,1999,1949,1861,1825,1790,1755,1731,1684,1719,1661,1589,1558,1523,1493,1457,1414,1451,1402,1409,1425,1487,1520,1473,1489,1513,1501,1506,1531,1504,1512,1543,1503,1513,1534,1539,1539,1518,1541,1539,1537,1574,1506,1522,1528,1563,1521,1509,1217,1222,1265,1277,1482,1709,1905,2076,2170,2186,2163,2123,2123,2043,2006,1966,1923,1928,1891,1851,1763,1723,1683,1645,1644,1563,1523,1526,1443,1440,1405,1325,1286,1256,1275,1277,1249,1295,1317,1310,1315,1318,1309,1323,1321,1317,1335,1411,1328,1335,1345,1345,1346,1358,1369,1358,1343,1348,1348,1358,1352,1353,1352,1366,1363,0,0,0,0,0,0,0,0,0,0,0,0,0,0,0,0,0,0,0,0,0,0,0,0,0,0,0,0,0,0,0,0,0,0,0,0,0,0,0,0,0,0,0,0,0,0,0,0,0,0,0,0,0,0,0,0,0,0,0,0,0,0,0,0,0,616,618,620,621,634,694,786,878,964,1009,1015,999,983,966,950,934,918,902,886,869,853,837,821,805,789,772,866,740,724,708,736,675,659,643,629,625,627,628,630,630,633,630,626,629,641,638,628,630,638,632,630,639,636,636,636,631,634,636,634,628,637,632,633,632,638,1081,1071,1074,1096,1158,1316,1467,1607,1729,1742,1735,1707,1679,1672,1624,1596,1588,1541,1513,1485,1476,1448,1420,1391,1347,1335,1307,1264,1236,1208,1180,1153,1139,1102,1118,1083,1086,1089,1100,1114,1107,1114,1122,1111,1118,1127,1131,1124,1147,1118,1121,1130,1129,1135,1133,1152,1144,1139,1156,1127,1149,1180,1179,1164,1157,1658,1712,1726,1960,2103,2310,2598,2809,2803,2753,2789,2712,2865,2710,2596,2495,2449,2402,2572,2339,2292,2312,2297,2166,2078,2137,2012,1939,2071,1924,1880,1757,1802,1697,1773,1721,1760,1697,1962,1964,1973,2015,1970,1970,1969,1996,2002,2093,1984,1983,2009,2023,2075,2015,2030,2017,2002,2011,1985,1987,1995,2019,2001,2018,1984,337,338,339,340,341,359,404,450,495,537,551,543,534,526,517,509,500,492,483,475,466,458,449,441,432,424,415,407,398,390,381,373,364,356,347,342,343,344,328,334,334,335,332,328,338,335,339,337,331,335,330,337,334,338,340,346,333,332,335,339,342,341,337,334,333,169,169,170,170,171,175,198,221,244,267,283,278,274,269,265,260,256,251,247,242,238,233,229,224,220,215,211,206,202,197,193,188,184,179,175,171,172,172,164,159,159,159,162,162,163,164,164,169,166,171,172,167,166,171,165,165,167,169,172,177,172,173,179,173,173,619,620,608,610,653,705,806,907,976,1041,1048,1034,1013,1007,977,961,943,952,938,891,909,856,839,821,786,786,769,751,734,716,733,681,650,657,618,628,630,632,624,638,629,639,641,648,640,652,638,642,631,634,634,646,646,641,646,648,637,639,649,637,634,633,640,649,634,821,824,826,858,867,1002,1137,1241,1306,1418,1339,1320,1302,1355,1331,1298,1229,1211,1193,1245,1172,1198,1130,1115,1084,1055,1029,1004,979,967,935,914,878,847,872,851,847,852,851,852,850,863,864,858,863,876,869,868,875,878,955,953,961,909,871,864,874,875,864,873,877,868,868,873,869,886,900,891,898,948,1104,1338,1488,1602,1648,1635,1604,1573,1528,1511,1478,1436,1417,1423,1356,1312,1294,1263,1266,1201,1180,1170,1107,1088,1046,1004,983,943,982,892,902,906,912,919,927,934,952,954,954,946,977,946,975,960,971,983,953,982,1028,965,957,975,970,962,966,976,988,960,965,958,1315,1308,1379,1401,1562,1743,2077,2191,2290,2335,2341,2226,2253,2199,2174,2087,2053,2009,2013,1926,1879,1792,1830,1874,1715,1708,1672,1650,1567,1523,1461,1414,1416,1421,1332,1339,1405,1375,1429,1427,1430,1430,1456,1499,1448,1479,1478,1503,1501,1494,1479,1487,1478,1502,1466,1471,1487,1481,1466,1499,1488,1505,1486,1495,1499,1310,1274,1283,1359,1490,1808,2086,2481,2450,2392,2370,2330,2348,2249,2175,2127,2084,2035,1988,1942,1896,1897,1803,1757,1721,1665,1661,1572,1526,1494,1446,1427,1346,1308,1293,1313,1305,1353,1368,1398,1373,1376,1405,1401,1389,1402,1402,1410,1419,1388,1399,1403,1411,1421,1421,1421,1410,1422,1425,1432,1429,1437,1445,1436,1440,495,496,498,499,502,548,626,703,781,832,793,824,810,796,741,768,755,741,748,713,699,685,672,658,644,633,616,606,589,575,578,547,533,519,506,502,503,505,502,499,504,517,514,509,504,504,511,521,530,522,550,561,559,544,534,522,507,516,508,513,503,514,513,521,507,0,0,0,0,0,0,0,0,0,0,0,0,0,0,0,0,0,0,0,0,0,0,0,0,0,0,0,0,0,0,0,0,0,0,0,0,0,0,0,0,0,0,0,0,0,0,0,0,0,0,0,0,0,0,0,0,0,0,0,0,0,0,0,0,0,1122,1102,1104,1134,1273,1457,1714,1834,1941,1991,1972,1927,1917,1866,1841,1780,1758,1709,1711,1637,1639,1565,1587,1559,1456,1420,1437,1381,1324,1302,1229,1230,1192,1161,1107,1106,1144,1155,1170,1190,1180,1205,1220,1197,1204,1231,1192,1208,1190,1188,1200,1212,1214,1225,1350,1292,1233,1212,1214,1190,1192,1203,1222,1220,1206,1625,1702,1574,1666,1824,2263,2452,2596,2629,2654,2625,2640,2531,2534,2438,2547,2417,2345,2298,2203,2156,2109,2107,2105,2011,2028,1875,1899,1781,1734,1776,1684,1646,1702,1594,1554,1599,1647,1756,1786,1729,1753,1793,1766,1772,1793,1766,1778,1820,1772,1785,1812,1810,1813,1885,1869,1819,1818,1858,1790,1782,1795,1858,1796,1776,495,496,498,499,502,548,626,703,781,832,793,824,810,796,741,768,755,741,748,713,699,685,672,658,644,633,616,606,589,575,578,547,533,519,506,502,503,505,514,501,502,508,515,509,513,504,513,514,515,507,522,515,514,504,506,516,514,523,502,506,518,513,509,503,502,619,620,608,610,653,705,806,907,976,1041,1048,1034,1013,1007,977,961,943,952,938,891,909,856,839,821,786,786,769,751,734,716,733,681,650,657,618,628,630,632,624,638,629,639,641,648,640,652,638,642,631,634,634,646,646,641,646,648,637,639,649,637,634,633,640,649,634,1072,1079,1140,1172,1177,1269,1496,1616,1661,1719,1673,1654,1615,1593,1569,1549,1527,1524,1483,1479,1425,1436,1412,1318,1364,1272,1287,1265,1204,1203,1198,1175,1133,1122,1146,1065,1112,1094,1167,1152,1146,1234,1195,1196,1181,1164,1179,1206,1203,1193,1197,1198,1168,1175,1172,1198,1200,1183,1214,1228,1179,1164,1202,1157,1159,852,854,856,893,904,994,1091,1188,1263,1286,1275,1266,1233,1217,1201,1184,1169,1172,1136,1107,1089,1072,1056,1039,1022,1005,988,971,954,937,920,903,886,870,861,862,864,866,859,861,859,859,873,879,897,901,873,898,888,884,900,904,901,913,891,881,889,871,869,888,878,885,879,907,877,326,326,327,327,327,338,348,372,364,405,378,376,373,371,369,366,364,362,359,357,355,352,368,365,361,358,355,345,348,345,342,339,335,332,329,328,328,328,324,314,304,308,327,338,322,335,341,349,328,354,346,343,326,343,335,342,368,328,343,403,357,366,356,349,350,397,361,362,400,364,388,440,491,542,547,558,642,544,537,559,585,515,508,521,512,502,493,484,474,465,455,446,436,427,417,408,398,389,379,370,365,404,367,362,361,369,383,372,371,369,379,369,377,372,368,379,392,403,396,388,377,369,385,377,369,370,388,376,385,369,500,509,506,512,511,555,637,711,775,831,837,816,811,788,784,762,757,740,723,713,704,687,678,664,651,634,617,611,598,581,567,551,541,532,519,515,516,518,514,511,510,521,531,536,549,533,522,539,544,531,532,521,522,549,539,529,531,524,518,531,527,538,532,554,527,1012,984,1010,1000,1117,1325,1485,1650,1734,1797,1735,1715,1755,1695,1622,1652,1550,1546,1593,1515,1426,1411,1365,1406,1344,1281,1275,1241,1207,1173,1109,1132,1063,1050,1035,1002,1021,1033,1030,1040,1046,1065,1068,1068,1060,1092,1062,1090,1076,1088,1100,1070,1099,1146,1084,1075,1095,1090,1082,1087,1097,1110,1081,1088,1081,1024,1044,1046,1048,1171,1373,1612,1784,1862,1920,1865,1829,1794,1758,1723,1770,1652,1617,1624,1546,1510,1475,1439,1453,1368,1395,1297,1352,1226,1191,1155,1157,1085,1054,1066,1044,1050,1075,1084,1077,1090,1113,1099,1104,1097,1099,1106,1108,1110,1096,1135,1131,1153,1135,1128,1114,1089,1114,1101,1098,1092,1122,1103,1128,1093,0,0,0,0,0,0,0,0,0,0,0,0,0,0,0,0,0,0,0,0,0,0,0,0,0,0,0,0,0,0,0,0,0,0,0,0,0,0,0,0,0,0,0,0,0,0,0,0,0,0,0,0,0,0,0,0,0,0,0,0,0,0,0,0,0,1055,1095,1084,1242,1161,1436,1529,1665,1685,1772,1706,1679,1669,1625,1598,1571,1678,1517,1505,1542,1435,1458,1381,1397,1387,1300,1273,1246,1216,1278,1244,1137,1110,1123,1163,1129,1186,1247,1183,1162,1158,1183,1159,1151,1156,1180,1173,1254,1152,1164,1183,1167,1211,1164,1180,1177,1196,1176,1161,1170,1183,1176,1181,1173,1170,1012,984,1010,1000,1117,1325,1485,1650,1734,1797,1735,1715,1755,1695,1622,1652,1550,1546,1593,1515,1426,1411,1365,1406,1344,1281,1275,1241,1207,1173,1109,1132,1063,1050,1035,1002,1021,1033,1036,1045,1058,1076,1074,1067,1061,1076,1051,1062,1061,1054,1052,1069,1072,1083,1166,1129,1069,1066,1068,1057,1050,1053,1070,1067,1050,1072,1079,1140,1172,1177,1269,1496,1616,1661,1719,1673,1654,1615,1593,1569,1549,1527,1524,1483,1479,1425,1436,1412,1318,1364,1272,1287,1265,1204,1203,1198,1175,1133,1122,1146,1065,1112,1094,1167,1152,1146,1234,1195,1196,1181,1164,1179,1206,1203,1193,1197,1198,1168,1175,1172,1198,1200,1183,1214,1228,1179,1164,1202,1157,1159,1672,1687,1765,1940,2267,2434,2640,2781,2853,2857,2758,2787,2702,2623,2575,2564,2574,2436,2382,2330,2280,2231,2182,2147,2110,2032,1992,1938,1907,1873,1795,1770,1741,1710,1739,1719,1722,1771,1968,1956,1934,1956,1947,1995,1964,1970,2003,2060,1988,1995,1995,2001,1999,2024,2018,2006,1987,1992,1988,2004,1998,2017,1988,1993,1961,1789,1778,1814,2026,2104,2364,2529,2753,2748,2756,2791,2685,2692,2592,2534,2608,2506,2565,2497,2379,2344,2265,2238,2215,2125,2111,2051,2053,1962,1973,1914,1805,1851,1779,1772,1830,1754,1745,2077,2123,2065,2073,2123,2090,2106,2142,2106,2106,2180,2093,2131,2138,2153,2148,2298,2269,2182,2153,2191,2126,2115,2122,2184,2177,2098,1209,1236,1233,1283,1362,1523,1674,1814,1973,2028,1992,1901,1874,1851,1811,1757,1821,1781,1752,1688,1619,1577,1596,1557,1473,1527,1501,1431,1415,1366,1295,1263,1283,1228,1269,1201,1217,1248,1271,1292,1246,1243,1284,1262,1277,1285,1279,1277,1325,1283,1287,1305,1304,1312,1281,1309,1319,1312,1336,1288,1298,1307,1345,1283,1282,941,933,926,947,1003,1184,1260,1354,1538,1561,1589,1445,1482,1436,1385,1357,1362,1350,1402,1290,1275,1247,1282,1195,1208,1151,1123,1103,1074,1044,1001,1006,979,990,937,948,993,946,968,969,969,983,984,975,981,992,965,984,973,971,982,1001,997,988,1009,988,973,974,986,988,965,976,977,986,973,982,971,964,991,1054,1197,1326,1411,1630,1657,1648,1508,1544,1496,1440,1415,1411,1407,1404,1345,1316,1299,1290,1238,1221,1196,1171,1146,1120,1088,1044,1048,1021,1032,975,976,999,988,1012,996,1001,1003,1013,1037,1012,1024,1024,1040,1053,1055,1052,1058,1047,1065,1046,1044,1044,1051,1060,1084,1061,1065,1063,1090,1075,1555,1585,1632,1821,2059,2257,2458,2626,2587,2622,2670,2553,2609,2494,2447,2417,2357,2333,2290,2238,2160,2127,2098,2054,2024,1958,1907,1827,1823,1742,1672,1645,1636,1594,1629,1621,1600,1658,1740,1738,1748,1784,1754,1788,1754,1767,1754,1754,1787,1765,1796,1804,1795,1794,1801,1782,1776,1805,1789,1778,1795,1788,1784,1801,1774,1597,1605,1687,1854,2103,2393,2614,2747,2704,2734,2708,2656,2645,2593,2519,2502,2516,2432,2319,2266,2324,2153,2122,2098,2028,1976,1946,1862,1829,1787,1715,1704,1674,1636,1651,1636,1643,1691,1800,1804,1762,1758,1803,1787,1800,1808,1804,1811,1863,1815,1825,1840,1838,1846,1819,1848,1862,1863,1896,1854,1845,1851,1908,1839,1843,1076,1064,1068,1093,1165,1308,1480,1612,1722,1683,1769,1692,1687,1645,1623,1543,1629,1617,1533,1490,1438,1417,1397,1442,1334,1305,1305,1250,1223,1196,1177,1126,1119,1092,1080,1081,1076,1084,1100,1087,1082,1092,1204,1187,1134,1157,1135,1228,1183,1168,1196,1144,1149,1185,1188,1130,1202,1166,1158,1221,1181,1243,1229,1259,1183,0,0,0,0,0,0,0,0,0,0,0,0,0,0,0,0,0,0,0,0,0,0,0,0,0,0,0,0,0,0,0,0,0,0,0,0,0,0,0,0,0,0,0,0,0,0,0,0,0,0,0,0,0,0,0,0,0,0,0,0,0,0,0,0,0,1555,1585,1632,1821,2059,2257,2458,2626,2587,2622,2670,2553,2609,2494,2447,2417,2357,2333,2290,2238,2160,2127,2098,2054,2024,1958,1907,1827,1823,1742,1672,1645,1636,1594,1629,1621,1600,1658,1750,1740,1772,1787,1790,1831,1778,1811,1801,1812,1834,1799,1808,1842,1861,1853,1818,1810,1790,1811,1790,1792,1792,1823,1800,1826,1802,1672,1687,1765,1940,2267,2434,2640,2781,2853,2857,2758,2787,2702,2623,2575,2564,2574,2436,2382,2330,2280,2231,2182,2147,2110,2032,1992,1938,1907,1873,1795,1770,1741,1710,1739,1719,1722,1771,1968,1956,1934,1956,1947,1995,1964,1970,2003,2060,1988,1995,1995,2001,1999,2024,2018,2006,1987,1992,1988,2004,1998,2017,1988,1993,1961,169,169,170,170,171,175,198,221,244,267,283,278,274,269,265,260,256,251,247,242,238,233,229,224,220,215,211,206,202,197,193,188,184,179,175,171,172,172,164,162,167,169,165,164,165,164,163,167,172,174,173,171,170,170,166,170,164,167,163,164,166,164,164,165,174,432,434,435,436,438,470,530,591,651,699,709,698,687,676,665,654,642,631,620,609,598,587,576,565,554,543,532,521,510,498,487,476,465,454,443,439,440,441,430,444,440,464,427,433,427,441,442,427,533,517,442,465,536,523,517,425,447,458,477,442,441,449,454,432,429,922,925,919,929,983,1081,1225,1389,1443,1506,1490,1466,1442,1435,1395,1371,1347,1323,1299,1276,1252,1228,1204,1213,1157,1133,1109,1085,1074,1037,1014,990,966,962,931,936,930,951,943,937,959,957,952,974,960,978,974,968,998,971,971,981,978,989,970,962,975,978,971,974,971,983,957,981,981,1378,1391,1423,1474,1610,1784,1980,2138,2240,2240,2234,2177,2203,2144,2073,2157,2001,1976,1999,1949,1861,1825,1790,1755,1731,1684,1719,1661,1589,1558,1523,1493,1457,1414,1451,1402,1409,1425,1487,1520,1473,1489,1513,1501,1506,1531,1504,1512,1543,1503,1513,1534,1539,1539,1518,1541,1539,1537,1574,1506,1522,1528,1563,1521,1509,1217,1222,1265,1277,1482,1709,1905,2076,2170,2186,2163,2123,2123,2043,2006,1966,1923,1928,1891,1851,1763,1723,1683,1645,1644,1563,1523,1526,1443,1440,1405,1325,1286,1256,1275,1277,1249,1295,1333,1327,1335,1396,1388,1368,1366,1365,1360,1399,1430,1380,1401,1401,1415,1399,1390,1376,1351,1363,1350,1350,1343,1366,1364,1378,1323,337,338,339,340,341,359,404,450,495,537,551,543,534,526,517,509,500,492,483,475,466,458,449,441,432,424,415,407,398,390,381,373,364,356,347,342,343,344,347,322,324,325,325,328,327,331,327,327,330,326,327,330,327,330,333,332,333,332,331,331,331,333,333,334,335,616,618,620,621,634,694,786,878,964,1009,1015,999,983,966,950,934,918,902,886,869,853,837,821,805,789,772,866,740,724,708,736,675,659,643,629,625,627,628,629,629,631,631,641,644,669,668,640,653,652,648,644,642,641,669,654,651,647,638,634,644,644,651,642,662,645,1081,1071,1074,1096,1158,1316,1467,1607,1729,1742,1735,1707,1679,1672,1624,1596,1588,1541,1513,1485,1476,1448,1420,1391,1347,1335,1307,1264,1236,1208,1180,1153,1139,1102,1118,1083,1086,1089,1100,1114,1107,1114,1122,1111,1118,1127,1131,1124,1147,1118,1121,1130,1129,1135,1133,1152,1144,1139,1156,1127,1149,1180,1179,1164,1157,1658,1712,1726,1960,2103,2310,2598,2809,2803,2753,2789,2712,2865,2710,2596,2495,2449,2402,2572,2339,2292,2312,2297,2166,2078,2137,2012,1939,2071,1924,1880,1757,1802,1697,1773,1721,1760,1697,1917,1926,1934,1962,2023,2022,1987,2014,2012,2033,2077,2083,2090,2136,2104,2118,2140,2149,2170,2190,2221,2176,2201,2240,2257,2262,2247,0,0,0,0,0,0,0,0,0,0,0,0,0,0,0,0,0,0,0,0,0,0,0,0,0,0,0,0,0,0,0,0,0,0,0,0,0,0,0,0,0,0,0,0,0,0,0,0,0,0,0,0,0,0,0,0,0,0,0,0,0,0,0,0,0,169,169,170,170,171,175,198,221,244,267,283,278,274,269,265,260,256,251,247,242,238,233,229,224,220,215,211,206,202,197,193,188,184,179,175,171,172,172,164,162,167,169,165,164,165,164,163,167,172,174,173,171,170,170,166,170,164,167,163,164,166,164,164,165,174,0,0,0,0,0,0,0,0,0,0,0,0,0,0,0,0,0,0,0,0,0,0,0,0,0,0,0,0,0,0,0,0,0,0,0,0,0,0,0,0,0,0,0,0,0,0,0,0,0,0,0,0,0,0,0,0,0,0,0,0,0,0,0,0,0,301,302,303,303,304,320,360,401,441,480,492,485,477,470,462,454,447,439,432,424,416,409,401,393,386,378,371,363,355,348,340,333,325,317,310,305,306,307,294,303,301,309,305,312,302,318,300,311,303,297,304,308,312,312,309,305,304,301,316,310,300,304,299,305,301,772,775,777,780,823,914,1071,1157,1243,1267,1266,1246,1226,1206,1185,1179,1161,1125,1120,1108,1087,1044,1046,1025,983,963,943,922,902,913,862,841,813,804,780,802,786,788,786,792,787,820,798,791,799,814,795,808,805,810,806,798,791,800,804,809,797,801,791,797,794,809,815,814,795,1276,1280,1267,1342,1402,1563,1760,1908,2030,2026,2055,2027,1944,1916,1929,1846,1822,1786,1775,1759,1686,1674,1626,1625,1556,1531,1496,1549,1444,1470,1388,1353,1308,1320,1269,1268,1292,1290,1345,1348,1303,1300,1340,1328,1334,1338,1340,1360,1398,1346,1356,1369,1372,1372,1348,1380,1383,1390,1426,1389,1372,1374,1427,1360,1365,1055,1090,1057,1079,1161,1358,1661,1784,1916,1953,1911,1878,1839,1806,1767,1734,1698,1659,1626,1633,1554,1518,1479,1443,1410,1418,1335,1299,1263,1227,1229,1158,1119,1088,1071,1069,1115,1084,1106,1107,1106,1119,1110,1112,1107,1115,1116,1116,1112,1122,1118,1118,1118,1118,1116,1121,1122,1124,1116,1120,1124,1154,1158,1156,1153,289,290,291,292,293,306,344,382,420,458,472,465,457,450,443,436,429,421,414,407,400,392,385,378,371,363,356,349,342,334,327,320,313,305,298,294,294,295,280,281,286,296,288,287,288,299,285,291,294,303,318,314,319,304,287,289,295,304,300,286,295,302,292,291,291,581,583,584,586,596,651,798,865,920,950,958,947,936,925,914,846,834,881,812,800,852,777,766,794,745,729,714,699,684,668,653,638,623,607,594,590,591,593,571,573,580,592,577,591,579,586,598,582,590,580,584,585,580,587,586,588,587,588,585,586,591,603,599,608,596,949,952,941,987,995,1104,1274,1387,1489,1534,1528,1504,1480,1455,1431,1406,1382,1513,1333,1309,1303,1260,1235,1211,1187,1162,1138,1113,1089,1065,1040,1016,1005,969,953,949,952,954,945,973,946,975,965,966,969,993,1103,1013,1116,988,1077,1133,1213,1058,1000,1024,973,1001,986,974,970,980,1027,1014,985,1642,1752,1707,1819,2010,2285,2639,2828,2719,2731,2703,2735,2663,2565,2650,2531,2427,2483,2335,2289,2296,2242,2152,2216,2100,2014,1968,1961,1960,1830,1861,1826,1847,1680,1766,1667,1674,1681,1952,1940,1948,1980,1964,1948,2034,2045,1956,2017,2007,1973,1966,2019,2019,2049,2025,2041,2018,2038,2041,2018,1988,1987,1956,1960,1948,289,290,291,292,293,306,344,382,420,458,472,465,457,450,443,436,429,421,414,407,400,392,385,378,371,363,356,349,342,334,327,320,313,305,298,294,294,295,284,280,284,296,292,285,282,286,288,293,297,300,358,368,387,325,301,288,289,295,287,286,285,289,287,296,286,0,0,0,0,0,0,0,0,0,0,0,0,0,0,0,0,0,0,0,0,0,0,0,0,0,0,0,0,0,0,0,0,0,0,0,0,0,0,0,0,0,0,0,0,0,0,0,0,0,0,0,0,0,0,0,0,0,0,0,0,0,0,0,0,0 ]);
