n = 10;
D = [73,184,101,237,91,270,259,107,137,235 ];
q = 0;
prec = array2d(1..0,1..2,[]);
steps = 64;
l = 360;
r = 0;
which = [];
interval = array2d(1..0,1..2,[]);
T = array3d(1..11,1..11,0..64,[0,0,0,0,0,0,0,0,0,0,0,0,0,0,0,0,0,0,0,0,0,0,0,0,0,0,0,0,0,0,0,0,0,0,0,0,0,0,0,0,0,0,0,0,0,0,0,0,0,0,0,0,0,0,0,0,0,0,0,0,0,0,0,0,0,1135,1130,1169,1161,1311,2268,2547,2799,2838,2859,2843,2791,2741,2692,2712,2593,2541,2491,2464,2448,2345,2297,2258,2200,2151,2037,1770,1727,1586,1274,1260,1207,1179,1157,1144,1149,1146,1138,1142,1132,1140,1143,1152,1168,1154,1156,1162,1164,1165,1160,1173,1155,1160,1176,1165,1158,1174,1159,1160,1168,1167,1183,1168,1169,1149,165,165,166,167,167,172,293,327,360,391,415,408,402,394,388,381,375,368,362,355,349,342,336,328,322,315,309,302,296,289,283,276,270,262,171,168,168,168,145,144,144,146,146,146,148,150,147,147,148,147,146,146,147,149,148,147,147,147,147,147,147,147,147,148,147,802,815,807,820,861,1310,1633,1825,1947,1970,1960,1929,1924,1867,1836,1828,1796,1764,1732,1678,1668,1616,1604,1554,1543,1491,1459,1448,1369,1238,1130,868,871,829,816,814,816,817,816,819,824,829,840,828,832,837,829,829,827,835,837,838,831,841,849,857,839,839,833,828,834,832,847,837,828,730,727,730,731,793,1330,1566,1760,1877,1926,1914,1879,1846,1811,1784,1744,1711,1678,1644,1608,1581,1539,1504,1469,1436,1400,1372,1330,1308,1262,1009,798,775,768,749,748,752,737,727,734,739,744,749,751,744,776,737,776,741,732,740,747,786,788,785,749,747,751,787,746,787,737,737,743,734,478,479,481,477,479,512,871,972,1112,1165,1167,1152,1132,1113,1093,1074,1058,1038,1032,969,988,969,949,925,912,908,874,856,837,818,814,694,511,499,488,480,486,487,457,463,459,459,464,477,473,475,468,474,483,473,471,472,471,477,475,470,474,472,472,472,471,475,470,478,469,1289,1288,1326,1333,1627,2656,2938,3162,3196,3212,3190,3130,3073,3020,3016,2910,2853,2800,2768,2745,2591,2490,2391,2051,2020,1987,1858,1738,1502,1432,1416,1361,1334,1313,1300,1311,1304,1304,1289,1295,1297,1302,1306,1315,1305,1318,1301,1325,1304,1300,1303,1311,1320,1322,1326,1312,1312,1312,1316,1311,1307,1308,1299,1306,1297,1195,1194,1201,1311,2096,2654,3360,3547,3646,3587,3590,3536,3440,3355,3276,3193,3114,3033,2945,2869,2796,2686,2591,2516,2247,2164,1958,1844,1697,1387,1336,1287,1252,1232,1225,1229,1249,1253,1270,1256,1247,1252,1296,1299,1284,1284,1293,1298,1291,1297,1298,1297,1294,1303,1298,1297,1298,1301,1298,1296,1298,1299,1297,1299,1297,624,626,628,630,652,992,1214,1346,1455,1504,1503,1480,1458,1434,1411,1388,1364,1341,1318,1294,1272,1249,1225,1202,1179,1155,1132,1110,1086,1063,1040,896,662,647,636,633,635,636,631,646,620,620,640,640,632,631,635,639,660,650,663,659,656,651,670,657,654,664,684,658,654,656,686,678,640,240,241,241,242,243,251,427,477,532,581,603,596,584,574,565,555,546,536,525,516,506,496,487,477,468,458,448,439,429,420,410,400,354,344,248,244,244,245,214,208,208,211,214,212,216,216,215,215,218,221,225,221,219,224,223,215,215,222,228,226,224,226,222,226,223,0,0,0,0,0,0,0,0,0,0,0,0,0,0,0,0,0,0,0,0,0,0,0,0,0,0,0,0,0,0,0,0,0,0,0,0,0,0,0,0,0,0,0,0,0,0,0,0,0,0,0,0,0,0,0,0,0,0,0,0,0,0,0,0,0,1171,1176,1182,1238,1726,2115,2723,2891,2941,2957,2932,2880,2831,2776,2722,2670,2641,2566,2532,2486,2430,2387,2334,2282,2231,2011,1867,1711,1366,1332,1288,1249,1236,1204,1188,1183,1194,1168,1158,1155,1156,1156,1156,1156,1156,1156,1156,1156,1156,1156,1156,1156,1156,1156,1156,1156,1156,1156,1156,1156,1156,1156,1156,1156,1156,0,0,0,0,0,0,0,0,0,0,0,0,0,0,0,0,0,0,0,0,0,0,0,0,0,0,0,0,0,0,0,0,0,0,0,0,0,0,0,0,0,0,0,0,0,0,0,0,0,0,0,0,0,0,0,0,0,0,0,0,0,0,0,0,0,1275,1284,1286,1378,1942,2347,2977,3134,3190,3202,3176,3115,3050,3003,2944,2887,2831,2781,2728,2689,2629,2582,2448,2351,2274,1941,1669,1553,1474,1446,1400,1383,1339,1311,1293,1256,1265,1251,1242,1239,1244,1244,1244,1244,1244,1244,1244,1244,1244,1244,1244,1244,1244,1244,1244,1244,1244,1244,1244,1244,1244,1244,1244,1244,1244,823,812,830,831,926,1425,1729,1883,1975,2010,2005,1974,1924,1896,1865,1833,1815,1835,1748,1715,1687,1655,1622,1581,1558,1546,1493,1448,1345,994,921,870,884,851,839,843,840,786,786,786,786,786,786,786,786,786,786,786,786,786,786,786,786,786,786,786,786,786,786,786,786,786,786,786,786,594,591,584,586,624,804,1141,1275,1401,1482,1432,1410,1368,1345,1341,1300,1294,1272,1249,1209,1203,1180,1142,1135,1096,1088,1066,1044,1044,997,775,779,619,604,608,590,592,593,574,574,574,574,574,574,574,574,574,574,574,574,574,574,574,574,574,574,574,574,574,574,574,574,574,574,574,1212,1227,1256,1358,2241,2698,3333,3590,3677,3673,3592,3527,3494,3391,3343,3232,3154,3098,3019,2918,2860,2760,2474,2232,2144,2115,1997,1856,1605,1420,1385,1320,1274,1252,1243,1296,1263,1293,1380,1372,1368,1380,1379,1380,1380,1380,1380,1380,1380,1380,1380,1380,1380,1380,1380,1380,1380,1380,1380,1380,1380,1380,1380,1380,1380,215,216,216,217,255,342,387,433,477,523,540,531,523,513,505,496,488,480,471,462,453,445,436,428,420,411,402,393,385,376,368,360,350,342,333,327,328,330,198,196,198,198,198,198,196,198,198,196,198,198,198,198,198,198,198,198,197,198,198,198,198,198,198,198,198,410,411,366,389,392,408,774,864,915,972,1011,999,984,967,898,935,920,903,887,823,808,792,776,799,783,729,732,702,686,685,422,678,484,645,405,392,403,404,395,395,395,395,395,395,395,395,395,395,395,395,395,395,395,395,395,395,395,395,395,395,395,395,395,395,395,1135,1123,1140,1162,1268,1914,2443,2589,2707,2698,2682,2642,2583,2542,2500,2453,2425,2367,2344,2300,2249,2216,2158,2147,2080,2063,1895,1662,1599,1248,1248,1197,1169,1140,1131,1137,1081,1081,1089,1085,1086,1089,1080,1086,1089,1089,1089,1089,1089,1089,1089,1089,1089,1089,1089,1089,1089,1089,1089,1089,1089,1089,1089,1089,1089,1235,1251,1280,1383,1986,2487,3156,3271,3325,3336,3309,3243,3153,3090,3052,2965,2927,2836,2815,2755,2690,2621,2335,2236,2186,1860,1768,1639,1558,1446,1456,1340,1316,1274,1268,1286,1291,1289,1277,1272,1282,1282,1282,1282,1282,1282,1282,1282,1282,1282,1282,1282,1282,1282,1282,1282,1282,1282,1282,1282,1282,1282,1282,1282,1282,1171,1176,1182,1238,1726,2115,2723,2891,2941,2957,2932,2880,2831,2776,2722,2670,2641,2566,2532,2486,2430,2387,2334,2282,2231,2011,1867,1711,1366,1332,1288,1249,1236,1204,1188,1183,1194,1168,1158,1155,1156,1156,1156,1156,1156,1156,1156,1156,1156,1156,1156,1156,1156,1156,1156,1156,1156,1156,1156,1156,1156,1156,1156,1156,1156,189,190,191,191,192,300,338,376,415,453,470,463,456,447,440,433,426,418,411,404,397,388,381,374,367,360,352,345,338,331,322,315,308,301,294,272,273,290,181,180,180,180,180,180,180,182,180,185,181,180,181,182,181,180,185,182,181,181,181,180,182,184,180,185,182,1212,1245,1227,1280,1430,2469,2713,2907,3028,3052,3023,3034,2932,2867,2826,2764,2712,2670,2609,2556,2505,2456,2401,2348,2250,1900,1770,1563,1526,1360,1388,1360,1276,1243,1239,1225,1230,1225,1234,1235,1242,1256,1242,1262,1253,1260,1256,1261,1260,1251,1265,1252,1259,1274,1260,1264,1270,1253,1259,1262,1264,1289,1261,1267,1265,0,0,0,0,0,0,0,0,0,0,0,0,0,0,0,0,0,0,0,0,0,0,0,0,0,0,0,0,0,0,0,0,0,0,0,0,0,0,0,0,0,0,0,0,0,0,0,0,0,0,0,0,0,0,0,0,0,0,0,0,0,0,0,0,0,764,755,757,767,802,1335,1513,1675,1798,1851,1870,1815,1785,1756,1726,1698,1690,1639,1609,1580,1550,1520,1491,1484,1453,1402,1392,1363,1332,1241,1092,817,861,790,767,764,766,767,757,766,769,784,802,794,788,809,789,803,810,816,814,787,812,876,807,793,816,807,794,804,820,796,806,808,798,810,817,815,819,888,1501,1733,1931,2088,2130,2114,2076,2039,2000,1962,1924,1887,1850,1812,1773,1736,1703,1673,1627,1590,1552,1514,1482,1438,1262,920,916,870,848,826,836,840,821,818,815,828,862,824,852,826,827,823,825,855,821,819,832,830,885,843,838,831,841,841,837,855,836,824,857,831,313,314,315,316,317,340,578,645,714,770,783,770,758,745,733,721,708,696,682,670,657,645,633,620,608,601,583,571,564,546,532,499,338,330,322,318,319,320,312,319,315,325,372,338,325,375,321,375,337,375,329,328,332,381,333,329,374,377,334,338,333,376,331,332,327,1367,1395,1384,1471,1664,2854,3088,3271,3380,3399,3363,3368,3264,3195,3146,3081,3024,2974,2910,2850,2602,2490,2411,2051,2020,1672,1633,1627,1597,1519,1543,1489,1431,1398,1395,1388,1391,1388,1379,1377,1385,1409,1381,1416,1387,1392,1387,1388,1423,1389,1383,1396,1393,1427,1406,1401,1396,1402,1402,1402,1399,1407,1386,1420,1394,1032,1029,1037,1146,1950,2482,2952,3160,3290,3316,3259,3175,3141,3056,2961,2888,2814,2739,2665,2583,2509,2443,2361,2295,2221,2146,2072,1836,1718,1544,1184,1130,1090,1068,1059,1061,1081,1086,1125,1112,1103,1106,1150,1153,1136,1134,1146,1151,1143,1150,1152,1151,1147,1154,1150,1150,1151,1154,1151,1149,1151,1152,1150,1150,1150,620,621,623,625,647,1081,1226,1352,1461,1492,1492,1470,1447,1424,1400,1394,1354,1332,1309,1285,1262,1239,1216,1194,1171,1147,1124,1101,1078,1056,1032,891,651,636,625,628,630,632,634,629,643,629,635,645,646,650,638,649,655,657,651,649,661,660,651,651,644,649,643,647,647,644,640,670,670,76,77,77,77,78,79,134,150,166,182,194,192,188,184,182,178,176,172,170,166,163,160,157,154,151,147,145,141,139,135,132,129,84,82,80,78,78,78,69,64,64,65,68,66,68,66,68,68,70,75,83,75,72,75,75,68,68,75,82,81,82,82,81,81,77,189,190,191,191,192,300,338,376,415,453,470,463,456,447,440,433,426,418,411,404,397,388,381,374,367,360,352,345,338,331,322,315,308,301,294,272,273,290,181,180,180,180,180,180,180,182,180,185,181,180,181,182,181,180,185,182,181,181,181,180,182,184,180,185,182,787,789,792,804,858,1375,1557,1734,1858,1929,1921,1900,1860,1830,1798,1768,1737,1707,1676,1646,1630,1585,1554,1524,1492,1462,1432,1401,1186,1162,999,959,832,814,802,799,793,794,785,784,790,790,790,788,790,790,790,790,790,790,790,790,790,790,790,790,790,790,790,790,790,790,790,790,790,852,871,858,870,898,1298,1746,1978,2053,2080,2052,2027,1992,1958,1946,1939,1898,1868,1813,1788,1746,1713,1679,1672,1599,1579,1546,1515,1253,1162,939,929,896,911,858,865,854,864,851,846,851,850,855,857,857,866,854,858,854,852,851,856,855,855,856,854,856,854,854,851,858,853,854,860,854,761,771,784,783,901,1373,1551,1698,1851,1922,1866,1879,1855,1776,1795,1765,1735,1695,1665,1659,1612,1585,1555,1494,1495,1452,1435,1405,1312,1201,1092,939,823,804,776,803,787,788,784,784,779,784,784,784,784,784,784,784,784,784,784,784,784,784,784,784,784,784,784,784,784,784,784,784,784,0,0,0,0,0,0,0,0,0,0,0,0,0,0,0,0,0,0,0,0,0,0,0,0,0,0,0,0,0,0,0,0,0,0,0,0,0,0,0,0,0,0,0,0,0,0,0,0,0,0,0,0,0,0,0,0,0,0,0,0,0,0,0,0,0,317,312,313,314,316,466,576,644,711,768,777,765,753,740,728,710,703,691,679,666,662,642,628,616,604,591,579,566,554,542,529,517,486,408,320,316,317,318,303,302,304,305,304,312,308,345,317,310,318,307,307,305,305,313,306,305,307,308,304,304,305,307,304,314,307,939,915,930,978,1031,1670,1933,2063,2211,2291,2263,2227,2162,2144,2125,2104,2078,2013,1990,1945,1909,1871,1844,1765,1762,1726,1698,1512,1179,1319,1043,1001,976,969,929,926,950,952,938,938,938,938,938,938,938,938,938,938,938,938,938,938,938,938,938,938,938,938,938,938,938,938,938,938,938,881,864,878,873,921,1287,1753,1990,2077,2102,2091,2062,2025,1992,1958,1944,1907,1866,1824,1791,1764,1731,1697,1662,1623,1616,1558,1527,1413,1226,1031,926,926,911,876,880,882,871,858,851,856,860,856,864,863,868,860,862,862,863,859,865,866,867,864,861,864,862,863,862,864,863,858,869,863,1179,1178,1180,1265,1437,2029,2585,2800,2879,2902,2896,2789,2741,2747,2683,2675,2627,2577,2456,2444,2390,2378,2314,2289,2145,1785,1648,1643,1436,1314,1298,1256,1262,1216,1229,1236,1225,1211,1227,1224,1223,1235,1230,1237,1236,1245,1234,1236,1239,1236,1237,1237,1238,1239,1236,1237,1241,1237,1235,1234,1236,1239,1234,1242,1238,440,441,442,444,449,650,810,893,991,1041,1048,1033,1017,1002,986,970,955,939,923,908,892,890,860,849,840,813,806,782,785,767,739,658,648,459,449,446,447,444,430,430,430,430,430,430,430,430,430,430,430,430,430,430,430,430,430,430,430,430,430,430,430,430,430,430,430,787,782,784,796,840,1395,1552,1748,1857,1922,1915,1879,1855,1825,1795,1765,1735,1695,1665,1645,1604,1585,1555,1524,1494,1465,1434,1408,1272,1258,1174,861,824,807,795,805,793,796,797,794,794,797,797,797,797,797,797,797,797,797,797,797,797,797,797,797,797,797,797,797,797,797,797,797,797,787,789,792,804,858,1375,1557,1734,1858,1929,1921,1900,1860,1830,1798,1768,1737,1707,1676,1646,1630,1585,1554,1524,1492,1462,1432,1401,1186,1162,999,959,832,814,802,799,793,794,785,784,790,790,790,788,790,790,790,790,790,790,790,790,790,790,790,790,790,790,790,790,790,790,790,790,790,761,763,764,766,826,1330,1570,1832,1959,2013,2008,1962,1929,1890,1867,1831,1795,1768,1710,1685,1651,1602,1584,1542,1501,1450,1422,1376,1317,1168,856,826,809,803,771,772,773,765,755,747,760,764,757,767,766,780,769,765,771,766,766,768,767,777,782,776,769,767,768,771,767,777,774,791,775,676,679,691,690,694,944,1327,1507,1632,1659,1655,1607,1599,1630,1563,1557,1530,1488,1423,1417,1372,1383,1373,1327,1302,1255,1251,1223,1163,968,819,787,727,749,689,694,679,674,682,671,675,679,671,679,680,699,686,679,693,673,678,674,677,681,679,681,678,680,679,679,677,686,677,695,683,869,865,873,873,888,1509,1810,2051,2216,2256,2260,2200,2169,2126,2102,2048,2021,1981,1928,1898,1859,1797,1778,1742,1696,1645,1610,1550,1387,1218,994,943,924,912,880,880,841,838,833,832,840,848,846,844,852,860,848,847,848,847,842,856,852,857,877,866,843,845,851,851,847,854,843,852,847,350,350,351,354,356,476,628,700,773,845,869,855,838,831,818,797,789,776,762,749,727,720,706,692,677,664,650,637,615,608,523,509,497,372,363,356,360,361,322,323,325,335,328,329,331,338,322,333,330,334,332,332,335,336,329,332,332,335,337,327,333,334,331,332,332,0,0,0,0,0,0,0,0,0,0,0,0,0,0,0,0,0,0,0,0,0,0,0,0,0,0,0,0,0,0,0,0,0,0,0,0,0,0,0,0,0,0,0,0,0,0,0,0,0,0,0,0,0,0,0,0,0,0,0,0,0,0,0,0,0,1118,1117,1119,1133,1206,1872,2412,2608,2698,2703,2680,2653,2651,2581,2568,2494,2435,2419,2377,2322,2302,2242,2189,2127,2108,2063,1872,1660,1463,1287,1232,1220,1168,1155,1131,1135,1126,1131,1070,1064,1076,1085,1080,1081,1079,1083,1081,1085,1085,1081,1094,1095,1097,1083,1082,1080,1082,1086,1076,1074,1081,1078,1077,1082,1075,684,687,695,693,701,959,1373,1522,1639,1687,1690,1651,1624,1635,1570,1544,1535,1495,1464,1437,1414,1383,1360,1327,1303,1276,1249,1222,1196,1165,931,899,795,725,698,695,697,698,683,679,680,686,677,691,686,712,688,685,707,685,686,683,688,720,686,688,685,689,693,687,691,692,686,696,689,1035,1019,1038,1047,1096,1719,2196,2355,2477,2485,2403,2440,2391,2369,2305,2270,2289,2206,2077,2121,2060,2038,2020,1950,1930,1893,1856,1575,1406,1252,1152,1108,1068,1081,1028,1062,1062,1032,1055,1052,1053,1051,1052,1062,1064,1085,1069,1064,1082,1065,1063,1065,1065,1074,1062,1062,1068,1068,1065,1064,1064,1066,1060,1068,1061,552,553,555,556,581,714,1048,1170,1326,1357,1358,1336,1331,1316,1297,1272,1228,1207,1185,1180,1159,1120,1115,1077,1071,1049,1012,991,984,936,721,703,687,574,563,579,561,580,519,513,517,526,521,522,520,524,522,526,526,523,533,531,531,524,523,521,523,527,517,515,522,521,518,523,516,851,852,854,856,878,1558,1997,2214,2378,2399,2371,2311,2276,2246,2225,2146,2102,2046,2014,2009,1944,1868,1819,1786,1774,1687,1624,1588,1388,1257,1078,932,902,948,865,865,874,873,862,872,880,886,888,882,888,893,888,893,888,880,882,895,897,902,936,901,889,878,897,898,890,891,887,893,883,761,763,764,766,826,1330,1570,1832,1959,2013,2008,1962,1929,1890,1867,1831,1795,1768,1710,1685,1651,1602,1584,1542,1501,1450,1422,1376,1317,1168,856,826,809,803,771,772,773,765,755,747,760,764,757,767,766,780,769,765,771,766,766,768,767,777,782,776,769,767,768,771,767,777,774,791,775,433,435,436,437,443,599,819,914,1009,1063,1070,1053,1036,1020,1053,1036,968,951,982,918,901,884,867,850,832,816,799,782,765,748,655,623,614,453,443,440,441,434,431,427,426,429,432,432,429,433,436,440,439,437,439,438,430,442,439,440,432,443,441,438,442,432,442,442,432,1253,1247,1265,1412,1854,2787,3332,3548,3629,3599,3576,3510,3448,3388,3340,3252,3174,3129,3025,2946,2858,2834,2728,2403,2260,1969,1963,1725,1680,1468,1384,1382,1319,1311,1277,1259,1273,1308,1323,1314,1329,1333,1343,1328,1326,1346,1337,1352,1360,1345,1352,1429,1351,1346,1459,1355,1353,1356,1362,1355,1361,1357,1479,1464,1449,367,368,369,370,372,491,685,765,846,903,957,898,884,868,895,881,825,811,834,782,768,789,772,723,742,694,711,666,650,636,530,518,490,385,376,372,373,374,368,367,367,372,372,368,370,375,367,378,369,368,371,372,377,370,376,375,378,376,375,372,375,376,374,376,369,953,956,956,983,1054,1682,1972,2166,2283,2314,2325,2264,2227,2215,2214,2175,2123,2060,2081,1970,1933,1896,1860,1822,1786,1768,1710,1582,1277,1273,1068,1019,995,1027,964,992,964,967,974,989,976,976,994,980,990,996,994,993,1030,994,993,1001,1001,1004,1000,1015,1008,1006,1010,990,1002,1013,1010,1001,997,1003,1017,1008,1065,1172,1838,2355,2602,2689,2692,2689,2631,2582,2540,2482,2437,2385,2335,2283,2241,2181,2158,2087,2034,1984,1997,1937,1753,1567,1343,1203,1098,1066,1054,1022,1034,1017,1027,1051,1047,1044,1045,1062,1074,1051,1052,1057,1069,1083,1083,1083,1085,1076,1089,1084,1078,1081,1090,1085,1102,1083,1076,1084,1086,1076,0,0,0,0,0,0,0,0,0,0,0,0,0,0,0,0,0,0,0,0,0,0,0,0,0,0,0,0,0,0,0,0,0,0,0,0,0,0,0,0,0,0,0,0,0,0,0,0,0,0,0,0,0,0,0,0,0,0,0,0,0,0,0,0,0,1304,1283,1319,1431,2028,3042,3444,3600,3690,3717,3638,3581,3493,3433,3364,3267,3204,3162,3058,2982,2882,2771,2411,2233,2220,2107,1975,1804,1719,1480,1464,1416,1356,1327,1331,1305,1316,1331,1386,1377,1385,1393,1402,1390,1391,1406,1402,1416,1426,1415,1416,1461,1421,1419,1488,1428,1426,1430,1433,1425,1429,1426,1485,1488,1480,919,925,927,999,1802,2288,2734,2896,3007,3025,2970,2911,2833,2774,2706,2629,2560,2528,2432,2364,2287,2227,2158,2090,2022,1953,1902,1816,1565,1424,1387,1202,984,972,940,952,965,979,994,984,991,998,1006,992,993,1006,1004,1016,1025,1012,1013,1145,1016,1012,1270,1020,1018,1021,1023,1017,1021,1021,1143,1143,1143,790,792,810,805,836,1294,1585,1759,1862,1903,1897,1868,1838,1808,1836,1805,1720,1690,1698,1632,1653,1573,1543,1514,1484,1455,1469,1439,1366,1336,1096,1076,832,815,804,801,804,805,808,807,801,804,814,820,816,817,826,824,827,832,827,830,827,838,826,832,831,832,828,827,822,836,830,852,828,321,322,322,324,325,340,597,664,731,793,804,793,779,766,753,741,726,715,701,688,675,663,649,637,623,611,597,585,571,560,425,359,351,342,333,328,328,329,312,306,305,309,316,309,311,319,306,321,310,332,311,307,315,310,317,310,317,315,311,313,313,315,312,314,313,433,435,436,437,443,599,819,914,1009,1063,1070,1053,1036,1020,1053,1036,968,951,982,918,901,884,867,850,832,816,799,782,765,748,655,623,614,453,443,440,441,434,431,427,426,429,432,432,429,433,436,440,439,437,439,438,430,442,439,440,432,443,441,438,442,432,442,442,432,1334,1338,1346,1395,1896,2558,3088,3232,3292,3310,3282,3223,3174,3116,3043,3001,2935,2886,2825,2778,2732,2676,2467,2184,2080,1820,1600,1602,1537,1499,1456,1407,1399,1370,1354,1345,1356,1330,1321,1324,1326,1345,1349,1345,1347,1346,1360,1360,1372,1363,1366,1359,1366,1370,1364,1358,1371,1357,1354,1358,1366,1362,1361,1373,1355,242,243,244,244,245,258,437,487,538,587,603,593,583,574,564,555,545,535,526,517,508,498,489,479,469,460,450,441,431,421,412,402,263,256,250,246,247,248,233,232,232,232,239,232,236,314,234,240,236,234,239,239,236,237,320,240,240,240,236,237,236,235,235,235,235,1304,1379,1383,1516,2120,2824,3331,3480,3537,3551,3517,3453,3401,3338,3261,3208,3150,3088,3030,2979,2694,2580,2304,2209,2174,1908,1771,1713,1577,1579,1476,1444,1371,1341,1368,1344,1386,1413,1405,1408,1414,1419,1417,1439,1429,1422,1420,1426,1446,1426,1424,1434,1437,1455,1427,1430,1428,1453,1451,1427,1435,1424,1419,1450,1429,852,858,856,863,898,1417,1795,1945,2052,2092,2074,2048,2011,1980,1949,1915,1880,1846,1815,1780,1748,1711,1680,1642,1615,1580,1536,1510,1339,1273,954,928,910,924,872,866,863,821,776,781,780,787,807,817,815,819,805,818,816,826,808,798,800,812,802,799,813,812,795,801,800,856,801,806,790,660,662,684,693,692,1093,1339,1466,1581,1629,1627,1610,1611,1549,1524,1540,1471,1446,1413,1392,1366,1339,1319,1291,1261,1234,1210,1184,1154,1090,859,720,748,812,673,694,672,674,646,648,642,680,682,672,662,694,666,687,689,687,679,661,654,666,662,666,664,661,646,654,652,728,666,664,640,1170,1172,1199,1332,2258,2916,3369,3642,3631,3613,3580,3464,3386,3309,3346,3160,3128,3034,3018,2845,2788,2690,2592,2232,2121,2103,1996,1877,1706,1606,1340,1280,1235,1204,1214,1204,1219,1267,1294,1284,1302,1314,1325,1330,1336,1348,1326,1338,1354,1344,1363,1366,1344,1360,1383,1381,1358,1378,1465,1433,1449,1461,1514,1451,1439,0,0,0,0,0,0,0,0,0,0,0,0,0,0,0,0,0,0,0,0,0,0,0,0,0,0,0,0,0,0,0,0,0,0,0,0,0,0,0,0,0,0,0,0,0,0,0,0,0,0,0,0,0,0,0,0,0,0,0,0,0,0,0,0,0,374,406,368,367,379,618,696,760,861,907,916,902,895,884,888,850,819,805,787,776,758,744,729,776,714,687,673,678,648,649,634,619,391,381,384,371,381,372,370,373,375,390,382,375,376,388,376,382,388,458,410,403,407,415,378,376,384,384,382,376,381,384,380,383,380,1172,1177,1166,1189,1285,2167,2523,2694,2775,2804,2787,2731,2689,2650,2588,2535,2513,2469,2419,2379,2334,2293,2262,2195,2153,2087,1885,1759,1656,1490,1266,1256,1210,1228,1183,1168,1142,1152,1105,1114,1112,1119,1141,1152,1142,1158,1137,1153,1152,1161,1140,1130,1130,1145,1135,1133,1146,1142,1129,1135,1132,1190,1134,1139,1123,1194,1233,1232,1358,2224,3001,3453,3604,3676,3680,3641,3557,3474,3393,3313,3238,3204,3073,3075,2912,2739,2695,2336,2230,2159,1962,1866,1776,1661,1558,1364,1304,1259,1229,1221,1232,1247,1296,1360,1353,1345,1375,1360,1373,1355,1372,1426,1456,1356,1363,1433,1367,1420,1348,1364,1376,1423,1420,1346,1357,1424,1373,1369,1364,1351,1334,1338,1346,1395,1896,2558,3088,3232,3292,3310,3282,3223,3174,3116,3043,3001,2935,2886,2825,2778,2732,2676,2467,2184,2080,1820,1600,1602,1537,1499,1456,1407,1399,1370,1354,1345,1356,1330,1321,1324,1326,1345,1349,1345,1347,1346,1360,1360,1372,1363,1366,1359,1366,1370,1364,1358,1371,1357,1354,1358,1366,1362,1361,1373,1355,1271,1276,1448,1489,2237,3117,3474,3544,3643,3594,3542,3471,3404,3327,3255,3190,3264,3033,2956,2890,2823,2759,2550,2455,2344,2139,2072,1909,1589,1451,1403,1357,1322,1304,1299,1294,1305,1316,1419,1417,1410,1432,1439,1452,1441,1438,1448,1450,1449,1459,1508,1473,1436,1459,1453,1462,1464,1446,1474,1464,1486,1472,1460,1467,1457,333,335,336,336,338,546,617,691,761,830,832,837,806,793,780,766,752,748,726,737,699,711,673,660,646,633,620,607,594,579,566,553,540,526,342,339,340,340,328,329,330,329,334,336,337,335,335,337,343,332,336,335,333,340,335,334,337,339,335,336,334,339,335,335,335,1268,1307,1321,1537,2422,2998,3464,3738,3870,3832,3777,3696,3620,3543,3472,3396,3322,3240,3151,3090,2972,2911,2664,2566,2318,2228,2168,2013,1661,1490,1447,1421,1353,1312,1343,1306,1321,1383,1422,1412,1408,1437,1441,1439,1427,1447,1452,1465,1441,1439,1458,1460,1458,1444,1469,1446,1421,1438,1424,1422,1417,1469,1424,1424,1424,1158,1149,1167,1225,1358,2208,2485,2649,2719,2768,2756,2683,2667,2623,2586,2568,2500,2460,2410,2369,2342,2280,2246,2191,2162,2088,1963,1697,1343,1339,1310,1240,1223,1201,1182,1179,1127,1126,1115,1121,1123,1124,1129,1133,1123,1131,1130,1131,1136,1128,1134,1134,1127,1132,1131,1133,1138,1135,1129,1133,1126,1131,1127,1127,1127,927,926,920,922,962,1605,1883,2064,2125,2181,2200,2170,2140,2093,2053,2038,2001,1957,1929,1878,1862,1823,1808,1737,1734,1688,1664,1648,1386,1290,1110,988,973,955,950,929,932,925,902,903,904,903,908,910,911,909,909,911,917,906,910,909,907,914,909,908,911,913,909,910,908,913,909,909,909,1134,1137,1157,1285,2107,2599,3083,3370,3511,3532,3514,3416,3301,3232,3182,3114,3060,2981,2850,2797,2706,2646,2582,2502,2398,2323,2239,2055,1906,1546,1310,1248,1217,1176,1171,1166,1180,1207,1240,1243,1209,1204,1245,1229,1240,1243,1240,1248,1280,1246,1253,1265,1262,1269,1246,1267,1286,1296,1296,1302,1261,1270,1299,1465,1288,385,386,388,388,392,467,741,783,968,940,969,942,958,912,896,880,866,939,835,820,805,789,774,759,744,728,712,695,523,667,652,637,539,404,403,391,447,450,392,392,392,393,394,395,396,398,397,400,399,397,400,403,403,404,405,406,408,404,410,409,408,413,405,405,405,0,0,0,0,0,0,0,0,0,0,0,0,0,0,0,0,0,0,0,0,0,0,0,0,0,0,0,0,0,0,0,0,0,0,0,0,0,0,0,0,0,0,0,0,0,0,0,0,0,0,0,0,0,0,0,0,0,0,0,0,0,0,0,0,0,1429,1404,1417,1566,1840,2907,3186,3361,3401,3432,3415,3332,3306,3246,3205,3133,3087,3048,2975,2931,2828,2781,2558,2320,1960,1764,1717,1671,1648,1600,1529,1492,1454,1432,1426,1417,1414,1421,1420,1414,1419,1419,1414,1426,1429,1427,1428,1432,1440,1425,1433,1429,1423,1431,1428,1424,1426,1430,1425,1425,1426,1428,1424,1424,1424,1157,1161,1189,1327,2163,2717,3194,3476,3613,3628,3571,3468,3390,3318,3256,3178,3100,3057,2922,2865,2766,2742,2610,2530,2417,2216,2158,1985,1646,1515,1335,1272,1241,1200,1196,1193,1208,1236,1263,1265,1273,1295,1285,1291,1290,1283,1287,1327,1293,1278,1300,1325,1336,1301,1413,1294,1274,1302,1280,1279,1280,1482,1287,1287,1287,1271,1276,1448,1489,2237,3117,3474,3544,3643,3594,3542,3471,3404,3327,3255,3190,3264,3033,2956,2890,2823,2759,2550,2455,2344,2139,2072,1909,1589,1451,1403,1357,1322,1304,1299,1294,1305,1316,1419,1417,1410,1432,1439,1452,1441,1438,1448,1450,1449,1459,1508,1473,1436,1459,1453,1462,1464,1446,1474,1464,1486,1472,1460,1467,1457,403,404,405,407,449,639,723,843,931,987,996,980,964,949,933,918,902,885,870,854,838,823,806,791,776,759,743,728,712,697,681,666,649,422,412,409,410,411,363,370,369,375,377,375,370,376,370,382,373,372,372,375,382,386,379,374,377,371,377,377,376,396,374,377,376,1265,1255,1269,1312,1489,2294,2737,2914,2931,2970,2958,2899,2832,2811,2763,2715,2675,2623,2580,2513,2485,2455,2260,2247,2220,1944,1799,1693,1411,1404,1368,1318,1285,1280,1271,1260,1269,1265,1254,1246,1253,1261,1258,1271,1266,1280,1264,1259,1269,1256,1266,1264,1258,1273,1268,1266,1264,1268,1264,1260,1260,1264,1262,1269,1262,421,423,424,424,467,645,795,939,1032,1087,1094,1077,1060,1044,1027,1010,993,976,960,895,926,861,891,916,858,879,857,838,790,756,775,463,635,505,431,427,428,435,383,391,391,397,399,400,391,401,389,403,393,391,393,398,403,404,399,394,399,390,401,401,399,420,397,401,400,626,642,629,645,668,1011,1182,1352,1444,1488,1477,1464,1429,1417,1390,1372,1349,1317,1304,1278,1251,1233,1210,1189,1165,1145,1123,1102,1080,988,915,791,661,670,640,636,637,639,595,587,591,593,589,603,595,622,603,595,616,592,595,594,593,599,595,594,595,598,594,592,593,597,595,602,595,660,661,663,665,689,982,1310,1451,1532,1576,1572,1551,1527,1507,1482,1458,1437,1411,1388,1362,1337,1313,1288,1264,1244,1213,1190,1174,1141,1123,1016,712,695,680,669,668,670,663,651,641,644,655,649,662,659,669,657,654,661,651,657,657,658,664,658,653,653,661,660,650,650,654,652,659,652,588,590,588,596,622,960,1089,1256,1364,1448,1452,1426,1369,1349,1325,1333,1310,1266,1249,1211,1217,1195,1142,1147,1124,1075,1050,1038,1014,1017,859,768,664,611,585,597,584,591,558,549,549,561,566,563,565,562,561,560,566,563,562,560,561,565,564,563,562,559,561,560,559,586,557,560,559,1263,1273,1272,1321,1401,2324,2783,2918,2972,2992,2960,2922,2871,2829,2780,2732,2692,2643,2595,2550,2503,2176,2141,2086,2038,1857,1719,1763,1420,1613,1356,1328,1304,1288,1286,1280,1275,1273,1261,1247,1262,1262,1260,1272,1268,1288,1268,1264,1272,1261,1267,1265,1263,1274,1269,1268,1265,1269,1265,1261,1261,1265,1263,1270,1263,1393,1402,1476,1780,2065,3141,3575,3675,3709,3715,3679,3666,3571,3537,3434,3419,3332,3313,3152,2832,2685,2743,2404,2092,2041,2100,1759,1697,1764,1573,1531,1485,1455,1451,1444,1471,1457,1476,1469,1467,1465,1512,1552,1504,1500,1525,1534,1503,1541,1535,1522,1505,1529,1539,1517,1528,1516,1534,1543,1548,1549,1563,1543,1533,1532,0,0,0,0,0,0,0,0,0,0,0,0,0,0,0,0,0,0,0,0,0,0,0,0,0,0,0,0,0,0,0,0,0,0,0,0,0,0,0,0,0,0,0,0,0,0,0,0,0,0,0,0,0,0,0,0,0,0,0,0,0,0,0,0,0,441,442,453,452,460,717,807,939,1032,1087,1094,1077,1060,1044,1027,1010,994,975,958,942,925,908,890,874,857,841,823,807,790,754,757,547,608,570,459,456,449,445,421,428,424,432,434,436,432,447,435,430,444,430,429,430,430,437,429,428,432,431,431,428,427,453,425,428,427,403,404,405,407,449,639,723,843,931,987,996,980,964,949,933,918,902,885,870,854,838,823,806,791,776,759,743,728,712,697,681,666,649,422,412,409,410,411,363,370,369,375,377,375,370,376,370,382,373,372,372,375,382,386,379,374,377,371,377,377,376,396,374,377,376,243,244,244,245,246,259,439,489,540,589,602,592,584,574,644,555,546,536,526,517,507,499,489,480,470,460,451,441,432,480,414,404,263,256,250,247,247,248,239,239,240,247,248,236,236,241,244,247,247,247,261,248,247,242,244,248,240,240,241,240,244,242,244,256,241,1210,1202,1192,1277,1372,2447,2898,3046,3161,3119,3147,3100,2970,2914,2859,2879,2831,2696,2633,2577,2520,2464,2471,2352,2260,1900,1815,1675,1590,1600,1433,1268,1251,1212,1204,1190,1200,1194,1204,1211,1215,1224,1217,1236,1226,1236,1222,1229,1223,1226,1227,1275,1238,1246,1232,1240,1239,1225,1268,1232,1227,1264,1232,1237,1233,144,144,145,145,146,151,256,285,315,345,362,356,351,345,339,333,327,322,316,310,304,298,294,288,282,276,270,265,259,253,247,241,236,153,149,146,147,147,136,139,147,165,147,135,142,156,148,137,164,165,140,148,167,166,167,138,143,144,152,147,136,144,143,137,137,806,819,811,825,866,1450,1644,1809,1956,1980,1970,1939,1908,1924,1844,1837,1782,1793,1719,1687,1656,1624,1593,1561,1530,1498,1487,1435,1379,1241,1061,966,942,834,820,818,828,823,834,835,836,841,842,849,849,917,844,865,933,855,851,850,849,936,850,848,853,850,849,851,843,870,845,847,837,781,782,784,787,847,1481,1936,2037,2221,2190,2243,2140,2102,2050,2016,2039,2001,1888,1845,1794,1753,1711,1681,1629,1588,1545,1502,1458,1416,1280,1167,1041,844,812,820,820,806,793,787,803,797,841,798,808,804,815,808,813,805,797,810,809,821,818,822,844,820,817,843,816,847,880,821,873,841,319,324,321,322,327,427,590,674,745,784,798,793,772,759,746,734,721,709,696,682,670,657,645,632,619,607,594,580,568,555,543,530,436,426,328,328,325,326,317,320,320,325,326,322,378,325,320,328,326,321,328,384,383,328,384,378,320,320,321,322,317,326,324,328,321,1344,1350,1349,1439,1688,2834,3268,3404,3516,3464,3487,3432,3298,3251,3181,3189,3139,2998,2934,2872,2711,2548,2411,2148,2032,1933,1877,1792,1544,1552,1509,1424,1392,1368,1360,1338,1360,1360,1348,1365,1354,1377,1355,1372,1365,1380,1372,1376,1368,1365,1374,1373,1384,1379,1385,1395,1385,1378,1400,1381,1386,1401,1383,1394,1392,956,972,960,1069,1872,2403,2818,3010,3124,3134,3086,3025,2953,2872,2810,2757,2659,2595,2524,2452,2382,2310,2230,2158,2095,2023,1952,1880,1690,1544,1383,1063,1012,1005,979,985,1015,1008,1056,1048,1039,1041,1088,1205,1068,1068,1078,1099,1073,1097,1105,1093,1075,1099,1102,1088,1100,1084,1103,1223,1202,1202,1223,1200,1198,673,675,677,680,710,1189,1324,1473,1594,1640,1621,1596,1587,1545,1520,1495,1470,1444,1419,1410,1370,1345,1320,1309,1317,1291,1233,1195,1182,1144,1119,979,824,696,685,683,684,686,688,692,691,698,696,706,698,713,694,699,701,696,708,712,714,713,707,711,710,726,740,713,705,723,702,711,706,0,0,0,0,0,0,0,0,0,0,0,0,0,0,0,0,0,0,0,0,0,0,0,0,0,0,0,0,0,0,0,0,0,0,0,0,0,0,0,0,0,0,0,0,0,0,0,0,0,0,0,0,0,0,0,0,0,0,0,0,0,0,0,0,0,243,244,244,245,246,259,439,489,540,589,602,592,584,574,644,555,546,536,526,517,507,499,489,480,470,460,451,441,432,480,414,404,263,256,250,247,247,248,239,239,240,247,248,236,236,241,244,247,247,247,261,248,247,242,244,248,240,240,241,240,244,242,244,256,241,0,0,0,0,0,0,0,0,0,0,0,0,0,0,0,0,0,0,0,0,0,0,0,0,0,0,0,0,0,0,0,0,0,0,0,0,0,0,0,0,0,0,0,0,0,0,0,0,0,0,0,0,0,0,0,0,0,0,0,0,0,0,0,0,0,1135,1130,1169,1161,1311,2268,2547,2799,2838,2859,2843,2791,2741,2692,2712,2593,2541,2491,2464,2448,2345,2297,2258,2200,2151,2037,1770,1727,1586,1274,1260,1207,1179,1157,1144,1149,1146,1138,1142,1132,1140,1143,1152,1168,1154,1156,1162,1164,1165,1160,1173,1155,1160,1176,1165,1158,1174,1159,1160,1168,1167,1183,1168,1169,1149,165,165,166,167,167,172,293,327,360,391,415,408,402,394,388,381,375,368,362,355,349,342,336,328,322,315,309,302,296,289,283,276,270,262,171,168,168,168,145,144,144,146,146,146,148,150,147,147,148,147,146,146,147,149,148,147,147,147,147,147,147,147,147,148,147,802,815,807,820,861,1310,1633,1825,1947,1970,1960,1929,1924,1867,1836,1828,1796,1764,1732,1678,1668,1616,1604,1554,1543,1491,1459,1448,1369,1238,1130,868,871,829,816,814,816,817,816,819,824,829,840,828,832,837,829,829,827,835,837,838,831,841,849,857,839,839,833,828,834,832,847,837,828,730,727,730,731,793,1330,1566,1760,1877,1926,1914,1879,1846,1811,1784,1744,1711,1678,1644,1608,1581,1539,1504,1469,1436,1400,1372,1330,1308,1262,1009,798,775,768,749,748,752,737,727,734,739,744,749,751,744,776,737,776,741,732,740,747,786,788,785,749,747,751,787,746,787,737,737,743,734,478,479,481,477,479,512,871,972,1112,1165,1167,1152,1132,1113,1093,1074,1058,1038,1032,969,988,969,949,925,912,908,874,856,837,818,814,694,511,499,488,480,486,487,457,463,459,459,464,477,473,475,468,474,483,473,471,472,471,477,475,470,474,472,472,472,471,475,470,478,469,1289,1288,1326,1333,1627,2656,2938,3162,3196,3212,3190,3130,3073,3020,3016,2910,2853,2800,2768,2745,2591,2490,2391,2051,2020,1987,1858,1738,1502,1432,1416,1361,1334,1313,1300,1311,1304,1304,1289,1295,1297,1302,1306,1315,1305,1318,1301,1325,1304,1300,1303,1311,1320,1322,1326,1312,1312,1312,1316,1311,1307,1308,1299,1306,1297,1195,1194,1201,1311,2096,2654,3360,3547,3646,3587,3590,3536,3440,3355,3276,3193,3114,3033,2945,2869,2796,2686,2591,2516,2247,2164,1958,1844,1697,1387,1336,1287,1252,1232,1225,1229,1249,1253,1270,1256,1247,1252,1296,1299,1284,1284,1293,1298,1291,1297,1298,1297,1294,1303,1298,1297,1298,1301,1298,1296,1298,1299,1297,1299,1297,624,626,628,630,652,992,1214,1346,1455,1504,1503,1480,1458,1434,1411,1388,1364,1341,1318,1294,1272,1249,1225,1202,1179,1155,1132,1110,1086,1063,1040,896,662,647,636,633,635,636,631,646,620,620,640,640,632,631,635,639,660,650,663,659,656,651,670,657,654,664,684,658,654,656,686,678,640,240,241,241,242,243,251,427,477,532,581,603,596,584,574,565,555,546,536,525,516,506,496,487,477,468,458,448,439,429,420,410,400,354,344,248,244,244,245,214,208,208,211,214,212,216,216,215,215,218,221,225,221,219,224,223,215,215,222,228,226,224,226,222,226,223,0,0,0,0,0,0,0,0,0,0,0,0,0,0,0,0,0,0,0,0,0,0,0,0,0,0,0,0,0,0,0,0,0,0,0,0,0,0,0,0,0,0,0,0,0,0,0,0,0,0,0,0,0,0,0,0,0,0,0,0,0,0,0,0,0 ]);
