n = 10;
D = [169,129,292,72,230,219,64,82,271,191 ];
q = 0;
prec = array2d(1..0,1..2,[]);
steps = 64;
l = 360;
r = 0;
which = [];
interval = array2d(1..0,1..2,[]);
T = array3d(1..11,1..11,0..64,[0,0,0,0,0,0,0,0,0,0,0,0,0,0,0,0,0,0,0,0,0,0,0,0,0,0,0,0,0,0,0,0,0,0,0,0,0,0,0,0,0,0,0,0,0,0,0,0,0,0,0,0,0,0,0,0,0,0,0,0,0,0,0,0,0,1102,1100,1108,1129,1191,1628,1866,2108,2203,2258,2233,2203,2156,2117,2087,2048,2014,1964,1928,1886,1848,1814,1748,1710,1674,1639,1606,1610,1454,1427,1208,1216,1157,1132,1096,1118,1125,1110,1111,1117,1131,1125,1117,1134,1137,1125,1144,1145,1138,1142,1141,1142,1162,1137,1145,1152,1138,1160,1133,1145,1141,1164,1154,1130,1126,1373,1384,1370,1419,1679,2212,2533,2644,2760,2820,2740,2727,2672,2601,2547,2525,2472,2424,2374,2312,2281,2199,2162,2129,2087,2046,1909,1855,1716,1665,1530,1470,1436,1403,1379,1389,1361,1358,1353,1353,1351,1366,1363,1358,1357,1386,1351,1359,1357,1356,1359,1382,1367,1361,1391,1365,1367,1367,1384,1389,1359,1364,1362,1363,1356,1047,1052,1055,1144,1109,1628,1892,2054,2193,2208,2201,2131,2094,2055,2042,2004,2035,2021,1886,1862,1821,1767,1788,1696,1647,1639,1580,1533,1488,1346,1155,1137,1138,1086,1054,1065,1071,1075,1082,1073,1093,1090,1084,1086,1094,1098,1108,1112,1086,1104,1089,1132,1098,1111,1118,1131,1104,1103,1104,1111,1114,1099,1099,1094,1093,210,211,212,213,213,271,308,343,379,415,432,425,419,411,404,398,391,383,377,370,363,356,349,343,335,328,322,314,308,301,294,287,280,273,217,214,215,215,203,202,200,203,208,207,207,207,207,207,207,217,241,216,212,211,216,205,208,241,237,238,214,216,238,240,215,923,929,939,955,1013,1301,1529,1625,1820,1838,1830,1812,1808,1710,1683,1683,1651,1601,1610,1564,1585,1487,1489,1447,1404,1372,1344,1349,1339,1160,1031,1019,983,993,949,949,978,963,938,940,941,952,942,956,940,949,946,940,947,942,948,953,944,949,950,954,950,959,952,954,959,982,980,982,972,225,225,226,233,234,284,322,357,394,430,456,449,443,434,427,421,413,406,399,392,384,377,371,363,356,349,342,335,328,321,312,306,299,292,238,234,234,235,201,198,200,201,199,202,201,205,201,203,202,200,202,204,202,204,203,204,203,203,203,204,204,204,204,204,204,1005,980,982,996,1158,1512,1736,1997,2031,2070,2055,2019,1983,1948,1964,1875,1839,1803,1765,1730,1696,1662,1671,1588,1554,1515,1523,1486,1407,1371,1118,1089,1034,1009,993,993,973,979,967,970,986,984,983,990,980,991,987,999,991,986,990,1005,998,993,1031,1005,1001,1006,1007,1014,999,1004,1002,1003,996,693,695,697,699,726,1007,1170,1332,1449,1500,1485,1469,1443,1390,1379,1362,1336,1388,1282,1233,1229,1203,1175,1149,1123,1096,1070,1042,1016,990,963,910,881,722,706,703,707,711,702,696,699,700,710,703,707,708,710,717,711,725,732,721,718,729,725,719,720,725,740,742,799,810,810,810,810,868,862,886,900,942,1049,1399,1559,1668,1747,1751,1708,1681,1643,1629,1592,1569,1547,1517,1489,1461,1433,1405,1378,1354,1326,1301,1272,1238,1144,1109,1064,953,900,900,889,844,843,829,831,835,826,839,845,834,842,845,861,842,842,834,842,868,853,839,866,849,872,842,838,839,867,864,845,841,0,0,0,0,0,0,0,0,0,0,0,0,0,0,0,0,0,0,0,0,0,0,0,0,0,0,0,0,0,0,0,0,0,0,0,0,0,0,0,0,0,0,0,0,0,0,0,0,0,0,0,0,0,0,0,0,0,0,0,0,0,0,0,0,0,999,1005,1007,1023,1121,1381,1760,1962,2085,2099,2107,2073,2028,1995,1984,1927,1922,1861,1840,1758,1742,1696,1659,1643,1590,1573,1510,1476,1433,1288,1245,1082,1085,1030,1008,1035,1039,1018,1013,1017,1023,1021,1040,1033,1057,1044,1027,1071,1031,1027,1025,1024,1038,1042,1036,1032,1034,1026,1027,1035,1028,1045,1053,1046,1032,0,0,0,0,0,0,0,0,0,0,0,0,0,0,0,0,0,0,0,0,0,0,0,0,0,0,0,0,0,0,0,0,0,0,0,0,0,0,0,0,0,0,0,0,0,0,0,0,0,0,0,0,0,0,0,0,0,0,0,0,0,0,0,0,0,623,627,629,629,634,773,950,1057,1219,1255,1269,1232,1229,1208,1175,1155,1143,1117,1106,1081,1071,1054,1026,1018,981,960,914,919,907,887,866,778,675,725,652,636,647,650,601,601,604,604,605,607,606,606,607,609,612,613,610,613,629,630,613,611,622,613,613,616,615,617,611,615,612,766,769,759,762,786,1035,1168,1329,1485,1507,1521,1501,1469,1465,1409,1385,1391,1339,1326,1307,1294,1269,1243,1204,1187,1162,1147,1110,1080,1000,918,824,817,797,785,778,767,767,741,745,743,755,761,753,760,751,747,753,751,755,752,759,786,784,789,779,770,758,757,748,755,754,781,757,750,1050,1049,1051,1059,1270,1505,1930,2147,2259,2264,2268,2228,2178,2141,2122,2062,2030,1986,1937,1852,1845,1804,1762,1740,1684,1655,1592,1551,1507,1351,1241,1141,1130,1075,1053,1088,1087,1060,1066,1071,1069,1075,1081,1079,1067,1082,1086,1113,1096,1088,1092,1090,1095,1100,1095,1088,1097,1105,1095,1116,1087,1103,1109,1118,1101,519,559,570,526,529,631,778,922,984,1029,1064,1048,1006,994,1024,962,976,946,943,939,935,925,884,869,810,838,825,797,726,766,697,698,693,589,578,566,567,533,566,558,564,581,571,566,567,572,567,588,590,572,579,576,578,576,630,604,565,580,598,571,568,567,576,572,563,956,959,962,969,1001,1310,1502,1673,1821,1905,1896,1875,1838,1806,1776,1745,1716,1684,1653,1626,1593,1565,1533,1502,1474,1444,1431,1382,1354,1293,1239,1121,1007,988,1000,972,974,976,962,962,971,986,985,984,976,983,982,998,986,980,1013,1008,1000,982,1007,1000,974,994,978,980,980,978,984,984,969,233,234,234,234,235,309,349,388,432,458,486,464,470,463,442,434,440,420,424,404,411,402,394,387,368,360,364,345,345,337,330,322,314,306,299,236,290,290,190,190,190,191,189,191,190,189,188,189,190,191,188,190,202,201,190,188,197,190,190,191,192,192,188,190,189,937,938,940,943,994,1217,1524,1723,1831,1860,1884,1849,1801,1783,1767,1737,1700,1669,1629,1562,1553,1538,1508,1491,1446,1436,1386,1347,1318,1287,1181,1070,1039,957,940,971,963,942,949,948,952,959,959,959,956,962,952,954,960,952,982,958,963,968,962,988,962,986,986,965,976,969,952,969,955,414,415,417,418,420,495,592,640,685,726,739,730,721,713,705,696,688,682,673,690,654,645,638,629,640,612,606,598,587,578,570,563,551,433,424,420,421,423,408,399,405,417,420,416,399,410,405,417,418,415,417,416,421,424,423,424,405,418,409,420,424,411,415,418,414,999,1005,1007,1023,1121,1381,1760,1962,2085,2099,2107,2073,2028,1995,1984,1927,1922,1861,1840,1758,1742,1696,1659,1643,1590,1573,1510,1476,1433,1288,1245,1082,1085,1030,1008,1035,1039,1018,1013,1017,1023,1021,1040,1033,1057,1044,1027,1071,1031,1027,1025,1024,1038,1042,1036,1032,1034,1026,1027,1035,1028,1045,1053,1046,1032,1284,1289,1318,1340,1650,2095,2396,2535,2606,2646,2652,2560,2530,2483,2437,2417,2361,2303,2279,2229,2184,2131,2107,2023,1991,1952,1913,1853,1631,1406,1402,1352,1328,1339,1294,1309,1316,1305,1309,1309,1307,1329,1314,1322,1335,1318,1315,1330,1330,1328,1323,1326,1327,1340,1329,1326,1325,1328,1328,1328,1332,1347,1326,1326,1326,627,628,630,631,653,865,973,1083,1200,1259,1260,1221,1220,1194,1172,1159,1137,1118,1098,1079,1052,1039,1023,997,979,961,938,918,884,877,855,797,776,668,636,643,637,589,562,561,561,569,579,578,580,577,576,581,579,587,575,584,581,592,580,576,592,579,586,583,580,584,574,574,574,0,0,0,0,0,0,0,0,0,0,0,0,0,0,0,0,0,0,0,0,0,0,0,0,0,0,0,0,0,0,0,0,0,0,0,0,0,0,0,0,0,0,0,0,0,0,0,0,0,0,0,0,0,0,0,0,0,0,0,0,0,0,0,0,0,624,626,628,630,740,875,990,1105,1177,1248,1223,1229,1210,1190,1170,1146,1130,1111,1068,1071,1051,1031,1012,992,972,972,948,913,874,873,852,832,812,793,637,633,635,637,712,618,622,627,627,636,627,637,627,721,643,635,630,637,638,643,644,644,636,639,638,642,648,645,643,719,712,1329,1333,1359,1399,1774,2268,2578,2701,2771,2805,2805,2708,2673,2622,2570,2546,2484,2423,2394,2338,2291,2249,2203,2116,2081,2035,1991,1807,1686,1458,1449,1397,1404,1384,1342,1359,1371,1358,1363,1355,1361,1377,1367,1360,1380,1381,1388,1395,1391,1396,1389,1396,1389,1399,1385,1389,1404,1396,1412,1392,1390,1412,1393,1398,1395,1113,1116,1122,1131,1242,1674,1897,2045,2158,2222,2176,2159,2109,2073,2039,2016,1982,1970,1916,1904,1838,1816,1798,1751,1728,1599,1658,1594,1426,1380,1363,1243,1223,1157,1165,1132,1133,1088,1067,1067,1074,1087,1088,1092,1087,1081,1084,1093,1094,1089,1089,1098,1094,1101,1094,1090,1105,1094,1093,1091,1090,1097,1086,1086,1086,1400,1407,1431,1468,1842,2319,2616,2740,2818,2851,2854,2757,2724,2674,2625,2603,2542,2482,2455,2400,2352,2297,2270,2185,2149,2004,1951,1737,1691,1521,1516,1464,1441,1451,1406,1407,1414,1414,1395,1387,1388,1416,1402,1418,1426,1413,1412,1424,1421,1425,1419,1428,1422,1430,1420,1419,1435,1426,1426,1424,1423,1425,1414,1414,1414,490,486,488,499,495,671,748,834,920,968,995,979,947,926,931,915,900,884,851,838,822,807,806,781,774,742,729,711,698,694,671,650,636,507,496,492,496,456,427,427,430,441,443,447,442,439,440,449,447,448,441,450,446,453,446,442,458,447,446,447,446,448,437,437,437,1234,1233,1243,1281,1414,1867,2144,2301,2367,2471,2419,2389,2317,2296,2265,2222,2184,2164,2112,2068,2015,1989,1960,1884,1875,1858,1797,1771,1565,1346,1342,1310,1283,1287,1225,1252,1253,1241,1240,1238,1245,1255,1247,1249,1260,1248,1249,1259,1255,1269,1257,1264,1257,1266,1268,1254,1279,1268,1264,1269,1256,1259,1249,1249,1249,913,901,919,925,953,1289,1454,1604,1758,1804,1771,1770,1746,1712,1658,1659,1629,1605,1573,1519,1519,1487,1435,1437,1407,1381,1332,1291,1273,1244,1132,1074,959,950,929,927,914,855,823,825,830,841,841,845,842,835,836,845,843,844,838,847,842,849,842,839,855,845,845,844,844,844,833,833,833,1284,1289,1318,1340,1650,2095,2396,2535,2606,2646,2652,2560,2530,2483,2437,2417,2361,2303,2279,2229,2184,2131,2107,2023,1991,1952,1913,1853,1631,1406,1402,1352,1328,1339,1294,1309,1316,1305,1309,1309,1307,1329,1314,1322,1335,1318,1315,1330,1330,1328,1323,1326,1327,1340,1329,1326,1325,1328,1328,1328,1332,1347,1326,1326,1326,1010,1013,1016,1020,1070,1496,1729,2009,2124,2158,2141,2091,2065,2028,1988,1950,1912,1875,1835,1797,1759,1712,1682,1644,1606,1568,1526,1491,1457,1415,1125,1114,1083,1066,1038,1025,1037,1044,995,994,1005,1015,1016,1021,1003,1017,1015,1034,1027,1014,1032,1038,1050,1047,1026,1036,1027,1039,1029,1031,1032,1054,1037,1053,1050,722,702,710,712,731,985,1108,1230,1348,1403,1406,1385,1358,1340,1311,1292,1269,1248,1229,1202,1185,1184,1138,1126,1102,1087,1067,1056,1005,975,903,876,767,750,741,711,726,692,680,673,681,692,708,690,707,696,727,705,692,705,717,699,722,702,690,722,691,709,704,705,720,710,704,697,690,589,591,593,594,610,816,920,1023,1132,1181,1185,1166,1147,1128,1109,1091,1072,1052,1034,1015,996,972,959,939,920,897,883,864,844,826,804,788,732,614,602,598,600,602,570,569,572,584,583,582,583,583,578,583,583,580,581,583,590,587,583,581,585,583,583,583,584,584,579,583,581,0,0,0,0,0,0,0,0,0,0,0,0,0,0,0,0,0,0,0,0,0,0,0,0,0,0,0,0,0,0,0,0,0,0,0,0,0,0,0,0,0,0,0,0,0,0,0,0,0,0,0,0,0,0,0,0,0,0,0,0,0,0,0,0,0,1055,1058,1064,1074,1201,1622,1897,2220,2290,2324,2303,2250,2207,2174,2130,2087,2044,2001,1957,1914,1874,1831,1784,1742,1699,1656,1608,1571,1528,1242,1178,1161,1127,1112,1083,1078,1088,1091,1058,1059,1041,1050,1069,1046,1056,1067,1063,1064,1088,1061,1065,1071,1074,1086,1066,1084,1072,1090,1072,1075,1073,1091,1105,1088,1085,1061,1043,1070,1073,1139,1495,1792,1935,2035,2098,2074,2046,2027,1968,1970,1893,1882,1868,1840,1767,1778,1722,1700,1695,1630,1533,1510,1550,1374,1367,1251,1158,1138,1079,1099,1087,1091,1057,1048,1056,1052,1065,1054,1056,1063,1075,1064,1058,1061,1088,1088,1083,1061,1062,1063,1063,1060,1060,1052,1060,1055,1084,1083,1085,1055,1125,1124,1132,1139,1217,1689,1953,2232,2330,2366,2346,2295,2257,2224,2181,2140,2096,2058,2015,1973,1933,1884,1849,1808,1767,1725,1682,1642,1601,1479,1241,1233,1194,1178,1150,1139,1134,1139,1102,1103,1115,1131,1115,1110,1124,1130,1117,1118,1119,1119,1122,1126,1131,1136,1135,1122,1127,1131,1148,1149,1128,1161,1150,1152,1150,540,546,546,548,574,742,834,936,1030,1090,1095,1074,1060,1043,1025,1005,991,973,955,939,920,906,889,872,852,834,817,798,784,762,726,710,659,569,557,553,555,526,517,509,511,511,516,517,518,520,536,518,517,517,548,526,536,522,519,547,519,540,520,520,530,520,515,517,510,961,964,972,975,1059,1378,1636,1819,1910,1944,1933,1995,1927,1837,1799,1773,1736,1712,1681,1650,1611,1641,1555,1524,1492,1461,1433,1450,1337,1276,1246,1041,1010,994,983,981,979,985,981,990,985,1005,993,996,997,1008,993,1013,996,988,1026,1003,1006,1004,1007,1029,1023,1023,1026,996,1018,1044,1003,1003,1003,838,837,838,845,853,1165,1354,1486,1624,1667,1663,1637,1606,1579,1558,1527,1498,1474,1455,1420,1391,1371,1353,1318,1294,1280,1245,1233,1189,1175,965,944,887,875,858,850,855,830,821,821,824,826,827,829,836,833,837,831,829,832,860,841,834,835,832,836,833,833,825,833,828,836,834,835,828,1010,1013,1016,1020,1070,1496,1729,2009,2124,2158,2141,2091,2065,2028,1988,1950,1912,1875,1835,1797,1759,1712,1682,1644,1606,1568,1526,1491,1457,1415,1125,1114,1083,1066,1038,1025,1037,1044,995,994,1005,1015,1016,1021,1003,1017,1015,1034,1027,1014,1032,1038,1050,1047,1026,1036,1027,1039,1029,1031,1032,1054,1037,1053,1050,145,146,146,147,147,184,209,232,255,278,294,289,284,280,276,271,267,262,257,253,248,244,239,235,229,225,221,216,212,207,203,198,193,189,184,181,181,182,187,135,136,136,135,138,136,139,135,141,138,135,136,138,136,136,140,139,138,138,136,139,136,139,139,140,140,1135,1135,1140,1161,1226,1721,2012,2173,2286,2310,2292,2265,2225,2185,2146,2105,2066,2018,1983,1943,1919,1833,1796,1759,1723,1685,1659,1618,1476,1311,1252,1242,1220,1167,1128,1151,1156,1129,1148,1151,1169,1167,1162,1167,1167,1161,1187,1189,1191,1180,1173,1194,1192,1169,1184,1186,1181,1180,1181,1194,1179,1193,1195,1177,1168,1405,1407,1421,1447,1779,2267,2566,2755,2807,2866,2831,2787,2695,2659,2650,2581,2527,2469,2427,2363,2311,2249,2204,2210,2150,1960,1867,1871,1632,1607,1548,1504,1465,1403,1413,1418,1394,1387,1398,1372,1376,1386,1378,1390,1390,1450,1393,1389,1396,1387,1393,1393,1393,1393,1398,1392,1402,1398,1393,1388,1396,1487,1396,1394,1394,1080,1084,1089,1148,1304,1683,1937,2112,2213,2269,2262,2223,2269,2134,2116,2076,2016,1977,1955,1899,1875,1818,1844,1732,1686,1676,1625,1586,1546,1436,1335,1274,1140,1102,1098,1108,1109,1096,1106,1106,1124,1147,1131,1126,1117,1153,1142,1125,1162,1122,1124,1131,1135,1164,1154,1140,1135,1144,1130,1141,1130,1149,1124,1138,1129,0,0,0,0,0,0,0,0,0,0,0,0,0,0,0,0,0,0,0,0,0,0,0,0,0,0,0,0,0,0,0,0,0,0,0,0,0,0,0,0,0,0,0,0,0,0,0,0,0,0,0,0,0,0,0,0,0,0,0,0,0,0,0,0,0,1015,983,987,1013,1086,1358,1679,1783,1982,2008,1990,1934,1908,1849,1805,1814,1780,1729,1721,1688,1673,1604,1561,1564,1509,1503,1492,1412,1407,1187,1167,1055,1056,987,1024,995,1042,1000,1007,994,1005,1009,1016,1026,1010,1014,1017,1027,1027,1028,1029,1029,1035,1046,1036,1036,1038,1039,1036,1038,1037,1039,1034,1045,1039,339,340,340,342,343,384,495,552,609,658,672,661,651,640,629,619,608,598,587,576,566,555,544,534,523,512,502,491,481,470,459,448,438,390,342,344,371,375,331,330,331,334,334,336,336,338,334,336,336,332,335,334,334,339,339,336,335,335,336,339,334,342,334,339,339,1009,1039,1015,1030,1152,1598,1817,1991,2095,2130,2118,2127,2041,2004,1967,1930,1894,1856,1818,1781,1743,1711,1722,1635,1601,1562,1524,1487,1492,1384,1126,1124,1068,1041,1026,1052,1005,1012,1022,1012,1016,1026,1018,1030,1030,1058,1033,1029,1036,1027,1033,1033,1033,1033,1038,1032,1042,1038,1033,1028,1036,1102,1036,1034,1034,725,727,729,717,747,1063,1234,1402,1516,1563,1557,1530,1588,1475,1446,1419,1391,1364,1336,1285,1281,1230,1226,1197,1170,1142,1107,1087,1123,1032,1005,976,890,740,732,737,740,744,733,730,726,726,732,747,736,742,747,755,748,761,761,747,844,763,858,754,761,851,760,860,763,756,867,765,847,901,903,921,926,1045,1305,1569,1727,1848,1882,1872,1845,1814,1780,1746,1709,1676,1629,1611,1584,1552,1515,1483,1449,1406,1388,1357,1323,1301,1149,1099,1074,960,936,932,930,877,872,866,865,877,868,882,880,879,879,879,901,875,886,880,888,933,891,900,899,897,881,888,891,877,892,897,889,883,145,146,146,147,147,184,209,232,255,278,294,289,284,280,276,271,267,262,257,253,248,244,239,235,229,225,221,216,212,207,203,198,193,189,184,181,181,182,187,135,136,136,135,138,136,139,135,141,138,135,136,138,136,136,140,139,138,138,136,139,136,139,139,140,140,941,944,957,966,1038,1319,1491,1660,1765,1821,1798,1767,1797,1736,1700,1676,1644,1659,1588,1560,1535,1503,1476,1447,1420,1383,1355,1327,1299,1244,1091,1070,1043,950,956,936,956,956,939,946,954,948,953,947,953,961,954,953,971,949,962,961,967,974,965,962,967,970,960,963,960,956,966,975,949,583,565,578,589,602,699,869,970,1065,1101,1102,1087,1077,1060,1042,1025,1017,1000,987,970,952,933,915,897,881,855,837,823,803,746,681,674,639,585,593,573,572,578,548,555,560,568,571,570,558,573,558,571,567,569,567,579,577,567,576,573,579,570,574,576,576,582,565,567,562,1128,1102,1093,1141,1203,1587,1869,1987,2138,2154,2140,2047,2068,2020,2002,1968,1951,1859,1875,1847,1785,1779,1748,1715,1667,1660,1599,1522,1450,1231,1200,1172,1154,1144,1119,1093,1099,1095,1053,1056,1066,1063,1058,1065,1061,1067,1077,1067,1071,1067,1071,1074,1085,1076,1075,1074,1080,1078,1078,1074,1087,1075,1064,1075,1072,1166,1141,1161,1215,1424,1699,1930,2119,2188,2223,2205,2171,2116,2081,2055,2014,1997,1977,1946,1909,1879,1820,1790,1768,1740,1691,1675,1606,1487,1341,1235,1288,1201,1178,1184,1155,1144,1186,1111,1103,1111,1123,1116,1133,1121,1126,1125,1126,1138,1133,1127,1138,1135,1134,1140,1145,1128,1146,1137,1136,1148,1135,1136,1135,1132,1013,1024,1052,1061,1110,1402,1686,1835,1917,1994,1918,1945,1936,1899,1837,1800,1774,1748,1723,1664,1662,1636,1604,1597,1564,1504,1488,1342,1415,1259,1216,1085,1058,1042,1048,1026,1017,1016,1014,1011,1022,1029,1021,1034,1027,1028,1033,1026,1037,1026,1033,1033,1039,1064,1053,1048,1032,1046,1037,1033,1021,1041,1037,1051,1029,0,0,0,0,0,0,0,0,0,0,0,0,0,0,0,0,0,0,0,0,0,0,0,0,0,0,0,0,0,0,0,0,0,0,0,0,0,0,0,0,0,0,0,0,0,0,0,0,0,0,0,0,0,0,0,0,0,0,0,0,0,0,0,0,0,800,801,815,810,859,1091,1228,1371,1482,1545,1523,1501,1535,1470,1447,1423,1399,1420,1351,1327,1304,1280,1257,1233,1208,1178,1153,1129,1105,1082,1049,960,902,808,813,791,811,810,794,804,808,801,815,802,811,815,818,808,825,803,827,813,821,828,817,815,825,823,812,814,813,810,818,828,801,711,696,696,720,734,888,1077,1204,1317,1369,1335,1313,1321,1273,1279,1230,1225,1202,1183,1183,1138,1123,1097,1077,1056,1047,1024,986,985,936,757,784,720,719,725,705,708,686,642,642,653,647,642,649,644,648,657,645,649,645,648,651,660,653,652,649,657,655,653,651,662,652,639,652,649,959,957,965,968,1071,1395,1555,1696,1804,1842,1835,1790,1776,1775,1709,1700,1681,1627,1607,1581,1544,1532,1498,1426,1443,1468,1387,1378,1331,1283,1196,1096,991,981,974,964,959,960,944,946,943,943,958,959,964,959,956,964,963,960,974,971,974,967,970,971,972,970,964,966,972,964,960,965,959,368,342,354,419,420,454,490,546,594,619,629,621,612,605,595,588,592,584,575,566,557,548,539,531,522,539,515,488,479,470,462,454,362,442,427,356,345,424,345,345,342,346,346,349,349,356,345,348,350,355,349,346,347,354,351,350,347,350,342,345,342,346,345,346,342,941,944,957,966,1038,1319,1491,1660,1765,1821,1798,1767,1797,1736,1700,1676,1644,1659,1588,1560,1535,1503,1476,1447,1420,1383,1355,1327,1299,1244,1091,1070,1043,950,956,936,956,956,939,946,954,948,953,947,953,961,954,953,971,949,962,961,967,974,965,962,967,970,960,963,960,956,966,975,949,148,148,149,149,150,188,243,235,259,283,298,293,289,284,280,314,270,266,261,257,251,247,243,238,234,228,224,220,215,211,205,201,196,192,187,210,210,211,146,146,145,146,146,147,145,145,145,147,145,145,146,146,148,148,146,146,148,147,147,153,148,149,147,146,148,1006,1009,1012,1029,1130,1484,1687,1844,1951,1965,1956,1962,1893,1886,1831,1835,1789,1750,1706,1692,1675,1633,1582,1529,1536,1493,1442,1427,1379,1137,1113,1091,1061,1035,1024,1033,1019,1012,1004,1004,1018,1022,1012,1020,1024,1035,1030,1030,1040,1032,1034,1037,1029,1044,1036,1044,1033,1042,1032,1028,1033,1044,1034,1044,1032,1362,1375,1361,1405,1673,2163,2451,2676,2758,2750,2761,2684,2661,2585,2561,2517,2440,2406,2363,2318,2266,2185,2140,2115,2103,2026,1920,1806,1589,1503,1497,1455,1430,1374,1390,1381,1357,1345,1343,1341,1339,1339,1339,1339,1339,1339,1339,1339,1339,1339,1339,1339,1339,1339,1339,1339,1339,1339,1339,1339,1339,1339,1339,1339,1339,1039,1031,1046,1060,1098,1613,1882,2044,2131,2170,2223,2158,2164,2081,2024,1985,1948,1926,1886,1815,1809,1740,1767,1693,1682,1589,1579,1549,1476,1390,1327,1167,1107,1072,1092,1056,1105,1066,1061,1061,1061,1061,1061,1061,1061,1061,1061,1061,1061,1061,1061,1061,1061,1061,1061,1061,1061,1061,1061,1061,1061,1061,1061,1061,1061,278,278,279,280,281,314,400,447,494,542,568,558,550,541,532,522,513,504,496,486,477,468,459,449,441,432,422,413,404,396,386,377,368,319,286,282,310,284,234,233,235,235,238,248,236,250,236,238,241,237,240,244,241,244,241,241,241,244,246,246,240,240,240,240,240,804,773,775,801,863,1110,1301,1408,1530,1543,1531,1521,1510,1483,1450,1447,1408,1364,1366,1294,1291,1287,1255,1244,1190,1162,1144,1117,1116,1090,1001,985,810,772,825,759,780,786,780,783,787,809,794,794,788,808,791,794,789,793,786,800,790,801,807,806,802,797,792,804,801,829,820,834,816,0,0,0,0,0,0,0,0,0,0,0,0,0,0,0,0,0,0,0,0,0,0,0,0,0,0,0,0,0,0,0,0,0,0,0,0,0,0,0,0,0,0,0,0,0,0,0,0,0,0,0,0,0,0,0,0,0,0,0,0,0,0,0,0,0,991,998,973,986,1146,1494,1718,1921,2042,2053,2041,2003,1968,1931,1895,1859,1824,1788,1750,1756,1684,1645,1612,1576,1540,1540,1516,1431,1395,1138,1108,1093,1027,1000,1010,984,964,970,983,981,979,979,979,979,979,979,979,979,979,979,979,979,979,979,979,979,979,979,979,979,979,979,979,979,979,684,686,688,684,715,988,1153,1284,1404,1483,1479,1453,1426,1400,1348,1347,1321,1294,1268,1241,1215,1180,1162,1136,1126,1083,1068,1030,1037,977,951,925,892,713,697,681,698,702,691,691,691,691,691,691,691,691,691,691,691,691,691,691,691,691,691,691,691,691,691,691,691,691,691,691,691,758,749,766,787,805,905,1149,1288,1380,1425,1424,1402,1399,1357,1332,1339,1289,1268,1246,1221,1224,1178,1156,1133,1112,1092,1070,1049,1054,1004,917,896,876,751,739,729,738,708,709,713,710,719,728,733,723,730,731,730,730,730,730,730,730,730,730,730,730,730,730,730,730,730,730,730,730,148,148,149,149,150,188,243,235,259,283,298,293,289,284,280,314,270,266,261,257,251,247,243,238,234,228,224,220,215,211,205,201,196,192,187,210,210,211,146,146,145,146,146,147,145,145,145,147,145,145,146,146,148,148,146,146,148,147,147,153,148,149,147,146,148,898,901,905,915,940,1290,1540,1732,1869,1899,1896,1861,1837,1803,1768,1734,1703,1665,1610,1601,1559,1525,1490,1461,1420,1395,1358,1318,1304,1260,1117,981,962,927,915,914,920,922,870,882,882,877,901,887,895,900,884,900,881,883,881,882,891,885,887,883,886,882,881,888,886,886,915,889,888,260,257,258,259,259,292,373,416,459,502,523,521,507,478,512,503,495,472,456,454,460,431,429,414,390,398,395,381,372,350,363,348,339,270,299,260,261,261,244,246,243,246,246,246,246,246,244,246,246,246,245,246,246,246,246,246,246,246,246,246,246,246,246,246,246,483,485,486,487,494,577,719,801,880,955,976,962,951,929,914,900,883,867,850,836,817,805,788,774,759,745,728,664,693,679,665,577,565,506,506,494,490,493,441,441,441,441,441,441,441,441,441,441,441,441,441,441,441,441,441,441,441,441,441,441,441,441,441,441,441,624,626,629,630,639,787,971,1083,1156,1226,1226,1214,1218,1190,1171,1135,1115,1114,1077,1057,1057,1035,1012,992,958,952,932,913,893,856,768,710,694,677,625,633,635,637,605,605,601,609,609,609,609,609,609,609,609,609,609,609,609,609,609,609,609,609,609,609,609,609,609,609,609,943,945,948,956,999,1414,1684,1930,2043,2080,2073,2031,1992,1953,1913,1872,1833,1794,1745,1714,1674,1634,1608,1559,1527,1486,1445,1409,1370,1332,1058,1031,1009,980,960,962,968,964,923,936,928,931,942,933,936,938,943,963,946,944,948,948,948,943,946,939,949,961,949,967,945,944,964,961,960,634,631,668,638,640,808,967,1073,1180,1246,1286,1242,1246,1207,1187,1160,1149,1131,1102,1093,1074,1094,1064,1016,1008,997,962,863,944,874,748,758,703,721,687,674,680,641,632,640,640,644,646,645,645,645,642,644,644,648,641,654,658,656,656,655,653,653,654,647,644,644,649,653,641,1009,1012,1015,1028,1068,1383,1705,1883,1991,2037,2034,2008,1972,1949,1921,1906,1852,1833,1793,1771,1731,1696,1657,1625,1583,1556,1514,1472,1443,1313,1121,1095,1085,1039,1027,1026,1017,1013,968,968,970,975,975,979,971,984,974,972,977,974,977,978,978,976,977,974,977,978,979,980,978,977,977,977,976,0,0,0,0,0,0,0,0,0,0,0,0,0,0,0,0,0,0,0,0,0,0,0,0,0,0,0,0,0,0,0,0,0,0,0,0,0,0,0,0,0,0,0,0,0,0,0,0,0,0,0,0,0,0,0,0,0,0,0,0,0,0,0,0,0,832,835,837,840,885,1126,1316,1478,1603,1664,1668,1630,1603,1576,1557,1514,1494,1466,1438,1420,1392,1364,1337,1308,1288,1261,1229,1203,1170,1152,1095,1051,915,866,847,839,848,846,806,813,811,815,820,813,821,818,809,809,810,808,822,816,816,811,813,828,814,826,826,818,829,810,811,812,811,436,440,439,439,449,543,645,715,785,856,877,857,845,832,815,806,792,778,765,748,742,724,716,697,686,664,656,643,627,616,602,594,547,531,448,445,446,447,399,396,398,400,400,398,398,400,396,396,396,396,396,397,397,396,396,396,397,397,398,399,397,398,396,396,395,898,901,905,915,940,1290,1540,1732,1869,1899,1896,1861,1837,1803,1768,1734,1703,1665,1610,1601,1559,1525,1490,1461,1420,1395,1358,1318,1304,1260,1117,981,962,927,915,914,920,922,870,882,882,877,901,887,895,900,884,900,881,883,881,882,891,885,887,883,886,882,881,888,886,886,915,889,888,688,675,676,677,763,1029,1278,1456,1551,1616,1626,1555,1541,1491,1502,1428,1444,1366,1386,1357,1270,1239,1230,1175,1135,1113,1072,1070,1018,986,954,882,729,703,701,679,684,696,686,693,698,711,728,726,710,767,702,788,720,766,721,712,730,780,729,719,772,723,723,772,730,787,720,726,718,960,963,965,968,1072,1430,1619,1790,1904,1949,1940,1907,1875,1840,1807,1772,1745,1717,1693,1649,1615,1581,1522,1492,1459,1428,1398,1378,1343,1272,1178,1118,1022,993,977,975,956,963,955,963,992,1002,988,954,976,994,1007,984,1020,1010,978,1007,1002,1023,1016,977,992,991,1015,1014,980,1011,1000,982,981,1245,1243,1259,1283,1490,1907,2205,2369,2480,2465,2462,2443,2373,2327,2310,2294,2240,2194,2135,2112,2053,2004,1950,1912,1902,1864,1802,1690,1656,1484,1417,1319,1289,1274,1263,1269,1239,1223,1219,1219,1222,1238,1235,1235,1237,1248,1234,1235,1240,1239,1241,1248,1248,1246,1244,1234,1245,1247,1244,1235,1239,1252,1232,1240,1228,953,950,927,931,967,1329,1598,1774,1869,1890,1878,1871,1848,1818,1787,1750,1725,1681,1648,1597,1601,1551,1519,1486,1454,1421,1389,1358,1314,1276,1113,1147,976,946,939,975,940,932,942,941,934,931,958,954,960,958,962,973,964,967,958,973,957,973,967,977,967,964,972,964,960,953,968,966,954,718,719,720,722,823,1121,1387,1635,1729,1795,1754,1718,1698,1644,1650,1626,1587,1498,1513,1479,1389,1353,1316,1279,1243,1206,1184,1134,1097,1060,1024,987,919,748,731,732,738,746,739,747,755,797,758,765,751,767,752,765,755,748,756,763,799,842,768,767,762,759,801,783,766,766,756,765,756,1014,1018,1024,1024,1064,1391,1745,1936,2001,2051,2015,1983,1986,1941,1921,1874,1820,1792,1785,1721,1744,1717,1656,1596,1562,1551,1473,1453,1373,1292,1247,1136,1057,1033,1029,1027,1034,983,958,962,962,971,972,970,970,980,974,983,974,991,992,995,981,980,976,979,974,969,977,976,976,994,990,996,992,783,785,787,792,846,1202,1441,1680,1769,1830,1786,1762,1749,1694,1699,1623,1635,1554,1570,1538,1448,1417,1380,1343,1299,1274,1233,1203,1170,1135,1100,1064,842,821,798,791,793,793,779,786,801,803,799,810,794,810,793,827,800,792,799,805,809,845,810,807,804,802,880,809,803,809,793,804,796,851,853,855,885,891,1217,1465,1634,1725,1771,1766,1734,1707,1684,1656,1622,1591,1560,1529,1498,1471,1436,1407,1376,1347,1316,1287,1256,1226,1195,1050,929,905,882,866,863,855,847,857,859,849,872,875,866,877,881,874,872,876,872,870,873,871,878,883,874,878,867,865,869,875,873,872,874,848,0,0,0,0,0,0,0,0,0,0,0,0,0,0,0,0,0,0,0,0,0,0,0,0,0,0,0,0,0,0,0,0,0,0,0,0,0,0,0,0,0,0,0,0,0,0,0,0,0,0,0,0,0,0,0,0,0,0,0,0,0,0,0,0,0,776,780,782,783,804,1015,1300,1474,1578,1626,1623,1596,1567,1539,1511,1488,1459,1428,1403,1372,1347,1321,1293,1262,1236,1206,1182,1151,1125,1097,1018,854,831,807,792,789,793,756,731,735,735,744,745,743,743,753,747,756,747,762,763,769,754,753,749,752,747,742,750,749,749,767,763,769,765,688,675,676,677,763,1029,1278,1456,1551,1616,1626,1555,1541,1491,1502,1428,1444,1366,1386,1357,1270,1239,1230,1175,1135,1113,1072,1070,1018,986,954,882,729,703,701,679,684,696,686,693,698,711,728,726,710,767,702,788,720,766,721,712,730,780,729,719,772,723,723,772,730,787,720,726,718,792,794,797,800,820,1045,1277,1443,1584,1619,1610,1597,1562,1536,1512,1487,1463,1438,1413,1390,1370,1340,1329,1291,1268,1244,1217,1188,1157,1001,979,886,859,819,809,805,809,811,764,764,764,764,764,764,764,764,764,764,764,764,764,764,764,764,764,764,764,764,764,764,764,764,764,764,764,345,346,347,348,404,411,502,560,621,680,701,702,679,674,657,645,634,623,612,601,590,578,567,560,545,533,523,516,502,489,477,466,458,442,354,350,357,352,333,329,335,335,336,347,340,342,344,339,349,341,341,338,338,348,338,337,339,347,336,337,339,340,336,345,341,866,865,847,874,925,1145,1383,1556,1663,1725,1718,1694,1608,1635,1610,1582,1554,1529,1444,1471,1445,1390,1397,1360,1340,1314,1281,1255,1216,1193,997,934,928,897,884,845,880,837,797,797,797,797,797,797,797,797,797,797,797,797,797,797,797,797,797,797,797,797,797,797,797,797,797,797,797,904,908,903,918,952,1248,1474,1594,1753,1771,1791,1741,1734,1685,1656,1650,1601,1570,1561,1541,1512,1484,1465,1407,1399,1347,1323,1311,1262,1206,1015,993,967,920,920,917,923,910,851,851,851,851,851,851,851,851,851,851,851,851,851,851,851,851,851,851,851,851,851,851,851,851,851,851,851,837,839,842,844,851,1245,1497,1669,1844,1879,1863,1853,1790,1774,1746,1701,1674,1630,1593,1557,1522,1486,1457,1414,1378,1342,1314,1278,1234,1197,1168,921,907,864,854,850,857,865,805,805,805,805,805,805,805,805,805,805,805,805,805,805,805,805,805,805,805,805,805,805,805,805,805,805,805,302,434,290,393,343,394,441,453,580,546,558,551,518,511,591,497,489,482,476,547,462,482,506,517,463,500,475,468,351,351,345,473,333,433,347,401,327,329,325,324,323,325,328,331,326,329,328,333,327,325,327,329,328,324,331,329,329,327,327,330,329,329,329,332,329,691,693,695,698,704,834,1032,1145,1298,1340,1336,1328,1296,1276,1256,1236,1215,1195,1174,1156,1142,1115,1108,1074,1056,1034,1014,994,980,959,908,846,827,714,704,702,703,671,647,650,649,656,658,649,652,651,657,654,647,652,650,659,673,665,652,654,651,655,658,656,654,676,651,656,653,451,452,462,464,458,541,673,749,827,900,899,889,871,899,841,832,816,804,786,775,768,778,732,715,702,687,671,657,643,629,566,580,527,483,493,452,454,426,384,384,384,384,384,384,384,384,384,384,384,384,384,384,384,384,384,384,384,384,384,384,384,384,384,384,384,726,723,731,733,735,971,1133,1304,1405,1464,1482,1452,1422,1392,1379,1360,1325,1306,1281,1258,1234,1210,1181,1161,1137,1109,1089,1061,1041,1017,918,896,881,753,740,738,730,745,687,687,687,687,687,687,687,687,687,687,687,687,687,687,687,687,687,687,687,687,687,687,687,687,687,687,687,0,0,0,0,0,0,0,0,0,0,0,0,0,0,0,0,0,0,0,0,0,0,0,0,0,0,0,0,0,0,0,0,0,0,0,0,0,0,0,0,0,0,0,0,0,0,0,0,0,0,0,0,0,0,0,0,0,0,0,0,0,0,0,0,0,792,794,797,800,820,1045,1277,1443,1584,1619,1610,1597,1562,1536,1512,1487,1463,1438,1413,1390,1370,1340,1329,1291,1268,1244,1217,1188,1157,1001,979,886,859,819,809,805,809,811,764,764,764,764,764,764,764,764,764,764,764,764,764,764,764,764,764,764,764,764,764,764,764,764,764,764,764,0,0,0,0,0,0,0,0,0,0,0,0,0,0,0,0,0,0,0,0,0,0,0,0,0,0,0,0,0,0,0,0,0,0,0,0,0,0,0,0,0,0,0,0,0,0,0,0,0,0,0,0,0,0,0,0,0,0,0,0,0,0,0,0,0,1102,1100,1108,1129,1191,1628,1866,2108,2203,2258,2233,2203,2156,2117,2087,2048,2014,1964,1928,1886,1848,1814,1748,1710,1674,1639,1606,1610,1454,1427,1208,1216,1157,1132,1096,1118,1125,1110,1111,1117,1131,1125,1117,1134,1137,1125,1144,1145,1138,1142,1141,1142,1162,1137,1145,1152,1138,1160,1133,1145,1141,1164,1154,1130,1126,1373,1384,1370,1419,1679,2212,2533,2644,2760,2820,2740,2727,2672,2601,2547,2525,2472,2424,2374,2312,2281,2199,2162,2129,2087,2046,1909,1855,1716,1665,1530,1470,1436,1403,1379,1389,1361,1358,1353,1353,1351,1366,1363,1358,1357,1386,1351,1359,1357,1356,1359,1382,1367,1361,1391,1365,1367,1367,1384,1389,1359,1364,1362,1363,1356,1047,1052,1055,1144,1109,1628,1892,2054,2193,2208,2201,2131,2094,2055,2042,2004,2035,2021,1886,1862,1821,1767,1788,1696,1647,1639,1580,1533,1488,1346,1155,1137,1138,1086,1054,1065,1071,1075,1082,1073,1093,1090,1084,1086,1094,1098,1108,1112,1086,1104,1089,1132,1098,1111,1118,1131,1104,1103,1104,1111,1114,1099,1099,1094,1093,210,211,212,213,213,271,308,343,379,415,432,425,419,411,404,398,391,383,377,370,363,356,349,343,335,328,322,314,308,301,294,287,280,273,217,214,215,215,203,202,200,203,208,207,207,207,207,207,207,217,241,216,212,211,216,205,208,241,237,238,214,216,238,240,215,923,929,939,955,1013,1301,1529,1625,1820,1838,1830,1812,1808,1710,1683,1683,1651,1601,1610,1564,1585,1487,1489,1447,1404,1372,1344,1349,1339,1160,1031,1019,983,993,949,949,978,963,938,940,941,952,942,956,940,949,946,940,947,942,948,953,944,949,950,954,950,959,952,954,959,982,980,982,972,225,225,226,233,234,284,322,357,394,430,456,449,443,434,427,421,413,406,399,392,384,377,371,363,356,349,342,335,328,321,312,306,299,292,238,234,234,235,201,198,200,201,199,202,201,205,201,203,202,200,202,204,202,204,203,204,203,203,203,204,204,204,204,204,204,1005,980,982,996,1158,1512,1736,1997,2031,2070,2055,2019,1983,1948,1964,1875,1839,1803,1765,1730,1696,1662,1671,1588,1554,1515,1523,1486,1407,1371,1118,1089,1034,1009,993,993,973,979,967,970,986,984,983,990,980,991,987,999,991,986,990,1005,998,993,1031,1005,1001,1006,1007,1014,999,1004,1002,1003,996,693,695,697,699,726,1007,1170,1332,1449,1500,1485,1469,1443,1390,1379,1362,1336,1388,1282,1233,1229,1203,1175,1149,1123,1096,1070,1042,1016,990,963,910,881,722,706,703,707,711,702,696,699,700,710,703,707,708,710,717,711,725,732,721,718,729,725,719,720,725,740,742,799,810,810,810,810,868,862,886,900,942,1049,1399,1559,1668,1747,1751,1708,1681,1643,1629,1592,1569,1547,1517,1489,1461,1433,1405,1378,1354,1326,1301,1272,1238,1144,1109,1064,953,900,900,889,844,843,829,831,835,826,839,845,834,842,845,861,842,842,834,842,868,853,839,866,849,872,842,838,839,867,864,845,841,0,0,0,0,0,0,0,0,0,0,0,0,0,0,0,0,0,0,0,0,0,0,0,0,0,0,0,0,0,0,0,0,0,0,0,0,0,0,0,0,0,0,0,0,0,0,0,0,0,0,0,0,0,0,0,0,0,0,0,0,0,0,0,0,0 ]);
