n = 10;
D = [252,274,203,114,151,107,148,125,162,64 ];
q = 0;
prec = array2d(1..0,1..2,[]);
steps = 64;
l = 360;
r = 0;
which = [];
interval = array2d(1..0,1..2,[]);
T = array3d(1..11,1..11,0..64,[0,0,0,0,0,0,0,0,0,0,0,0,0,0,0,0,0,0,0,0,0,0,0,0,0,0,0,0,0,0,0,0,0,0,0,0,0,0,0,0,0,0,0,0,0,0,0,0,0,0,0,0,0,0,0,0,0,0,0,0,0,0,0,0,0,467,469,470,496,497,700,883,976,1111,1126,1196,1127,1109,1092,1073,1053,1084,1018,1002,1027,1008,946,930,911,904,884,915,895,830,840,677,670,647,577,532,499,500,501,431,430,429,430,432,432,431,435,432,436,433,430,431,430,431,434,434,432,433,432,431,435,431,436,432,432,432,794,784,795,832,848,1186,1585,1767,1883,1906,1891,1862,1882,1859,1811,1777,1762,1722,1685,1626,1624,1595,1563,1499,1470,1446,1421,1367,1259,1149,1011,903,865,854,835,835,811,792,708,706,706,707,709,709,708,712,709,713,710,707,708,707,708,711,711,709,710,709,708,712,708,713,709,709,709,1050,1059,1063,1085,1214,1994,2271,2534,2670,2705,2672,2634,2586,2539,2490,2441,2393,2354,2310,2260,2212,2152,2114,2067,2009,1976,1832,1472,1349,1312,1227,1168,1134,1118,1110,1106,1105,1108,1030,1041,1041,1044,1046,1048,1045,1051,1050,1047,1058,1052,1050,1048,1051,1051,1052,1048,1049,1050,1051,1047,1047,1050,1053,1053,1053,241,242,242,268,268,379,427,477,526,576,605,596,586,577,567,556,548,536,528,517,509,498,490,479,471,460,452,442,432,422,413,403,394,384,322,269,270,271,221,220,220,220,223,222,222,225,222,227,223,221,222,221,221,224,224,222,223,222,221,225,222,225,223,223,223,820,828,839,833,910,1407,1736,1982,2120,2164,2137,2121,2112,2060,1997,1958,1919,1881,1842,1804,1765,1716,1696,1649,1600,1578,1546,1525,1394,1187,957,934,902,886,876,872,877,878,805,803,807,815,808,817,818,823,820,819,827,813,813,819,823,822,816,820,821,822,823,819,819,822,825,825,825,558,562,563,591,595,763,1068,1193,1309,1378,1394,1372,1349,1323,1305,1280,1259,1236,1215,1192,1149,1147,1126,1103,1082,1058,1037,1014,993,942,846,796,736,638,597,578,580,588,517,516,515,516,518,518,517,521,518,522,519,516,517,516,517,520,520,518,519,518,517,521,517,522,518,518,518,609,610,612,614,616,1041,1187,1310,1437,1503,1498,1481,1454,1432,1390,1379,1360,1336,1312,1288,1263,1239,1216,1191,1166,1143,1119,1095,1071,931,911,861,792,637,626,618,619,621,592,592,594,597,625,609,616,612,603,612,611,605,612,601,601,611,607,600,624,599,597,610,612,622,612,612,606,270,270,271,297,298,387,478,531,586,640,670,661,648,639,628,617,608,596,586,575,566,554,545,533,524,512,503,492,482,470,461,421,410,386,357,299,300,354,245,247,247,250,250,251,250,254,251,256,252,249,252,251,255,270,255,252,256,253,254,254,257,259,254,254,254,459,461,462,488,489,695,857,953,1049,1124,1139,1126,1108,1092,1082,1054,1037,1015,1000,980,962,944,924,919,889,870,853,818,800,782,758,692,628,557,499,494,496,497,421,421,421,425,428,426,427,435,423,432,428,435,423,423,427,432,427,427,429,436,425,428,425,428,426,426,426,0,0,0,0,0,0,0,0,0,0,0,0,0,0,0,0,0,0,0,0,0,0,0,0,0,0,0,0,0,0,0,0,0,0,0,0,0,0,0,0,0,0,0,0,0,0,0,0,0,0,0,0,0,0,0,0,0,0,0,0,0,0,0,0,0,506,508,508,510,512,633,1003,1087,1207,1321,1260,1287,1222,1249,1182,1162,1142,1119,1098,1084,1060,1047,1012,1057,962,808,985,775,758,839,719,580,590,521,544,513,515,518,508,510,513,520,540,524,515,524,510,526,524,550,520,520,535,556,521,519,519,527,522,520,513,552,513,523,514,0,0,0,0,0,0,0,0,0,0,0,0,0,0,0,0,0,0,0,0,0,0,0,0,0,0,0,0,0,0,0,0,0,0,0,0,0,0,0,0,0,0,0,0,0,0,0,0,0,0,0,0,0,0,0,0,0,0,0,0,0,0,0,0,0,441,442,443,444,446,614,802,895,990,1075,1092,1103,1056,1045,1021,1003,986,969,957,939,922,910,885,874,858,835,828,794,777,759,627,617,601,479,452,448,449,451,420,422,421,424,448,436,433,441,434,445,444,449,457,427,431,442,436,427,449,435,427,435,441,443,446,441,436,1180,1181,1186,1217,1317,1874,2474,2738,2813,2866,2852,2798,2753,2731,2688,2621,2570,2534,2473,2411,2366,2334,2288,2249,2162,1992,1699,1637,1343,1386,1307,1259,1206,1201,1188,1198,1193,1160,1143,1137,1142,1146,1143,1149,1145,1152,1150,1154,1151,1161,1160,1161,1151,1146,1149,1148,1152,1149,1143,1144,1148,1149,1149,1146,1145,304,305,306,307,308,381,560,625,691,706,757,745,733,694,709,697,655,673,661,625,637,602,613,601,589,579,565,553,543,529,498,505,393,421,368,309,365,366,307,300,304,303,299,300,301,303,306,303,302,304,302,305,308,308,309,307,308,308,308,313,309,310,308,307,309,949,950,955,960,1005,1541,2019,2315,2372,2416,2446,2328,2287,2227,2226,2161,2120,2115,2100,2055,2013,1960,1915,1882,1838,1771,1748,1637,1324,1084,1177,1025,969,968,954,962,962,966,935,940,938,943,973,964,947,960,950,963,966,964,964,967,970,970,961,970,967,968,964,964,964,994,962,976,955,185,186,187,228,282,294,333,373,411,451,468,459,452,445,438,429,422,415,408,400,392,385,378,370,362,355,348,340,332,325,318,310,303,295,288,283,284,284,184,177,177,178,180,179,179,180,178,184,179,178,180,180,180,179,184,181,182,180,180,182,180,181,182,184,184,503,484,506,507,518,602,930,995,1137,1220,1237,1219,1158,1146,1158,1138,1119,1062,1042,1046,1004,1024,1000,948,928,943,896,902,852,865,846,826,694,524,513,510,512,493,490,489,491,491,491,492,492,492,492,493,493,491,494,494,494,495,495,495,492,495,493,495,488,496,492,495,493,243,244,244,245,246,385,434,487,537,585,598,590,580,571,561,553,543,534,524,516,506,496,487,477,469,459,450,440,432,422,412,403,394,385,375,247,247,248,218,224,218,222,234,227,224,227,220,227,224,242,219,220,224,287,223,223,227,222,222,227,224,239,220,225,222,323,324,329,330,351,413,550,648,735,782,809,795,783,769,751,739,726,712,676,664,651,639,627,615,602,590,590,566,553,514,501,460,449,440,331,354,354,329,309,302,301,301,304,309,307,313,311,306,313,305,307,305,306,310,308,308,306,307,306,305,306,308,307,313,311,506,508,508,510,512,633,1003,1087,1207,1321,1260,1287,1222,1249,1182,1162,1142,1119,1098,1084,1060,1047,1012,1057,962,808,985,775,758,839,719,580,590,521,544,513,515,518,508,510,513,520,540,524,515,524,510,526,524,550,520,520,535,556,521,519,519,527,522,520,513,552,513,523,514,851,838,840,858,870,1348,1655,1882,1992,2056,2031,2005,1996,1948,1926,1866,1849,1816,1794,1749,1700,1676,1689,1534,1582,1475,1445,1342,1209,1141,1024,973,892,896,852,855,857,857,812,802,806,811,808,823,811,821,817,816,821,817,820,819,817,822,812,811,820,824,815,822,819,819,817,824,818,468,469,470,471,475,679,856,955,1055,1134,1139,1130,1111,1093,1083,1048,1039,1020,1002,1001,969,951,939,922,900,874,865,849,819,810,782,691,632,481,473,476,475,476,448,438,447,447,442,458,447,457,453,450,455,456,460,461,466,468,453,449,458,460,453,457,457,457,453,461,455,0,0,0,0,0,0,0,0,0,0,0,0,0,0,0,0,0,0,0,0,0,0,0,0,0,0,0,0,0,0,0,0,0,0,0,0,0,0,0,0,0,0,0,0,0,0,0,0,0,0,0,0,0,0,0,0,0,0,0,0,0,0,0,0,0,822,824,869,836,920,1507,1866,2068,2178,2206,2226,2149,2106,2068,2068,1988,1945,1945,1867,1825,1786,1747,1800,1755,1626,1586,1545,1334,1464,1275,1126,942,868,868,832,835,837,843,845,857,856,863,878,850,865,882,867,859,894,875,888,896,903,903,935,858,882,880,870,858,866,856,866,877,855,614,616,617,619,627,875,1160,1321,1420,1499,1499,1484,1460,1430,1411,1378,1362,1339,1309,1296,1269,1245,1224,1198,1174,1152,1128,1080,1077,982,931,763,734,647,624,623,626,598,555,546,550,552,548,563,551,563,557,556,561,557,560,559,557,567,557,555,560,564,555,562,559,559,557,564,558,973,976,981,999,1034,1545,1969,2166,2330,2380,2352,2313,2277,2239,2202,2164,2127,2118,2052,2014,1977,1940,1902,1866,1827,1790,1753,1685,1424,1240,1068,1044,1020,1001,990,988,987,989,980,978,971,963,994,987,989,991,992,1003,1010,995,1001,1018,1009,1002,999,1007,987,1007,997,995,992,994,995,1000,993,491,492,493,503,504,814,950,1039,1141,1221,1198,1180,1180,1143,1148,1129,1087,1068,1050,1030,1011,993,974,955,952,918,900,921,861,843,824,806,524,512,501,498,554,508,502,504,502,512,511,510,510,502,505,512,507,512,510,511,508,508,518,513,510,505,512,517,511,508,500,510,500,888,904,904,919,932,1588,1870,2042,2143,2198,2170,2130,2119,2069,2082,2007,1988,1952,1904,1849,1836,1808,1744,1736,1702,1658,1556,1494,1392,1220,1042,955,993,923,921,913,878,920,904,893,900,907,917,894,900,902,904,917,921,919,916,925,914,912,933,922,915,919,923,924,919,920,927,926,916,620,622,623,625,630,1002,1165,1301,1431,1500,1499,1484,1459,1435,1419,1380,1366,1342,1318,1308,1274,1251,1233,1211,1182,1152,1136,1116,1076,1033,909,789,656,636,628,632,630,611,583,577,579,587,587,596,592,596,590,590,593,590,594,599,590,604,613,613,596,604,590,592,592,591,612,601,590,466,467,469,471,472,546,858,965,1063,1140,1161,1134,1114,1106,1087,1067,1053,1029,1012,992,973,950,936,913,895,883,858,744,827,722,644,622,569,487,476,477,474,470,429,428,423,427,438,442,436,440,436,445,440,444,447,454,448,451,444,441,445,441,444,450,446,443,444,444,443,851,838,840,858,870,1348,1655,1882,1992,2056,2031,2005,1996,1948,1926,1866,1849,1816,1794,1749,1700,1676,1689,1534,1582,1475,1445,1342,1209,1141,1024,973,892,896,852,855,857,857,812,802,806,811,808,823,811,821,817,816,821,817,820,819,817,822,812,811,820,824,815,822,819,819,817,824,818,1038,1041,1044,1055,1125,1964,2350,2526,2630,2670,2641,2600,2554,2509,2462,2415,2370,2323,2278,2230,2184,2155,2092,2038,1999,1858,1906,1803,1518,1435,1222,1144,1092,1093,1073,1058,1080,1071,1068,1059,1060,1061,1063,1072,1071,1077,1078,1076,1079,1077,1073,1078,1078,1072,1073,1081,1082,1085,1079,1083,1081,1114,1075,1080,1077,1171,1174,1185,1200,1342,2307,2688,2811,2923,2933,2912,2877,2826,2766,2730,2663,2611,2560,2531,2463,2420,2384,2370,2247,2184,2119,1759,1490,1445,1435,1319,1267,1261,1196,1196,1198,1170,1174,1163,1154,1162,1160,1159,1164,1162,1163,1164,1160,1165,1160,1162,1164,1159,1166,1166,1169,1166,1165,1164,1169,1167,1195,1161,1166,1163,905,908,908,949,1002,1720,2026,2230,2359,2404,2384,2341,2298,2254,2215,2173,2130,2082,2038,1999,1956,1953,1866,1828,1815,1742,1693,1650,1532,1369,1160,984,978,932,918,935,924,929,923,917,925,922,933,944,932,938,931,945,945,934,933,956,959,956,961,971,953,967,964,960,949,938,944,946,928,0,0,0,0,0,0,0,0,0,0,0,0,0,0,0,0,0,0,0,0,0,0,0,0,0,0,0,0,0,0,0,0,0,0,0,0,0,0,0,0,0,0,0,0,0,0,0,0,0,0,0,0,0,0,0,0,0,0,0,0,0,0,0,0,0,950,949,955,965,1012,1771,2116,2301,2410,2452,2416,2394,2346,2294,2269,2216,2173,2131,2091,2049,2006,1961,1918,1870,1831,1796,1746,1701,1556,1304,1134,1028,1006,972,963,964,960,964,954,944,953,950,950,954,953,954,954,951,956,951,952,954,949,956,960,959,956,955,955,958,958,985,951,956,953,364,365,366,368,369,592,676,754,836,890,900,897,872,858,843,829,814,801,787,772,758,744,730,716,702,687,673,658,645,631,616,611,588,444,373,370,371,372,365,357,358,360,361,366,364,368,363,362,365,359,361,360,361,366,365,364,364,362,363,365,363,370,362,369,364,1274,1280,1270,1331,1488,2559,2908,3064,3172,3186,3148,3115,3019,2981,2937,2865,2813,2768,2736,2627,2584,2531,2497,2149,2140,2097,1890,1772,1666,1532,1396,1326,1336,1306,1297,1290,1256,1260,1249,1240,1248,1246,1245,1250,1248,1249,1250,1246,1251,1246,1248,1250,1245,1252,1252,1255,1252,1251,1250,1255,1253,1281,1247,1252,1249,1371,1365,1380,1441,1619,2743,3137,3303,3374,3405,3355,3310,3256,3186,3141,3084,3028,2968,2909,2849,2790,2750,2686,2359,2245,1909,1795,1596,1558,1520,1481,1440,1398,1402,1388,1386,1393,1392,1378,1371,1381,1385,1373,1389,1378,1376,1386,1384,1385,1381,1386,1387,1386,1395,1387,1392,1390,1386,1390,1395,1389,1440,1384,1389,1386,982,985,988,993,1044,1829,2204,2385,2492,2535,2499,2470,2424,2370,2337,2292,2250,2205,2162,2121,2074,2048,1994,1935,1898,1860,1810,1712,1490,1185,1094,1059,1035,1010,1043,1001,1004,1012,994,988,990,990,989,996,990,991,992,992,993,987,989,991,990,992,994,995,990,991,990,993,991,1023,988,993,990,930,932,936,960,1081,1753,2018,2162,2255,2262,2250,2238,2178,2142,2106,2070,2054,1998,1962,1943,1916,1885,1843,1803,1770,1731,1695,1620,1352,1268,1032,1007,1000,970,957,944,946,943,938,935,947,952,944,951,943,944,939,949,972,952,951,955,954,989,956,959,948,963,956,971,960,961,953,986,965,1038,1041,1044,1055,1125,1964,2350,2526,2630,2670,2641,2600,2554,2509,2462,2415,2370,2323,2278,2230,2184,2155,2092,2038,1999,1858,1906,1803,1518,1435,1222,1144,1092,1093,1073,1058,1080,1071,1068,1059,1060,1061,1063,1072,1071,1077,1078,1076,1079,1077,1073,1078,1078,1072,1073,1081,1082,1085,1079,1083,1081,1114,1075,1080,1077,318,319,323,321,322,312,504,655,654,780,791,740,766,754,674,729,715,704,691,618,606,654,640,628,615,549,442,578,424,415,504,320,312,305,297,307,326,385,304,304,304,316,314,307,304,309,310,314,318,327,333,326,319,336,312,311,313,315,307,314,310,308,307,316,308,248,248,249,250,251,263,442,492,540,585,600,591,582,573,564,555,546,536,528,518,510,500,492,482,472,512,529,517,506,495,418,410,267,260,255,251,252,252,210,210,209,210,209,210,209,210,210,209,210,209,209,209,210,210,210,210,210,210,210,210,209,211,209,208,208,560,563,563,565,569,717,1043,1158,1297,1365,1336,1336,1269,1316,1284,1273,1237,1222,1192,1159,1115,1122,1105,1079,1030,1010,991,975,938,862,732,663,612,584,585,570,563,560,487,487,486,487,486,487,486,487,487,486,487,486,486,486,487,487,487,487,487,487,487,487,486,488,486,485,485,963,979,981,984,1026,1749,2138,2330,2461,2488,2460,2426,2383,2339,2295,2255,2206,2163,2118,2074,2035,1986,1942,1906,1863,1821,1632,1472,1387,1201,1144,1040,1044,990,980,980,985,976,980,978,980,985,990,995,989,1001,995,999,996,998,989,1005,996,1000,1000,1015,1002,1000,1000,998,988,1014,992,995,983,0,0,0,0,0,0,0,0,0,0,0,0,0,0,0,0,0,0,0,0,0,0,0,0,0,0,0,0,0,0,0,0,0,0,0,0,0,0,0,0,0,0,0,0,0,0,0,0,0,0,0,0,0,0,0,0,0,0,0,0,0,0,0,0,0,732,748,750,752,792,1277,1550,1796,1908,1944,1930,1896,1861,1826,1792,1795,1731,1688,1653,1618,1584,1550,1504,1480,1446,1411,1402,1332,1277,1034,825,851,807,757,746,745,775,759,752,739,746,749,739,760,754,772,755,757,765,750,752,750,749,757,756,757,754,755,751,750,754,772,756,756,756,352,352,354,355,357,421,656,734,811,864,873,874,849,835,822,807,793,778,765,751,767,720,709,705,681,667,652,636,621,608,594,583,425,411,403,357,358,399,296,296,295,296,295,296,295,296,296,295,296,295,295,295,296,296,296,296,296,296,296,296,295,297,295,294,294,543,544,546,568,564,722,1058,1182,1288,1358,1341,1320,1299,1278,1256,1234,1213,1191,1170,1214,1126,1141,1084,1098,1041,1020,998,976,955,819,781,677,697,565,554,551,552,597,544,539,542,543,555,557,545,558,550,546,554,556,549,555,556,564,559,567,558,562,559,564,564,565,556,556,556,198,199,199,200,200,272,350,388,426,471,507,500,492,484,476,469,460,453,445,436,428,421,414,405,398,390,382,374,367,358,337,333,292,283,277,200,201,202,162,159,158,160,168,168,164,167,165,168,166,171,170,164,167,168,168,164,168,167,163,169,171,170,170,169,169,222,222,223,224,224,236,396,439,485,532,553,544,536,529,521,520,504,495,485,478,469,460,451,442,440,424,416,407,398,391,367,359,295,234,228,225,226,226,200,201,201,205,205,204,205,210,201,205,205,213,201,202,206,208,203,205,206,214,204,203,203,203,203,203,203,318,319,323,321,322,312,504,655,654,780,791,740,766,754,674,729,715,704,691,618,606,654,640,628,615,549,442,578,424,415,504,320,312,305,297,307,326,385,304,304,304,316,314,307,304,309,310,314,318,327,333,326,319,336,312,311,313,315,307,314,310,308,307,316,308,827,834,804,836,872,1537,1741,2006,2121,2100,2100,2062,2024,1975,2001,2013,1864,1844,1792,1754,1717,1712,1642,1606,1570,1562,1395,1459,1443,1237,1023,956,849,828,819,842,839,820,839,833,836,836,828,834,843,839,852,847,843,844,845,848,844,844,846,849,848,848,844,848,848,864,866,872,848,935,937,938,952,987,1747,2070,2310,2353,2394,2385,2329,2310,2268,2225,2284,2142,2094,2041,2008,1977,1924,1896,1867,1798,1806,1714,1458,1098,1071,1043,1031,988,982,961,947,933,926,916,923,917,935,925,932,924,943,931,937,937,934,939,938,948,941,953,949,948,951,946,944,947,961,940,939,938,1010,1013,1018,1031,1161,1757,2160,2324,2438,2475,2456,2437,2378,2338,2298,2282,2218,2180,2162,2104,2086,2025,1985,1946,1941,1883,1846,1786,1544,1310,1186,1108,1064,1040,1029,1026,1002,1003,1000,1006,1011,1016,1020,1015,1015,1023,1012,1012,1014,1019,1018,1027,1018,1018,1023,1027,1024,1025,1020,1018,1020,1019,1017,1017,1013,352,354,354,369,380,429,629,704,777,848,873,860,846,831,818,811,798,776,762,748,734,721,706,692,679,664,651,637,622,609,589,455,445,368,360,356,357,358,350,337,339,341,360,356,348,348,348,349,366,368,367,366,368,355,360,357,361,369,361,361,355,360,362,364,360,708,709,711,713,767,1292,1518,1721,1843,1881,1880,1832,1808,1770,1744,1810,1672,1647,1602,1579,1545,1510,1468,1441,1408,1364,1340,1299,1270,1235,1027,860,764,742,723,717,723,716,706,714,707,725,715,723,714,734,722,728,728,725,729,728,738,731,743,743,738,741,737,733,738,751,730,729,728,0,0,0,0,0,0,0,0,0,0,0,0,0,0,0,0,0,0,0,0,0,0,0,0,0,0,0,0,0,0,0,0,0,0,0,0,0,0,0,0,0,0,0,0,0,0,0,0,0,0,0,0,0,0,0,0,0,0,0,0,0,0,0,0,0,1044,1034,1047,1061,1245,1991,2305,2520,2594,2643,2634,2583,2550,2500,2413,2488,2339,2286,2254,2216,2170,2088,2038,2036,1981,1860,1795,1651,1408,1316,1214,1124,1109,1050,1075,1061,1019,1012,1002,1009,1003,1021,1011,1018,1010,1029,1017,1023,1023,1020,1025,1024,1034,1027,1039,1035,1034,1037,1032,1030,1033,1047,1026,1025,1024,1132,1136,1138,1156,1304,2333,2542,2726,2824,2864,2837,2787,2809,2682,2634,2700,2535,2487,2493,2389,2341,2303,2242,2203,2215,2007,1785,1687,1577,1268,1235,1230,1196,1163,1188,1140,1149,1140,1147,1151,1157,1160,1154,1184,1161,1173,1167,1175,1165,1171,1173,1184,1181,1190,1196,1190,1183,1175,1187,1175,1172,1193,1194,1181,1167,744,746,748,755,800,1445,1594,1794,1915,1962,1951,1916,1953,1846,1812,1902,1743,1708,1730,1639,1604,1570,1536,1501,1540,1431,1411,1377,1328,1203,896,871,847,771,804,756,760,760,763,768,766,771,770,788,776,789,773,781,776,777,775,788,785,787,804,795,783,780,787,773,774,775,798,785,771,822,798,845,812,918,1334,1726,2013,2042,2086,2073,2036,2000,1963,1927,1952,1854,1872,1779,1815,1706,1670,1633,1597,1560,1479,1451,1408,1379,1204,943,917,844,823,809,831,812,816,823,826,833,827,840,836,834,835,832,842,837,836,845,834,843,848,855,850,842,840,847,843,843,847,836,850,845,827,834,804,836,872,1537,1741,2006,2121,2100,2100,2062,2024,1975,2001,2013,1864,1844,1792,1754,1717,1712,1642,1606,1570,1562,1395,1459,1443,1237,1023,956,849,828,819,842,839,820,839,833,836,836,828,834,843,839,852,847,843,844,845,848,844,844,846,849,848,848,844,848,848,864,866,872,848,688,688,691,694,730,1195,1394,1544,1702,1687,1693,1670,1640,1663,1587,1606,1530,1509,1524,1450,1429,1383,1426,1361,1163,1334,1115,1092,1084,899,940,834,729,712,700,698,729,701,689,705,699,711,711,711,708,710,713,721,710,708,709,728,728,720,709,707,715,708,712,713,713,703,708,717,701,200,201,201,202,304,318,360,403,445,487,505,496,489,481,472,464,457,448,440,432,424,416,408,399,392,384,375,367,360,351,343,336,327,319,310,306,306,307,198,190,192,192,190,193,192,194,192,194,198,196,193,196,193,196,196,194,196,194,196,197,197,199,196,200,197,499,475,476,478,493,693,899,1006,1165,1159,1182,1165,1204,1185,1165,1089,1125,1077,1031,1065,994,1026,955,938,918,899,881,861,887,825,761,760,601,498,514,492,481,482,479,469,473,490,482,479,482,485,481,480,484,488,517,504,510,512,496,485,481,499,520,522,531,556,529,548,494,1305,1307,1312,1398,1595,2420,3005,3133,3243,3257,3226,3158,3118,3074,3036,2944,2916,2852,2816,2759,2697,2559,2507,2417,2076,2017,1908,1548,1509,1515,1464,1400,1373,1330,1334,1329,1324,1327,1278,1269,1274,1286,1288,1284,1292,1284,1285,1287,1292,1296,1334,1294,1295,1302,1290,1290,1292,1300,1336,1345,1324,1344,1331,1328,1300,485,487,492,492,475,716,877,985,1083,1153,1138,1120,1107,1143,1129,1104,1084,1065,1046,1034,957,939,926,908,889,913,853,835,817,774,759,746,570,571,473,511,514,513,478,476,476,484,480,488,481,484,488,485,484,482,480,484,481,479,484,487,486,484,484,482,488,509,492,507,490,1123,1136,1140,1157,1334,2018,2569,2720,2761,2761,2755,2707,2716,2706,2618,2553,2554,2433,2409,2404,2307,2218,2170,2119,2085,2059,1997,1678,1444,1435,1214,1190,1152,1137,1115,1133,1151,1129,1118,1130,1126,1136,1151,1143,1144,1150,1147,1142,1139,1153,1157,1152,1161,1152,1154,1151,1154,1150,1156,1164,1161,1152,1161,1158,1142,0,0,0,0,0,0,0,0,0,0,0,0,0,0,0,0,0,0,0,0,0,0,0,0,0,0,0,0,0,0,0,0,0,0,0,0,0,0,0,0,0,0,0,0,0,0,0,0,0,0,0,0,0,0,0,0,0,0,0,0,0,0,0,0,0,556,560,565,567,569,910,1089,1209,1324,1376,1382,1358,1336,1328,1292,1270,1260,1226,1214,1182,1172,1148,1116,1093,1072,1058,1028,1005,992,857,900,746,596,581,601,567,568,592,565,554,556,559,557,567,563,563,563,561,566,560,563,560,560,565,570,567,560,565,560,566,563,592,565,584,568,424,425,426,428,432,704,794,889,981,1034,1044,1027,1011,994,978,961,945,928,912,896,879,862,847,830,813,798,781,764,748,732,715,698,628,444,433,430,432,411,403,410,404,415,414,420,411,420,413,421,409,407,409,417,417,414,414,415,410,408,419,424,410,410,410,425,409,481,494,495,496,505,683,920,1029,1158,1225,1215,1165,1185,1164,1138,1094,1100,1062,1043,1048,1022,1003,984,975,945,926,916,897,853,833,540,540,527,502,503,532,501,500,445,433,435,440,448,453,451,450,449,454,460,464,494,454,457,471,459,450,458,464,496,498,493,506,494,494,466,688,688,691,694,730,1195,1394,1544,1702,1687,1693,1670,1640,1663,1587,1606,1530,1509,1524,1450,1429,1383,1426,1361,1163,1334,1115,1092,1084,899,940,834,729,712,700,698,729,701,689,705,699,711,711,711,708,710,713,721,710,708,709,728,728,720,709,707,715,708,712,713,713,703,708,717,701,672,675,651,650,713,938,1280,1499,1534,1647,1630,1618,1591,1564,1500,1512,1449,1460,1434,1407,1327,1355,1276,1251,1226,1200,1176,1152,1110,1083,917,709,797,669,718,647,648,675,675,672,672,674,675,675,675,675,675,675,675,675,675,675,675,675,675,675,675,675,675,675,675,675,675,675,675,416,417,419,420,425,696,818,880,973,1029,1036,1022,991,975,970,954,939,922,903,886,871,854,837,823,804,814,771,745,729,721,659,614,599,436,426,423,424,425,419,419,420,425,425,425,421,425,425,425,425,425,425,425,425,425,425,425,425,425,425,425,425,425,425,425,425,718,742,788,729,766,1287,1547,1627,1768,1822,1758,1730,1774,1674,1719,1617,1588,1557,1524,1510,1533,1448,1420,1423,1427,1394,1380,1300,1256,1224,987,806,800,745,776,741,767,733,753,750,756,756,756,756,756,756,756,756,756,756,756,756,756,756,756,756,756,756,756,756,756,756,756,756,756,1309,1312,1355,1493,2221,2677,3282,3434,3484,3491,3460,3395,3338,3272,3208,3146,3085,3035,2989,2935,2868,2559,2328,2231,2144,1875,1807,1612,1600,1527,1472,1399,1400,1374,1323,1375,1343,1357,1409,1409,1409,1409,1409,1409,1409,1409,1409,1409,1409,1409,1409,1409,1409,1409,1409,1409,1409,1409,1409,1409,1409,1409,1409,1409,1409,534,536,537,605,553,740,1035,1156,1362,1309,1394,1296,1340,1254,1233,1212,1191,1170,1149,1128,1107,1086,1065,1106,1023,1119,981,960,939,918,717,684,570,556,543,542,544,545,546,542,546,546,546,546,546,546,546,546,541,546,546,546,546,546,546,546,546,546,546,546,546,546,546,546,546,1179,1184,1190,1246,1738,2118,2735,2903,2953,2969,2944,2892,2843,2788,2734,2682,2653,2578,2544,2498,2442,2399,2346,2294,2243,2019,1800,1735,1467,1340,1296,1257,1244,1212,1196,1194,1205,1178,1169,1169,1169,1169,1169,1169,1169,1169,1169,1169,1169,1169,1169,1169,1169,1169,1169,1169,1169,1169,1169,1169,1169,1169,1169,1169,1169,397,398,400,401,441,430,747,817,916,960,968,952,937,921,929,891,897,882,844,829,813,798,801,786,769,751,737,705,706,690,448,658,427,542,445,442,396,444,379,380,383,384,382,384,383,383,384,384,385,385,386,392,421,421,391,388,385,388,385,387,385,386,386,386,386,0,0,0,0,0,0,0,0,0,0,0,0,0,0,0,0,0,0,0,0,0,0,0,0,0,0,0,0,0,0,0,0,0,0,0,0,0,0,0,0,0,0,0,0,0,0,0,0,0,0,0,0,0,0,0,0,0,0,0,0,0,0,0,0,0,472,474,476,476,484,554,898,1002,1101,1152,1161,1143,1125,1107,1088,1070,1052,1034,1015,997,979,961,942,924,906,886,868,850,832,813,788,544,532,493,481,480,480,461,453,453,453,453,453,453,453,453,453,453,453,453,453,453,453,453,453,453,453,453,453,453,453,453,453,453,453,705,697,709,708,772,1110,1431,1602,1677,1719,1728,1708,1648,1609,1623,1586,1558,1550,1508,1476,1453,1425,1403,1351,1343,1329,1287,1236,1093,1033,782,783,782,732,718,716,719,702,698,699,699,699,702,700,703,702,701,701,701,701,701,701,701,701,701,701,701,701,701,701,701,701,701,701,701,672,675,651,650,713,938,1280,1499,1534,1647,1630,1618,1591,1564,1500,1512,1449,1460,1434,1407,1327,1355,1276,1251,1226,1200,1176,1152,1110,1083,917,709,797,669,718,647,648,675,675,672,672,674,675,675,675,675,675,675,675,675,675,675,675,675,675,675,675,675,675,675,675,675,675,675,675,368,369,371,372,374,497,685,765,846,904,915,901,886,871,856,842,828,813,799,784,770,756,740,726,711,670,647,658,619,606,624,574,490,505,468,374,432,462,422,369,368,372,368,373,371,373,371,369,372,366,369,368,369,370,371,372,370,372,372,371,369,461,369,374,371,363,364,365,366,368,499,678,758,854,896,907,892,877,862,848,834,819,805,790,776,762,747,732,717,703,688,674,660,645,631,616,574,508,367,372,368,369,371,356,356,363,368,360,369,364,372,361,365,364,364,367,368,366,372,365,365,368,368,366,365,367,369,367,373,367,669,684,708,711,712,1024,1345,1559,1600,1638,1641,1617,1591,1642,1538,1544,1491,1465,1486,1407,1431,1354,1351,1302,1275,1249,1224,1218,1196,1016,985,727,710,696,683,680,708,684,644,629,636,653,662,683,647,676,667,668,683,656,666,653,654,671,658,655,670,654,652,669,670,673,669,678,664,1098,1100,1103,1134,1216,2046,2386,2602,2760,2798,2777,2728,2681,2628,2579,2529,2479,2429,2379,2340,2289,2230,2192,2144,2076,1992,1832,1646,1502,1275,1292,1211,1161,1143,1119,1115,1110,1115,1088,1090,1096,1111,1101,1096,1114,1129,1105,1114,1114,1105,1166,1120,1182,1146,1125,1175,1120,1124,1147,1134,1168,1138,1111,1115,1112,222,223,224,224,225,236,400,446,493,538,555,546,537,529,519,511,502,493,484,476,466,458,450,441,432,423,415,405,397,388,379,370,241,235,229,225,226,227,239,207,204,204,224,224,220,212,214,222,244,227,235,247,250,235,218,224,234,252,252,249,221,222,251,222,212,867,869,872,877,922,1456,1845,2039,2211,2274,2246,2206,2166,2125,2085,2045,2005,1965,1933,1884,1844,1793,1764,1725,1692,1659,1630,1593,1297,1213,985,976,929,949,885,879,879,896,849,850,856,860,868,874,861,874,864,888,877,865,884,885,901,902,877,885,878,882,881,874,879,904,880,889,869,340,341,343,344,345,518,632,706,781,838,850,837,823,810,796,782,769,756,741,728,715,700,687,674,660,646,633,619,606,589,578,527,527,358,349,346,347,348,343,347,346,344,340,352,352,358,344,346,363,347,364,351,356,359,363,367,358,352,361,358,348,344,340,363,336,387,388,389,390,393,640,726,811,897,1096,964,949,933,918,902,886,871,856,841,825,810,794,778,763,747,733,717,702,686,670,655,639,573,625,396,392,393,395,389,380,384,383,390,394,384,396,388,388,394,394,392,396,396,398,396,403,393,397,400,396,400,402,398,490,396,0,0,0,0,0,0,0,0,0,0,0,0,0,0,0,0,0,0,0,0,0,0,0,0,0,0,0,0,0,0,0,0,0,0,0,0,0,0,0,0,0,0,0,0,0,0,0,0,0,0,0,0,0,0,0,0,0,0,0,0,0,0,0,0,0,415,417,418,419,421,472,794,878,965,1034,1033,1017,1000,984,966,951,944,917,900,885,868,861,835,827,801,787,767,753,735,721,712,575,507,436,439,422,436,437,400,386,391,394,389,413,393,416,405,398,416,397,399,403,397,404,397,399,401,401,396,398,398,402,397,408,399,368,369,371,372,374,497,685,765,846,904,915,901,886,871,856,842,828,813,799,784,770,756,740,726,711,670,647,658,619,606,624,574,490,505,468,374,432,462,422,369,368,372,368,373,371,373,371,369,372,366,369,368,369,370,371,372,370,372,372,371,369,461,369,374,371,532,537,536,559,552,697,1058,1137,1274,1379,1312,1292,1288,1302,1296,1214,1192,1231,1146,1187,1158,1126,1116,1113,1030,985,985,945,871,833,686,707,700,552,536,539,540,536,536,541,540,557,536,554,543,555,549,550,552,542,556,548,558,556,546,549,553,554,609,553,553,597,558,565,564,390,391,392,393,394,458,701,782,882,956,967,951,940,924,907,894,877,860,846,829,817,798,782,768,752,736,723,706,605,592,483,552,502,452,400,396,400,398,348,342,346,349,347,348,346,351,346,353,349,349,352,356,355,352,353,354,352,353,353,353,350,352,352,352,352,420,430,432,433,434,512,713,866,957,1046,1066,1055,1041,1014,1002,985,968,954,937,921,904,851,869,841,835,768,753,745,732,684,665,534,507,466,441,436,437,427,343,343,352,373,347,350,347,353,345,348,347,345,346,350,351,353,352,350,348,348,354,353,348,349,344,348,346,885,894,890,900,977,1353,1799,1990,2108,2136,2125,2129,2060,2027,1998,1965,1951,1904,1867,1835,1801,1771,1739,1729,1678,1641,1606,1373,1271,1118,1077,970,936,927,911,898,911,882,848,847,851,855,863,857,856,859,854,862,859,862,856,856,856,858,857,856,861,858,856,859,859,863,858,858,858,330,320,325,313,334,415,610,655,753,810,819,807,794,781,772,778,699,729,716,663,664,676,634,650,591,603,597,598,568,572,448,446,434,340,413,327,316,394,324,325,326,332,333,334,335,356,334,334,352,349,333,334,336,354,332,331,337,340,337,331,333,335,328,335,332,713,715,716,718,771,1305,1555,1722,1848,1903,1891,1857,1872,1789,1764,1720,1687,1652,1626,1573,1550,1522,1487,1451,1402,1383,1345,1311,1216,1093,964,919,760,785,780,724,753,726,728,706,715,741,711,727,722,736,727,723,742,719,721,718,720,761,721,723,722,724,720,716,722,750,720,746,724,517,496,509,521,522,727,919,1068,1199,1272,1281,1206,1240,1166,1153,1137,1107,1087,1067,1096,1077,1010,1034,1015,950,928,952,890,911,849,793,542,600,541,531,525,528,522,462,460,460,464,471,468,472,487,466,472,471,470,471,468,473,475,475,470,472,466,467,469,466,471,471,471,471,779,798,792,804,857,1253,1648,1795,1893,1930,1922,1884,1861,1846,1800,1786,1759,1720,1694,1662,1633,1584,1616,1536,1480,1474,1450,1416,1212,1024,978,840,830,820,816,800,798,805,795,801,801,802,801,807,802,811,808,816,806,803,812,809,817,813,814,812,815,814,818,809,815,813,813,813,813,442,444,444,446,452,617,836,932,1027,1081,1087,1070,1053,1035,1018,1003,985,966,950,933,916,898,957,865,847,830,813,796,778,710,671,645,604,519,452,448,450,430,418,430,421,435,419,437,423,448,430,438,432,424,436,429,439,437,434,434,439,434,447,433,433,440,434,433,433,0,0,0,0,0,0,0,0,0,0,0,0,0,0,0,0,0,0,0,0,0,0,0,0,0,0,0,0,0,0,0,0,0,0,0,0,0,0,0,0,0,0,0,0,0,0,0,0,0,0,0,0,0,0,0,0,0,0,0,0,0,0,0,0,0,532,537,536,559,552,697,1058,1137,1274,1379,1312,1292,1288,1302,1296,1214,1192,1231,1146,1187,1158,1126,1116,1113,1030,985,985,945,871,833,686,707,700,552,536,539,540,536,536,541,540,557,536,554,543,555,549,550,552,542,556,548,558,556,546,549,553,554,609,553,553,597,558,565,564,0,0,0,0,0,0,0,0,0,0,0,0,0,0,0,0,0,0,0,0,0,0,0,0,0,0,0,0,0,0,0,0,0,0,0,0,0,0,0,0,0,0,0,0,0,0,0,0,0,0,0,0,0,0,0,0,0,0,0,0,0,0,0,0,0,467,469,470,496,497,700,883,976,1111,1126,1196,1127,1109,1092,1073,1053,1084,1018,1002,1027,1008,946,930,911,904,884,915,895,830,840,677,670,647,577,532,499,500,501,431,430,429,430,432,432,431,435,432,436,433,430,431,430,431,434,434,432,433,432,431,435,431,436,432,432,432,794,784,795,832,848,1186,1585,1767,1883,1906,1891,1862,1882,1859,1811,1777,1762,1722,1685,1626,1624,1595,1563,1499,1470,1446,1421,1367,1259,1149,1011,903,865,854,835,835,811,792,708,706,706,707,709,709,708,712,709,713,710,707,708,707,708,711,711,709,710,709,708,712,708,713,709,709,709,1050,1059,1063,1085,1214,1994,2271,2534,2670,2705,2672,2634,2586,2539,2490,2441,2393,2354,2310,2260,2212,2152,2114,2067,2009,1976,1832,1472,1349,1312,1227,1168,1134,1118,1110,1106,1105,1108,1030,1041,1041,1044,1046,1048,1045,1051,1050,1047,1058,1052,1050,1048,1051,1051,1052,1048,1049,1050,1051,1047,1047,1050,1053,1053,1053,241,242,242,268,268,379,427,477,526,576,605,596,586,577,567,556,548,536,528,517,509,498,490,479,471,460,452,442,432,422,413,403,394,384,322,269,270,271,221,220,220,220,223,222,222,225,222,227,223,221,222,221,221,224,224,222,223,222,221,225,222,225,223,223,223,820,828,839,833,910,1407,1736,1982,2120,2164,2137,2121,2112,2060,1997,1958,1919,1881,1842,1804,1765,1716,1696,1649,1600,1578,1546,1525,1394,1187,957,934,902,886,876,872,877,878,805,803,807,815,808,817,818,823,820,819,827,813,813,819,823,822,816,820,821,822,823,819,819,822,825,825,825,558,562,563,591,595,763,1068,1193,1309,1378,1394,1372,1349,1323,1305,1280,1259,1236,1215,1192,1149,1147,1126,1103,1082,1058,1037,1014,993,942,846,796,736,638,597,578,580,588,517,516,515,516,518,518,517,521,518,522,519,516,517,516,517,520,520,518,519,518,517,521,517,522,518,518,518,609,610,612,614,616,1041,1187,1310,1437,1503,1498,1481,1454,1432,1390,1379,1360,1336,1312,1288,1263,1239,1216,1191,1166,1143,1119,1095,1071,931,911,861,792,637,626,618,619,621,592,592,594,597,625,609,616,612,603,612,611,605,612,601,601,611,607,600,624,599,597,610,612,622,612,612,606,270,270,271,297,298,387,478,531,586,640,670,661,648,639,628,617,608,596,586,575,566,554,545,533,524,512,503,492,482,470,461,421,410,386,357,299,300,354,245,247,247,250,250,251,250,254,251,256,252,249,252,251,255,270,255,252,256,253,254,254,257,259,254,254,254,459,461,462,488,489,695,857,953,1049,1124,1139,1126,1108,1092,1082,1054,1037,1015,1000,980,962,944,924,919,889,870,853,818,800,782,758,692,628,557,499,494,496,497,421,421,421,425,428,426,427,435,423,432,428,435,423,423,427,432,427,427,429,436,425,428,425,428,426,426,426,0,0,0,0,0,0,0,0,0,0,0,0,0,0,0,0,0,0,0,0,0,0,0,0,0,0,0,0,0,0,0,0,0,0,0,0,0,0,0,0,0,0,0,0,0,0,0,0,0,0,0,0,0,0,0,0,0,0,0,0,0,0,0,0,0 ]);
