n = 10;
D = [267,121,80,89,99,185,280,228,294,100 ];
q = 0;
prec = array2d(1..0,1..2,[]);
steps = 64;
l = 360;
r = 0;
which = [];
interval = array2d(1..0,1..2,[]);
T = array3d(1..11,1..11,0..64,[0,0,0,0,0,0,0,0,0,0,0,0,0,0,0,0,0,0,0,0,0,0,0,0,0,0,0,0,0,0,0,0,0,0,0,0,0,0,0,0,0,0,0,0,0,0,0,0,0,0,0,0,0,0,0,0,0,0,0,0,0,0,0,0,0,1040,1045,1037,1023,1089,1215,1380,1511,1627,1625,1630,1596,1637,1552,1518,1549,1483,1437,1419,1385,1360,1337,1312,1280,1263,1231,1204,1183,1170,1141,1113,1083,1055,1028,1046,1013,1012,1016,1038,1043,1037,1050,1055,1050,1043,1062,1036,1049,1044,1046,1043,1062,1057,1055,1055,1053,1053,1052,1062,1073,1044,1058,1049,1057,1047,1147,1132,1123,1120,1201,1361,1521,1645,1730,1764,1763,1800,1754,1674,1643,1665,1605,1557,1537,1501,1497,1445,1433,1410,1395,1378,1312,1297,1267,1234,1257,1195,1143,1110,1140,1099,1141,1130,1158,1152,1176,1175,1175,1211,1164,1181,1176,1198,1223,1195,1197,1210,1200,1193,1179,1188,1168,1198,1173,1184,1183,1193,1172,1188,1215,880,854,862,864,927,976,1112,1295,1316,1372,1390,1373,1346,1324,1296,1281,1292,1217,1204,1168,1169,1147,1120,1079,1058,1029,1033,993,984,950,933,938,904,858,870,888,861,863,873,853,859,856,863,879,864,869,869,884,898,892,888,894,892,902,889,892,891,896,900,913,900,897,900,914,913,255,256,257,257,258,312,352,393,375,473,423,416,410,403,396,390,383,376,370,363,356,350,343,336,330,323,316,310,303,296,290,283,276,270,263,259,259,260,248,254,250,254,256,253,254,254,250,250,251,253,248,253,253,255,250,251,255,253,255,253,253,255,248,253,251,1715,1761,1874,1964,2192,2546,2745,3007,2848,2896,2813,2764,2779,2632,2676,2639,2540,2509,2469,2416,2336,2226,2225,2175,2105,2102,2030,1997,1967,1901,1874,1919,1778,1785,1768,1757,1716,1767,1996,2037,2040,2070,2064,2096,2034,2060,2062,2065,2090,2087,2107,2145,2104,2129,2103,2131,2147,2163,2183,2144,2168,2206,2199,2190,2184,450,452,453,455,457,540,612,684,693,823,749,737,725,713,767,689,724,665,653,658,645,633,690,650,653,584,571,559,547,535,522,510,485,473,462,457,459,460,455,462,461,493,472,478,480,456,468,472,483,465,493,460,458,461,469,467,469,454,461,465,465,456,453,477,452,821,823,826,797,871,995,1140,1270,1286,1392,1390,1382,1345,1275,1293,1249,1211,1234,1212,1146,1160,1141,1116,1100,1078,1053,1030,1011,987,964,910,920,892,876,833,833,858,838,861,864,850,860,861,875,866,891,888,882,875,913,892,897,882,944,893,869,888,864,884,923,890,915,897,908,882,706,685,675,645,661,727,824,921,1040,1052,1056,1039,1076,1058,988,1030,954,937,920,903,887,870,853,836,819,802,785,768,850,747,730,739,684,667,683,649,651,653,675,667,675,677,680,677,684,678,680,683,685,682,691,703,712,705,714,702,676,689,687,679,676,690,686,692,676,774,783,775,789,810,944,1002,1090,1234,1233,1234,1224,1198,1187,1240,1190,1115,1105,1078,1086,990,973,969,970,945,904,897,892,872,853,833,801,794,775,747,793,784,797,764,756,778,791,772,785,768,770,768,770,785,775,778,777,779,793,784,781,771,779,775,787,783,781,774,792,794,0,0,0,0,0,0,0,0,0,0,0,0,0,0,0,0,0,0,0,0,0,0,0,0,0,0,0,0,0,0,0,0,0,0,0,0,0,0,0,0,0,0,0,0,0,0,0,0,0,0,0,0,0,0,0,0,0,0,0,0,0,0,0,0,0,1001,1054,991,1007,1079,1240,1352,1562,1639,1654,1689,1696,1594,1558,1500,1530,1539,1538,1398,1393,1367,1402,1336,1300,1239,1224,1200,1173,1163,1165,1096,1126,1082,1058,1050,1100,1003,994,1036,1040,1049,1054,1051,1058,1042,1058,1042,1073,1055,1053,1060,1063,1077,1096,1077,1072,1072,1065,1073,1076,1074,1084,1059,1069,1065,0,0,0,0,0,0,0,0,0,0,0,0,0,0,0,0,0,0,0,0,0,0,0,0,0,0,0,0,0,0,0,0,0,0,0,0,0,0,0,0,0,0,0,0,0,0,0,0,0,0,0,0,0,0,0,0,0,0,0,0,0,0,0,0,0,232,233,234,234,235,245,278,310,343,375,388,382,376,370,364,357,351,345,339,333,327,320,314,308,302,296,289,283,277,271,265,258,252,246,240,236,236,237,224,225,225,227,230,230,228,230,227,231,231,234,232,245,235,241,231,240,235,230,225,243,230,230,227,234,228,274,275,276,276,277,290,328,365,403,440,452,445,438,431,424,417,410,403,396,389,382,375,367,360,353,346,339,332,325,318,311,304,297,289,282,278,279,279,291,258,259,259,297,280,272,262,263,269,312,286,297,296,309,285,299,278,282,315,328,295,271,276,316,292,266,1176,1196,1168,1207,1306,1500,1703,1805,1960,1924,1955,1843,1909,1812,1805,1775,1735,1671,1666,1653,1592,1590,1582,1513,1494,1429,1400,1537,1355,1311,1280,1290,1261,1198,1213,1200,1220,1259,1258,1250,1265,1274,1262,1259,1268,1267,1267,1275,1282,1266,1273,1306,1329,1304,1299,1281,1265,1280,1269,1264,1261,1281,1272,1288,1268,1122,1169,1152,1177,1248,1366,1565,1691,1760,1753,1948,1718,1678,1654,1659,1607,1770,1579,1536,1500,1601,1451,1539,1403,1410,1464,1330,1321,1297,1272,1232,1209,1281,1263,1182,1153,1261,1145,1228,1245,1198,1208,1243,1227,1226,1236,1226,1229,1265,1233,1253,1252,1259,1257,1244,1258,1265,1271,1312,1237,1244,1260,1313,1258,1230,1373,1394,1379,1449,1649,1862,1969,2127,2236,2233,2275,2159,2176,2083,2084,2054,2009,1940,1946,1862,1847,1839,1840,1752,1683,1686,1611,1670,1568,1533,1497,1451,1481,1397,1458,1400,1381,1477,1481,1472,1479,1499,1473,1488,1487,1494,1507,1571,1498,1506,1526,1534,1535,1543,1549,1514,1495,1520,1518,1520,1504,1533,1525,1544,1516,493,495,496,493,503,547,620,694,766,813,819,805,785,754,766,753,709,727,707,678,688,674,640,648,635,622,597,596,583,551,551,543,530,525,505,484,497,503,493,501,496,500,504,502,504,514,495,506,498,498,502,511,510,506,510,504,502,502,517,515,500,503,501,506,502,355,377,359,358,383,384,435,487,541,617,593,620,574,564,556,545,538,526,517,507,498,488,479,469,460,450,469,433,422,412,403,393,386,374,365,361,362,362,354,364,358,362,365,365,365,374,357,366,360,358,361,369,370,366,370,366,360,362,373,364,357,357,360,369,361,751,641,643,657,661,728,824,921,1008,1051,1053,1036,1037,1002,985,969,999,935,934,901,885,919,851,834,853,939,784,767,750,775,777,700,683,743,652,649,662,652,677,666,689,671,693,715,675,663,669,710,710,707,712,717,713,699,692,692,675,697,678,701,693,690,682,685,729,1001,1054,991,1007,1079,1240,1352,1562,1639,1654,1689,1696,1594,1558,1500,1530,1539,1538,1398,1393,1367,1402,1336,1300,1239,1224,1200,1173,1163,1165,1096,1126,1082,1058,1050,1100,1003,994,1036,1040,1049,1054,1051,1058,1042,1058,1042,1073,1055,1053,1060,1063,1077,1096,1077,1072,1072,1065,1073,1076,1074,1084,1059,1069,1065,1155,1077,1099,1159,1219,1413,1509,1691,1722,1757,1759,1872,1778,1687,1626,1636,1630,1642,1547,1569,1583,1433,1405,1403,1432,1321,1321,1284,1273,1291,1209,1172,1157,1200,1133,1135,1128,1139,1146,1141,1151,1170,1198,1167,1149,1180,1153,1216,1192,1199,1183,1303,1199,1205,1315,1189,1197,1191,1197,1204,1197,1204,1197,1202,1200,160,161,161,162,162,167,189,211,232,254,268,263,259,255,251,246,242,238,234,229,225,221,217,213,208,204,200,196,191,187,183,179,174,170,166,163,163,163,151,151,150,152,152,154,151,152,151,151,151,152,151,155,154,154,154,155,156,155,157,164,156,161,154,155,157,0,0,0,0,0,0,0,0,0,0,0,0,0,0,0,0,0,0,0,0,0,0,0,0,0,0,0,0,0,0,0,0,0,0,0,0,0,0,0,0,0,0,0,0,0,0,0,0,0,0,0,0,0,0,0,0,0,0,0,0,0,0,0,0,0,329,331,331,332,388,362,398,444,502,544,555,537,539,530,521,501,505,485,489,490,481,464,464,447,424,425,407,398,390,381,374,364,356,355,346,335,336,336,331,328,330,338,338,332,346,335,330,337,337,332,339,342,332,334,369,353,333,335,332,330,331,338,346,339,332,1288,1253,1277,1358,1455,1668,1796,1971,1997,2027,2024,2017,1945,1939,1929,1878,1868,1825,1817,1749,1742,1651,1621,1614,1567,1525,1520,1479,1441,1412,1391,1438,1352,1300,1310,1298,1306,1307,1366,1381,1350,1369,1369,1358,1420,1380,1359,1401,1412,1374,1402,1392,1379,1381,1412,1395,1388,1403,1442,1389,1382,1371,1363,1397,1356,921,923,926,935,960,1061,1224,1335,1420,1614,1480,1478,1424,1410,1378,1492,1467,1335,1311,1261,1372,1239,1191,1191,1151,1144,1120,1096,1164,1131,1003,980,977,935,940,915,917,925,937,955,960,945,945,957,973,967,959,951,1007,952,971,957,970,985,994,1003,985,965,976,974,961,957,955,1009,940,1461,1463,1497,1612,1745,1986,2123,2309,2343,2334,2326,2314,2235,2316,2176,2192,2088,2092,2028,2007,2008,1913,1912,1863,1800,1766,1729,1720,1654,1620,1594,1585,1527,1552,1503,1498,1507,1508,1627,1623,1594,1616,1624,1666,1626,1641,1660,1727,1643,1682,1677,1682,1654,1704,1679,1642,1642,1642,1650,1685,1678,1701,1679,1686,1642,627,590,577,578,614,646,728,818,901,945,948,933,918,903,924,872,857,842,827,811,796,791,797,785,736,720,734,690,675,660,671,629,639,615,610,606,583,610,593,598,599,619,609,600,603,617,602,610,616,626,656,659,667,655,607,602,614,614,611,607,611,615,608,613,609,442,441,442,444,446,484,579,613,716,725,732,754,708,699,685,676,661,652,640,626,648,602,591,579,568,556,576,533,523,509,497,487,474,464,451,447,448,451,440,440,445,448,454,453,458,446,448,455,450,447,455,450,447,447,462,455,452,453,452,450,458,454,453,457,452,762,763,740,742,790,909,962,1109,1169,1208,1207,1188,1168,1188,1130,1111,1126,1072,1096,1091,1014,1016,997,991,972,950,934,898,884,841,850,802,817,781,776,764,749,751,763,770,766,783,784,783,808,807,792,787,806,810,873,836,840,840,787,790,799,792,795,794,789,795,789,836,795,1155,1077,1099,1159,1219,1413,1509,1691,1722,1757,1759,1872,1778,1687,1626,1636,1630,1642,1547,1569,1583,1433,1405,1403,1432,1321,1321,1284,1273,1291,1209,1172,1157,1200,1133,1135,1128,1139,1146,1141,1151,1170,1198,1167,1149,1180,1153,1216,1192,1199,1183,1303,1199,1205,1315,1189,1197,1191,1197,1204,1197,1204,1197,1202,1200,891,892,849,861,953,1019,1143,1311,1481,1513,1452,1369,1344,1416,1299,1327,1382,1275,1279,1218,1168,1145,1160,1141,1079,1133,1081,1074,1034,991,966,928,975,922,886,985,903,868,924,916,928,957,958,932,932,940,935,963,981,943,960,948,937,951,947,954,932,944,927,943,936,930,939,945,952,289,291,292,293,281,308,389,389,430,451,482,483,467,459,451,452,436,428,421,413,405,423,390,389,375,407,359,338,345,342,329,308,314,306,317,293,283,295,291,282,282,282,285,286,284,286,284,296,286,282,287,287,285,285,291,288,287,286,286,291,287,294,294,296,294,301,302,304,305,305,321,364,407,450,491,503,495,487,479,471,463,455,446,438,432,422,414,406,398,390,382,374,366,358,350,342,334,326,318,310,306,306,307,285,286,286,287,287,288,289,289,291,291,292,293,293,294,296,296,296,296,297,297,299,300,300,301,301,302,302,0,0,0,0,0,0,0,0,0,0,0,0,0,0,0,0,0,0,0,0,0,0,0,0,0,0,0,0,0,0,0,0,0,0,0,0,0,0,0,0,0,0,0,0,0,0,0,0,0,0,0,0,0,0,0,0,0,0,0,0,0,0,0,0,0,1044,1067,1025,1051,1238,1340,1451,1595,1759,1775,1663,1692,1605,1672,1631,1556,1596,1517,1566,1450,1396,1369,1459,1356,1290,1339,1283,1252,1221,1180,1152,1216,1167,1142,1063,1078,1080,1046,1084,1101,1111,1119,1108,1111,1105,1123,1101,1121,1103,1098,1108,1113,1126,1127,1126,1124,1113,1104,1123,1122,1113,1121,1098,1113,1101,1186,1209,1216,1254,1339,1479,1694,1797,1921,1982,1944,1949,1917,1962,1792,1789,1759,1761,1798,1666,1616,1603,1667,1639,1487,1457,1518,1402,1372,1356,1304,1291,1288,1241,1226,1209,1264,1272,1268,1281,1305,1328,1342,1345,1344,1311,1307,1337,1295,1282,1298,1305,1302,1300,1327,1315,1291,1289,1303,1300,1295,1311,1315,1338,1300,1253,1276,1226,1281,1439,1568,1763,1939,2092,2086,1970,1993,1902,1979,1917,1838,1855,1819,1780,1781,1653,1647,1675,1597,1527,1570,1542,1473,1424,1392,1358,1311,1374,1353,1262,1278,1281,1247,1338,1326,1352,1336,1353,1396,1342,1342,1357,1380,1379,1376,1376,1389,1380,1367,1357,1368,1345,1375,1343,1359,1367,1365,1360,1363,1402,572,569,583,578,553,645,712,843,899,921,939,932,929,906,899,855,856,833,818,811,795,781,765,743,735,728,704,689,674,623,632,628,613,598,553,581,583,552,568,569,565,571,583,580,577,598,584,603,584,593,591,587,577,598,587,594,591,579,582,601,586,599,584,585,579,310,311,312,296,297,313,377,397,465,507,524,483,514,506,497,451,444,460,428,420,436,427,419,411,402,373,365,377,369,361,353,344,318,310,302,315,316,316,304,302,302,302,304,301,303,302,303,303,303,302,307,304,305,310,308,307,304,304,305,307,310,309,305,305,308,544,543,545,547,554,594,687,767,903,891,881,881,879,868,837,824,796,796,784,768,753,739,712,710,683,681,667,693,639,624,610,596,581,567,554,550,542,555,548,544,539,545,547,563,546,548,563,554,544,550,545,549,548,542,552,554,550,549,546,548,555,563,563,563,557,891,892,849,861,953,1019,1143,1311,1481,1513,1452,1369,1344,1416,1299,1327,1382,1275,1279,1218,1168,1145,1160,1141,1079,1133,1081,1074,1034,991,966,928,975,922,886,985,903,868,924,916,928,957,958,932,932,940,935,963,981,943,960,948,937,951,947,954,932,944,927,943,936,930,939,945,952,330,331,332,333,334,339,384,429,497,541,551,543,534,525,516,507,498,490,481,472,463,435,426,418,409,401,392,384,376,367,359,350,342,333,339,335,336,337,320,320,323,338,331,322,325,334,326,324,342,349,454,439,456,363,319,323,334,334,331,323,328,330,328,327,331,1232,1273,1323,1334,1423,1690,1838,1924,2032,2063,2004,1996,1974,1975,1905,1889,1841,1811,1766,1755,1729,1682,1677,1605,1576,1561,1548,1463,1528,1442,1394,1353,1309,1289,1266,1271,1269,1322,1315,1323,1335,1360,1344,1344,1340,1364,1335,1369,1357,1367,1403,1399,1421,1424,1366,1361,1379,1378,1376,1373,1386,1401,1371,1375,1369,1312,1349,1391,1421,1544,1792,1971,2066,2240,2170,2172,2129,2104,2122,1999,1993,1996,1992,1882,1864,1831,1798,1722,1708,1677,1678,1659,1552,1606,1532,1521,1411,1391,1378,1371,1359,1358,1367,1466,1472,1447,1455,1449,1472,1459,1472,1476,1548,1470,1516,1507,1512,1484,1562,1511,1466,1468,1463,1496,1522,1509,1542,1527,1522,1502,1087,1082,1102,1107,1228,1364,1565,1651,1714,1749,1767,1739,1698,1665,1639,1607,1593,1595,1542,1507,1481,1459,1419,1414,1394,1334,1321,1292,1282,1221,1200,1164,1124,1130,1119,1097,1123,1112,1136,1123,1120,1133,1248,1228,1172,1200,1174,1269,1226,1208,1231,1176,1192,1218,1228,1170,1246,1212,1191,1253,1211,1272,1261,1303,1218,0,0,0,0,0,0,0,0,0,0,0,0,0,0,0,0,0,0,0,0,0,0,0,0,0,0,0,0,0,0,0,0,0,0,0,0,0,0,0,0,0,0,0,0,0,0,0,0,0,0,0,0,0,0,0,0,0,0,0,0,0,0,0,0,0,1518,1579,1590,1738,2024,2401,2673,2854,2880,2954,2862,2777,2746,2716,2610,2574,2514,2432,2393,2340,2269,2222,2149,2091,2034,2062,1914,1861,1856,1746,1703,1642,1589,1634,1549,1579,1597,1602,1769,1719,1716,1734,1724,1758,1746,1741,1771,1822,1754,1763,1820,1771,1778,1823,1779,1774,1758,1773,1809,1858,1895,1920,1900,1786,1769,268,269,270,271,272,285,320,358,399,436,450,443,436,428,421,414,407,400,392,385,378,371,364,356,349,342,335,327,320,313,306,299,291,284,277,273,273,274,257,258,259,258,261,259,263,263,263,263,263,264,265,265,264,266,265,264,268,266,265,263,268,269,270,270,269,1054,1053,1103,1091,1167,1305,1459,1585,1681,1674,1703,1670,1635,1639,1586,1573,1553,1529,1506,1473,1504,1415,1348,1384,1327,1296,1246,1245,1217,1259,1166,1128,1090,1086,1118,1055,1073,1102,1089,1095,1100,1108,1114,1127,1113,1131,1101,1136,1116,1103,1110,1112,1116,1126,1122,1118,1119,1110,1118,1115,1113,1112,1111,1143,1112,914,911,931,923,952,1151,1248,1333,1452,1487,1452,1454,1486,1430,1419,1382,1370,1403,1266,1286,1220,1248,1212,1166,1143,1130,1167,1050,1126,1046,1015,987,994,929,906,903,905,962,925,932,938,962,954,953,936,966,940,945,948,958,961,982,976,982,970,974,958,960,950,966,967,986,967,985,970,932,916,921,962,1025,1098,1276,1356,1450,1472,1473,1439,1428,1403,1438,1414,1336,1317,1287,1273,1320,1267,1188,1184,1193,1159,1134,1119,1095,1057,1051,993,975,953,946,946,949,959,959,955,960,957,952,952,968,966,954,957,961,958,960,968,970,961,967,959,967,967,967,966,968,971,965,965,970,330,331,332,333,334,339,384,429,497,541,551,543,534,525,516,507,498,490,481,472,463,435,426,418,409,401,392,384,376,367,359,350,342,333,339,335,336,337,320,320,323,338,331,322,325,334,326,324,342,349,454,439,456,363,319,323,334,334,331,323,328,330,328,327,331,1637,1642,1691,1827,2120,2442,2708,2904,2987,3034,2964,2880,2840,2790,2735,2668,2611,2557,2581,2430,2366,2315,2364,2283,2237,2105,2066,1976,1918,1854,1816,1756,1711,1677,1665,1673,1716,1728,1923,1911,1878,1901,1900,1963,1968,1984,1943,2039,1938,1964,1956,2004,1981,2056,2008,1981,1968,1980,1991,2003,1989,2003,1966,1966,1924,1083,1086,1090,1129,1179,1318,1493,1634,1734,1767,1759,1730,1723,1695,1754,1618,1609,1576,1534,1506,1478,1449,1421,1393,1365,1337,1325,1281,1253,1240,1211,1169,1141,1131,1102,1113,1134,1105,1115,1134,1131,1119,1118,1128,1133,1136,1134,1161,1151,1151,1168,1147,1150,1146,1169,1159,1153,1172,1243,1196,1185,1161,1193,1183,1196,989,992,995,1007,1058,1181,1338,1480,1584,1620,1613,1588,1562,1536,1510,1485,1459,1447,1407,1381,1356,1330,1304,1278,1252,1227,1215,1175,1149,1123,1139,1072,1046,1022,1007,1004,1007,1009,1009,1052,1012,1009,1031,1014,1028,1037,1032,1031,1055,1028,1032,1039,1040,1046,1039,1054,1054,1047,1061,1027,1052,1061,1081,1042,1038,1224,1231,1258,1326,1455,1673,1853,2032,2096,2130,2109,2077,2078,1998,1977,1961,1910,1876,1843,1833,1745,1703,1711,1631,1645,1555,1586,1478,1431,1393,1415,1317,1286,1284,1260,1243,1250,1274,1296,1333,1299,1310,1330,1309,1315,1323,1325,1323,1334,1323,1342,1328,1328,1337,1343,1344,1340,1340,1378,1342,1365,1381,1397,1361,1349,1512,1502,1575,1670,1883,2246,2547,2719,2756,2805,2834,2756,2652,2655,2544,2497,2442,2402,2380,2318,2219,2172,2167,2095,2084,1955,1957,1848,1820,1762,1690,1630,1585,1559,1513,1544,1555,1567,1648,1694,1654,1673,1688,1679,1677,1693,1689,1695,1705,1680,1690,1697,1704,1706,1716,1720,1723,1716,1728,1713,1734,1749,1757,1741,1741,0,0,0,0,0,0,0,0,0,0,0,0,0,0,0,0,0,0,0,0,0,0,0,0,0,0,0,0,0,0,0,0,0,0,0,0,0,0,0,0,0,0,0,0,0,0,0,0,0,0,0,0,0,0,0,0,0,0,0,0,0,0,0,0,0,1269,1265,1279,1361,1581,1903,2248,2392,2474,2491,2482,2403,2370,2310,2266,2211,2170,2104,2044,2013,1956,1910,1864,1812,1828,1715,1669,1590,1538,1487,1506,1389,1334,1307,1287,1289,1313,1326,1360,1341,1343,1351,1373,1389,1371,1379,1378,1403,1406,1382,1404,1378,1383,1412,1413,1389,1406,1406,1398,1429,1420,1420,1441,1451,1443,1314,1344,1354,1410,1582,1804,2049,2172,2247,2251,2243,2175,2186,2124,2057,2049,2019,1960,1927,1877,1854,1805,1766,1737,1695,1653,1608,1579,1551,1495,1476,1424,1401,1354,1339,1338,1351,1348,1389,1394,1401,1421,1552,1481,1434,1480,1432,1574,1471,1493,1487,1435,1460,1512,1475,1441,1525,1459,1447,1503,1487,1563,1496,1490,1466,1383,1364,1389,1512,1586,1783,2049,2145,2172,2225,2303,2206,2140,2091,2046,2078,1991,1991,1915,1905,1859,1795,1763,1765,1748,1661,1651,1690,1555,1515,1507,1514,1442,1394,1424,1387,1388,1436,1457,1501,1461,1460,1484,1466,1484,1490,1490,1489,1513,1486,1493,1502,1503,1509,1506,1522,1518,1514,1526,1497,1524,1532,1551,1514,1516,1498,1531,1555,1628,1899,2092,2409,2502,2516,2675,2470,2503,2517,2434,2328,2316,2253,2218,2193,2106,2098,2045,1978,1968,1947,1884,1853,1793,1778,1678,1693,1619,1613,1551,1534,1642,1549,1550,1673,1669,1683,1741,1701,1713,1706,1692,1700,1778,1709,1692,1700,1732,1751,1741,1729,1715,1694,1716,1694,1690,1690,1721,1702,1732,1692,1637,1642,1691,1827,2120,2442,2708,2904,2987,3034,2964,2880,2840,2790,2735,2668,2611,2557,2581,2430,2366,2315,2364,2283,2237,2105,2066,1976,1918,1854,1816,1756,1711,1677,1665,1673,1716,1728,1923,1911,1878,1901,1900,1963,1968,1984,1943,2039,1938,1964,1956,2004,1981,2056,2008,1981,1968,1980,1991,2003,1989,2003,1966,1966,1924,414,416,417,418,420,453,513,573,634,681,690,679,668,657,646,635,624,613,602,591,580,569,557,546,535,524,513,502,491,480,469,458,447,436,425,421,422,423,407,411,411,432,412,422,410,422,411,409,417,415,406,411,412,416,411,419,417,417,417,418,412,430,408,418,411,1329,1374,1405,1396,1579,1766,1933,2057,2124,2235,2167,2097,2041,2032,2047,1957,1971,1897,1838,1805,1805,1802,1705,1673,1705,1627,1570,1617,1554,1466,1522,1399,1414,1406,1370,1351,1386,1349,1420,1398,1411,1426,1420,1443,1422,1434,1424,1447,1466,1436,1449,1435,1440,1467,1452,1443,1448,1458,1453,1476,1464,1456,1470,1484,1487,1418,1461,1513,1507,1702,1988,2075,2198,2255,2361,2301,2221,2171,2152,2193,2103,2085,2006,1955,1920,1908,1883,1812,1775,1834,1763,1668,1720,1626,1593,1607,1491,1539,1490,1496,1438,1469,1433,1518,1551,1556,1545,1565,1550,1563,1589,1557,1551,1581,1537,1566,1562,1575,1581,1744,1698,1613,1567,1574,1566,1557,1571,1587,1644,1562,1213,1174,1174,1224,1384,1467,1659,1822,1858,1944,1891,1860,1822,1843,1771,1737,1771,1673,1643,1637,1583,1545,1546,1493,1489,1473,1405,1399,1332,1319,1283,1253,1245,1244,1190,1189,1214,1200,1242,1237,1248,1266,1284,1287,1256,1281,1241,1257,1265,1266,1269,1280,1289,1299,1306,1304,1256,1272,1283,1282,1290,1294,1279,1306,1290,238,239,239,240,241,251,283,316,348,381,395,388,382,376,370,364,357,351,345,339,333,326,320,314,308,302,295,289,283,277,270,264,258,252,246,241,242,243,225,223,225,226,226,225,226,227,225,228,230,228,228,230,228,228,230,232,232,233,231,230,233,233,233,233,233,1414,1414,1443,1555,1845,2229,2505,2672,2739,2736,2717,2728,2585,2524,2495,2419,2401,2309,2272,2196,2143,2085,2027,1975,1921,1916,1814,1754,1700,1645,1585,1535,1485,1452,1444,1452,1461,1492,1550,1578,1527,1539,1563,1547,1562,1573,1565,1566,1603,1564,1565,1586,1587,1594,1566,1602,1600,1590,1618,1568,1585,1595,1624,1563,1559,0,0,0,0,0,0,0,0,0,0,0,0,0,0,0,0,0,0,0,0,0,0,0,0,0,0,0,0,0,0,0,0,0,0,0,0,0,0,0,0,0,0,0,0,0,0,0,0,0,0,0,0,0,0,0,0,0,0,0,0,0,0,0,0,0,1182,1151,1164,1214,1278,1472,1662,1769,1897,1850,1847,1880,1825,1830,1812,1710,1663,1715,1644,1572,1584,1481,1524,1454,1449,1475,1403,1339,1306,1312,1269,1315,1192,1188,1204,1194,1163,1192,1235,1228,1252,1246,1246,1282,1238,1246,1256,1268,1295,1269,1276,1281,1277,1272,1256,1261,1242,1271,1243,1260,1260,1273,1250,1262,1295,974,1044,1047,977,1082,1209,1389,1477,1559,1677,1615,1560,1510,1509,1515,1451,1473,1408,1360,1335,1444,1330,1260,1235,1278,1205,1160,1215,1162,1085,1149,1035,1055,1037,1027,989,1019,1014,1027,1021,1030,1034,1039,1037,1042,1037,1026,1044,1047,1051,1057,1047,1047,1057,1051,1050,1042,1049,1037,1053,1042,1040,1040,1044,1063,1081,1119,1088,1101,1223,1367,1525,1593,1767,1740,1692,1709,1674,1633,1690,1628,1613,1543,1517,1501,1495,1409,1473,1367,1401,1371,1342,1256,1251,1219,1227,1212,1137,1148,1125,1097,1111,1110,1139,1138,1130,1143,1160,1137,1139,1166,1138,1167,1143,1179,1167,1174,1156,1176,1173,1196,1175,1167,1172,1190,1193,1173,1181,1173,1200,414,416,417,418,420,453,513,573,634,681,690,679,668,657,646,635,624,613,602,591,580,569,557,546,535,524,513,502,491,480,469,458,447,436,425,421,422,423,407,411,411,432,412,422,410,422,411,409,417,415,406,411,412,416,411,419,417,417,417,418,412,430,408,418,411,800,754,770,772,803,913,1010,1129,1194,1279,1299,1260,1216,1219,1227,1132,1116,1137,1117,1094,1034,1055,1035,1012,1004,973,975,932,972,887,854,819,830,810,797,793,800,806,778,792,783,815,778,804,787,808,797,805,800,789,805,795,807,805,807,805,812,806,817,805,806,820,812,823,825,442,447,448,448,449,509,555,614,679,728,739,724,715,704,689,675,668,653,646,628,616,605,597,583,570,562,546,534,525,511,500,490,463,468,457,450,450,451,446,442,446,448,456,456,447,456,447,486,453,448,454,454,453,462,460,460,449,458,450,463,456,456,455,463,457,530,531,533,536,542,592,671,749,823,873,877,863,848,835,820,807,792,828,762,751,737,723,706,695,681,667,645,639,625,611,597,583,548,555,542,538,572,541,545,545,541,544,547,544,548,547,548,546,544,546,550,552,553,552,553,554,550,552,554,564,555,561,552,550,553,490,499,501,502,506,548,623,686,761,804,819,807,794,775,763,755,734,729,716,691,670,667,655,646,628,615,612,599,579,552,577,546,531,522,509,505,507,502,493,507,504,515,516,518,507,527,500,532,514,539,510,516,532,547,527,521,523,524,527,523,521,527,508,517,508,974,929,945,957,1012,1153,1279,1415,1475,1616,1570,1527,1479,1478,1481,1383,1362,1379,1354,1378,1263,1280,1255,1330,1216,1225,1178,1132,1166,1078,1041,1002,1062,1090,974,970,978,1023,998,1016,1021,1006,1006,1019,1035,1029,1021,1013,1069,1014,1034,1019,1034,1049,1058,1067,1049,1028,1040,1038,1026,1021,1020,1074,1005,1434,1346,1362,1427,1621,1853,2069,2210,2364,2292,2260,2335,2160,2109,2075,2086,2028,1995,1995,1938,1911,1881,1792,1760,1713,1790,1637,1620,1706,1517,1467,1438,1421,1456,1407,1433,1499,1451,1486,1494,1502,1507,1520,1545,1524,1535,1505,1539,1524,1506,1514,1517,1526,1543,1533,1542,1528,1522,1531,1520,1517,1512,1527,1554,1513,1183,1138,1156,1179,1283,1474,1609,1723,1797,1869,1879,1831,1778,1772,1799,1667,1641,1653,1623,1591,1522,1533,1589,1517,1454,1482,1461,1377,1370,1312,1249,1205,1227,1184,1161,1252,1165,1184,1235,1242,1230,1317,1282,1281,1268,1258,1266,1298,1269,1289,1287,1295,1248,1261,1265,1283,1284,1254,1281,1312,1277,1266,1285,1261,1259,0,0,0,0,0,0,0,0,0,0,0,0,0,0,0,0,0,0,0,0,0,0,0,0,0,0,0,0,0,0,0,0,0,0,0,0,0,0,0,0,0,0,0,0,0,0,0,0,0,0,0,0,0,0,0,0,0,0,0,0,0,0,0,0,0,203,207,208,209,209,218,247,276,305,334,348,342,336,331,325,320,314,309,303,297,292,283,281,275,270,264,258,253,245,242,236,231,225,219,214,210,211,211,197,192,198,207,204,202,195,195,202,210,207,203,205,234,247,234,231,208,197,209,200,200,193,204,201,215,196,239,240,241,241,242,252,286,319,352,385,400,393,387,380,374,368,361,355,349,342,336,330,323,317,311,304,298,292,285,279,272,266,260,253,247,243,243,244,232,228,243,323,250,226,246,272,251,235,243,241,241,236,245,241,246,235,235,232,242,248,232,241,234,236,241,800,754,770,772,803,913,1010,1129,1194,1279,1299,1260,1216,1219,1227,1132,1116,1137,1117,1094,1034,1055,1035,1012,1004,973,975,932,972,887,854,819,830,810,797,793,800,806,778,792,783,815,778,804,787,808,797,805,800,789,805,795,807,805,807,805,812,806,817,805,806,820,812,823,825,671,660,693,656,682,758,851,951,1026,1082,1085,1055,1070,1038,1038,1037,980,952,994,928,911,894,867,859,863,824,807,787,865,771,729,717,715,699,685,674,669,683,674,664,666,672,716,702,699,701,691,712,705,683,697,675,677,698,685,679,698,680,672,693,693,712,698,707,690,444,444,446,448,450,470,535,615,660,742,732,724,709,697,685,674,644,650,641,610,615,587,592,578,569,557,545,531,522,497,501,489,475,465,452,448,452,450,434,441,444,462,444,450,438,449,438,442,441,440,437,445,448,452,447,450,446,445,453,450,445,454,440,448,441,550,529,531,532,539,567,648,746,803,869,928,915,880,822,851,803,772,775,796,731,735,703,706,692,670,656,650,636,622,594,590,617,560,548,539,536,535,538,530,532,538,553,546,550,550,563,552,546,563,553,570,569,570,571,545,542,555,556,556,542,552,559,545,555,546,297,310,311,312,313,317,401,416,458,497,509,503,477,468,461,470,446,454,430,439,431,407,414,406,399,376,382,374,366,358,350,367,334,326,318,313,314,315,304,310,308,314,311,325,312,328,327,312,334,312,315,315,312,323,312,312,316,319,312,312,310,318,310,320,310,895,835,868,834,943,987,1110,1237,1359,1360,1358,1325,1392,1369,1294,1289,1228,1196,1233,1163,1142,1120,1089,1077,1114,1034,1012,988,1025,1005,918,942,894,912,861,851,847,900,874,862,876,864,898,923,873,883,883,892,900,901,897,906,909,922,905,911,882,909,892,914,921,914,917,927,936,1430,1418,1448,1513,1668,1994,2047,2245,2249,2310,2318,2229,2221,2227,2292,2107,2036,2049,2033,1946,1909,1905,1828,1907,1806,1713,1691,1669,1633,1563,1557,1540,1468,1465,1456,1441,1443,1448,1554,1540,1537,1540,1541,1554,1559,1555,1559,1558,1566,1550,1559,1562,1573,1583,1579,1587,1557,1575,1572,1566,1570,1596,1558,1573,1556,1141,1099,1087,1060,1189,1369,1429,1567,1682,1696,1703,1681,1692,1664,1585,1575,1510,1473,1532,1430,1403,1391,1340,1323,1325,1283,1243,1237,1231,1255,1128,1106,1094,1108,1072,1069,1109,1089,1097,1092,1119,1131,1152,1146,1158,1105,1123,1142,1107,1099,1112,1111,1104,1106,1135,1124,1103,1104,1101,1106,1113,1118,1123,1135,1108,353,361,355,356,360,381,432,437,528,579,589,572,570,561,551,536,558,523,538,518,495,485,476,466,457,469,438,437,419,410,400,391,382,402,363,358,359,368,355,363,358,368,366,373,362,368,358,362,363,361,358,373,366,371,371,373,371,373,381,372,369,378,360,368,363,0,0,0,0,0,0,0,0,0,0,0,0,0,0,0,0,0,0,0,0,0,0,0,0,0,0,0,0,0,0,0,0,0,0,0,0,0,0,0,0,0,0,0,0,0,0,0,0,0,0,0,0,0,0,0,0,0,0,0,0,0,0,0,0,0,322,323,324,325,326,335,392,438,483,527,540,584,520,512,503,494,472,477,518,460,452,430,435,414,417,409,400,392,383,414,366,358,349,340,366,327,328,329,325,322,325,326,340,337,327,337,325,339,333,332,335,334,337,348,343,345,332,339,334,345,343,341,343,351,342,671,660,693,656,682,758,851,951,1026,1082,1085,1055,1070,1038,1038,1037,980,952,994,928,911,894,867,859,863,824,807,787,865,771,729,717,715,699,685,674,669,683,674,664,666,672,716,702,699,701,691,712,705,683,697,675,677,698,685,679,698,680,672,693,693,712,698,707,690,551,553,538,539,547,597,676,756,834,880,886,890,858,882,872,858,801,830,773,758,744,745,716,702,687,673,679,665,631,617,615,588,592,572,559,543,544,595,548,546,562,641,570,547,567,595,573,561,569,567,568,563,572,569,572,562,567,564,575,582,565,577,569,573,579,683,696,703,671,690,808,917,1021,1125,1168,1153,1118,1100,1101,1077,1033,1037,1012,1004,973,938,948,964,902,885,868,875,802,822,794,775,762,737,706,710,701,712,709,708,708,713,701,703,701,715,717,701,724,737,709,713,714,720,713,716,713,712,714,710,703,715,710,712,717,721,826,819,788,754,785,917,1052,1221,1261,1305,1291,1257,1237,1230,1211,1186,1160,1133,1126,1092,1057,1065,1072,1011,991,970,961,929,920,889,869,853,820,795,792,791,831,800,790,797,794,813,810,810,802,815,805,809,804,802,805,812,809,815,821,823,824,818,821,818,817,852,837,846,839,596,608,599,603,612,672,753,835,925,977,980,965,950,921,902,902,881,887,850,835,825,803,788,779,763,741,729,711,698,682,665,666,636,620,607,606,607,623,595,611,600,633,598,619,603,626,611,621,613,606,621,613,624,622,622,622,626,621,632,618,622,630,623,631,632,726,728,713,715,739,816,924,1032,1120,1161,1223,1162,1125,1145,1187,1112,1051,1075,1014,996,977,1023,988,970,950,885,886,867,829,811,805,774,773,748,735,719,721,772,752,745,751,767,753,764,751,764,777,760,761,752,752,761,752,753,755,761,760,771,755,761,766,774,762,776,768,1536,1566,1601,1751,1971,2244,2460,2583,2614,2724,2598,2550,2504,2460,2435,2366,2349,2291,2255,2184,2126,2119,2248,1989,1945,1907,1938,1816,1800,1720,1664,1645,1735,1580,1560,1565,1585,1610,1718,1776,1727,1756,1765,1758,1770,1776,1753,1772,1774,1740,1769,1763,1772,1767,1804,1794,1770,1765,1807,1749,1765,1786,1807,1787,1769,922,925,943,919,973,1084,1229,1515,1446,1481,1477,1471,1430,1475,1479,1400,1335,1369,1271,1264,1241,1265,1249,1238,1192,1203,1119,1095,1052,1028,1017,981,974,992,946,940,921,960,984,990,980,1065,1036,1032,1016,1008,1020,1053,1016,1036,1037,1022,990,1005,1011,1032,1038,997,1021,1062,1024,1019,1034,1008,1007,418,419,421,422,424,440,499,557,616,700,745,685,721,640,630,640,608,618,586,671,565,574,562,551,522,511,518,507,496,484,473,462,482,467,414,410,411,427,412,415,417,426,412,420,415,423,429,414,423,414,416,418,417,423,418,422,418,426,420,426,419,431,418,427,424,336,337,338,339,340,407,426,473,557,603,561,552,543,584,574,564,555,498,535,480,471,462,496,444,435,426,417,408,399,390,381,372,363,385,375,341,342,343,332,335,335,331,333,331,334,335,333,331,333,331,339,332,339,330,335,334,332,333,334,333,328,333,328,335,332,0,0,0,0,0,0,0,0,0,0,0,0,0,0,0,0,0,0,0,0,0,0,0,0,0,0,0,0,0,0,0,0,0,0,0,0,0,0,0,0,0,0,0,0,0,0,0,0,0,0,0,0,0,0,0,0,0,0,0,0,0,0,0,0,0,551,553,538,539,547,597,676,756,834,880,886,890,858,882,872,858,801,830,773,758,744,745,716,702,687,673,679,665,631,617,615,588,592,572,559,543,544,595,548,546,562,641,570,547,567,595,573,561,569,567,568,563,572,569,572,562,567,564,575,582,565,577,569,573,579,0,0,0,0,0,0,0,0,0,0,0,0,0,0,0,0,0,0,0,0,0,0,0,0,0,0,0,0,0,0,0,0,0,0,0,0,0,0,0,0,0,0,0,0,0,0,0,0,0,0,0,0,0,0,0,0,0,0,0,0,0,0,0,0,0,1040,1045,1037,1023,1089,1215,1380,1511,1627,1625,1630,1596,1637,1552,1518,1549,1483,1437,1419,1385,1360,1337,1312,1280,1263,1231,1204,1183,1170,1141,1113,1083,1055,1028,1046,1013,1012,1016,1038,1043,1037,1050,1055,1050,1043,1062,1036,1049,1044,1046,1043,1062,1057,1055,1055,1053,1053,1052,1062,1073,1044,1058,1049,1057,1047,1147,1132,1123,1120,1201,1361,1521,1645,1730,1764,1763,1800,1754,1674,1643,1665,1605,1557,1537,1501,1497,1445,1433,1410,1395,1378,1312,1297,1267,1234,1257,1195,1143,1110,1140,1099,1141,1130,1158,1152,1176,1175,1175,1211,1164,1181,1176,1198,1223,1195,1197,1210,1200,1193,1179,1188,1168,1198,1173,1184,1183,1193,1172,1188,1215,880,854,862,864,927,976,1112,1295,1316,1372,1390,1373,1346,1324,1296,1281,1292,1217,1204,1168,1169,1147,1120,1079,1058,1029,1033,993,984,950,933,938,904,858,870,888,861,863,873,853,859,856,863,879,864,869,869,884,898,892,888,894,892,902,889,892,891,896,900,913,900,897,900,914,913,255,256,257,257,258,312,352,393,375,473,423,416,410,403,396,390,383,376,370,363,356,350,343,336,330,323,316,310,303,296,290,283,276,270,263,259,259,260,248,254,250,254,256,253,254,254,250,250,251,253,248,253,253,255,250,251,255,253,255,253,253,255,248,253,251,1715,1761,1874,1964,2192,2546,2745,3007,2848,2896,2813,2764,2779,2632,2676,2639,2540,2509,2469,2416,2336,2226,2225,2175,2105,2102,2030,1997,1967,1901,1874,1919,1778,1785,1768,1757,1716,1767,1996,2037,2040,2070,2064,2096,2034,2060,2062,2065,2090,2087,2107,2145,2104,2129,2103,2131,2147,2163,2183,2144,2168,2206,2199,2190,2184,450,452,453,455,457,540,612,684,693,823,749,737,725,713,767,689,724,665,653,658,645,633,690,650,653,584,571,559,547,535,522,510,485,473,462,457,459,460,455,462,461,493,472,478,480,456,468,472,483,465,493,460,458,461,469,467,469,454,461,465,465,456,453,477,452,821,823,826,797,871,995,1140,1270,1286,1392,1390,1382,1345,1275,1293,1249,1211,1234,1212,1146,1160,1141,1116,1100,1078,1053,1030,1011,987,964,910,920,892,876,833,833,858,838,861,864,850,860,861,875,866,891,888,882,875,913,892,897,882,944,893,869,888,864,884,923,890,915,897,908,882,706,685,675,645,661,727,824,921,1040,1052,1056,1039,1076,1058,988,1030,954,937,920,903,887,870,853,836,819,802,785,768,850,747,730,739,684,667,683,649,651,653,675,667,675,677,680,677,684,678,680,683,685,682,691,703,712,705,714,702,676,689,687,679,676,690,686,692,676,774,783,775,789,810,944,1002,1090,1234,1233,1234,1224,1198,1187,1240,1190,1115,1105,1078,1086,990,973,969,970,945,904,897,892,872,853,833,801,794,775,747,793,784,797,764,756,778,791,772,785,768,770,768,770,785,775,778,777,779,793,784,781,771,779,775,787,783,781,774,792,794,0,0,0,0,0,0,0,0,0,0,0,0,0,0,0,0,0,0,0,0,0,0,0,0,0,0,0,0,0,0,0,0,0,0,0,0,0,0,0,0,0,0,0,0,0,0,0,0,0,0,0,0,0,0,0,0,0,0,0,0,0,0,0,0,0 ]);
