n = 10;
D = [61,233,63,113,90,110,117,234,162,225 ];
q = 0;
prec = array2d(1..0,1..2,[]);
steps = 64;
l = 360;
r = 0;
which = [];
interval = array2d(1..0,1..2,[]);
T = array3d(1..11,1..11,0..64,[0,0,0,0,0,0,0,0,0,0,0,0,0,0,0,0,0,0,0,0,0,0,0,0,0,0,0,0,0,0,0,0,0,0,0,0,0,0,0,0,0,0,0,0,0,0,0,0,0,0,0,0,0,0,0,0,0,0,0,0,0,0,0,0,0,511,513,512,513,519,568,641,719,791,837,844,832,814,810,787,775,757,751,735,722,722,695,683,668,657,640,627,614,601,588,574,566,570,533,518,517,518,520,518,515,510,525,515,529,513,529,518,521,523,525,526,523,536,542,538,539,530,533,534,530,544,542,545,554,548,590,590,589,593,605,664,753,841,921,969,970,963,936,933,1009,893,871,863,844,829,814,798,785,770,754,735,723,708,779,675,661,648,650,614,609,597,599,600,598,603,595,628,605,609,602,596,608,601,617,626,747,599,601,602,614,609,611,598,614,619,638,601,588,624,598,427,428,480,431,459,467,555,575,709,671,729,676,665,647,682,627,617,653,601,590,576,583,558,546,600,526,577,507,497,487,477,467,457,447,437,434,435,436,423,432,435,444,442,448,433,452,429,454,437,435,437,444,453,463,449,442,444,437,452,449,440,445,431,440,433,254,313,255,256,257,268,296,324,377,379,389,393,387,390,374,384,356,351,374,371,335,364,326,319,314,308,302,299,293,288,282,277,272,266,261,257,258,259,240,242,243,240,241,243,243,242,242,249,246,243,243,246,246,246,247,248,247,246,247,246,247,246,247,250,248,287,288,289,290,291,306,346,389,426,465,477,469,465,457,447,442,432,427,416,409,401,394,386,379,371,366,356,349,343,334,318,320,311,303,296,291,292,286,278,285,287,296,289,297,284,299,284,301,287,281,288,291,299,305,295,289,294,285,297,295,289,294,281,288,284,1278,1281,1291,1423,1450,1638,1837,1975,1989,2015,2143,2024,2029,1904,1922,1883,1853,1838,1813,1757,1713,1689,1657,1639,1596,1540,1526,1494,1456,1467,1360,1400,1333,1309,1264,1290,1331,1268,1364,1364,1319,1313,1357,1338,1346,1352,1348,1356,1412,1363,1368,1384,1386,1388,1363,1394,1392,1401,1435,1391,1376,1383,1430,1363,1364,438,439,440,450,517,478,533,600,696,684,741,702,678,672,656,686,629,619,655,644,629,605,570,558,558,548,527,528,508,532,521,486,476,490,447,444,445,454,447,448,452,461,458,470,464,480,469,463,480,480,462,463,464,475,460,457,468,471,467,456,461,465,455,468,457,285,286,286,287,288,304,345,385,426,465,477,469,461,454,446,439,431,423,416,408,400,393,385,377,395,362,355,347,339,332,324,316,324,301,293,289,290,291,280,285,280,285,289,289,287,299,285,286,288,292,282,288,288,294,296,289,293,291,292,289,287,299,282,288,286,379,380,382,383,384,414,515,518,596,598,738,605,587,590,571,605,626,559,570,560,549,543,513,551,485,475,466,456,446,483,427,421,451,399,389,387,386,428,410,385,387,387,384,389,389,391,388,389,391,385,387,387,386,386,393,389,388,387,388,391,386,393,389,394,392,0,0,0,0,0,0,0,0,0,0,0,0,0,0,0,0,0,0,0,0,0,0,0,0,0,0,0,0,0,0,0,0,0,0,0,0,0,0,0,0,0,0,0,0,0,0,0,0,0,0,0,0,0,0,0,0,0,0,0,0,0,0,0,0,0,522,517,515,519,525,579,646,743,815,846,867,852,837,825,815,803,791,781,761,737,735,724,711,696,677,648,640,618,616,628,595,574,561,544,548,520,521,545,530,532,527,532,572,562,578,592,552,579,567,569,565,541,546,570,563,545,570,550,540,557,552,579,563,567,547,0,0,0,0,0,0,0,0,0,0,0,0,0,0,0,0,0,0,0,0,0,0,0,0,0,0,0,0,0,0,0,0,0,0,0,0,0,0,0,0,0,0,0,0,0,0,0,0,0,0,0,0,0,0,0,0,0,0,0,0,0,0,0,0,0,173,174,175,175,176,181,206,230,254,278,292,287,283,278,273,269,264,259,255,250,245,241,236,231,227,222,217,212,208,203,198,194,189,184,180,176,177,177,164,165,167,171,171,175,166,177,166,172,169,165,167,172,172,173,170,170,170,169,174,175,167,171,165,169,166,442,444,455,446,449,460,551,616,681,728,749,724,725,666,689,677,632,648,641,641,618,618,593,583,571,556,544,535,498,474,500,488,477,465,453,449,460,429,440,441,439,447,499,478,481,476,457,506,476,471,476,450,454,479,463,456,487,454,449,476,467,496,478,488,462,369,373,371,370,374,404,457,510,558,604,619,607,600,587,575,565,555,545,534,531,518,506,495,487,481,465,461,447,438,432,421,413,399,389,382,375,376,377,368,374,371,383,397,394,379,407,376,407,393,426,385,383,393,404,389,387,400,401,389,394,389,406,385,386,380,575,577,579,592,590,646,732,817,917,944,948,950,935,920,887,872,857,842,827,812,797,782,767,752,737,721,706,691,698,680,646,631,616,601,588,584,597,587,577,591,583,617,578,606,585,610,596,602,598,585,600,591,602,602,599,598,603,599,609,594,596,607,599,611,613,924,954,963,976,1061,1135,1304,1383,1539,1549,1540,1503,1500,1541,1481,1426,1351,1371,1329,1327,1330,1232,1252,1207,1169,1136,1142,1088,1085,1057,1042,1029,989,940,933,971,933,940,954,990,1003,967,975,962,960,970,990,991,998,968,971,976,1007,1007,1019,1019,1017,1037,1022,1024,1029,1022,1019,1021,1019,484,486,517,489,492,576,606,676,747,794,800,787,775,786,749,736,770,711,698,686,673,660,647,635,622,655,597,625,611,594,546,533,520,508,495,491,523,526,495,493,487,496,500,526,496,502,514,509,498,503,492,500,500,487,500,503,502,502,495,495,508,514,508,513,502,518,520,521,523,529,577,654,732,853,854,859,845,832,862,804,790,777,763,749,735,722,708,694,680,666,653,639,625,651,636,584,570,556,543,530,526,527,529,516,522,529,538,531,534,525,534,524,549,530,526,539,534,552,568,546,540,546,539,545,542,550,561,538,544,537,902,888,879,887,958,1077,1161,1344,1405,1412,1459,1389,1374,1397,1322,1298,1339,1244,1233,1216,1213,1175,1157,1123,1101,1154,1093,1061,1019,985,975,987,988,897,896,912,890,883,898,917,909,916,939,912,923,950,916,917,930,912,931,929,940,939,1014,1021,950,930,931,920,913,907,929,953,907,522,517,515,519,525,579,646,743,815,846,867,852,837,825,815,803,791,781,761,737,735,724,711,696,677,648,640,618,616,628,595,574,561,544,548,520,521,545,530,532,527,532,572,562,578,592,552,579,567,569,565,541,546,570,563,545,570,550,540,557,552,579,563,567,547,644,685,704,685,706,786,851,968,1032,1076,1098,1058,1048,1029,1012,1026,995,964,926,930,912,875,866,870,897,832,815,773,789,788,728,748,718,701,703,703,664,692,671,678,687,702,693,692,684,698,682,710,693,699,701,695,720,741,703,699,710,702,705,700,713,724,698,705,698,173,174,174,175,175,181,204,228,252,276,290,285,281,276,271,267,262,258,253,248,244,239,235,230,225,221,216,212,207,202,198,193,189,184,179,176,176,177,174,162,162,163,167,164,169,165,166,164,170,173,197,170,173,187,171,166,169,175,202,209,216,224,222,186,182,0,0,0,0,0,0,0,0,0,0,0,0,0,0,0,0,0,0,0,0,0,0,0,0,0,0,0,0,0,0,0,0,0,0,0,0,0,0,0,0,0,0,0,0,0,0,0,0,0,0,0,0,0,0,0,0,0,0,0,0,0,0,0,0,0,521,522,514,516,521,543,615,718,760,806,813,800,787,774,761,748,735,722,709,738,683,670,683,643,630,617,604,640,615,565,552,539,526,513,501,544,520,522,508,513,514,522,527,531,531,531,523,526,531,531,536,546,539,541,524,522,532,524,525,527,529,527,518,522,521,500,503,506,508,513,557,627,702,773,822,826,811,805,787,776,816,752,734,723,710,696,683,668,657,644,630,617,602,589,580,564,554,540,523,513,506,509,513,508,508,507,506,506,504,506,508,504,507,510,511,511,513,515,517,517,518,510,515,513,513,514,516,513,516,515,759,701,703,705,728,802,905,1009,1095,1134,1135,1108,1099,1073,1063,1046,1028,1010,992,975,957,939,921,904,886,882,917,832,815,797,779,761,744,726,713,704,706,774,713,714,720,717,733,715,731,733,729,717,730,723,724,726,741,749,770,769,743,736,737,730,731,732,736,738,728,837,867,842,848,891,1016,1163,1234,1395,1373,1379,1328,1273,1252,1231,1210,1240,1205,1171,1161,1227,1111,1134,1133,1096,1048,1035,981,1005,982,960,910,857,867,841,850,817,855,847,855,855,869,913,921,907,924,893,931,923,909,912,886,914,929,915,894,921,909,898,920,917,930,915,940,915,573,575,577,578,588,639,771,867,890,934,962,946,908,944,879,864,849,834,866,869,789,774,764,744,729,745,699,701,686,655,640,625,610,595,582,620,583,627,573,575,580,592,578,587,578,585,600,582,585,579,583,586,580,586,585,588,586,591,585,590,592,602,599,608,600,642,644,646,648,664,731,825,920,1004,1044,1047,1022,1014,989,981,964,948,931,915,899,882,866,849,833,816,800,777,767,750,734,717,701,685,668,655,646,648,708,663,660,669,661,674,679,690,669,662,676,685,680,686,677,680,699,679,680,671,678,669,683,672,675,669,682,691,1044,1024,1035,1023,1111,1324,1365,1555,1629,1669,1603,1637,1628,1557,1571,1504,1518,1451,1490,1429,1417,1367,1352,1299,1268,1256,1249,1221,1179,1202,1151,1096,1075,1031,1034,1034,1018,1045,1028,1030,1047,1063,1050,1057,1037,1059,1043,1073,1058,1047,1055,1063,1069,1083,1075,1065,1070,1061,1072,1074,1069,1077,1059,1069,1065,644,685,704,685,706,786,851,968,1032,1076,1098,1058,1048,1029,1012,1026,995,964,926,930,912,875,866,870,897,832,815,773,789,788,728,748,718,701,703,703,664,692,671,678,687,702,693,692,684,698,682,710,693,699,701,695,720,741,703,699,710,702,705,700,713,724,698,705,698,494,491,497,498,503,548,589,648,708,779,789,751,741,761,752,708,697,686,675,707,653,642,631,620,610,623,610,596,583,570,557,544,531,511,505,501,572,499,496,502,503,531,504,515,500,504,500,494,508,506,534,547,542,515,503,516,515,517,521,509,509,523,498,508,504,334,335,337,337,338,359,407,462,510,557,556,547,538,529,521,512,503,494,485,476,467,459,451,452,432,423,414,406,397,388,379,370,361,352,343,339,340,341,327,325,331,342,339,333,332,331,335,343,349,345,395,433,488,381,361,342,333,340,332,335,328,338,338,346,334,411,413,414,415,417,449,509,582,643,688,685,674,663,652,640,630,619,608,597,585,576,565,554,554,532,521,510,499,488,477,466,455,444,433,421,418,419,420,408,419,411,441,408,429,411,431,418,430,422,411,426,417,429,427,424,422,430,423,432,419,422,431,420,430,432,0,0,0,0,0,0,0,0,0,0,0,0,0,0,0,0,0,0,0,0,0,0,0,0,0,0,0,0,0,0,0,0,0,0,0,0,0,0,0,0,0,0,0,0,0,0,0,0,0,0,0,0,0,0,0,0,0,0,0,0,0,0,0,0,0,298,299,300,301,302,319,361,403,445,486,497,489,482,474,466,458,450,442,434,426,418,410,402,394,386,379,371,363,355,347,339,331,323,315,307,303,304,304,294,300,294,299,303,300,299,301,295,297,296,299,294,299,300,302,299,299,302,297,301,307,299,307,295,301,299,729,738,756,736,780,836,991,1068,1160,1196,1203,1197,1140,1163,1115,1131,1093,1050,1063,1029,1011,991,974,976,918,938,882,863,864,826,817,795,780,789,766,736,765,736,761,747,748,754,760,754,760,752,762,758,758,753,770,766,766,759,760,764,764,771,758,767,770,770,760,756,756,1183,1255,1205,1235,1298,1507,1683,1790,1894,1953,1898,1833,1858,1827,1781,1790,1783,1634,1693,1664,1558,1565,1500,1536,1470,1500,1380,1403,1377,1298,1294,1265,1200,1212,1215,1233,1216,1214,1242,1243,1237,1261,1266,1291,1265,1272,1268,1277,1300,1290,1283,1285,1298,1315,1296,1283,1290,1296,1283,1302,1306,1313,1285,1320,1310,104,105,105,105,106,107,121,135,148,162,172,170,167,164,162,159,156,154,151,148,146,143,140,138,135,132,130,127,124,122,119,116,114,111,108,106,106,106,92,89,90,90,111,97,92,92,92,92,105,105,102,100,104,93,116,98,97,103,109,96,94,96,103,108,95,705,707,713,754,736,820,929,1030,1098,1160,1160,1141,1119,1104,1086,1070,1066,1045,1011,999,1012,946,940,922,894,887,863,851,837,815,789,770,758,732,722,731,757,754,733,730,740,758,753,747,743,744,746,756,759,748,752,787,808,790,781,760,748,761,753,748,740,766,752,766,743,574,570,564,555,616,638,687,765,841,885,891,877,936,849,835,821,827,794,780,766,789,738,725,720,697,699,669,655,669,654,639,624,609,625,581,577,578,580,569,578,578,585,586,586,582,588,577,600,580,582,587,588,602,614,599,593,592,585,595,593,596,599,583,590,580,494,491,497,498,503,548,589,648,708,779,789,751,741,761,752,708,697,686,675,707,653,642,631,620,610,623,610,596,583,570,557,544,531,511,505,501,572,499,496,502,503,531,504,515,500,504,500,494,508,506,534,547,542,515,503,516,515,517,521,509,509,523,498,508,504,259,259,259,259,259,263,270,278,286,293,296,295,293,292,290,289,287,286,284,283,281,280,278,277,275,274,272,271,269,268,266,265,263,262,260,259,260,260,240,246,242,247,248,253,246,247,242,245,245,243,242,255,248,253,250,253,251,253,261,253,250,255,243,248,246,372,374,373,374,376,403,455,508,563,622,620,607,616,587,582,571,558,548,535,527,519,511,499,489,479,469,460,454,440,430,420,410,401,390,382,377,378,379,389,358,365,365,361,373,369,377,372,369,377,366,368,366,366,371,370,371,368,370,368,365,368,369,368,376,373,448,450,450,452,457,493,558,627,693,737,748,736,725,712,702,688,679,664,649,636,625,615,604,589,577,565,557,546,530,518,506,494,486,469,459,457,469,457,452,454,456,469,462,460,460,483,462,469,468,480,504,504,513,506,463,458,468,472,467,465,468,472,463,464,462,305,309,307,308,309,327,371,415,458,500,513,503,495,490,480,470,462,454,445,437,429,421,413,405,396,388,380,372,364,355,347,339,331,323,315,310,311,312,305,297,300,305,304,305,303,305,301,309,307,304,301,305,302,296,301,305,307,309,300,297,305,303,301,301,299,0,0,0,0,0,0,0,0,0,0,0,0,0,0,0,0,0,0,0,0,0,0,0,0,0,0,0,0,0,0,0,0,0,0,0,0,0,0,0,0,0,0,0,0,0,0,0,0,0,0,0,0,0,0,0,0,0,0,0,0,0,0,0,0,0,455,457,468,469,462,500,566,632,698,739,740,731,718,707,706,685,680,662,658,646,629,622,625,596,585,574,562,550,538,529,514,502,496,478,467,472,464,465,460,468,450,450,462,454,488,458,460,478,458,457,457,458,462,460,461,462,464,476,487,463,470,468,463,464,463,1149,1186,1158,1229,1279,1449,1661,1778,1848,1826,1869,1839,1841,1741,1736,1715,1678,1612,1598,1553,1574,1506,1515,1511,1408,1419,1401,1321,1329,1262,1246,1205,1214,1189,1176,1174,1202,1177,1207,1183,1195,1207,1198,1216,1205,1205,1206,1219,1248,1222,1226,1215,1221,1242,1227,1223,1220,1237,1229,1242,1236,1228,1245,1256,1257,347,350,349,379,351,411,465,470,521,566,578,570,558,552,542,530,521,510,503,494,485,475,465,460,448,439,469,421,412,402,393,384,375,366,357,351,355,354,335,342,341,358,349,348,345,350,342,345,347,346,342,339,340,343,342,342,346,343,340,346,340,354,343,346,342,408,436,411,412,414,455,510,565,625,664,672,669,658,647,632,626,612,607,598,589,572,562,551,541,528,521,511,501,491,473,470,460,450,440,419,415,416,417,412,417,416,427,427,429,423,427,417,425,429,444,429,438,439,441,427,431,434,439,435,423,429,432,417,424,422,639,640,642,645,661,715,784,866,934,907,903,902,898,885,903,868,859,1015,859,864,899,811,809,764,753,765,734,723,709,743,687,737,665,678,661,686,646,648,655,653,652,660,644,654,651,653,670,708,656,674,683,678,678,689,698,668,661,666,676,683,670,676,679,687,674,259,259,259,259,259,263,270,278,286,293,296,295,293,292,290,289,287,286,284,283,281,280,278,277,275,274,272,271,269,268,266,265,263,262,260,259,260,260,240,246,242,247,248,253,246,247,242,245,245,243,242,255,248,253,250,253,251,253,261,253,250,255,243,248,246,315,316,317,318,319,338,362,428,473,515,526,518,510,501,493,482,476,443,459,427,442,434,425,417,408,400,392,383,375,366,358,349,341,315,324,303,320,321,307,301,303,307,307,307,307,308,304,310,309,308,307,309,308,303,307,310,311,312,307,305,311,310,308,308,307,574,575,576,579,588,645,730,817,899,943,960,960,917,901,876,872,856,840,826,810,796,822,757,751,727,720,705,690,675,660,645,622,615,599,633,582,584,586,582,582,584,590,594,609,603,607,600,599,610,600,596,607,598,619,601,594,600,594,594,600,601,599,590,601,593,585,586,588,590,601,660,748,836,919,963,979,979,936,920,905,889,874,858,843,827,812,796,781,765,761,735,719,704,688,698,657,649,626,611,644,594,595,597,596,596,592,599,613,611,606,629,615,634,614,626,623,619,608,629,618,626,625,609,614,640,618,632,617,619,610,709,711,716,751,801,819,928,1043,1200,1147,1147,1131,1114,1167,1081,1073,1107,1040,1070,1002,984,965,1013,927,905,934,921,852,834,850,796,816,755,771,726,723,721,727,728,746,733,756,753,754,751,763,741,752,740,740,747,758,755,758,800,791,753,752,761,743,741,744,761,761,747,509,510,515,517,522,566,641,721,796,818,866,854,800,822,818,775,761,791,739,726,712,699,685,672,654,645,627,618,604,621,577,564,547,543,551,520,518,550,525,527,525,531,567,555,570,580,541,572,555,562,557,534,540,564,557,539,562,542,533,553,546,571,556,559,545,0,0,0,0,0,0,0,0,0,0,0,0,0,0,0,0,0,0,0,0,0,0,0,0,0,0,0,0,0,0,0,0,0,0,0,0,0,0,0,0,0,0,0,0,0,0,0,0,0,0,0,0,0,0,0,0,0,0,0,0,0,0,0,0,0,1257,1209,1256,1300,1368,1540,1678,1883,1908,1912,1910,1930,1886,1843,1791,1748,1762,1730,1647,1629,1651,1609,1578,1547,1513,1513,1413,1422,1406,1369,1314,1270,1266,1300,1275,1223,1233,1201,1265,1272,1274,1305,1262,1307,1277,1306,1292,1307,1319,1295,1307,1300,1314,1322,1310,1312,1304,1313,1325,1307,1317,1319,1310,1346,1345,727,729,757,759,765,870,985,1070,1144,1173,1207,1202,1127,1147,1105,1085,1101,1086,1074,1066,1006,987,958,939,926,911,916,863,844,826,815,788,796,780,737,771,732,745,754,762,754,758,764,756,764,760,754,755,755,759,755,763,763,763,760,762,763,760,766,775,762,770,756,762,764,48,48,49,49,49,49,56,63,69,76,82,81,79,78,77,75,74,73,71,70,69,67,66,65,64,62,61,60,58,57,56,54,53,52,50,49,49,49,19,19,19,19,19,19,19,19,19,19,19,19,19,19,19,19,19,19,19,19,19,19,19,19,18,18,19,578,580,618,579,603,644,753,813,895,939,943,928,913,898,944,869,858,839,880,809,808,793,768,757,734,719,704,696,684,663,645,630,623,605,587,586,625,586,593,600,583,610,606,601,608,622,599,598,605,615,608,595,595,603,601,602,601,601,592,595,591,599,602,598,582,315,316,317,318,319,338,362,428,473,515,526,518,510,501,493,482,476,443,459,427,442,434,425,417,408,400,392,383,375,366,358,349,341,315,324,303,320,321,307,301,303,307,307,307,307,308,304,310,309,308,307,309,308,303,307,310,311,312,307,305,311,310,308,308,307,1228,1180,1185,1227,1325,1504,1708,1922,1898,1926,1997,1979,1918,1904,1776,1780,1845,1720,1690,1660,1593,1563,1649,1502,1472,1476,1411,1381,1425,1320,1290,1259,1285,1208,1339,1194,1197,1200,1248,1246,1252,1258,1257,1261,1267,1284,1267,1274,1267,1269,1276,1274,1277,1276,1283,1294,1287,1290,1290,1282,1300,1294,1292,1297,1291,856,863,880,902,935,1064,1159,1281,1354,1411,1446,1385,1362,1331,1309,1313,1302,1250,1227,1197,1175,1160,1147,1100,1085,1077,1033,1025,1003,974,945,948,908,895,872,913,871,901,902,890,890,896,892,908,959,959,896,927,909,898,898,943,948,961,959,934,952,960,969,943,925,921,904,902,899,770,738,792,779,831,902,985,1101,1196,1228,1267,1208,1188,1169,1180,1165,1157,1090,1054,1089,1009,1012,992,958,953,940,916,880,887,876,857,857,795,780,772,759,755,772,771,775,776,790,785,779,782,786,776,779,784,779,793,810,806,798,790,793,792,805,802,798,792,806,784,792,790,1164,1189,1194,1244,1347,1500,1670,1781,1915,1923,1923,1873,1847,1793,1783,1776,1734,1696,1666,1667,1566,1565,1513,1482,1474,1469,1388,1386,1404,1322,1315,1268,1229,1218,1204,1206,1191,1209,1228,1257,1249,1254,1273,1254,1264,1290,1261,1254,1276,1244,1264,1264,1276,1275,1340,1351,1298,1264,1267,1254,1249,1244,1265,1310,1239,1113,1125,1121,1150,1239,1390,1544,1771,1866,1808,1797,1757,1801,1711,1758,1654,1709,1596,1567,1568,1492,1483,1529,1465,1442,1414,1378,1324,1324,1266,1215,1196,1212,1167,1131,1139,1166,1134,1196,1182,1185,1191,1184,1200,1253,1253,1191,1220,1204,1192,1195,1241,1248,1259,1249,1227,1246,1256,1266,1246,1221,1222,1199,1196,1199,1078,1074,1085,1106,1198,1335,1510,1760,1723,1740,1743,1715,1688,1660,1632,1604,1674,1548,1510,1496,1469,1437,1485,1382,1344,1326,1305,1264,1318,1224,1196,1159,1176,1109,1191,1095,1138,1101,1170,1170,1160,1248,1241,1220,1195,1192,1203,1248,1202,1230,1235,1213,1175,1199,1200,1215,1223,1184,1216,1271,1227,1229,1238,1207,1203,0,0,0,0,0,0,0,0,0,0,0,0,0,0,0,0,0,0,0,0,0,0,0,0,0,0,0,0,0,0,0,0,0,0,0,0,0,0,0,0,0,0,0,0,0,0,0,0,0,0,0,0,0,0,0,0,0,0,0,0,0,0,0,0,0,1227,1266,1238,1287,1393,1563,1773,1882,1986,1985,1971,1952,1908,1884,1872,1814,1864,1751,1720,1728,1703,1644,1591,1598,1540,1504,1460,1495,1453,1386,1369,1311,1336,1260,1247,1293,1234,1252,1298,1343,1300,1318,1332,1313,1320,1332,1326,1330,1337,1322,1335,1323,1333,1332,1342,1342,1344,1342,1367,1315,1341,1346,1363,1342,1336,1096,1091,1103,1126,1222,1364,1543,1792,1754,1771,1773,1745,1716,1688,1660,1631,1700,1575,1535,1521,1493,1461,1508,1404,1366,1347,1326,1284,1337,1243,1215,1177,1194,1127,1209,1112,1156,1118,1168,1174,1215,1467,1222,1159,1212,1306,1238,1182,1281,1250,1200,1205,1284,1261,1253,1168,1189,1188,1233,1238,1168,1225,1191,1196,1202,1653,1566,1609,1786,1918,2117,2323,2521,2493,2520,2505,2485,2502,2433,2307,2360,2357,2321,2227,2149,2075,2114,2083,1974,1899,2046,1843,1812,1868,1722,1688,1636,1675,1658,1685,1585,1559,1589,1742,1738,1755,1767,1763,1800,1770,1789,1759,1800,1794,1771,1762,1767,1785,1797,1786,1801,1796,1781,1788,1784,1772,1769,1799,1817,1765,1228,1180,1185,1227,1325,1504,1708,1922,1898,1926,1997,1979,1918,1904,1776,1780,1845,1720,1690,1660,1593,1563,1649,1502,1472,1476,1411,1381,1425,1320,1290,1259,1285,1208,1339,1194,1197,1200,1248,1246,1252,1258,1257,1261,1267,1284,1267,1274,1267,1269,1276,1274,1277,1276,1283,1294,1287,1290,1290,1282,1300,1294,1292,1297,1291,468,469,483,472,470,517,539,610,665,736,746,738,729,720,712,669,702,694,638,628,617,607,597,587,576,598,565,589,540,541,528,523,495,491,479,483,476,477,465,478,469,500,468,490,469,492,476,487,480,472,486,478,491,492,486,485,491,485,494,481,487,494,486,495,495,484,493,491,489,504,544,604,687,750,807,804,789,788,782,754,750,736,716,700,687,674,661,651,636,623,610,598,587,579,560,548,537,521,516,496,494,500,495,504,488,503,492,498,506,493,494,498,504,513,506,510,513,511,514,509,504,496,511,501,515,507,501,496,508,531,563,570,567,566,587,640,712,809,892,937,956,926,939,888,873,865,851,829,810,795,783,768,752,735,723,706,694,681,669,647,634,624,602,594,581,572,579,573,579,573,572,577,572,577,577,579,577,575,576,571,576,576,577,577,579,578,579,579,580,585,577,591,577,584,580,152,152,153,153,154,158,179,200,221,242,256,252,248,243,239,235,231,227,223,219,215,211,207,202,198,194,190,186,182,178,174,170,166,161,157,154,155,155,155,141,139,139,147,149,147,144,144,148,157,149,150,154,155,156,142,148,156,156,161,161,146,148,158,143,142,277,278,279,275,276,290,334,366,412,442,454,447,440,433,425,425,411,404,396,389,382,375,374,360,353,346,344,337,330,322,310,303,295,293,281,276,277,278,261,263,262,264,264,264,266,268,266,268,265,266,268,269,270,271,271,273,270,270,273,273,274,273,273,274,273,697,710,712,710,736,802,888,1021,1143,1184,1153,1156,1149,1111,1082,1048,1029,1043,1065,1020,976,939,932,914,886,906,835,855,801,797,779,798,749,744,726,714,724,708,698,706,713,723,720,725,709,725,707,748,723,740,724,723,747,769,740,732,743,735,737,739,744,751,724,732,725,1248,1286,1299,1375,1571,1688,1845,2002,2067,2076,2061,1994,1989,1958,1878,1886,1815,1833,1812,1810,1745,1751,1721,1632,1558,1565,1534,1458,1529,1435,1401,1369,1340,1281,1328,1267,1270,1309,1327,1352,1364,1366,1373,1358,1364,1396,1359,1359,1389,1343,1368,1363,1379,1386,1544,1495,1402,1367,1371,1361,1350,1348,1361,1417,1344,0,0,0,0,0,0,0,0,0,0,0,0,0,0,0,0,0,0,0,0,0,0,0,0,0,0,0,0,0,0,0,0,0,0,0,0,0,0,0,0,0,0,0,0,0,0,0,0,0,0,0,0,0,0,0,0,0,0,0,0,0,0,0,0,0,714,689,688,684,734,781,880,989,1053,1116,1184,1127,1064,1050,1047,1058,1032,993,987,971,939,937,908,886,866,855,829,826,795,798,769,752,724,714,693,689,691,693,694,698,699,721,712,705,736,709,705,738,730,713,713,712,700,709,709,720,710,702,702,707,707,709,712,715,702,498,499,493,484,488,529,591,657,723,769,825,764,752,740,772,824,704,692,680,668,656,644,632,654,608,596,614,572,588,575,562,538,535,522,510,487,507,508,501,502,500,500,514,513,540,544,510,522,516,519,516,510,511,530,525,514,518,509,506,515,511,522,514,525,509,468,469,483,472,470,517,539,610,665,736,746,738,729,720,712,669,702,694,638,628,617,607,597,587,576,598,565,589,540,541,528,523,495,491,479,483,476,477,465,478,469,500,468,490,469,492,476,487,480,472,486,478,491,492,486,485,491,485,494,481,487,494,486,495,495,260,261,262,263,263,276,313,350,424,544,529,539,533,527,441,466,428,422,415,408,402,395,352,345,338,331,324,317,310,303,296,289,282,275,268,264,265,266,254,251,255,256,253,263,257,265,264,258,266,255,257,256,256,261,258,257,256,258,256,255,256,258,257,264,259,533,526,527,561,536,585,705,740,816,861,880,854,840,826,811,799,785,770,769,743,771,752,702,687,674,657,646,624,618,605,591,576,563,549,536,532,534,536,531,541,534,544,546,546,545,556,536,546,538,538,539,550,549,546,549,552,541,546,554,541,537,536,542,550,539,544,537,539,541,548,599,679,759,837,882,900,873,859,845,844,816,802,800,786,760,745,731,717,703,689,674,660,656,632,617,603,589,575,561,548,544,545,547,550,546,550,545,556,559,550,559,556,605,559,549,559,559,555,563,561,559,550,565,550,567,556,554,552,561,567,660,662,709,703,685,796,856,1041,1044,1069,1068,1103,1038,1022,1007,1059,1041,965,948,981,915,900,878,897,844,865,809,791,825,757,777,722,730,730,673,670,672,674,680,690,683,692,693,700,692,706,691,697,685,687,691,701,700,694,699,695,693,690,706,703,691,694,691,699,691,460,461,463,464,467,506,574,681,708,739,743,733,723,713,703,702,689,677,665,653,643,633,616,604,592,580,568,556,544,531,519,507,495,493,471,467,468,469,460,465,464,477,487,485,486,509,486,495,494,507,504,483,492,516,490,480,494,501,485,492,495,501,491,491,490,118,118,118,119,119,121,137,152,168,183,194,191,188,185,182,179,176,173,170,167,164,161,158,155,152,149,146,143,140,137,134,131,128,125,122,119,120,120,112,103,103,103,103,104,103,104,103,106,104,103,104,104,104,103,105,104,104,104,104,105,104,104,104,105,105,1194,1130,1134,1169,1259,1464,1649,1766,1807,1904,1836,1784,1835,1736,1771,1727,1649,1662,1590,1561,1565,1503,1517,1487,1415,1386,1357,1367,1337,1278,1277,1233,1210,1160,1147,1180,1183,1187,1234,1218,1219,1212,1252,1289,1233,1248,1249,1277,1258,1283,1279,1283,1260,1289,1266,1256,1261,1256,1262,1329,1294,1312,1292,1290,1309,708,710,674,714,695,767,868,1072,1110,1130,1081,1115,1050,1083,1031,1049,1030,989,1004,976,938,911,931,903,865,837,820,802,785,767,817,772,715,732,692,680,682,723,686,686,701,723,695,712,692,707,692,700,706,700,693,700,707,724,709,709,699,702,707,707,708,712,697,717,707,0,0,0,0,0,0,0,0,0,0,0,0,0,0,0,0,0,0,0,0,0,0,0,0,0,0,0,0,0,0,0,0,0,0,0,0,0,0,0,0,0,0,0,0,0,0,0,0,0,0,0,0,0,0,0,0,0,0,0,0,0,0,0,0,0,641,662,661,656,680,705,821,911,1026,1097,1117,1057,1054,1039,1044,1015,990,970,945,913,893,924,827,835,795,820,782,765,764,733,697,684,725,677,626,650,624,654,641,654,652,651,662,659,666,654,654,659,655,655,656,662,671,682,671,683,664,670,671,657,662,655,669,674,653,260,261,262,263,263,276,313,350,424,544,529,539,533,527,441,466,428,422,415,408,402,395,352,345,338,331,324,317,310,303,296,289,282,275,268,264,265,266,254,251,255,256,253,263,257,265,264,258,266,255,257,256,256,261,258,257,256,258,256,255,256,258,257,264,259,452,437,438,439,473,470,532,580,678,650,658,649,657,631,621,612,618,612,603,594,585,575,567,558,550,541,532,523,536,496,486,476,466,486,477,471,474,473,454,448,448,453,471,476,480,477,469,480,479,462,471,460,457,472,463,461,473,460,454,469,470,479,472,480,467,818,816,790,815,831,960,1039,1241,1299,1291,1235,1216,1214,1228,1160,1158,1139,1174,1132,1136,1116,1111,1058,1055,996,974,986,936,914,914,894,851,852,844,800,815,827,832,833,808,813,818,854,850,838,863,837,867,852,847,838,823,827,846,838,823,852,830,824,839,833,858,837,843,836,895,893,868,896,927,1064,1163,1369,1429,1419,1363,1342,1337,1333,1275,1272,1254,1284,1242,1263,1243,1215,1158,1157,1091,1070,1070,1028,1001,1000,977,932,946,920,880,894,906,900,886,899,894,907,904,898,912,925,897,898,900,907,902,900,900,907,912,908,911,906,904,907,907,936,934,943,927,515,503,509,511,516,550,629,672,733,842,799,788,827,808,755,749,738,699,723,677,666,722,644,633,622,610,599,588,614,594,555,544,533,530,518,582,509,517,519,509,519,523,521,553,524,549,546,527,561,532,531,532,532,552,534,529,533,538,530,530,533,540,530,549,532,465,433,434,435,437,470,532,616,669,658,665,655,646,636,627,631,620,645,657,625,615,606,596,586,553,541,530,519,508,494,483,473,462,452,442,436,439,438,423,432,431,434,435,437,433,437,429,446,431,432,437,439,449,458,450,442,444,435,447,444,445,447,439,448,439,661,638,647,648,665,723,820,964,928,953,991,976,935,948,933,888,881,862,855,879,865,850,839,823,809,797,780,766,744,729,713,698,685,669,656,654,645,657,646,662,648,662,662,660,667,668,656,659,659,660,659,654,656,661,661,661,663,659,660,663,656,677,668,677,666,1566,1562,1567,1705,1857,2068,2281,2409,2553,2407,2425,2362,2349,2336,2225,2244,2162,2259,2156,2124,2084,2048,1971,1973,1921,1875,1870,1751,1767,1728,1737,1607,1597,1554,1582,1576,1600,1550,1671,1715,1678,1681,1712,1685,1703,1705,1709,1710,1719,1708,1719,1713,1719,1720,1732,1734,1732,1734,1757,1715,1738,1741,1762,1738,1732,549,538,528,521,527,595,644,684,799,814,812,857,790,819,780,762,762,723,742,689,721,733,655,654,643,661,610,599,628,577,565,554,543,540,528,525,519,528,513,509,511,509,514,511,518,519,517,517,518,519,522,523,521,524,523,521,527,524,522,519,526,530,532,531,530,657,655,644,646,663,722,817,897,961,985,990,976,965,947,933,934,909,907,916,878,864,849,836,821,807,819,778,764,742,727,711,696,681,665,653,650,676,653,668,660,659,660,669,662,669,663,668,667,664,662,677,670,675,668,667,672,663,671,664,671,671,671,666,662,660,0,0,0,0,0,0,0,0,0,0,0,0,0,0,0,0,0,0,0,0,0,0,0,0,0,0,0,0,0,0,0,0,0,0,0,0,0,0,0,0,0,0,0,0,0,0,0,0,0,0,0,0,0,0,0,0,0,0,0,0,0,0,0,0,0,452,437,438,439,473,470,532,580,678,650,658,649,657,631,621,612,618,612,603,594,585,575,567,558,550,541,532,523,536,496,486,476,466,486,477,471,474,473,454,448,448,453,471,476,480,477,469,480,479,462,471,460,457,472,463,461,473,460,454,469,470,479,472,480,467,0,0,0,0,0,0,0,0,0,0,0,0,0,0,0,0,0,0,0,0,0,0,0,0,0,0,0,0,0,0,0,0,0,0,0,0,0,0,0,0,0,0,0,0,0,0,0,0,0,0,0,0,0,0,0,0,0,0,0,0,0,0,0,0,0,511,513,512,513,519,568,641,719,791,837,844,832,814,810,787,775,757,751,735,722,722,695,683,668,657,640,627,614,601,588,574,566,570,533,518,517,518,520,518,515,510,525,515,529,513,529,518,521,523,525,526,523,536,542,538,539,530,533,534,530,544,542,545,554,548,590,590,589,593,605,664,753,841,921,969,970,963,936,933,1009,893,871,863,844,829,814,798,785,770,754,735,723,708,779,675,661,648,650,614,609,597,599,600,598,603,595,628,605,609,602,596,608,601,617,626,747,599,601,602,614,609,611,598,614,619,638,601,588,624,598,427,428,480,431,459,467,555,575,709,671,729,676,665,647,682,627,617,653,601,590,576,583,558,546,600,526,577,507,497,487,477,467,457,447,437,434,435,436,423,432,435,444,442,448,433,452,429,454,437,435,437,444,453,463,449,442,444,437,452,449,440,445,431,440,433,254,313,255,256,257,268,296,324,377,379,389,393,387,390,374,384,356,351,374,371,335,364,326,319,314,308,302,299,293,288,282,277,272,266,261,257,258,259,240,242,243,240,241,243,243,242,242,249,246,243,243,246,246,246,247,248,247,246,247,246,247,246,247,250,248,287,288,289,290,291,306,346,389,426,465,477,469,465,457,447,442,432,427,416,409,401,394,386,379,371,366,356,349,343,334,318,320,311,303,296,291,292,286,278,285,287,296,289,297,284,299,284,301,287,281,288,291,299,305,295,289,294,285,297,295,289,294,281,288,284,1278,1281,1291,1423,1450,1638,1837,1975,1989,2015,2143,2024,2029,1904,1922,1883,1853,1838,1813,1757,1713,1689,1657,1639,1596,1540,1526,1494,1456,1467,1360,1400,1333,1309,1264,1290,1331,1268,1364,1364,1319,1313,1357,1338,1346,1352,1348,1356,1412,1363,1368,1384,1386,1388,1363,1394,1392,1401,1435,1391,1376,1383,1430,1363,1364,438,439,440,450,517,478,533,600,696,684,741,702,678,672,656,686,629,619,655,644,629,605,570,558,558,548,527,528,508,532,521,486,476,490,447,444,445,454,447,448,452,461,458,470,464,480,469,463,480,480,462,463,464,475,460,457,468,471,467,456,461,465,455,468,457,285,286,286,287,288,304,345,385,426,465,477,469,461,454,446,439,431,423,416,408,400,393,385,377,395,362,355,347,339,332,324,316,324,301,293,289,290,291,280,285,280,285,289,289,287,299,285,286,288,292,282,288,288,294,296,289,293,291,292,289,287,299,282,288,286,379,380,382,383,384,414,515,518,596,598,738,605,587,590,571,605,626,559,570,560,549,543,513,551,485,475,466,456,446,483,427,421,451,399,389,387,386,428,410,385,387,387,384,389,389,391,388,389,391,385,387,387,386,386,393,389,388,387,388,391,386,393,389,394,392,0,0,0,0,0,0,0,0,0,0,0,0,0,0,0,0,0,0,0,0,0,0,0,0,0,0,0,0,0,0,0,0,0,0,0,0,0,0,0,0,0,0,0,0,0,0,0,0,0,0,0,0,0,0,0,0,0,0,0,0,0,0,0,0,0 ]);
