n = 10;
D = [200,193,122,274,288,159,264,123,90,199 ];
q = 0;
prec = array2d(1..0,1..2,[]);
steps = 64;
l = 360;
r = 0;
which = [];
interval = array2d(1..0,1..2,[]);
T = array3d(1..11,1..11,0..64,[0,0,0,0,0,0,0,0,0,0,0,0,0,0,0,0,0,0,0,0,0,0,0,0,0,0,0,0,0,0,0,0,0,0,0,0,0,0,0,0,0,0,0,0,0,0,0,0,0,0,0,0,0,0,0,0,0,0,0,0,0,0,0,0,0,998,1000,1009,1030,1054,1693,2106,2272,2402,2431,2413,2383,2367,2304,2252,2216,2203,2172,2149,2057,2011,1996,1964,1873,1879,1727,1593,1554,1386,1223,1264,1085,1065,1034,1020,1012,1020,1022,979,980,984,983,980,993,984,989,989,987,988,994,994,995,994,1005,1000,993,990,992,994,992,1000,995,998,1005,998,764,770,756,774,784,1206,1554,1714,1860,1844,1896,1831,1830,1746,1767,1688,1657,1675,1617,1631,1537,1507,1536,1446,1435,1497,1398,1367,1281,1165,961,803,783,792,779,776,783,747,767,766,773,779,784,786,785,789,783,786,787,796,777,790,796,803,786,800,787,779,797,800,796,800,795,799,793,1049,1056,1043,1068,1207,1870,2383,2546,2654,2635,2663,2579,2562,2462,2474,2370,2343,2324,2265,2264,2156,2097,2120,2014,1986,2030,1917,1737,1400,1364,1271,1100,1072,1085,1069,1068,1077,1057,1063,1068,1076,1072,1083,1078,1085,1090,1079,1088,1080,1082,1077,1087,1090,1098,1091,1087,1089,1080,1085,1092,1085,1090,1094,1095,1089,592,590,596,605,610,837,1178,1306,1412,1449,1483,1436,1442,1417,1365,1368,1345,1296,1304,1279,1225,1228,1205,1181,1132,1133,1101,1062,1039,962,815,779,740,616,613,600,602,608,565,563,563,564,563,570,565,571,566,568,569,570,570,571,570,581,576,574,570,573,571,574,576,574,574,581,578,1112,1116,1113,1145,1192,1808,2318,2580,2713,2700,2674,2641,2606,2563,2520,2475,2441,2400,2349,2337,2289,2192,2206,2130,2103,2091,1936,1738,1427,1365,1227,1192,1143,1142,1140,1140,1135,1121,1101,1093,1089,1124,1112,1129,1120,1126,1134,1132,1129,1126,1136,1138,1126,1121,1124,1119,1130,1131,1119,1121,1126,1125,1119,1118,1117,543,522,553,549,549,710,1033,1147,1280,1337,1342,1333,1297,1269,1246,1233,1190,1183,1161,1145,1088,1093,1081,1067,1048,1034,1005,975,968,781,703,684,610,564,555,547,557,548,496,499,494,505,504,511,499,500,505,509,508,511,511,512,511,513,513,515,511,514,512,515,514,515,509,513,511,979,966,999,1010,1056,1606,1970,2207,2338,2384,2360,2332,2300,2244,2188,2151,2109,2027,2065,2051,1988,1964,1881,1876,1854,1774,1515,1567,1440,1080,1127,1035,1054,1009,1011,1006,1008,1018,978,987,995,1001,1023,1015,1009,1014,1001,1025,1019,1008,991,1005,1023,1012,1009,1016,1009,1005,1011,1018,1024,1022,1005,1000,992,818,819,821,828,874,1283,1638,1831,1925,1981,1962,1926,1905,1897,1837,1806,1800,1682,1712,1702,1671,1642,1611,1566,1545,1502,1462,1432,1351,1204,1094,929,918,832,832,832,863,868,824,839,834,848,849,840,842,847,836,849,848,844,844,862,858,852,866,864,856,854,858,859,859,848,845,848,840,252,253,254,252,256,397,459,513,567,710,633,622,613,603,592,577,572,562,552,542,532,522,512,501,492,482,466,462,451,441,427,421,406,400,257,256,257,281,246,244,248,252,248,248,248,253,248,251,251,254,253,282,282,286,254,252,249,256,253,252,248,284,252,252,251,0,0,0,0,0,0,0,0,0,0,0,0,0,0,0,0,0,0,0,0,0,0,0,0,0,0,0,0,0,0,0,0,0,0,0,0,0,0,0,0,0,0,0,0,0,0,0,0,0,0,0,0,0,0,0,0,0,0,0,0,0,0,0,0,0,887,880,883,892,914,1510,1742,1936,2109,2147,2131,2102,2060,2026,1992,1966,1932,1890,1861,1822,1789,1765,1736,1678,1667,1633,1587,1552,1527,1237,966,943,954,936,918,898,894,905,880,881,884,887,885,888,884,884,879,891,883,884,886,888,898,902,893,888,890,887,890,890,892,892,886,891,886,0,0,0,0,0,0,0,0,0,0,0,0,0,0,0,0,0,0,0,0,0,0,0,0,0,0,0,0,0,0,0,0,0,0,0,0,0,0,0,0,0,0,0,0,0,0,0,0,0,0,0,0,0,0,0,0,0,0,0,0,0,0,0,0,0,694,696,698,704,832,1139,1500,1682,1782,1820,1813,1780,1764,1716,1699,1652,1620,1588,1556,1524,1491,1460,1428,1395,1363,1332,1299,1279,1236,1174,1088,993,901,718,708,714,711,714,704,712,720,776,728,727,724,790,715,725,719,715,717,729,725,732,790,786,725,724,730,720,714,717,727,727,716,912,920,923,965,1157,1723,2206,2383,2449,2485,2480,2416,2414,2324,2292,2232,2185,2139,2092,2185,2000,1954,1933,1862,1815,1792,1746,1708,1348,1056,1020,1076,964,944,936,981,944,1026,1004,1008,1013,1012,1018,1025,1020,1025,1026,1026,1019,1013,1022,1028,1024,1028,1034,1029,1030,1026,1031,1029,1028,1041,1047,1042,1033,486,487,488,490,500,792,898,1002,1148,1200,1204,1185,1166,1147,1128,1108,1089,1069,1050,1030,1011,992,973,954,934,915,896,877,858,838,819,799,650,507,496,493,494,496,474,476,482,484,490,478,480,504,485,490,495,479,490,484,503,505,508,505,503,492,489,490,490,492,487,512,484,983,991,996,1049,1202,1895,2378,2551,2614,2647,2648,2572,2577,2475,2440,2378,2330,2281,2233,2322,2136,2086,2062,1989,1948,1915,1875,1754,1475,1132,1093,1198,1036,1015,1008,1090,1008,1090,1067,1072,1077,1075,1080,1086,1084,1089,1087,1090,1083,1077,1086,1091,1087,1092,1095,1090,1091,1089,1092,1090,1089,1102,1104,1103,1094,557,559,560,562,565,760,1047,1150,1308,1371,1376,1354,1333,1311,1285,1265,1241,1209,1188,1174,1151,1136,1116,1094,1072,1035,1028,1005,984,905,845,773,716,582,571,565,566,554,517,520,516,518,525,522,523,526,519,528,521,518,522,524,526,530,533,527,525,521,528,532,526,536,542,540,533,734,738,740,703,758,1225,1497,1605,1760,1803,1744,1770,1741,1672,1632,1653,1531,1594,1561,1489,1465,1437,1400,1411,1384,1354,1325,1266,1092,1212,1021,998,778,760,750,700,703,708,704,710,708,713,715,717,712,770,716,713,714,715,712,720,720,781,721,721,782,720,723,781,726,780,721,728,727,602,604,606,602,621,972,1186,1324,1430,1478,1478,1455,1431,1407,1384,1360,1338,1314,1290,1267,1243,1220,1196,1173,1149,1125,1092,1078,1056,997,943,921,747,625,614,605,613,615,604,598,603,604,609,620,606,615,608,616,628,628,620,613,617,647,631,621,617,620,612,633,629,635,639,650,628,722,724,726,732,742,1078,1407,1552,1733,1772,1767,1738,1711,1682,1654,1626,1606,1569,1545,1513,1480,1456,1428,1392,1384,1344,1315,1287,1199,1140,956,945,786,791,736,732,735,707,700,700,705,713,711,702,710,710,705,710,709,710,710,714,719,724,719,714,716,713,716,716,718,718,712,705,702,887,880,883,892,914,1510,1742,1936,2109,2147,2131,2102,2060,2026,1992,1966,1932,1890,1861,1822,1789,1765,1736,1678,1667,1633,1587,1552,1527,1237,966,943,954,936,918,898,894,905,880,881,884,887,885,888,884,884,879,891,883,884,886,888,898,902,893,888,890,887,890,890,892,892,886,891,886,828,832,832,836,850,1335,1632,1863,1980,2018,2009,1977,1944,1915,1889,1852,1819,1789,1758,1721,1689,1658,1627,1592,1559,1527,1495,1452,1136,1116,1076,984,880,855,844,843,844,831,793,784,788,801,804,804,796,803,805,796,800,800,800,795,803,813,804,807,800,795,800,809,807,808,809,804,804,648,656,656,655,676,980,1276,1425,1531,1575,1574,1579,1526,1498,1473,1448,1445,1423,1434,1347,1356,1354,1305,1301,1221,1215,1171,1205,1020,1096,966,913,795,664,652,650,652,653,654,670,640,638,665,647,657,664,658,665,677,659,661,672,674,676,660,681,677,676,683,659,669,676,681,658,657,0,0,0,0,0,0,0,0,0,0,0,0,0,0,0,0,0,0,0,0,0,0,0,0,0,0,0,0,0,0,0,0,0,0,0,0,0,0,0,0,0,0,0,0,0,0,0,0,0,0,0,0,0,0,0,0,0,0,0,0,0,0,0,0,0,431,432,433,434,439,726,856,984,1114,1222,1190,1182,1159,1136,1113,1090,1068,1084,1022,999,978,955,932,909,921,898,841,818,795,774,770,728,464,455,440,438,440,444,441,435,438,439,444,447,444,442,443,448,460,446,450,455,454,459,448,449,447,464,453,447,444,447,456,578,448,393,394,396,396,400,652,740,831,914,970,982,963,948,932,916,901,885,870,854,838,823,807,792,784,760,744,728,712,704,681,666,650,634,412,403,399,400,401,373,367,375,380,382,381,373,385,383,373,376,375,376,377,378,402,385,383,378,386,378,384,385,385,386,384,384,501,503,504,518,516,850,997,1144,1288,1394,1357,1346,1321,1296,1270,1253,1219,1235,1168,1143,1118,1093,1078,1042,1054,1028,967,942,916,891,821,787,537,527,512,509,512,508,505,498,502,503,507,509,508,506,507,512,524,510,514,519,518,522,512,513,511,528,516,511,506,510,519,537,510,406,406,408,420,425,678,765,850,972,1040,1047,1031,981,963,947,930,915,899,891,867,849,833,817,801,784,769,753,735,720,703,687,670,655,480,436,432,423,425,392,387,391,396,397,399,391,397,400,391,395,395,395,398,399,424,400,400,395,407,400,405,405,405,401,400,400,1016,1050,1043,1060,1338,1894,2192,2346,2454,2508,2477,2496,2392,2387,2321,2274,2230,2190,2151,2111,2088,2019,2004,1952,1965,1728,1710,1594,1492,1332,1164,1131,1104,1107,1046,1085,1066,1053,1064,1070,1071,1078,1084,1077,1088,1078,1079,1074,1081,1082,1088,1087,1088,1089,1092,1091,1088,1097,1089,1095,1091,1085,1087,1085,1078,888,891,893,905,984,1610,1840,2029,2125,2161,2150,2139,2082,2068,2033,1980,1945,1911,1876,1842,1824,1773,1740,1705,1671,1636,1603,1568,1360,1000,977,954,932,933,903,901,904,905,896,896,902,901,907,908,911,906,908,900,906,911,906,905,907,912,915,914,911,915,908,919,929,923,927,917,910,612,614,615,618,644,968,1210,1352,1455,1502,1502,1478,1454,1430,1408,1382,1358,1334,1311,1285,1262,1238,1215,1190,1165,1142,1117,1095,1077,1052,847,773,719,637,624,621,622,623,585,576,580,593,596,596,588,595,597,588,592,592,592,587,595,605,596,599,592,587,592,601,599,600,601,596,596,828,832,832,836,850,1335,1632,1863,1980,2018,2009,1977,1944,1915,1889,1852,1819,1789,1758,1721,1689,1658,1627,1592,1559,1527,1495,1452,1136,1116,1076,984,880,855,844,843,844,831,793,784,788,801,804,804,796,803,805,796,800,800,800,795,803,813,804,807,800,795,800,809,807,808,809,804,804,1120,1138,1132,1156,1439,1990,2532,2691,2819,2811,2785,2764,2703,2655,2619,2596,2520,2480,2445,2370,2322,2305,2227,2177,2131,2078,1855,1732,1578,1408,1348,1224,1200,1170,1153,1152,1116,1120,1111,1107,1113,1127,1124,1135,1121,1134,1129,1138,1133,1129,1132,1144,1142,1135,1167,1144,1140,1145,1145,1158,1140,1142,1141,1142,1136,956,989,963,1004,1154,1881,2131,2338,2430,2517,2449,2416,2373,2330,2340,2235,2257,2221,2107,2065,2022,1978,1982,1899,1850,1808,1656,1712,1575,1463,1103,1034,1028,985,1001,1002,975,1001,1003,1008,1008,1009,1016,1007,1011,1015,1015,1015,1014,1018,1021,1028,1030,1031,1021,1021,1021,1016,1019,1030,1028,1024,1008,1020,1019,389,390,391,392,396,663,789,908,1023,1089,1093,1072,1052,1032,1010,990,969,949,927,907,886,866,844,824,804,783,762,741,721,700,656,638,556,412,398,396,398,400,394,400,400,404,466,401,408,406,400,403,400,404,401,411,408,473,480,473,413,410,406,400,400,400,472,408,400,0,0,0,0,0,0,0,0,0,0,0,0,0,0,0,0,0,0,0,0,0,0,0,0,0,0,0,0,0,0,0,0,0,0,0,0,0,0,0,0,0,0,0,0,0,0,0,0,0,0,0,0,0,0,0,0,0,0,0,0,0,0,0,0,0,708,709,712,732,799,1300,1515,1711,1834,1884,1875,1842,1808,1774,1740,1706,1682,1645,1621,1572,1538,1504,1485,1437,1404,1370,1336,1303,1269,1236,924,897,886,735,720,719,723,713,708,711,710,722,719,715,719,738,709,715,712,712,713,748,724,721,741,722,719,718,742,743,715,718,721,723,717,76,76,76,116,116,117,132,145,159,172,184,182,180,176,174,171,168,165,163,160,157,154,152,148,146,144,141,138,135,133,129,127,124,122,118,116,116,117,64,64,63,64,64,63,62,64,64,64,64,64,64,64,64,64,63,64,64,64,64,63,64,62,63,63,62,719,722,735,764,786,1318,1594,1780,1896,1912,1901,1876,1832,1798,1769,1736,1701,1666,1639,1597,1562,1528,1502,1460,1425,1389,1356,1327,1292,1263,1009,980,780,758,754,752,746,732,728,727,726,737,738,733,732,757,727,734,733,731,734,755,739,735,762,739,740,740,758,760,735,733,737,738,732,1316,1327,1359,1512,1855,2855,3055,3228,3332,3330,3330,3241,3180,3126,3085,3013,3011,3001,2856,2719,2699,2602,2493,2440,2080,1958,1598,1767,1718,1512,1521,1401,1414,1353,1380,1343,1359,1368,1393,1384,1372,1380,1402,1404,1402,1410,1409,1404,1411,1403,1404,1403,1403,1408,1403,1403,1404,1407,1404,1400,1404,1403,1402,1404,1402,1212,1208,1219,1325,1480,2419,2746,2907,3006,3034,3006,2954,2904,2852,2800,2748,2754,2729,2594,2558,2502,2440,2427,2331,1974,1931,1806,1741,1684,1492,1358,1284,1284,1246,1222,1222,1228,1230,1233,1237,1227,1238,1241,1243,1246,1247,1247,1244,1243,1248,1246,1262,1256,1256,1254,1269,1260,1249,1251,1268,1263,1284,1252,1253,1252,951,929,931,938,1168,1775,2056,2309,2350,2392,2374,2332,2290,2256,2266,2172,2130,2087,2045,2004,1961,1918,1925,1837,1798,1756,1750,1647,1422,1316,1106,1004,977,956,942,941,908,912,903,899,905,919,916,927,913,930,921,932,925,921,924,936,934,927,959,936,932,937,937,950,932,934,933,934,928,1120,1138,1132,1156,1439,1990,2532,2691,2819,2811,2785,2764,2703,2655,2619,2596,2520,2480,2445,2370,2322,2305,2227,2177,2131,2078,1855,1732,1578,1408,1348,1224,1200,1170,1153,1152,1116,1120,1111,1107,1113,1127,1124,1135,1121,1134,1129,1138,1133,1129,1132,1144,1142,1135,1167,1144,1140,1145,1145,1158,1140,1142,1141,1142,1136,573,578,580,582,585,740,1055,1209,1331,1409,1422,1405,1374,1347,1327,1310,1283,1260,1239,1215,1193,1169,1147,1123,1101,1079,1055,1033,1016,882,787,709,630,602,596,586,588,568,511,511,513,517,513,520,514,522,520,519,521,517,518,520,518,522,521,520,516,521,514,519,515,517,514,520,513,486,488,489,491,513,526,724,930,986,1108,1112,1094,1077,1060,1043,1026,1008,991,914,958,942,866,907,890,873,856,701,823,599,492,681,593,570,488,495,513,475,516,472,465,461,466,476,477,481,480,472,481,486,479,476,478,478,491,479,476,481,479,480,476,478,483,483,483,483,398,408,400,401,405,555,750,838,962,984,990,974,958,943,927,910,895,879,864,848,852,816,800,784,769,752,736,721,705,690,640,554,428,417,407,404,415,406,406,400,402,411,412,415,412,418,416,415,415,416,419,411,414,424,420,415,419,417,411,418,420,427,418,419,418,617,632,620,623,722,1123,1376,1508,1615,1702,1717,1632,1602,1572,1540,1510,1480,1449,1419,1416,1358,1328,1286,1267,1237,1206,1176,1146,1114,1106,1038,950,855,759,629,642,632,649,632,629,644,704,639,651,635,652,635,667,645,635,644,643,670,716,668,649,650,640,651,651,651,653,638,653,644,0,0,0,0,0,0,0,0,0,0,0,0,0,0,0,0,0,0,0,0,0,0,0,0,0,0,0,0,0,0,0,0,0,0,0,0,0,0,0,0,0,0,0,0,0,0,0,0,0,0,0,0,0,0,0,0,0,0,0,0,0,0,0,0,0,688,708,692,696,741,1267,1537,1681,1795,1878,1891,1794,1761,1728,1695,1662,1629,1596,1563,1568,1497,1464,1420,1398,1365,1332,1299,1275,1233,1034,941,888,734,751,700,738,704,713,696,692,708,734,702,713,699,716,699,731,709,699,708,707,734,762,732,713,714,704,714,715,713,716,701,715,706,162,162,167,168,168,175,277,306,339,371,356,350,344,339,369,361,357,351,343,339,332,325,319,314,307,300,296,288,282,277,270,263,259,252,172,168,169,169,119,113,113,113,114,115,114,117,114,114,115,116,115,116,116,118,118,119,117,118,117,117,119,119,119,120,119,762,765,745,770,785,1135,1452,1704,1825,1872,1843,1845,1807,1776,1728,1732,1696,1627,1578,1563,1543,1515,1484,1455,1462,1376,1363,1350,1220,1085,821,824,822,765,776,774,797,783,752,755,764,770,771,783,772,782,772,776,779,784,777,779,783,794,787,782,784,779,787,792,790,790,781,790,785,612,615,616,618,632,882,1167,1303,1427,1497,1503,1479,1455,1443,1407,1394,1359,1335,1312,1299,1264,1240,1216,1192,1168,1144,1120,1107,1072,1064,944,815,706,636,624,622,623,626,594,592,594,608,602,606,602,605,604,607,604,605,602,603,601,600,602,605,610,606,602,602,609,613,613,613,613,357,361,364,364,365,500,639,725,801,875,900,891,871,852,842,828,812,797,784,770,756,741,726,712,696,683,668,654,640,626,558,547,536,379,376,366,368,360,303,303,305,309,305,312,306,314,312,311,313,309,310,312,310,314,313,312,308,313,306,311,307,309,306,312,305,573,578,580,582,585,740,1055,1209,1331,1409,1422,1405,1374,1347,1327,1310,1283,1260,1239,1215,1193,1169,1147,1123,1101,1079,1055,1033,1016,882,787,709,630,602,596,586,588,568,511,511,513,517,513,520,514,522,520,519,521,517,518,520,518,522,521,520,516,521,514,519,515,517,514,520,513,1133,1133,1152,1168,1435,1961,2520,2711,2778,2796,2787,2728,2714,2640,2595,2552,2520,2463,2419,2374,2330,2286,2265,2216,2167,2116,1872,1698,1508,1283,1252,1217,1216,1160,1150,1147,1136,1141,1133,1140,1146,1133,1148,1150,1148,1154,1158,1163,1164,1153,1164,1167,1172,1166,1169,1169,1157,1164,1166,1173,1160,1169,1159,1168,1157,1003,1010,984,1024,1178,1935,2185,2440,2540,2516,2508,2463,2446,2374,2383,2378,2240,2210,2149,2103,2060,2048,1974,1930,1887,1872,1691,1730,1586,1463,1249,1076,1034,1005,997,1018,1018,1000,1023,1024,1024,1023,1029,1029,1035,1038,1040,1045,1044,1047,1047,1050,1048,1053,1053,1045,1048,1047,1051,1048,1042,1046,1049,1056,1042,409,411,412,412,417,710,834,957,1076,1138,1142,1120,1099,1077,1056,1034,1012,992,970,949,927,906,884,862,841,819,799,777,756,734,712,589,526,432,419,416,419,421,407,412,417,428,413,416,411,413,414,410,413,414,411,416,414,416,417,423,420,420,420,423,421,448,424,448,424,85,85,129,129,129,132,148,164,181,196,210,206,204,200,196,194,190,187,184,181,177,175,171,168,165,162,158,156,152,148,146,142,139,136,133,130,130,130,74,73,74,74,74,74,74,75,74,74,74,75,75,75,75,75,75,75,75,75,76,75,75,76,76,76,76,728,730,732,739,783,1343,1567,1776,1886,1933,1922,1887,1869,1825,1798,1864,1716,1681,1652,1627,1578,1558,1509,1474,1452,1407,1382,1340,1302,1268,945,880,784,755,755,749,744,730,719,731,724,742,730,738,735,750,737,742,741,739,742,742,755,745,756,756,750,753,750,748,753,765,749,749,748,0,0,0,0,0,0,0,0,0,0,0,0,0,0,0,0,0,0,0,0,0,0,0,0,0,0,0,0,0,0,0,0,0,0,0,0,0,0,0,0,0,0,0,0,0,0,0,0,0,0,0,0,0,0,0,0,0,0,0,0,0,0,0,0,0,740,742,765,764,857,1361,1640,1843,1959,1961,1958,1913,1888,1844,1817,1884,1744,1718,1672,1646,1611,1575,1532,1504,1469,1425,1398,1356,1327,1291,1030,928,800,788,774,763,756,749,739,747,740,757,749,757,748,767,755,761,761,758,763,763,770,766,777,773,771,775,772,768,773,782,765,764,763,1248,1251,1295,1417,1879,2902,3106,3260,3383,3378,3377,3288,3297,3174,3108,3176,2994,2955,2934,2789,2790,2560,2554,2440,2176,1948,1756,1789,1675,1492,1452,1387,1344,1336,1274,1275,1295,1299,1329,1320,1309,1316,1338,1341,1340,1346,1345,1340,1347,1339,1340,1339,1339,1344,1340,1339,1340,1343,1340,1337,1340,1341,1339,1341,1340,1233,1238,1240,1343,1504,2578,2782,2958,3055,3088,3051,3004,3022,2894,2842,2904,2738,2685,2688,2581,2529,2452,2425,2196,2040,1958,1793,1761,1684,1373,1338,1334,1298,1266,1291,1243,1253,1250,1253,1262,1260,1261,1268,1287,1272,1289,1268,1276,1273,1272,1273,1275,1284,1289,1303,1290,1284,1277,1286,1296,1277,1294,1302,1289,1275,973,950,952,980,1178,1658,2109,2297,2402,2442,2422,2379,2334,2293,2258,2270,2172,2184,2086,2043,2001,1957,1914,1871,1828,1791,1750,1647,1287,1259,1179,1025,998,976,962,961,928,933,925,933,938,944,940,949,940,957,952,958,956,945,956,959,964,958,965,970,949,956,958,965,952,961,951,960,949,1133,1133,1152,1168,1435,1961,2520,2711,2778,2796,2787,2728,2714,2640,2595,2552,2520,2463,2419,2374,2330,2286,2265,2216,2167,2116,1872,1698,1508,1283,1252,1217,1216,1160,1150,1147,1136,1141,1133,1140,1146,1133,1148,1150,1148,1154,1158,1163,1164,1153,1164,1167,1172,1166,1169,1169,1157,1164,1166,1173,1160,1169,1159,1168,1157,456,456,459,459,460,568,837,941,1040,1118,1126,1106,1088,1077,1053,1035,1023,998,987,963,945,927,908,894,874,859,838,822,802,786,612,508,495,477,464,460,464,464,422,415,415,414,415,417,416,418,415,429,417,416,417,418,417,415,421,418,415,419,415,419,415,414,414,414,414,549,522,547,533,558,706,1008,1185,1282,1290,1300,1338,1258,1293,1272,1186,1166,1155,1124,1104,1142,1119,1052,1030,1059,989,945,959,841,728,585,714,556,572,532,560,562,564,527,530,526,546,531,542,536,541,533,543,534,530,541,550,550,553,554,552,552,552,552,552,552,552,552,552,552,388,389,390,392,393,541,744,834,924,990,994,979,965,945,933,916,895,878,861,844,828,812,795,778,762,745,732,711,694,678,603,563,554,408,397,394,395,397,376,380,386,408,407,432,397,413,394,406,401,393,401,396,408,408,429,394,403,399,395,419,400,405,400,408,398,668,675,678,679,697,1057,1393,1617,1753,1810,1790,1767,1738,1701,1641,1640,1614,1570,1538,1494,1508,1447,1411,1382,1341,1315,1279,1243,1210,1177,986,735,719,721,691,684,687,692,691,676,688,715,684,703,689,721,695,721,706,686,700,696,704,731,721,699,698,701,696,690,703,724,694,724,694,135,135,136,136,136,211,240,267,296,324,340,334,330,324,319,313,308,302,297,291,285,280,274,270,264,259,253,248,242,236,231,225,220,214,210,136,137,137,103,103,107,111,104,104,105,105,105,103,103,104,104,104,103,106,105,104,104,104,104,104,104,104,104,104,104,744,746,748,749,792,1188,1549,1790,1923,1977,1953,1928,1897,1857,1804,1791,1763,1716,1681,1642,1653,1584,1548,1513,1470,1441,1402,1363,1277,1042,858,808,791,785,762,755,759,756,755,739,752,754,747,765,753,785,759,785,770,750,764,760,768,795,783,763,762,765,759,754,765,788,757,788,756,0,0,0,0,0,0,0,0,0,0,0,0,0,0,0,0,0,0,0,0,0,0,0,0,0,0,0,0,0,0,0,0,0,0,0,0,0,0,0,0,0,0,0,0,0,0,0,0,0,0,0,0,0,0,0,0,0,0,0,0,0,0,0,0,0,827,850,862,844,860,1238,1699,1875,1998,2011,1951,2062,1975,1897,1955,1912,1846,1790,1746,1707,1701,1627,1604,1589,1556,1517,1507,1441,1327,1085,919,864,896,888,876,876,868,860,833,833,833,833,833,833,834,834,833,833,833,833,833,833,833,834,834,833,833,833,833,833,833,833,833,833,833,699,701,703,697,704,989,1311,1550,1645,1689,1646,1688,1627,1608,1581,1537,1510,1529,1482,1430,1430,1402,1358,1348,1298,1272,1265,1218,1191,1064,922,848,724,716,696,703,695,720,670,670,670,670,670,670,671,671,670,670,670,670,670,670,670,671,671,670,670,670,670,670,670,670,670,670,670,239,240,240,241,241,362,433,484,543,584,598,589,579,570,560,550,541,531,522,512,502,493,483,474,464,454,446,436,427,417,408,398,388,355,346,242,243,244,214,207,207,206,207,209,208,210,207,221,209,208,209,210,209,207,213,210,207,211,207,211,207,206,206,206,206,456,456,459,459,460,568,837,941,1040,1118,1126,1106,1088,1077,1053,1035,1023,998,987,963,945,927,908,894,874,859,838,822,802,786,612,508,495,477,464,460,464,464,422,415,415,414,415,417,416,418,415,429,417,416,417,418,417,415,421,418,415,419,415,419,415,414,414,414,414,893,896,921,892,922,1370,1877,2047,2139,2167,2116,2117,2044,2042,1981,1982,1936,1920,1880,1824,1806,1742,1753,1711,1756,1606,1597,1532,1326,1195,1182,936,945,924,910,906,912,890,898,904,906,914,912,919,912,918,915,915,922,914,913,919,915,923,919,919,919,923,919,919,918,923,919,924,920,727,724,705,756,776,1013,1498,1660,1777,1832,1758,1729,1732,1759,1694,1611,1659,1600,1573,1558,1479,1466,1419,1392,1371,1404,1318,1342,1269,1197,1061,956,802,752,744,740,750,741,747,746,748,747,748,752,751,751,752,750,759,749,753,752,750,756,752,752,752,756,752,752,751,756,752,757,753,1010,1017,1020,1136,1254,1918,2380,2609,2560,2593,2572,2529,2535,2475,2407,2401,2347,2314,2238,2234,2184,2143,2115,2026,2057,1941,1926,1751,1488,1344,1148,1104,1071,1040,1031,1037,1048,1058,1082,1085,1095,1094,1095,1099,1098,1098,1099,1097,1106,1089,1096,1099,1097,1096,1099,1094,1091,1103,1099,1099,1098,1103,1099,1104,1100,1256,1242,1286,1393,1935,2715,3160,3263,3284,3309,3275,3215,3158,3129,3041,3016,2950,2901,2800,2791,2726,2662,2612,2320,2459,2225,2015,1826,1746,1437,1546,1330,1292,1268,1276,1284,1364,1296,1334,1332,1342,1353,1357,1348,1357,1353,1371,1359,1362,1366,1390,1386,1380,1367,1371,1365,1377,1370,1364,1366,1363,1372,1370,1364,1360,722,724,726,748,741,1164,1480,1635,1699,1741,1736,1708,1681,1683,1626,1632,1594,1573,1514,1524,1489,1468,1450,1375,1406,1320,1315,1288,1265,1143,1101,766,851,741,722,732,732,723,721,715,718,717,722,725,725,725,726,724,733,723,727,726,724,730,726,726,726,730,726,726,725,730,726,731,727,1323,1296,1338,1478,2095,2888,3327,3424,3442,3465,3427,3366,3310,3279,3184,3157,3087,3037,2934,2922,2854,2790,2460,2172,2328,2091,1884,1867,1723,1510,1473,1400,1363,1332,1328,1348,1338,1359,1398,1396,1405,1415,1421,1412,1421,1417,1435,1423,1426,1430,1447,1449,1432,1431,1435,1429,1439,1434,1426,1429,1426,1434,1432,1426,1422,773,784,778,780,800,1264,1603,1762,1803,1863,1874,1844,1797,1779,1720,1744,1707,1681,1620,1627,1590,1530,1537,1455,1498,1396,1405,1376,1351,1116,1186,893,802,787,782,785,792,776,772,772,773,772,773,777,776,776,777,775,784,774,778,777,775,781,777,777,777,781,777,777,776,781,777,782,778,0,0,0,0,0,0,0,0,0,0,0,0,0,0,0,0,0,0,0,0,0,0,0,0,0,0,0,0,0,0,0,0,0,0,0,0,0,0,0,0,0,0,0,0,0,0,0,0,0,0,0,0,0,0,0,0,0,0,0,0,0,0,0,0,0,197,198,199,199,200,376,354,474,436,579,585,487,480,471,548,456,447,440,432,502,500,408,400,392,385,376,369,361,354,345,337,330,321,373,306,200,360,361,196,196,292,296,197,200,199,298,200,198,202,199,198,197,198,200,199,199,199,199,198,198,198,200,197,200,198,727,732,764,735,745,1066,1470,1665,1746,1805,1752,1731,1695,1698,1640,1646,1609,1573,1562,1514,1502,1453,1461,1422,1448,1332,1324,1300,1242,1003,1045,776,776,768,750,749,752,707,724,724,724,725,726,730,729,729,730,728,737,727,731,730,728,730,730,730,730,734,730,730,729,734,730,735,731,893,896,921,892,922,1370,1877,2047,2139,2167,2116,2117,2044,2042,1981,1982,1936,1920,1880,1824,1806,1742,1753,1711,1756,1606,1597,1532,1326,1195,1182,936,945,924,910,906,912,890,898,904,906,914,912,919,912,918,915,915,922,914,913,919,915,923,919,919,919,923,919,919,918,923,919,924,920,768,771,775,767,784,1350,1537,1717,1821,1839,1874,1804,1813,1747,1707,1692,1662,1629,1648,1570,1542,1522,1515,1454,1428,1395,1396,1336,1253,1297,1090,982,894,776,789,781,767,778,753,749,759,756,760,772,755,760,766,799,771,766,769,772,796,795,780,776,802,777,772,785,800,809,793,788,776,634,636,638,640,669,1113,1262,1410,1515,1564,1638,1617,1513,1488,1460,1435,1428,1411,1360,1338,1323,1287,1261,1236,1210,1185,1171,1136,1111,1064,879,857,819,657,646,644,647,655,638,645,651,662,654,652,647,664,656,653,650,652,645,660,650,662,664,664,661,664,653,665,661,666,666,666,666,991,985,945,968,1172,1612,2041,2194,2284,2316,2298,2359,2226,2188,2150,2111,2164,2038,2001,1964,2004,1888,1851,1813,1771,1810,1698,1597,1491,1156,1033,1008,984,964,956,956,947,981,967,976,987,1009,982,983,984,978,991,986,976,980,977,983,982,984,983,985,984,986,982,980,984,1013,1008,1008,990,1207,1211,1214,1261,1775,2212,2817,2961,3034,3025,2989,2969,2915,2863,2808,2755,2700,2648,2592,2530,2485,2435,2380,2277,2191,2126,1942,1646,1580,1541,1316,1298,1271,1241,1227,1230,1241,1214,1202,1204,1209,1268,1228,1220,1221,1221,1247,1234,1221,1236,1244,1254,1247,1225,1237,1236,1242,1235,1230,1232,1247,1242,1250,1272,1233,589,591,591,595,668,949,1161,1298,1405,1453,1449,1515,1407,1384,1360,1338,1375,1291,1268,1244,1221,1198,1174,1152,1124,1105,1082,1058,1035,1009,988,885,731,612,601,598,600,600,614,595,596,632,606,617,600,609,612,611,621,611,616,608,600,616,622,612,602,610,610,611,611,604,616,640,608,1277,1283,1287,1336,1922,2381,2985,3124,3195,3181,3144,3121,3066,3013,2956,2898,2841,2785,2732,2664,2616,2563,2454,2125,2142,1995,1800,1515,1655,1448,1388,1369,1342,1312,1299,1294,1305,1277,1266,1268,1272,1330,1292,1284,1285,1285,1311,1298,1285,1300,1308,1317,1299,1289,1301,1300,1305,1299,1292,1295,1310,1304,1313,1329,1295,633,643,645,648,668,1089,1260,1406,1531,1576,1594,1569,1544,1500,1456,1466,1441,1382,1374,1348,1323,1298,1288,1248,1222,1213,1172,1147,1108,1110,1031,946,814,664,645,651,652,646,662,664,660,670,672,672,668,689,661,669,668,670,664,676,675,689,690,672,675,671,687,690,665,691,665,672,669,199,200,200,200,201,315,406,397,439,480,496,488,481,472,465,457,450,441,433,426,417,410,402,394,386,379,370,363,355,348,339,332,324,315,205,202,202,203,193,193,194,198,200,200,200,319,203,203,204,205,324,321,322,325,206,198,203,200,197,204,202,202,200,202,202,0,0,0,0,0,0,0,0,0,0,0,0,0,0,0,0,0,0,0,0,0,0,0,0,0,0,0,0,0,0,0,0,0,0,0,0,0,0,0,0,0,0,0,0,0,0,0,0,0,0,0,0,0,0,0,0,0,0,0,0,0,0,0,0,0,613,616,600,602,621,1020,1191,1323,1420,1468,1512,1446,1462,1399,1365,1352,1328,1305,1321,1258,1242,1202,1215,1164,1141,1126,1123,1070,1062,945,858,806,812,620,633,605,607,594,567,571,567,572,578,582,590,585,573,609,581,594,583,577,615,623,587,586,613,584,582,586,613,631,584,590,578,768,771,775,767,784,1350,1537,1717,1821,1839,1874,1804,1813,1747,1707,1692,1662,1629,1648,1570,1542,1522,1515,1454,1428,1395,1396,1336,1253,1297,1090,982,894,776,789,781,767,778,753,749,759,756,760,772,755,760,766,799,771,766,769,772,796,795,780,776,802,777,772,785,800,809,793,788,776,217,218,219,219,220,346,391,436,482,526,542,534,525,517,507,499,490,482,474,465,457,447,439,430,422,414,405,397,387,379,370,362,354,345,324,319,320,321,208,208,212,218,208,212,209,215,249,209,215,207,210,212,209,214,210,211,210,216,211,215,211,215,210,215,214,825,786,816,807,850,1151,1625,1752,1908,1963,1966,1936,1896,1858,1859,1830,1791,1688,1731,1696,1671,1651,1599,1562,1480,1522,1354,1231,1305,1151,1003,911,880,854,851,815,792,832,749,749,749,749,749,749,749,749,749,749,749,749,749,749,749,749,749,749,749,749,749,749,749,749,749,749,749,620,621,623,626,643,863,1203,1394,1492,1548,1551,1531,1501,1474,1449,1424,1397,1371,1346,1321,1298,1270,1244,1219,1194,1167,1142,1119,1090,941,856,705,685,642,632,629,631,623,547,547,547,547,547,547,547,547,547,547,547,547,547,547,547,547,547,547,547,547,547,547,547,547,547,547,547,900,908,911,930,1024,1466,1941,2233,2294,2346,2335,2295,2249,2206,2165,2128,2080,2046,2006,1954,1927,1880,1828,1786,1756,1714,1678,1638,1393,1033,1031,989,951,936,922,921,926,951,843,843,843,843,843,843,843,843,843,843,843,843,843,843,843,843,843,843,843,843,843,843,843,843,843,843,843,404,392,392,394,410,500,741,827,915,964,1017,1001,984,968,910,935,919,903,887,871,854,838,822,804,788,739,755,739,724,707,676,620,558,461,420,396,413,414,335,335,335,335,335,335,335,335,335,335,335,335,335,335,335,335,335,335,335,335,335,335,335,335,335,335,335,971,979,981,1014,1088,1613,2123,2404,2468,2510,2494,2452,2404,2358,2314,2276,2224,2188,2146,2091,2063,2013,1958,1915,1881,1838,1799,1627,1378,1108,1097,1061,1021,1007,993,993,990,1007,906,906,906,906,906,906,906,906,906,906,906,906,906,906,906,906,906,906,906,906,906,906,906,906,906,906,906,348,324,360,362,349,352,625,698,746,795,868,855,842,766,814,793,771,716,766,745,730,720,706,695,679,667,655,639,613,611,495,461,402,396,405,328,325,363,276,276,276,276,276,276,276,276,276,276,276,276,276,276,276,276,276,276,276,276,276,276,276,276,276,276,276,871,860,878,900,922,1473,1797,2023,2077,2121,2146,2077,2096,2022,1988,2038,1940,1860,1829,1823,1725,1676,1720,1728,1686,1580,1583,1451,1336,1067,1019,1046,936,898,928,891,873,914,909,911,911,911,911,911,911,911,911,911,911,911,911,911,911,911,911,911,911,911,911,911,911,911,911,911,910,708,731,733,740,773,1098,1472,1669,1711,1774,1770,1764,1743,1686,1658,1680,1603,1574,1548,1558,1473,1445,1465,1407,1402,1371,1344,1296,1291,1118,859,859,874,752,789,739,776,744,748,748,748,748,748,748,748,748,748,748,748,748,748,748,748,748,748,748,748,748,748,748,748,748,748,748,748,0,0,0,0,0,0,0,0,0,0,0,0,0,0,0,0,0,0,0,0,0,0,0,0,0,0,0,0,0,0,0,0,0,0,0,0,0,0,0,0,0,0,0,0,0,0,0,0,0,0,0,0,0,0,0,0,0,0,0,0,0,0,0,0,0,217,218,219,219,220,346,391,436,482,526,542,534,525,517,507,499,490,482,474,465,457,447,439,430,422,414,405,397,387,379,370,362,354,345,324,319,320,321,208,208,212,218,208,212,209,215,249,209,215,207,210,212,209,214,210,211,210,216,211,215,211,215,210,215,214,0,0,0,0,0,0,0,0,0,0,0,0,0,0,0,0,0,0,0,0,0,0,0,0,0,0,0,0,0,0,0,0,0,0,0,0,0,0,0,0,0,0,0,0,0,0,0,0,0,0,0,0,0,0,0,0,0,0,0,0,0,0,0,0,0,998,1000,1009,1030,1054,1693,2106,2272,2402,2431,2413,2383,2367,2304,2252,2216,2203,2172,2149,2057,2011,1996,1964,1873,1879,1727,1593,1554,1386,1223,1264,1085,1065,1034,1020,1012,1020,1022,979,980,984,983,980,993,984,989,989,987,988,994,994,995,994,1005,1000,993,990,992,994,992,1000,995,998,1005,998,764,770,756,774,784,1206,1554,1714,1860,1844,1896,1831,1830,1746,1767,1688,1657,1675,1617,1631,1537,1507,1536,1446,1435,1497,1398,1367,1281,1165,961,803,783,792,779,776,783,747,767,766,773,779,784,786,785,789,783,786,787,796,777,790,796,803,786,800,787,779,797,800,796,800,795,799,793,1049,1056,1043,1068,1207,1870,2383,2546,2654,2635,2663,2579,2562,2462,2474,2370,2343,2324,2265,2264,2156,2097,2120,2014,1986,2030,1917,1737,1400,1364,1271,1100,1072,1085,1069,1068,1077,1057,1063,1068,1076,1072,1083,1078,1085,1090,1079,1088,1080,1082,1077,1087,1090,1098,1091,1087,1089,1080,1085,1092,1085,1090,1094,1095,1089,592,590,596,605,610,837,1178,1306,1412,1449,1483,1436,1442,1417,1365,1368,1345,1296,1304,1279,1225,1228,1205,1181,1132,1133,1101,1062,1039,962,815,779,740,616,613,600,602,608,565,563,563,564,563,570,565,571,566,568,569,570,570,571,570,581,576,574,570,573,571,574,576,574,574,581,578,1112,1116,1113,1145,1192,1808,2318,2580,2713,2700,2674,2641,2606,2563,2520,2475,2441,2400,2349,2337,2289,2192,2206,2130,2103,2091,1936,1738,1427,1365,1227,1192,1143,1142,1140,1140,1135,1121,1101,1093,1089,1124,1112,1129,1120,1126,1134,1132,1129,1126,1136,1138,1126,1121,1124,1119,1130,1131,1119,1121,1126,1125,1119,1118,1117,543,522,553,549,549,710,1033,1147,1280,1337,1342,1333,1297,1269,1246,1233,1190,1183,1161,1145,1088,1093,1081,1067,1048,1034,1005,975,968,781,703,684,610,564,555,547,557,548,496,499,494,505,504,511,499,500,505,509,508,511,511,512,511,513,513,515,511,514,512,515,514,515,509,513,511,979,966,999,1010,1056,1606,1970,2207,2338,2384,2360,2332,2300,2244,2188,2151,2109,2027,2065,2051,1988,1964,1881,1876,1854,1774,1515,1567,1440,1080,1127,1035,1054,1009,1011,1006,1008,1018,978,987,995,1001,1023,1015,1009,1014,1001,1025,1019,1008,991,1005,1023,1012,1009,1016,1009,1005,1011,1018,1024,1022,1005,1000,992,818,819,821,828,874,1283,1638,1831,1925,1981,1962,1926,1905,1897,1837,1806,1800,1682,1712,1702,1671,1642,1611,1566,1545,1502,1462,1432,1351,1204,1094,929,918,832,832,832,863,868,824,839,834,848,849,840,842,847,836,849,848,844,844,862,858,852,866,864,856,854,858,859,859,848,845,848,840,252,253,254,252,256,397,459,513,567,710,633,622,613,603,592,577,572,562,552,542,532,522,512,501,492,482,466,462,451,441,427,421,406,400,257,256,257,281,246,244,248,252,248,248,248,253,248,251,251,254,253,282,282,286,254,252,249,256,253,252,248,284,252,252,251,0,0,0,0,0,0,0,0,0,0,0,0,0,0,0,0,0,0,0,0,0,0,0,0,0,0,0,0,0,0,0,0,0,0,0,0,0,0,0,0,0,0,0,0,0,0,0,0,0,0,0,0,0,0,0,0,0,0,0,0,0,0,0,0,0 ]);
