n = 10;
D = [275,172,168,62,299,153,126,285,72,262 ];
q = 0;
prec = array2d(1..0,1..2,[]);
steps = 64;
l = 360;
r = 0;
which = [];
interval = array2d(1..0,1..2,[]);
T = array3d(1..11,1..11,0..64,[0,0,0,0,0,0,0,0,0,0,0,0,0,0,0,0,0,0,0,0,0,0,0,0,0,0,0,0,0,0,0,0,0,0,0,0,0,0,0,0,0,0,0,0,0,0,0,0,0,0,0,0,0,0,0,0,0,0,0,0,0,0,0,0,0,388,389,390,385,394,663,786,908,1028,1108,1093,1086,1064,1042,1009,1000,979,962,937,915,894,877,852,830,799,788,766,748,724,703,681,661,639,590,398,394,391,393,393,388,389,389,400,402,400,401,396,494,492,396,401,395,396,584,402,400,404,395,395,400,403,523,500,498,497,685,688,689,691,724,891,1386,1531,1640,1685,1648,1654,1626,1597,1571,1544,1519,1494,1466,1480,1410,1384,1356,1318,1264,1240,1217,1192,1155,1070,872,762,741,714,700,696,698,641,632,648,669,652,645,646,647,659,646,656,651,646,652,647,671,655,661,655,660,654,656,655,657,653,648,661,649,312,305,314,315,315,494,560,625,691,749,761,748,736,723,712,699,687,674,662,651,638,627,614,602,590,577,564,553,540,528,517,504,493,479,312,316,317,310,286,279,279,286,276,298,283,283,286,285,303,290,289,284,288,306,304,284,283,296,284,292,288,283,291,309,288,1018,1022,1032,1039,1098,1631,2149,2338,2418,2444,2426,2384,2347,2308,2277,2254,2196,2161,2130,2097,2042,2006,1969,1930,1889,1851,1743,1528,1177,1151,1110,1085,1079,1045,1036,1036,1038,1041,986,986,988,1003,1005,994,1009,1003,998,1000,1010,1005,1002,1004,1006,1011,1016,1010,1008,1010,1005,1018,1012,1018,1023,1016,1012,870,871,864,872,1020,1402,1684,1893,2011,2017,2004,2034,2001,1924,1940,1845,1863,1848,1765,1750,1747,1660,1628,1627,1617,1585,1552,1230,1179,1182,980,1049,912,900,858,852,866,853,807,806,831,837,822,838,834,836,838,831,833,835,834,836,837,847,825,833,838,838,831,832,830,832,832,833,832,418,420,420,422,427,679,812,885,978,1032,1039,1022,1005,988,973,956,939,922,906,931,873,856,840,854,806,789,774,757,740,723,616,460,449,438,428,424,425,427,420,426,428,440,428,430,432,447,435,439,450,436,451,431,454,438,453,439,444,438,440,439,440,437,430,444,432,705,705,707,710,759,926,1453,1570,1673,1710,1695,1690,1672,1642,1617,1589,1560,1533,1505,1519,1449,1420,1392,1353,1299,1274,1250,1224,1224,1100,782,780,755,731,722,712,715,683,678,683,685,700,691,693,694,706,692,704,700,693,699,693,720,699,706,704,704,697,702,701,703,701,693,705,693,268,268,269,261,270,310,424,485,523,563,576,568,561,553,546,539,531,524,517,508,502,495,486,479,472,484,475,451,460,452,443,325,319,314,307,271,303,304,219,218,224,230,220,219,220,222,223,221,222,223,218,220,220,221,219,221,221,223,219,221,218,221,219,221,220,1076,1086,1087,1100,1222,1859,2223,2412,2533,2510,2490,2521,2473,2384,2392,2289,2297,2275,2186,2168,2164,2056,2016,2012,1987,1924,1722,1467,1255,1204,1202,1160,1120,1114,1068,1062,1048,1050,1003,999,1030,1041,1023,1041,1026,1046,1037,1036,1035,1030,1035,1035,1039,1048,1031,1034,1037,1037,1034,1032,1029,1032,1031,1033,1032,0,0,0,0,0,0,0,0,0,0,0,0,0,0,0,0,0,0,0,0,0,0,0,0,0,0,0,0,0,0,0,0,0,0,0,0,0,0,0,0,0,0,0,0,0,0,0,0,0,0,0,0,0,0,0,0,0,0,0,0,0,0,0,0,0,360,360,361,362,364,615,726,836,946,1016,1021,1002,981,962,943,924,903,884,865,846,825,806,787,768,747,728,721,688,669,650,631,610,603,569,368,365,375,495,375,370,371,371,373,369,372,371,374,370,370,371,375,376,375,376,377,375,376,376,377,458,450,457,376,375,452,0,0,0,0,0,0,0,0,0,0,0,0,0,0,0,0,0,0,0,0,0,0,0,0,0,0,0,0,0,0,0,0,0,0,0,0,0,0,0,0,0,0,0,0,0,0,0,0,0,0,0,0,0,0,0,0,0,0,0,0,0,0,0,0,0,948,941,944,960,1121,1564,1974,2127,2238,2282,2267,2230,2221,2164,2128,2090,2054,2018,2006,1944,1906,1870,1834,1796,1764,1729,1642,1576,1401,1109,1037,1009,1002,966,954,951,928,930,942,932,943,950,946,952,955,964,953,951,958,952,970,973,994,985,951,946,955,958,957,947,954,956,948,956,952,580,582,584,641,608,1008,1142,1276,1382,1431,1431,1458,1386,1363,1339,1338,1293,1270,1276,1225,1230,1179,1156,1134,1110,1087,1064,1066,1018,996,882,858,662,603,592,588,590,590,572,579,584,586,588,597,582,613,582,614,590,582,587,589,591,604,597,594,594,588,588,606,591,594,585,593,586,1084,1087,1118,1097,1248,2120,2438,2619,2709,2751,2721,2674,2704,2580,2611,2516,2439,2404,2412,2298,2259,2214,2163,2109,2062,1979,1764,1628,1521,1217,1247,1155,1134,1116,1092,1100,1103,1100,1091,1095,1108,1113,1109,1101,1119,1134,1106,1110,1115,1114,1114,1117,1120,1123,1121,1118,1129,1129,1127,1133,1130,1140,1126,1134,1123,1112,1124,1128,1163,1461,2246,2553,2739,2810,2883,2808,2751,2702,2613,2626,2580,2530,2448,2454,2322,2328,2279,2239,2205,2145,1950,1672,1603,1508,1392,1264,1204,1184,1143,1138,1112,1130,1107,1103,1099,1104,1112,1116,1114,1113,1107,1118,1118,1122,1124,1120,1125,1127,1133,1125,1125,1117,1117,1116,1119,1117,1121,1113,1122,1108,743,745,748,772,814,1229,1545,1693,1807,1821,1815,1836,1758,1729,1726,1690,1641,1636,1584,1555,1525,1496,1467,1438,1427,1380,1375,1347,1293,1103,1009,804,784,767,756,754,756,756,735,743,750,774,757,762,753,782,751,794,757,751,754,762,779,795,766,762,763,758,778,786,758,761,752,760,753,1004,996,1008,1016,1201,1704,2127,2266,2384,2418,2408,2357,2352,2299,2250,2216,2172,2144,2119,2055,2015,1979,1938,1902,1862,1832,1753,1609,1388,1208,1100,1110,1053,1029,1010,1005,976,977,987,976,991,996,993,999,1002,1010,1002,1000,1005,1001,1016,1022,1038,1033,1000,995,1004,1004,1003,993,1002,1001,992,1000,996,565,580,571,569,586,978,1125,1273,1402,1466,1465,1468,1414,1389,1382,1340,1335,1325,1264,1277,1239,1242,1185,1141,1161,1090,1089,1059,1022,994,749,729,720,591,592,574,600,586,568,572,571,587,574,583,573,580,575,571,577,574,570,587,577,581,581,593,587,595,591,583,583,588,581,595,581,1331,1339,1351,1393,1737,2707,3033,3179,3271,3298,3229,3188,3163,3071,2993,2994,2923,2843,2807,2718,2708,2418,2058,2013,1947,1862,1824,1560,1504,1522,1467,1420,1393,1352,1343,1303,1325,1302,1298,1294,1299,1307,1311,1309,1308,1302,1313,1313,1317,1319,1315,1320,1322,1328,1320,1320,1312,1312,1311,1314,1312,1316,1308,1317,1303,360,360,361,362,364,615,726,836,946,1016,1021,1002,981,962,943,924,903,884,865,846,825,806,787,768,747,728,721,688,669,650,631,610,603,569,368,365,375,495,375,370,371,371,373,369,372,371,374,370,370,371,375,376,375,376,377,375,376,376,377,458,450,457,376,375,452,795,797,799,801,812,1177,1593,1779,1900,1952,1955,1923,1890,1865,1835,1798,1773,1740,1702,1675,1642,1606,1578,1545,1516,1478,1446,1418,1299,1167,1055,862,877,825,811,807,809,808,739,732,747,762,759,761,753,757,762,755,770,759,764,763,786,780,766,776,757,762,778,776,780,779,774,774,773,944,946,949,958,992,1541,1879,2089,2226,2298,2294,2252,2215,2179,2142,2109,2068,2032,1996,1959,1921,1888,1850,1813,1775,1714,1678,1649,1392,1137,1069,1015,992,976,960,958,942,944,904,899,910,923,919,922,914,923,922,935,925,917,933,945,940,929,922,933,916,934,920,920,919,926,918,921,920,0,0,0,0,0,0,0,0,0,0,0,0,0,0,0,0,0,0,0,0,0,0,0,0,0,0,0,0,0,0,0,0,0,0,0,0,0,0,0,0,0,0,0,0,0,0,0,0,0,0,0,0,0,0,0,0,0,0,0,0,0,0,0,0,0,476,475,480,480,483,639,844,931,1010,1074,1097,1082,1070,1058,1044,1030,1017,1000,984,972,950,936,922,902,886,870,854,861,842,805,582,566,557,497,488,484,481,482,429,415,419,422,424,426,423,425,420,430,425,426,427,433,436,438,433,432,434,428,430,435,434,435,429,430,430,862,867,868,876,932,1476,1820,1936,2090,2143,2094,2074,2034,2041,2019,1909,1927,1903,1889,1807,1780,1734,1623,1669,1635,1593,1575,1425,1409,1205,1058,1015,941,898,885,877,879,884,872,868,875,866,875,876,877,877,877,876,880,879,877,880,879,879,874,878,879,879,881,876,876,876,878,875,874,433,436,436,439,444,691,846,877,1034,1114,1071,1060,1038,1048,1057,978,1020,946,1007,919,919,908,811,852,856,818,826,781,802,754,733,716,624,634,444,441,443,455,438,430,435,434,436,436,437,437,437,436,440,439,437,440,439,439,434,438,439,439,441,436,436,436,438,435,434,374,381,382,380,387,452,675,755,834,876,898,885,864,850,868,822,817,809,796,795,758,770,753,716,721,696,679,669,642,630,544,470,464,446,434,388,389,378,322,324,328,331,330,332,329,329,329,337,330,330,332,332,336,340,334,334,336,330,331,332,336,337,331,332,331,64,64,64,64,98,99,112,126,139,152,163,160,158,154,152,150,147,145,142,139,136,134,132,129,127,123,121,118,116,114,111,108,105,103,100,98,98,98,48,47,45,44,48,46,47,47,47,46,50,49,47,50,49,49,44,48,49,49,51,46,46,46,48,45,44,647,649,651,653,655,805,1225,1366,1501,1559,1571,1546,1522,1505,1474,1449,1437,1404,1375,1354,1329,1302,1280,1258,1234,1202,1178,1158,1128,914,719,707,705,677,662,658,659,642,584,585,589,592,592,594,591,592,591,600,592,594,597,601,604,606,599,599,601,595,596,603,601,601,595,596,595,623,602,615,617,680,928,1244,1353,1468,1536,1546,1571,1541,1470,1439,1422,1398,1408,1381,1295,1297,1320,1238,1214,1151,1175,1151,948,1068,906,740,722,664,663,654,657,672,646,635,621,624,635,632,635,638,637,638,633,641,631,638,641,640,640,633,639,633,640,642,637,636,637,639,636,629,795,797,799,801,812,1177,1593,1779,1900,1952,1955,1923,1890,1865,1835,1798,1773,1740,1702,1675,1642,1606,1578,1545,1516,1478,1446,1418,1299,1167,1055,862,877,825,811,807,809,808,739,732,747,762,759,761,753,757,762,755,770,759,764,763,786,780,766,776,757,762,778,776,780,779,774,774,773,413,414,415,416,422,506,763,851,952,1012,1027,1010,996,981,960,947,927,913,896,879,862,847,834,813,798,783,764,748,734,719,678,664,491,479,423,420,449,416,385,384,386,388,387,385,387,388,389,389,389,389,393,408,408,394,426,396,393,390,390,398,392,399,387,389,389,594,625,598,600,605,806,1111,1242,1368,1452,1478,1455,1414,1390,1368,1345,1330,1298,1275,1251,1228,1204,1178,1160,1135,1112,1089,967,945,967,904,682,636,617,606,604,605,558,536,538,539,544,545,536,540,537,546,540,536,540,537,546,554,546,541,542,537,539,542,542,541,556,540,546,543,411,412,412,414,416,593,727,826,910,995,994,981,959,958,935,934,920,904,873,859,831,844,804,786,772,757,742,730,716,700,649,612,601,428,465,416,417,419,392,395,398,408,397,403,397,409,404,398,407,402,405,403,398,404,401,404,398,398,398,398,398,398,398,398,398,0,0,0,0,0,0,0,0,0,0,0,0,0,0,0,0,0,0,0,0,0,0,0,0,0,0,0,0,0,0,0,0,0,0,0,0,0,0,0,0,0,0,0,0,0,0,0,0,0,0,0,0,0,0,0,0,0,0,0,0,0,0,0,0,0,954,948,960,973,1043,1584,1956,2148,2306,2332,2317,2250,2268,2222,2163,2147,2125,2031,2036,1977,1957,1906,1849,1825,1804,1764,1719,1430,1233,1147,1073,1013,1009,1011,971,970,968,973,960,957,960,963,972,975,967,972,973,968,968,972,967,972,969,968,974,974,973,969,970,973,974,972,972,972,972,709,711,692,713,716,999,1389,1549,1685,1730,1725,1668,1660,1649,1611,1589,1553,1476,1468,1477,1452,1424,1397,1333,1343,1310,1282,1186,1161,1136,962,818,795,735,726,689,728,684,673,673,688,688,678,684,681,681,679,685,683,682,680,684,690,691,685,686,689,686,683,684,691,688,690,691,690,192,193,194,194,195,306,346,387,428,469,483,476,469,460,453,445,438,429,422,415,406,399,391,384,375,368,361,352,345,337,330,321,314,307,298,294,295,295,188,188,187,186,188,187,190,192,188,205,190,187,191,191,188,188,191,192,188,192,185,190,187,188,188,188,188,471,472,468,475,472,655,845,944,1012,1044,1042,1036,1016,1003,991,978,964,951,938,926,919,900,886,873,861,853,840,828,812,801,729,655,635,528,475,478,474,467,439,440,442,443,443,450,444,456,450,448,455,449,455,452,447,448,449,453,447,447,444,447,447,447,447,447,447,285,293,294,296,296,398,465,547,601,661,682,671,661,650,641,631,621,610,601,589,580,570,560,549,544,530,538,527,504,504,428,419,419,338,300,297,298,298,239,241,240,243,241,241,239,243,243,243,244,246,242,248,246,259,247,243,246,245,242,249,245,244,241,242,242,896,908,914,935,950,1317,1871,2075,2171,2232,2233,2144,2153,2093,2051,2042,1967,1910,1889,1878,1864,1816,1759,1728,1721,1646,1494,1357,1256,1169,992,988,976,927,941,900,897,880,872,866,884,893,879,887,880,887,883,889,884,879,885,888,891,897,895,888,885,890,888,887,894,892,891,891,890,413,414,415,416,422,506,763,851,952,1012,1027,1010,996,981,960,947,927,913,896,879,862,847,834,813,798,783,764,748,734,719,678,664,491,479,423,420,449,416,385,384,386,388,387,385,387,388,389,389,389,389,393,408,408,394,426,396,393,390,390,398,392,399,387,389,389,945,912,951,964,1109,1466,1960,2118,2265,2236,2227,2191,2217,2119,2136,2045,2009,1972,1935,1898,1862,1825,1784,1802,1719,1743,1706,1610,1421,1381,1244,1082,953,935,924,924,923,924,915,915,915,915,915,915,915,915,915,915,915,915,915,915,915,915,915,915,915,915,915,915,915,915,915,915,915,1130,1134,1138,1191,1635,1987,2621,2784,2846,2864,2844,2789,2743,2689,2636,2585,2535,2485,2452,2407,2351,2310,2260,2209,2158,2072,1893,1696,1471,1393,1248,1210,1189,1163,1148,1152,1160,1146,1137,1137,1137,1137,1137,1137,1137,1137,1137,1137,1137,1137,1137,1137,1137,1137,1137,1137,1137,1137,1137,1137,1137,1137,1137,1137,1137,729,732,766,741,779,1310,1561,1652,1794,1846,1782,1754,1790,1696,1669,1640,1611,1574,1545,1532,1503,1470,1441,1443,1384,1407,1396,1320,1216,1181,885,884,802,756,760,753,767,733,748,747,744,748,745,751,751,751,751,747,746,746,746,746,746,746,746,746,746,746,746,746,746,746,746,746,746,935,923,943,948,997,1503,1962,2118,2251,2238,2259,2194,2161,2125,2099,2052,2019,1980,1945,1908,1873,1864,1805,1775,1732,1710,1617,1445,1413,1122,1011,1012,986,964,934,952,886,890,869,869,869,869,869,869,869,869,869,869,869,869,869,869,869,869,869,869,869,869,869,869,869,869,869,869,869,0,0,0,0,0,0,0,0,0,0,0,0,0,0,0,0,0,0,0,0,0,0,0,0,0,0,0,0,0,0,0,0,0,0,0,0,0,0,0,0,0,0,0,0,0,0,0,0,0,0,0,0,0,0,0,0,0,0,0,0,0,0,0,0,0,531,526,535,537,548,755,1026,1131,1245,1286,1273,1269,1248,1211,1230,1204,1187,1146,1125,1090,1069,1050,1062,1042,1020,997,976,956,907,847,713,817,627,558,543,543,533,532,496,498,500,518,518,515,518,518,518,516,518,518,509,508,518,517,506,518,508,509,508,509,508,507,507,507,507,787,773,790,785,846,1286,1600,1786,1855,1895,1902,1886,1806,1806,1768,1745,1717,1701,1668,1620,1606,1575,1537,1510,1476,1453,1344,1255,1232,881,881,830,844,812,799,798,784,741,737,742,744,743,743,743,743,743,743,743,743,743,743,743,743,743,743,743,743,743,743,743,743,743,743,743,743,677,715,713,686,716,1203,1450,1525,1669,1725,1662,1635,1681,1582,1555,1528,1502,1472,1440,1428,1401,1369,1342,1347,1353,1321,1305,1231,1188,1116,904,822,816,704,707,700,739,691,704,714,714,714,714,714,714,714,712,709,713,714,714,714,714,714,714,714,714,714,714,714,714,714,714,714,714,848,796,833,860,871,1204,1612,1773,2031,1911,1909,1878,1915,1814,1780,1750,1726,1690,1671,1634,1605,1575,1545,1567,1484,1570,1538,1402,1307,1088,1082,871,828,810,797,797,765,766,785,774,776,777,781,776,783,777,785,779,782,778,792,788,790,784,781,787,784,790,783,790,788,796,782,778,777,427,428,431,432,437,711,804,908,1000,1056,1065,1047,1030,1012,995,979,961,945,927,910,892,877,859,842,823,807,792,775,758,741,662,647,488,448,464,434,461,416,392,392,392,392,392,392,392,392,392,392,392,392,392,392,392,392,392,392,392,392,392,392,392,392,392,392,392,945,912,951,964,1109,1466,1960,2118,2265,2236,2227,2191,2217,2119,2136,2045,2009,1972,1935,1898,1862,1825,1784,1802,1719,1743,1706,1610,1421,1381,1244,1082,953,935,924,924,923,924,915,915,915,915,915,915,915,915,915,915,915,915,915,915,915,915,915,915,915,915,915,915,915,915,915,915,915,925,962,944,988,1033,1499,1953,2158,2270,2360,2340,2280,2241,2194,2150,2103,2121,2079,1995,1963,1921,1907,1845,1842,1818,1711,1743,1602,1387,1056,1171,1007,1007,995,957,977,972,954,950,960,970,976,971,985,983,990,975,1004,983,987,981,997,994,995,1000,991,992,1000,1003,1000,993,1002,989,992,990,1165,1190,1188,1245,1674,2105,2658,2854,2949,3011,2962,2899,2864,2766,2741,2672,2666,2632,2512,2492,2385,2405,2331,2310,2051,2008,1867,1675,1521,1319,1323,1265,1245,1235,1203,1203,1225,1209,1208,1213,1211,1222,1217,1235,1235,1223,1224,1237,1227,1230,1234,1242,1246,1249,1238,1244,1246,1254,1255,1244,1233,1242,1242,1245,1240,612,613,617,619,636,1017,1207,1354,1454,1508,1510,1481,1460,1436,1406,1391,1368,1333,1341,1291,1268,1241,1219,1193,1171,1138,1120,1095,1049,831,828,750,664,636,623,621,622,604,593,608,603,615,620,615,614,620,601,617,607,617,610,616,606,617,618,622,617,614,608,613,610,615,621,615,597,831,848,850,859,892,1074,1714,1873,2001,2055,2044,1985,1954,1946,1912,1848,1825,1788,1752,1726,1719,1670,1658,1623,1593,1553,1533,1364,1243,1103,956,951,888,881,848,858,810,799,760,761,765,782,779,779,775,781,772,802,781,800,775,781,804,803,784,784,789,788,787,784,785,786,773,776,774,459,429,431,432,437,603,840,908,1003,1059,1064,1047,1032,1014,996,1039,962,1005,928,977,894,932,916,900,881,856,847,775,792,705,615,687,460,449,554,455,436,436,439,440,438,442,444,439,442,444,445,444,442,443,444,444,446,439,447,448,446,445,443,444,448,443,448,455,440,0,0,0,0,0,0,0,0,0,0,0,0,0,0,0,0,0,0,0,0,0,0,0,0,0,0,0,0,0,0,0,0,0,0,0,0,0,0,0,0,0,0,0,0,0,0,0,0,0,0,0,0,0,0,0,0,0,0,0,0,0,0,0,0,0,683,687,693,707,732,888,1356,1483,1640,1698,1690,1652,1625,1624,1581,1553,1527,1486,1472,1444,1420,1390,1375,1341,1294,1292,1260,1105,1136,1030,904,760,750,734,701,696,706,642,597,605,607,614,619,618,612,624,615,645,624,643,618,624,647,646,627,627,632,631,630,627,628,629,616,619,617,559,561,565,566,582,920,1117,1227,1329,1384,1394,1362,1341,1320,1292,1277,1257,1231,1234,1192,1165,1142,1120,1098,1076,1050,1034,1005,989,939,933,741,664,584,573,568,572,564,561,555,556,564,568,565,565,573,561,576,574,570,576,571,577,581,580,576,572,579,573,573,573,575,580,576,558,801,838,818,861,882,1236,1622,1809,1944,2035,2027,1964,1940,1892,1854,1809,1845,1803,1726,1711,1664,1652,1607,1612,1588,1479,1527,1456,1150,1070,1054,879,881,870,844,849,813,797,813,813,813,819,825,801,828,834,827,821,824,834,828,824,821,821,826,812,827,828,820,825,820,852,835,826,821,235,235,236,238,239,236,293,440,498,543,558,549,540,531,521,513,505,494,486,477,496,487,478,468,459,450,440,431,422,412,300,293,284,277,272,240,240,240,209,203,201,203,227,224,210,215,211,224,231,230,237,220,228,225,227,211,224,227,218,236,222,240,239,277,222,925,962,944,988,1033,1499,1953,2158,2270,2360,2340,2280,2241,2194,2150,2103,2121,2079,1995,1963,1921,1907,1845,1842,1818,1711,1743,1602,1387,1056,1171,1007,1007,995,957,977,972,954,950,960,970,976,971,985,983,990,975,1004,983,987,981,997,994,995,1000,991,992,1000,1003,1000,993,1002,989,992,990,498,500,501,560,504,776,964,1077,1206,1255,1257,1299,1215,1195,1174,1152,1132,1112,1092,1070,1050,1029,1008,987,967,946,925,904,884,862,813,793,693,527,508,505,507,509,498,500,495,501,507,505,503,509,512,516,506,511,503,510,509,499,510,513,512,512,506,508,514,535,519,535,512,737,739,741,782,748,1169,1586,1770,1922,1950,1930,1904,1877,1844,1807,1775,1735,1713,1670,1651,1599,1564,1530,1494,1459,1437,1390,1346,1326,1156,892,886,860,761,752,745,753,756,751,757,758,760,760,758,758,760,760,760,760,760,760,760,760,760,760,760,760,760,760,760,760,760,759,760,759,268,268,269,270,271,302,480,535,592,647,667,656,646,635,624,614,603,593,582,572,561,550,539,530,519,507,498,487,475,466,455,385,377,300,288,272,272,273,214,214,214,214,214,214,214,214,214,214,214,214,214,214,214,214,214,214,214,214,214,214,214,214,214,214,214,263,263,263,264,264,336,422,444,464,484,496,493,489,484,480,476,471,467,463,459,455,452,447,443,440,435,432,428,422,419,386,379,375,370,363,268,336,336,220,220,220,220,220,220,220,220,220,220,220,220,220,220,220,220,220,220,220,220,220,220,220,220,220,220,220,854,887,860,884,909,1269,1759,1946,2024,2081,2050,2015,1980,1949,1928,1894,1885,1861,1802,1795,1742,1714,1670,1676,1624,1591,1557,1524,1212,989,952,929,929,895,887,877,872,880,833,833,833,833,833,833,833,833,833,833,833,833,833,833,833,833,833,833,833,833,833,833,833,833,833,833,833,593,595,595,570,600,726,1126,1257,1314,1403,1402,1386,1344,1342,1317,1300,1279,1249,1238,1206,1196,1176,1150,1120,1136,1063,1082,1063,958,941,842,778,653,617,606,601,573,584,519,519,519,519,519,519,519,519,519,519,519,519,519,519,519,519,519,519,519,519,519,519,519,519,519,519,519,0,0,0,0,0,0,0,0,0,0,0,0,0,0,0,0,0,0,0,0,0,0,0,0,0,0,0,0,0,0,0,0,0,0,0,0,0,0,0,0,0,0,0,0,0,0,0,0,0,0,0,0,0,0,0,0,0,0,0,0,0,0,0,0,0,285,287,288,288,289,374,522,583,645,701,715,704,692,679,668,658,646,635,623,611,600,589,578,566,555,543,532,520,508,497,486,474,377,306,293,310,291,292,256,256,256,256,256,256,256,256,256,256,256,256,256,256,256,256,256,256,256,256,256,256,256,256,256,256,256,352,352,353,355,356,382,646,718,792,849,859,854,832,819,805,792,778,765,752,739,726,712,699,686,673,660,646,633,620,607,531,386,377,368,360,356,357,358,333,341,341,345,345,347,341,347,338,368,341,341,346,348,369,371,366,349,349,343,363,352,352,364,344,351,345,797,789,791,792,830,1051,1625,1780,1832,1888,1863,1834,1822,1826,1746,1740,1736,1701,1643,1606,1616,1543,1559,1522,1502,1447,1289,1275,1115,1066,1015,875,861,832,799,812,763,775,720,720,720,720,720,720,720,720,720,720,720,720,720,720,720,720,720,720,720,720,720,720,720,720,720,720,720,498,500,501,560,504,776,964,1077,1206,1255,1257,1299,1215,1195,1174,1152,1132,1112,1092,1070,1050,1029,1008,987,967,946,925,904,884,862,813,793,693,527,508,505,507,509,498,500,495,501,507,505,503,509,512,516,506,511,503,510,509,499,510,513,512,512,506,508,514,535,519,535,512,788,764,793,797,809,1189,1617,1779,1899,1938,1927,1851,1866,1860,1833,1754,1758,1743,1687,1654,1595,1584,1552,1536,1492,1460,1429,1363,1350,1120,1076,849,824,807,775,798,801,812,772,764,772,790,790,791,789,794,797,781,805,792,798,798,816,804,796,810,786,800,814,805,808,806,797,807,797,980,983,988,998,1035,1588,1997,2195,2360,2394,2380,2336,2306,2233,2227,2190,2120,2083,2069,2029,1964,1960,1897,1884,1842,1795,1763,1623,1392,1227,1114,1059,1034,1012,1000,1002,983,989,937,931,942,956,950,952,950,960,957,961,959,950,962,962,962,953,952,962,945,962,956,949,950,957,953,953,953,84,84,92,92,96,130,147,164,181,198,210,206,204,200,196,193,190,187,183,181,177,174,170,168,164,160,158,154,151,147,145,141,138,135,132,96,96,129,58,58,59,61,58,58,60,62,59,58,59,58,61,60,60,59,58,59,59,63,62,58,61,63,61,61,61,511,525,525,530,530,603,897,973,1047,1106,1112,1132,1084,1071,1057,1099,1029,1015,1000,987,973,960,945,931,945,903,890,876,861,770,727,622,611,528,520,531,538,518,449,447,451,457,455,456,460,458,456,458,459,457,463,468,466,464,462,463,463,466,466,464,465,466,464,464,464,822,826,828,832,847,1314,1714,1852,1951,2009,2004,1969,1960,1916,1867,1759,1796,1759,1759,1720,1695,1661,1629,1609,1539,1516,1499,1425,1297,1199,1066,907,880,873,828,806,834,842,830,817,827,830,825,830,830,830,830,830,830,830,830,830,830,830,830,830,830,830,830,830,830,830,830,830,830,393,395,396,397,400,609,734,825,902,962,972,955,964,925,905,828,880,802,865,847,817,802,787,777,756,741,726,710,696,681,664,639,525,597,403,370,398,409,390,383,390,390,388,390,390,390,390,390,390,390,390,390,390,390,390,390,390,390,390,390,390,390,390,390,390,343,336,337,340,341,373,627,728,778,858,853,848,802,825,793,796,735,777,739,716,717,692,691,677,654,639,634,602,583,574,580,379,375,365,344,342,343,352,349,320,315,317,335,341,332,332,339,341,352,340,345,348,349,346,329,345,353,354,348,348,335,336,350,328,328,0,0,0,0,0,0,0,0,0,0,0,0,0,0,0,0,0,0,0,0,0,0,0,0,0,0,0,0,0,0,0,0,0,0,0,0,0,0,0,0,0,0,0,0,0,0,0,0,0,0,0,0,0,0,0,0,0,0,0,0,0,0,0,0,0,642,616,645,622,652,696,1231,1366,1492,1546,1544,1472,1496,1514,1473,1401,1423,1380,1359,1334,1287,1278,1254,1246,1209,1184,1161,1100,1070,958,795,756,691,658,626,653,650,649,617,617,618,623,623,624,627,629,626,625,627,627,631,636,634,630,629,630,630,634,632,631,631,632,630,630,630,559,561,564,566,584,745,1097,1228,1334,1384,1383,1472,1469,1316,1394,1272,1251,1264,1305,1214,1162,1217,1117,1097,1103,1052,1031,926,867,834,828,769,613,598,612,593,575,555,587,582,582,582,582,582,582,582,582,582,582,582,582,582,582,582,582,582,582,582,582,582,582,582,582,582,582,788,764,793,797,809,1189,1617,1779,1899,1938,1927,1851,1866,1860,1833,1754,1758,1743,1687,1654,1595,1584,1552,1536,1492,1460,1429,1363,1350,1120,1076,849,824,807,775,798,801,812,772,764,772,790,790,791,789,794,797,781,805,792,798,798,816,804,796,810,786,800,814,805,808,806,797,807,797,296,296,294,294,299,416,504,563,610,666,672,657,656,649,632,632,621,613,604,585,576,561,559,551,541,533,523,514,505,496,488,478,466,419,301,300,300,300,273,269,270,271,275,277,273,279,273,274,275,277,277,283,280,281,280,284,278,279,276,278,281,281,278,279,279,553,554,551,552,554,908,1038,1229,1366,1450,1435,1409,1392,1366,1336,1303,1292,1265,1243,1206,1173,1144,1131,1106,1081,1050,1032,1006,981,952,937,760,732,575,560,555,564,567,545,542,546,550,551,557,560,559,549,550,556,558,563,563,564,573,556,559,559,559,558,556,561,561,556,555,555,600,602,601,605,608,835,1126,1274,1394,1436,1423,1405,1384,1363,1344,1324,1311,1290,1265,1249,1229,1204,1181,1148,1094,1074,1054,1034,1014,876,802,746,633,634,616,611,612,574,510,509,521,545,515,523,517,526,516,523,522,514,519,521,525,529,525,523,520,517,521,520,521,524,515,528,518,231,232,232,233,242,327,404,447,489,530,556,547,537,532,522,514,506,498,490,481,474,466,453,445,436,427,419,412,404,396,388,380,376,339,246,242,243,243,173,169,172,176,173,176,175,180,178,177,182,178,194,193,194,185,178,176,176,179,175,173,177,176,174,182,176,891,894,892,904,984,1437,1792,1980,2098,2140,2110,2109,2056,2025,2006,1994,1939,1891,1834,1835,1806,1762,1739,1711,1652,1639,1591,1383,1207,1083,962,960,984,910,900,900,898,906,881,884,884,895,899,896,891,896,890,891,897,891,891,900,906,908,915,903,899,906,903,906,909,910,910,904,900,689,692,692,696,751,1084,1350,1516,1619,1662,1661,1630,1605,1586,1559,1528,1444,1477,1452,1412,1400,1375,1295,1271,1300,1273,1246,1223,1052,1061,924,873,851,712,703,701,703,695,650,661,664,664,675,680,674,681,675,683,673,686,681,675,683,690,681,673,688,683,677,683,682,698,684,684,679,334,335,336,336,338,482,595,677,732,782,780,770,760,751,741,732,730,718,706,694,685,669,657,645,633,621,609,597,585,573,504,496,486,451,341,339,340,340,296,297,299,304,301,306,301,309,300,308,305,299,304,306,309,312,308,306,304,301,305,304,305,307,299,310,301,618,622,619,623,627,892,1177,1319,1424,1469,1458,1439,1428,1407,1387,1366,1352,1329,1304,1290,1270,1243,1222,1183,1129,1108,1087,1066,1045,971,709,694,652,649,618,633,628,616,552,554,556,561,561,570,564,573,562,573,570,561,568,568,571,573,573,568,569,561,564,566,567,572,560,572,562,0,0,0,0,0,0,0,0,0,0,0,0,0,0,0,0,0,0,0,0,0,0,0,0,0,0,0,0,0,0,0,0,0,0,0,0,0,0,0,0,0,0,0,0,0,0,0,0,0,0,0,0,0,0,0,0,0,0,0,0,0,0,0,0,0,897,905,907,919,1033,1541,1859,2040,2150,2165,2163,2119,2096,1982,2021,1985,1905,1923,1888,1833,1824,1790,1691,1659,1700,1643,1597,1369,1270,1187,1119,977,972,932,925,925,903,891,849,854,860,866,876,881,872,887,878,887,874,879,880,876,883,894,891,874,882,882,880,883,881,898,883,884,879,296,296,294,294,299,416,504,563,610,666,672,657,656,649,632,632,621,613,604,585,576,561,559,551,541,533,523,514,505,496,488,478,466,419,301,300,300,300,273,269,270,271,275,277,273,279,273,274,275,277,277,283,280,281,280,284,278,279,276,278,281,281,278,279,279,1069,1069,1073,1076,1274,1874,2279,2418,2544,2618,2595,2544,2530,2490,2428,2379,2338,2320,2275,2202,2165,2158,2090,2044,2016,1965,1844,1629,1381,1203,1189,1145,1123,1120,1100,1084,1081,1053,1032,1032,1043,1053,1044,1054,1051,1047,1057,1052,1055,1046,1050,1051,1048,1050,1051,1052,1054,1053,1052,1051,1052,1065,1051,1064,1055,1294,1299,1317,1378,1802,2556,2958,3112,3184,3267,3207,3171,3118,3031,3021,2923,2892,2865,2804,2684,2663,2551,2246,2111,2051,1811,1723,1706,1481,1462,1451,1386,1366,1338,1331,1311,1312,1308,1295,1296,1300,1323,1302,1322,1308,1302,1308,1307,1306,1315,1309,1320,1306,1319,1320,1313,1314,1322,1313,1320,1302,1324,1308,1321,1312,643,647,647,648,679,1048,1250,1405,1492,1561,1585,1558,1516,1509,1477,1460,1444,1386,1363,1329,1332,1301,1274,1227,1203,1170,1176,1129,1049,996,720,706,699,649,659,652,652,626,622,619,624,632,637,622,625,632,632,628,631,626,626,639,632,632,635,633,636,636,632,630,637,632,630,633,630,934,933,929,929,985,1437,1924,2100,2197,2240,2211,2182,2162,2125,2047,2079,2004,1968,1925,1892,1860,1832,1785,1748,1730,1686,1659,1427,1195,1126,1030,1002,967,948,952,930,909,841,822,818,838,840,830,838,832,831,841,836,839,830,834,835,832,834,835,837,838,837,836,835,836,849,835,848,839,504,506,526,509,521,849,990,1093,1212,1262,1264,1244,1225,1204,1206,1164,1164,1123,1102,1069,1063,1042,1022,1002,981,961,962,941,901,731,796,786,546,532,521,512,532,515,503,500,500,504,524,516,527,513,506,526,512,513,511,509,507,507,507,511,517,510,506,508,511,527,510,511,506,267,268,268,269,270,368,496,552,567,665,693,686,677,666,655,624,634,623,612,600,589,578,568,558,547,511,499,490,479,491,481,393,385,375,366,271,272,272,268,266,262,266,276,278,271,279,272,279,279,277,278,284,283,279,279,272,272,280,284,278,278,279,280,287,279,755,757,755,744,800,1088,1502,1671,1778,1813,1809,1780,1756,1724,1691,1732,1633,1604,1575,1545,1516,1486,1459,1428,1399,1372,1344,1241,1218,1143,938,926,788,764,776,752,752,679,659,662,672,678,671,675,672,674,684,679,682,673,677,678,675,677,678,680,681,680,679,678,679,692,678,691,682,595,594,595,595,648,948,1137,1279,1376,1437,1478,1438,1405,1402,1369,1347,1334,1284,1264,1231,1230,1206,1182,1130,1107,1076,1083,1039,1032,993,822,805,795,596,605,648,598,586,584,582,588,596,594,582,588,587,595,590,593,589,588,604,602,596,597,597,598,601,597,592,600,592,590,594,590,944,944,949,948,1015,1550,1928,2085,2220,2305,2284,2236,2230,2197,2132,2098,2061,2052,2011,1940,1915,1908,1855,1804,1783,1741,1708,1510,1351,1268,1162,1048,993,994,974,956,922,899,876,877,888,897,894,893,892,901,908,894,903,888,896,898,887,898,899,900,899,897,898,903,905,918,906,919,910,0,0,0,0,0,0,0,0,0,0,0,0,0,0,0,0,0,0,0,0,0,0,0,0,0,0,0,0,0,0,0,0,0,0,0,0,0,0,0,0,0,0,0,0,0,0,0,0,0,0,0,0,0,0,0,0,0,0,0,0,0,0,0,0,0,1069,1069,1073,1076,1274,1874,2279,2418,2544,2618,2595,2544,2530,2490,2428,2379,2338,2320,2275,2202,2165,2158,2090,2044,2016,1965,1844,1629,1381,1203,1189,1145,1123,1120,1100,1084,1081,1053,1032,1032,1043,1053,1044,1054,1051,1047,1057,1052,1055,1046,1050,1051,1048,1050,1051,1052,1054,1053,1052,1051,1052,1065,1051,1064,1055,0,0,0,0,0,0,0,0,0,0,0,0,0,0,0,0,0,0,0,0,0,0,0,0,0,0,0,0,0,0,0,0,0,0,0,0,0,0,0,0,0,0,0,0,0,0,0,0,0,0,0,0,0,0,0,0,0,0,0,0,0,0,0,0,0,388,389,390,385,394,663,786,908,1028,1108,1093,1086,1064,1042,1009,1000,979,962,937,915,894,877,852,830,799,788,766,748,724,703,681,661,639,590,398,394,391,393,393,388,389,389,400,402,400,401,396,494,492,396,401,395,396,584,402,400,404,395,395,400,403,523,500,498,497,685,688,689,691,724,891,1386,1531,1640,1685,1648,1654,1626,1597,1571,1544,1519,1494,1466,1480,1410,1384,1356,1318,1264,1240,1217,1192,1155,1070,872,762,741,714,700,696,698,641,632,648,669,652,645,646,647,659,646,656,651,646,652,647,671,655,661,655,660,654,656,655,657,653,648,661,649,312,305,314,315,315,494,560,625,691,749,761,748,736,723,712,699,687,674,662,651,638,627,614,602,590,577,564,553,540,528,517,504,493,479,312,316,317,310,286,279,279,286,276,298,283,283,286,285,303,290,289,284,288,306,304,284,283,296,284,292,288,283,291,309,288,1018,1022,1032,1039,1098,1631,2149,2338,2418,2444,2426,2384,2347,2308,2277,2254,2196,2161,2130,2097,2042,2006,1969,1930,1889,1851,1743,1528,1177,1151,1110,1085,1079,1045,1036,1036,1038,1041,986,986,988,1003,1005,994,1009,1003,998,1000,1010,1005,1002,1004,1006,1011,1016,1010,1008,1010,1005,1018,1012,1018,1023,1016,1012,870,871,864,872,1020,1402,1684,1893,2011,2017,2004,2034,2001,1924,1940,1845,1863,1848,1765,1750,1747,1660,1628,1627,1617,1585,1552,1230,1179,1182,980,1049,912,900,858,852,866,853,807,806,831,837,822,838,834,836,838,831,833,835,834,836,837,847,825,833,838,838,831,832,830,832,832,833,832,418,420,420,422,427,679,812,885,978,1032,1039,1022,1005,988,973,956,939,922,906,931,873,856,840,854,806,789,774,757,740,723,616,460,449,438,428,424,425,427,420,426,428,440,428,430,432,447,435,439,450,436,451,431,454,438,453,439,444,438,440,439,440,437,430,444,432,705,705,707,710,759,926,1453,1570,1673,1710,1695,1690,1672,1642,1617,1589,1560,1533,1505,1519,1449,1420,1392,1353,1299,1274,1250,1224,1224,1100,782,780,755,731,722,712,715,683,678,683,685,700,691,693,694,706,692,704,700,693,699,693,720,699,706,704,704,697,702,701,703,701,693,705,693,268,268,269,261,270,310,424,485,523,563,576,568,561,553,546,539,531,524,517,508,502,495,486,479,472,484,475,451,460,452,443,325,319,314,307,271,303,304,219,218,224,230,220,219,220,222,223,221,222,223,218,220,220,221,219,221,221,223,219,221,218,221,219,221,220,1076,1086,1087,1100,1222,1859,2223,2412,2533,2510,2490,2521,2473,2384,2392,2289,2297,2275,2186,2168,2164,2056,2016,2012,1987,1924,1722,1467,1255,1204,1202,1160,1120,1114,1068,1062,1048,1050,1003,999,1030,1041,1023,1041,1026,1046,1037,1036,1035,1030,1035,1035,1039,1048,1031,1034,1037,1037,1034,1032,1029,1032,1031,1033,1032,0,0,0,0,0,0,0,0,0,0,0,0,0,0,0,0,0,0,0,0,0,0,0,0,0,0,0,0,0,0,0,0,0,0,0,0,0,0,0,0,0,0,0,0,0,0,0,0,0,0,0,0,0,0,0,0,0,0,0,0,0,0,0,0,0 ]);
