n = 10;
D = [270,238,299,248,238,101,249,132,201,75 ];
q = 0;
prec = array2d(1..0,1..2,[]);
steps = 64;
l = 360;
r = 0;
which = [];
interval = array2d(1..0,1..2,[]);
T = array3d(1..11,1..11,0..64,[0,0,0,0,0,0,0,0,0,0,0,0,0,0,0,0,0,0,0,0,0,0,0,0,0,0,0,0,0,0,0,0,0,0,0,0,0,0,0,0,0,0,0,0,0,0,0,0,0,0,0,0,0,0,0,0,0,0,0,0,0,0,0,0,0,743,741,737,737,767,1020,1108,1280,1382,1419,1413,1421,1383,1353,1332,1331,1309,1282,1260,1211,1221,1162,1142,1120,1091,1113,1046,1030,1045,1017,885,876,773,756,746,748,742,730,725,723,735,728,738,738,734,738,736,733,738,738,731,738,738,738,738,738,738,738,732,731,731,731,731,731,731,1128,1129,1125,1155,1335,1667,1848,2059,2139,2164,2146,2118,2088,2053,2021,2008,1988,1937,1904,1840,1839,1770,1736,1715,1673,1673,1605,1581,1547,1316,1242,1199,1162,1146,1137,1141,1127,1104,1104,1103,1109,1111,1108,1109,1116,1116,1108,1115,1115,1115,1115,1115,1115,1115,1115,1115,1115,1115,1115,1115,1115,1115,1115,1115,1115,825,821,821,817,872,1158,1260,1448,1540,1575,1573,1554,1527,1509,1491,1472,1460,1431,1409,1342,1359,1291,1273,1244,1215,1221,1167,1152,1059,978,972,935,925,840,824,828,829,797,783,780,781,790,801,808,800,796,801,797,798,800,791,800,800,803,803,802,799,800,795,794,794,794,794,794,794,1004,1002,999,1005,1093,1465,1612,1809,1897,1922,1904,1885,1858,1829,1810,1791,1772,1732,1706,1636,1653,1580,1558,1522,1487,1492,1430,1405,1401,1118,1094,1071,1052,1024,1022,1018,998,975,965,966,971,972,982,981,975,980,982,980,979,983,975,985,983,983,985,980,983,983,974,974,974,974,974,974,974,832,832,828,827,884,1174,1278,1457,1556,1595,1585,1566,1546,1521,1506,1490,1476,1446,1424,1358,1375,1307,1289,1260,1231,1235,1181,1167,1173,1137,1040,947,880,851,835,838,829,806,791,788,790,794,806,807,799,805,803,801,805,807,801,807,805,807,807,807,807,807,801,800,800,800,800,800,800,783,786,789,794,866,1118,1279,1412,1511,1565,1565,1541,1512,1514,1472,1437,1413,1388,1362,1338,1316,1289,1263,1238,1214,1189,1164,1139,1115,1090,1064,898,887,811,799,796,798,802,776,777,772,796,784,773,782,798,785,798,793,801,789,787,779,779,784,794,779,783,778,778,778,778,778,778,778,910,913,916,950,1047,1327,1439,1653,1739,1785,1758,1745,1693,1659,1649,1660,1634,1598,1566,1518,1522,1456,1417,1386,1354,1377,1310,1296,1259,1142,1129,1037,944,936,928,949,929,901,896,905,895,897,899,904,906,901,901,901,901,901,901,901,901,901,901,901,901,901,901,901,901,901,901,901,901,302,303,316,315,306,396,462,515,546,620,616,607,613,603,572,584,574,543,540,543,533,511,513,503,493,472,474,464,454,444,434,409,413,403,393,332,333,334,287,295,284,295,306,298,294,300,290,294,295,304,291,288,291,294,293,294,295,297,293,293,293,293,293,293,293,895,893,893,890,952,1248,1381,1581,1670,1703,1701,1680,1653,1631,1611,1590,1577,1545,1523,1453,1469,1402,1380,1348,1319,1321,1266,1243,1137,1082,978,955,960,912,896,900,839,816,806,807,812,813,823,822,816,821,823,821,820,824,816,826,824,824,826,821,824,824,815,815,815,815,815,815,815,0,0,0,0,0,0,0,0,0,0,0,0,0,0,0,0,0,0,0,0,0,0,0,0,0,0,0,0,0,0,0,0,0,0,0,0,0,0,0,0,0,0,0,0,0,0,0,0,0,0,0,0,0,0,0,0,0,0,0,0,0,0,0,0,0,612,614,615,615,621,707,904,1009,1162,1220,1241,1218,1176,1158,1143,1115,1128,1080,1062,1074,1021,1033,992,972,959,961,943,902,878,884,844,838,810,655,645,621,623,645,572,572,574,589,585,578,581,597,586,581,595,595,601,601,601,601,580,578,588,586,582,584,583,584,584,585,584,0,0,0,0,0,0,0,0,0,0,0,0,0,0,0,0,0,0,0,0,0,0,0,0,0,0,0,0,0,0,0,0,0,0,0,0,0,0,0,0,0,0,0,0,0,0,0,0,0,0,0,0,0,0,0,0,0,0,0,0,0,0,0,0,0,702,704,707,709,712,953,1094,1217,1328,1391,1400,1351,1361,1324,1300,1291,1262,1238,1216,1193,1168,1162,1130,1105,1084,1054,1038,1024,990,976,905,882,750,723,718,699,716,703,664,654,663,662,662,688,673,695,687,679,686,672,673,676,671,689,679,672,676,677,668,672,673,682,671,695,675,297,298,299,300,301,376,443,495,546,596,608,604,588,584,569,559,550,547,530,520,511,501,491,481,471,462,452,443,433,423,413,403,382,314,315,302,303,304,280,280,280,280,280,280,280,280,280,280,280,280,280,280,280,280,280,280,280,280,280,280,280,280,280,280,280,353,354,355,373,374,372,541,599,661,712,700,689,680,694,699,687,676,654,607,602,592,580,570,592,547,537,525,520,523,492,482,475,421,475,362,375,359,360,331,331,331,331,331,331,331,331,331,331,331,331,331,331,331,331,331,331,331,331,331,331,331,331,331,331,331,330,331,333,333,334,357,495,553,611,662,673,662,651,641,636,619,608,597,592,576,565,554,544,533,522,511,501,490,479,468,375,366,357,348,339,335,336,337,322,315,320,321,317,322,322,322,322,322,322,320,322,322,322,322,322,322,321,322,322,319,320,322,322,322,322,1118,1122,1125,1132,1224,1644,1880,2049,2207,2263,2253,2215,2183,2147,2109,2075,2038,2002,1966,1928,1892,1862,1824,1795,1754,1714,1679,1640,1527,1324,1277,1222,1176,1155,1138,1140,1144,1154,1054,1059,1075,1079,1084,1083,1103,1086,1076,1102,1073,1075,1072,1083,1090,1090,1089,1088,1077,1077,1072,1087,1088,1088,1102,1094,1093,654,661,658,659,673,856,1017,1129,1241,1312,1318,1296,1283,1262,1244,1221,1194,1174,1154,1134,1116,1091,1068,1044,1025,1003,982,967,950,890,875,811,747,691,668,664,667,646,581,571,577,579,573,601,578,597,591,580,598,581,584,585,582,591,583,581,583,590,582,581,582,587,583,592,585,748,751,752,760,793,929,1159,1294,1440,1504,1505,1483,1459,1435,1410,1387,1362,1329,1314,1292,1265,1241,1217,1192,1174,1135,1119,1096,1078,1048,1029,905,860,783,768,777,766,767,689,692,692,718,709,707,701,708,706,718,718,718,718,718,718,718,718,718,718,718,718,717,718,718,718,718,718,410,411,412,414,415,493,613,675,744,806,829,809,796,784,777,757,744,732,719,717,712,680,667,654,642,629,616,601,590,583,564,523,511,484,420,427,417,397,348,342,345,349,345,369,348,369,364,350,368,352,352,355,350,361,353,349,353,358,350,351,350,357,351,362,353,612,614,615,615,621,707,904,1009,1162,1220,1241,1218,1176,1158,1143,1115,1128,1080,1062,1074,1021,1033,992,972,959,961,943,902,878,884,844,838,810,655,645,621,623,645,572,572,574,589,585,578,581,597,586,581,595,595,601,601,601,601,580,578,588,586,582,584,583,584,584,585,584,1162,1146,1164,1187,1323,1609,1986,2132,2244,2258,2274,2229,2167,2131,2115,2088,2043,2013,1983,1914,1884,1872,1839,1812,1758,1719,1623,1583,1531,1269,1327,1251,1222,1197,1182,1172,1113,1120,1100,1108,1113,1115,1120,1124,1130,1125,1116,1122,1124,1134,1123,1119,1119,1125,1123,1128,1130,1123,1123,1124,1120,1123,1119,1124,1112,669,675,676,671,727,914,1049,1178,1295,1339,1340,1318,1339,1276,1280,1251,1212,1196,1174,1142,1125,1105,1111,1083,1067,1020,998,977,978,935,913,887,772,766,679,679,695,697,671,676,682,693,682,684,674,683,677,670,685,679,676,692,688,689,683,694,690,692,694,690,686,686,675,690,684,0,0,0,0,0,0,0,0,0,0,0,0,0,0,0,0,0,0,0,0,0,0,0,0,0,0,0,0,0,0,0,0,0,0,0,0,0,0,0,0,0,0,0,0,0,0,0,0,0,0,0,0,0,0,0,0,0,0,0,0,0,0,0,0,0,558,560,562,565,583,722,868,969,1066,1131,1136,1117,1098,1080,1063,1044,1026,1007,989,971,952,933,916,898,879,861,843,824,805,787,768,658,643,591,578,589,586,511,497,504,501,507,507,508,521,519,506,510,512,525,513,506,507,518,512,513,514,511,510,511,506,513,512,513,501,514,516,518,520,527,693,785,876,968,1034,1036,1023,1046,986,973,953,937,920,904,888,873,855,839,822,829,792,773,756,760,726,707,682,628,612,528,522,524,525,517,520,521,528,526,524,524,530,520,524,523,523,523,527,530,530,525,524,550,527,546,549,529,549,522,528,529,620,621,623,636,643,842,956,1079,1189,1245,1247,1227,1249,1184,1167,1138,1127,1105,1087,1068,1046,1028,1031,987,993,948,926,908,908,865,848,757,738,645,631,628,630,628,615,622,618,622,632,630,635,639,625,644,629,631,628,624,631,634,632,634,635,629,628,632,630,633,634,641,629,1216,1220,1224,1275,1552,1959,2222,2434,2495,2527,2504,2474,2422,2385,2341,2296,2248,2203,2162,2116,2063,2028,1981,1938,1889,1847,1804,1759,1631,1548,1374,1300,1287,1252,1234,1237,1251,1219,1218,1219,1222,1242,1246,1223,1256,1233,1257,1252,1239,1249,1255,1293,1309,1259,1271,1271,1260,1249,1245,1249,1261,1285,1251,1275,1243,520,522,523,525,534,704,798,953,982,1032,1049,1036,1019,1002,985,969,948,931,918,900,884,867,850,833,817,797,783,763,749,729,716,699,682,544,530,526,530,529,519,524,535,566,533,539,524,544,533,540,531,525,532,540,544,580,541,540,540,540,547,561,541,579,563,583,563,1278,1262,1277,1338,1540,1846,2235,2360,2468,2476,2491,2452,2362,2335,2286,2281,2242,2208,2172,2107,2071,2042,2023,1969,1936,1888,1862,1813,1628,1404,1422,1355,1340,1336,1289,1297,1240,1242,1227,1235,1240,1242,1247,1248,1257,1252,1243,1249,1251,1261,1250,1246,1246,1252,1250,1255,1257,1250,1250,1251,1247,1250,1246,1251,1239,443,444,446,447,448,591,667,744,820,881,888,875,899,857,834,819,805,793,777,773,750,735,721,704,716,679,674,652,638,623,610,494,482,470,454,450,451,414,403,406,400,407,409,411,424,420,406,410,412,424,412,406,408,416,412,415,415,413,410,413,408,415,412,418,406,1162,1146,1164,1187,1323,1609,1986,2132,2244,2258,2274,2229,2167,2131,2115,2088,2043,2013,1983,1914,1884,1872,1839,1812,1758,1719,1623,1583,1531,1269,1327,1251,1222,1197,1182,1172,1113,1120,1100,1108,1113,1115,1120,1124,1130,1125,1116,1122,1124,1134,1123,1119,1119,1125,1123,1128,1130,1123,1123,1124,1120,1123,1119,1124,1112,711,716,735,718,723,966,1123,1243,1356,1422,1435,1384,1375,1340,1332,1307,1317,1266,1241,1244,1216,1178,1154,1128,1110,1079,1062,1039,1039,995,791,794,753,774,724,724,727,726,711,710,718,752,722,713,708,730,724,716,736,727,734,736,725,724,717,717,720,725,715,719,719,712,719,724,715,260,261,261,261,284,258,382,426,440,514,528,519,511,502,493,486,477,469,460,452,444,435,427,419,411,402,393,386,377,369,360,352,342,333,290,286,286,287,253,251,253,255,252,260,256,270,260,257,269,255,256,255,255,259,259,257,256,257,256,256,256,258,258,306,260,509,502,512,513,525,648,780,848,938,1020,1022,992,989,980,948,928,913,907,895,882,862,845,827,814,794,818,743,747,722,717,699,673,666,577,520,501,510,505,497,503,502,513,503,506,504,509,499,511,509,505,508,507,510,507,510,513,520,517,510,506,522,525,503,506,501,0,0,0,0,0,0,0,0,0,0,0,0,0,0,0,0,0,0,0,0,0,0,0,0,0,0,0,0,0,0,0,0,0,0,0,0,0,0,0,0,0,0,0,0,0,0,0,0,0,0,0,0,0,0,0,0,0,0,0,0,0,0,0,0,0,324,329,326,327,328,426,488,539,594,643,656,645,642,614,614,605,594,596,573,563,553,548,532,521,517,511,490,480,469,469,458,492,437,418,408,329,330,331,320,320,320,322,324,322,325,324,327,327,325,325,327,328,329,327,329,350,329,332,328,332,346,344,347,332,331,150,151,151,185,185,191,216,242,267,292,309,303,299,293,289,283,279,273,269,265,259,255,249,245,239,235,229,225,220,215,210,205,200,195,190,187,187,188,142,139,141,142,140,146,143,149,147,144,150,143,144,143,143,147,144,145,143,144,143,142,144,144,144,185,146,1004,1006,1009,1030,1144,1416,1773,2003,2094,2125,2112,2070,2031,1998,1961,1923,1886,1849,1811,1798,1727,1699,1715,1632,1587,1549,1503,1475,1437,1400,1310,1084,1053,1032,1021,1021,1026,1026,986,996,997,993,1013,1001,1011,1014,998,1014,997,998,997,998,1006,1000,1002,999,1003,999,997,1004,1004,1003,1015,1004,1005,471,472,476,476,480,577,700,780,857,928,954,936,928,912,892,877,868,847,832,817,802,803,777,755,735,726,710,695,679,664,654,602,614,549,482,477,479,481,414,412,412,419,420,419,416,429,411,419,419,415,421,424,423,419,419,420,421,421,420,420,422,421,420,419,419,850,853,858,861,895,1150,1361,1510,1631,1697,1699,1670,1645,1615,1589,1570,1533,1517,1479,1460,1431,1405,1376,1356,1322,1296,1266,1240,1212,1144,1082,1017,906,886,871,867,869,870,828,830,836,877,846,842,828,843,844,864,862,861,861,865,853,871,858,861,862,874,864,852,855,875,872,871,860,216,216,216,217,230,277,312,346,381,415,431,424,418,411,404,414,408,385,378,371,365,358,352,345,338,332,325,319,312,305,299,292,286,279,272,230,230,259,186,184,189,188,187,187,183,188,189,189,189,189,188,187,190,188,191,191,184,187,185,186,187,185,188,193,185,711,716,735,718,723,966,1123,1243,1356,1422,1435,1384,1375,1340,1332,1307,1317,1266,1241,1244,1216,1178,1154,1128,1110,1079,1062,1039,1039,995,791,794,753,774,724,724,727,726,711,710,718,752,722,713,708,730,724,716,736,727,734,736,725,724,717,717,720,725,715,719,719,712,719,724,715,916,925,922,923,943,1210,1476,1661,1767,1829,1813,1784,1761,1734,1691,1668,1638,1602,1571,1546,1514,1505,1472,1453,1412,1386,1355,1266,1242,1103,1176,1077,1035,944,939,934,932,911,834,823,828,840,836,836,839,836,831,837,839,839,836,838,839,837,835,838,840,844,840,838,837,838,835,832,832,369,370,371,372,374,479,542,604,666,738,748,735,723,712,693,688,675,663,657,645,633,616,603,598,580,574,562,545,529,518,510,498,487,475,378,375,376,377,363,355,352,356,363,371,357,363,363,359,360,361,360,362,362,394,365,365,360,364,360,380,366,365,364,380,363,450,428,463,464,433,574,671,749,800,898,907,893,878,864,807,819,750,737,723,739,697,684,671,657,644,631,618,606,618,605,619,592,561,448,420,467,495,435,441,442,441,441,441,442,449,446,442,445,442,445,449,445,450,446,459,451,446,449,450,449,450,460,449,450,450,278,279,280,281,283,320,399,447,492,540,571,563,556,547,535,526,517,508,499,489,480,471,462,453,444,434,425,416,408,400,389,379,370,361,324,284,284,285,225,220,224,228,227,223,223,225,225,227,227,227,227,228,226,225,228,227,225,228,225,225,224,224,225,225,225,0,0,0,0,0,0,0,0,0,0,0,0,0,0,0,0,0,0,0,0,0,0,0,0,0,0,0,0,0,0,0,0,0,0,0,0,0,0,0,0,0,0,0,0,0,0,0,0,0,0,0,0,0,0,0,0,0,0,0,0,0,0,0,0,0,323,324,323,324,324,419,481,539,595,645,654,644,633,623,612,601,595,584,573,563,552,542,531,521,510,500,489,479,511,499,447,435,424,340,332,327,328,329,324,324,326,342,333,324,328,336,328,331,344,345,346,346,344,349,324,326,338,334,333,326,333,335,331,332,333,1111,1116,1122,1137,1354,1697,2033,2219,2302,2345,2310,2273,2238,2201,2164,2103,2067,2028,1984,1942,1897,1856,1821,1798,1743,1730,1673,1619,1505,1355,1238,1206,1179,1142,1142,1130,1133,1132,1077,1083,1085,1081,1106,1093,1104,1102,1086,1106,1091,1093,1088,1090,1100,1093,1093,1092,1096,1096,1090,1094,1093,1093,1105,1092,1092,515,529,519,521,534,659,786,878,970,1038,1078,1061,1009,1026,1009,984,943,926,909,893,907,860,842,826,809,793,776,785,742,726,728,650,635,539,527,541,525,555,505,499,500,507,513,511,509,518,499,511,513,510,512,516,517,512,510,513,514,518,513,510,511,511,510,507,507,1035,1044,1053,1042,1089,1409,1736,1916,2007,2056,2073,2041,1992,1968,1930,1873,1858,1814,1786,1760,1723,1698,1663,1630,1594,1546,1524,1493,1438,1188,1167,1128,1127,1064,1065,1054,1062,1031,958,950,955,967,963,963,965,963,958,964,966,966,963,965,966,964,962,965,967,971,967,965,964,965,962,959,959,156,157,157,158,158,168,222,246,270,294,311,305,301,297,292,287,282,278,272,268,264,259,254,249,245,240,235,231,226,221,216,212,207,202,168,164,165,165,128,126,127,128,128,126,127,128,126,128,128,128,127,128,127,126,126,128,127,129,127,126,127,127,127,126,126,916,925,922,923,943,1210,1476,1661,1767,1829,1813,1784,1761,1734,1691,1668,1638,1602,1571,1546,1514,1505,1472,1453,1412,1386,1355,1266,1242,1103,1176,1077,1035,944,939,934,932,911,834,823,828,840,836,836,839,836,831,837,839,839,836,838,839,837,835,838,840,844,840,838,837,838,835,832,832,728,734,737,736,744,943,1125,1256,1388,1458,1453,1432,1397,1373,1366,1326,1348,1290,1273,1264,1238,1206,1177,1157,1139,1103,1089,1064,1033,1014,991,967,819,774,768,742,754,755,691,691,694,709,705,699,701,718,707,705,714,717,725,727,728,726,699,704,709,707,701,709,705,704,702,706,703,127,127,128,128,158,161,182,203,224,245,258,254,250,246,242,238,234,229,226,222,217,214,210,205,202,198,193,190,185,181,178,173,169,166,161,158,158,159,119,119,120,120,120,121,120,121,121,124,119,122,119,126,121,122,119,126,121,121,119,125,122,120,118,121,119,606,608,611,612,615,747,907,1004,1168,1214,1216,1181,1161,1159,1122,1120,1091,1080,1059,1041,1001,993,962,957,944,925,905,886,869,860,832,761,648,633,620,616,603,605,586,582,586,586,595,584,592,595,589,603,593,594,591,617,592,596,622,594,594,590,589,597,593,594,592,606,592,280,281,282,283,328,366,415,402,513,486,574,565,555,546,537,528,519,509,500,491,481,473,464,454,388,436,426,418,408,399,390,380,371,362,353,346,347,348,276,274,274,282,279,298,277,282,278,283,279,278,277,279,279,278,279,280,282,279,279,274,279,279,277,279,274,261,261,262,263,264,339,383,427,471,514,528,520,511,503,495,486,478,469,462,453,445,436,429,420,412,403,394,387,378,370,361,354,345,337,328,324,324,325,255,260,256,260,263,259,260,260,257,257,258,259,256,261,261,262,257,259,262,260,263,263,260,324,256,260,259,0,0,0,0,0,0,0,0,0,0,0,0,0,0,0,0,0,0,0,0,0,0,0,0,0,0,0,0,0,0,0,0,0,0,0,0,0,0,0,0,0,0,0,0,0,0,0,0,0,0,0,0,0,0,0,0,0,0,0,0,0,0,0,0,0,1087,1056,1060,1080,1291,1622,1924,2105,2186,2269,2203,2152,2126,2086,2046,2009,2028,1931,1927,1881,1853,1788,1736,1698,1658,1668,1631,1542,1527,1198,1166,1134,1103,1082,1108,1096,1077,1123,1075,1077,1081,1075,1090,1079,1081,1082,1082,1088,1084,1086,1083,1099,1087,1082,1104,1086,1085,1084,1082,1090,1086,1083,1088,1087,1086,558,559,570,562,564,705,846,965,1073,1128,1131,1108,1096,1079,1054,1039,1021,1005,986,966,949,932,912,894,875,857,839,821,812,785,757,741,601,603,581,566,589,581,503,499,500,503,506,496,497,498,498,504,503,503,502,525,503,498,521,503,501,503,503,506,502,499,504,503,502,868,871,874,880,920,1089,1381,1550,1664,1733,1734,1715,1678,1648,1623,1593,1565,1537,1504,1491,1455,1426,1405,1377,1349,1326,1292,1266,1236,1169,1126,936,925,904,888,879,897,888,808,811,812,849,829,828,821,829,827,853,840,845,846,864,843,871,840,848,851,863,850,842,841,856,854,843,840,326,315,316,317,318,412,465,518,570,620,632,622,612,602,592,583,573,563,553,543,533,523,513,503,495,485,475,465,455,445,435,425,415,405,351,319,320,321,270,270,268,273,278,266,267,268,268,274,273,274,270,287,271,268,290,271,271,271,271,276,270,269,272,273,270,728,734,737,736,744,943,1125,1256,1388,1458,1453,1432,1397,1373,1366,1326,1348,1290,1273,1264,1238,1206,1177,1157,1139,1103,1089,1064,1033,1014,991,967,819,774,768,742,754,755,691,691,694,709,705,699,701,718,707,705,714,717,725,727,728,726,699,704,709,707,701,709,705,704,702,706,703,837,842,842,861,903,1055,1337,1476,1600,1652,1662,1626,1611,1584,1557,1538,1505,1479,1453,1428,1403,1381,1348,1322,1296,1273,1247,1224,1181,1067,1035,961,891,884,864,858,820,819,786,785,783,780,790,794,790,798,794,788,800,800,804,803,813,816,808,818,812,813,814,811,803,804,804,804,804,1195,1190,1203,1226,1375,1735,2077,2239,2365,2415,2409,2368,2356,2292,2254,2215,2179,2142,2106,2065,2022,1988,1945,1896,1857,1824,1686,1658,1580,1427,1340,1313,1260,1266,1213,1213,1166,1160,1172,1198,1172,1170,1166,1185,1184,1176,1195,1183,1171,1179,1174,1201,1215,1182,1185,1183,1180,1213,1180,1184,1181,1194,1189,1179,1175,1165,1150,1173,1193,1363,1812,2135,2251,2379,2415,2398,2357,2314,2273,2201,2179,2137,2093,2051,2009,1983,1898,1863,1830,1791,1766,1708,1667,1619,1481,1412,1271,1239,1209,1178,1159,1141,1138,1133,1133,1131,1146,1143,1138,1137,1166,1131,1139,1137,1136,1139,1162,1147,1141,1171,1145,1147,1147,1164,1169,1139,1144,1142,1143,1136,1087,1062,1065,1102,1281,1670,1909,2150,2196,2230,2214,2177,2137,2099,2107,2020,1981,1942,1902,1864,1828,1793,1798,1711,1673,1634,1639,1598,1517,1446,1227,1147,1116,1089,1073,1076,1066,1060,1050,1052,1069,1073,1068,1074,1062,1072,1075,1083,1082,1076,1083,1096,1088,1078,1124,1098,1100,1099,1090,1107,1092,1096,1090,1096,1089,1234,1209,1213,1254,1503,1944,2197,2435,2472,2502,2480,2444,2395,2352,2363,2268,2223,2179,2135,2094,2054,2020,2018,1923,1882,1840,1842,1735,1611,1500,1353,1296,1264,1241,1227,1224,1180,1185,1174,1175,1196,1193,1189,1202,1186,1206,1195,1206,1199,1194,1198,1212,1209,1201,1238,1212,1207,1214,1213,1228,1206,1211,1209,1210,1203,1184,1171,1179,1211,1383,1850,2083,2324,2412,2444,2423,2380,2339,2295,2275,2212,2169,2127,2085,2044,1996,1964,1928,1879,1828,1794,1766,1642,1584,1476,1353,1263,1230,1199,1189,1192,1163,1137,1129,1129,1128,1138,1141,1139,1139,1142,1141,1145,1146,1147,1149,1161,1163,1156,1202,1160,1161,1160,1165,1162,1166,1175,1166,1174,1167,0,0,0,0,0,0,0,0,0,0,0,0,0,0,0,0,0,0,0,0,0,0,0,0,0,0,0,0,0,0,0,0,0,0,0,0,0,0,0,0,0,0,0,0,0,0,0,0,0,0,0,0,0,0,0,0,0,0,0,0,0,0,0,0,0,796,798,801,824,872,1192,1389,1568,1681,1727,1719,1688,1657,1626,1595,1564,1542,1508,1486,1441,1410,1379,1361,1317,1287,1256,1225,1194,1163,1133,1013,984,974,827,810,809,813,801,798,800,801,811,809,807,807,831,796,803,802,800,803,844,811,811,835,811,808,809,835,837,804,807,810,813,806,543,537,546,549,558,664,800,888,977,1042,1061,1044,1029,1011,996,979,963,946,931,914,898,891,866,848,833,818,801,784,768,753,735,691,675,567,556,552,553,555,521,521,523,526,526,525,523,525,524,527,522,524,526,529,527,526,528,528,526,527,525,530,528,527,527,527,527,1093,1068,1070,1107,1284,1670,1908,2149,2196,2230,2214,2177,2137,2098,2114,2022,1984,1944,1905,1866,1830,1797,1802,1716,1677,1639,1644,1603,1522,1455,1205,1152,1122,1098,1081,1080,1021,1026,1015,1016,1037,1034,1030,1043,1027,1047,1036,1047,1040,1035,1039,1053,1050,1042,1079,1053,1048,1055,1054,1069,1047,1052,1050,1051,1044,837,842,842,861,903,1055,1337,1476,1600,1652,1662,1626,1611,1584,1557,1538,1505,1479,1453,1428,1403,1381,1348,1322,1296,1273,1247,1224,1181,1067,1035,961,891,884,864,858,820,819,786,785,783,780,790,794,790,798,794,788,800,800,804,803,813,816,808,818,812,813,814,811,803,804,804,804,804,809,799,815,803,883,1059,1296,1409,1561,1574,1614,1583,1522,1548,1512,1453,1436,1404,1378,1361,1359,1321,1298,1264,1248,1193,1202,1145,1101,1075,1066,918,874,813,817,809,816,779,744,741,744,745,745,741,747,744,747,746,746,767,772,776,756,750,751,752,749,748,746,748,750,754,751,748,749,626,600,621,623,625,713,934,1045,1132,1244,1244,1209,1162,1179,1181,1144,1124,1110,1084,1061,1022,1015,991,986,945,928,937,919,890,849,765,789,660,645,630,626,628,636,569,550,552,561,582,580,570,577,578,583,585,584,584,582,581,586,584,576,587,586,575,583,582,582,582,583,576,403,404,405,406,408,483,632,673,743,796,814,800,788,775,753,773,760,723,710,698,685,694,710,666,625,613,600,613,600,587,574,556,542,405,413,408,489,483,395,399,401,405,402,403,402,405,398,402,400,401,405,405,409,407,404,406,408,400,409,407,408,413,401,405,401,417,422,425,426,428,496,611,682,767,837,859,840,831,814,803,789,776,761,748,734,720,707,690,675,666,652,639,624,612,597,584,569,533,511,478,429,435,435,386,375,378,384,384,392,382,388,386,385,397,385,391,393,392,396,391,387,386,397,397,393,381,386,389,388,378,563,569,572,573,575,709,834,932,1051,1126,1143,1130,1104,1082,1067,1052,1032,1013,996,977,960,941,922,904,886,869,851,838,818,800,718,698,682,596,589,577,581,559,500,500,502,507,502,510,503,512,510,509,511,506,508,510,507,512,512,510,505,511,503,508,504,507,503,510,502,532,534,537,539,541,665,786,878,987,1062,1078,1061,1048,1027,1009,995,978,954,940,924,908,891,872,853,840,820,803,788,768,753,684,664,616,560,547,542,544,526,464,457,458,467,473,474,471,476,474,473,475,473,474,471,470,476,477,473,477,472,464,477,477,479,477,479,475,694,711,698,701,812,1029,1261,1382,1480,1560,1574,1496,1468,1441,1412,1384,1357,1328,1301,1298,1245,1217,1179,1161,1134,1105,1078,1050,1021,1014,966,958,910,833,708,722,711,730,711,708,724,792,719,732,714,734,714,750,726,714,724,723,753,805,751,730,731,720,732,732,732,735,718,735,725,0,0,0,0,0,0,0,0,0,0,0,0,0,0,0,0,0,0,0,0,0,0,0,0,0,0,0,0,0,0,0,0,0,0,0,0,0,0,0,0,0,0,0,0,0,0,0,0,0,0,0,0,0,0,0,0,0,0,0,0,0,0,0,0,0,917,922,922,926,973,1250,1532,1665,1807,1815,1833,1809,1738,1748,1706,1657,1646,1614,1573,1537,1517,1507,1483,1447,1408,1377,1376,1329,1202,1175,1031,1004,987,941,935,931,941,906,871,868,871,872,872,868,874,871,874,873,873,894,899,903,883,877,878,879,876,875,873,875,877,881,878,875,876,423,427,431,432,434,543,614,684,768,836,858,850,831,814,804,790,777,762,750,736,723,709,695,682,669,656,642,632,616,602,588,575,534,454,444,434,435,400,341,341,343,348,343,351,344,353,351,350,352,347,349,351,348,353,353,351,346,352,344,349,345,348,344,351,343,809,799,815,803,883,1059,1296,1409,1561,1574,1614,1583,1522,1548,1512,1453,1436,1404,1378,1361,1359,1321,1298,1264,1248,1193,1202,1145,1101,1075,1066,918,874,813,817,809,816,779,744,741,744,745,745,741,747,744,747,746,746,767,772,776,756,750,751,752,749,748,746,748,750,754,751,748,749,381,383,384,385,396,493,567,643,690,768,750,739,727,740,705,716,682,671,658,647,636,623,628,602,591,580,568,557,553,541,531,517,506,403,401,396,396,376,334,331,336,336,328,334,337,336,339,343,352,341,340,340,338,344,341,338,335,342,338,335,341,336,336,340,339,890,891,893,896,893,1224,1390,1512,1607,1653,1643,1620,1598,1603,1553,1531,1511,1496,1473,1458,1430,1406,1376,1353,1326,1299,1276,1268,1219,1027,972,923,920,887,871,878,871,853,817,831,852,837,841,831,840,838,833,839,834,836,838,855,858,859,843,836,841,846,843,836,836,864,836,841,835,1175,1185,1180,1206,1496,1769,1998,2147,2218,2259,2206,2173,2163,2125,2096,2057,2024,1985,1958,1923,1883,1849,1810,1782,1743,1706,1666,1616,1460,1365,1344,1224,1197,1191,1169,1192,1186,1181,1154,1148,1162,1175,1169,1165,1169,1175,1165,1166,1169,1167,1173,1180,1179,1187,1177,1171,1171,1178,1178,1165,1165,1197,1165,1170,1164,863,870,875,880,956,1168,1385,1538,1634,1661,1655,1638,1634,1582,1560,1559,1507,1479,1447,1449,1395,1398,1387,1345,1298,1270,1265,1114,1190,1066,1023,938,887,867,870,891,875,892,847,852,862,867,878,869,865,870,870,865,864,864,871,885,882,884,873,862,869,876,877,875,875,897,872,874,868,1049,1059,1055,1083,1267,1479,1742,1906,1995,2014,2003,1981,1953,1923,1898,1875,1809,1780,1743,1747,1693,1683,1668,1620,1558,1535,1520,1492,1433,1379,1122,1126,1069,1052,1055,1062,1057,1071,1028,1034,1035,1049,1048,1043,1044,1051,1043,1049,1041,1045,1048,1057,1065,1067,1058,1045,1048,1055,1054,1049,1048,1068,1048,1050,1044,873,881,882,902,959,1185,1403,1552,1647,1680,1674,1658,1646,1601,1573,1577,1524,1490,1464,1466,1411,1416,1403,1360,1310,1277,1280,1253,1204,1099,937,1030,898,878,881,889,886,900,855,861,866,872,874,867,874,872,874,872,871,874,879,890,889,893,878,872,876,882,883,881,881,895,879,880,874,571,573,575,576,590,789,887,997,1092,1139,1152,1130,1121,1093,1075,1060,1039,1020,1003,984,965,948,942,911,904,875,856,841,820,801,784,765,748,700,584,636,582,583,569,565,568,570,574,567,568,570,571,576,577,577,577,585,580,577,585,584,583,585,590,585,587,585,587,607,589,958,970,979,989,1098,1392,1590,1744,1828,1875,1853,1821,1793,1770,1724,1706,1672,1654,1606,1593,1586,1537,1494,1455,1436,1407,1381,1366,1340,1307,1057,1003,981,969,969,980,983,979,945,954,949,958,963,957,965,969,956,967,962,961,965,982,984,987,967,960,969,969,970,967,967,978,967,972,966,0,0,0,0,0,0,0,0,0,0,0,0,0,0,0,0,0,0,0,0,0,0,0,0,0,0,0,0,0,0,0,0,0,0,0,0,0,0,0,0,0,0,0,0,0,0,0,0,0,0,0,0,0,0,0,0,0,0,0,0,0,0,0,0,0,935,942,946,957,1060,1279,1511,1671,1765,1789,1780,1764,1758,1704,1680,1678,1622,1593,1566,1559,1504,1505,1493,1450,1401,1370,1364,1334,1246,1026,1015,1011,959,950,942,963,898,912,869,877,880,890,889,884,885,892,884,890,882,886,889,898,906,908,899,886,889,896,895,890,889,909,889,891,885,381,383,384,385,396,493,567,643,690,768,750,739,727,740,705,716,682,671,658,647,636,623,628,602,591,580,568,557,553,541,531,517,506,403,401,396,396,376,334,331,336,336,328,334,337,336,339,343,352,341,340,340,338,344,341,338,335,342,338,335,341,336,336,340,339,780,781,787,792,823,966,1239,1373,1496,1540,1561,1517,1493,1468,1444,1414,1390,1385,1347,1319,1328,1273,1248,1237,1218,1184,1162,1109,1054,1031,982,974,874,814,794,789,792,779,701,702,699,704,716,712,710,713,706,710,712,712,710,711,713,711,709,709,709,709,709,709,709,709,709,709,709,340,349,350,342,363,410,498,595,656,678,693,717,671,643,650,669,629,616,607,580,583,558,589,537,526,529,504,507,496,471,471,459,449,360,350,364,339,356,321,321,323,325,323,323,326,327,323,322,323,323,323,327,339,325,322,321,321,321,321,321,321,321,321,321,321,478,486,487,489,500,610,723,818,914,966,1003,985,960,932,928,913,896,869,878,862,812,807,784,777,760,746,754,715,708,650,636,621,582,514,530,492,494,510,422,420,425,429,428,428,428,433,431,433,430,429,434,436,439,438,436,430,430,430,430,430,430,430,430,430,430,135,136,137,137,138,169,193,217,239,262,281,276,272,268,262,258,253,248,244,240,236,231,227,223,218,213,209,203,199,195,191,185,181,177,172,138,139,139,97,94,98,101,100,98,97,98,100,100,100,100,101,101,100,99,102,98,98,98,98,98,98,98,98,98,98,287,289,290,291,292,347,419,468,516,564,583,574,565,556,546,537,528,519,510,501,491,482,473,464,455,445,436,427,417,408,400,390,381,357,297,293,293,294,246,244,247,249,246,249,247,248,247,247,248,247,247,247,247,248,246,246,246,246,246,246,246,246,246,246,246,249,251,252,252,252,268,361,405,447,490,511,502,494,487,478,470,462,453,445,437,429,421,413,404,397,389,380,372,363,300,293,286,280,272,266,253,260,261,214,212,216,218,215,223,219,228,226,219,236,218,220,219,218,223,218,218,218,218,218,218,218,218,218,218,218,1010,1013,1016,1037,1150,1409,1766,1996,2094,2133,2123,2082,2044,2006,1978,1934,1891,1860,1811,1785,1747,1709,1672,1634,1597,1559,1521,1483,1437,1362,1133,1090,1060,1038,1028,1027,1033,1067,949,957,959,954,979,968,978,975,961,979,964,966,962,963,974,967,967,963,963,963,963,963,963,963,963,963,963,469,469,471,475,481,574,693,773,849,919,950,930,919,907,886,872,859,842,826,812,797,777,772,752,737,721,708,690,676,667,649,600,570,491,479,486,477,477,377,373,374,380,386,386,383,390,374,384,386,383,386,389,391,386,384,384,384,384,384,384,384,384,384,384,384,903,910,916,924,952,1196,1483,1668,1753,1785,1769,1776,1725,1700,1694,1641,1599,1572,1557,1523,1497,1485,1439,1419,1392,1364,1331,1306,1280,1120,1095,1040,952,923,920,923,917,906,828,829,826,831,843,839,837,840,833,837,839,839,837,838,840,838,836,836,836,836,836,836,836,836,836,836,836,0,0,0,0,0,0,0,0,0,0,0,0,0,0,0,0,0,0,0,0,0,0,0,0,0,0,0,0,0,0,0,0,0,0,0,0,0,0,0,0,0,0,0,0,0,0,0,0,0,0,0,0,0,0,0,0,0,0,0,0,0,0,0,0,0,780,781,787,792,823,966,1239,1373,1496,1540,1561,1517,1493,1468,1444,1414,1390,1385,1347,1319,1328,1273,1248,1237,1218,1184,1162,1109,1054,1031,982,974,874,814,794,789,792,779,701,702,699,704,716,712,710,713,706,710,712,712,710,711,713,711,709,709,709,709,709,709,709,709,709,709,709,0,0,0,0,0,0,0,0,0,0,0,0,0,0,0,0,0,0,0,0,0,0,0,0,0,0,0,0,0,0,0,0,0,0,0,0,0,0,0,0,0,0,0,0,0,0,0,0,0,0,0,0,0,0,0,0,0,0,0,0,0,0,0,0,0,743,741,737,737,767,1020,1108,1280,1382,1419,1413,1421,1383,1353,1332,1331,1309,1282,1260,1211,1221,1162,1142,1120,1091,1113,1046,1030,1045,1017,885,876,773,756,746,748,742,730,725,723,735,728,738,738,734,738,736,733,738,738,731,738,738,738,738,738,738,738,732,731,731,731,731,731,731,1128,1129,1125,1155,1335,1667,1848,2059,2139,2164,2146,2118,2088,2053,2021,2008,1988,1937,1904,1840,1839,1770,1736,1715,1673,1673,1605,1581,1547,1316,1242,1199,1162,1146,1137,1141,1127,1104,1104,1103,1109,1111,1108,1109,1116,1116,1108,1115,1115,1115,1115,1115,1115,1115,1115,1115,1115,1115,1115,1115,1115,1115,1115,1115,1115,825,821,821,817,872,1158,1260,1448,1540,1575,1573,1554,1527,1509,1491,1472,1460,1431,1409,1342,1359,1291,1273,1244,1215,1221,1167,1152,1059,978,972,935,925,840,824,828,829,797,783,780,781,790,801,808,800,796,801,797,798,800,791,800,800,803,803,802,799,800,795,794,794,794,794,794,794,1004,1002,999,1005,1093,1465,1612,1809,1897,1922,1904,1885,1858,1829,1810,1791,1772,1732,1706,1636,1653,1580,1558,1522,1487,1492,1430,1405,1401,1118,1094,1071,1052,1024,1022,1018,998,975,965,966,971,972,982,981,975,980,982,980,979,983,975,985,983,983,985,980,983,983,974,974,974,974,974,974,974,832,832,828,827,884,1174,1278,1457,1556,1595,1585,1566,1546,1521,1506,1490,1476,1446,1424,1358,1375,1307,1289,1260,1231,1235,1181,1167,1173,1137,1040,947,880,851,835,838,829,806,791,788,790,794,806,807,799,805,803,801,805,807,801,807,805,807,807,807,807,807,801,800,800,800,800,800,800,783,786,789,794,866,1118,1279,1412,1511,1565,1565,1541,1512,1514,1472,1437,1413,1388,1362,1338,1316,1289,1263,1238,1214,1189,1164,1139,1115,1090,1064,898,887,811,799,796,798,802,776,777,772,796,784,773,782,798,785,798,793,801,789,787,779,779,784,794,779,783,778,778,778,778,778,778,778,910,913,916,950,1047,1327,1439,1653,1739,1785,1758,1745,1693,1659,1649,1660,1634,1598,1566,1518,1522,1456,1417,1386,1354,1377,1310,1296,1259,1142,1129,1037,944,936,928,949,929,901,896,905,895,897,899,904,906,901,901,901,901,901,901,901,901,901,901,901,901,901,901,901,901,901,901,901,901,302,303,316,315,306,396,462,515,546,620,616,607,613,603,572,584,574,543,540,543,533,511,513,503,493,472,474,464,454,444,434,409,413,403,393,332,333,334,287,295,284,295,306,298,294,300,290,294,295,304,291,288,291,294,293,294,295,297,293,293,293,293,293,293,293,895,893,893,890,952,1248,1381,1581,1670,1703,1701,1680,1653,1631,1611,1590,1577,1545,1523,1453,1469,1402,1380,1348,1319,1321,1266,1243,1137,1082,978,955,960,912,896,900,839,816,806,807,812,813,823,822,816,821,823,821,820,824,816,826,824,824,826,821,824,824,815,815,815,815,815,815,815,0,0,0,0,0,0,0,0,0,0,0,0,0,0,0,0,0,0,0,0,0,0,0,0,0,0,0,0,0,0,0,0,0,0,0,0,0,0,0,0,0,0,0,0,0,0,0,0,0,0,0,0,0,0,0,0,0,0,0,0,0,0,0,0,0 ]);
