n = 10;
D = [215,65,256,143,267,83,216,288,255,238 ];
q = 0;
prec = array2d(1..0,1..2,[]);
steps = 64;
l = 360;
r = 0;
which = [];
interval = array2d(1..0,1..2,[]);
T = array3d(1..11,1..11,0..64,[0,0,0,0,0,0,0,0,0,0,0,0,0,0,0,0,0,0,0,0,0,0,0,0,0,0,0,0,0,0,0,0,0,0,0,0,0,0,0,0,0,0,0,0,0,0,0,0,0,0,0,0,0,0,0,0,0,0,0,0,0,0,0,0,0,572,578,581,584,586,808,1119,1243,1367,1433,1400,1379,1371,1349,1327,1303,1270,1257,1236,1215,1190,1167,1110,1121,1125,1076,1059,1012,849,801,836,627,597,583,589,586,588,510,474,473,478,485,487,487,488,505,497,486,503,490,485,484,489,491,483,492,489,492,491,491,495,492,488,489,484,430,431,432,433,436,624,747,828,909,971,980,974,954,936,928,907,891,883,862,854,832,818,809,796,780,760,744,729,721,706,691,676,662,427,558,436,437,418,384,384,383,384,385,390,388,389,389,391,392,393,394,395,396,397,404,397,398,402,400,401,402,430,423,429,420,636,638,620,622,640,888,1153,1301,1408,1460,1512,1497,1424,1401,1380,1353,1275,1266,1290,1240,1251,1166,1217,1199,1137,1108,1132,1138,1013,1008,824,805,668,632,660,635,659,619,600,600,601,612,604,611,610,614,612,609,611,608,623,625,626,620,620,612,608,623,613,606,612,621,617,624,613,437,440,438,440,442,562,741,825,905,968,976,961,947,931,917,901,887,873,857,849,829,813,798,783,768,762,738,725,540,527,457,443,433,424,447,442,444,439,384,388,391,393,395,402,388,393,388,399,393,393,394,396,398,397,407,401,400,399,396,402,398,401,391,398,394,1212,1194,1234,1245,1691,2366,2835,3055,3093,3168,3088,3073,2985,2981,2839,2809,2713,2721,2659,2529,2521,2492,2436,2323,2069,2003,1894,1744,1519,1356,1314,1310,1285,1248,1242,1242,1240,1255,1241,1245,1252,1250,1252,1268,1264,1264,1254,1265,1258,1259,1268,1271,1277,1284,1269,1270,1272,1276,1286,1268,1279,1254,1263,1264,1262,178,179,179,180,271,282,319,356,394,432,450,442,435,428,421,414,406,399,392,385,378,370,363,356,349,342,334,327,320,313,306,298,291,284,277,271,272,273,172,168,168,172,172,172,170,172,169,172,172,172,169,172,170,168,169,172,172,172,170,168,170,172,170,170,169,261,262,263,264,372,420,475,556,604,649,660,651,642,619,624,615,607,597,589,580,571,562,507,544,488,496,526,475,465,454,445,434,424,414,391,265,266,267,254,254,256,257,256,261,257,268,255,258,255,258,258,257,265,330,256,261,259,257,257,257,260,260,261,260,257,983,988,987,998,1022,1618,2069,2260,2355,2413,2348,2339,2302,2281,2227,2187,2149,2120,2074,2060,2029,1966,1931,1873,1886,1685,1598,1502,1363,1223,1086,1061,1033,1003,1023,1008,992,947,937,931,937,944,947,949,952,954,950,946,956,950,949,947,949,951,946,949,952,955,949,951,949,952,947,948,943,1016,1038,1044,1051,1320,1869,2368,2568,2641,2692,2648,2624,2533,2553,2416,2371,2308,2360,2286,2193,2170,2150,2121,2021,2049,1916,1884,1741,1472,1294,1283,1214,1094,1080,1060,1055,1061,1074,1060,1064,1069,1069,1066,1087,1080,1074,1074,1082,1076,1076,1082,1090,1094,1102,1084,1090,1091,1094,1104,1088,1101,1077,1086,1092,1085,0,0,0,0,0,0,0,0,0,0,0,0,0,0,0,0,0,0,0,0,0,0,0,0,0,0,0,0,0,0,0,0,0,0,0,0,0,0,0,0,0,0,0,0,0,0,0,0,0,0,0,0,0,0,0,0,0,0,0,0,0,0,0,0,0,671,657,655,664,711,783,1222,1422,1551,1597,1603,1568,1548,1527,1491,1479,1449,1416,1398,1373,1341,1321,1290,1270,1244,1221,1188,1172,1038,1006,861,774,743,704,663,660,662,676,634,628,630,635,634,635,636,641,633,641,642,636,640,643,644,639,642,645,643,637,639,640,633,644,642,638,638,0,0,0,0,0,0,0,0,0,0,0,0,0,0,0,0,0,0,0,0,0,0,0,0,0,0,0,0,0,0,0,0,0,0,0,0,0,0,0,0,0,0,0,0,0,0,0,0,0,0,0,0,0,0,0,0,0,0,0,0,0,0,0,0,0,890,878,880,882,923,1280,1761,1961,2079,2114,2112,2070,2038,2012,1969,1950,1918,1869,1843,1815,1769,1736,1702,1674,1644,1611,1574,1452,1349,1230,1084,950,940,926,884,883,885,894,848,845,848,848,852,856,854,859,851,859,857,850,856,861,862,855,860,864,860,858,857,858,857,861,860,860,860,1058,1065,1067,1098,1156,1664,2239,2410,2538,2561,2574,2482,2418,2399,2370,2375,2357,2298,2199,2162,2099,2072,2096,2019,1964,1749,1525,1340,1266,1293,1259,1171,1146,1122,1102,1073,1074,1113,1069,1064,1067,1072,1071,1075,1073,1077,1070,1078,1079,1073,1077,1080,1081,1076,1079,1083,1080,1078,1076,1077,1076,1081,1079,1079,1079,848,862,840,859,889,1246,1687,1903,2001,2060,2039,2005,1970,1937,1915,1900,1867,1818,1782,1777,1721,1689,1656,1653,1590,1563,1531,1498,1241,1157,988,979,887,898,869,856,848,871,833,827,831,830,835,836,835,841,831,837,835,830,832,840,839,833,840,841,836,835,838,835,839,836,841,838,838,882,873,875,906,1031,1537,1741,1913,2046,2125,2113,2080,2047,2014,1981,1952,1908,1882,1850,1864,1773,1795,1719,1686,1653,1621,1602,1558,1337,1187,1061,1041,927,916,897,894,872,873,880,882,883,882,911,878,902,908,901,897,903,901,906,917,912,908,906,885,901,900,913,898,889,889,889,889,889,405,406,407,408,409,481,729,827,914,991,1008,990,976,955,943,922,910,897,877,856,846,828,812,795,780,765,749,733,631,616,508,532,519,474,461,411,411,413,369,363,367,370,368,369,367,371,366,373,373,369,372,377,377,372,375,378,373,374,373,374,370,375,373,370,370,467,454,456,458,479,503,821,932,1058,1112,1127,1100,1082,1064,1045,1028,1019,993,983,966,941,922,904,894,877,856,834,824,733,716,600,525,512,500,463,460,460,482,438,431,432,435,434,439,437,441,435,439,442,434,438,443,442,438,443,445,440,438,439,441,437,442,442,441,441,520,527,490,557,520,633,980,1034,1198,1238,1254,1221,1191,1164,1114,1133,1129,1107,1045,1061,1003,1046,1004,992,928,915,928,914,791,874,737,677,540,526,515,512,528,504,498,493,497,503,505,502,508,504,512,507,501,503,500,514,529,527,529,515,501,525,507,500,511,501,509,508,495,794,797,799,804,880,1358,1553,1743,1870,1951,1941,1910,1880,1849,1818,1786,1755,1725,1694,1710,1632,1600,1570,1549,1508,1477,1419,1391,1369,1103,949,943,840,823,810,807,807,792,775,780,782,793,788,790,784,781,790,781,782,780,780,801,802,796,789,797,784,792,810,791,803,796,785,789,787,671,657,655,664,711,783,1222,1422,1551,1597,1603,1568,1548,1527,1491,1479,1449,1416,1398,1373,1341,1321,1290,1270,1244,1221,1188,1172,1038,1006,861,774,743,704,663,660,662,676,634,628,630,635,634,635,636,641,633,641,642,636,640,643,644,639,642,645,643,637,639,640,633,644,642,638,638,361,362,364,365,368,596,672,746,822,889,899,885,871,857,842,829,814,800,786,771,757,742,729,714,699,686,671,657,642,628,614,599,585,571,372,368,369,370,318,319,320,320,319,324,335,324,322,326,325,326,322,340,323,329,324,325,324,326,326,326,326,325,324,323,321,883,872,887,893,906,1646,1795,1979,2083,2129,2096,2067,2032,2013,1979,1969,1937,1879,1865,1832,1789,1767,1735,1693,1637,1612,1461,1365,1198,1120,1062,955,930,940,901,897,838,799,751,757,751,764,767,773,790,781,767,774,775,781,768,785,768,776,775,772,773,776,771,778,771,769,769,770,759,0,0,0,0,0,0,0,0,0,0,0,0,0,0,0,0,0,0,0,0,0,0,0,0,0,0,0,0,0,0,0,0,0,0,0,0,0,0,0,0,0,0,0,0,0,0,0,0,0,0,0,0,0,0,0,0,0,0,0,0,0,0,0,0,0,400,392,392,394,483,658,686,832,894,834,844,831,886,871,980,842,828,812,808,795,782,769,756,742,729,716,703,666,678,637,622,607,395,385,376,396,396,397,380,377,380,383,404,378,383,396,387,384,384,382,381,386,396,408,407,409,409,400,388,384,388,382,390,386,382,308,308,310,311,312,498,564,629,695,753,765,753,741,729,717,705,691,679,667,655,643,631,619,607,595,583,571,558,546,534,522,510,498,327,316,312,313,314,299,298,304,299,301,303,299,302,302,308,315,310,317,314,391,313,304,307,304,316,313,306,309,307,312,312,309,1453,1492,1507,1646,2382,3362,3555,3710,3764,3789,3756,3707,3627,3541,3461,3411,3298,3255,3218,3137,2813,2453,2460,2133,1907,1914,1867,1780,1718,1696,1628,1594,1544,1523,1544,1502,1521,1547,1519,1529,1527,1567,1526,1550,1554,1548,1545,1553,1541,1543,1548,1564,1554,1566,1551,1549,1557,1558,1573,1549,1541,1558,1542,1548,1542,484,485,487,488,489,820,924,1025,1129,1198,1201,1183,1165,1146,1126,1107,1088,1069,1050,1030,1011,992,972,952,933,914,895,876,856,836,713,697,520,662,496,491,494,496,449,453,451,455,485,489,485,480,469,488,476,474,482,477,462,483,471,461,483,462,460,489,477,483,481,476,465,567,559,572,564,564,974,1083,1209,1323,1395,1364,1342,1330,1332,1309,1263,1245,1222,1220,1179,1162,1143,1122,1102,1082,1062,1022,1004,1001,980,885,792,684,582,580,566,588,590,543,549,551,554,558,547,570,578,565,562,574,574,556,581,588,601,571,548,557,558,556,572,553,564,560,552,548,1288,1289,1294,1337,1482,2635,2830,2977,3065,3062,3047,2994,2953,2912,2872,2817,2775,2725,2705,2638,2591,2542,2490,2321,2162,1869,1509,1558,1484,1457,1428,1398,1345,1373,1312,1290,1244,1261,1209,1217,1222,1220,1228,1234,1252,1234,1227,1235,1234,1246,1231,1245,1228,1239,1232,1235,1236,1235,1231,1232,1230,1229,1228,1229,1218,1330,1334,1358,1427,1926,2861,3101,3233,3293,3306,3286,3271,3160,3148,3101,3002,2946,2886,2846,2776,2668,2308,2399,2039,1836,1841,1623,1571,1527,1508,1452,1419,1399,1393,1381,1376,1358,1372,1338,1350,1348,1382,1340,1367,1366,1368,1361,1371,1358,1358,1366,1388,1371,1381,1370,1370,1374,1376,1392,1368,1364,1381,1365,1371,1365,361,362,364,365,368,596,672,746,822,889,899,885,871,857,842,829,814,800,786,771,757,742,729,714,699,686,671,657,642,628,614,599,585,571,372,368,369,370,318,319,320,320,319,324,335,324,322,326,325,326,322,340,323,329,324,325,324,326,326,326,326,325,324,323,321,425,426,428,429,436,615,788,880,961,1041,1057,1040,1023,1004,989,971,957,940,924,893,891,873,857,840,823,806,790,773,756,739,722,705,459,528,437,434,436,420,362,361,362,365,379,380,375,395,392,397,397,382,377,371,370,383,374,371,381,380,370,377,377,377,377,377,377,944,951,951,957,1007,1665,1910,2144,2211,2280,2289,2211,2215,2144,2105,2103,2041,2007,1996,1932,1894,1881,1848,1814,1773,1723,1569,1468,1135,1263,1047,1023,999,998,962,963,882,856,794,799,803,809,824,830,830,852,837,845,846,837,823,816,815,830,825,818,830,830,815,829,829,829,829,829,829,269,270,270,271,392,426,481,537,591,644,666,655,645,634,624,614,603,592,583,572,562,552,541,531,520,510,500,489,480,468,458,448,438,427,417,393,412,412,239,239,238,247,237,241,239,243,239,242,242,240,242,242,243,243,242,244,245,243,244,239,239,239,239,239,239,0,0,0,0,0,0,0,0,0,0,0,0,0,0,0,0,0,0,0,0,0,0,0,0,0,0,0,0,0,0,0,0,0,0,0,0,0,0,0,0,0,0,0,0,0,0,0,0,0,0,0,0,0,0,0,0,0,0,0,0,0,0,0,0,0,249,253,254,255,256,269,456,509,608,612,628,615,606,662,588,576,566,618,607,539,525,519,509,499,486,479,465,460,446,439,430,277,273,267,260,256,257,258,245,242,247,247,245,244,243,244,247,249,260,251,243,246,247,247,245,249,262,264,247,248,248,246,248,247,247,1167,1228,1235,1328,2336,2914,3345,3538,3715,3691,3591,3553,3451,3393,3314,3389,3154,3106,3026,2914,2883,2745,2548,2438,2135,2067,2017,1902,1608,1554,1357,1348,1272,1228,1227,1222,1215,1229,1312,1357,1323,1340,1344,1335,1337,1376,1348,1360,1371,1348,1356,1352,1357,1362,1391,1389,1387,1363,1391,1350,1366,1504,1391,1374,1360,548,549,551,552,555,839,1040,1165,1280,1347,1358,1335,1314,1290,1268,1247,1230,1207,1185,1163,1142,1119,1097,1077,1056,1033,1014,990,968,933,822,803,743,593,561,557,559,551,493,495,493,500,545,534,525,538,538,536,539,530,537,508,509,537,521,507,540,516,504,536,536,536,536,536,536,576,576,580,609,612,857,1077,1202,1325,1403,1413,1390,1368,1371,1323,1300,1293,1280,1257,1210,1202,1166,1143,1133,1099,1088,1053,1032,1020,971,931,815,684,597,587,584,585,587,572,575,575,590,585,591,588,597,591,585,592,594,596,589,591,600,583,585,592,598,588,584,589,592,587,592,586,1358,1354,1358,1401,1736,2577,2934,3124,3193,3215,3205,3136,3119,3034,2982,2945,2882,2845,2809,2746,2636,2540,2303,1943,1953,1636,1664,1592,1557,1579,1498,1451,1411,1406,1368,1356,1309,1319,1253,1259,1264,1265,1286,1293,1292,1305,1297,1306,1306,1302,1286,1276,1275,1293,1282,1281,1293,1289,1275,1283,1283,1283,1283,1283,1283,1258,1301,1318,1426,1998,2468,3099,3219,3300,3349,3319,3266,3206,3176,3086,3027,2984,2936,2862,2794,2703,2523,2497,2264,2059,1971,1930,1664,1610,1482,1427,1417,1345,1298,1296,1309,1308,1323,1346,1348,1356,1386,1352,1374,1372,1359,1366,1362,1359,1361,1361,1373,1370,1370,1361,1375,1367,1398,1394,1368,1380,1385,1374,1400,1379,425,426,428,429,436,615,788,880,961,1041,1057,1040,1023,1004,989,971,957,940,924,893,891,873,857,840,823,806,790,773,756,739,722,705,459,528,437,434,436,420,362,361,362,365,379,380,375,395,392,397,397,382,377,371,370,383,374,371,381,380,370,377,377,377,377,377,377,330,323,332,336,337,524,610,677,747,788,821,787,774,783,770,754,743,711,698,704,691,679,665,653,638,625,612,600,587,559,547,547,534,484,338,338,328,340,306,306,306,306,306,306,306,306,306,306,306,306,306,306,306,306,306,306,306,306,306,306,306,306,306,306,306,814,803,822,819,861,1337,1670,1852,1921,1961,1965,1948,1868,1867,1829,1803,1775,1758,1724,1675,1660,1627,1587,1561,1525,1502,1397,1234,1223,923,903,861,876,843,829,827,769,724,724,724,724,724,724,724,724,724,724,724,724,724,724,724,724,724,724,724,724,724,724,724,724,724,724,724,724,300,301,302,303,304,484,547,609,670,726,740,728,717,705,693,682,670,658,648,636,625,613,601,590,578,566,555,543,532,520,508,498,486,474,463,304,305,306,288,288,285,286,288,288,288,288,288,288,288,288,288,288,288,288,288,288,288,288,288,288,288,288,288,288,288,347,348,349,350,352,570,646,751,829,888,894,879,865,850,841,798,801,798,783,769,754,740,700,744,728,684,718,650,616,621,607,592,580,507,364,352,353,376,352,352,352,352,352,352,352,352,352,352,352,352,352,352,352,352,352,352,352,352,352,352,352,352,352,352,352,0,0,0,0,0,0,0,0,0,0,0,0,0,0,0,0,0,0,0,0,0,0,0,0,0,0,0,0,0,0,0,0,0,0,0,0,0,0,0,0,0,0,0,0,0,0,0,0,0,0,0,0,0,0,0,0,0,0,0,0,0,0,0,0,0,1321,1293,1312,1414,2020,2529,3101,3267,3316,3284,3290,3233,3207,3145,3083,3021,2913,2874,2844,2808,2749,2635,2428,2331,2153,1952,1696,1647,1530,1474,1448,1415,1352,1320,1311,1332,1321,1327,1318,1315,1323,1323,1323,1323,1323,1323,1323,1323,1323,1323,1323,1323,1323,1323,1323,1323,1323,1323,1323,1323,1323,1323,1323,1323,1323,416,417,419,420,425,696,818,880,973,1029,1036,1022,991,975,970,954,939,922,903,886,871,854,837,823,804,814,771,745,729,721,659,623,599,445,426,423,424,425,419,419,419,419,419,419,419,419,419,419,419,419,419,419,419,419,419,419,419,419,419,419,419,419,419,419,419,358,359,360,361,372,588,664,742,819,877,888,978,961,846,831,817,804,789,775,762,747,733,718,705,691,676,663,649,634,621,607,592,578,565,376,373,373,374,353,353,353,352,353,353,353,353,353,352,353,353,353,353,353,352,353,353,353,353,353,353,352,353,351,353,353,1226,1214,1235,1258,1441,2176,2687,2822,2919,2926,2917,2864,2793,2750,2719,2658,2612,2578,2522,2490,2428,2410,2352,2306,2078,1963,1800,1605,1458,1357,1304,1309,1287,1254,1232,1233,1172,1176,1155,1155,1155,1155,1155,1155,1155,1155,1155,1155,1155,1155,1155,1155,1155,1155,1155,1155,1155,1155,1155,1155,1155,1155,1155,1155,1155,1130,1134,1138,1191,1635,1996,2621,2784,2846,2864,2844,2789,2743,2689,2636,2585,2535,2485,2452,2407,2351,2310,2260,2209,2158,2072,1893,1696,1480,1393,1248,1210,1189,1163,1148,1152,1160,1146,1137,1134,1140,1140,1140,1140,1140,1140,1140,1140,1140,1140,1140,1140,1140,1140,1140,1140,1140,1140,1140,1140,1140,1140,1140,1140,1140,330,323,332,336,337,524,610,677,747,788,821,787,774,783,770,754,743,711,698,704,691,679,665,653,638,625,612,600,587,559,547,547,534,484,338,338,328,340,306,306,306,306,306,306,306,306,306,306,306,306,306,306,306,306,306,306,306,306,306,306,306,306,306,306,306,1221,1185,1228,1267,1542,2454,2780,2995,3086,3138,3100,3038,2979,2927,2849,2813,2764,2705,2650,2630,2524,2474,2420,2350,2154,1911,1803,1643,1478,1374,1348,1320,1281,1242,1236,1249,1214,1198,1160,1160,1160,1160,1160,1160,1160,1160,1160,1160,1160,1160,1160,1160,1160,1160,1160,1160,1160,1160,1160,1160,1160,1160,1160,1160,1160,836,828,830,846,908,1514,1687,1881,1971,2020,2111,1980,1947,1940,1928,1851,1819,1786,1755,1806,1712,1659,1627,1597,1630,1531,1498,1466,1328,1227,1097,925,882,852,851,837,830,832,833,840,836,847,861,835,844,857,849,844,861,860,861,861,861,852,861,861,861,861,852,850,861,841,853,861,841,1412,1409,1411,1620,1799,2988,3298,3492,3577,3619,3575,3503,3438,3386,3293,3254,3195,3130,3066,2912,2555,2413,2162,2069,2064,1972,1805,1706,1644,1600,1563,1511,1474,1445,1433,1434,1432,1416,1378,1378,1378,1378,1378,1378,1378,1378,1378,1378,1378,1378,1378,1378,1378,1378,1378,1378,1378,1378,1378,1378,1378,1378,1378,1378,1378,1304,1283,1320,1494,1947,3063,3471,3648,3763,3739,3688,3608,3530,3456,3376,3346,3260,3071,2954,2902,2583,2261,2274,2224,2072,2033,1974,1924,1769,1474,1454,1367,1346,1309,1300,1312,1319,1332,1340,1340,1340,1340,1340,1340,1340,1340,1340,1340,1340,1340,1340,1340,1340,1340,1340,1340,1340,1340,1340,1340,1340,1340,1340,1340,1340,1251,1243,1260,1334,1474,2510,2778,3046,3141,3167,3123,3066,3014,3003,2903,2866,2851,2746,2693,2646,2597,2539,2482,2368,2260,1900,1794,1663,1424,1452,1423,1309,1278,1253,1270,1253,1260,1259,1222,1222,1222,1222,1222,1222,1222,1222,1222,1222,1222,1222,1222,1222,1222,1222,1222,1222,1222,1222,1222,1222,1222,1222,1222,1222,1222,0,0,0,0,0,0,0,0,0,0,0,0,0,0,0,0,0,0,0,0,0,0,0,0,0,0,0,0,0,0,0,0,0,0,0,0,0,0,0,0,0,0,0,0,0,0,0,0,0,0,0,0,0,0,0,0,0,0,0,0,0,0,0,0,0,1030,1025,1055,1089,1206,1992,2291,2570,2669,2710,2664,2630,2575,2563,2481,2449,2412,2334,2286,2260,2206,2190,2138,2053,2014,1980,1759,1567,1529,1277,1171,1130,1104,1065,1068,1070,1044,1028,990,990,990,990,990,990,990,990,990,990,990,990,990,990,990,990,990,990,990,990,990,990,990,990,990,990,990,1023,985,1022,1054,1138,1966,2294,2516,2622,2680,2656,2598,2548,2500,2436,2401,2364,2308,2261,2248,2151,2108,2093,2022,1988,1938,1585,1483,1493,1367,1253,1070,1080,1041,1035,1047,1018,1002,964,964,964,964,964,964,964,964,964,964,964,964,964,964,964,964,964,964,964,964,964,964,964,964,964,964,964,732,734,732,745,836,1279,1490,1650,1731,1791,1784,1746,1720,1708,1669,1646,1620,1653,1567,1544,1504,1476,1446,1417,1389,1388,1362,1323,1121,1093,859,863,823,791,779,775,765,733,725,741,743,738,748,750,746,757,739,752,741,740,744,752,756,753,754,750,749,750,757,753,749,748,757,757,745,194,195,195,196,196,279,346,387,427,466,483,476,468,460,453,445,438,430,422,415,408,399,392,384,376,369,361,354,346,343,331,324,320,283,262,196,197,198,188,194,191,196,196,199,194,196,191,196,192,192,192,199,197,232,232,210,197,196,232,197,196,210,192,197,192,1221,1185,1228,1267,1542,2454,2780,2995,3086,3138,3100,3038,2979,2927,2849,2813,2764,2705,2650,2630,2524,2474,2420,2350,2154,1911,1803,1643,1478,1374,1348,1320,1281,1242,1236,1249,1214,1198,1160,1160,1160,1160,1160,1160,1160,1160,1160,1160,1160,1160,1160,1160,1160,1160,1160,1160,1160,1160,1160,1160,1160,1160,1160,1160,1160,307,308,308,309,310,331,544,606,668,730,760,749,737,725,713,701,687,679,665,653,643,629,618,607,594,582,571,558,547,535,522,511,484,474,354,311,312,313,285,285,286,286,286,287,287,287,287,288,288,288,289,289,289,290,290,290,290,290,290,290,291,291,291,290,290,426,431,431,434,436,542,720,869,978,1046,1069,1046,1030,1004,993,962,956,943,888,873,873,858,841,826,793,775,763,745,677,489,615,560,466,461,439,438,439,398,333,335,333,334,352,346,350,352,342,352,344,342,343,336,338,348,346,337,347,337,338,344,343,352,344,345,341,524,526,528,529,534,860,972,1083,1193,1269,1286,1266,1245,1225,1204,1184,1164,1143,1123,1104,1083,1063,1042,1022,1002,981,961,940,920,901,880,785,655,546,591,532,534,535,503,503,504,504,504,505,505,505,505,506,506,506,507,507,507,508,508,508,508,508,508,508,509,509,509,508,508,732,695,719,732,744,1036,1341,1560,1661,1725,1755,1714,1687,1684,1599,1571,1586,1548,1538,1534,1482,1407,1408,1354,1390,1332,1262,1270,1305,1018,780,998,732,756,762,743,766,753,722,722,723,723,723,724,724,724,724,725,725,725,726,726,726,727,727,727,727,727,727,727,728,728,728,727,727,509,490,512,513,524,611,939,1004,1146,1229,1246,1228,1167,1155,1167,1147,1128,1071,1051,1055,1013,1033,1009,957,937,952,905,911,861,873,853,834,703,531,520,516,518,493,490,489,491,491,491,492,492,492,492,493,493,491,494,494,494,495,495,495,492,495,493,495,488,496,492,495,493,1089,1061,1064,1082,1247,1898,2421,2681,2727,2816,2802,2638,2631,2598,2585,2482,2395,2379,2364,2316,2248,2217,2162,2102,2052,1994,1756,1584,1569,1404,1216,1144,1111,1110,1064,1077,1100,1089,1084,1089,1083,1080,1114,1100,1107,1117,1098,1101,1101,1107,1095,1104,1109,1116,1108,1102,1107,1100,1124,1114,1101,1128,1091,1100,1096,0,0,0,0,0,0,0,0,0,0,0,0,0,0,0,0,0,0,0,0,0,0,0,0,0,0,0,0,0,0,0,0,0,0,0,0,0,0,0,0,0,0,0,0,0,0,0,0,0,0,0,0,0,0,0,0,0,0,0,0,0,0,0,0,0,103,104,104,104,104,160,180,200,220,240,254,250,247,243,238,235,231,228,223,219,216,211,207,204,200,195,192,188,184,180,176,172,169,164,160,104,105,105,96,94,96,100,99,98,96,96,98,100,99,98,100,163,169,162,162,100,96,100,96,96,94,100,98,102,96,853,843,846,850,882,1207,1666,1862,2007,2035,2047,2013,1979,1942,1910,1879,1845,1814,1758,1716,1690,1661,1635,1609,1570,1544,1358,1290,1142,1036,1045,936,924,894,853,852,858,803,784,777,781,785,782,788,784,791,789,793,790,800,799,800,790,785,788,787,791,788,782,783,787,788,788,785,784,900,901,905,908,948,1442,1907,2204,2254,2311,2338,2223,2182,2125,2126,2066,2022,2019,2002,1962,1911,1869,1826,1796,1750,1689,1665,1604,1381,1275,1126,1062,920,919,905,914,920,927,903,908,902,897,933,912,924,933,911,919,918,923,914,918,928,934,926,917,927,919,954,932,921,946,914,923,924,307,308,308,309,310,331,544,606,668,730,760,749,737,725,713,701,687,679,665,653,643,629,618,607,594,582,571,558,547,535,522,511,484,474,354,311,312,313,285,285,286,286,286,287,287,287,287,288,288,288,289,289,289,290,290,290,290,290,290,290,291,291,291,290,290,204,204,204,205,206,322,364,406,448,490,506,499,490,482,475,466,458,451,442,434,427,418,411,403,394,387,379,370,363,355,346,339,331,324,315,207,207,208,200,199,197,213,202,202,196,199,200,206,205,205,213,202,205,204,215,202,200,216,199,204,200,196,208,200,197,549,545,552,564,566,639,1053,1194,1293,1367,1352,1331,1307,1285,1279,1201,1189,1182,1180,1159,1134,1113,1093,1034,1051,1030,1011,965,849,755,679,665,621,575,562,568,555,482,451,437,442,450,456,453,454,446,457,455,462,458,454,456,460,459,454,460,458,465,482,477,467,459,466,470,465,421,423,424,425,430,679,767,853,941,1023,1038,1021,1004,988,972,956,939,922,907,890,874,858,842,825,808,793,776,760,744,727,711,694,645,441,431,428,429,430,415,414,414,417,413,424,419,420,418,421,436,415,416,418,418,424,417,422,420,420,420,419,422,424,419,440,421,629,591,616,655,640,876,1161,1368,1418,1561,1521,1495,1508,1447,1402,1336,1383,1351,1338,1315,1292,1196,1246,1150,1218,1178,1131,1159,1137,1018,658,829,821,695,661,639,661,648,634,631,633,639,641,637,641,641,636,649,642,644,643,643,647,655,652,652,642,647,646,648,648,645,652,643,641,406,408,408,410,495,585,759,804,933,989,996,981,967,912,940,918,903,887,871,856,845,827,809,797,781,762,713,733,715,700,684,671,575,591,508,412,413,388,394,394,396,399,394,400,398,398,400,396,398,393,394,396,395,399,395,397,396,396,396,400,394,402,394,398,397,1197,1164,1213,1218,1487,2139,2808,2964,3105,3041,3020,2979,2967,2882,2833,2755,2707,2662,2632,2528,2473,2438,2395,2279,2226,2116,1756,1396,1385,1332,1336,1274,1244,1214,1215,1217,1212,1202,1215,1218,1223,1222,1235,1240,1228,1238,1223,1223,1234,1225,1243,1239,1242,1245,1250,1233,1224,1239,1239,1235,1237,1237,1222,1231,1229,151,152,152,152,230,237,270,301,333,364,382,375,369,363,357,351,345,339,333,327,321,314,308,302,296,290,284,278,272,266,259,253,247,241,235,230,231,231,148,149,144,144,148,144,218,147,148,223,144,145,144,144,148,145,145,148,144,148,225,147,145,148,145,145,144,0,0,0,0,0,0,0,0,0,0,0,0,0,0,0,0,0,0,0,0,0,0,0,0,0,0,0,0,0,0,0,0,0,0,0,0,0,0,0,0,0,0,0,0,0,0,0,0,0,0,0,0,0,0,0,0,0,0,0,0,0,0,0,0,0,977,956,963,971,1002,1471,2020,2201,2294,2347,2308,2284,2238,2213,2172,2118,2073,2039,2020,1997,1972,1913,1880,1818,1807,1659,1557,1502,1306,1260,1080,1008,1044,981,991,981,962,932,913,896,902,911,912,914,915,911,910,915,923,917,919,919,920,919,917,917,921,928,927,932,921,918,926,929,924,1008,992,1039,1023,1269,1743,2319,2442,2587,2575,2542,2493,2494,2451,2410,2378,2327,2256,2257,2162,2142,2115,2068,1977,1943,1888,1880,1727,1472,1127,1112,1082,1048,1022,1040,1032,1033,1036,1037,1037,1044,1041,1049,1054,1050,1050,1043,1039,1052,1042,1060,1057,1061,1062,1066,1052,1045,1056,1057,1054,1056,1060,1045,1054,1052,204,204,204,205,206,322,364,406,448,490,506,499,490,482,475,466,458,451,442,434,427,418,411,403,394,387,379,370,363,355,346,339,331,324,315,207,207,208,200,199,197,213,202,202,196,199,200,206,205,205,213,202,205,204,215,202,200,216,199,204,200,196,208,200,197,1031,989,994,997,1030,1551,2089,2289,2374,2342,2325,2287,2251,2214,2184,2153,2126,2123,2087,2050,2012,1977,1947,1911,1849,1819,1617,1565,1440,1104,1201,1055,1032,1021,1006,1001,997,998,973,978,974,981,984,987,979,986,983,977,982,983,978,983,985,995,1001,985,983,978,986,996,982,990,988,988,987,428,380,380,381,384,526,704,812,883,868,877,864,850,838,825,829,816,843,856,818,805,792,778,766,724,710,696,681,666,649,634,529,518,460,408,382,384,373,351,358,357,360,361,362,359,363,356,369,357,358,362,364,380,384,381,366,368,361,370,368,369,370,364,381,364,1255,1209,1214,1287,1302,2057,2621,2804,2882,2842,2816,2772,2727,2683,2647,2608,2574,2561,2516,2472,2426,2383,2258,2220,1860,1801,1705,1398,1368,1336,1374,1276,1252,1242,1228,1223,1215,1216,1191,1196,1192,1199,1202,1196,1197,1204,1201,1195,1200,1201,1196,1201,1203,1213,1219,1203,1201,1196,1204,1214,1200,1208,1206,1206,1205,1428,1378,1411,1486,1716,2534,3075,3249,3344,3227,3200,3208,3106,3116,3043,3036,2955,2912,2602,2242,2214,2078,2049,1775,1685,1740,1748,1654,1616,1559,1584,1464,1472,1453,1399,1411,1417,1418,1410,1415,1411,1418,1421,1417,1416,1423,1420,1414,1419,1420,1415,1420,1422,1432,1438,1422,1420,1415,1423,1433,1419,1427,1425,1425,1424,1225,1194,1187,1216,1377,2016,2548,2764,2810,2803,2764,2733,2661,2630,2596,2560,2505,2524,2469,2407,2380,2355,2239,2228,1868,1836,1679,1608,1471,1418,1401,1240,1237,1222,1211,1187,1196,1197,1178,1173,1174,1183,1180,1188,1184,1185,1188,1182,1187,1186,1183,1188,1190,1200,1206,1190,1187,1183,1187,1201,1187,1190,1188,1188,1187,744,746,749,776,763,1198,1496,1660,1653,1700,1699,1675,1651,1627,1591,1604,1614,1531,1507,1507,1459,1482,1411,1408,1363,1339,1315,1219,1163,979,958,796,780,765,776,753,755,756,753,745,750,760,743,747,757,755,767,750,752,759,756,757,765,764,768,765,760,762,760,766,767,772,764,765,760,793,769,771,773,783,1059,1548,1741,1838,1821,1807,1780,1759,1734,1698,1688,1663,1677,1644,1622,1592,1566,1530,1506,1446,1418,1301,1275,1036,1027,1014,827,850,806,780,777,792,742,714,725,727,728,730,729,730,729,729,737,729,730,739,741,752,755,759,739,742,734,744,738,744,743,734,746,734,832,790,794,796,806,1150,1583,1798,1898,1873,1864,1834,1805,1776,1748,1730,1705,1716,1687,1658,1628,1600,1575,1546,1491,1464,1410,1330,1201,1061,988,851,832,814,804,799,804,802,782,783,779,782,795,794,788,789,794,791,792,792,800,793,798,804,813,796,790,800,793,805,793,796,794,794,793,0,0,0,0,0,0,0,0,0,0,0,0,0,0,0,0,0,0,0,0,0,0,0,0,0,0,0,0,0,0,0,0,0,0,0,0,0,0,0,0,0,0,0,0,0,0,0,0,0,0,0,0,0,0,0,0,0,0,0,0,0,0,0,0,0,676,700,704,685,717,1181,1354,1493,1611,1670,1657,1630,1614,1588,1551,1525,1543,1482,1446,1419,1393,1366,1340,1314,1287,1261,1234,1208,1182,1129,958,844,717,700,689,713,688,721,657,658,653,677,686,655,664,684,665,700,688,681,687,667,660,661,666,673,660,664,653,653,653,653,653,653,653,1031,989,994,997,1030,1551,2089,2289,2374,2342,2325,2287,2251,2214,2184,2153,2126,2123,2087,2050,2012,1977,1947,1911,1849,1819,1617,1565,1440,1104,1201,1055,1032,1021,1006,1001,997,998,973,978,974,981,984,987,979,986,983,977,982,983,978,983,985,995,1001,985,983,978,986,996,982,990,988,988,987,1079,1082,1085,1102,1306,2081,2427,2578,2666,2727,2672,2636,2599,2556,2467,2458,2411,2336,2314,2276,2243,2141,2095,2098,2029,1794,1731,1691,1521,1338,1327,1150,1113,1113,1071,1095,1077,1054,1050,1046,1051,1059,1063,1061,1060,1054,1065,1065,1069,1071,1067,1072,1074,1080,1072,1072,1064,1064,1063,1066,1064,1068,1060,1069,1055,773,776,778,792,830,1188,1544,1686,1789,1835,1833,1855,1783,1756,1730,1726,1679,1654,1644,1603,1583,1552,1523,1492,1476,1433,1415,1382,1328,1101,979,836,820,798,788,785,756,756,735,743,750,773,757,762,752,782,751,794,757,751,754,762,779,795,766,762,763,758,778,786,758,761,752,760,753,1299,1302,1307,1353,1704,2619,2949,3089,3163,3218,3153,3107,3067,3018,2926,2908,2852,2767,2739,2695,2552,2313,2143,2070,1912,1929,1753,1514,1512,1441,1462,1389,1344,1334,1293,1318,1295,1272,1268,1264,1269,1277,1281,1279,1278,1272,1283,1283,1287,1289,1285,1290,1292,1298,1290,1290,1282,1282,1281,1284,1282,1286,1278,1287,1273,1387,1395,1424,1448,1867,2904,3168,3313,3406,3439,3380,3311,3359,3231,3237,3123,3049,2981,2742,2694,2583,2223,2016,2035,1957,1842,1807,1613,1604,1564,1525,1464,1458,1426,1401,1411,1418,1408,1414,1419,1432,1435,1439,1431,1440,1458,1437,1435,1440,1432,1436,1435,1440,1445,1446,1442,1442,1449,1443,1458,1449,1470,1448,1456,1445,1090,1094,1124,1104,1257,2129,2447,2628,2718,2760,2730,2683,2713,2589,2620,2525,2448,2413,2421,2307,2268,2223,2172,2118,2071,1970,1770,1634,1530,1226,1256,1161,1140,1123,1098,1100,1103,1100,1091,1095,1108,1113,1109,1101,1119,1134,1106,1110,1115,1114,1114,1117,1120,1123,1121,1118,1129,1129,1127,1133,1130,1140,1126,1134,1123,257,258,258,259,300,265,299,489,538,586,629,620,608,601,590,581,572,562,553,542,533,524,514,505,497,486,444,467,302,448,438,328,320,314,307,301,301,301,180,180,181,181,181,183,181,188,187,184,187,182,183,184,181,186,181,183,182,185,180,181,182,182,180,180,180,887,894,885,905,926,1648,1945,2138,2244,2289,2272,2232,2204,2142,2113,2075,2088,1984,1943,1912,1883,1823,1811,1771,1704,1676,1655,1458,1328,1252,1085,1092,975,939,910,894,907,884,880,876,881,889,893,891,890,884,895,895,899,901,897,902,904,910,902,902,894,894,893,896,894,898,890,899,885,881,883,885,889,942,1621,1928,2100,2191,2264,2214,2185,2158,2125,2040,2038,1998,1936,1917,1887,1856,1768,1729,1737,1678,1630,1585,1509,1493,1224,1177,948,913,913,870,894,881,858,854,850,855,863,867,865,864,858,869,869,873,875,871,876,878,884,876,876,868,868,867,870,868,872,864,873,859,685,684,685,710,762,857,1346,1514,1597,1651,1649,1622,1604,1570,1543,1537,1482,1466,1441,1441,1380,1354,1341,1315,1290,1310,1238,1250,1114,956,971,917,722,699,696,708,699,686,678,688,687,693,698,693,696,694,689,704,697,700,695,703,703,700,699,694,704,701,699,700,697,702,701,704,701,0,0,0,0,0,0,0,0,0,0,0,0,0,0,0,0,0,0,0,0,0,0,0,0,0,0,0,0,0,0,0,0,0,0,0,0,0,0,0,0,0,0,0,0,0,0,0,0,0,0,0,0,0,0,0,0,0,0,0,0,0,0,0,0,0,1079,1082,1085,1102,1306,2081,2427,2578,2666,2727,2672,2636,2599,2556,2467,2458,2411,2336,2314,2276,2243,2141,2095,2098,2029,1794,1731,1691,1521,1338,1327,1150,1113,1113,1071,1095,1077,1054,1050,1046,1051,1059,1063,1061,1060,1054,1065,1065,1069,1071,1067,1072,1074,1080,1072,1072,1064,1064,1063,1066,1064,1068,1060,1069,1055,0,0,0,0,0,0,0,0,0,0,0,0,0,0,0,0,0,0,0,0,0,0,0,0,0,0,0,0,0,0,0,0,0,0,0,0,0,0,0,0,0,0,0,0,0,0,0,0,0,0,0,0,0,0,0,0,0,0,0,0,0,0,0,0,0,572,578,581,584,586,808,1119,1243,1367,1433,1400,1379,1371,1349,1327,1303,1270,1257,1236,1215,1190,1167,1110,1121,1125,1076,1059,1012,849,801,836,627,597,583,589,586,588,510,474,473,478,485,487,487,488,505,497,486,503,490,485,484,489,491,483,492,489,492,491,491,495,492,488,489,484,430,431,432,433,436,624,747,828,909,971,980,974,954,936,928,907,891,883,862,854,832,818,809,796,780,760,744,729,721,706,691,676,662,427,558,436,437,418,384,384,383,384,385,390,388,389,389,391,392,393,394,395,396,397,404,397,398,402,400,401,402,430,423,429,420,636,638,620,622,640,888,1153,1301,1408,1460,1512,1497,1424,1401,1380,1353,1275,1266,1290,1240,1251,1166,1217,1199,1137,1108,1132,1138,1013,1008,824,805,668,632,660,635,659,619,600,600,601,612,604,611,610,614,612,609,611,608,623,625,626,620,620,612,608,623,613,606,612,621,617,624,613,437,440,438,440,442,562,741,825,905,968,976,961,947,931,917,901,887,873,857,849,829,813,798,783,768,762,738,725,540,527,457,443,433,424,447,442,444,439,384,388,391,393,395,402,388,393,388,399,393,393,394,396,398,397,407,401,400,399,396,402,398,401,391,398,394,1212,1194,1234,1245,1691,2366,2835,3055,3093,3168,3088,3073,2985,2981,2839,2809,2713,2721,2659,2529,2521,2492,2436,2323,2069,2003,1894,1744,1519,1356,1314,1310,1285,1248,1242,1242,1240,1255,1241,1245,1252,1250,1252,1268,1264,1264,1254,1265,1258,1259,1268,1271,1277,1284,1269,1270,1272,1276,1286,1268,1279,1254,1263,1264,1262,178,179,179,180,271,282,319,356,394,432,450,442,435,428,421,414,406,399,392,385,378,370,363,356,349,342,334,327,320,313,306,298,291,284,277,271,272,273,172,168,168,172,172,172,170,172,169,172,172,172,169,172,170,168,169,172,172,172,170,168,170,172,170,170,169,261,262,263,264,372,420,475,556,604,649,660,651,642,619,624,615,607,597,589,580,571,562,507,544,488,496,526,475,465,454,445,434,424,414,391,265,266,267,254,254,256,257,256,261,257,268,255,258,255,258,258,257,265,330,256,261,259,257,257,257,260,260,261,260,257,983,988,987,998,1022,1618,2069,2260,2355,2413,2348,2339,2302,2281,2227,2187,2149,2120,2074,2060,2029,1966,1931,1873,1886,1685,1598,1502,1363,1223,1086,1061,1033,1003,1023,1008,992,947,937,931,937,944,947,949,952,954,950,946,956,950,949,947,949,951,946,949,952,955,949,951,949,952,947,948,943,1016,1038,1044,1051,1320,1869,2368,2568,2641,2692,2648,2624,2533,2553,2416,2371,2308,2360,2286,2193,2170,2150,2121,2021,2049,1916,1884,1741,1472,1294,1283,1214,1094,1080,1060,1055,1061,1074,1060,1064,1069,1069,1066,1087,1080,1074,1074,1082,1076,1076,1082,1090,1094,1102,1084,1090,1091,1094,1104,1088,1101,1077,1086,1092,1085,0,0,0,0,0,0,0,0,0,0,0,0,0,0,0,0,0,0,0,0,0,0,0,0,0,0,0,0,0,0,0,0,0,0,0,0,0,0,0,0,0,0,0,0,0,0,0,0,0,0,0,0,0,0,0,0,0,0,0,0,0,0,0,0,0 ]);
