n = 10;
D = [174,207,222,201,143,172,265,87,178,223 ];
q = 0;
prec = array2d(1..0,1..2,[]);
steps = 64;
l = 360;
r = 0;
which = [];
interval = array2d(1..0,1..2,[]);
T = array3d(1..11,1..11,0..64,[0,0,0,0,0,0,0,0,0,0,0,0,0,0,0,0,0,0,0,0,0,0,0,0,0,0,0,0,0,0,0,0,0,0,0,0,0,0,0,0,0,0,0,0,0,0,0,0,0,0,0,0,0,0,0,0,0,0,0,0,0,0,0,0,0,820,823,826,866,883,1216,1365,1513,1603,1655,1636,1610,1584,1558,1532,1505,1479,1453,1426,1401,1375,1348,1322,1306,1270,1244,1217,1191,1164,1148,1113,1008,990,878,836,833,835,845,844,838,852,863,866,862,862,876,866,872,869,870,875,875,880,886,877,863,868,877,871,855,858,877,864,885,868,647,649,618,653,638,872,1005,1147,1180,1294,1241,1222,1202,1171,1211,1190,1123,1137,1128,1064,1035,1025,1005,986,967,946,926,906,888,904,761,743,689,672,673,657,665,632,628,627,620,628,627,633,629,634,634,640,630,634,628,634,635,626,637,638,636,634,632,636,641,643,636,645,636,1128,1130,1139,1195,1682,2036,2382,2560,2657,2672,2637,2571,2529,2475,2420,2366,2314,2260,2207,2153,2099,2045,1991,1942,2010,1887,1896,1723,1669,1607,1526,1235,1191,1160,1151,1201,1148,1159,1184,1210,1190,1197,1222,1214,1199,1210,1212,1222,1228,1199,1210,1216,1227,1231,1234,1233,1224,1231,1238,1259,1269,1310,1265,1269,1268,778,781,783,785,809,1130,1273,1414,1517,1557,1552,1528,1503,1477,1456,1447,1409,1381,1359,1332,1322,1282,1258,1237,1208,1182,1171,1132,1053,1042,865,872,825,806,793,790,775,747,745,747,749,773,781,769,799,799,784,809,773,789,771,770,778,811,816,785,768,757,775,785,782,789,781,785,767,471,472,467,476,480,618,722,807,891,942,949,935,919,891,888,874,859,831,829,801,787,784,757,773,739,702,708,684,678,663,649,633,618,494,482,478,472,468,464,464,457,464,463,469,465,470,470,476,466,470,464,470,471,462,473,474,472,470,468,472,477,479,472,481,472,980,983,985,990,1083,1474,1651,1811,1899,1943,1938,1900,1870,1838,1810,1801,1751,1728,1689,1666,1651,1604,1575,1537,1512,1476,1429,1399,1291,1243,1243,1071,1051,1013,997,993,990,971,965,968,969,969,984,981,987,988,978,998,984,991,991,985,988,995,1026,989,988,976,975,988,986,991,985,995,977,850,853,855,858,896,1246,1399,1564,1662,1700,1694,1667,1639,1610,1588,1576,1532,1505,1477,1448,1411,1397,1373,1340,1313,1284,1273,1234,1207,1190,1074,983,912,879,865,863,864,827,823,826,826,831,843,837,863,872,846,870,849,854,858,850,844,868,877,852,858,844,833,848,849,847,840,850,832,814,819,818,819,830,1178,1316,1469,1574,1631,1600,1584,1558,1523,1513,1476,1477,1430,1425,1390,1365,1326,1301,1274,1261,1235,1197,1190,1156,1123,976,961,880,867,822,819,805,790,789,791,790,792,803,803,804,811,802,803,804,803,809,807,806,808,809,805,804,800,797,800,802,810,805,814,797,920,923,927,936,1008,1374,1545,1707,1795,1818,1810,1782,1812,1734,1705,1676,1647,1612,1579,1562,1533,1502,1475,1446,1416,1387,1358,1329,1301,1040,1025,992,1058,972,930,955,905,907,902,911,917,931,939,947,930,946,936,948,943,948,957,935,961,965,951,938,957,957,943,950,965,961,962,956,947,0,0,0,0,0,0,0,0,0,0,0,0,0,0,0,0,0,0,0,0,0,0,0,0,0,0,0,0,0,0,0,0,0,0,0,0,0,0,0,0,0,0,0,0,0,0,0,0,0,0,0,0,0,0,0,0,0,0,0,0,0,0,0,0,0,906,899,901,952,931,1310,1494,1652,1760,1789,1782,1776,1724,1761,1667,1639,1610,1603,1574,1524,1496,1523,1439,1411,1382,1361,1325,1296,1268,1255,1211,1081,958,924,927,909,912,914,904,902,904,922,908,922,914,932,922,915,926,914,915,914,911,916,920,920,916,918,911,914,918,940,927,940,921,0,0,0,0,0,0,0,0,0,0,0,0,0,0,0,0,0,0,0,0,0,0,0,0,0,0,0,0,0,0,0,0,0,0,0,0,0,0,0,0,0,0,0,0,0,0,0,0,0,0,0,0,0,0,0,0,0,0,0,0,0,0,0,0,0,1003,1017,1009,1040,1090,1464,1663,1860,1965,2007,1995,1966,1915,1926,1869,1836,1806,1773,1742,1695,1677,1662,1600,1581,1550,1507,1493,1460,1428,1223,1162,1137,1078,1032,1021,1029,1031,1022,1016,1012,1023,1022,1014,1018,1017,1026,1026,1021,1028,1023,1024,1028,1016,1029,1030,1029,1025,1021,1027,1028,1031,1028,1028,1029,1020,608,611,635,614,631,880,1031,1180,1312,1370,1369,1343,1317,1296,1266,1241,1216,1190,1164,1140,1117,1087,1063,1037,1012,985,963,935,909,874,857,737,715,641,624,619,622,613,609,609,618,624,624,624,616,623,623,624,624,624,624,624,624,624,624,624,621,624,624,623,619,624,624,624,618,511,512,514,515,516,675,783,877,964,1027,1031,1015,999,983,969,954,937,917,891,884,867,854,834,821,793,782,767,752,735,717,702,657,578,529,522,526,521,523,489,476,482,486,486,484,479,483,486,489,489,486,486,489,489,489,489,489,485,489,484,486,481,489,489,489,483,883,886,889,937,954,1265,1444,1627,1729,1766,1757,1749,1701,1739,1662,1618,1607,1560,1548,1504,1477,1520,1420,1405,1377,1336,1307,1296,1226,1016,1069,1044,971,911,900,907,912,902,884,884,885,900,898,894,903,901,891,894,902,891,896,898,904,910,916,904,907,909,903,908,910,911,912,906,901,306,307,308,309,318,308,394,463,498,539,555,548,543,536,531,524,519,512,497,500,490,493,475,471,456,444,438,429,420,365,335,327,319,315,353,299,300,317,230,230,230,230,230,230,230,230,230,230,230,230,230,230,230,230,230,230,230,230,230,230,230,230,230,230,230,579,583,585,587,588,810,911,1013,1113,1171,1174,1156,1136,1112,1098,1080,1065,1042,1024,1005,990,968,949,933,910,892,875,850,836,817,798,780,643,628,594,586,588,591,557,557,557,557,557,557,557,557,557,557,557,557,557,557,557,557,557,557,557,557,557,557,557,557,557,557,557,565,567,568,570,571,784,882,980,1078,1137,1140,1122,1104,1085,1068,1049,1034,1013,994,976,961,940,921,907,885,866,851,830,812,794,776,738,648,625,577,573,575,546,523,523,519,519,519,519,519,519,519,519,519,519,519,519,519,519,519,519,519,519,519,519,519,519,519,519,519,175,176,176,176,172,178,248,276,302,330,353,347,343,337,329,319,313,308,302,297,291,293,288,283,276,271,265,260,255,249,223,218,212,180,176,172,173,173,134,134,134,134,134,134,134,134,134,134,134,134,134,134,134,134,134,134,134,134,134,134,134,134,134,134,134,906,899,901,952,931,1310,1494,1652,1760,1789,1782,1776,1724,1761,1667,1639,1610,1603,1574,1524,1496,1523,1439,1411,1382,1361,1325,1296,1268,1255,1211,1081,958,924,927,909,912,914,904,902,904,922,908,922,914,932,922,915,926,914,915,914,911,916,920,920,916,918,911,914,918,940,927,940,921,653,645,604,660,623,866,1073,1146,1270,1207,1211,1269,1248,1182,1133,1186,1094,1074,1056,1036,1084,1024,1062,1023,1019,997,977,955,936,915,893,804,851,811,666,610,630,666,649,657,651,666,666,668,666,711,659,670,657,657,665,696,714,670,766,671,657,657,668,664,655,663,661,673,657,881,883,885,898,1031,1266,1481,1742,1822,1848,1750,1724,1690,1664,1640,1695,1639,1556,1524,1500,1471,1566,1415,1388,1359,1328,1303,1276,1245,1228,1147,1125,928,914,895,893,894,899,914,913,913,917,915,915,927,932,910,903,919,923,915,911,910,911,912,924,917,918,915,914,909,941,946,1006,912,0,0,0,0,0,0,0,0,0,0,0,0,0,0,0,0,0,0,0,0,0,0,0,0,0,0,0,0,0,0,0,0,0,0,0,0,0,0,0,0,0,0,0,0,0,0,0,0,0,0,0,0,0,0,0,0,0,0,0,0,0,0,0,0,0,1424,1429,1437,1498,1867,2412,2690,2846,2898,2915,2886,2833,2776,2726,2681,2634,2606,2530,2499,2454,2392,2345,2300,2250,2198,2145,1915,1673,1647,1611,1549,1527,1501,1461,1447,1436,1444,1431,1415,1417,1441,1467,1421,1452,1449,1431,1431,1436,1459,1434,1436,1446,1450,1470,1437,1443,1438,1477,1465,1437,1453,1437,1430,1507,1442,746,749,751,753,791,862,1221,1358,1466,1494,1548,1468,1469,1421,1397,1373,1353,1330,1305,1281,1254,1230,1209,1184,1159,1136,1138,1087,1034,977,877,838,835,774,761,758,760,729,718,720,702,709,740,745,748,751,732,757,749,765,746,747,749,747,752,739,751,755,749,751,754,752,750,757,742,285,286,287,288,288,372,422,471,521,569,583,573,564,554,545,535,526,517,508,498,489,479,470,462,452,443,433,424,414,405,396,387,377,368,358,288,289,290,278,278,279,279,279,279,280,282,280,283,284,284,285,286,286,287,288,286,287,284,285,286,287,288,285,290,288,971,974,976,981,1029,1225,1615,1779,1877,1901,1964,1886,1879,1832,1784,1742,1745,1687,1682,1652,1619,1589,1566,1530,1470,1455,1431,1393,1132,1259,1055,1044,1037,999,990,978,980,954,946,946,929,937,969,959,975,977,960,982,977,993,974,975,975,974,979,967,979,983,977,978,980,979,975,982,967,701,703,706,711,717,836,1143,1267,1364,1411,1467,1387,1390,1342,1319,1295,1275,1253,1230,1207,1181,1159,1137,1115,1091,1068,1054,1030,946,926,903,829,810,780,727,719,721,657,649,651,636,639,666,671,677,682,661,683,676,695,675,673,674,678,679,663,674,679,675,676,678,680,679,682,667,563,565,567,569,571,676,889,988,1081,1137,1205,1118,1166,1085,1066,1040,1029,1012,994,976,956,938,920,901,883,865,847,828,752,734,717,702,685,616,576,572,574,560,555,553,535,539,568,574,580,583,561,583,576,594,574,573,575,576,579,565,575,581,575,578,580,582,579,587,572,981,983,981,1010,1193,1433,1666,1909,2010,2033,1922,1906,1862,1840,1814,1865,1807,1720,1686,1702,1627,1714,1568,1537,1507,1465,1444,1406,1350,1334,1184,1048,1030,1008,996,1004,964,968,966,991,982,1010,987,984,984,1002,991,987,980,974,992,990,997,998,999,989,1004,1000,1003,982,998,1005,992,1069,1004,653,645,604,660,623,866,1073,1146,1270,1207,1211,1269,1248,1182,1133,1186,1094,1074,1056,1036,1084,1024,1062,1023,1019,997,977,955,936,915,893,804,851,811,666,610,630,666,649,657,651,666,666,668,666,711,659,670,657,657,665,696,714,670,766,671,657,657,668,664,655,663,661,673,657,1337,1341,1370,1451,1691,2229,2439,2628,2745,2755,2743,2690,2719,2598,2539,2555,2505,2458,2360,2305,2278,2231,2164,2118,2085,2078,1977,1676,1635,1539,1516,1426,1395,1383,1369,1369,1364,1407,1372,1378,1365,1377,1400,1400,1406,1387,1394,1398,1400,1396,1398,1399,1405,1404,1400,1403,1401,1403,1408,1427,1403,1434,1407,1395,1393,706,721,710,711,772,1034,1177,1347,1483,1559,1524,1498,1499,1464,1410,1382,1365,1338,1312,1274,1258,1221,1188,1183,1139,1105,1085,1050,1046,995,950,891,842,724,710,708,711,740,718,720,712,732,725,724,731,748,725,720,725,740,734,725,727,734,734,735,731,736,725,731,729,746,746,747,729,1457,1452,1491,1575,1794,2426,2660,2841,2941,2946,2916,2866,2901,2767,2741,2729,2678,2643,2535,2484,2449,2390,2321,2232,2159,1876,1886,1695,1695,1688,1629,1568,1503,1492,1496,1465,1471,1491,1478,1483,1472,1474,1508,1499,1508,1494,1505,1510,1509,1501,1516,1518,1517,1519,1515,1519,1501,1517,1505,1511,1504,1515,1507,1504,1495,0,0,0,0,0,0,0,0,0,0,0,0,0,0,0,0,0,0,0,0,0,0,0,0,0,0,0,0,0,0,0,0,0,0,0,0,0,0,0,0,0,0,0,0,0,0,0,0,0,0,0,0,0,0,0,0,0,0,0,0,0,0,0,0,0,1043,1044,1055,1051,1173,1575,1769,1933,2043,2046,2068,2030,1994,1941,1942,1904,1835,1825,1775,1758,1744,1692,1674,1639,1604,1570,1514,1504,1378,1161,1250,1141,1108,1090,1059,1057,1049,1037,1037,1029,1037,1037,1035,1047,1036,1042,1041,1055,1061,1059,1055,1062,1061,1066,1066,1063,1054,1063,1065,1066,1096,1074,1067,1085,1084,1325,1329,1364,1418,1616,2191,2433,2604,2724,2732,2704,2658,2697,2565,2542,2534,2487,2438,2348,2286,2260,2212,2147,2099,2068,2057,1939,1662,1528,1565,1499,1448,1383,1370,1374,1346,1351,1385,1350,1353,1351,1358,1379,1378,1379,1368,1383,1384,1383,1375,1392,1393,1392,1400,1387,1394,1399,1391,1398,1402,1386,1405,1392,1380,1377,747,749,749,756,837,1073,1217,1356,1449,1507,1486,1467,1442,1419,1394,1393,1347,1323,1298,1276,1250,1228,1202,1181,1155,1142,1111,1086,1062,1039,983,956,888,771,759,758,760,760,756,747,753,752,753,762,754,756,761,768,776,774,770,776,776,781,776,778,767,776,776,778,781,779,777,791,781,1138,1131,1151,1164,1244,1751,1970,2125,2235,2231,2247,2211,2145,2101,2116,2066,2002,1986,1931,1910,1901,1839,1818,1747,1745,1637,1548,1611,1464,1392,1348,1249,1174,1172,1155,1143,1146,1127,1128,1119,1135,1132,1139,1147,1130,1136,1142,1144,1155,1153,1150,1157,1159,1159,1155,1151,1146,1158,1159,1166,1178,1158,1161,1177,1175,1149,1130,1134,1186,1365,1752,2062,2237,2329,2346,2336,2324,2253,2215,2175,2137,2097,2053,2013,2013,1932,1890,1848,1808,1769,1729,1718,1647,1420,1374,1249,1215,1184,1159,1173,1131,1125,1132,1124,1124,1141,1143,1144,1156,1135,1135,1143,1158,1152,1143,1152,1159,1162,1166,1168,1160,1142,1158,1146,1152,1145,1156,1148,1163,1136,716,718,720,722,752,1021,1175,1329,1464,1511,1506,1479,1453,1427,1402,1376,1349,1324,1298,1276,1250,1221,1197,1168,1142,1116,1091,1064,1038,1013,921,894,892,744,729,727,730,715,703,698,706,718,709,712,711,719,713,709,713,713,710,712,712,714,713,720,718,718,715,713,719,737,723,734,722,1337,1341,1370,1451,1691,2229,2439,2628,2745,2755,2743,2690,2719,2598,2539,2555,2505,2458,2360,2305,2278,2231,2164,2118,2085,2078,1977,1676,1635,1539,1516,1426,1395,1383,1369,1369,1364,1407,1372,1378,1365,1377,1400,1400,1406,1387,1394,1398,1400,1396,1398,1399,1405,1404,1400,1403,1401,1403,1408,1427,1403,1434,1407,1395,1393,836,839,841,844,851,1182,1362,1529,1616,1674,1675,1642,1614,1596,1562,1546,1508,1489,1455,1436,1411,1375,1348,1329,1303,1268,1240,1214,1188,1170,1134,1061,884,864,852,849,851,850,815,815,816,828,831,825,834,828,825,829,826,830,842,848,848,859,859,857,831,844,832,821,821,821,821,821,821,451,453,454,456,460,613,696,815,859,910,917,902,887,873,858,856,829,814,799,785,782,766,752,726,711,696,682,667,652,638,623,608,594,474,462,459,467,461,461,456,467,474,473,459,473,474,468,469,471,469,471,474,474,474,474,474,465,469,472,472,463,472,468,472,468,720,731,734,736,738,848,1130,1278,1384,1443,1453,1415,1394,1390,1361,1329,1318,1291,1278,1248,1222,1175,1177,1155,1120,1100,1063,1051,1018,964,923,898,778,764,729,741,736,729,695,695,698,695,700,699,707,712,703,722,702,702,700,703,701,723,722,703,705,698,697,701,701,701,701,701,701,1015,1018,1021,1036,1149,1499,1768,1959,2088,2143,2134,2100,2060,2022,1985,1950,1910,1873,1835,1796,1757,1720,1680,1644,1606,1569,1534,1493,1392,1361,1286,1098,1095,1044,1033,1034,1024,1029,1027,1024,1028,1032,1043,1045,1056,1044,1033,1047,1045,1043,1055,1042,1049,1055,1056,1056,1048,1046,1047,1051,1054,1041,1047,1051,1045,0,0,0,0,0,0,0,0,0,0,0,0,0,0,0,0,0,0,0,0,0,0,0,0,0,0,0,0,0,0,0,0,0,0,0,0,0,0,0,0,0,0,0,0,0,0,0,0,0,0,0,0,0,0,0,0,0,0,0,0,0,0,0,0,0,747,758,760,753,802,906,1171,1334,1418,1506,1505,1417,1410,1436,1410,1373,1327,1341,1304,1259,1267,1221,1218,1163,1163,1109,1092,1076,1026,1021,1027,882,798,783,732,745,764,749,725,728,729,734,739,738,746,745,742,744,741,740,739,737,740,747,747,737,744,737,736,740,740,740,740,740,740,339,342,342,343,409,437,507,567,620,678,685,669,667,651,641,631,621,611,601,591,580,569,558,544,536,525,514,513,492,481,484,460,446,431,422,345,344,401,338,335,338,340,340,341,339,338,339,341,336,339,340,341,341,340,341,341,340,341,339,355,342,342,344,340,340,173,174,174,175,176,223,253,281,311,340,357,352,345,339,334,328,323,316,311,305,300,294,288,282,277,271,266,259,254,248,243,237,231,225,220,176,216,216,147,150,145,147,149,156,147,151,152,153,149,150,144,149,152,145,150,149,149,149,146,148,148,148,148,148,148,160,160,161,166,167,203,228,256,282,310,327,322,317,312,306,301,297,291,286,280,276,270,265,259,255,249,244,238,234,228,223,217,213,207,202,167,199,200,112,116,113,115,116,114,115,115,115,115,115,115,112,115,113,115,115,113,115,112,112,113,113,113,113,113,113,551,554,555,549,574,687,836,932,1022,1089,1094,1028,1056,1038,1024,1002,989,971,911,935,878,862,885,869,812,796,779,798,745,729,712,691,635,542,575,560,528,531,521,521,521,529,532,528,530,535,525,525,528,531,534,530,534,536,533,531,529,535,529,531,536,534,536,536,533,836,839,841,844,851,1182,1362,1529,1616,1674,1675,1642,1614,1596,1562,1546,1508,1489,1455,1436,1411,1375,1348,1329,1303,1268,1240,1214,1188,1170,1134,1061,884,864,852,849,851,850,815,815,816,828,831,825,834,828,825,829,826,830,842,848,848,859,859,857,831,844,832,821,821,821,821,821,821,477,479,480,482,487,539,735,821,906,958,958,942,916,913,904,888,873,858,842,827,811,796,781,765,750,734,719,698,688,668,653,530,521,500,488,485,486,487,470,477,478,478,478,478,478,478,478,478,478,478,478,478,478,478,478,478,478,478,478,478,478,478,478,478,478,903,834,883,918,985,1174,1384,1534,1771,1659,1658,1632,1664,1591,1552,1525,1499,1472,1446,1419,1392,1366,1379,1371,1287,1367,1337,1206,1180,1153,1098,900,879,859,845,844,846,849,852,853,855,855,855,855,855,855,855,855,855,855,855,855,855,855,855,855,855,855,855,855,855,855,855,855,855,182,183,183,210,211,232,261,290,319,348,365,359,354,348,343,337,332,326,320,314,309,303,298,292,287,281,276,270,264,258,253,247,242,236,231,211,226,227,164,164,164,164,164,164,164,164,164,164,164,164,164,164,164,164,164,164,164,164,164,164,164,164,164,164,164,1374,1380,1390,1465,1797,2120,2603,2746,2816,2813,2791,2737,2716,2658,2618,2570,2520,2469,2419,2365,2314,2271,2222,2173,2123,2075,2022,1748,1693,1559,1509,1465,1441,1413,1396,1387,1396,1380,1370,1370,1370,1370,1370,1370,1370,1370,1370,1370,1370,1370,1370,1370,1370,1370,1370,1370,1370,1370,1370,1370,1370,1370,1370,1370,1370,746,747,750,754,792,1074,1262,1357,1465,1524,1489,1500,1431,1408,1394,1370,1384,1376,1299,1276,1251,1228,1204,1193,1182,1175,1136,1078,1035,1032,951,813,872,790,759,775,758,724,719,724,723,725,725,725,725,725,725,725,725,725,725,725,725,725,725,725,725,725,725,725,725,725,725,725,725,0,0,0,0,0,0,0,0,0,0,0,0,0,0,0,0,0,0,0,0,0,0,0,0,0,0,0,0,0,0,0,0,0,0,0,0,0,0,0,0,0,0,0,0,0,0,0,0,0,0,0,0,0,0,0,0,0,0,0,0,0,0,0,0,0,965,955,972,971,1064,1456,1640,1811,1870,1903,1909,1884,1825,1786,1794,1755,1730,1711,1668,1642,1616,1577,1560,1499,1489,1469,1430,1378,1341,1245,1112,1049,1043,999,983,979,975,949,947,950,950,953,953,953,953,953,953,953,953,953,953,953,953,953,953,953,953,953,953,953,953,953,953,953,953,699,701,704,710,738,976,1169,1262,1365,1408,1407,1386,1350,1329,1316,1294,1273,1248,1221,1201,1179,1157,1134,1113,1089,1090,1051,1019,996,982,855,928,892,748,745,726,718,652,650,655,657,655,655,655,655,655,655,655,655,655,655,655,655,655,655,655,655,655,655,655,655,655,655,655,655,558,562,606,566,573,776,943,983,1132,1120,1129,1112,1093,1075,1058,1039,1021,995,972,968,944,931,913,924,877,913,869,819,805,786,661,777,737,594,591,579,570,555,556,557,556,557,557,557,557,557,557,557,557,557,557,557,557,557,557,557,557,557,557,557,557,557,557,557,557,1002,934,979,1012,1027,1341,1570,1721,1962,1846,1843,1813,1843,1754,1714,1686,1667,1628,1607,1580,1551,1521,1532,1510,1434,1503,1471,1344,1316,1044,1223,1013,980,981,939,945,917,917,938,927,929,930,934,928,936,929,938,932,935,931,946,943,944,938,934,941,937,946,936,944,943,950,935,931,930,477,479,480,482,487,539,735,821,906,958,958,942,916,913,904,888,873,858,842,827,811,796,781,765,750,734,719,698,688,668,653,530,521,500,488,485,486,487,470,477,478,478,478,478,478,478,478,478,478,478,478,478,478,478,478,478,478,478,478,478,478,478,478,478,478,1053,1056,1070,1066,1185,1593,1794,1946,2035,2058,2042,2009,1981,1960,1927,1897,1855,1823,1791,1761,1737,1698,1672,1640,1607,1577,1543,1497,1384,1283,1147,1135,1125,1078,1068,1067,1069,1064,1042,1042,1043,1046,1047,1049,1064,1063,1053,1064,1059,1052,1062,1084,1088,1093,1078,1060,1088,1073,1088,1073,1069,1061,1065,1051,1048,302,303,330,305,328,392,437,489,537,573,581,574,569,558,550,542,534,526,518,513,502,495,486,481,470,463,454,432,434,416,409,410,392,375,308,306,306,307,281,278,274,275,277,278,291,290,275,291,285,275,274,290,289,291,293,305,287,286,289,292,289,281,277,277,274,993,993,1010,1006,1069,1463,1657,1819,1901,1933,1917,1896,1863,1839,1808,1772,1739,1713,1684,1661,1625,1597,1573,1543,1520,1477,1448,1294,1233,1133,1080,1057,1031,1015,1008,1004,1017,1001,973,966,966,967,969,970,990,985,967,987,977,967,966,971,976,987,988,978,991,972,971,988,981,973,969,969,966,783,790,792,812,819,922,1212,1414,1535,1560,1569,1544,1521,1488,1465,1447,1425,1395,1373,1351,1326,1281,1257,1239,1214,1189,1168,1140,1116,1086,880,971,841,813,829,817,811,787,741,741,741,741,741,741,741,741,741,741,741,741,741,741,741,741,741,741,741,741,741,741,741,741,741,741,741,365,366,367,369,369,404,547,608,667,706,709,699,689,684,674,660,650,640,630,620,610,601,591,581,574,561,554,541,525,513,502,491,405,397,374,370,371,372,353,353,353,353,353,353,353,353,353,353,353,353,353,353,353,353,353,353,353,353,353,353,353,353,353,353,353,1005,1008,1022,1024,1123,1505,1696,1855,1941,1990,1941,1932,1894,1872,1815,1812,1774,1752,1713,1699,1662,1632,1625,1579,1529,1515,1481,1446,1299,1210,1112,1072,1059,1042,1029,1019,1017,1026,1002,1003,1001,1003,1006,1005,1024,1019,1002,1017,1009,1004,1001,1010,1015,1020,1027,1017,1020,1011,1010,1013,1016,1008,1005,1005,1002,0,0,0,0,0,0,0,0,0,0,0,0,0,0,0,0,0,0,0,0,0,0,0,0,0,0,0,0,0,0,0,0,0,0,0,0,0,0,0,0,0,0,0,0,0,0,0,0,0,0,0,0,0,0,0,0,0,0,0,0,0,0,0,0,0,463,460,462,464,469,623,690,781,857,908,909,894,882,873,859,843,830,810,804,792,771,765,746,733,722,706,696,680,661,647,636,622,570,479,477,467,476,467,440,440,440,440,440,440,440,440,440,440,440,440,440,440,440,440,440,440,440,440,440,440,440,440,440,440,440,522,525,526,530,534,632,790,890,979,1025,1020,1006,995,984,970,950,933,921,905,891,879,860,849,830,821,804,791,767,739,723,690,665,612,546,534,532,534,484,466,466,466,466,466,466,466,466,466,466,466,466,466,466,466,466,466,466,466,466,466,466,466,466,466,466,466,280,280,281,282,283,359,411,456,501,566,556,547,539,531,522,513,504,532,488,479,510,463,454,445,465,429,420,437,403,394,393,401,369,295,368,284,285,286,264,260,262,262,263,265,266,270,266,265,267,263,265,264,265,268,267,267,266,266,264,263,265,268,267,270,268,1053,1056,1070,1066,1185,1593,1794,1946,2035,2058,2042,2009,1981,1960,1927,1897,1855,1823,1791,1761,1737,1698,1672,1640,1607,1577,1543,1497,1384,1283,1147,1135,1125,1078,1068,1067,1069,1064,1042,1042,1043,1046,1047,1049,1064,1063,1053,1064,1059,1052,1062,1084,1088,1093,1078,1060,1088,1073,1088,1073,1069,1061,1065,1051,1048,887,889,891,900,1025,1287,1477,1636,1736,1772,1764,1736,1706,1678,1649,1621,1592,1565,1549,1509,1481,1453,1436,1397,1376,1339,1321,1291,1255,1236,1168,1133,935,1009,922,900,902,896,881,885,891,892,895,893,899,899,905,902,902,906,920,924,919,943,913,899,933,910,899,896,912,922,945,920,913,567,568,570,572,585,725,887,993,1094,1140,1144,1125,1106,1089,1070,1051,1034,1015,996,979,960,941,924,905,897,869,861,832,814,795,786,759,718,630,578,575,576,578,543,551,550,557,557,556,552,559,547,549,549,548,549,550,549,548,548,549,551,551,551,552,552,552,549,548,549,779,772,783,786,781,903,1249,1365,1483,1553,1543,1513,1499,1485,1438,1417,1392,1378,1351,1331,1309,1284,1254,1229,1204,1223,1135,1131,1099,977,1005,949,928,823,793,775,784,772,769,770,769,780,770,773,772,776,773,778,776,772,778,774,777,774,777,788,791,784,777,773,790,793,778,776,771,1131,1134,1137,1151,1225,1592,1905,2079,2196,2261,2258,2218,2182,2147,2112,2064,2039,2006,1966,1930,1895,1859,1824,1788,1751,1706,1672,1648,1470,1356,1346,1221,1192,1161,1149,1150,1141,1145,1115,1119,1121,1127,1133,1123,1138,1131,1119,1118,1122,1118,1135,1128,1132,1125,1135,1135,1128,1130,1134,1131,1139,1119,1126,1123,1124,204,205,205,206,207,262,298,332,367,401,416,410,403,397,390,383,377,370,364,357,350,344,337,331,324,317,311,304,298,291,284,278,271,265,258,254,254,255,196,201,204,196,199,202,199,197,199,206,207,200,198,203,198,200,202,207,198,199,201,199,199,199,199,201,199,806,789,801,806,865,961,1263,1424,1538,1603,1565,1548,1515,1541,1453,1439,1440,1391,1365,1344,1348,1320,1263,1278,1246,1240,1173,1169,1135,1106,1093,849,868,833,798,802,796,806,794,800,808,813,809,812,803,815,803,817,807,811,806,811,816,813,816,812,827,815,816,812,822,823,799,806,801,469,457,472,459,464,541,700,775,849,907,914,895,882,869,855,842,828,812,801,786,772,757,743,726,721,699,694,671,667,624,611,579,560,475,464,462,477,462,431,430,431,433,432,431,435,437,432,434,434,433,434,435,434,433,433,434,436,436,436,437,437,437,434,433,434,0,0,0,0,0,0,0,0,0,0,0,0,0,0,0,0,0,0,0,0,0,0,0,0,0,0,0,0,0,0,0,0,0,0,0,0,0,0,0,0,0,0,0,0,0,0,0,0,0,0,0,0,0,0,0,0,0,0,0,0,0,0,0,0,0,209,210,211,212,212,270,306,342,378,414,430,422,415,409,402,396,388,381,375,368,360,354,347,341,333,326,320,313,306,299,292,286,279,271,265,213,248,261,186,184,189,188,187,187,183,188,189,189,189,189,188,187,190,188,191,191,184,187,185,186,187,185,188,193,185,658,668,638,684,688,818,1030,1144,1264,1310,1270,1250,1269,1252,1233,1212,1192,1128,1108,1129,1068,1048,1027,1048,1023,1009,947,927,906,886,865,790,760,684,671,676,670,649,615,609,612,619,615,621,617,620,616,618,618,617,618,619,618,615,617,618,620,620,620,621,621,621,618,617,618,887,889,891,900,1025,1287,1477,1636,1736,1772,1764,1736,1706,1678,1649,1621,1592,1565,1549,1509,1481,1453,1436,1397,1376,1339,1321,1291,1255,1236,1168,1133,935,1009,922,900,902,896,881,885,891,892,895,893,899,899,905,902,902,906,920,924,919,943,913,899,933,910,899,896,912,922,945,920,913,870,874,861,867,948,1232,1407,1567,1675,1707,1739,1713,1684,1655,1592,1598,1578,1559,1529,1494,1469,1438,1411,1385,1355,1293,1301,1272,1243,1216,1006,983,926,905,893,884,893,887,841,841,841,841,841,841,841,841,841,841,841,841,841,841,841,841,841,841,841,841,841,841,841,841,841,841,841,582,584,585,587,606,769,893,1000,1109,1165,1173,1158,1136,1117,1098,1080,1061,1042,1024,1005,985,966,948,929,910,892,873,854,836,817,769,752,727,625,594,591,593,594,506,506,506,506,506,506,506,506,506,506,506,506,506,506,506,506,506,506,506,506,506,506,506,506,506,506,506,676,679,684,683,696,808,1056,1187,1303,1347,1349,1334,1310,1284,1269,1259,1221,1205,1181,1162,1136,1114,1097,1079,1054,1034,1007,1000,874,918,834,737,793,700,709,689,688,684,665,672,663,672,675,671,680,689,689,668,671,689,679,689,689,684,682,682,675,683,680,684,689,679,680,677,668,1140,1149,1152,1167,1265,1642,2037,2260,2351,2396,2378,2338,2291,2248,2210,2169,2124,2086,2044,2004,1966,1923,1868,1827,1791,1753,1717,1673,1535,1307,1278,1242,1197,1176,1165,1166,1157,1163,1078,1078,1078,1078,1078,1078,1078,1078,1078,1078,1078,1078,1078,1078,1078,1078,1078,1078,1078,1078,1078,1078,1078,1078,1078,1078,1078,219,220,221,221,230,277,315,351,387,425,447,441,434,426,419,412,405,397,391,383,376,369,363,355,348,341,334,326,320,312,305,298,291,284,277,231,232,234,169,169,169,169,169,169,169,169,169,169,169,169,169,169,169,169,169,169,169,169,169,169,169,169,169,169,169,683,708,711,713,743,918,1138,1273,1328,1409,1409,1386,1369,1342,1318,1347,1274,1251,1230,1248,1152,1130,1163,1118,1117,1073,1084,1028,1006,984,971,892,785,731,757,716,695,720,728,728,728,728,728,728,728,728,728,728,728,728,728,728,728,728,728,728,728,728,728,728,728,728,728,728,728,470,470,473,475,480,566,723,803,871,932,944,928,911,899,885,870,856,842,825,812,799,783,765,750,738,725,705,702,677,663,624,601,578,491,492,477,479,490,394,394,394,394,394,394,394,394,394,394,394,394,394,394,394,394,394,394,394,394,394,394,394,394,394,394,394,145,145,146,146,155,180,206,231,254,279,300,295,290,285,279,275,271,265,261,257,251,246,242,237,232,227,223,218,213,208,203,198,193,189,184,166,167,167,97,97,97,97,97,97,97,97,97,97,97,97,97,97,97,97,97,97,97,97,97,97,97,97,97,97,97,0,0,0,0,0,0,0,0,0,0,0,0,0,0,0,0,0,0,0,0,0,0,0,0,0,0,0,0,0,0,0,0,0,0,0,0,0,0,0,0,0,0,0,0,0,0,0,0,0,0,0,0,0,0,0,0,0,0,0,0,0,0,0,0,0,674,684,661,669,678,844,1036,1151,1280,1295,1312,1325,1302,1238,1230,1197,1177,1156,1135,1114,1134,1114,1052,1031,1010,993,1004,949,928,907,874,721,692,675,676,659,694,663,576,576,576,576,576,576,576,576,576,576,576,576,576,576,576,576,576,576,576,576,576,576,576,576,576,576,576,870,874,861,867,948,1232,1407,1567,1675,1707,1739,1713,1684,1655,1592,1598,1578,1559,1529,1494,1469,1438,1411,1385,1355,1293,1301,1272,1243,1216,1006,983,926,905,893,884,893,887,841,841,841,841,841,841,841,841,841,841,841,841,841,841,841,841,841,841,841,841,841,841,841,841,841,841,841,1056,1058,1062,1070,1230,1502,1783,1964,2053,2088,2082,2050,2014,1982,1957,1916,1896,1860,1817,1784,1750,1720,1684,1650,1615,1584,1549,1519,1420,1201,1158,1143,1119,1085,1074,1071,1074,1069,1033,1034,1040,1047,1047,1068,1044,1044,1058,1051,1047,1054,1064,1066,1068,1085,1059,1049,1063,1056,1042,1040,1040,1040,1040,1040,1040,191,192,193,193,194,202,280,285,310,373,358,382,378,375,372,369,365,318,313,308,302,298,293,288,283,272,267,309,302,297,291,286,255,276,231,195,195,196,168,177,167,180,180,180,179,180,169,169,171,172,168,168,169,171,168,171,171,171,168,179,179,179,179,179,179,993,997,1005,1010,1073,1465,1676,1836,1927,1966,1953,1926,1895,1864,1833,1815,1780,1740,1716,1677,1650,1622,1598,1560,1526,1491,1469,1440,1398,1335,1093,1078,1072,1027,1010,1008,1003,996,970,973,971,977,979,972,976,993,975,979,972,976,973,993,986,986,981,996,984,981,997,997,997,997,994,997,996,718,721,725,725,740,971,1135,1394,1518,1560,1556,1532,1500,1476,1453,1422,1397,1366,1338,1308,1273,1251,1224,1196,1163,1131,1106,1085,1048,1028,1003,902,765,762,737,733,739,727,681,683,689,696,697,701,705,704,695,697,704,704,705,705,705,705,699,696,704,698,702,700,700,700,700,700,700,481,477,484,485,487,592,723,807,900,965,973,958,942,916,913,896,881,865,851,833,818,801,778,772,756,732,726,701,694,678,655,613,536,498,510,496,485,474,441,417,431,427,423,446,429,454,453,436,447,432,435,436,437,453,434,432,433,439,429,427,427,427,427,427,427,1026,1025,1023,1028,1144,1482,1728,1874,1965,2006,1978,1977,1930,1914,1866,1833,1818,1802,1743,1689,1661,1643,1615,1583,1542,1505,1507,1469,1376,1306,1098,1096,1076,1037,1026,1036,1021,1030,1003,998,1005,1015,1017,999,1015,1013,1013,1013,1007,1013,1012,1017,1025,1016,1020,1013,1009,1010,1019,1024,1024,1024,1024,1024,1024,251,252,243,243,253,247,308,372,401,423,440,435,432,428,424,419,415,412,407,402,398,394,383,376,369,361,354,347,339,309,302,295,262,256,250,254,246,312,173,172,171,173,174,171,174,176,171,174,174,180,179,180,175,197,173,170,171,173,179,178,178,178,178,178,178,549,553,555,557,559,685,855,955,1049,1108,1116,1098,1082,1062,1045,1027,1008,991,973,950,937,916,899,885,867,848,830,812,791,776,758,706,625,587,565,557,567,561,502,499,511,517,521,531,513,528,523,524,528,529,533,530,529,549,519,520,529,536,524,517,517,517,517,517,517,535,537,538,540,542,659,826,922,1014,1073,1082,1064,1049,1030,1013,995,979,961,943,927,909,892,876,858,841,822,805,788,770,752,736,598,584,559,548,544,554,516,468,464,475,476,489,493,479,493,494,496,490,487,490,486,486,502,483,480,491,493,480,481,481,481,481,481,481,0,0,0,0,0,0,0,0,0,0,0,0,0,0,0,0,0,0,0,0,0,0,0,0,0,0,0,0,0,0,0,0,0,0,0,0,0,0,0,0,0,0,0,0,0,0,0,0,0,0,0,0,0,0,0,0,0,0,0,0,0,0,0,0,0,1056,1058,1062,1070,1230,1502,1783,1964,2053,2088,2082,2050,2014,1982,1957,1916,1896,1860,1817,1784,1750,1720,1684,1650,1615,1584,1549,1519,1420,1201,1158,1143,1119,1085,1074,1071,1074,1069,1033,1034,1040,1047,1047,1068,1044,1044,1058,1051,1047,1054,1064,1066,1068,1085,1059,1049,1063,1056,1042,1040,1040,1040,1040,1040,1040,0,0,0,0,0,0,0,0,0,0,0,0,0,0,0,0,0,0,0,0,0,0,0,0,0,0,0,0,0,0,0,0,0,0,0,0,0,0,0,0,0,0,0,0,0,0,0,0,0,0,0,0,0,0,0,0,0,0,0,0,0,0,0,0,0,820,823,826,866,883,1216,1365,1513,1603,1655,1636,1610,1584,1558,1532,1505,1479,1453,1426,1401,1375,1348,1322,1306,1270,1244,1217,1191,1164,1148,1113,1008,990,878,836,833,835,845,844,838,852,863,866,862,862,876,866,872,869,870,875,875,880,886,877,863,868,877,871,855,858,877,864,885,868,647,649,618,653,638,872,1005,1147,1180,1294,1241,1222,1202,1171,1211,1190,1123,1137,1128,1064,1035,1025,1005,986,967,946,926,906,888,904,761,743,689,672,673,657,665,632,628,627,620,628,627,633,629,634,634,640,630,634,628,634,635,626,637,638,636,634,632,636,641,643,636,645,636,1128,1130,1139,1195,1682,2036,2382,2560,2657,2672,2637,2571,2529,2475,2420,2366,2314,2260,2207,2153,2099,2045,1991,1942,2010,1887,1896,1723,1669,1607,1526,1235,1191,1160,1151,1201,1148,1159,1184,1210,1190,1197,1222,1214,1199,1210,1212,1222,1228,1199,1210,1216,1227,1231,1234,1233,1224,1231,1238,1259,1269,1310,1265,1269,1268,778,781,783,785,809,1130,1273,1414,1517,1557,1552,1528,1503,1477,1456,1447,1409,1381,1359,1332,1322,1282,1258,1237,1208,1182,1171,1132,1053,1042,865,872,825,806,793,790,775,747,745,747,749,773,781,769,799,799,784,809,773,789,771,770,778,811,816,785,768,757,775,785,782,789,781,785,767,471,472,467,476,480,618,722,807,891,942,949,935,919,891,888,874,859,831,829,801,787,784,757,773,739,702,708,684,678,663,649,633,618,494,482,478,472,468,464,464,457,464,463,469,465,470,470,476,466,470,464,470,471,462,473,474,472,470,468,472,477,479,472,481,472,980,983,985,990,1083,1474,1651,1811,1899,1943,1938,1900,1870,1838,1810,1801,1751,1728,1689,1666,1651,1604,1575,1537,1512,1476,1429,1399,1291,1243,1243,1071,1051,1013,997,993,990,971,965,968,969,969,984,981,987,988,978,998,984,991,991,985,988,995,1026,989,988,976,975,988,986,991,985,995,977,850,853,855,858,896,1246,1399,1564,1662,1700,1694,1667,1639,1610,1588,1576,1532,1505,1477,1448,1411,1397,1373,1340,1313,1284,1273,1234,1207,1190,1074,983,912,879,865,863,864,827,823,826,826,831,843,837,863,872,846,870,849,854,858,850,844,868,877,852,858,844,833,848,849,847,840,850,832,814,819,818,819,830,1178,1316,1469,1574,1631,1600,1584,1558,1523,1513,1476,1477,1430,1425,1390,1365,1326,1301,1274,1261,1235,1197,1190,1156,1123,976,961,880,867,822,819,805,790,789,791,790,792,803,803,804,811,802,803,804,803,809,807,806,808,809,805,804,800,797,800,802,810,805,814,797,920,923,927,936,1008,1374,1545,1707,1795,1818,1810,1782,1812,1734,1705,1676,1647,1612,1579,1562,1533,1502,1475,1446,1416,1387,1358,1329,1301,1040,1025,992,1058,972,930,955,905,907,902,911,917,931,939,947,930,946,936,948,943,948,957,935,961,965,951,938,957,957,943,950,965,961,962,956,947,0,0,0,0,0,0,0,0,0,0,0,0,0,0,0,0,0,0,0,0,0,0,0,0,0,0,0,0,0,0,0,0,0,0,0,0,0,0,0,0,0,0,0,0,0,0,0,0,0,0,0,0,0,0,0,0,0,0,0,0,0,0,0,0,0 ]);
