n = 20;
D = [67,93,206,164,69,214,80,110,179,97,208,76,225,132,122,233,155,163,287,79 ];
q = 0;
prec = array2d(1..0,1..2,[]);
steps = 64;
l = 360;
r = 0;
which = [];
interval = array2d(1..0,1..2,[]);
T = array3d(1..21,1..21,0..64,[0,0,0,0,0,0,0,0,0,0,0,0,0,0,0,0,0,0,0,0,0,0,0,0,0,0,0,0,0,0,0,0,0,0,0,0,0,0,0,0,0,0,0,0,0,0,0,0,0,0,0,0,0,0,0,0,0,0,0,0,0,0,0,0,0,509,536,531,529,579,680,789,919,973,1051,1065,1010,1027,1047,980,959,955,917,893,876,860,860,859,836,810,792,789,794,773,715,704,730,542,548,549,531,549,534,520,518,530,541,534,520,521,538,524,525,530,530,527,535,539,540,541,545,530,536,540,554,538,540,542,542,540,343,344,345,346,348,442,517,576,635,689,700,689,678,666,655,644,633,622,610,598,588,587,564,553,544,532,530,508,498,488,477,465,454,443,353,349,351,351,334,321,325,327,329,335,326,334,329,330,335,337,332,339,338,366,337,345,332,336,333,340,352,341,347,354,349,365,366,367,369,369,399,552,615,678,734,743,731,720,708,695,684,673,660,648,636,624,643,600,588,577,565,581,540,530,488,477,405,395,385,375,371,372,373,362,343,348,349,357,361,350,361,351,351,360,361,355,359,363,424,368,371,357,365,362,365,384,372,374,372,367,456,461,458,466,462,597,685,767,844,913,918,906,892,886,862,848,832,821,804,789,776,760,745,731,716,701,687,672,657,643,628,614,490,478,467,463,465,466,435,425,440,437,437,451,437,451,442,439,452,444,449,449,450,455,449,449,445,450,444,442,449,452,448,463,452,433,437,436,442,441,550,664,735,811,864,912,858,857,840,833,816,801,796,761,748,733,732,722,693,678,665,662,647,624,610,610,583,466,454,443,440,441,441,425,417,420,422,419,428,423,449,426,426,446,421,423,424,423,426,429,427,425,426,425,425,424,427,427,432,429,672,676,683,686,688,805,995,1144,1269,1325,1324,1319,1293,1276,1249,1217,1211,1175,1149,1134,1107,1102,1074,1050,1033,1008,987,992,971,938,927,849,759,704,698,688,690,676,659,655,655,654,660,663,663,661,658,667,666,658,662,661,665,664,668,665,667,664,667,666,665,666,669,670,661,359,360,378,361,377,394,524,569,544,598,595,588,618,573,565,557,551,543,599,590,576,574,566,557,549,540,532,522,513,504,495,485,352,393,383,378,379,375,332,335,333,334,343,351,343,355,344,349,349,344,346,342,347,350,350,346,348,342,344,346,350,351,348,352,352,582,586,600,602,591,658,862,986,1100,1161,1149,1161,1099,1122,1076,1055,1051,1011,1001,985,957,959,929,913,889,876,849,883,852,845,811,729,689,634,619,605,607,596,566,563,566,570,570,578,565,574,565,569,567,567,572,575,574,583,578,574,569,576,574,582,574,577,571,584,572,563,568,566,576,571,753,869,971,1068,1136,1162,1120,1102,1098,1065,1047,1029,1010,993,974,955,938,919,902,883,865,847,828,810,792,774,727,683,617,576,573,573,566,521,518,529,537,548,552,531,546,541,546,549,548,553,551,549,555,542,541,554,563,547,542,543,566,543,550,542,466,467,468,470,471,537,705,792,870,938,945,928,914,898,885,869,853,840,831,809,801,779,762,766,733,718,702,688,672,657,566,554,543,514,483,472,474,473,413,417,419,425,424,429,418,423,417,431,423,419,425,426,432,427,431,428,423,418,427,424,428,427,422,426,417,548,561,559,567,574,728,862,957,1056,1113,1146,1100,1086,1074,1050,1029,1009,994,974,958,932,930,908,885,871,854,831,815,799,768,762,742,627,578,569,562,567,556,540,535,544,560,559,559,539,564,554,543,558,547,539,539,538,541,546,542,540,542,543,543,540,544,551,547,544,871,877,878,892,904,1136,1399,1630,1730,1805,1789,1796,1708,1697,1678,1618,1632,1568,1528,1508,1488,1469,1421,1400,1381,1331,1303,1302,1249,1177,981,985,981,981,914,886,890,900,892,886,891,902,901,900,903,909,895,897,892,900,900,918,905,908,902,908,904,903,899,918,904,920,897,903,901,666,667,669,671,674,810,1049,1171,1282,1342,1342,1315,1301,1282,1258,1237,1213,1181,1179,1150,1136,1106,1083,1080,1041,1019,998,976,954,933,836,772,720,695,683,676,678,668,603,605,620,646,615,617,611,613,607,620,615,608,618,618,625,623,625,621,615,612,621,617,619,615,613,618,610,627,628,630,632,634,681,978,1093,1199,1261,1263,1237,1224,1209,1184,1164,1143,1112,1109,1082,1068,1042,1021,1019,981,960,941,921,899,879,787,693,679,667,642,635,639,616,550,553,566,592,561,565,557,562,553,568,563,556,564,564,570,570,570,565,561,555,564,561,563,563,560,564,556,537,539,544,543,553,683,823,921,1021,1081,1085,1070,1057,1036,1015,993,980,965,969,930,920,896,876,876,842,825,807,775,757,740,710,635,615,596,550,547,549,521,493,490,502,503,497,506,500,511,505,502,514,507,508,510,509,509,505,506,506,509,504,501,506,509,501,514,509,1128,1103,1112,1152,1239,1592,1927,2026,2131,2164,2184,2138,2126,2070,2064,2010,1967,1963,1884,1869,1870,1800,1794,1763,1668,1659,1608,1518,1455,1231,1228,1199,1178,1157,1142,1143,1139,1148,1137,1137,1139,1144,1139,1155,1145,1142,1140,1142,1140,1141,1143,1144,1147,1142,1147,1148,1147,1145,1150,1156,1151,1163,1151,1155,1152,427,429,424,432,421,553,611,698,777,818,853,818,820,817,797,795,784,761,748,704,699,673,702,683,646,656,623,630,597,580,569,549,525,480,440,428,437,438,390,394,389,392,418,396,395,420,393,396,395,395,393,392,393,396,396,393,398,392,392,396,393,423,394,396,393,483,489,486,494,490,647,733,818,900,971,1000,961,946,939,914,898,883,867,852,837,821,806,790,775,759,743,728,712,697,682,666,651,598,584,495,492,492,495,462,455,471,495,467,477,460,474,468,467,469,468,463,472,472,477,474,477,469,477,467,469,471,469,469,476,469,647,648,652,657,657,762,949,1090,1212,1270,1270,1267,1241,1224,1199,1167,1162,1127,1101,1087,1061,1046,1029,1018,990,965,958,950,931,834,888,775,748,675,714,658,662,651,638,621,619,619,632,638,631,630,624,636,637,633,631,633,635,637,638,637,636,635,633,641,634,639,637,638,629,0,0,0,0,0,0,0,0,0,0,0,0,0,0,0,0,0,0,0,0,0,0,0,0,0,0,0,0,0,0,0,0,0,0,0,0,0,0,0,0,0,0,0,0,0,0,0,0,0,0,0,0,0,0,0,0,0,0,0,0,0,0,0,0,0,404,405,406,407,410,482,598,670,739,815,821,810,796,782,770,757,741,730,715,704,692,675,662,649,636,623,610,597,584,574,521,510,498,470,414,410,411,391,365,347,349,355,351,357,351,358,353,356,356,353,350,354,351,350,353,356,355,357,349,348,353,353,353,353,353,0,0,0,0,0,0,0,0,0,0,0,0,0,0,0,0,0,0,0,0,0,0,0,0,0,0,0,0,0,0,0,0,0,0,0,0,0,0,0,0,0,0,0,0,0,0,0,0,0,0,0,0,0,0,0,0,0,0,0,0,0,0,0,0,0,515,517,519,520,523,716,806,907,1002,1061,1064,1047,1029,1016,994,976,959,941,924,902,888,871,853,836,818,800,783,765,748,730,712,695,632,540,527,524,526,528,511,510,503,506,519,527,517,524,525,539,520,538,525,529,519,566,526,522,544,518,526,538,531,562,534,549,535,537,539,540,542,545,749,844,949,1047,1105,1107,1090,1071,1058,1035,1016,997,980,961,938,925,906,887,870,851,833,815,796,778,760,691,674,695,561,549,546,548,549,526,528,528,533,534,561,540,585,554,542,556,541,538,536,535,543,538,537,542,542,537,537,537,563,542,545,545,215,215,216,216,250,211,288,320,355,388,409,403,397,391,384,377,371,364,358,352,343,337,331,324,319,313,307,300,294,288,279,273,267,213,207,251,251,252,172,172,176,179,176,179,172,179,172,178,175,173,173,177,179,179,178,178,178,174,179,178,175,175,175,175,175,173,174,174,175,175,181,249,277,305,333,348,343,337,332,326,322,316,311,305,300,294,289,283,278,273,268,262,257,251,246,240,192,188,184,180,176,177,177,175,178,167,168,180,184,181,190,174,190,180,235,196,224,181,228,187,171,178,175,195,246,243,249,250,250,242,241,241,242,243,243,311,346,391,431,470,485,506,469,462,454,446,438,432,424,416,409,401,393,386,379,371,364,356,348,341,333,325,319,311,303,312,244,300,237,271,236,244,243,242,238,243,238,235,239,239,237,237,238,239,239,242,238,241,239,243,236,293,237,242,237,661,654,665,657,667,864,999,1045,1129,1191,1196,1180,1164,1135,1131,1116,1111,1184,1131,1101,1096,1080,1064,1046,1020,1010,990,846,830,898,800,824,696,687,664,660,696,663,640,637,637,640,641,648,648,664,644,648,647,640,645,647,651,656,654,648,641,641,654,647,640,648,643,654,648,280,280,281,282,299,374,404,449,506,551,565,556,545,537,529,521,512,502,493,484,475,469,460,451,436,433,425,416,406,397,388,382,372,364,305,286,287,288,263,266,267,271,276,274,266,273,262,283,275,274,272,272,279,287,280,272,275,272,279,274,273,277,270,273,265,316,317,318,321,322,340,455,506,569,613,630,620,610,599,589,579,569,559,550,539,529,519,509,499,489,478,468,458,448,438,427,379,371,341,317,323,314,315,264,263,263,263,263,264,263,264,263,263,264,263,263,263,264,264,264,264,264,264,264,264,263,265,263,262,262,425,427,428,434,435,486,615,695,784,843,850,838,834,818,804,790,777,761,749,735,717,710,694,684,665,652,639,624,612,597,532,527,481,451,441,436,441,443,364,364,363,364,363,364,363,364,364,363,364,363,363,363,364,364,364,364,364,364,364,364,363,365,363,362,362,116,117,117,144,144,147,167,187,205,225,238,235,231,227,223,220,215,212,209,204,201,196,193,189,185,181,178,173,170,167,162,159,155,151,147,144,145,145,110,108,108,108,112,111,110,113,108,111,111,111,111,111,112,114,115,114,112,113,112,113,114,116,116,116,116,498,500,502,548,511,651,774,865,1039,1005,1070,994,977,961,1076,988,973,955,881,923,906,832,816,799,783,696,751,734,747,687,561,611,598,596,581,506,576,577,561,561,561,567,561,562,566,568,567,562,563,565,567,565,567,567,568,568,566,569,568,586,567,587,568,595,572,630,628,633,635,640,754,956,1043,1190,1253,1224,1227,1163,1206,1178,1167,1134,1120,1092,1062,1022,1028,1020,990,949,947,931,917,895,846,747,740,689,657,658,641,633,630,548,548,547,548,547,548,547,548,548,547,548,547,547,547,548,548,548,548,548,548,548,548,547,549,547,546,546,592,588,585,596,608,700,896,969,1107,1174,1144,1141,1087,1135,1105,1096,1062,1049,1023,1015,956,964,963,928,882,888,876,794,759,717,646,663,627,624,616,600,593,578,514,496,499,500,513,514,507,505,505,510,514,513,513,513,514,514,514,514,514,514,514,514,509,509,509,509,509,306,309,310,311,315,329,438,488,548,591,608,598,589,579,565,556,550,540,531,521,511,501,491,482,466,463,453,443,434,424,356,348,340,331,311,302,304,305,226,226,225,226,225,226,225,226,226,225,226,225,225,225,226,226,226,226,226,226,226,226,225,227,225,224,224,684,687,688,691,707,924,1079,1183,1300,1320,1315,1354,1344,1310,1288,1266,1244,1222,1200,1178,1156,1105,1062,1090,1020,1046,1024,1002,980,900,856,848,790,679,667,690,689,699,653,653,657,671,663,675,658,666,684,667,665,666,662,665,661,662,664,667,669,665,662,664,674,702,676,676,676,732,734,748,741,777,909,1171,1283,1401,1481,1474,1462,1434,1422,1394,1372,1330,1314,1284,1260,1245,1222,1200,1160,1137,1135,1107,1084,999,979,906,893,824,758,756,736,747,690,664,649,653,662,657,660,656,662,658,663,663,661,679,684,683,663,660,660,661,665,654,652,659,659,659,659,659,191,192,193,194,194,241,273,304,336,368,389,383,377,371,365,357,352,347,340,335,328,321,316,310,304,297,292,285,278,273,267,261,255,248,242,207,238,239,116,116,115,116,115,116,115,116,116,115,116,115,115,115,116,116,116,116,116,116,116,116,115,117,115,114,114,211,211,212,213,214,302,308,343,379,414,430,423,415,409,402,396,389,381,375,368,361,355,348,341,334,327,321,314,306,300,293,296,291,301,293,214,215,216,210,215,216,220,218,221,214,222,211,239,216,216,216,217,233,236,221,217,221,216,222,220,220,223,212,216,212,404,405,406,407,410,482,598,670,739,815,821,810,796,782,770,757,741,730,715,704,692,675,662,649,636,623,610,597,584,574,521,510,498,470,414,410,411,391,365,347,349,355,351,357,351,358,353,356,356,353,350,354,351,350,353,356,355,357,349,348,353,353,353,353,353,360,361,362,376,372,382,514,562,609,649,662,653,644,634,627,618,609,600,591,583,574,565,556,547,539,530,521,512,503,405,397,448,400,376,369,365,366,382,309,304,306,314,305,305,305,309,307,305,306,311,310,311,306,328,306,303,302,306,310,312,309,312,310,312,311,650,666,655,676,708,834,1001,1135,1261,1290,1332,1280,1269,1244,1246,1229,1203,1161,1126,1145,1091,1104,1053,1064,1042,1012,987,965,922,919,886,707,693,705,694,679,692,675,629,618,628,646,629,637,628,639,639,627,636,632,633,632,635,660,642,646,632,644,634,640,646,644,637,644,639,0,0,0,0,0,0,0,0,0,0,0,0,0,0,0,0,0,0,0,0,0,0,0,0,0,0,0,0,0,0,0,0,0,0,0,0,0,0,0,0,0,0,0,0,0,0,0,0,0,0,0,0,0,0,0,0,0,0,0,0,0,0,0,0,0,170,171,171,210,210,217,246,275,303,333,348,343,337,332,325,320,314,309,303,298,292,287,281,276,270,265,259,254,248,243,237,232,226,221,215,211,211,212,155,156,156,157,157,157,159,159,160,160,160,161,161,161,162,162,162,162,162,163,163,165,165,165,166,166,166,601,603,605,606,609,738,887,983,1093,1167,1171,1153,1135,1118,1099,1083,1064,1047,1029,1010,992,975,959,940,923,906,888,871,853,836,781,752,639,625,618,609,611,606,549,546,564,573,555,572,561,572,577,561,580,564,568,570,573,590,567,565,566,574,563,562,559,562,560,562,561,578,579,582,583,585,672,864,951,1061,1122,1123,1106,1105,1089,1054,1038,1021,1005,1003,985,953,952,936,919,910,870,862,844,819,803,786,688,706,602,590,586,588,590,570,536,544,552,539,547,543,577,549,546,582,541,542,543,542,545,547,547,544,547,543,545,542,545,543,545,544,698,700,703,704,718,879,1043,1236,1322,1362,1359,1338,1317,1296,1276,1255,1235,1229,1193,1172,1151,1130,1111,1088,1067,1049,1028,1020,987,966,898,881,802,723,712,710,711,713,663,658,661,676,668,669,667,676,667,662,670,666,665,663,666,672,669,673,665,668,667,680,666,675,666,680,675,265,294,294,295,295,304,396,430,392,416,430,425,420,415,410,405,401,396,455,449,444,438,433,426,421,415,409,403,396,329,325,318,313,307,302,298,298,299,264,258,251,254,271,271,264,274,272,278,275,276,278,275,278,278,278,270,277,281,279,282,281,281,280,280,280,616,600,602,604,621,732,907,1063,1131,1199,1199,1146,1139,1115,1112,1085,1065,1048,1053,1035,1017,999,962,946,944,928,909,901,860,855,838,746,705,641,630,619,633,618,574,560,569,580,561,578,571,576,576,571,582,572,572,570,569,584,580,575,566,574,569,574,579,573,574,587,582,708,711,713,715,723,897,1069,1188,1319,1388,1387,1365,1344,1323,1300,1280,1258,1239,1216,1193,1172,1151,1131,1109,1088,1066,1046,1025,1004,982,927,830,751,734,723,719,721,703,642,635,657,681,661,671,658,667,666,675,670,668,666,672,672,688,658,670,677,681,672,662,659,673,660,659,658,640,642,645,646,657,769,1038,1138,1243,1288,1287,1268,1246,1226,1204,1185,1164,1143,1123,1139,1081,1059,1040,1046,998,977,956,938,918,898,760,705,689,671,652,649,651,605,597,604,608,619,607,609,611,615,612,618,617,611,619,613,621,619,627,616,615,620,616,624,621,615,613,626,613,646,646,648,658,670,783,954,1126,1221,1260,1263,1243,1223,1205,1185,1165,1146,1125,1106,1086,1067,1050,1026,1010,985,972,953,942,914,901,838,821,774,680,666,653,666,650,591,583,593,608,591,599,593,600,600,588,597,593,594,593,596,624,603,605,591,603,593,601,606,603,602,609,604,939,928,951,933,1000,1308,1507,1697,1825,1852,1839,1776,1760,1750,1738,1688,1692,1681,1610,1566,1567,1505,1474,1444,1443,1418,1379,1361,1259,1157,1113,1008,1004,1001,971,926,987,936,925,931,933,944,939,947,937,956,936,942,938,933,938,947,949,975,953,985,940,945,954,947,945,949,974,986,956,840,843,846,849,896,1094,1402,1550,1650,1687,1655,1655,1628,1599,1572,1545,1517,1491,1464,1475,1408,1380,1354,1354,1299,1272,1244,1223,1196,1164,938,930,895,872,856,853,844,795,785,805,822,810,800,802,801,817,801,812,806,804,811,806,832,813,820,813,821,814,815,815,813,810,805,819,806,801,804,807,809,838,1030,1327,1467,1569,1608,1577,1578,1555,1525,1499,1473,1447,1421,1396,1407,1344,1318,1294,1294,1240,1210,1192,1167,1141,1049,962,889,859,834,815,815,792,742,732,751,775,756,748,748,750,763,749,760,754,750,757,751,779,758,764,759,764,757,759,759,761,757,751,765,752,699,701,703,705,712,882,1052,1168,1296,1365,1366,1345,1323,1302,1281,1260,1229,1220,1197,1176,1156,1133,1115,1091,1072,1052,1036,1010,988,969,768,774,741,727,713,708,711,665,614,607,630,633,616,638,621,640,634,623,636,623,629,629,627,646,624,626,625,634,622,621,618,621,619,621,620,1189,1191,1203,1223,1282,1666,1969,2215,2285,2318,2291,2256,2240,2182,2144,2130,2086,2061,2000,1967,1931,1912,1881,1822,1794,1768,1719,1620,1510,1430,1295,1260,1267,1215,1216,1205,1208,1214,1163,1165,1167,1176,1180,1172,1172,1186,1172,1170,1178,1173,1172,1167,1184,1176,1178,1181,1174,1184,1188,1198,1190,1214,1213,1198,1193,506,507,509,511,518,691,790,873,961,1010,1013,999,997,989,951,936,919,904,898,871,855,839,827,811,790,775,777,755,756,722,695,678,542,529,517,528,515,516,499,496,493,514,493,515,499,504,507,507,529,504,505,504,504,512,515,507,508,510,507,506,511,564,509,586,512,629,631,633,634,638,735,933,1034,1150,1224,1226,1208,1189,1171,1151,1133,1113,1095,1077,1057,1039,1020,1004,983,966,948,929,910,892,855,760,744,668,653,642,638,641,635,579,577,598,603,584,596,583,595,591,587,590,588,582,591,591,596,592,589,592,597,590,589,586,589,587,589,588,669,670,673,676,687,869,995,1179,1267,1321,1305,1285,1266,1246,1226,1205,1185,1165,1146,1125,1105,1086,1067,1044,1024,1007,996,978,947,937,859,842,771,732,683,680,682,681,631,623,629,635,628,631,633,637,635,631,637,634,638,635,638,641,637,643,634,636,637,647,635,669,634,648,643,360,361,362,376,372,382,514,562,609,649,662,653,644,634,627,618,609,600,591,583,574,565,556,547,539,530,521,512,503,405,397,448,400,376,369,365,366,382,309,304,306,314,305,305,305,309,307,305,306,311,310,311,306,328,306,303,302,306,310,312,309,312,310,312,311,532,533,535,536,543,669,759,827,895,957,984,970,946,932,919,906,894,881,878,865,853,829,816,803,790,777,764,751,738,722,707,699,636,551,541,539,540,540,493,493,493,495,494,493,493,494,494,497,494,494,496,493,495,495,495,495,494,498,495,496,495,495,495,496,495,634,638,645,642,662,774,983,1111,1221,1278,1289,1260,1247,1219,1206,1185,1157,1136,1116,1094,1074,1054,1033,1020,992,971,958,929,910,894,766,749,728,695,649,646,647,638,615,608,620,640,631,625,612,623,626,637,646,623,630,634,634,649,637,643,622,634,628,631,634,633,626,632,624,222,223,224,257,275,287,325,364,401,440,455,447,441,433,426,419,411,404,397,390,382,375,368,360,354,346,338,332,324,317,310,302,295,288,281,276,277,278,207,209,210,212,210,213,209,211,211,210,212,210,210,212,211,216,214,212,210,216,211,215,214,214,212,216,215,0,0,0,0,0,0,0,0,0,0,0,0,0,0,0,0,0,0,0,0,0,0,0,0,0,0,0,0,0,0,0,0,0,0,0,0,0,0,0,0,0,0,0,0,0,0,0,0,0,0,0,0,0,0,0,0,0,0,0,0,0,0,0,0,0,780,790,793,794,808,1074,1212,1361,1457,1502,1502,1488,1467,1438,1427,1397,1378,1358,1337,1320,1301,1274,1261,1232,1213,1182,1176,1134,1078,1026,935,915,842,807,830,800,803,804,751,761,761,763,762,761,761,762,762,765,762,762,764,761,763,763,763,763,762,766,763,764,763,763,763,764,763,610,618,623,621,628,818,932,1058,1167,1223,1233,1206,1194,1167,1155,1136,1108,1089,1070,1049,1030,1011,991,979,953,933,920,893,875,856,838,819,805,641,629,625,627,609,588,582,594,607,603,607,584,593,597,608,618,593,601,603,602,623,605,609,588,601,597,601,601,598,597,603,595,655,657,658,660,672,787,996,1136,1262,1307,1307,1288,1267,1246,1225,1204,1199,1162,1142,1122,1101,1092,1059,1051,1018,997,976,973,948,914,778,761,697,680,667,665,666,668,648,648,653,662,658,650,651,660,654,664,671,657,662,665,665,661,664,666,655,658,661,671,654,664,655,668,654,125,125,154,154,154,156,172,189,205,221,234,231,227,224,221,217,214,211,207,204,202,199,195,192,189,185,182,179,176,172,170,167,163,160,157,155,155,155,114,114,114,116,115,114,114,115,115,118,115,115,117,114,116,116,116,116,115,119,116,117,116,116,116,117,116,565,575,563,578,575,678,862,963,1060,1144,1147,1129,1111,1093,1069,1045,1039,1020,1003,963,966,948,900,883,890,873,839,821,819,785,624,746,601,599,585,582,583,572,558,550,561,567,563,566,555,560,562,563,570,563,566,572,568,570,568,573,556,564,563,565,567,562,562,572,566,887,898,901,903,919,1244,1409,1586,1678,1718,1714,1697,1675,1639,1624,1591,1570,1546,1520,1500,1477,1446,1434,1398,1376,1342,1333,1288,1227,1094,1054,967,952,917,920,909,895,890,844,852,854,856,855,854,854,855,855,858,855,855,857,854,856,856,856,856,855,859,856,857,856,856,856,857,856,812,818,817,851,849,1091,1273,1413,1526,1589,1605,1579,1536,1512,1488,1464,1438,1413,1402,1379,1354,1317,1292,1267,1257,1232,1194,1170,1144,1120,1015,944,855,841,825,840,813,780,741,741,741,743,742,741,741,742,742,745,742,742,744,741,743,743,743,743,742,746,743,744,743,743,743,744,743,598,602,608,618,624,723,925,1043,1151,1209,1220,1191,1180,1153,1142,1121,1094,1075,1050,1035,1016,998,978,966,940,919,907,880,861,845,717,701,650,634,621,618,623,600,577,573,585,602,593,587,577,584,587,598,607,584,591,595,595,613,598,602,581,593,587,592,594,592,591,597,589,896,891,894,911,975,1268,1488,1668,1778,1799,1809,1796,1752,1718,1703,1639,1642,1611,1617,1539,1519,1457,1457,1426,1366,1336,1349,1284,1206,1143,1096,965,919,897,884,903,907,889,899,907,904,915,918,918,949,959,924,954,936,920,928,940,944,964,944,933,953,933,933,943,942,942,930,927,918,1012,1019,1018,1054,1103,1440,1661,1824,1925,1982,1992,1961,1911,1880,1848,1817,1786,1754,1737,1706,1675,1635,1603,1572,1555,1527,1484,1452,1276,1276,1116,1103,1063,1044,1029,1044,1018,970,929,929,929,931,930,929,929,930,930,933,930,930,932,929,931,931,931,931,930,934,931,932,931,931,931,932,931,973,980,979,1014,1036,1368,1580,1747,1846,1904,1915,1888,1837,1807,1776,1747,1716,1686,1669,1642,1613,1573,1542,1513,1497,1470,1427,1397,1116,1258,1093,1070,1020,1005,988,1006,966,917,877,877,877,879,878,877,877,878,878,881,878,878,880,877,879,879,879,879,878,882,879,880,879,879,879,880,879,878,888,891,893,920,1227,1389,1563,1655,1697,1694,1676,1651,1620,1605,1565,1551,1529,1503,1483,1458,1430,1405,1382,1360,1326,1295,1254,1210,999,969,952,954,907,910,899,857,862,816,825,826,828,827,826,826,827,827,830,827,827,829,826,828,828,828,828,827,831,828,829,828,828,828,829,828,1142,1150,1156,1172,1236,1574,1889,2115,2250,2255,2239,2231,2169,2151,2121,2061,2046,2000,1974,1928,1898,1859,1828,1787,1752,1705,1688,1620,1487,1455,1249,1224,1213,1171,1171,1169,1161,1165,1148,1151,1159,1162,1170,1153,1156,1170,1159,1172,1173,1164,1169,1169,1183,1165,1173,1174,1164,1174,1182,1189,1178,1189,1202,1186,1173,688,687,693,684,720,926,1047,1156,1266,1337,1310,1301,1306,1255,1230,1233,1193,1192,1135,1115,1111,1114,1090,1070,1047,997,1018,992,952,944,740,823,727,711,700,699,696,695,643,643,643,645,644,643,643,644,644,647,644,644,646,643,645,645,645,645,644,648,645,646,645,645,645,646,645,796,798,805,803,828,1047,1263,1424,1514,1557,1557,1542,1520,1490,1477,1446,1428,1406,1384,1367,1336,1310,1298,1266,1233,1206,1189,1155,1116,985,940,918,894,827,811,808,810,754,731,723,736,755,747,740,728,738,741,753,761,738,745,750,750,765,753,754,738,750,744,746,751,748,742,748,740,625,627,629,630,641,777,949,1082,1207,1254,1271,1235,1215,1194,1174,1155,1135,1115,1094,1074,1054,1035,1027,1007,989,954,935,931,909,874,739,722,705,650,638,642,636,635,617,613,619,627,625,619,617,621,622,633,630,625,625,636,635,624,632,636,624,626,631,633,623,636,623,636,622,532,533,535,536,543,669,759,827,895,957,984,970,946,932,919,906,894,881,878,865,853,829,816,803,790,777,764,751,738,722,707,699,636,551,541,539,540,540,493,493,493,495,494,493,493,494,494,497,494,494,496,493,495,495,495,495,494,498,495,496,495,495,495,496,495,356,358,359,360,360,382,520,585,644,702,728,716,705,692,681,670,658,647,635,624,612,600,586,575,565,544,540,528,486,498,465,394,445,375,366,361,363,364,324,318,313,321,322,327,320,326,319,324,322,321,316,323,322,317,322,325,324,326,323,320,323,325,320,322,318,228,229,230,230,282,295,334,368,411,449,464,456,449,437,457,427,420,412,405,419,411,383,376,369,361,354,347,339,328,325,317,310,303,295,288,283,284,284,216,218,221,228,216,217,216,218,221,216,218,216,217,217,216,218,218,220,217,221,218,222,217,224,217,222,220,572,571,576,577,586,750,905,1008,1114,1168,1175,1150,1136,1113,1118,1083,1059,1039,1016,1001,982,961,949,924,907,891,862,845,822,807,761,743,673,594,584,581,583,580,576,563,567,576,587,572,586,580,591,579,596,583,595,576,580,590,593,583,581,577,576,591,589,609,597,595,594,594,593,597,599,615,783,943,1050,1159,1211,1218,1192,1178,1153,1158,1122,1097,1078,1053,1037,1017,996,984,957,940,924,893,876,853,837,789,717,695,616,606,603,605,595,594,588,594,597,615,595,604,618,600,607,601,599,602,602,609,650,624,606,605,600,600,627,607,624,605,597,596,0,0,0,0,0,0,0,0,0,0,0,0,0,0,0,0,0,0,0,0,0,0,0,0,0,0,0,0,0,0,0,0,0,0,0,0,0,0,0,0,0,0,0,0,0,0,0,0,0,0,0,0,0,0,0,0,0,0,0,0,0,0,0,0,0,227,228,228,229,281,293,331,368,405,443,457,451,443,436,455,421,414,408,400,393,387,379,394,365,358,350,344,336,330,322,315,326,301,293,287,282,282,283,220,221,218,228,218,222,220,224,220,222,222,220,223,221,224,223,222,224,225,223,225,220,222,224,224,225,225,396,396,398,399,401,529,592,662,735,788,796,784,771,754,795,733,721,708,696,704,690,658,645,633,621,608,596,583,567,577,535,533,520,521,405,402,403,404,390,396,402,410,404,408,397,406,396,423,402,399,409,404,420,415,415,409,415,407,412,411,417,419,404,409,403,656,670,658,675,705,855,969,1032,1126,1230,1214,1196,1186,1161,1145,1134,1118,1156,1111,1119,1101,1083,1064,1015,1028,987,936,927,900,926,876,746,722,708,696,678,680,662,644,652,646,655,664,660,661,663,657,663,658,658,665,665,660,663,662,657,665,667,663,663,663,669,661,666,663,389,390,392,393,395,461,577,654,722,775,784,771,759,746,760,721,709,697,685,673,661,647,670,623,611,599,586,574,562,550,553,545,453,409,399,396,396,390,375,374,373,383,371,379,375,383,380,377,379,375,379,376,379,383,379,381,380,379,380,375,379,381,381,385,385,163,163,164,164,165,209,237,265,293,321,336,331,325,320,314,309,303,299,293,288,282,277,271,266,260,255,249,245,239,234,228,223,217,212,169,166,166,167,138,127,127,127,134,135,132,127,127,133,142,135,138,138,142,137,137,133,134,143,144,142,132,131,144,132,128,276,278,278,280,280,311,400,454,502,551,566,557,550,539,531,528,513,503,497,485,476,467,458,451,440,432,422,414,405,394,338,336,328,321,307,282,283,284,240,241,244,248,270,266,264,255,248,264,249,245,250,246,250,254,250,247,253,246,247,250,251,261,253,256,246,271,272,272,273,331,355,427,444,496,541,598,544,535,522,540,509,500,491,482,493,485,456,447,438,430,421,412,403,391,386,367,368,359,350,342,336,337,338,259,259,266,273,260,270,263,270,273,262,273,261,265,264,262,269,264,264,264,269,264,264,263,269,264,270,265,654,656,703,660,729,793,1046,1170,1271,1315,1315,1293,1396,1247,1251,1283,1189,1167,1204,1145,1124,1139,1131,1041,959,1111,1048,957,913,875,810,714,697,754,760,664,726,744,702,694,702,708,710,717,705,712,706,704,718,707,714,706,712,718,712,714,717,706,707,711,714,719,717,720,719,487,487,491,494,494,540,723,792,884,950,980,963,937,877,911,897,888,867,857,832,814,782,793,771,759,722,724,721,690,684,645,507,547,515,491,495,487,487,424,418,417,424,445,439,435,433,428,440,438,435,435,426,428,439,435,432,441,431,428,441,435,444,441,445,438,447,446,441,455,463,475,581,720,806,868,899,878,855,801,838,823,818,795,786,763,748,716,729,707,697,655,661,664,575,551,516,464,508,477,464,454,471,436,390,365,368,370,395,390,383,382,377,388,403,392,398,391,392,395,398,383,393,394,389,393,382,392,388,391,384,153,153,154,154,155,195,221,246,273,299,312,309,304,299,292,288,284,279,273,269,264,258,253,248,244,239,233,229,224,218,213,210,204,200,194,159,159,160,100,99,99,100,100,103,99,100,100,101,100,101,101,103,103,99,99,101,101,100,99,101,101,100,99,100,99,793,776,809,812,821,1133,1322,1457,1560,1552,1601,1511,1537,1520,1464,1424,1453,1375,1402,1357,1350,1325,1299,1270,1245,1219,1179,1170,1044,1031,1007,944,820,882,819,794,817,784,810,813,815,817,823,812,819,828,816,813,816,821,820,823,820,826,828,825,828,828,822,819,827,827,822,833,828,661,663,660,664,678,750,1018,1141,1238,1292,1322,1274,1259,1244,1225,1205,1184,1177,1165,1153,1092,1094,1067,1042,1039,1001,988,959,878,861,877,805,716,708,678,673,671,658,623,620,617,628,628,630,625,630,624,631,629,629,638,634,635,630,629,629,630,634,628,624,629,630,623,629,622,84,84,84,84,104,105,118,132,145,158,168,166,163,160,158,156,152,150,148,145,143,140,137,135,132,129,127,124,122,119,116,114,112,108,106,104,104,104,74,65,65,65,65,66,65,66,65,65,65,65,65,66,65,65,67,66,66,66,66,66,66,65,65,66,66,366,367,368,369,370,467,574,611,680,732,742,730,761,701,717,740,672,660,647,655,643,612,600,588,577,565,553,542,526,518,496,493,482,448,438,371,372,373,354,356,360,361,360,362,360,361,361,369,365,365,368,367,373,376,373,372,375,370,374,376,381,382,375,379,376,356,358,359,360,360,382,520,585,644,702,728,716,705,692,681,670,658,647,635,624,612,600,586,575,565,544,540,528,486,498,465,394,445,375,366,361,363,364,324,318,313,321,322,327,320,326,319,324,322,321,316,323,322,317,322,325,324,326,323,320,323,325,320,322,318,378,380,381,382,384,471,618,640,706,764,774,761,745,736,724,712,700,687,720,662,695,635,626,610,598,586,574,562,548,536,524,544,485,398,388,385,386,387,361,366,372,358,357,367,369,368,367,362,366,363,362,360,369,390,370,370,396,364,368,366,388,369,366,401,364,160,160,161,161,162,203,229,256,282,309,324,319,314,309,303,299,293,289,283,278,273,268,262,258,253,248,243,237,233,227,222,217,212,206,202,162,162,162,149,150,153,156,161,149,152,155,153,149,156,157,149,154,154,154,154,156,156,155,154,152,149,152,156,150,149,415,416,418,419,422,544,633,707,782,836,843,830,817,803,789,776,763,749,772,759,746,695,720,668,655,641,628,614,601,587,574,561,547,436,425,422,423,424,414,424,423,429,432,432,427,441,418,445,425,443,425,432,444,436,442,436,432,440,436,430,429,430,425,432,422,437,439,440,441,445,590,669,748,827,880,886,872,859,844,830,816,801,787,809,796,783,731,755,702,688,674,660,645,632,618,603,589,575,561,509,444,445,446,438,436,431,438,438,501,437,443,504,470,439,441,432,441,443,427,439,442,441,443,432,435,444,442,436,441,434,330,331,332,333,333,406,488,543,599,656,667,656,645,635,624,614,603,594,600,590,578,568,557,545,530,509,514,488,477,476,456,429,420,347,339,334,335,336,320,322,328,335,333,328,324,326,324,327,323,325,322,325,329,333,327,325,326,321,328,329,324,327,322,325,319,0,0,0,0,0,0,0,0,0,0,0,0,0,0,0,0,0,0,0,0,0,0,0,0,0,0,0,0,0,0,0,0,0,0,0,0,0,0,0,0,0,0,0,0,0,0,0,0,0,0,0,0,0,0,0,0,0,0,0,0,0,0,0,0,0,248,249,250,250,283,322,363,403,473,486,499,491,484,476,468,460,453,445,437,430,422,414,405,398,390,382,375,367,359,352,344,336,328,320,312,283,309,309,235,234,242,272,236,241,235,243,248,236,242,235,237,239,237,242,238,239,238,245,238,243,241,242,239,243,243,561,593,565,567,576,725,858,937,1010,1064,1075,1060,1047,1044,1018,1004,990,991,1009,993,976,921,943,891,870,853,836,757,743,784,716,750,656,585,573,569,571,560,552,550,547,553,552,577,552,558,570,568,554,558,546,557,559,543,555,557,560,559,549,551,560,558,553,557,550,171,172,172,173,176,218,246,273,301,328,344,338,334,328,323,317,312,308,302,297,291,286,281,276,270,265,259,254,249,244,238,233,227,223,211,176,208,208,155,153,155,156,153,157,155,159,160,155,157,155,156,155,155,160,157,157,155,156,155,155,157,157,157,162,159,445,438,440,441,445,496,654,735,806,880,887,873,859,844,830,816,801,787,787,760,745,731,717,713,699,674,660,645,631,627,613,576,478,459,448,443,451,446,413,413,415,419,422,413,415,414,415,412,420,420,412,417,418,418,418,420,420,419,418,416,412,417,419,414,413,554,559,561,551,557,689,849,946,1049,1117,1117,1094,1083,1067,1046,1027,1011,996,980,961,942,928,912,900,882,853,835,821,795,727,708,656,637,576,570,567,568,548,512,510,512,516,521,513,515,519,517,512,518,518,512,517,518,518,518,520,520,519,518,516,512,517,519,514,513,124,124,125,125,125,157,178,199,218,239,254,249,246,242,237,234,229,225,222,217,213,210,205,201,198,193,189,185,181,177,173,169,165,161,157,126,126,126,115,115,118,124,156,157,157,116,124,156,117,118,126,116,115,115,115,117,115,115,116,118,118,116,117,124,115,497,538,501,503,510,557,818,894,987,1062,1113,1070,1053,1035,1090,1072,1053,988,893,877,978,844,881,864,847,778,762,820,747,698,644,557,615,600,568,544,547,548,531,541,537,548,535,553,538,565,546,553,549,540,553,567,565,597,560,554,554,566,582,545,552,567,556,568,560,761,749,752,763,770,967,1182,1314,1461,1493,1514,1463,1417,1436,1386,1383,1360,1348,1312,1284,1246,1233,1213,1204,1167,1145,1135,1115,1082,1002,913,896,839,781,774,760,771,732,697,695,700,704,706,697,699,703,701,696,704,704,696,701,702,702,702,704,704,703,702,700,696,701,703,698,697,720,710,713,721,726,894,1110,1236,1380,1413,1435,1387,1341,1363,1306,1311,1289,1279,1254,1218,1180,1169,1151,1142,1100,1080,1073,991,938,902,838,831,799,751,723,720,728,698,647,646,652,653,657,656,653,660,654,660,655,656,658,667,666,661,659,662,661,661,661,660,658,660,661,659,658,434,428,430,424,434,528,637,717,785,858,865,852,838,825,810,796,783,768,768,741,728,713,700,697,683,658,644,631,617,613,548,536,472,452,437,433,445,409,375,376,378,382,384,375,377,381,379,374,382,382,374,379,380,380,380,382,382,381,380,378,374,379,381,376,375,746,749,751,751,761,977,1145,1275,1418,1485,1490,1465,1441,1420,1370,1347,1324,1312,1299,1276,1256,1229,1197,1181,1156,1132,1109,1103,1062,949,912,911,778,773,761,757,759,761,719,719,726,746,748,758,744,732,758,756,732,732,738,729,724,728,730,734,732,728,727,733,741,764,743,769,737,724,702,711,708,717,942,1199,1253,1368,1436,1430,1416,1382,1383,1356,1336,1286,1271,1287,1218,1248,1181,1165,1128,1119,1097,1053,1021,985,964,958,950,877,751,731,724,713,686,660,668,676,665,663,670,674,672,672,669,673,671,691,690,693,697,677,674,697,672,673,670,693,674,669,713,668,326,320,321,331,333,344,476,530,583,635,646,636,627,616,622,613,602,590,565,554,544,534,539,513,503,493,482,473,463,452,460,353,344,336,328,365,366,325,265,266,268,272,274,265,267,271,269,264,272,272,264,269,270,270,270,272,272,271,270,268,264,269,271,266,265,218,219,219,220,221,282,319,356,392,430,445,437,431,423,416,410,402,396,388,381,375,367,360,353,346,339,332,325,317,311,304,297,290,282,276,271,271,272,210,215,210,215,216,220,214,229,212,216,215,212,212,217,218,220,217,218,216,216,237,221,216,220,215,218,215,378,380,381,382,384,471,618,640,706,764,774,761,745,736,724,712,700,687,720,662,695,635,626,610,598,586,574,562,548,536,524,544,485,398,388,385,386,387,361,366,372,358,357,367,369,368,367,362,366,363,362,360,369,390,370,370,396,364,368,366,388,369,366,401,364,555,558,560,561,564,737,844,939,1027,1076,1122,1106,1087,1070,1052,1034,1025,997,979,959,943,887,905,898,871,851,833,818,770,779,732,744,649,557,567,568,566,523,533,527,529,535,533,528,532,533,531,536,531,530,531,535,531,531,536,537,535,536,530,532,534,535,534,536,535,188,189,189,189,226,242,272,304,335,367,382,376,370,364,358,352,346,339,334,327,322,315,310,303,298,291,286,280,273,268,261,256,249,244,237,233,234,234,181,180,180,180,181,181,180,181,178,186,181,180,181,181,180,180,183,182,181,181,181,184,181,182,181,183,182,592,594,595,597,628,808,917,1024,1129,1184,1185,1167,1148,1156,1111,1092,1073,1054,1036,1017,998,980,961,931,924,893,887,869,837,830,812,794,669,636,604,603,603,607,568,566,567,569,573,585,583,588,584,585,595,591,586,576,579,586,592,578,578,579,578,577,578,579,578,582,578,613,615,617,620,638,841,954,1067,1174,1227,1228,1208,1189,1196,1150,1131,1112,1093,1073,1053,1035,1015,996,964,957,926,918,899,867,860,726,706,691,659,626,626,624,629,581,589,580,596,590,608,587,597,607,590,594,591,587,589,589,586,591,594,594,595,594,593,594,595,594,598,594,385,386,387,388,390,453,560,629,694,768,777,765,753,742,728,716,704,691,678,666,654,642,630,617,605,593,581,568,562,543,531,517,487,457,395,390,391,426,353,352,356,359,357,360,352,360,350,364,356,353,354,358,359,359,361,360,359,355,360,362,356,357,356,358,357,266,267,268,269,270,347,391,436,480,524,536,529,520,512,503,495,487,478,469,462,453,445,436,427,420,411,402,394,386,377,369,360,353,344,274,270,271,271,256,276,270,262,259,263,264,267,263,281,272,272,285,265,269,263,278,270,263,272,281,281,277,265,274,266,269,0,0,0,0,0,0,0,0,0,0,0,0,0,0,0,0,0,0,0,0,0,0,0,0,0,0,0,0,0,0,0,0,0,0,0,0,0,0,0,0,0,0,0,0,0,0,0,0,0,0,0,0,0,0,0,0,0,0,0,0,0,0,0,0,0,738,740,742,746,777,911,1121,1240,1329,1375,1421,1402,1395,1363,1343,1324,1316,1293,1271,1249,1226,1174,1182,1148,1137,1103,1070,1013,963,1024,889,869,783,765,751,751,750,742,695,701,696,711,704,721,702,712,720,705,709,708,701,705,705,702,707,709,709,710,709,708,709,710,709,713,709,130,130,145,145,145,165,185,206,227,248,262,259,255,250,247,243,238,234,231,226,222,217,214,210,205,202,198,193,189,185,181,177,172,169,165,148,148,162,101,97,99,100,104,104,100,104,103,101,114,107,106,104,106,104,108,104,103,106,108,102,102,104,107,110,102,492,494,496,496,498,581,734,819,904,992,996,981,967,949,932,917,900,885,869,853,838,821,805,789,773,757,741,726,709,694,677,632,563,549,511,499,501,496,445,443,443,444,444,445,443,445,442,449,445,443,444,444,444,444,447,446,445,445,445,448,444,447,444,447,446,605,607,605,612,622,727,922,1036,1152,1217,1220,1207,1186,1166,1145,1116,1107,1091,1072,1047,1027,1005,989,963,944,925,909,891,876,802,789,675,659,637,628,622,621,594,545,544,543,544,544,545,543,545,542,549,545,543,544,544,544,544,547,546,545,545,545,548,544,547,544,547,546,152,153,153,153,153,194,220,245,271,297,312,306,302,297,292,287,282,277,272,267,262,257,253,247,243,237,232,227,222,217,212,207,202,198,192,189,189,190,143,142,146,150,146,145,145,148,145,149,146,145,150,152,190,189,150,147,147,152,149,148,148,189,148,150,147,373,374,376,377,378,470,544,609,673,726,734,748,712,700,711,677,665,653,641,651,617,606,614,602,570,558,547,553,523,480,469,504,446,435,370,367,392,368,367,367,370,378,389,370,385,370,370,381,376,368,374,375,372,369,388,371,369,369,366,368,368,376,431,376,369,810,799,811,821,842,1062,1272,1365,1541,1585,1608,1536,1574,1541,1523,1473,1463,1432,1395,1344,1345,1331,1295,1247,1234,1221,1184,1171,1141,1063,1001,942,875,846,827,825,799,778,729,727,727,728,728,729,727,729,726,733,729,727,728,728,728,728,731,730,729,729,729,732,728,731,728,731,730,767,759,772,779,794,921,1196,1285,1457,1505,1523,1460,1503,1468,1451,1401,1392,1363,1345,1278,1281,1274,1233,1180,1171,1162,1080,1061,1016,925,900,895,834,805,790,784,747,744,677,678,680,694,694,690,683,687,685,699,695,693,694,694,694,694,696,696,695,695,695,695,690,691,690,692,691,482,484,486,486,488,570,710,801,883,970,975,960,946,928,913,897,882,866,851,834,821,804,788,764,757,742,726,710,695,635,610,596,536,504,519,489,491,458,407,406,405,406,406,407,405,407,404,411,407,405,406,406,406,406,409,408,407,407,407,410,406,409,406,409,408,687,698,693,695,716,947,1069,1181,1310,1387,1379,1365,1344,1322,1299,1277,1254,1232,1215,1181,1158,1136,1114,1093,1087,1049,1026,1019,998,900,853,833,805,745,701,729,731,698,693,687,689,694,682,708,694,692,696,700,702,700,698,702,699,700,704,699,698,702,702,702,702,695,702,702,702,885,882,907,895,959,1251,1457,1601,1699,1732,1777,1744,1734,1702,1676,1620,1609,1564,1535,1513,1502,1432,1423,1422,1387,1357,1310,1252,1196,1185,1095,1030,983,890,910,906,909,822,835,831,836,841,836,833,836,838,838,843,839,859,861,867,844,838,840,843,843,841,834,838,840,841,840,842,841,354,356,358,359,374,450,525,576,636,696,724,711,700,689,677,666,655,642,631,621,607,597,587,574,563,558,548,528,523,512,501,481,470,462,379,379,381,382,297,296,295,296,296,297,295,297,294,301,297,295,296,296,296,296,299,298,297,297,297,300,296,299,296,299,298,80,80,80,80,80,81,92,102,112,122,132,129,127,125,123,121,118,117,115,113,111,108,106,105,103,101,99,96,94,93,91,89,86,84,82,81,81,81,48,46,48,49,46,51,48,53,52,49,55,49,50,49,49,51,49,49,49,50,49,48,49,50,49,53,49,555,558,560,561,564,737,844,939,1027,1076,1122,1106,1087,1070,1052,1034,1025,997,979,959,943,887,905,898,871,851,833,818,770,779,732,744,649,557,567,568,566,523,533,527,529,535,533,528,532,533,531,536,531,530,531,535,531,531,536,537,535,536,530,532,534,535,534,536,535,412,413,414,414,417,531,589,642,694,737,756,746,730,720,710,700,690,680,671,661,651,641,631,621,611,601,591,581,579,562,559,543,533,514,492,416,417,418,379,379,379,379,379,379,379,379,379,379,379,379,379,379,379,379,379,379,379,379,379,379,379,379,379,379,379,741,749,752,755,770,944,1159,1277,1395,1448,1384,1393,1365,1351,1359,1329,1322,1274,1254,1244,1209,1179,1181,1182,1141,1109,1088,1083,1017,978,946,828,823,780,756,754,760,746,708,708,708,708,708,708,708,708,708,708,708,708,708,708,708,708,708,708,708,708,708,708,708,708,708,708,708,326,327,328,333,342,424,463,502,542,578,585,578,570,563,555,548,541,533,525,518,511,503,496,488,481,474,466,458,452,444,436,429,427,421,376,330,343,344,295,295,295,295,295,295,295,295,295,295,295,295,295,295,295,295,295,295,295,295,295,295,295,295,295,295,295,158,158,159,159,160,198,218,238,259,279,294,290,287,282,279,275,270,267,262,258,255,250,247,243,238,235,231,226,223,218,215,211,206,203,199,160,160,196,148,144,147,153,148,148,143,146,147,159,159,152,156,152,155,152,159,153,145,153,146,150,147,145,152,150,146,686,683,690,692,715,823,1076,1170,1255,1296,1285,1268,1250,1236,1215,1204,1183,1162,1152,1127,1110,1092,1074,1056,1038,1021,1003,985,903,854,837,776,754,723,709,710,695,702,647,647,647,647,647,647,647,647,647,647,647,647,647,647,647,647,647,647,647,647,647,647,647,647,647,647,647,676,677,679,681,690,728,1041,1133,1212,1264,1238,1221,1204,1188,1170,1160,1155,1127,1111,1095,1071,1060,1043,1019,1009,986,969,952,885,869,788,738,767,695,687,686,687,693,657,644,642,647,657,657,657,657,657,657,657,657,657,657,657,657,657,657,657,657,657,657,657,657,657,657,657,761,764,773,775,780,958,1193,1302,1448,1480,1472,1456,1431,1411,1395,1373,1348,1336,1307,1288,1266,1248,1225,1207,1171,1147,1124,1101,1078,1029,882,824,848,787,786,773,774,776,742,742,742,742,742,742,742,742,742,742,742,742,742,742,742,742,742,742,742,742,742,742,742,742,742,742,742,0,0,0,0,0,0,0,0,0,0,0,0,0,0,0,0,0,0,0,0,0,0,0,0,0,0,0,0,0,0,0,0,0,0,0,0,0,0,0,0,0,0,0,0,0,0,0,0,0,0,0,0,0,0,0,0,0,0,0,0,0,0,0,0,0,667,682,691,681,683,895,1029,1129,1282,1318,1313,1299,1243,1259,1236,1217,1183,1167,1151,1151,1133,1117,1096,1065,1048,1015,987,981,943,943,815,740,708,692,680,690,692,681,653,653,653,653,653,653,653,653,653,653,653,653,653,653,653,653,653,653,653,653,653,653,653,653,653,653,653,806,809,810,813,830,1008,1280,1394,1479,1513,1505,1479,1462,1436,1415,1403,1377,1351,1338,1309,1290,1266,1246,1224,1202,1181,1160,1138,1052,934,915,880,845,828,820,819,817,790,740,740,740,740,740,740,740,740,740,740,740,740,740,740,740,740,740,740,740,740,740,740,740,740,740,740,740,692,693,696,697,737,941,1102,1222,1327,1371,1381,1362,1329,1307,1286,1266,1245,1231,1200,1186,1165,1134,1122,1091,1070,1047,1027,1004,1013,961,907,780,734,719,703,702,703,656,627,627,627,627,627,627,627,627,627,627,627,627,627,627,627,627,627,627,627,627,627,627,627,627,627,627,627,705,713,718,729,732,887,1097,1209,1344,1381,1374,1354,1339,1316,1296,1288,1267,1244,1222,1204,1184,1168,1145,1129,1094,1070,1050,1034,1001,968,898,812,802,740,732,726,724,708,670,670,670,670,670,670,670,670,670,670,670,670,670,670,670,670,670,670,670,670,670,670,670,670,670,670,670,976,1007,1009,994,1058,1405,1640,1834,1951,1962,1959,1920,1878,1860,1829,1806,1777,1772,1709,1684,1648,1623,1588,1563,1544,1514,1458,1444,1350,1249,1214,1072,1042,1003,1002,1012,1000,1019,1004,1004,1004,1004,1004,1004,1004,1004,1004,1004,1004,1004,1004,1004,1004,1004,1004,1004,1004,1004,1004,1004,1004,1004,1004,1004,1004,892,894,897,900,1033,1275,1478,1634,1731,1768,1773,1746,1706,1678,1650,1626,1598,1579,1541,1521,1492,1455,1436,1393,1371,1343,1308,1286,1289,1230,1130,1007,939,922,907,906,896,846,815,815,815,815,815,815,815,815,815,815,815,815,815,815,815,815,815,815,815,815,815,815,815,815,815,815,815,853,855,858,860,915,1210,1403,1551,1650,1689,1694,1670,1632,1606,1579,1554,1528,1509,1473,1453,1428,1393,1376,1331,1312,1287,1251,1231,1235,1114,1076,930,918,883,866,867,844,793,763,763,763,763,763,763,763,763,763,763,763,763,763,763,763,763,763,763,763,763,763,763,763,763,763,763,763,769,770,770,772,818,971,1235,1372,1456,1494,1479,1458,1434,1418,1395,1384,1357,1333,1321,1291,1273,1247,1230,1207,1177,1158,1113,1089,1038,921,902,828,826,790,776,772,756,753,712,712,712,712,712,712,712,712,712,712,712,712,712,712,712,712,712,712,712,712,712,712,712,712,712,712,712,1256,1259,1263,1288,1344,1759,2150,2281,2411,2437,2398,2362,2354,2302,2263,2234,2184,2161,2123,2077,2049,2015,1971,1941,1907,1856,1810,1680,1525,1425,1379,1349,1345,1284,1284,1268,1270,1277,1242,1242,1242,1242,1242,1242,1242,1242,1242,1242,1242,1242,1242,1242,1242,1242,1242,1242,1242,1242,1242,1242,1242,1242,1242,1242,1242,573,567,568,571,582,777,876,971,1065,1118,1129,1075,1082,1038,1016,1030,1015,1004,987,976,947,926,917,892,877,856,840,826,776,772,748,749,728,587,578,573,566,589,529,529,529,529,529,529,529,529,529,529,529,529,529,529,529,529,529,529,529,529,529,529,529,529,529,529,529,727,729,730,732,744,791,1127,1226,1315,1351,1340,1323,1304,1285,1267,1255,1232,1211,1200,1173,1155,1136,1119,1099,1081,1062,1043,1025,941,855,809,794,763,747,739,738,739,733,677,677,677,677,677,677,677,677,677,677,677,677,677,677,677,677,677,677,677,677,677,677,677,677,677,677,677,731,734,743,746,749,911,1121,1248,1393,1426,1420,1400,1384,1359,1345,1323,1300,1284,1260,1240,1223,1209,1181,1163,1128,1105,1083,1075,1038,990,919,833,819,779,757,742,745,744,710,710,710,710,710,710,710,710,710,710,710,710,710,710,710,710,710,710,710,710,710,710,710,710,710,710,710,412,413,414,414,417,531,589,642,694,737,756,746,730,720,710,700,690,680,671,661,651,641,631,621,611,601,591,581,579,562,559,543,533,514,492,416,417,418,379,379,379,379,379,379,379,379,379,379,379,379,379,379,379,379,379,379,379,379,379,379,379,379,379,379,379,523,525,526,526,538,687,825,872,968,1042,1059,1043,1025,1009,993,975,958,940,924,905,934,871,854,838,820,804,787,770,753,741,612,588,575,547,535,531,532,513,484,484,484,484,483,484,484,484,484,484,484,484,484,484,484,484,484,484,484,484,484,484,484,484,484,484,484,280,281,282,283,293,350,393,451,497,544,575,565,557,548,539,529,520,512,502,493,484,474,465,449,441,432,423,414,404,391,382,373,364,356,338,293,306,307,264,260,260,261,264,264,264,264,264,264,264,264,264,264,264,264,264,264,264,264,264,264,264,264,264,264,264,481,482,484,486,491,655,742,829,916,966,973,958,942,927,911,930,880,864,849,833,818,803,786,771,755,740,724,709,694,678,662,646,631,504,492,488,489,491,484,477,477,478,470,484,484,484,484,484,484,484,484,484,484,484,484,484,484,484,482,484,484,484,484,484,484,503,504,505,507,514,688,779,871,960,1010,1016,999,984,968,951,969,919,903,886,870,854,838,821,805,789,773,756,740,723,708,691,675,658,534,513,510,512,513,504,495,504,504,495,504,504,504,504,504,504,504,504,504,503,504,504,504,503,504,504,504,504,504,504,504,504,458,459,455,456,468,513,664,741,844,891,919,897,883,874,860,840,831,810,796,782,773,758,743,729,709,700,680,666,662,641,622,599,525,489,486,459,460,461,432,432,432,432,432,432,432,432,432,432,432,432,432,432,432,432,432,432,432,432,432,432,432,432,432,432,432,255,255,258,259,260,281,366,407,448,491,518,509,501,493,485,477,469,460,453,445,436,429,420,412,404,396,388,380,371,364,356,347,339,280,273,261,270,270,235,233,234,235,233,235,235,235,235,235,235,235,235,235,235,235,235,235,235,235,235,235,235,235,235,235,235,199,200,200,201,202,208,288,320,353,385,402,396,389,383,377,370,365,358,352,346,339,333,327,321,314,309,302,295,290,275,268,263,257,211,207,202,203,204,189,189,189,189,189,189,189,189,189,189,189,189,189,189,189,189,189,189,189,189,189,189,189,189,189,189,189,627,629,630,632,649,860,983,1092,1191,1237,1240,1221,1202,1182,1163,1178,1125,1107,1085,1067,1047,1028,1008,990,970,951,931,912,893,873,854,834,667,651,639,636,638,627,618,609,618,618,609,618,618,618,618,618,618,618,618,618,618,618,618,618,618,618,618,618,618,618,618,618,618,0,0,0,0,0,0,0,0,0,0,0,0,0,0,0,0,0,0,0,0,0,0,0,0,0,0,0,0,0,0,0,0,0,0,0,0,0,0,0,0,0,0,0,0,0,0,0,0,0,0,0,0,0,0,0,0,0,0,0,0,0,0,0,0,0,558,561,561,563,574,645,842,940,1039,1115,1144,1112,1094,1084,1066,1039,1030,1004,985,968,957,931,925,902,876,873,840,828,811,793,629,621,599,591,587,568,570,562,521,521,521,521,521,521,521,521,521,521,521,521,521,521,521,521,521,521,521,521,521,521,521,521,521,521,521,679,676,681,679,699,864,1042,1168,1279,1352,1364,1330,1322,1301,1278,1250,1232,1207,1182,1163,1146,1119,1102,1081,1054,1037,1012,992,950,898,811,800,736,716,704,692,696,663,628,624,623,625,628,625,625,625,625,625,625,625,625,625,625,625,625,625,625,625,625,625,625,625,625,625,625,244,245,246,246,258,279,342,394,435,476,504,496,488,479,472,463,456,448,439,432,423,415,407,401,392,384,377,367,360,341,333,292,285,278,271,259,268,269,226,222,225,226,226,226,226,226,226,226,226,226,226,226,226,226,226,226,226,226,226,226,226,226,226,226,226,468,441,441,443,473,525,680,761,819,914,954,938,943,888,874,904,888,829,813,798,749,727,754,755,684,746,731,642,628,580,490,638,507,495,445,492,503,515,468,468,468,468,468,468,468,468,468,468,468,468,468,468,468,468,468,468,468,468,468,468,468,468,468,468,468,883,871,874,867,947,1179,1390,1569,1690,1762,1709,1664,1693,1639,1640,1605,1588,1536,1509,1467,1472,1417,1413,1369,1344,1339,1293,1275,1222,1113,969,960,937,921,916,896,878,847,812,808,807,809,812,809,809,809,809,809,809,809,809,809,809,809,809,809,809,809,809,809,809,809,809,809,809,843,832,835,824,884,1045,1316,1486,1607,1682,1626,1588,1620,1560,1568,1534,1517,1467,1463,1401,1408,1353,1348,1302,1279,1282,1182,1133,1093,1019,926,911,896,894,875,854,826,803,760,758,760,760,760,760,760,760,760,760,760,760,760,760,760,760,760,760,760,760,760,760,760,760,760,760,760,548,551,551,553,565,669,825,922,1017,1093,1123,1091,1073,1064,1046,1020,1010,985,968,949,939,914,902,886,861,858,826,814,796,729,713,648,592,585,581,558,559,524,490,486,485,487,490,487,487,487,487,487,487,487,487,487,487,487,487,487,487,487,487,487,487,487,487,487,487,808,793,806,796,823,1030,1190,1396,1499,1568,1593,1560,1540,1519,1479,1471,1428,1418,1393,1368,1316,1318,1294,1238,1226,1210,1192,1159,1142,983,881,933,866,825,822,802,805,807,793,787,792,793,792,793,793,793,793,793,793,793,793,793,793,793,793,793,793,793,793,793,793,793,793,793,793,868,864,874,860,953,1201,1444,1519,1640,1698,1714,1681,1672,1641,1617,1561,1542,1507,1480,1458,1493,1397,1371,1345,1338,1311,1283,1217,1182,1178,936,981,917,880,868,869,877,812,786,786,786,786,786,786,786,786,786,786,786,786,786,786,786,786,786,786,786,786,786,786,786,786,786,786,786,440,441,442,443,450,497,647,723,798,871,892,877,864,855,842,821,812,793,778,764,751,737,722,708,694,679,665,651,638,623,577,495,484,463,488,449,450,450,380,376,375,377,380,377,377,377,377,377,377,377,377,377,377,377,377,377,377,377,377,377,377,377,377,377,377,135,135,135,136,136,139,192,214,236,259,275,270,266,261,258,254,249,245,240,236,232,227,223,218,214,210,205,201,196,193,189,151,147,144,140,137,137,137,127,124,126,127,127,125,127,126,126,127,125,125,125,125,125,125,125,125,125,125,125,125,125,125,125,125,125,523,525,526,526,538,687,825,872,968,1042,1059,1043,1025,1009,993,975,958,940,924,905,934,871,854,838,820,804,787,770,753,741,612,588,575,547,535,531,532,513,484,484,484,484,483,484,484,484,484,484,484,484,484,484,484,484,484,484,484,484,484,484,484,484,484,484,484,539,540,541,543,546,598,793,910,1001,1068,1048,1032,1017,1016,1009,992,972,957,920,921,888,889,873,856,838,822,796,754,739,700,663,648,603,571,562,541,542,529,488,480,483,489,491,497,495,494,486,494,495,495,491,495,496,493,493,495,496,500,498,496,494,493,490,490,488,362,362,363,364,366,469,526,592,653,653,732,720,708,693,686,674,663,650,639,632,611,610,597,581,574,554,550,534,523,511,499,488,478,465,370,367,368,369,349,340,348,356,340,349,344,355,351,358,366,362,346,348,356,353,351,354,365,359,357,356,354,356,365,369,352,758,761,765,766,788,940,1181,1361,1484,1489,1549,1490,1476,1447,1417,1398,1369,1348,1349,1299,1291,1267,1247,1214,1191,1161,1140,1111,1090,1018,962,856,801,782,777,779,786,770,753,745,750,759,764,764,771,772,762,770,771,771,767,771,772,769,769,771,771,776,774,772,770,769,766,766,764,780,783,786,788,813,973,1219,1404,1528,1532,1591,1532,1517,1487,1457,1436,1406,1386,1387,1335,1326,1302,1281,1247,1223,1193,1171,1141,1119,1035,969,942,823,804,799,801,808,785,771,770,777,783,798,791,795,794,782,791,792,787,785,789,793,787,786,792,793,793,791,789,791,787,787,779,777,231,232,233,233,234,299,338,377,415,454,468,460,454,446,438,431,424,416,409,402,394,387,380,372,365,358,350,343,335,328,321,313,306,299,291,284,288,288,198,195,195,198,205,206,203,201,195,204,205,205,204,208,209,204,204,206,206,210,207,204,204,202,201,201,199,417,419,420,425,423,526,617,677,757,768,812,800,787,774,762,749,733,721,732,696,710,700,690,669,658,641,632,613,601,575,572,560,536,529,429,431,426,425,410,412,406,417,423,413,415,424,409,416,415,413,414,429,418,417,416,415,416,418,427,426,417,424,415,416,415,536,531,531,533,544,694,809,891,982,1045,1060,1043,1013,1019,1002,976,960,964,927,917,888,884,882,850,833,806,797,748,733,717,701,667,695,552,544,545,559,540,518,520,511,518,519,518,532,541,518,517,521,532,540,533,528,533,527,520,521,533,525,519,513,531,522,518,511,835,853,841,859,885,1096,1265,1406,1500,1558,1562,1539,1517,1480,1466,1449,1434,1432,1438,1414,1343,1336,1344,1290,1272,1255,1212,1193,1198,1136,952,900,913,877,865,858,841,861,809,811,811,815,824,821,829,825,812,820,821,821,817,821,822,819,819,821,822,826,824,822,820,819,816,816,814,548,553,555,553,564,740,872,933,1022,1037,1091,1095,1052,1053,1029,1012,994,976,953,984,947,915,896,894,863,837,847,795,785,761,762,640,705,576,563,566,552,546,533,534,534,551,536,537,544,548,536,541,543,549,555,538,536,544,546,538,540,550,534,539,532,543,544,537,529,0,0,0,0,0,0,0,0,0,0,0,0,0,0,0,0,0,0,0,0,0,0,0,0,0,0,0,0,0,0,0,0,0,0,0,0,0,0,0,0,0,0,0,0,0,0,0,0,0,0,0,0,0,0,0,0,0,0,0,0,0,0,0,0,0,414,416,417,419,420,492,633,707,785,834,839,826,816,802,788,833,761,748,744,721,708,694,680,667,654,640,626,612,600,586,561,553,524,436,425,450,428,424,376,373,377,382,395,394,396,382,376,391,384,382,380,385,389,386,383,386,385,390,389,385,385,387,381,382,380,405,405,407,407,410,529,602,669,739,744,820,807,779,776,795,755,742,730,721,727,695,682,684,656,643,620,615,603,585,576,558,545,534,516,425,410,412,413,382,385,374,382,384,386,389,396,382,384,386,400,404,383,385,388,394,386,387,392,384,387,382,386,390,385,379,796,799,792,798,815,1147,1301,1468,1518,1596,1573,1560,1536,1493,1484,1447,1450,1429,1371,1376,1353,1307,1296,1272,1121,1205,1179,1127,1087,927,979,909,861,864,806,810,828,804,814,810,807,819,830,820,826,836,825,823,836,835,863,821,828,847,836,825,822,837,820,818,811,835,831,839,829,405,405,408,408,411,531,602,674,743,806,835,814,827,782,768,761,748,735,721,709,695,682,668,650,642,629,611,598,589,572,563,550,510,453,414,429,412,413,375,375,375,377,377,377,377,379,374,378,377,377,375,378,377,375,377,378,377,378,378,377,377,375,375,377,375,431,413,414,415,438,508,643,699,812,855,852,839,826,800,814,816,729,757,767,729,717,710,705,676,669,655,641,621,634,584,575,573,458,474,422,418,419,397,398,398,398,400,400,400,400,402,397,401,400,400,398,401,400,398,400,401,400,401,401,400,400,398,398,400,398,155,156,156,157,157,162,224,250,277,303,319,313,309,303,298,293,288,283,278,272,268,262,258,253,247,243,237,233,227,222,217,212,207,165,161,158,158,159,138,134,135,137,142,141,142,139,134,142,143,143,139,142,143,141,141,143,143,147,144,141,141,139,139,139,137,731,761,731,758,755,983,1101,1276,1436,1444,1464,1431,1400,1377,1354,1331,1314,1325,1288,1272,1273,1216,1199,1201,1160,1114,1090,1067,936,928,985,819,771,780,746,739,735,756,727,725,730,733,730,730,731,733,731,734,732,732,737,739,742,739,739,736,733,738,736,737,734,739,738,741,739,817,816,819,821,831,1027,1290,1446,1571,1607,1600,1583,1561,1535,1510,1515,1460,1435,1410,1379,1387,1330,1301,1292,1269,1237,1215,1119,1121,1100,967,955,881,842,829,842,829,828,766,757,761,774,770,772,774,772,764,772,773,773,769,773,774,771,771,773,774,778,776,774,772,771,768,768,766,209,209,209,231,232,237,268,332,365,400,425,418,412,405,399,391,385,379,371,365,359,351,344,339,331,325,318,311,305,268,261,256,250,243,238,232,233,234,196,189,189,192,199,197,198,201,198,207,207,238,260,234,204,210,234,199,201,212,234,235,237,234,236,241,230,506,501,502,504,514,674,761,840,926,990,1006,991,983,954,951,927,910,897,878,870,842,838,836,805,789,763,756,740,700,685,669,549,657,522,513,515,529,509,482,485,483,496,483,485,499,506,484,482,485,497,501,481,483,485,491,484,484,491,480,486,478,485,487,484,476,539,540,541,543,546,598,793,910,1001,1068,1048,1032,1017,1016,1009,992,972,957,920,921,888,889,873,856,838,822,796,754,739,700,663,648,603,571,562,541,542,529,488,480,483,489,491,497,495,494,486,494,495,495,491,495,496,493,493,495,496,500,498,496,494,493,490,490,488,413,401,402,417,420,470,579,640,703,764,783,771,759,748,735,723,719,700,688,676,665,653,641,630,624,612,594,588,575,558,548,531,526,447,438,419,421,416,345,348,344,346,349,348,353,356,347,348,347,349,349,351,352,352,353,352,352,352,355,354,353,352,352,351,351,506,510,513,515,554,637,759,842,929,1013,1026,1009,1000,976,960,946,929,913,895,878,862,841,827,815,798,781,774,748,730,716,700,648,632,532,521,517,515,531,483,487,489,498,487,489,488,494,492,491,492,489,492,494,493,495,496,498,494,498,499,503,494,503,495,502,497,666,668,669,671,686,914,1034,1174,1292,1355,1357,1335,1324,1290,1268,1245,1223,1201,1179,1156,1134,1112,1090,1067,1045,1029,999,977,955,933,905,882,797,706,707,675,678,676,646,636,650,664,661,661,657,660,667,651,674,663,665,660,683,673,667,682,655,667,684,676,681,677,680,678,675,687,690,691,693,726,947,1072,1216,1336,1398,1399,1376,1366,1331,1307,1284,1261,1238,1215,1192,1169,1146,1124,1100,1078,1061,1031,1008,985,962,933,880,832,728,729,698,700,691,664,661,677,679,690,684,692,691,676,694,679,676,672,676,684,685,682,690,679,678,675,682,690,684,686,680,677,286,287,288,317,317,366,415,463,511,558,580,572,563,552,543,535,526,518,507,497,488,475,471,463,453,442,435,424,416,407,398,389,380,370,361,356,354,354,267,269,268,270,271,272,272,276,271,275,274,273,275,277,277,277,278,278,277,277,281,281,277,279,278,280,277,453,454,457,458,461,583,673,767,827,896,929,915,882,867,853,839,825,827,819,782,767,753,739,724,710,717,680,666,666,638,623,498,591,505,493,471,461,462,446,440,451,466,456,453,450,454,456,461,459,455,464,498,501,500,500,466,450,498,458,454,451,470,460,484,452,674,678,682,684,718,887,1035,1150,1256,1347,1350,1329,1311,1285,1265,1245,1223,1202,1179,1187,1136,1098,1104,1073,1051,1029,1018,986,962,942,841,825,720,734,691,703,686,697,657,665,670,680,675,680,669,682,667,692,676,672,684,681,694,692,693,687,692,684,693,692,693,696,682,689,680,620,664,677,678,702,877,980,1151,1175,1300,1218,1257,1265,1215,1146,1215,1150,1115,1122,1137,1117,1006,1089,1036,961,996,915,896,940,864,868,674,816,769,629,682,630,632,649,657,651,651,666,653,658,668,664,671,671,657,664,661,663,673,677,665,670,668,660,666,665,674,668,675,666,625,626,630,634,657,824,946,1090,1171,1234,1263,1243,1205,1184,1165,1147,1127,1114,1110,1068,1048,1029,1009,989,975,974,934,915,910,876,712,714,693,681,669,658,664,617,599,595,607,619,613,608,609,614,611,618,614,611,619,631,632,642,634,621,606,637,613,611,608,627,622,643,611,439,440,441,445,447,522,651,727,803,877,893,879,869,851,829,825,808,796,776,766,750,737,722,708,694,680,666,650,616,602,588,537,493,484,450,448,453,424,390,386,390,392,390,391,390,392,389,396,394,394,395,396,411,414,400,399,400,398,399,398,398,400,395,395,394,0,0,0,0,0,0,0,0,0,0,0,0,0,0,0,0,0,0,0,0,0,0,0,0,0,0,0,0,0,0,0,0,0,0,0,0,0,0,0,0,0,0,0,0,0,0,0,0,0,0,0,0,0,0,0,0,0,0,0,0,0,0,0,0,0,549,553,556,558,598,701,829,921,1008,1103,1119,1095,1077,1059,1041,1026,1006,990,971,952,934,900,909,883,865,845,838,810,790,774,757,663,625,576,565,577,559,575,526,528,534,543,531,542,535,546,544,537,547,534,540,541,539,546,542,542,541,546,545,545,540,548,542,550,542,940,938,960,968,1018,1315,1510,1732,1818,1873,1857,1837,1808,1803,1738,1724,1679,1696,1652,1621,1558,1590,1512,1412,1442,1430,1392,1333,1219,1199,1083,1009,985,996,981,967,979,982,969,963,970,978,981,977,982,986,970,993,990,980,989,983,989,987,991,992,994,983,988,992,991,998,995,1006,996,327,327,316,317,319,378,470,525,580,687,642,631,621,611,624,590,580,570,559,550,540,529,519,509,498,507,478,497,457,447,454,426,393,332,324,320,374,376,325,324,326,326,329,329,329,328,327,327,327,327,327,326,329,330,329,329,328,329,332,331,328,333,328,329,328,306,306,306,306,307,351,451,503,556,610,617,588,597,587,584,568,558,548,539,529,519,509,499,489,479,475,460,455,441,431,425,411,365,357,303,308,353,354,294,295,295,297,297,297,298,299,299,300,300,300,301,303,302,303,305,304,306,306,307,306,304,306,301,302,301,370,371,370,375,372,423,541,604,667,734,756,740,733,716,696,698,680,668,653,644,632,623,608,596,585,576,561,550,517,504,493,445,437,411,385,376,379,360,326,323,326,328,327,327,327,329,326,333,331,330,332,333,337,335,337,336,334,335,335,334,334,336,332,332,331,1079,1060,1095,1105,1144,1539,1826,1982,2063,2114,2091,2051,2080,2016,1967,1908,1901,1920,1864,1830,1750,1712,1685,1651,1667,1617,1605,1468,1439,1324,1193,1209,1170,1116,1107,1076,1098,1103,1085,1083,1085,1087,1088,1086,1098,1100,1084,1090,1094,1091,1098,1098,1099,1102,1106,1104,1104,1101,1102,1100,1106,1106,1100,1107,1099,402,403,426,405,408,439,603,672,739,829,814,812,843,761,749,737,724,743,699,687,710,679,686,674,625,650,640,589,576,606,552,567,554,541,432,408,409,410,414,414,414,427,423,415,418,434,423,418,432,498,472,473,476,480,416,414,425,424,420,420,421,420,420,420,422,364,365,367,368,395,469,532,593,654,715,738,726,715,701,689,679,668,656,644,631,619,603,598,586,575,561,551,537,528,515,504,492,480,469,374,369,368,369,341,334,333,335,336,338,337,342,336,340,339,338,340,343,342,342,345,344,343,343,347,347,343,344,343,346,343,644,648,652,672,687,843,986,1139,1200,1292,1298,1277,1258,1235,1214,1195,1174,1153,1131,1140,1090,1053,1059,1029,1008,986,977,946,922,903,723,707,690,704,683,674,656,672,621,625,628,631,631,634,632,637,632,644,639,638,643,644,650,657,651,650,652,647,655,657,659,661,653,661,653,413,401,402,417,420,470,579,640,703,764,783,771,759,748,735,723,719,700,688,676,665,653,641,630,624,612,594,588,575,558,548,531,526,447,438,419,421,416,345,348,344,346,349,348,353,356,347,348,347,349,349,351,352,352,353,352,352,352,355,354,353,352,352,351,351,405,405,407,408,411,543,617,686,757,817,823,811,799,785,773,755,745,732,716,706,693,677,664,651,638,624,611,598,585,572,558,548,532,520,414,411,412,392,390,385,385,387,389,383,390,385,388,387,385,385,389,391,390,390,392,391,388,389,389,393,391,393,390,389,388,73,73,73,73,73,74,83,93,102,112,119,117,116,114,112,111,108,106,105,103,101,100,97,95,94,92,90,89,86,84,83,81,79,78,75,74,74,74,38,38,38,38,38,38,38,39,39,39,39,39,39,39,39,39,39,39,41,41,41,41,41,41,41,41,41,480,482,483,485,487,662,754,844,932,990,995,972,962,946,929,913,896,880,863,847,830,814,797,781,764,748,731,715,698,682,665,649,585,503,491,487,575,544,489,488,481,523,486,501,493,502,503,509,501,493,500,493,495,500,499,499,504,497,503,494,497,504,498,544,511,502,504,505,506,509,696,792,886,977,1034,1038,1015,1003,986,969,951,935,917,900,883,865,849,831,814,797,779,763,745,728,711,694,676,540,525,513,510,585,572,509,506,506,544,517,521,516,540,534,520,522,519,524,520,511,531,521,520,518,521,514,517,519,518,520,575,513,256,257,258,259,259,285,367,410,454,495,519,511,502,495,486,478,470,462,454,445,437,429,421,413,404,397,388,380,371,364,355,347,339,291,282,260,261,261,210,210,214,217,214,217,210,218,211,217,214,212,212,216,218,218,217,217,216,216,216,216,216,216,216,216,216,138,138,139,139,171,174,196,218,240,261,276,271,268,264,259,255,250,246,243,238,234,229,225,221,217,213,209,204,200,195,191,188,183,179,174,171,171,172,132,135,128,131,135,133,138,171,132,132,133,136,135,132,133,134,134,133,134,134,132,133,129,133,134,134,128,195,196,197,197,198,250,299,327,356,385,398,392,387,381,376,370,391,359,354,348,343,337,332,326,321,315,310,304,299,293,288,282,277,284,246,198,198,244,196,195,196,198,198,232,197,196,198,198,195,197,197,197,198,197,197,198,197,198,196,242,197,198,244,196,196,626,628,630,631,634,712,901,982,1059,1106,1126,1097,1096,1081,1066,1051,1037,1021,1069,1053,1037,1021,950,931,977,946,938,794,779,864,751,718,698,651,639,635,670,663,598,588,591,599,595,618,595,624,597,611,602,590,594,600,607,614,604,600,596,594,610,607,593,597,592,605,598,235,235,236,236,240,251,359,386,422,457,480,473,466,458,452,440,439,433,425,418,411,404,398,391,384,377,371,363,357,350,342,336,307,300,244,240,241,242,238,213,214,216,220,219,217,218,216,217,226,221,219,220,220,218,226,221,220,221,224,219,218,221,224,222,222,365,365,367,367,368,411,545,596,666,720,747,734,723,711,698,687,676,662,651,640,627,615,604,591,580,568,555,544,533,519,508,453,442,390,373,370,371,372,302,301,301,301,301,302,301,303,302,302,303,302,302,302,303,303,303,303,302,302,302,302,302,302,302,302,302,476,478,479,484,490,506,721,797,890,955,969,955,945,927,912,884,881,865,849,833,811,797,782,766,750,736,719,704,690,619,612,596,553,510,496,492,493,484,402,402,401,402,401,402,401,403,403,402,403,402,402,402,403,403,403,403,402,402,402,402,402,402,402,402,402,0,0,0,0,0,0,0,0,0,0,0,0,0,0,0,0,0,0,0,0,0,0,0,0,0,0,0,0,0,0,0,0,0,0,0,0,0,0,0,0,0,0,0,0,0,0,0,0,0,0,0,0,0,0,0,0,0,0,0,0,0,0,0,0,0,453,455,456,458,462,504,781,795,873,920,925,911,1006,974,869,854,840,911,896,797,784,770,755,741,802,684,801,756,747,640,614,600,562,548,464,516,513,463,497,500,503,513,506,513,501,518,504,508,506,504,507,513,513,515,514,514,512,511,534,537,513,554,538,572,567,682,670,682,691,696,774,1062,1154,1270,1363,1338,1342,1274,1266,1291,1253,1235,1221,1194,1160,1116,1122,1100,1078,1037,1032,1021,998,977,923,824,827,767,720,702,698,700,678,586,586,585,586,585,586,585,587,587,586,587,586,586,586,587,587,587,587,586,586,586,586,586,586,586,586,586,639,630,636,652,652,752,992,1074,1187,1286,1258,1258,1198,1188,1217,1181,1164,1150,1125,1111,1050,1058,1036,1016,970,969,968,874,837,794,723,744,706,684,651,658,653,633,552,534,537,538,551,552,545,544,544,549,553,552,552,552,553,553,553,553,552,552,552,552,552,552,552,552,552,355,356,357,357,358,400,485,577,646,698,725,713,701,683,677,650,656,643,633,621,608,598,587,574,554,553,540,528,511,483,433,423,412,366,363,360,361,360,264,264,263,264,263,264,263,265,265,264,265,264,264,264,265,265,265,265,264,264,264,264,264,264,264,264,264,623,625,626,629,637,856,980,1080,1187,1239,1248,1228,1208,1208,1180,1159,1150,1129,1136,1070,1050,1030,1010,991,971,958,931,925,892,872,771,753,697,648,636,644,634,636,604,604,608,622,614,624,609,616,634,617,615,614,612,613,609,613,615,617,617,613,611,615,623,648,626,626,626,749,729,754,742,814,971,1198,1299,1419,1488,1476,1462,1437,1432,1405,1349,1331,1316,1285,1262,1246,1223,1202,1169,1157,1133,1109,1086,1022,974,977,823,781,776,757,748,755,691,692,689,692,693,692,688,694,690,695,694,693,714,719,723,703,697,696,697,696,694,693,701,696,701,697,693,692,202,203,205,206,249,256,298,324,357,391,413,407,400,394,388,381,375,368,361,355,348,342,335,328,322,324,318,303,304,297,291,277,270,264,257,250,253,253,154,154,153,154,153,154,153,155,155,154,155,154,154,154,155,155,155,155,154,154,154,154,154,154,154,154,154,166,166,167,167,205,212,289,280,305,330,343,338,333,328,324,319,314,310,304,300,295,290,286,281,276,271,267,261,257,253,247,243,238,272,210,205,206,206,188,162,163,165,162,166,165,167,165,165,167,163,163,165,163,165,167,166,166,165,165,165,165,167,166,167,167,405,405,407,408,411,543,617,686,757,817,823,811,799,785,773,755,745,732,716,706,693,677,664,651,638,624,611,598,585,572,558,548,532,520,414,411,412,392,390,385,385,387,389,383,390,385,388,387,385,385,389,391,390,390,392,391,388,389,389,393,391,393,390,389,388,790,765,767,801,829,1118,1306,1470,1575,1647,1608,1581,1554,1527,1499,1445,1442,1436,1387,1356,1328,1341,1314,1246,1216,1191,1161,1133,1105,1078,1044,945,874,791,777,775,758,756,760,767,761,797,778,772,781,797,771,793,793,785,781,776,772,782,776,778,776,776,770,769,768,778,770,775,755,441,442,443,445,449,590,727,835,831,981,891,972,863,849,834,820,806,792,777,763,817,735,721,707,693,678,664,650,636,622,608,594,579,565,451,448,449,450,442,437,443,447,439,443,439,448,445,442,446,441,443,444,442,447,446,449,448,446,448,449,444,488,444,449,447,625,627,629,630,804,913,1060,1206,1318,1361,1359,1335,1311,1287,1261,1237,1213,1189,1164,1139,1115,1091,1067,1041,1017,993,969,943,919,895,871,847,821,652,638,636,639,643,643,641,639,650,648,648,642,803,638,646,645,642,644,782,650,646,651,652,648,648,783,803,643,649,646,650,645,648,649,651,652,683,949,1100,1251,1362,1404,1402,1377,1351,1326,1301,1277,1251,1226,1201,1175,1150,1126,1101,1075,1050,1025,999,975,950,925,899,874,694,675,660,658,662,665,668,666,658,659,692,807,675,684,680,699,684,803,691,694,682,698,685,684,697,676,687,845,808,815,805,816,697,638,640,642,661,660,862,1065,1215,1232,1373,1278,1351,1237,1220,1196,1178,1156,1137,1116,1097,1144,1054,1035,1015,994,973,953,932,913,892,872,772,753,663,651,648,666,622,614,613,622,623,618,615,618,620,623,617,619,614,620,623,621,625,624,627,622,625,626,624,619,647,619,624,622,520,521,522,524,533,695,860,955,988,1109,1042,1096,1009,993,976,960,943,928,911,895,944,862,845,829,812,796,779,763,746,730,713,697,621,543,531,527,529,530,519,524,529,540,536,548,529,541,527,541,540,537,536,538,539,542,542,541,541,537,541,537,536,565,534,536,534,301,302,303,304,305,348,448,500,553,601,614,605,596,585,598,566,556,546,557,526,537,528,496,486,476,467,457,467,437,427,437,408,398,352,309,306,306,307,300,287,285,285,303,305,300,297,301,307,308,305,304,310,306,315,302,303,315,311,307,315,304,306,303,306,305,773,774,775,806,824,1138,1316,1483,1590,1629,1623,1595,1566,1538,1510,1482,1454,1426,1398,1370,1342,1313,1285,1257,1229,1201,1173,1147,1117,1089,1060,928,821,800,785,784,788,779,782,780,774,774,801,808,790,799,798,814,799,832,805,810,798,814,801,799,816,792,804,885,851,891,864,862,813,370,371,373,374,375,496,557,588,686,701,750,701,727,678,702,690,645,666,655,643,655,624,607,596,584,572,559,547,536,524,512,500,381,477,363,376,413,377,344,343,343,344,351,347,347,348,348,349,351,351,354,355,357,354,360,355,358,359,359,360,357,360,355,359,356,746,748,750,753,774,1023,1274,1440,1455,1590,1492,1562,1445,1425,1402,1376,1349,1325,1302,1279,1323,1229,1208,1182,1158,1134,1111,1086,1070,1038,952,850,791,777,760,757,760,714,705,700,706,710,703,706,703,711,708,706,709,704,706,708,706,711,710,713,712,710,712,712,709,751,708,713,711,858,858,866,872,900,1130,1486,1674,1681,1815,1715,1784,1653,1637,1608,1581,1548,1526,1489,1461,1501,1413,1381,1354,1326,1298,1270,1246,1170,1150,1112,941,916,895,883,881,871,814,806,800,807,810,803,806,803,812,808,806,809,804,806,808,806,811,810,813,812,810,812,812,809,849,808,813,811,405,406,407,408,411,542,645,771,761,911,822,905,796,783,770,756,743,730,717,704,759,677,664,652,639,625,612,599,586,573,559,546,533,520,501,411,495,497,429,402,405,409,403,410,406,409,406,408,408,402,404,405,405,408,409,408,407,405,408,408,403,474,403,408,406,0,0,0,0,0,0,0,0,0,0,0,0,0,0,0,0,0,0,0,0,0,0,0,0,0,0,0,0,0,0,0,0,0,0,0,0,0,0,0,0,0,0,0,0,0,0,0,0,0,0,0,0,0,0,0,0,0,0,0,0,0,0,0,0,0,1037,1062,1072,1081,1194,1468,1878,2079,2049,2183,2049,2154,2032,1998,1962,1937,1856,1826,1794,1786,1826,1719,1665,1649,1622,1595,1551,1521,1423,1188,1178,1146,1124,1086,1085,1080,1050,998,990,984,991,994,987,990,987,996,992,990,993,988,990,992,990,995,994,997,996,994,996,996,993,1035,992,997,995,998,1016,1036,1037,1122,1396,1796,1994,1969,2107,1973,2081,1958,1926,1891,1866,1780,1784,1728,1722,1762,1657,1598,1590,1563,1468,1479,1393,1285,1145,1234,1106,1089,1046,1047,1041,998,952,938,936,943,960,953,950,944,953,955,956,959,954,956,958,956,961,960,963,962,960,958,958,953,984,953,958,956,729,732,740,743,763,996,1255,1418,1433,1568,1471,1542,1425,1405,1377,1357,1331,1309,1283,1262,1306,1213,1182,1166,1142,1119,1086,1072,995,971,948,837,790,766,749,747,728,676,668,662,669,672,665,668,665,674,670,668,671,666,668,670,668,673,672,675,674,672,674,674,671,712,670,675,673,689,690,692,694,738,859,1040,1243,1337,1385,1389,1362,1343,1277,1296,1243,1262,1229,1207,1185,1163,1129,1110,1088,1066,1020,1006,999,986,963,948,924,734,733,695,698,686,702,691,691,686,692,708,708,698,764,705,708,727,770,702,711,713,777,736,707,815,711,714,736,708,788,723,728,708,1128,1112,1101,1148,1303,1650,1968,2142,2228,2285,2244,2223,2182,2114,2082,2020,2009,1992,1940,1903,1868,1857,1807,1762,1723,1687,1597,1563,1540,1439,1364,1193,1161,1116,1104,1110,1057,1058,1064,1074,1067,1097,1083,1076,1086,1104,1078,1101,1122,1121,1113,1089,1079,1086,1082,1086,1081,1080,1076,1074,1071,1085,1074,1079,1059,608,611,613,631,654,847,976,1162,1174,1316,1222,1297,1184,1164,1145,1124,1104,1085,1068,1049,1094,1011,991,972,960,941,913,900,881,862,833,816,789,653,640,637,639,566,558,552,559,562,555,558,555,564,560,558,561,556,558,560,558,563,562,565,564,562,564,564,561,603,560,565,563,306,306,307,308,378,429,454,612,559,732,621,731,601,591,581,572,562,552,542,532,590,512,502,492,482,473,463,453,443,433,423,413,403,393,383,379,380,381,291,292,292,293,293,294,295,297,297,297,297,298,299,300,300,301,303,303,304,305,305,306,306,306,307,307,308,790,765,767,801,829,1118,1306,1470,1575,1647,1608,1581,1554,1527,1499,1445,1442,1436,1387,1356,1328,1341,1314,1246,1216,1191,1161,1133,1105,1078,1044,945,874,791,777,775,758,756,760,767,761,797,778,772,781,797,771,793,793,785,781,776,772,782,776,778,776,776,770,769,768,778,770,775,755,659,662,663,652,670,782,988,1099,1212,1278,1294,1250,1252,1235,1220,1198,1170,1137,1135,1094,1077,1073,1050,1030,996,994,969,959,929,881,832,728,724,681,667,669,676,618,572,568,570,575,576,581,584,575,575,578,577,580,581,594,587,588,582,581,584,584,581,590,583,580,581,581,580,690,693,694,697,706,866,1059,1180,1301,1374,1374,1360,1338,1311,1293,1263,1249,1227,1201,1191,1165,1145,1130,1102,1076,1056,1034,1019,989,957,927,829,809,724,702,701,704,642,624,614,618,621,616,632,620,633,626,625,630,626,629,628,626,637,626,624,629,634,624,631,628,629,626,634,627,921,923,926,933,964,1225,1505,1681,1803,1848,1852,1814,1786,1767,1742,1708,1676,1645,1612,1577,1552,1514,1485,1454,1423,1400,1370,1342,1311,1185,1096,1010,972,950,936,939,933,923,870,860,874,891,889,890,885,888,895,882,904,894,897,902,915,909,897,909,887,897,910,913,909,907,908,908,907,943,945,947,955,989,1262,1547,1725,1846,1890,1894,1849,1821,1807,1781,1747,1714,1681,1648,1611,1584,1550,1518,1487,1455,1432,1401,1372,1340,1215,1125,1054,994,972,959,961,948,941,888,885,901,916,919,913,919,920,904,922,908,907,904,918,919,921,912,920,911,908,902,919,921,914,919,910,909,470,472,474,475,476,554,691,768,848,920,935,928,914,893,882,860,853,839,820,816,797,783,769,755,739,719,708,695,674,665,645,594,564,538,481,478,479,426,408,398,402,405,400,416,404,417,410,409,414,410,413,412,410,421,410,408,413,418,408,415,412,413,410,418,411,689,692,693,696,704,867,1059,1174,1305,1361,1368,1355,1333,1306,1288,1258,1245,1223,1197,1188,1164,1142,1119,1098,1082,1053,1030,1015,987,971,861,814,788,728,701,700,702,646,628,618,622,625,620,636,624,637,630,629,634,630,633,632,630,641,630,628,633,638,628,635,632,633,630,638,631,866,857,859,867,920,1143,1353,1511,1636,1694,1695,1676,1648,1616,1598,1558,1538,1516,1494,1465,1435,1399,1390,1357,1326,1294,1274,1245,1219,1136,1054,998,915,894,871,874,873,816,798,788,792,795,790,806,794,807,800,799,804,800,803,802,800,811,800,798,803,808,798,805,802,803,800,808,801,878,854,853,911,914,1186,1399,1529,1633,1722,1718,1642,1617,1639,1617,1586,1568,1513,1512,1426,1401,1376,1413,1324,1355,1316,1292,1275,1235,1106,962,973,914,895,866,888,890,893,873,881,875,878,894,882,886,896,892,902,900,888,896,903,898,909,907,895,902,898,887,903,896,893,894,894,893,852,855,857,862,899,1114,1345,1511,1632,1680,1683,1664,1636,1604,1582,1557,1527,1500,1470,1455,1435,1400,1373,1347,1325,1291,1274,1248,1188,1081,960,940,912,888,866,865,860,801,783,773,777,780,775,791,779,792,785,784,789,785,788,787,785,796,785,783,788,793,783,790,787,788,785,793,786,440,441,441,442,450,571,649,725,801,871,878,872,858,843,838,808,800,785,773,772,746,734,724,710,696,673,666,653,631,624,602,596,574,454,445,449,447,430,412,401,406,409,403,420,407,420,413,412,417,414,416,415,424,424,413,411,419,421,412,419,416,417,413,421,414,261,261,261,262,263,283,375,419,462,504,531,522,513,504,497,490,482,471,463,455,446,437,430,421,412,403,396,387,378,370,363,316,289,282,274,264,265,273,224,224,224,227,228,229,228,228,228,231,229,231,232,242,235,236,230,230,232,230,227,237,231,228,229,229,228,733,732,734,740,752,930,1135,1266,1391,1453,1461,1450,1421,1393,1373,1342,1326,1302,1270,1264,1237,1204,1199,1169,1141,1110,1096,1070,1049,1015,955,880,786,769,745,745,746,685,667,657,661,664,659,675,663,676,669,668,673,669,672,671,669,680,669,667,672,677,667,674,671,672,669,677,670,1126,1117,1124,1138,1223,1619,1882,2062,2156,2209,2201,2175,2130,2090,2064,2027,1996,1971,1927,1904,1868,1824,1728,1748,1717,1675,1537,1504,1407,1304,1277,1239,1184,1156,1140,1135,1137,1128,1107,1100,1104,1107,1102,1118,1106,1119,1111,1111,1116,1112,1115,1114,1112,1123,1112,1110,1115,1120,1110,1117,1114,1115,1112,1120,1113,0,0,0,0,0,0,0,0,0,0,0,0,0,0,0,0,0,0,0,0,0,0,0,0,0,0,0,0,0,0,0,0,0,0,0,0,0,0,0,0,0,0,0,0,0,0,0,0,0,0,0,0,0,0,0,0,0,0,0,0,0,0,0,0,0,98,98,98,121,121,123,138,155,170,185,198,195,192,189,185,182,180,177,173,170,167,163,161,158,155,151,148,146,143,139,136,133,129,127,124,121,122,122,87,87,86,87,88,88,87,87,87,90,88,90,90,94,90,94,90,88,90,90,87,94,90,87,88,88,87,371,371,372,372,378,479,540,603,665,728,737,734,721,709,705,678,674,662,650,650,630,619,610,599,586,566,562,551,531,527,507,502,484,382,375,378,376,366,348,338,342,345,340,356,344,357,350,349,354,350,353,352,350,361,350,348,353,358,348,355,352,353,350,358,351,1077,1115,1111,1119,1258,1670,1877,2028,2131,2184,2150,2113,2096,2038,2030,2016,1981,1908,1874,1871,1844,1769,1734,1718,1666,1630,1522,1500,1487,1379,1182,1186,1207,1117,1118,1106,1097,1122,1099,1096,1110,1105,1116,1092,1103,1109,1108,1125,1124,1118,1120,1130,1117,1110,1138,1126,1123,1121,1121,1130,1130,1125,1125,1137,1128,651,634,656,657,666,722,1019,1125,1222,1295,1306,1269,1260,1244,1224,1205,1152,1161,1130,1094,1098,1038,1053,998,1015,1030,938,963,947,922,851,808,779,676,643,670,659,683,638,638,638,654,651,644,646,662,651,649,661,663,676,677,678,689,646,644,657,654,647,657,652,649,650,650,649,545,547,552,553,556,661,817,907,1004,1077,1089,1080,1062,1041,1027,1002,993,975,954,949,929,910,894,877,859,837,823,809,784,742,751,695,587,573,560,557,559,500,478,472,476,479,474,482,478,489,481,483,485,484,487,486,484,495,484,482,487,492,482,489,486,487,484,492,485,828,827,833,837,873,1076,1301,1455,1581,1640,1642,1624,1597,1566,1548,1520,1490,1464,1430,1419,1390,1354,1346,1313,1284,1251,1232,1205,1179,1093,936,943,885,864,841,841,843,780,762,752,756,759,754,770,758,771,764,763,768,764,767,766,764,775,764,762,767,772,762,769,766,767,764,772,765,659,662,663,652,670,782,988,1099,1212,1278,1294,1250,1252,1235,1220,1198,1170,1137,1135,1094,1077,1073,1050,1030,996,994,969,959,929,881,832,728,724,681,667,669,676,618,572,568,570,575,576,581,584,575,575,578,577,580,581,594,587,588,582,581,584,584,581,590,583,580,581,581,580,578,567,569,568,591,701,831,923,1014,1092,1113,1096,1079,1062,1040,1029,1006,993,976,960,938,921,906,887,873,855,838,820,805,787,770,669,616,608,580,573,604,531,484,481,484,488,488,492,497,489,488,489,488,490,491,499,497,494,493,494,494,492,495,497,494,494,494,494,494,594,595,600,600,602,774,921,1025,1126,1189,1190,1185,1166,1145,1124,1103,1090,1068,1048,1033,1012,991,972,952,931,913,895,875,855,821,803,787,693,621,628,613,620,600,537,527,532,534,528,555,533,556,553,535,552,536,539,539,536,545,536,536,539,545,537,537,538,542,538,546,540,830,832,835,837,850,1131,1333,1484,1603,1674,1680,1645,1619,1591,1565,1544,1509,1481,1459,1431,1400,1372,1345,1317,1294,1262,1238,1210,1181,1133,1071,899,891,878,844,843,845,846,783,773,788,804,801,802,798,801,808,792,815,804,807,808,825,815,807,821,797,807,824,819,820,820,820,820,820,851,854,857,860,878,1165,1375,1530,1646,1717,1722,1687,1660,1631,1604,1582,1546,1519,1495,1467,1434,1406,1378,1350,1326,1294,1268,1241,1211,1184,1149,921,913,900,866,864,866,861,801,798,815,829,831,825,832,834,817,833,820,817,814,824,829,827,822,832,821,818,815,825,831,831,831,831,831,372,375,376,378,380,473,553,614,677,737,751,748,734,721,706,692,687,672,660,651,638,624,612,600,587,576,565,551,540,528,516,504,462,451,386,381,380,384,321,311,316,318,312,338,317,338,332,319,334,320,323,323,320,329,320,320,323,329,321,321,322,326,322,330,324,593,594,597,599,601,786,921,1019,1120,1188,1189,1181,1157,1140,1119,1098,1082,1062,1043,1025,1009,986,967,948,928,910,891,871,853,834,814,724,720,621,611,616,606,604,541,531,536,538,532,560,537,562,552,539,556,540,543,543,540,549,540,540,543,549,541,541,542,546,542,550,544,762,759,761,769,782,1024,1215,1349,1462,1509,1512,1502,1481,1454,1429,1413,1376,1357,1344,1327,1286,1247,1235,1209,1173,1151,1137,1101,1101,1051,928,900,824,801,788,783,784,774,711,701,706,708,702,738,707,742,728,709,736,710,713,713,710,719,710,710,713,719,711,711,712,716,712,720,714,785,787,798,819,837,1102,1217,1375,1467,1539,1556,1524,1534,1484,1463,1433,1394,1376,1339,1316,1293,1269,1257,1235,1200,1189,1152,1135,1140,1071,1034,900,889,866,799,812,798,815,786,794,789,791,806,794,799,809,805,812,812,798,806,809,808,815,817,807,812,808,800,809,806,806,806,806,806,755,757,760,763,767,1026,1207,1336,1452,1508,1504,1494,1472,1442,1415,1392,1377,1344,1320,1295,1276,1249,1225,1201,1175,1152,1128,1104,1079,944,921,824,827,785,782,777,765,759,696,686,691,693,687,715,692,722,707,694,711,695,698,698,695,704,695,695,698,704,696,696,697,701,697,705,699,342,343,343,345,346,436,514,574,633,686,698,701,676,665,653,641,639,620,608,606,594,575,563,552,542,531,519,507,496,486,474,464,452,441,429,359,359,361,325,314,320,322,315,344,320,344,336,322,341,324,326,326,334,340,323,323,329,332,325,325,326,330,325,333,327,166,166,167,167,205,211,237,265,292,319,338,333,327,322,317,312,306,301,295,290,284,280,275,269,264,258,253,247,242,237,232,226,221,215,210,205,206,206,137,137,138,140,140,141,141,141,141,141,141,141,142,148,145,142,140,142,142,140,140,143,141,141,141,141,141,637,634,636,643,645,838,997,1110,1217,1268,1276,1270,1251,1228,1206,1183,1161,1145,1123,1107,1085,1050,1041,1019,987,967,958,926,916,880,861,837,696,675,666,664,663,643,580,570,575,577,571,607,576,608,605,578,607,579,582,582,579,588,579,579,582,588,580,580,581,585,581,589,583,1028,1019,1035,1030,1100,1447,1732,1885,1988,2024,2033,1995,1985,1937,1903,1881,1854,1812,1791,1749,1711,1680,1641,1549,1563,1559,1483,1441,1325,1165,1141,1161,1142,1082,1050,1077,1054,1056,1016,1013,1018,1020,1014,1043,1019,1048,1031,1021,1045,1022,1025,1025,1022,1031,1022,1022,1025,1031,1023,1023,1024,1028,1024,1032,1026,143,144,144,144,144,149,206,229,254,278,293,289,284,279,275,270,266,260,256,251,247,242,237,233,228,223,218,214,210,204,200,160,156,152,148,145,145,146,135,135,135,138,227,198,150,157,149,228,153,147,199,142,143,156,149,140,206,142,140,198,154,223,199,154,149,0,0,0,0,0,0,0,0,0,0,0,0,0,0,0,0,0,0,0,0,0,0,0,0,0,0,0,0,0,0,0,0,0,0,0,0,0,0,0,0,0,0,0,0,0,0,0,0,0,0,0,0,0,0,0,0,0,0,0,0,0,0,0,0,0,273,273,274,275,276,356,403,451,498,543,556,561,550,530,520,511,511,493,485,485,475,458,449,441,432,423,414,405,397,388,379,370,360,352,343,277,281,282,261,251,256,258,252,273,257,276,271,259,272,260,263,263,260,269,260,260,263,269,261,261,262,266,262,270,264,1047,1045,1042,1021,1147,1382,1752,1927,1961,2020,2010,2032,1971,1920,1862,1839,1872,1775,1773,1763,1709,1647,1650,1602,1570,1531,1475,1354,1405,1315,1242,1127,1090,1040,1021,1017,1043,1037,1026,1018,1024,1028,1028,1063,1039,1068,1059,1049,1055,1038,1039,1041,1036,1059,1050,1038,1043,1043,1034,1039,1040,1048,1037,1060,1041,566,567,569,572,592,650,840,937,1031,1148,1152,1133,1087,1083,1066,1035,1030,1044,988,977,988,959,913,895,889,895,878,836,813,820,784,772,747,609,595,574,595,599,551,551,552,567,563,556,559,575,564,559,573,573,586,585,620,617,556,556,567,564,560,563,562,562,562,562,562,449,450,452,458,485,551,679,753,829,897,907,902,885,869,854,837,827,812,796,784,770,753,739,723,708,694,680,665,650,603,622,576,506,474,465,485,459,458,395,385,390,392,386,404,391,404,397,393,399,394,397,397,394,403,394,394,397,403,395,395,396,400,396,403,398,739,729,745,739,751,980,1164,1294,1407,1455,1459,1449,1429,1404,1379,1364,1327,1309,1285,1271,1240,1202,1191,1167,1130,1108,1096,1061,1058,1011,955,810,800,790,757,753,753,738,675,665,670,672,666,700,671,699,693,673,699,674,677,677,674,683,674,674,677,683,675,675,676,680,676,684,678,578,567,569,568,591,701,831,923,1014,1092,1113,1096,1079,1062,1040,1029,1006,993,976,960,938,921,906,887,873,855,838,820,805,787,770,669,616,608,580,573,604,531,484,481,484,488,488,492,497,489,488,489,488,490,491,499,497,494,493,494,494,492,495,497,494,494,494,494,494,425,427,429,429,421,459,598,662,729,791,816,806,795,778,766,754,742,729,716,707,696,680,667,654,643,629,619,605,595,580,571,557,446,459,437,425,436,415,348,350,346,350,350,353,353,360,352,352,352,352,352,353,353,352,352,352,353,353,354,355,353,354,351,351,350,335,336,337,338,340,434,497,552,608,657,676,666,641,639,625,616,613,595,585,574,564,550,547,533,532,513,502,501,482,471,470,452,441,431,344,351,339,342,276,279,281,289,279,282,277,280,282,278,280,278,282,283,282,281,281,281,281,281,281,281,281,281,280,280,279,663,666,668,669,687,820,1034,1175,1293,1352,1364,1341,1319,1296,1274,1251,1230,1200,1183,1161,1134,1115,1089,1070,1047,1026,1000,982,961,935,745,742,724,702,690,678,681,687,621,618,618,622,622,626,629,633,628,628,628,628,628,629,629,628,628,628,628,629,630,631,629,630,627,627,626,685,687,689,691,723,853,1072,1217,1337,1395,1407,1383,1361,1337,1314,1290,1268,1237,1221,1197,1170,1150,1123,1103,1080,1058,1032,1014,990,966,889,833,811,723,712,701,702,702,639,643,645,651,656,652,653,655,648,649,649,648,646,647,650,646,645,649,650,646,647,648,650,648,648,640,639,124,125,125,126,126,157,177,196,216,237,250,246,243,238,235,231,227,223,220,215,212,207,204,200,196,192,188,184,180,177,172,169,165,161,157,126,155,155,60,61,60,61,63,65,61,62,61,62,62,62,65,66,66,63,63,63,63,63,63,63,63,63,62,62,61,334,335,336,337,338,440,493,547,601,650,660,659,640,630,620,609,600,589,579,569,559,550,540,530,519,518,499,489,478,469,459,449,397,364,357,339,340,341,280,282,278,289,281,287,281,286,281,284,284,282,288,287,290,286,285,285,285,285,285,285,285,285,284,284,283,503,504,505,521,506,655,770,851,937,994,991,991,960,953,944,919,912,901,873,861,842,832,815,805,790,777,739,743,719,704,696,549,530,524,513,521,523,505,450,457,462,466,465,465,458,466,457,466,464,461,465,466,466,466,466,466,466,465,465,464,464,464,464,464,464,737,731,742,726,760,983,1072,1179,1287,1351,1363,1339,1320,1300,1280,1261,1244,1248,1227,1215,1193,1166,1123,1133,1109,1089,1062,1041,1044,994,966,909,768,765,753,749,735,734,671,673,676,684,676,679,681,686,678,678,678,678,678,679,679,678,678,678,679,679,680,681,679,680,677,677,676,496,498,499,501,507,593,761,839,923,979,983,978,963,938,922,906,892,876,862,847,831,816,801,786,770,764,740,724,709,695,615,601,588,519,507,504,518,499,435,435,433,444,434,444,436,445,441,439,441,437,444,442,445,446,442,442,442,442,442,442,442,442,441,441,440,137,138,152,152,152,173,195,219,241,265,283,279,274,270,266,260,255,252,248,242,239,233,229,223,220,216,211,207,201,197,194,189,184,178,175,171,171,172,80,79,80,80,78,79,79,79,79,79,79,79,78,79,90,96,79,79,82,78,79,78,78,78,78,78,78,294,296,298,300,301,330,424,481,533,584,607,597,587,580,568,558,549,539,530,520,510,500,492,481,471,463,452,443,433,424,366,363,353,315,306,303,316,316,238,239,242,245,253,253,254,243,242,249,241,239,241,243,246,245,242,243,242,243,245,244,244,248,242,243,237,378,379,380,381,376,489,568,630,694,749,750,753,741,724,708,696,705,673,661,666,638,631,630,602,600,591,556,565,544,532,528,509,487,484,387,395,382,378,319,320,326,334,323,334,324,332,334,324,335,323,330,330,328,332,327,327,327,327,327,327,327,327,326,326,325,762,781,766,771,808,900,1237,1386,1473,1552,1505,1507,1543,1456,1414,1464,1376,1343,1329,1315,1318,1244,1242,1200,1130,1196,1138,1107,1050,963,912,841,799,787,775,790,773,803,762,755,762,769,773,777,766,774,767,766,778,769,777,772,778,778,775,776,776,776,776,776,776,776,775,775,774,397,401,393,382,414,457,592,652,730,775,796,795,786,773,761,739,732,699,709,652,659,666,626,644,630,600,588,590,568,541,548,530,527,443,417,404,414,415,369,369,367,373,384,380,378,374,372,380,379,382,378,375,376,383,380,382,384,381,379,383,381,383,383,383,381,358,378,357,342,382,406,523,580,652,697,714,716,711,701,716,666,656,628,644,583,620,631,562,584,595,561,551,531,511,486,458,477,453,413,404,364,384,385,335,316,318,319,345,331,326,320,321,326,345,340,342,342,349,338,350,334,335,349,349,343,327,332,348,342,327,0,0,0,0,0,0,0,0,0,0,0,0,0,0,0,0,0,0,0,0,0,0,0,0,0,0,0,0,0,0,0,0,0,0,0,0,0,0,0,0,0,0,0,0,0,0,0,0,0,0,0,0,0,0,0,0,0,0,0,0,0,0,0,0,0,825,839,856,828,843,1075,1309,1455,1622,1605,1615,1591,1605,1573,1521,1469,1458,1464,1416,1390,1379,1338,1328,1315,1271,1244,1211,1162,1062,1107,929,908,890,846,839,828,832,846,783,783,782,786,791,790,798,806,794,799,793,793,791,794,792,806,803,794,796,789,788,792,792,792,792,792,792,696,696,700,700,709,769,1071,1173,1313,1367,1378,1353,1332,1309,1286,1278,1255,1222,1217,1176,1163,1134,1126,1106,1091,1062,1041,1018,936,915,933,867,801,720,720,711,711,696,623,628,623,628,635,632,629,637,630,630,630,630,630,631,631,630,630,630,631,631,632,633,631,632,629,629,628,208,191,209,210,211,262,272,306,330,363,374,377,370,364,350,345,339,343,337,338,317,312,306,301,304,290,293,279,273,268,215,280,219,235,216,212,213,213,134,126,125,126,128,131,126,128,126,127,127,127,130,132,131,128,130,130,130,130,130,130,130,130,129,129,128,473,475,476,477,475,615,723,801,881,940,937,938,908,916,883,878,862,839,834,814,805,776,770,751,746,734,696,702,678,663,657,634,565,547,484,497,478,475,414,417,420,422,423,427,421,423,422,430,427,427,429,430,430,430,430,430,430,429,429,428,428,428,428,428,428,425,427,429,429,421,459,598,662,729,791,816,806,795,778,766,754,742,729,716,707,696,680,667,654,643,629,619,605,595,580,571,557,446,459,437,425,436,415,348,350,346,350,350,353,353,360,352,352,352,352,352,353,353,352,352,352,353,353,354,355,353,354,351,351,350,970,972,976,1000,1080,1466,1666,1938,1899,1931,1921,1890,1908,1902,1796,1768,1843,1707,1676,1646,1612,1581,1645,1520,1489,1498,1428,1398,1449,1223,1153,1058,1062,998,1038,984,966,964,975,995,991,1004,991,1007,1000,1013,996,1010,990,995,994,1002,1013,1012,1017,1014,999,991,1009,1013,1010,1018,998,1005,997,623,625,627,629,648,874,991,1234,1204,1249,1249,1229,1210,1190,1170,1150,1238,1111,1091,1071,1050,1030,1107,991,971,951,931,911,976,872,851,831,849,648,635,632,634,636,628,642,642,648,648,650,645,657,643,659,641,641,642,653,659,710,684,683,650,643,677,711,657,680,645,652,644,1046,1049,1050,1073,1214,1615,1830,2112,2068,2097,2083,2049,2015,1981,1948,1914,1984,1845,1810,1773,1744,1710,1768,1642,1607,1574,1541,1507,1529,1398,1149,1121,1125,1075,1103,1062,1061,1063,1082,1083,1107,1080,1101,1103,1103,1108,1102,1123,1105,1097,1104,1105,1104,1125,1117,1113,1100,1123,1104,1126,1118,1112,1124,1130,1105,1068,1071,1072,1126,1247,1655,1875,2154,2110,2139,2124,2090,2054,2020,1985,1951,2020,1881,1846,1808,1778,1743,1801,1675,1639,1606,1570,1536,1559,1435,1172,1143,1147,1097,1126,1085,1076,1081,1107,1103,1118,1101,1123,1119,1127,1127,1129,1145,1126,1125,1120,1136,1136,1153,1138,1143,1131,1138,1127,1146,1133,1129,1128,1132,1107,757,760,762,767,806,1091,1228,1456,1515,1513,1509,1485,1461,1437,1411,1388,1430,1342,1317,1329,1270,1246,1284,1232,1175,1196,1157,1132,1113,1053,943,880,904,806,772,804,783,745,750,748,763,772,765,780,762,773,774,770,796,774,774,774,773,776,773,768,773,771,774,769,774,775,765,808,774,702,704,706,709,829,999,1131,1391,1358,1401,1399,1377,1355,1333,1311,1289,1373,1244,1222,1200,1178,1156,1229,1111,1089,1067,1045,1023,1084,977,955,903,901,828,715,712,714,717,710,711,710,726,715,725,715,771,726,718,720,720,718,719,715,714,720,723,721,724,715,718,720,771,769,771,721,682,678,685,688,716,907,1098,1235,1419,1461,1460,1437,1403,1380,1255,1344,1294,1296,1273,1250,1227,1203,1193,1148,1134,1109,1086,1064,1018,908,886,864,845,794,775,692,693,695,693,697,699,697,700,703,704,705,707,710,711,711,713,713,711,720,721,724,728,724,724,723,724,726,741,739,736,1183,1196,1197,1262,1385,1763,1970,2242,2199,2240,2218,2186,2153,2120,2088,2117,2190,2050,2008,1983,1949,1919,1967,1852,1784,1655,1623,1691,1639,1366,1300,1269,1271,1223,1251,1194,1185,1170,1195,1197,1191,1201,1195,1204,1198,1197,1204,1221,1196,1197,1197,1206,1245,1198,1200,1201,1198,1252,1194,1199,1200,1210,1209,1210,1209,802,807,813,813,881,1113,1323,1497,1566,1603,1598,1575,1552,1526,1489,1480,1520,1423,1404,1381,1355,1329,1395,1274,1258,1215,1193,1137,1142,998,976,952,926,837,821,819,802,775,783,785,804,777,790,789,784,793,796,811,796,787,797,793,796,821,797,795,794,804,788,820,796,793,788,795,794,686,664,712,701,791,981,1069,1189,1302,1337,1381,1316,1295,1274,1287,1270,1242,1191,1159,1197,1109,1105,1084,1053,1041,1028,1000,968,955,934,937,938,715,702,694,683,679,682,662,659,672,711,669,672,670,680,681,669,677,666,678,689,701,718,684,678,666,690,676,670,670,726,676,687,669,964,967,969,979,1068,1444,1638,1871,1928,1920,1908,1879,1847,1816,1785,1757,1790,1697,1666,1669,1610,1575,1600,1553,1485,1499,1454,1372,1353,1247,1131,1038,1053,1016,982,982,956,931,941,940,969,992,978,974,965,981,977,969,980,965,969,972,980,977,965,977,968,962,978,976,970,987,971,989,971,645,651,649,653,668,900,1029,1277,1250,1296,1295,1275,1255,1232,1211,1192,1279,1151,1130,1110,1089,1068,1144,1027,1005,985,965,944,1007,901,880,859,861,672,661,658,660,624,632,625,632,625,637,639,633,639,639,654,642,634,642,642,640,671,645,642,636,654,636,670,639,639,636,645,644,706,727,737,727,836,981,1145,1354,1376,1420,1410,1397,1373,1365,1327,1305,1274,1260,1237,1215,1192,1169,1146,1124,1101,1078,1056,1026,1004,907,886,864,844,734,721,735,737,827,724,728,725,729,724,730,731,734,732,896,732,725,730,730,902,733,734,736,732,888,733,734,734,892,729,896,734,897,927,980,938,1057,1370,1512,1659,1828,1842,1843,1746,1722,1690,1695,1768,1694,1576,1597,1578,1483,1463,1434,1404,1381,1357,1324,1337,1265,1240,1166,1173,941,925,927,945,904,935,933,940,942,956,947,944,955,956,954,952,960,952,953,954,955,960,967,968,953,961,956,948,958,965,957,967,955,939,954,1000,988,1089,1416,1606,1711,1872,1892,1918,1795,1769,1773,1741,1747,1761,1620,1614,1621,1557,1535,1496,1444,1451,1427,1392,1363,1317,1274,1194,1201,986,980,954,963,926,952,945,953,956,959,970,967,967,967,954,967,961,959,967,974,972,976,983,976,971,972,969,968,972,1004,966,973,967,770,765,790,800,841,1143,1247,1397,1489,1539,1568,1512,1485,1464,1439,1444,1420,1366,1344,1316,1291,1260,1245,1210,1193,1169,1136,1112,1095,1070,850,944,817,805,784,792,783,739,714,713,723,749,724,731,723,736,736,730,739,722,735,746,760,782,742,738,732,749,734,728,728,761,733,746,728,0,0,0,0,0,0,0,0,0,0,0,0,0,0,0,0,0,0,0,0,0,0,0,0,0,0,0,0,0,0,0,0,0,0,0,0,0,0,0,0,0,0,0,0,0,0,0,0,0,0,0,0,0,0,0,0,0,0,0,0,0,0,0,0,0,1310,1321,1310,1370,1599,2079,2338,2592,2547,2567,2563,2518,2494,2486,2381,2335,2396,2260,2235,2191,2129,2106,2162,2027,1967,1931,1856,1828,1782,1461,1432,1429,1410,1340,1355,1326,1265,1266,1279,1302,1297,1307,1296,1311,1305,1320,1303,1318,1319,1325,1326,1315,1320,1316,1323,1322,1304,1295,1315,1318,1315,1325,1304,1311,1303,683,705,688,691,719,971,1096,1306,1368,1369,1366,1345,1323,1302,1279,1257,1303,1215,1193,1207,1150,1128,1167,1119,1063,1087,1051,1027,1028,954,931,893,864,752,697,713,696,682,687,685,700,707,700,715,700,710,710,707,748,711,711,711,710,714,710,706,710,708,711,706,711,712,702,761,712,733,738,741,742,797,1009,1196,1367,1431,1473,1470,1448,1425,1401,1372,1359,1407,1312,1290,1269,1245,1221,1294,1175,1157,1129,1107,1040,1103,995,914,897,877,764,749,747,749,724,732,734,746,724,738,738,733,741,737,753,740,732,740,740,737,766,743,739,735,750,735,766,738,736,735,742,741,970,972,976,1000,1080,1466,1666,1938,1899,1931,1921,1890,1908,1902,1796,1768,1843,1707,1676,1646,1612,1581,1645,1520,1489,1498,1428,1398,1449,1223,1153,1058,1062,998,1038,984,966,964,975,995,991,1004,991,1007,1000,1013,996,1010,990,995,994,1002,1013,1012,1017,1014,999,991,1009,1013,1010,1018,998,1005,997,546,537,538,532,558,706,797,886,954,993,997,988,969,954,940,926,911,897,883,869,854,840,826,811,820,806,768,754,740,731,712,707,634,548,538,535,557,544,530,529,529,541,539,534,533,541,538,541,543,543,543,543,543,543,543,542,543,543,543,542,543,543,540,543,543,869,871,872,905,935,1252,1351,1552,1651,1696,1670,1663,1608,1580,1566,1586,1558,1540,1490,1443,1448,1388,1351,1323,1290,1311,1248,1234,1241,1122,1089,992,901,894,883,907,887,875,859,863,863,870,876,876,885,876,879,876,876,876,876,876,876,876,876,876,876,876,876,876,876,876,876,876,876,794,778,780,787,830,1073,1202,1368,1434,1441,1471,1436,1422,1404,1389,1374,1326,1303,1286,1275,1259,1240,1208,1195,1175,1199,1125,1109,1087,1064,900,835,826,800,790,788,790,778,762,760,770,781,777,764,779,780,781,776,783,782,782,784,784,784,784,784,784,784,784,784,784,784,784,784,784,764,765,760,751,774,1007,1125,1270,1350,1381,1420,1401,1344,1318,1306,1287,1268,1249,1230,1200,1175,1162,1173,1124,1105,1134,1081,1062,1042,1025,898,886,781,765,756,755,796,757,748,749,754,770,757,770,756,765,769,763,765,758,761,765,762,762,766,769,767,768,765,765,765,765,765,765,765,716,727,710,721,765,996,1079,1261,1313,1384,1382,1370,1354,1323,1306,1304,1277,1257,1236,1185,1177,1139,1118,1079,1072,1089,1032,1016,1030,1004,936,876,774,733,730,732,726,687,685,680,683,688,699,698,694,697,696,694,696,698,693,700,697,702,704,697,699,701,695,689,689,689,689,689,689,794,792,788,796,896,1111,1190,1393,1480,1518,1506,1505,1489,1443,1438,1435,1398,1369,1343,1307,1302,1244,1227,1202,1171,1192,1125,1120,1113,1093,939,922,825,807,798,801,794,769,769,772,772,778,780,773,787,772,778,775,775,775,775,775,775,775,775,775,775,775,775,775,775,775,775,775,775,1037,1032,1036,1057,1216,1517,1652,1874,1949,1994,1974,1955,1914,1888,1872,1855,1827,1790,1753,1711,1700,1634,1598,1574,1538,1534,1477,1440,1398,1297,1154,1125,1111,1059,1049,1050,1029,1003,1011,1024,1008,1019,1015,1016,1035,1008,1020,1010,1010,1010,1010,1010,1010,1010,1010,1010,1010,1010,1010,1010,1010,1010,1010,1010,1010,642,644,639,630,649,838,938,1051,1130,1164,1205,1189,1135,1113,1103,1087,1071,1056,1039,1012,990,980,993,947,931,962,913,897,880,894,880,828,657,644,635,632,673,635,635,636,638,646,648,648,647,648,641,648,648,647,648,648,648,648,648,648,648,648,648,648,648,648,648,648,648,966,965,964,991,1126,1412,1518,1737,1814,1846,1829,1822,1801,1751,1742,1737,1695,1657,1629,1583,1578,1514,1492,1461,1425,1441,1369,1358,1320,1195,1088,1056,1024,983,983,999,949,922,924,928,925,935,935,932,947,927,935,930,930,930,930,930,930,930,930,930,930,930,930,930,930,930,930,930,930,867,868,864,868,928,1221,1348,1533,1627,1666,1655,1634,1612,1586,1571,1557,1539,1506,1484,1419,1426,1364,1344,1314,1285,1290,1213,1191,1171,1118,1062,985,920,889,873,876,837,809,803,802,804,808,817,816,810,815,817,815,816,818,823,838,818,820,823,817,821,819,812,810,810,810,810,810,810,538,539,552,541,588,691,837,918,976,1028,1024,1019,1007,990,975,960,946,919,921,889,892,860,845,830,816,800,786,774,756,741,745,656,570,615,608,544,546,531,524,524,524,525,525,525,525,525,524,525,525,525,525,525,525,525,525,525,525,525,525,525,525,525,525,525,525,912,907,912,939,1064,1307,1419,1628,1707,1760,1743,1728,1690,1668,1637,1642,1615,1582,1549,1500,1503,1428,1410,1389,1356,1356,1301,1284,1163,1180,1104,1055,945,933,922,923,909,884,887,896,911,911,914,889,911,907,895,893,893,893,893,893,893,893,893,893,893,893,893,893,893,893,893,893,893,1295,1295,1294,1310,1705,2048,2259,2463,2465,2548,2475,2442,2388,2371,2333,2317,2275,2253,2187,2159,2154,2029,1990,1964,1941,1882,1779,1640,1616,1497,1449,1432,1358,1323,1307,1311,1309,1295,1289,1298,1294,1307,1302,1315,1323,1316,1315,1315,1315,1315,1315,1315,1315,1315,1315,1315,1315,1315,1315,1315,1315,1315,1315,1315,1315,724,726,727,730,805,961,1181,1270,1358,1402,1392,1381,1363,1341,1320,1299,1279,1246,1242,1204,1200,1161,1140,1120,1099,1078,1058,1036,1015,994,920,848,765,801,788,734,737,701,697,697,697,698,698,698,698,698,697,698,698,698,698,698,698,698,698,698,698,698,698,698,698,698,698,698,698,703,705,706,709,769,929,1110,1227,1315,1359,1350,1340,1322,1300,1280,1260,1240,1208,1205,1167,1165,1127,1107,1087,1067,1047,1027,1007,986,966,892,868,743,760,747,713,715,674,670,670,670,671,671,671,671,671,670,671,671,671,671,671,671,671,671,671,671,671,671,671,671,671,671,671,671,798,798,794,793,845,1119,1217,1389,1487,1528,1519,1502,1482,1459,1444,1430,1415,1385,1365,1302,1314,1253,1235,1206,1180,1188,1114,1092,1073,1055,878,859,857,817,801,804,773,746,739,738,741,744,754,753,747,752,754,751,753,755,749,757,755,757,757,754,757,755,748,746,746,746,746,746,746,1460,1491,1482,1616,1964,2365,2501,2731,2774,2838,2771,2748,2714,2672,2649,2592,2562,2503,2435,2363,2374,2285,2233,2205,2088,1805,1811,1683,1721,1665,1580,1557,1528,1480,1499,1507,1470,1483,1471,1478,1484,1472,1471,1484,1491,1481,1481,1490,1490,1490,1490,1490,1490,1490,1490,1490,1490,1490,1490,1490,1490,1490,1490,1490,1490,0,0,0,0,0,0,0,0,0,0,0,0,0,0,0,0,0,0,0,0,0,0,0,0,0,0,0,0,0,0,0,0,0,0,0,0,0,0,0,0,0,0,0,0,0,0,0,0,0,0,0,0,0,0,0,0,0,0,0,0,0,0,0,0,0,794,806,789,800,883,1118,1216,1418,1478,1539,1536,1520,1500,1468,1447,1443,1414,1392,1368,1315,1303,1264,1240,1199,1190,1203,1146,1126,1137,1108,952,955,853,812,808,811,800,761,750,745,748,753,765,763,760,762,761,759,761,763,759,765,762,769,770,763,765,767,761,755,755,755,755,755,755,1007,1003,1005,1024,1148,1469,1620,1819,1895,1940,1922,1904,1864,1839,1823,1807,1778,1743,1707,1654,1655,1576,1557,1531,1496,1507,1436,1345,1337,1258,1169,1095,1081,1029,1018,1042,1004,984,979,987,988,998,994,1001,999,988,993,987,987,987,987,987,987,987,987,987,987,987,987,987,987,987,987,987,987,546,537,538,532,558,706,797,886,954,993,997,988,969,954,940,926,911,897,883,869,854,840,826,811,820,806,768,754,740,731,712,707,634,548,538,535,557,544,530,529,529,541,539,534,533,541,538,541,543,543,543,543,543,543,543,542,543,543,543,542,543,543,540,543,543,349,355,357,357,359,429,515,579,638,696,724,701,702,689,664,668,656,644,632,621,600,598,586,574,562,552,539,528,491,481,469,459,450,436,383,387,388,380,319,310,311,321,317,318,316,323,315,320,323,324,339,346,347,353,315,319,323,324,316,313,321,321,318,319,315,225,226,226,257,279,286,326,368,407,444,481,451,444,436,430,422,414,408,418,418,386,378,387,360,375,346,343,335,327,334,313,306,299,292,286,226,278,278,217,216,221,222,216,223,223,225,225,223,225,217,220,217,216,220,218,218,218,218,218,216,216,220,217,222,220,574,568,567,572,583,745,897,1007,1118,1168,1174,1150,1135,1116,1093,1073,1063,1045,1015,996,995,969,950,930,911,893,853,838,818,797,758,739,670,595,581,578,580,578,567,556,561,582,578,571,577,576,588,574,611,581,586,579,584,583,581,593,580,584,581,590,590,605,591,603,591,595,590,589,594,626,778,935,1049,1163,1211,1217,1192,1177,1157,1133,1113,1102,1082,1052,1032,1030,1004,984,964,944,925,885,869,848,826,786,713,692,677,603,600,603,593,585,581,588,597,606,594,601,603,595,606,597,594,593,595,602,595,596,601,603,595,597,596,604,600,614,601,601,79,79,79,97,97,99,111,123,135,147,157,155,152,150,148,145,143,140,138,136,134,130,128,126,124,122,118,116,114,112,110,107,104,102,100,97,97,99,63,63,63,63,65,65,65,62,63,64,63,63,63,63,63,63,62,63,62,63,63,63,63,63,63,63,62,225,225,225,226,227,289,349,364,400,437,452,445,437,431,423,416,410,402,396,389,404,375,367,360,402,368,339,332,324,319,311,304,297,290,283,227,227,229,218,223,217,225,225,282,221,225,220,218,223,221,217,229,223,225,225,282,228,282,288,229,227,287,220,225,223,386,411,395,396,398,507,588,661,730,782,814,778,765,753,741,728,716,704,708,702,666,653,656,624,634,600,591,579,566,567,541,529,517,413,489,396,397,398,393,395,397,407,405,400,403,407,399,404,402,402,406,418,426,438,408,402,406,410,411,403,403,440,403,409,403,661,667,655,672,692,897,997,1026,1120,1212,1215,1198,1181,1163,1150,1129,1112,1159,1080,1122,1104,1028,1068,1052,1032,993,964,920,901,908,891,745,730,697,669,676,678,660,639,644,644,655,659,651,657,661,655,660,659,661,677,688,686,694,655,651,667,665,656,657,661,665,659,665,660,387,387,389,390,392,507,595,649,716,768,778,765,753,741,729,717,718,693,693,667,678,643,631,619,655,617,583,569,556,545,532,521,509,497,396,392,393,387,373,376,372,381,378,387,376,384,380,373,380,376,373,384,378,385,382,388,383,387,393,384,384,387,377,387,382,171,172,173,173,197,221,250,279,309,338,354,348,342,336,331,325,320,314,309,302,297,291,286,280,275,268,262,257,251,246,240,235,228,223,217,197,198,199,148,138,138,139,146,147,143,139,138,144,153,145,147,147,151,149,149,144,145,155,157,153,143,144,155,143,139,283,285,285,287,288,304,411,466,516,566,580,572,562,556,546,542,527,515,507,498,488,479,469,460,458,443,434,423,415,405,348,346,308,312,294,289,290,291,248,251,252,258,285,285,274,269,264,282,268,259,272,255,261,270,264,257,273,257,256,271,271,273,275,273,262,261,298,270,270,271,341,393,476,490,535,570,539,530,521,512,503,496,487,495,493,459,452,458,430,443,413,408,399,422,424,372,364,355,283,336,270,270,271,265,267,270,279,273,270,270,272,272,272,302,304,305,272,291,282,279,267,269,271,278,276,276,271,270,269,265,679,670,655,707,681,752,1042,1164,1266,1386,1332,1288,1267,1246,1225,1204,1183,1246,1158,1144,1156,1134,1141,1032,954,1091,1043,1004,912,875,805,711,693,676,759,690,691,662,693,689,684,693,699,745,693,701,712,707,697,701,693,702,700,690,703,706,704,704,698,702,711,749,739,747,720,495,489,496,492,498,549,734,804,897,965,994,987,954,890,922,920,893,878,864,846,821,789,800,778,763,733,735,731,714,691,655,553,557,528,497,490,512,494,432,428,425,434,460,463,445,450,447,459,457,450,458,435,440,458,450,442,460,442,437,463,458,461,461,461,454,454,454,447,457,459,484,592,732,819,883,913,906,872,814,849,846,821,807,793,777,774,723,736,716,708,666,672,674,585,553,526,510,539,475,467,463,455,444,398,375,376,380,415,415,393,399,393,407,422,406,421,400,403,414,412,393,414,405,398,419,402,411,410,409,400,162,162,163,163,167,207,235,261,289,316,332,326,321,315,311,305,300,294,289,284,279,273,268,262,258,253,247,242,237,232,226,221,215,211,171,168,168,169,110,110,110,112,112,115,110,112,111,112,111,111,110,112,112,111,111,112,112,112,112,112,112,113,110,111,110,787,804,806,788,806,1037,1256,1413,1517,1555,1569,1535,1519,1457,1489,1442,1405,1419,1393,1322,1360,1316,1284,1258,1240,1208,1158,1123,1016,1069,1003,893,871,830,800,783,778,815,782,776,778,782,788,788,788,795,788,789,791,795,798,799,794,796,797,788,787,796,799,798,794,803,797,824,794,678,675,661,662,684,743,1041,1158,1229,1332,1306,1296,1293,1266,1229,1215,1190,1168,1177,1133,1106,1104,1067,1062,1025,1025,976,963,874,852,884,822,779,693,675,672,669,652,618,612,615,628,623,621,621,627,620,627,630,632,635,635,635,638,622,623,629,632,621,617,627,626,621,626,619,0,0,0,0,0,0,0,0,0,0,0,0,0,0,0,0,0,0,0,0,0,0,0,0,0,0,0,0,0,0,0,0,0,0,0,0,0,0,0,0,0,0,0,0,0,0,0,0,0,0,0,0,0,0,0,0,0,0,0,0,0,0,0,0,0,391,393,365,395,368,467,570,610,675,768,760,724,712,701,689,677,666,654,660,655,619,607,646,580,590,590,548,537,525,528,502,490,479,467,459,366,367,368,357,362,362,373,361,363,360,367,363,361,362,360,360,363,363,367,366,367,363,366,368,370,363,374,362,369,366,349,355,357,357,359,429,515,579,638,696,724,701,702,689,664,668,656,644,632,621,600,598,586,574,562,552,539,528,491,481,469,459,450,436,383,387,388,380,319,310,311,321,317,318,316,323,315,320,323,324,339,346,347,353,315,319,323,324,316,313,321,321,318,319,315,548,549,529,531,557,694,833,927,1008,1096,1108,1087,1028,1055,1038,980,960,942,926,912,931,878,904,841,869,807,829,773,787,770,707,681,563,617,537,533,535,516,506,519,508,528,508,525,513,527,519,527,522,514,528,520,526,530,529,526,526,526,523,526,526,526,526,526,526,180,181,181,182,182,225,261,291,322,352,367,361,355,349,344,338,332,326,321,315,309,303,298,292,286,280,275,269,262,257,251,246,239,234,225,183,184,184,171,172,172,173,202,182,182,183,180,204,180,177,180,177,175,184,177,174,182,175,174,181,180,205,180,178,178,544,545,547,549,556,731,829,925,1020,1076,1080,1063,1053,1036,1012,993,976,959,942,931,913,897,879,862,832,826,809,792,783,757,741,723,583,568,556,543,544,546,520,520,519,520,527,534,535,535,532,536,540,542,536,527,530,535,543,529,529,529,529,529,529,529,529,529,529,565,567,569,571,580,764,866,968,1065,1120,1123,1106,1094,1076,1052,1032,1015,997,979,967,950,932,913,896,866,859,841,823,812,787,635,617,605,590,578,565,567,568,533,543,532,547,544,557,539,544,555,541,539,542,537,540,540,535,542,545,545,545,545,545,545,545,545,545,545,378,378,379,381,382,436,549,616,681,744,763,752,739,727,715,704,691,678,666,654,642,631,618,606,594,581,569,562,545,538,521,509,497,396,387,383,384,385,343,344,348,352,374,361,354,362,352,380,355,350,353,354,354,363,355,352,360,349,353,359,355,367,355,353,353,259,260,261,261,262,325,380,423,466,509,522,513,506,498,489,481,473,465,457,448,441,432,465,416,408,400,391,383,375,367,359,350,343,334,324,263,263,319,252,253,256,259,257,258,259,259,258,257,261,260,270,274,272,269,256,258,260,259,260,257,258,259,256,258,259,89,90,90,90,111,112,125,138,151,165,176,173,170,168,165,162,160,157,155,152,149,147,144,141,139,136,134,132,128,126,123,121,118,115,113,111,111,111,76,76,76,76,78,78,77,80,80,79,78,77,77,77,77,80,78,76,78,77,77,77,78,79,78,79,78,689,692,694,696,721,868,1071,1189,1295,1346,1347,1327,1311,1291,1263,1240,1219,1199,1178,1164,1145,1121,1100,1080,1047,1037,1016,970,981,953,802,780,758,716,703,691,693,682,647,655,648,662,658,670,654,659,668,656,654,659,651,656,656,651,658,660,660,660,660,660,660,660,660,660,660,69,69,69,69,85,85,96,106,117,127,137,135,133,130,128,127,125,123,121,118,116,114,112,110,108,106,104,102,100,97,95,93,91,89,88,85,85,85,53,51,51,51,58,53,52,51,51,52,59,58,56,55,57,53,59,55,54,56,59,54,53,54,58,57,53,486,486,488,489,490,562,723,806,891,971,982,966,950,935,919,904,887,872,856,840,825,809,793,779,762,746,730,715,699,683,651,602,584,548,501,492,494,485,435,435,435,437,460,446,445,447,444,465,444,440,443,440,439,448,441,438,446,439,438,445,443,462,443,442,442,598,599,601,609,614,708,911,1023,1131,1188,1205,1192,1160,1150,1121,1113,1098,1080,1059,1034,1015,992,977,952,933,914,902,878,865,791,773,734,652,629,619,615,608,581,535,536,535,537,560,546,545,547,544,565,544,540,543,540,539,548,541,538,546,539,538,545,543,562,543,542,542,144,145,145,146,146,151,209,233,257,281,297,292,287,282,278,273,268,264,259,254,249,245,240,235,231,226,221,216,212,206,202,198,193,188,150,147,147,147,138,140,135,141,168,152,144,170,144,165,150,165,148,142,144,149,147,144,168,150,144,153,147,168,150,149,146,333,333,334,335,337,428,499,557,720,777,679,668,769,646,635,730,717,705,592,581,570,655,642,537,526,603,591,495,600,387,378,559,360,351,342,478,485,479,381,383,387,393,391,420,394,450,396,390,436,393,388,393,393,428,391,390,396,394,394,391,393,417,387,417,388,803,791,803,816,834,1040,1261,1352,1528,1569,1594,1521,1548,1522,1499,1470,1448,1419,1388,1331,1333,1318,1283,1246,1223,1210,1197,1168,1144,1063,982,853,831,838,819,811,793,765,719,717,719,721,744,730,729,731,728,749,728,724,727,724,723,732,725,722,730,723,722,729,727,746,727,726,726,760,751,764,774,786,913,1185,1272,1444,1489,1508,1445,1477,1449,1427,1398,1371,1350,1323,1265,1269,1261,1221,1179,1160,1151,1080,1050,1006,925,890,811,791,797,781,774,741,731,669,668,672,687,710,691,685,689,687,715,694,690,693,690,689,698,690,688,696,689,688,692,689,701,689,687,687,476,477,478,479,480,551,699,788,870,949,961,946,930,910,899,884,869,852,838,822,808,792,776,753,745,730,716,700,685,635,600,586,562,497,490,482,484,447,397,398,397,399,422,408,407,409,406,427,406,402,405,402,401,410,403,400,408,401,400,407,405,424,405,404,404,675,676,679,682,707,900,1058,1169,1295,1349,1350,1329,1307,1287,1265,1244,1222,1201,1190,1158,1136,1112,1103,1072,1050,1028,1043,985,964,900,843,824,719,701,689,706,708,710,684,682,688,699,696,702,688,699,712,694,696,697,692,697,697,711,704,710,695,701,698,702,713,724,715,715,715,887,874,876,865,951,1219,1446,1589,1681,1752,1763,1724,1645,1687,1662,1566,1544,1512,1484,1465,1493,1423,1420,1347,1385,1314,1325,1220,1215,1178,1011,941,919,922,879,860,863,815,808,823,815,834,811,830,817,832,826,834,830,843,842,841,839,837,833,832,832,832,827,832,832,832,832,832,832,346,348,350,352,367,403,514,564,622,680,709,697,685,674,663,652,641,629,618,608,594,585,574,562,551,547,537,517,513,501,432,426,412,386,371,372,373,374,287,288,287,289,312,298,297,299,296,317,296,292,295,292,291,300,293,290,298,291,290,297,295,314,295,294,294,0,0,0,0,0,0,0,0,0,0,0,0,0,0,0,0,0,0,0,0,0,0,0,0,0,0,0,0,0,0,0,0,0,0,0,0,0,0,0,0,0,0,0,0,0,0,0,0,0,0,0,0,0,0,0,0,0,0,0,0,0,0,0,0,0,548,549,529,531,557,694,833,927,1008,1096,1108,1087,1028,1055,1038,980,960,942,926,912,931,878,904,841,869,807,829,773,787,770,707,681,563,617,537,533,535,516,506,519,508,528,508,525,513,527,519,527,522,514,528,520,526,530,529,526,526,526,523,526,526,526,526,526,526,0,0,0,0,0,0,0,0,0,0,0,0,0,0,0,0,0,0,0,0,0,0,0,0,0,0,0,0,0,0,0,0,0,0,0,0,0,0,0,0,0,0,0,0,0,0,0,0,0,0,0,0,0,0,0,0,0,0,0,0,0,0,0,0,0,509,536,531,529,579,680,789,919,973,1051,1065,1010,1027,1047,980,959,955,917,893,876,860,860,859,836,810,792,789,794,773,715,704,730,542,548,549,531,549,534,520,518,530,541,534,520,521,538,524,525,530,530,527,535,539,540,541,545,530,536,540,554,538,540,542,542,540,343,344,345,346,348,442,517,576,635,689,700,689,678,666,655,644,633,622,610,598,588,587,564,553,544,532,530,508,498,488,477,465,454,443,353,349,351,351,334,321,325,327,329,335,326,334,329,330,335,337,332,339,338,366,337,345,332,336,333,340,352,341,347,354,349,365,366,367,369,369,399,552,615,678,734,743,731,720,708,695,684,673,660,648,636,624,643,600,588,577,565,581,540,530,488,477,405,395,385,375,371,372,373,362,343,348,349,357,361,350,361,351,351,360,361,355,359,363,424,368,371,357,365,362,365,384,372,374,372,367,456,461,458,466,462,597,685,767,844,913,918,906,892,886,862,848,832,821,804,789,776,760,745,731,716,701,687,672,657,643,628,614,490,478,467,463,465,466,435,425,440,437,437,451,437,451,442,439,452,444,449,449,450,455,449,449,445,450,444,442,449,452,448,463,452,433,437,436,442,441,550,664,735,811,864,912,858,857,840,833,816,801,796,761,748,733,732,722,693,678,665,662,647,624,610,610,583,466,454,443,440,441,441,425,417,420,422,419,428,423,449,426,426,446,421,423,424,423,426,429,427,425,426,425,425,424,427,427,432,429,672,676,683,686,688,805,995,1144,1269,1325,1324,1319,1293,1276,1249,1217,1211,1175,1149,1134,1107,1102,1074,1050,1033,1008,987,992,971,938,927,849,759,704,698,688,690,676,659,655,655,654,660,663,663,661,658,667,666,658,662,661,665,664,668,665,667,664,667,666,665,666,669,670,661,359,360,378,361,377,394,524,569,544,598,595,588,618,573,565,557,551,543,599,590,576,574,566,557,549,540,532,522,513,504,495,485,352,393,383,378,379,375,332,335,333,334,343,351,343,355,344,349,349,344,346,342,347,350,350,346,348,342,344,346,350,351,348,352,352,582,586,600,602,591,658,862,986,1100,1161,1149,1161,1099,1122,1076,1055,1051,1011,1001,985,957,959,929,913,889,876,849,883,852,845,811,729,689,634,619,605,607,596,566,563,566,570,570,578,565,574,565,569,567,567,572,575,574,583,578,574,569,576,574,582,574,577,571,584,572,563,568,566,576,571,753,869,971,1068,1136,1162,1120,1102,1098,1065,1047,1029,1010,993,974,955,938,919,902,883,865,847,828,810,792,774,727,683,617,576,573,573,566,521,518,529,537,548,552,531,546,541,546,549,548,553,551,549,555,542,541,554,563,547,542,543,566,543,550,542,466,467,468,470,471,537,705,792,870,938,945,928,914,898,885,869,853,840,831,809,801,779,762,766,733,718,702,688,672,657,566,554,543,514,483,472,474,473,413,417,419,425,424,429,418,423,417,431,423,419,425,426,432,427,431,428,423,418,427,424,428,427,422,426,417,548,561,559,567,574,728,862,957,1056,1113,1146,1100,1086,1074,1050,1029,1009,994,974,958,932,930,908,885,871,854,831,815,799,768,762,742,627,578,569,562,567,556,540,535,544,560,559,559,539,564,554,543,558,547,539,539,538,541,546,542,540,542,543,543,540,544,551,547,544,871,877,878,892,904,1136,1399,1630,1730,1805,1789,1796,1708,1697,1678,1618,1632,1568,1528,1508,1488,1469,1421,1400,1381,1331,1303,1302,1249,1177,981,985,981,981,914,886,890,900,892,886,891,902,901,900,903,909,895,897,892,900,900,918,905,908,902,908,904,903,899,918,904,920,897,903,901,666,667,669,671,674,810,1049,1171,1282,1342,1342,1315,1301,1282,1258,1237,1213,1181,1179,1150,1136,1106,1083,1080,1041,1019,998,976,954,933,836,772,720,695,683,676,678,668,603,605,620,646,615,617,611,613,607,620,615,608,618,618,625,623,625,621,615,612,621,617,619,615,613,618,610,627,628,630,632,634,681,978,1093,1199,1261,1263,1237,1224,1209,1184,1164,1143,1112,1109,1082,1068,1042,1021,1019,981,960,941,921,899,879,787,693,679,667,642,635,639,616,550,553,566,592,561,565,557,562,553,568,563,556,564,564,570,570,570,565,561,555,564,561,563,563,560,564,556,537,539,544,543,553,683,823,921,1021,1081,1085,1070,1057,1036,1015,993,980,965,969,930,920,896,876,876,842,825,807,775,757,740,710,635,615,596,550,547,549,521,493,490,502,503,497,506,500,511,505,502,514,507,508,510,509,509,505,506,506,509,504,501,506,509,501,514,509,1128,1103,1112,1152,1239,1592,1927,2026,2131,2164,2184,2138,2126,2070,2064,2010,1967,1963,1884,1869,1870,1800,1794,1763,1668,1659,1608,1518,1455,1231,1228,1199,1178,1157,1142,1143,1139,1148,1137,1137,1139,1144,1139,1155,1145,1142,1140,1142,1140,1141,1143,1144,1147,1142,1147,1148,1147,1145,1150,1156,1151,1163,1151,1155,1152,427,429,424,432,421,553,611,698,777,818,853,818,820,817,797,795,784,761,748,704,699,673,702,683,646,656,623,630,597,580,569,549,525,480,440,428,437,438,390,394,389,392,418,396,395,420,393,396,395,395,393,392,393,396,396,393,398,392,392,396,393,423,394,396,393,483,489,486,494,490,647,733,818,900,971,1000,961,946,939,914,898,883,867,852,837,821,806,790,775,759,743,728,712,697,682,666,651,598,584,495,492,492,495,462,455,471,495,467,477,460,474,468,467,469,468,463,472,472,477,474,477,469,477,467,469,471,469,469,476,469,647,648,652,657,657,762,949,1090,1212,1270,1270,1267,1241,1224,1199,1167,1162,1127,1101,1087,1061,1046,1029,1018,990,965,958,950,931,834,888,775,748,675,714,658,662,651,638,621,619,619,632,638,631,630,624,636,637,633,631,633,635,637,638,637,636,635,633,641,634,639,637,638,629,0,0,0,0,0,0,0,0,0,0,0,0,0,0,0,0,0,0,0,0,0,0,0,0,0,0,0,0,0,0,0,0,0,0,0,0,0,0,0,0,0,0,0,0,0,0,0,0,0,0,0,0,0,0,0,0,0,0,0,0,0,0,0,0,0 ]);
