n = 20;
D = [280,286,239,83,173,156,284,179,93,269,100,60,106,238,92,69,226,256,144,134 ];
q = 0;
prec = array2d(1..0,1..2,[]);
steps = 64;
l = 360;
r = 0;
which = [];
interval = array2d(1..0,1..2,[]);
T = array3d(1..21,1..21,0..64,[0,0,0,0,0,0,0,0,0,0,0,0,0,0,0,0,0,0,0,0,0,0,0,0,0,0,0,0,0,0,0,0,0,0,0,0,0,0,0,0,0,0,0,0,0,0,0,0,0,0,0,0,0,0,0,0,0,0,0,0,0,0,0,0,0,381,382,383,425,429,452,675,744,811,862,871,859,846,834,822,808,796,808,771,759,747,734,722,710,712,699,730,666,654,642,630,618,583,439,430,369,370,362,364,364,363,370,369,380,370,374,373,369,380,374,371,373,375,384,377,377,371,376,371,376,380,378,376,388,382,654,656,686,664,747,908,1276,1391,1512,1577,1593,1552,1529,1503,1497,1469,1446,1407,1396,1371,1332,1305,1298,1272,1248,1214,1197,1172,1122,1025,820,801,767,677,671,650,668,622,613,624,626,625,619,617,632,629,628,628,629,623,630,624,639,631,647,632,640,630,633,632,633,629,621,634,621,402,411,397,398,402,420,703,774,850,898,907,894,880,867,854,842,829,856,802,789,776,764,753,738,754,727,705,693,679,666,634,621,601,411,403,384,399,362,364,365,363,370,401,396,397,396,378,401,394,392,395,373,375,395,382,377,398,377,371,394,386,399,399,399,382,775,806,791,820,844,1196,1584,1743,1772,1816,1800,1788,1821,1735,1825,1657,1657,1630,1660,1563,1551,1531,1485,1472,1425,1480,1394,1270,1184,968,883,841,824,809,820,796,800,822,803,799,805,797,799,829,810,817,817,811,829,816,817,820,815,841,817,820,814,829,816,822,821,826,813,825,824,1297,1294,1309,1366,1709,2357,2777,2930,3024,3070,3000,2962,2930,2897,2859,2816,2753,2676,2649,2602,2445,2460,2278,2272,2015,1993,1794,1605,1500,1430,1417,1352,1351,1330,1324,1274,1302,1256,1248,1265,1270,1268,1263,1267,1268,1277,1274,1276,1277,1272,1283,1272,1292,1286,1293,1289,1286,1278,1286,1281,1287,1282,1268,1280,1267,849,849,872,863,1008,1412,1709,1876,1976,2041,2023,1980,1952,1909,1894,1873,1843,1799,1788,1747,1715,1667,1646,1620,1595,1567,1521,1332,1183,1120,962,985,952,880,866,852,857,833,808,827,819,828,831,828,838,827,839,844,832,830,835,841,837,836,844,837,833,835,832,837,834,833,848,844,839,867,862,893,883,932,1362,1711,1905,2016,2065,2050,2008,1976,1944,1930,1894,1863,1818,1798,1765,1732,1700,1667,1640,1615,1583,1491,1414,1295,1258,936,948,927,884,888,858,848,827,809,811,818,823,827,833,834,827,826,832,839,831,826,831,835,828,833,837,829,834,832,839,838,840,842,840,835,696,698,715,704,792,1109,1339,1496,1613,1676,1666,1629,1604,1579,1570,1541,1515,1475,1463,1437,1410,1383,1357,1336,1311,1291,1252,1226,1195,1143,878,860,748,719,709,692,699,673,656,658,659,662,677,675,679,668,672,678,679,671,670,679,683,680,682,685,679,676,684,684,679,679,687,683,678,1307,1314,1345,1402,1857,2399,2808,3009,3056,3093,3074,3028,2975,2911,2893,2811,2779,2735,2700,2633,2430,2193,2172,2129,1984,1939,1803,1536,1524,1456,1440,1396,1391,1350,1329,1308,1319,1314,1300,1305,1302,1312,1322,1319,1323,1310,1319,1314,1320,1311,1307,1315,1318,1314,1322,1323,1316,1315,1313,1319,1317,1323,1323,1324,1319,640,646,659,651,669,874,1198,1311,1430,1500,1503,1460,1437,1416,1411,1386,1370,1329,1319,1298,1271,1253,1229,1210,1194,1174,1136,1114,1065,925,705,770,743,660,657,637,645,615,599,592,593,597,615,617,611,598,605,615,611,608,610,615,619,612,600,615,615,614,616,617,615,619,622,611,606,87,87,87,132,132,134,152,170,187,205,218,214,211,207,205,201,198,194,190,187,183,180,176,174,170,166,163,159,156,152,148,145,142,139,135,132,133,133,76,75,76,76,75,77,76,80,78,76,80,76,77,76,76,78,76,77,76,76,76,76,77,77,76,80,77,943,963,949,992,1032,1701,1961,2126,2150,2188,2181,2146,2174,2083,2167,2017,1985,1953,1978,1994,1857,1927,1794,1761,1733,1673,1560,1510,1241,1103,1024,1003,982,967,980,956,953,974,961,958,957,985,961,978,964,980,976,975,979,975,977,978,977,980,983,985,982,983,995,974,983,972,987,971,966,1196,1195,1221,1260,1599,2094,2520,2699,2796,2832,2800,2753,2707,2664,2636,2584,2558,2487,2456,2410,2365,2320,2275,2169,1956,1811,1668,1593,1415,1312,1300,1281,1264,1226,1212,1199,1191,1179,1162,1168,1169,1180,1184,1182,1185,1176,1181,1179,1187,1177,1169,1177,1180,1178,1184,1185,1180,1177,1178,1181,1179,1188,1190,1189,1184,784,787,803,795,866,1288,1547,1727,1827,1873,1858,1818,1808,1761,1750,1736,1694,1648,1644,1607,1577,1548,1515,1497,1468,1443,1400,1386,1312,1173,864,915,852,813,796,780,789,768,748,758,770,767,775,773,784,771,766,777,771,767,775,777,780,776,778,780,778,771,770,775,779,781,783,782,776,794,775,760,785,804,1240,1508,1661,1693,1740,1723,1713,1748,1663,1753,1665,1588,1563,1596,1513,1489,1464,1438,1413,1465,1424,1339,1309,1126,1023,826,809,792,778,789,765,787,809,792,786,792,784,786,816,797,804,809,798,816,803,804,807,802,828,804,807,801,816,803,809,808,813,800,812,813,1360,1358,1367,1418,1839,2512,2933,3080,3168,3214,3140,3099,3045,3033,2991,2945,2879,2801,2772,2455,2228,2248,2180,2117,1867,1878,1628,1615,1604,1526,1503,1416,1415,1394,1389,1329,1353,1308,1300,1325,1329,1320,1315,1319,1320,1336,1330,1337,1338,1331,1337,1334,1348,1339,1344,1340,1343,1333,1337,1339,1342,1334,1324,1336,1323,247,240,241,249,274,391,448,500,553,602,616,607,579,598,561,552,558,544,537,528,518,508,499,489,480,476,457,438,443,430,421,411,398,360,342,275,275,276,219,215,218,220,223,220,222,224,221,221,224,228,227,225,225,222,226,221,221,225,226,219,221,222,225,227,222,961,981,966,1010,1035,1447,1932,2093,2119,2160,2153,2123,2153,2063,2147,2052,1973,1942,1969,1884,1852,1826,1796,1766,1736,1707,1677,1456,1196,1058,1039,1019,999,984,1004,972,978,1020,986,971,979,977,977,990,979,988,982,992,1012,998,1027,1025,1023,1015,1004,999,1001,1005,999,1014,1004,1006,1007,1028,1001,414,416,431,420,423,548,770,843,929,1003,991,960,968,931,933,946,901,901,874,856,878,828,811,783,769,776,742,728,700,697,681,654,500,480,423,399,412,406,395,399,402,405,410,411,411,400,404,412,405,399,401,404,408,404,407,413,406,403,406,407,407,411,409,412,403,0,0,0,0,0,0,0,0,0,0,0,0,0,0,0,0,0,0,0,0,0,0,0,0,0,0,0,0,0,0,0,0,0,0,0,0,0,0,0,0,0,0,0,0,0,0,0,0,0,0,0,0,0,0,0,0,0,0,0,0,0,0,0,0,0,275,276,276,259,278,440,504,550,595,640,652,644,637,626,620,621,613,546,580,572,562,554,550,551,528,517,506,496,507,487,465,338,445,326,332,276,260,353,273,273,273,272,273,272,284,276,273,277,273,276,284,276,278,276,290,278,276,278,277,276,285,285,277,277,278,0,0,0,0,0,0,0,0,0,0,0,0,0,0,0,0,0,0,0,0,0,0,0,0,0,0,0,0,0,0,0,0,0,0,0,0,0,0,0,0,0,0,0,0,0,0,0,0,0,0,0,0,0,0,0,0,0,0,0,0,0,0,0,0,0,421,404,423,424,426,568,760,882,937,1037,1043,984,1011,963,977,954,942,889,910,894,876,824,844,824,811,794,778,760,743,694,617,568,582,484,428,427,428,428,402,399,397,403,404,408,400,408,396,411,403,403,400,405,413,411,409,408,408,407,412,409,406,409,400,404,401,79,79,79,79,120,121,138,154,171,186,202,199,195,191,189,183,181,177,174,171,168,164,160,158,154,151,148,145,141,139,135,132,129,126,122,120,120,121,37,38,37,38,37,37,36,38,39,36,39,37,37,36,38,38,39,37,39,37,38,37,39,38,36,35,35,664,696,665,668,676,937,1273,1414,1547,1628,1641,1615,1582,1555,1528,1504,1487,1452,1424,1390,1373,1347,1316,1286,1267,1240,1214,1180,1057,922,900,791,733,688,677,675,676,618,597,599,601,607,610,597,608,598,609,602,597,601,602,609,609,608,603,604,599,605,608,608,607,621,606,612,609,1036,1047,1054,1076,1112,1618,2214,2419,2498,2541,2524,2452,2458,2393,2345,2331,2252,2189,2164,2150,2132,2079,2016,1980,1964,1921,1794,1616,1378,1273,1137,1124,1117,1067,1076,1040,1052,1036,1029,1026,1033,1045,1037,1046,1034,1033,1039,1050,1039,1039,1044,1045,1044,1054,1049,1054,1054,1048,1050,1051,1051,1052,1054,1050,1049,601,596,597,599,617,799,1145,1268,1388,1486,1484,1449,1456,1400,1393,1356,1358,1309,1273,1263,1238,1216,1199,1168,1149,1131,1102,1084,968,892,825,715,685,630,613,611,613,600,572,590,578,585,584,584,581,591,595,597,587,593,598,601,593,596,600,585,592,595,589,594,594,591,591,591,591,621,615,612,619,647,754,1153,1298,1435,1496,1516,1476,1480,1429,1404,1392,1385,1331,1320,1281,1270,1235,1212,1199,1165,1151,1118,1092,976,945,939,741,713,691,626,618,620,589,574,574,578,579,581,580,582,586,586,584,592,591,589,590,591,593,588,590,589,591,590,596,598,594,594,594,594,444,446,448,448,450,591,820,912,1009,1087,1106,1088,1091,1052,1035,1017,999,981,964,946,928,910,894,876,858,840,823,805,787,769,752,631,477,527,455,452,453,454,420,420,419,419,429,431,427,430,428,435,432,429,433,439,440,441,440,435,439,433,445,441,439,440,434,440,434,1056,1050,1062,1079,1226,1808,2202,2390,2558,2561,2565,2494,2487,2457,2376,2359,2331,2234,2237,2173,2149,2109,2034,2029,1989,1938,1582,1437,1419,1298,1163,1152,1112,1113,1074,1072,1070,1073,1065,1064,1066,1066,1074,1075,1070,1075,1076,1071,1071,1075,1070,1075,1072,1071,1077,1077,1075,1072,1073,1076,1077,1077,1077,1077,1077,343,340,344,345,348,428,582,650,708,788,809,772,788,778,769,729,717,737,728,689,708,697,652,644,633,618,608,597,584,562,541,487,526,430,352,348,349,350,295,297,295,298,299,299,296,300,300,300,301,300,302,307,305,317,308,302,304,303,301,308,306,309,307,306,306,316,324,363,347,410,437,625,688,730,754,835,835,782,810,766,711,712,688,742,718,719,696,713,647,662,635,623,613,561,546,546,333,494,323,327,408,349,382,319,312,315,317,315,328,316,325,329,318,325,317,316,319,318,322,319,319,318,324,317,318,321,318,318,323,320,901,934,907,911,948,1404,1833,1999,2130,2190,2202,2172,2118,2083,2046,2015,1988,1941,1906,1873,1840,1804,1769,1733,1701,1661,1472,1246,1226,1168,1000,976,988,928,917,916,915,883,834,838,844,856,856,853,850,853,851,868,855,857,858,859,855,866,858,858,864,857,861,857,863,875,857,863,860,940,945,947,954,1006,1578,1914,2120,2253,2286,2294,2232,2236,2174,2122,2110,2074,2018,2002,1946,1910,1874,1841,1815,1768,1746,1426,1230,1167,1057,1032,1038,985,991,957,960,957,945,926,931,928,937,937,937,932,939,938,933,933,937,932,937,934,933,939,939,939,934,935,938,939,942,942,942,941,533,535,536,536,544,730,1019,1106,1216,1321,1325,1293,1295,1253,1240,1200,1205,1159,1140,1119,1098,1078,1064,1045,1022,1018,990,973,948,877,862,694,652,641,544,541,543,535,512,521,529,524,528,529,527,535,522,530,526,530,538,538,538,537,536,528,537,531,527,532,539,535,535,535,528,634,665,635,637,644,878,1203,1336,1468,1549,1564,1540,1507,1482,1456,1432,1417,1385,1358,1326,1309,1284,1255,1227,1209,1184,1153,1126,1101,1008,867,740,677,657,646,644,645,605,584,586,588,594,597,584,595,585,596,589,584,588,589,596,596,595,590,591,586,592,595,595,594,608,593,599,596,1099,1110,1099,1129,1194,1763,2373,2549,2648,2677,2665,2595,2589,2530,2481,2444,2381,2306,2288,2275,2237,2197,2134,2089,1916,1717,1641,1433,1438,1321,1203,1188,1183,1131,1140,1104,1107,1087,1081,1078,1093,1104,1089,1098,1086,1085,1099,1104,1102,1100,1100,1100,1105,1108,1103,1105,1105,1105,1103,1102,1109,1107,1106,1106,1105,294,260,260,261,262,420,488,525,607,604,696,639,597,624,582,625,579,572,588,589,567,561,544,512,514,507,477,468,458,458,457,428,420,370,266,264,264,264,239,240,242,241,242,242,243,244,242,250,250,251,245,246,249,245,246,249,246,249,246,246,246,246,246,249,248,894,920,908,896,936,1358,1733,1912,2027,2101,2118,2085,2038,2009,1974,1942,1921,1884,1848,1821,1793,1759,1724,1698,1666,1634,1603,1441,1345,1283,1130,966,932,928,917,916,917,874,859,856,862,867,873,862,881,865,869,877,858,863,861,903,881,905,866,865,863,868,866,866,865,880,864,870,867,146,144,146,147,144,148,247,242,249,255,261,260,259,258,256,255,254,253,252,250,249,247,246,244,243,242,241,254,249,244,195,193,154,166,155,160,163,150,110,111,111,110,110,112,109,112,112,114,113,111,110,110,112,112,114,112,114,110,111,109,112,111,110,109,109,275,276,276,259,278,440,504,550,595,640,652,644,637,626,620,621,613,546,580,572,562,554,550,551,528,517,506,496,507,487,465,338,445,326,332,276,260,353,273,273,273,272,273,272,284,276,273,277,273,276,284,276,278,276,290,278,276,278,277,276,285,285,277,277,278,604,606,609,592,617,715,1086,1253,1381,1437,1436,1437,1414,1370,1330,1342,1333,1263,1292,1252,1197,1206,1153,1167,1164,1129,1106,995,897,801,783,713,677,656,599,592,593,595,582,587,588,604,604,606,606,608,603,612,606,596,605,598,602,603,607,600,613,603,605,603,611,610,606,611,604,388,377,380,380,398,491,711,775,853,916,942,909,911,898,878,873,854,845,786,772,802,789,760,732,718,702,718,704,669,651,614,493,482,430,387,384,391,361,331,325,328,340,336,333,334,338,333,339,341,343,346,346,346,349,335,335,340,343,333,330,338,337,333,338,331,0,0,0,0,0,0,0,0,0,0,0,0,0,0,0,0,0,0,0,0,0,0,0,0,0,0,0,0,0,0,0,0,0,0,0,0,0,0,0,0,0,0,0,0,0,0,0,0,0,0,0,0,0,0,0,0,0,0,0,0,0,0,0,0,0,369,358,372,361,379,459,675,732,821,870,902,865,867,866,851,838,814,805,747,734,767,753,741,696,682,668,687,673,637,642,597,463,452,411,381,380,396,361,331,325,328,340,336,333,334,338,333,339,341,343,346,346,346,349,335,335,340,343,333,330,338,337,333,338,331,871,867,867,872,889,1540,1899,2094,2253,2257,2260,2213,2175,2133,2087,2053,2021,1983,1933,1894,1872,1825,1785,1742,1703,1663,1605,1569,1412,1214,1088,940,917,895,887,880,851,859,853,852,854,863,857,866,858,867,859,861,856,862,857,875,867,872,867,879,873,870,870,873,872,886,871,880,869,748,740,741,749,782,1089,1419,1645,1750,1832,1814,1793,1763,1713,1697,1590,1595,1617,1568,1478,1509,1499,1428,1439,1415,1384,1357,1330,1206,1018,876,841,835,784,762,761,766,748,717,712,717,718,717,724,727,718,721,732,732,723,726,732,728,727,732,728,733,737,727,730,733,728,733,729,728,320,354,328,330,331,478,600,674,745,802,838,800,787,774,760,748,735,722,728,722,684,670,675,640,651,615,586,574,561,566,536,528,446,437,412,329,330,332,323,328,329,332,328,330,327,332,330,328,329,327,327,330,330,332,331,333,330,332,334,334,330,339,329,333,332,301,320,304,322,305,465,556,620,686,744,754,742,730,718,706,694,682,670,714,701,651,674,662,650,586,572,561,549,538,567,513,394,385,362,309,305,306,307,281,281,281,281,281,283,283,295,285,286,281,284,283,306,286,287,288,296,283,285,283,284,284,284,280,284,282,362,357,358,359,361,390,669,753,838,885,898,879,870,855,836,822,819,805,780,765,771,748,735,721,706,693,661,646,631,618,531,393,388,378,367,364,364,365,359,364,367,373,384,352,376,378,370,371,378,378,374,388,404,406,371,356,373,375,375,375,360,379,374,366,365,731,728,747,743,750,1018,1465,1646,1755,1815,1789,1766,1720,1731,1715,1649,1619,1608,1552,1539,1521,1494,1485,1412,1410,1364,1317,1303,1301,1122,828,816,800,785,776,752,755,737,734,716,720,727,721,727,726,729,728,727,727,724,730,727,723,729,729,725,724,727,730,734,727,740,732,755,731,397,392,394,400,403,499,721,802,886,932,946,927,919,904,885,871,868,865,829,814,822,799,786,784,758,756,712,698,694,575,575,507,542,489,403,404,427,405,389,385,388,386,393,394,387,393,393,396,396,400,400,396,398,400,400,394,389,401,396,396,396,400,400,398,390,605,609,609,612,636,806,1111,1239,1399,1442,1452,1444,1420,1423,1363,1351,1329,1316,1269,1269,1236,1212,1180,1165,1145,1112,1080,988,1045,886,789,776,718,667,624,616,618,620,576,581,584,604,605,601,588,605,591,600,598,594,603,591,596,611,605,601,608,598,595,611,613,634,619,627,619,1241,1241,1248,1286,1428,2181,2633,2787,2923,2966,2948,2900,2854,2829,2777,2736,2680,2636,2593,2551,2501,2472,2422,2347,2192,1832,1794,1628,1440,1392,1378,1324,1301,1277,1266,1252,1230,1195,1172,1170,1171,1184,1180,1177,1177,1185,1179,1183,1188,1189,1192,1187,1191,1195,1181,1183,1183,1186,1176,1175,1180,1178,1174,1179,1172,610,622,623,620,628,814,1188,1337,1452,1510,1515,1479,1455,1446,1419,1395,1369,1348,1312,1288,1275,1251,1227,1179,1188,1150,1128,1107,1082,897,835,737,681,644,633,628,631,624,593,592,589,607,593,595,593,599,593,598,598,602,606,602,598,599,600,596,598,602,604,602,601,607,604,623,600,290,322,292,293,294,423,525,590,651,705,742,706,724,684,672,685,650,662,621,643,604,594,577,595,579,544,537,526,511,500,493,464,439,374,327,292,293,294,290,292,286,288,295,298,315,323,295,296,301,304,301,292,295,302,296,296,298,297,292,294,291,297,297,300,288,840,836,836,841,854,1473,1818,2015,2177,2181,2185,2140,2104,2064,2019,1985,1953,1918,1868,1831,1810,1765,1726,1684,1648,1609,1551,1516,1354,1215,1050,908,886,864,856,849,838,846,840,839,841,850,844,853,845,854,846,848,843,849,844,862,854,859,854,866,860,857,857,860,859,874,858,867,856,790,786,804,812,856,1215,1576,1778,1904,1989,1953,1898,1907,1840,1837,1727,1708,1724,1697,1604,1634,1603,1547,1540,1508,1476,1196,1155,1201,1041,986,861,858,823,814,810,821,799,768,764,769,778,772,776,779,770,781,788,785,784,785,786,786,783,788,786,784,788,782,787,784,785,785,785,784,634,632,627,620,641,697,1160,1337,1417,1533,1498,1490,1482,1452,1410,1417,1364,1340,1353,1298,1291,1266,1224,1218,1176,1179,1138,1105,949,887,889,734,690,658,632,629,627,600,570,564,567,579,575,572,573,577,572,578,580,582,585,585,585,588,574,574,579,582,572,569,577,576,572,577,570,1047,1043,1034,1045,1190,1969,2410,2633,2753,2735,2739,2685,2636,2585,2528,2477,2422,2387,2330,2287,2254,2197,2146,2095,2049,2000,1854,1596,1571,1343,1293,1101,1104,1048,1040,1056,1049,1051,1055,1057,1051,1073,1061,1073,1066,1083,1076,1064,1061,1073,1069,1067,1066,1066,1073,1074,1073,1072,1065,1070,1073,1116,1090,1097,1077,322,297,298,295,296,383,557,622,664,724,736,730,718,709,698,687,678,667,638,626,614,602,591,590,577,566,544,532,520,519,507,324,316,308,335,296,308,298,283,279,284,282,280,289,282,290,288,283,288,280,284,285,284,289,285,283,283,290,285,285,285,286,282,289,289,604,606,609,592,617,715,1086,1253,1381,1437,1436,1437,1414,1370,1330,1342,1333,1263,1292,1252,1197,1206,1153,1167,1164,1129,1106,995,897,801,783,713,677,656,599,592,593,595,582,587,588,604,604,606,606,608,603,612,606,596,605,598,602,603,607,600,613,603,605,603,611,610,606,611,604,301,302,292,286,305,394,536,586,634,689,698,690,682,670,661,651,652,588,620,612,558,548,588,572,562,547,540,529,534,519,418,369,475,303,360,292,287,296,273,273,273,273,273,273,273,273,273,273,273,273,273,273,273,273,273,273,273,273,273,273,273,273,273,273,273,27,27,27,27,27,27,32,36,39,43,46,46,45,44,44,43,42,42,40,40,39,38,38,37,36,36,34,33,33,32,32,31,30,30,28,27,27,27,0,0,0,0,0,0,0,0,0,0,0,0,0,0,0,0,0,0,0,0,0,0,0,0,0,0,0,400,401,400,403,405,532,732,829,907,967,967,958,944,922,912,898,882,868,816,837,822,772,789,777,759,747,702,716,701,653,639,599,487,416,416,388,406,415,377,374,374,378,377,382,375,383,373,383,376,375,379,382,387,387,388,384,384,378,389,389,385,386,379,387,381,0,0,0,0,0,0,0,0,0,0,0,0,0,0,0,0,0,0,0,0,0,0,0,0,0,0,0,0,0,0,0,0,0,0,0,0,0,0,0,0,0,0,0,0,0,0,0,0,0,0,0,0,0,0,0,0,0,0,0,0,0,0,0,0,0,675,680,682,681,690,959,1298,1442,1586,1660,1655,1628,1612,1585,1559,1531,1506,1471,1453,1426,1410,1371,1345,1319,1291,1264,1238,1203,1057,945,923,822,739,704,692,685,690,632,597,597,597,597,597,597,597,597,597,597,597,597,597,597,597,597,597,597,597,597,597,597,597,597,597,597,597,1011,1018,1025,1054,1090,1582,2140,2371,2395,2445,2476,2389,2388,2332,2287,2266,2233,2163,2147,2085,2046,2026,1967,1953,1917,1856,1790,1580,1303,1134,1169,1093,1073,1060,1063,1020,1048,1037,1010,1010,1012,1018,1020,1026,1020,1014,1020,1030,1023,1019,1026,1027,1024,1030,1030,1037,1034,1026,1031,1033,1028,1031,1033,1030,1027,579,577,576,584,598,797,1102,1218,1329,1420,1414,1383,1373,1336,1322,1295,1263,1277,1227,1215,1185,1168,1159,1117,1098,1081,1061,1032,968,851,691,687,661,600,592,587,588,592,552,570,555,564,562,563,563,572,572,572,569,572,572,572,572,572,572,567,572,572,562,572,572,572,572,572,572,595,595,591,605,623,781,1111,1248,1376,1429,1446,1410,1397,1364,1342,1320,1297,1284,1262,1228,1207,1184,1182,1141,1118,1104,1071,1049,968,905,885,715,651,624,599,607,600,580,554,555,557,559,560,565,564,568,570,564,571,571,571,569,571,573,568,570,568,570,571,571,571,571,571,571,571,424,425,427,428,431,598,778,862,950,1025,1043,1020,1012,988,972,956,939,924,907,891,876,859,862,826,811,794,781,762,746,729,714,592,507,502,433,430,432,432,403,401,398,399,410,414,410,416,406,415,411,409,413,417,418,410,418,415,419,414,418,418,417,416,416,416,416,1036,1053,1041,1057,1204,1778,2160,2340,2467,2511,2495,2466,2414,2393,2331,2275,2257,2219,2179,2142,2083,2043,2030,1973,1942,1931,1616,1470,1399,1303,1118,1169,1104,1061,1052,1051,1048,1046,1045,1045,1043,1046,1053,1055,1052,1054,1056,1054,1045,1050,1047,1052,1054,1049,1058,1057,1055,1053,1056,1055,1051,1051,1051,1051,1051,319,320,321,322,324,392,541,604,657,723,750,716,705,723,686,706,666,686,676,638,660,649,609,598,587,574,563,555,544,522,467,461,431,459,328,320,325,326,266,267,267,269,271,271,269,271,270,273,271,272,274,280,276,287,276,271,271,271,271,271,271,271,271,271,271,343,351,379,374,348,424,657,724,769,797,824,840,827,844,810,754,754,730,777,731,692,681,694,684,684,671,657,646,594,578,450,364,519,353,355,368,376,394,319,319,319,319,319,319,319,319,319,319,319,319,319,319,319,319,319,319,319,319,319,319,319,319,319,319,319,915,917,920,925,962,1426,1858,2027,2158,2224,2210,2185,2146,2109,2076,2038,2003,1968,1934,1897,1873,1828,1798,1756,1722,1673,1472,1277,1259,1029,1032,990,959,944,931,928,921,897,834,834,834,834,834,834,834,834,834,834,834,834,834,834,834,834,834,834,834,834,834,834,834,834,834,834,834,920,924,926,932,1000,1542,1872,2070,2190,2222,2224,2170,2153,2118,2064,2032,1998,1974,1944,1893,1860,1837,1813,1755,1727,1700,1426,1135,1111,1089,1008,985,963,996,940,934,936,924,909,912,905,917,918,917,915,916,918,916,912,917,915,917,916,915,920,919,919,915,918,917,913,913,913,913,913,513,515,515,514,525,706,957,1056,1157,1268,1255,1215,1222,1186,1177,1139,1120,1127,1090,1071,1062,1032,1024,988,975,955,934,932,912,792,776,709,616,594,523,520,523,533,492,501,506,503,506,508,509,512,507,512,508,512,512,512,512,512,512,510,512,510,500,512,512,512,512,512,507,644,649,652,650,658,899,1228,1364,1507,1582,1578,1553,1538,1513,1486,1459,1437,1404,1386,1359,1346,1309,1284,1258,1233,1208,1183,1149,1124,1008,890,771,707,673,660,653,659,619,584,584,584,584,584,584,584,584,584,584,584,584,584,584,584,584,584,584,584,584,584,584,584,584,584,584,584,1074,1081,1077,1107,1172,1727,2305,2489,2545,2601,2595,2533,2523,2469,2424,2398,2352,2292,2273,2210,2175,2144,2085,2059,1916,1717,1598,1405,1382,1244,1208,1161,1136,1124,1119,1084,1103,1088,1062,1062,1072,1077,1072,1078,1072,1066,1080,1084,1086,1080,1082,1082,1085,1084,1084,1088,1085,1083,1084,1084,1086,1086,1085,1086,1083,285,286,273,288,288,353,520,561,626,647,698,685,642,668,626,649,621,614,616,580,606,583,582,549,543,536,511,501,491,490,432,388,412,298,294,276,290,277,239,239,239,239,239,239,239,239,239,239,239,239,239,239,239,239,239,239,239,239,239,239,239,239,239,239,239,902,909,921,909,950,1380,1758,1940,2065,2136,2126,2098,2067,2034,2001,1970,1942,1904,1876,1845,1830,1785,1753,1714,1690,1658,1628,1441,1378,1193,1162,997,950,928,922,928,928,888,859,859,859,859,859,859,859,859,859,859,859,859,859,859,859,859,859,859,859,859,859,859,859,859,859,859,859,122,135,135,135,135,135,141,147,153,160,165,164,163,162,160,159,158,157,156,154,153,152,151,150,148,147,146,145,144,142,141,140,139,138,136,135,135,135,77,77,76,77,77,77,77,77,77,78,77,77,77,79,78,77,76,78,77,78,79,80,78,78,77,78,76,301,302,292,286,305,394,536,586,634,689,698,690,682,670,661,651,652,588,620,612,558,548,588,572,562,547,540,529,534,519,418,369,475,303,360,292,287,296,273,273,273,273,273,273,273,273,273,273,273,273,273,273,273,273,273,273,273,273,273,273,273,273,273,273,273,696,716,720,732,760,1178,1401,1560,1660,1711,1706,1678,1652,1624,1651,1569,1610,1555,1553,1460,1434,1406,1378,1389,1377,1297,1269,1278,1170,1052,773,839,737,720,746,706,708,719,725,729,719,724,727,725,733,748,727,747,745,729,724,736,743,749,746,738,752,737,736,746,748,741,736,732,731,639,640,678,646,676,1114,1275,1460,1527,1623,1572,1546,1521,1496,1502,1476,1460,1395,1370,1345,1347,1294,1269,1244,1219,1194,1194,1186,1118,1093,1044,739,714,696,685,663,650,642,640,638,638,641,650,643,651,654,647,658,656,655,656,650,644,651,654,659,649,652,643,649,647,658,667,669,645,940,937,947,945,1043,1786,2040,2232,2384,2421,2402,2358,2315,2273,2241,2187,2145,2118,2059,2016,2047,1940,1897,1855,1812,1772,1734,1627,1304,1185,1051,1023,1012,971,955,958,913,907,906,904,911,925,908,921,914,919,912,915,916,916,910,923,920,923,933,928,923,927,928,928,918,921,913,927,916,653,656,694,661,693,1141,1309,1497,1563,1658,1605,1596,1569,1530,1534,1507,1491,1425,1400,1375,1378,1323,1310,1272,1245,1220,1219,1193,1143,1117,1092,865,699,698,681,678,665,642,640,645,641,666,650,643,651,682,647,658,656,655,656,650,644,651,654,659,649,652,643,649,647,658,667,669,645,0,0,0,0,0,0,0,0,0,0,0,0,0,0,0,0,0,0,0,0,0,0,0,0,0,0,0,0,0,0,0,0,0,0,0,0,0,0,0,0,0,0,0,0,0,0,0,0,0,0,0,0,0,0,0,0,0,0,0,0,0,0,0,0,0,1263,1265,1322,1373,2327,2763,3178,3357,3501,3530,3484,3406,3367,3266,3221,3140,3062,3037,2936,2879,2797,2580,2299,2280,2097,2032,1986,1856,1610,1471,1417,1354,1320,1301,1302,1270,1280,1293,1307,1296,1302,1313,1313,1313,1313,1318,1317,1314,1320,1313,1315,1314,1313,1317,1313,1313,1314,1317,1313,1312,1314,1314,1313,1315,1311,787,808,828,803,846,1425,1652,1873,2031,2108,2068,2018,1982,1945,1926,1873,1851,1800,1778,1726,1751,1667,1617,1581,1562,1508,1472,1435,1399,1295,1002,922,835,832,800,818,804,806,811,813,822,832,819,831,819,831,822,827,828,828,829,827,826,829,835,830,829,834,829,832,829,838,832,835,832,811,833,849,830,873,1510,1712,1937,2092,2168,2114,2087,2035,2001,1980,1923,1888,1851,1828,1773,1798,1714,1664,1626,1606,1549,1514,1476,1438,1158,1005,959,857,869,823,830,828,828,832,837,840,846,847,847,854,852,849,847,849,850,852,848,848,853,857,853,854,857,851,855,852,861,859,858,848,732,735,744,744,783,1313,1523,1733,1891,1935,1923,1888,1854,1820,1785,1752,1717,1683,1648,1615,1639,1546,1512,1478,1443,1410,1375,1341,1306,1269,1072,925,829,758,746,752,748,752,742,743,745,745,752,744,751,752,752,758,757,758,760,772,760,763,775,762,767,768,765,763,768,769,780,779,772,1311,1329,1371,1427,1579,2707,2949,3136,3250,3308,3238,3180,3142,3085,3043,2970,2908,2858,2806,2743,2606,2442,2397,2081,2029,1803,1683,1535,1498,1490,1424,1390,1362,1374,1337,1338,1337,1340,1343,1358,1355,1360,1366,1370,1371,1382,1368,1368,1371,1362,1371,1366,1366,1374,1376,1376,1384,1365,1367,1393,1377,1399,1379,1380,1376,632,637,658,654,671,1010,1280,1461,1619,1705,1659,1638,1609,1570,1551,1522,1483,1465,1424,1407,1433,1375,1320,1290,1273,1230,1200,1170,1131,1002,902,780,739,670,647,667,649,663,653,651,664,661,672,676,666,676,677,681,683,679,679,681,676,678,674,676,676,684,670,677,679,677,681,678,672,783,785,793,787,824,1336,1519,1644,1816,1765,1777,1736,1711,1686,1660,1634,1615,1584,1637,1533,1520,1494,1536,1443,1411,1380,1420,1334,1242,1123,915,893,801,816,802,794,796,789,781,786,788,801,798,797,802,803,799,806,802,797,800,810,810,815,818,813,811,813,809,812,813,821,813,809,808,478,476,478,460,460,559,867,968,1067,1128,1143,1125,1107,1088,1071,1053,1035,1016,997,979,962,944,926,907,889,872,854,836,763,748,722,586,513,540,486,467,462,463,422,427,424,436,442,444,435,449,429,456,443,439,442,440,444,455,443,441,452,456,442,445,444,462,438,437,431,1316,1349,1376,1394,1623,2717,2958,3146,3259,3319,3247,3189,3150,3093,3053,2980,2917,2866,2815,2752,2757,2643,2382,2022,1959,1613,1635,1576,1503,1495,1429,1395,1378,1388,1343,1340,1342,1347,1349,1351,1358,1363,1355,1368,1361,1366,1359,1362,1363,1363,1357,1370,1367,1370,1380,1375,1370,1374,1375,1375,1365,1368,1360,1374,1363,701,723,740,709,745,1249,1449,1650,1812,1898,1848,1814,1782,1748,1716,1682,1650,1616,1584,1550,1576,1484,1452,1418,1386,1352,1320,1286,1254,1220,971,769,748,758,713,720,716,720,724,730,731,741,736,751,748,754,746,752,751,739,748,735,742,751,747,746,752,739,741,741,746,752,749,750,746,95,95,144,144,144,147,165,184,204,222,236,232,229,225,222,218,214,210,206,202,199,195,192,188,184,181,177,174,170,166,163,159,156,151,147,145,145,145,86,86,84,86,84,86,84,84,84,86,86,87,88,86,88,87,90,86,87,88,86,87,87,84,88,84,87,1266,1256,1306,1405,2266,2765,3199,3420,3585,3592,3555,3458,3410,3353,3276,3168,3113,3033,2965,2895,2806,2663,2420,2320,2215,2052,2000,1887,1720,1445,1396,1364,1331,1286,1272,1277,1291,1307,1323,1312,1314,1327,1327,1329,1327,1332,1331,1328,1334,1327,1329,1328,1327,1331,1327,1327,1328,1331,1327,1326,1328,1328,1327,1329,1325,608,621,623,613,637,866,1195,1335,1441,1496,1495,1471,1447,1423,1426,1375,1408,1351,1368,1318,1256,1232,1234,1208,1234,1137,1113,1122,936,892,784,859,647,631,658,616,618,609,609,616,614,622,612,632,617,637,627,631,629,619,631,623,628,634,631,629,634,628,622,630,633,638,635,637,629,329,330,348,331,332,473,562,615,666,716,742,733,722,712,703,693,682,673,663,652,643,633,624,613,603,594,584,573,564,554,543,534,460,478,433,332,333,334,287,289,288,291,294,292,292,294,288,296,294,297,299,298,308,307,312,297,296,299,307,306,313,306,300,305,301,709,708,735,719,758,1232,1411,1567,1683,1763,1725,1698,1656,1645,1617,1590,1604,1536,1496,1470,1453,1431,1395,1380,1344,1316,1287,1252,1193,1109,961,905,763,768,720,717,720,715,704,710,713,730,725,716,720,736,715,732,730,728,730,724,718,718,729,733,722,725,715,722,720,732,726,731,720,696,716,720,732,760,1178,1401,1560,1660,1711,1706,1678,1652,1624,1651,1569,1610,1555,1553,1460,1434,1406,1378,1389,1377,1297,1269,1278,1170,1052,773,839,737,720,746,706,708,719,725,729,719,724,727,725,733,748,727,747,745,729,724,736,743,749,746,738,752,737,736,746,748,741,736,732,731,1313,1334,1344,1376,1493,2066,2908,3006,3084,3145,3101,3061,2999,2956,2898,2888,2851,2773,2704,2697,2623,2435,2231,2084,1838,1781,1702,1542,1559,1476,1456,1408,1389,1360,1336,1336,1313,1293,1272,1270,1281,1291,1289,1300,1272,1291,1287,1274,1286,1294,1287,1293,1300,1323,1307,1325,1289,1301,1296,1303,1307,1324,1309,1313,1308,1106,1130,1132,1149,1269,1632,2438,2571,2691,2730,2662,2638,2616,2546,2513,2490,2450,2412,2328,2335,2265,2199,2165,2129,2078,2019,1711,1474,1466,1262,1248,1218,1176,1152,1132,1116,1074,1056,1027,1022,1039,1048,1043,1060,1030,1046,1046,1037,1048,1049,1041,1047,1054,1077,1061,1080,1044,1057,1052,1057,1062,1077,1062,1066,1061,774,765,767,772,800,1172,1563,1743,1826,1867,1884,1842,1827,1793,1768,1736,1714,1672,1661,1616,1606,1551,1507,1526,1447,1418,1327,1298,1317,1170,1011,843,808,811,785,795,788,787,764,762,770,787,786,788,781,787,786,784,790,784,774,785,793,787,782,803,788,783,818,792,794,812,785,794,784,1087,1111,1113,1125,1233,1589,2393,2527,2651,2688,2620,2598,2576,2506,2474,2452,2412,2375,2292,2299,2231,2166,2132,2120,2046,2011,1755,1508,1489,1232,1235,1199,1160,1134,1113,1116,1074,1056,1027,1022,1039,1048,1043,1060,1030,1046,1046,1037,1048,1049,1041,1047,1054,1077,1061,1080,1044,1057,1052,1057,1062,1077,1062,1066,1061,1304,1310,1351,1544,2439,3080,3436,3665,3720,3749,3679,3579,3529,3488,3356,3310,3229,3160,3080,3004,2917,2557,2409,2250,2112,2043,1880,1592,1585,1492,1454,1408,1363,1350,1334,1359,1372,1378,1430,1426,1439,1462,1448,1465,1442,1439,1439,1447,1500,1454,1467,1534,1516,1534,1523,1512,1493,1469,1479,1470,1461,1469,1467,1538,1501,0,0,0,0,0,0,0,0,0,0,0,0,0,0,0,0,0,0,0,0,0,0,0,0,0,0,0,0,0,0,0,0,0,0,0,0,0,0,0,0,0,0,0,0,0,0,0,0,0,0,0,0,0,0,0,0,0,0,0,0,0,0,0,0,0,1020,1016,1018,1034,1085,1688,2151,2333,2455,2431,2457,2407,2384,2333,2282,2261,2227,2191,2148,2091,2076,2032,1986,1852,1816,1782,1691,1468,1381,1303,1125,1105,1052,1044,1032,1041,1023,1008,996,998,1004,1023,991,1001,996,1005,1014,987,989,993,989,1011,1003,1014,998,1032,1007,1013,1026,1020,1016,1019,1008,1008,1004,853,851,850,866,881,1375,1739,1931,2061,2098,2088,2038,2020,1986,1952,1918,1883,1848,1815,1781,1754,1707,1677,1632,1599,1568,1544,1444,1314,1189,1071,932,896,876,864,874,857,842,827,828,837,856,824,833,828,838,846,820,822,826,822,845,837,846,831,863,840,843,859,850,848,849,839,839,835,1109,1108,1115,1124,1177,1791,2350,2551,2650,2623,2640,2567,2571,2524,2463,2436,2412,2352,2304,2263,2236,2173,2151,2114,2065,1990,1863,1584,1433,1396,1209,1170,1123,1135,1122,1120,1143,1122,1098,1101,1112,1122,1110,1120,1107,1112,1109,1110,1127,1125,1118,1131,1134,1143,1140,1153,1125,1124,1132,1129,1114,1146,1113,1109,1105,483,484,486,488,497,635,925,1036,1140,1192,1196,1207,1158,1140,1120,1101,1082,1063,1044,1024,1032,979,964,945,927,910,889,872,852,832,671,656,639,504,493,491,492,524,492,496,492,496,502,504,506,546,495,528,539,540,541,498,495,499,503,505,496,499,494,495,492,496,500,494,484,1146,1145,1151,1167,1212,1779,2398,2599,2698,2672,2698,2616,2620,2573,2522,2497,2463,2411,2356,2323,2288,2224,2212,2165,2127,2015,1789,1607,1459,1435,1250,1211,1159,1176,1168,1143,1166,1144,1126,1121,1130,1144,1139,1150,1121,1140,1143,1136,1140,1141,1136,1143,1144,1166,1156,1168,1142,1153,1149,1148,1155,1169,1145,1143,1139,1283,1284,1307,1314,1594,2078,2835,2930,3055,3067,3052,2981,2917,2875,2816,2805,2770,2696,2673,2614,2562,2428,2224,2132,1990,1855,1672,1505,1622,1465,1396,1346,1330,1339,1322,1292,1304,1287,1268,1264,1273,1281,1274,1295,1260,1276,1279,1272,1282,1287,1281,1287,1294,1317,1299,1319,1283,1295,1290,1297,1303,1318,1303,1307,1302,1227,1229,1286,1350,2354,2819,3186,3450,3488,3521,3458,3397,3319,3252,3156,3114,3042,2947,2900,2830,2744,2690,2417,2198,2185,2120,1988,1961,1743,1409,1375,1330,1284,1270,1253,1308,1272,1279,1290,1324,1303,1324,1333,1322,1309,1322,1327,1321,1344,1321,1332,1336,1345,1339,1357,1357,1350,1355,1365,1368,1387,1437,1377,1393,1359,346,347,348,349,351,377,639,712,822,879,890,876,861,848,834,819,806,792,777,764,750,706,693,680,666,652,639,626,613,600,585,572,372,364,538,364,365,366,353,355,355,356,403,370,403,370,363,407,371,366,374,364,368,494,370,368,405,365,370,403,373,470,378,408,374,983,978,978,1000,1031,1607,2047,2232,2355,2340,2368,2318,2297,2249,2199,2181,2140,2101,2064,2026,1987,1944,1911,1861,1825,1789,1707,1349,1305,1204,1131,1052,1016,1007,996,1003,977,962,947,948,957,976,944,954,949,959,969,943,945,950,946,969,960,970,955,987,965,967,983,974,973,973,964,964,960,1328,1334,1377,1566,2362,3025,3486,3714,3768,3786,3726,3679,3574,3504,3399,3355,3272,3175,3121,3033,2913,2651,2354,2291,2123,1998,1827,1609,1608,1516,1481,1434,1385,1376,1357,1382,1395,1406,1437,1445,1456,1479,1458,1476,1454,1523,1457,1471,1528,1541,1493,1522,1532,1600,1609,1553,1480,1481,1490,1553,1473,1473,1471,1542,1537,68,68,68,68,103,104,117,130,144,157,169,165,163,160,158,156,152,150,147,145,142,139,136,134,132,129,127,123,121,118,116,114,110,108,105,103,103,103,55,51,52,52,60,59,52,52,52,52,60,56,63,61,65,55,63,56,57,65,65,58,55,58,65,106,56,1351,1371,1379,1417,1775,2151,3006,3112,3200,3240,3186,3138,3117,3064,3024,2961,2920,2876,2780,2799,2534,2356,2132,2092,1864,1836,1636,1581,1596,1524,1504,1452,1413,1393,1373,1355,1313,1295,1266,1261,1278,1287,1282,1299,1269,1285,1285,1276,1287,1288,1280,1286,1293,1316,1300,1319,1283,1296,1291,1296,1301,1316,1301,1305,1300,1289,1292,1319,1424,2483,2960,3342,3558,3619,3651,3585,3488,3446,3374,3274,3232,3156,3062,3013,2941,2788,2798,2468,2243,2156,2111,1978,1852,1735,1472,1436,1389,1344,1332,1324,1340,1352,1359,1403,1438,1407,1424,1447,1442,1422,1435,1433,1430,1453,1428,1438,1455,1456,1451,1467,1577,1466,1471,1542,1530,1526,1528,1513,1521,1507,1031,1051,1051,1059,1132,1459,2250,2387,2504,2547,2495,2468,2447,2415,2366,2318,2278,2237,2169,2171,2100,2050,2024,1980,1950,1889,1626,1451,1427,1167,1159,1145,1085,1068,1049,1047,1014,993,969,959,970,981,979,991,965,981,981,972,983,984,976,982,989,1012,996,1015,979,992,987,992,997,1012,997,1001,996,1313,1334,1344,1376,1493,2066,2908,3006,3084,3145,3101,3061,2999,2956,2898,2888,2851,2773,2704,2697,2623,2435,2231,2084,1838,1781,1702,1542,1559,1476,1456,1408,1389,1360,1336,1336,1313,1293,1272,1270,1281,1291,1289,1300,1272,1291,1287,1274,1286,1294,1287,1293,1300,1323,1307,1325,1289,1301,1296,1303,1307,1324,1309,1313,1308,822,818,820,828,896,1333,1610,1797,1937,1970,2006,1973,1941,1926,1855,1854,1828,1760,1725,1717,1706,1656,1598,1585,1568,1545,1470,1269,1242,1163,997,914,883,852,831,834,852,799,775,780,781,790,777,785,785,787,787,793,788,804,810,811,798,792,793,789,795,788,792,788,789,792,791,795,794,565,558,561,561,595,845,1097,1171,1298,1374,1387,1356,1354,1327,1309,1286,1264,1241,1215,1178,1171,1130,1110,1105,1064,1059,1037,1014,995,857,774,665,650,588,584,574,576,526,502,507,508,517,504,512,512,514,514,520,515,528,534,533,525,519,520,516,522,515,519,515,516,519,518,522,521,328,330,331,333,351,439,597,656,724,792,818,804,792,783,770,758,745,731,717,706,691,679,666,653,639,635,622,600,595,582,480,471,457,364,351,351,352,357,274,275,274,275,274,277,277,281,277,277,277,275,274,277,278,280,279,277,279,276,276,276,276,276,276,276,276,546,539,557,542,568,811,1058,1127,1252,1329,1343,1312,1311,1285,1267,1246,1224,1202,1177,1140,1134,1094,1074,1069,1030,1026,1004,982,963,826,744,692,630,568,565,555,556,526,502,507,508,517,504,512,512,514,514,520,515,531,537,538,525,519,520,516,522,515,519,515,516,519,518,522,521,755,751,760,768,867,1431,1641,1853,1969,2005,1986,1936,1920,1888,1840,1792,1768,1733,1688,1670,1634,1587,1567,1635,1491,1455,1417,1381,1346,1114,961,930,803,781,769,768,753,746,745,746,754,752,757,757,754,757,757,771,777,778,780,775,768,765,780,775,770,778,779,784,785,770,782,783,782,970,982,988,997,1057,1516,1992,2176,2301,2364,2351,2300,2293,2224,2204,2193,2134,2077,2069,2052,1935,1926,1912,1827,1832,1798,1700,1522,1301,1256,1161,1052,1028,1023,987,984,981,989,955,956,955,956,955,958,958,962,958,958,958,956,955,958,959,961,960,958,960,957,957,957,957,957,957,957,957,0,0,0,0,0,0,0,0,0,0,0,0,0,0,0,0,0,0,0,0,0,0,0,0,0,0,0,0,0,0,0,0,0,0,0,0,0,0,0,0,0,0,0,0,0,0,0,0,0,0,0,0,0,0,0,0,0,0,0,0,0,0,0,0,0,190,191,192,192,192,302,342,379,420,463,480,471,464,456,448,441,433,426,415,406,403,394,387,379,372,364,356,349,340,333,326,318,310,302,295,290,290,291,176,176,176,176,177,179,179,179,179,179,180,180,181,181,181,182,182,183,182,181,181,181,181,181,181,181,181,403,399,400,401,415,643,729,815,902,984,1005,974,972,960,948,932,915,900,883,848,850,816,800,801,769,769,753,736,721,704,688,672,547,534,407,413,414,415,396,393,394,399,398,396,397,419,391,400,398,395,396,403,401,396,401,400,400,400,401,395,396,397,396,400,396,687,688,691,695,713,936,1335,1487,1624,1682,1678,1652,1626,1599,1572,1545,1519,1492,1465,1438,1428,1386,1358,1332,1305,1279,1251,1225,1198,1076,947,745,728,710,700,696,699,700,688,688,688,706,693,695,697,698,696,701,698,696,695,697,695,695,699,702,701,700,697,696,700,700,700,700,698,383,384,385,387,389,588,715,796,879,936,938,922,915,901,878,864,849,834,819,811,796,782,766,752,746,722,708,700,686,672,655,596,572,539,392,389,390,391,380,392,382,423,380,399,384,424,390,398,392,384,396,389,400,396,396,395,400,396,417,393,394,401,396,417,417,880,884,880,890,907,1406,1714,1906,2011,2092,2105,2028,2006,1998,1948,1929,1892,1859,1828,1809,1768,1741,1701,1673,1621,1539,1463,1338,1291,992,970,948,925,883,896,894,881,845,821,826,827,836,823,831,831,833,833,839,834,845,850,852,844,838,839,835,841,834,838,834,835,838,837,841,840,1133,1130,1139,1152,1524,2321,2580,2764,2866,2887,2852,2786,2756,2709,2648,2593,2546,2496,2437,2416,2364,2305,2268,2319,2054,1992,1896,1709,1457,1280,1246,1213,1192,1166,1151,1151,1132,1122,1120,1138,1128,1149,1141,1137,1132,1148,1150,1160,1162,1162,1162,1157,1160,1163,1165,1165,1160,1158,1160,1162,1160,1159,1156,1157,1156,692,694,696,700,718,944,1382,1496,1633,1690,1688,1660,1634,1608,1581,1554,1527,1501,1473,1447,1437,1394,1366,1340,1314,1286,1260,1233,1196,1029,956,860,754,716,704,702,704,703,693,693,686,693,698,698,702,700,702,705,703,704,705,706,710,700,710,711,704,709,698,704,709,709,701,709,703,177,178,179,179,180,279,314,361,394,429,445,439,432,426,418,412,406,399,393,386,380,373,367,360,354,336,330,322,315,321,314,296,289,282,276,271,271,272,169,169,174,176,176,179,172,214,172,180,175,175,173,177,178,180,176,175,177,176,177,177,173,176,170,172,172,724,720,728,735,818,1362,1562,1774,1891,1929,1910,1861,1847,1817,1771,1724,1700,1667,1623,1606,1572,1526,1506,1576,1434,1399,1363,1329,1294,1259,1113,1008,772,750,737,737,740,733,732,733,741,739,744,744,741,744,744,758,764,765,767,762,755,752,767,762,757,765,771,771,772,758,769,770,769,1026,1045,1043,1061,1134,1661,2157,2336,2451,2512,2495,2443,2424,2361,2290,2268,2261,2206,2140,2177,2057,2044,2026,1941,1916,1613,1796,1543,1183,1188,1155,1116,1095,1083,1051,1048,1036,1040,1006,1007,1006,1007,1006,1009,1009,1013,1009,1009,1009,1007,1006,1009,1010,1012,1011,1009,1011,1008,1008,1008,1008,1008,1008,1008,1008,825,807,822,811,904,1301,1684,1791,1916,1971,1977,1938,1946,1906,1871,1819,1796,1756,1746,1684,1683,1633,1581,1564,1539,1527,1495,1327,1200,1187,889,890,872,847,841,824,821,765,741,746,747,756,743,751,751,753,753,759,754,770,776,777,764,758,759,755,761,754,758,754,755,758,757,761,760,931,934,936,951,1107,1863,2164,2373,2498,2508,2472,2431,2388,2342,2289,2244,2198,2125,2107,2067,2038,1976,1968,1885,1837,1794,1748,1702,1636,1294,1022,1013,961,936,924,927,953,968,967,962,1001,1000,992,1003,993,968,980,996,985,985,984,1002,1006,1003,1005,987,1003,987,974,978,1002,988,987,1002,971,543,544,529,535,547,696,1002,1100,1180,1275,1283,1271,1257,1236,1226,1227,1188,1181,1153,1112,1109,1070,1048,1013,976,954,905,884,861,842,721,696,635,612,537,547,548,518,495,499,497,507,495,503,503,504,501,507,501,499,504,503,507,504,509,504,508,504,509,503,505,509,505,512,511,822,818,820,828,896,1333,1610,1797,1937,1970,2006,1973,1941,1926,1855,1854,1828,1760,1725,1717,1706,1656,1598,1585,1568,1545,1470,1269,1242,1163,997,914,883,852,831,834,852,799,775,780,781,790,777,785,785,787,787,793,788,804,810,811,798,792,793,789,795,788,792,788,789,792,791,795,794,779,774,775,784,842,1168,1493,1682,1849,1905,1863,1869,1814,1802,1735,1761,1716,1646,1628,1597,1576,1580,1518,1483,1488,1452,1377,1257,1138,1136,953,829,876,799,787,785,784,745,740,738,741,742,741,738,743,740,744,744,744,762,767,770,753,749,748,748,747,745,745,747,748,748,749,745,746,512,523,516,517,531,720,984,1107,1207,1268,1266,1252,1230,1210,1189,1192,1149,1127,1109,1087,1090,1045,1024,1004,983,963,942,943,903,819,723,681,599,551,523,568,522,472,467,465,468,469,468,465,470,467,471,471,471,486,491,492,480,476,475,475,474,472,472,474,475,475,476,472,473,225,225,227,228,228,313,397,443,489,546,561,553,543,534,526,517,508,500,490,482,472,464,456,446,438,428,420,411,402,393,384,375,324,315,309,302,302,303,202,201,204,209,202,201,200,206,208,203,202,202,203,208,202,204,202,205,203,207,200,208,204,203,200,205,202,493,504,496,498,509,688,946,1064,1161,1223,1222,1208,1187,1168,1147,1152,1109,1088,1070,1049,1052,1008,988,968,949,930,909,911,871,788,692,675,579,565,504,546,502,472,467,465,468,469,468,465,470,467,471,471,471,489,494,497,480,476,475,475,474,472,472,474,475,475,476,472,473,782,784,787,852,866,1419,1722,1926,2047,2070,2055,2018,1982,1944,1911,1870,1837,1796,1758,1725,1684,1651,1616,1576,1540,1524,1465,1428,1399,1114,880,855,854,808,796,815,781,774,778,777,786,799,794,778,797,816,791,785,789,790,795,791,799,797,797,787,794,788,840,836,791,833,787,791,790,858,878,858,862,899,1239,1787,1970,2074,2098,2088,2037,2020,2005,1953,1901,1915,1836,1808,1817,1768,1723,1676,1673,1621,1588,1544,1430,1284,1163,968,946,911,879,877,866,868,871,858,866,866,886,860,858,859,868,870,888,857,856,860,859,884,859,875,858,866,870,870,858,888,892,858,872,866,165,166,167,167,168,248,312,343,373,404,418,412,408,402,396,390,384,378,372,366,360,354,348,342,337,331,325,319,313,307,301,295,272,266,171,168,168,168,166,166,169,170,167,167,167,168,169,167,168,167,167,167,167,166,166,168,167,169,167,170,167,170,168,170,169,0,0,0,0,0,0,0,0,0,0,0,0,0,0,0,0,0,0,0,0,0,0,0,0,0,0,0,0,0,0,0,0,0,0,0,0,0,0,0,0,0,0,0,0,0,0,0,0,0,0,0,0,0,0,0,0,0,0,0,0,0,0,0,0,0,354,355,356,357,359,397,658,736,814,874,884,870,855,841,828,838,799,784,770,757,742,728,714,699,686,672,657,643,628,615,613,391,381,372,363,360,360,361,348,356,351,359,358,387,356,360,352,357,356,353,353,363,361,396,384,370,362,363,369,365,361,384,355,364,357,595,596,598,611,622,837,1136,1267,1391,1459,1460,1437,1414,1390,1368,1345,1321,1325,1275,1251,1228,1206,1182,1159,1162,1112,1089,1066,1069,1020,912,892,752,618,607,620,605,607,597,595,597,609,600,604,603,605,607,608,604,602,600,603,602,598,603,608,607,606,604,602,607,613,611,619,602,394,395,396,417,418,432,710,786,862,922,932,918,903,901,876,886,848,834,832,806,793,778,764,751,758,723,709,706,681,667,638,426,423,461,403,400,418,396,364,364,369,379,371,375,365,375,374,369,375,379,379,381,376,385,383,377,371,384,383,387,385,388,383,389,382,826,832,827,833,864,1278,1568,1768,1911,1975,1977,1926,1896,1881,1851,1830,1786,1743,1720,1691,1686,1627,1598,1571,1542,1445,1370,1338,1206,1152,985,968,884,849,843,842,833,791,775,770,781,785,784,780,784,786,786,786,787,786,786,786,787,788,788,788,789,789,790,790,789,791,789,790,789,1160,1163,1167,1272,1470,2276,2661,2837,2943,2953,2920,2869,2818,2765,2719,2662,2613,2559,2507,2458,2403,2365,2314,2264,2103,1956,1789,1709,1500,1308,1274,1260,1228,1192,1179,1175,1160,1148,1152,1154,1160,1178,1177,1158,1175,1208,1179,1169,1176,1182,1178,1203,1191,1203,1183,1177,1202,1176,1232,1226,1173,1229,1167,1174,1173,600,602,604,616,628,845,1144,1276,1401,1484,1470,1447,1423,1400,1392,1353,1330,1333,1284,1260,1237,1214,1210,1167,1170,1120,1098,1074,1077,1028,669,882,719,623,612,647,611,609,602,604,603,611,605,607,609,613,613,612,610,610,610,611,615,603,615,617,611,616,605,610,616,617,607,618,607,129,129,130,130,186,201,226,250,276,300,316,312,307,302,297,292,288,283,278,273,268,264,259,254,249,244,240,235,230,225,220,216,211,206,201,196,198,198,120,120,120,120,120,120,120,121,121,121,123,123,123,124,124,124,123,124,125,124,125,124,124,124,125,124,125,751,754,756,818,826,1353,1643,1846,1969,1994,1980,1944,1909,1873,1842,1802,1769,1730,1693,1662,1622,1589,1556,1518,1483,1468,1411,1376,1347,1270,1036,823,799,777,765,761,768,761,765,764,773,786,781,765,784,803,778,772,776,777,782,778,786,784,784,774,781,775,827,823,778,821,774,778,777,922,921,921,926,972,1365,1930,2115,2218,2235,2236,2181,2163,2145,2090,2011,2037,1965,1939,1888,1876,1845,1794,1782,1735,1556,1422,1543,1364,1151,1078,1006,974,938,941,930,923,922,909,918,917,937,911,909,910,919,921,942,908,907,911,910,935,910,926,909,917,921,921,909,939,943,909,923,917,772,773,772,767,843,1199,1572,1721,1826,1865,1872,1834,1822,1789,1761,1726,1681,1642,1635,1593,1602,1548,1495,1504,1458,1431,1400,1252,1132,1093,1045,849,864,792,780,773,766,711,706,704,707,708,707,704,709,706,710,710,710,728,733,736,719,715,714,714,713,711,711,713,714,714,715,711,712,949,970,965,1017,1189,1829,2241,2446,2578,2540,2515,2493,2446,2400,2354,2307,2260,2214,2167,2120,2073,2043,1981,1934,1903,1827,1794,1747,1573,1294,1072,1040,1010,985,952,976,961,987,994,999,1017,1015,1020,1014,1025,1030,1013,1024,1037,1043,1059,1051,1045,1063,1054,1040,1038,1031,1017,1010,1031,1024,1028,1016,1013,486,502,489,491,492,547,877,1025,1099,1156,1183,1175,1142,1118,1110,1126,1091,1071,1040,1021,1001,982,967,911,894,857,839,795,776,760,708,643,592,503,496,493,495,464,449,449,453,456,455,456,455,457,457,458,457,457,456,458,461,461,459,459,460,461,462,462,462,462,462,462,461,779,774,775,784,842,1168,1493,1682,1849,1905,1863,1869,1814,1802,1735,1761,1716,1646,1628,1597,1576,1580,1518,1483,1488,1452,1377,1257,1138,1136,953,829,876,799,787,785,784,745,740,738,741,742,741,738,743,740,744,744,744,762,767,770,753,749,748,748,747,745,745,747,748,748,749,745,746,432,419,420,455,486,518,771,889,957,1056,1035,1050,1033,1003,987,1024,1014,943,946,897,861,932,916,854,798,824,801,803,717,656,617,588,620,501,427,424,451,486,452,448,448,454,448,453,451,456,450,452,452,447,451,448,453,456,453,453,452,454,455,451,451,466,451,456,452,212,213,213,214,208,241,323,439,428,520,536,528,517,508,505,475,490,482,475,424,416,450,442,434,429,422,415,388,327,321,317,312,346,218,212,208,209,216,179,187,178,183,190,187,183,188,183,187,185,189,182,181,185,188,184,184,188,185,184,189,186,193,184,188,185,350,351,352,352,353,383,650,726,798,859,868,855,841,828,813,800,786,772,758,745,732,717,704,690,676,661,649,635,620,606,593,538,377,368,359,355,356,357,339,334,339,372,390,339,338,347,342,371,372,344,364,349,350,355,413,375,365,349,338,339,336,335,355,345,333,187,188,188,188,189,237,291,400,385,483,501,494,486,464,476,433,456,449,442,385,378,417,410,404,396,390,384,376,294,289,285,281,332,198,193,189,190,191,179,187,178,183,190,187,183,188,183,187,185,189,182,181,185,188,184,184,188,185,184,189,186,193,184,188,185,762,764,766,768,785,1188,1663,1860,1977,2027,2009,1978,1928,1907,1854,1830,1804,1761,1721,1684,1651,1615,1581,1542,1506,1468,1432,1396,1228,1140,1014,933,810,790,776,774,759,751,756,740,740,745,757,758,756,754,749,753,773,757,764,776,773,777,760,768,771,781,768,769,761,762,772,758,754,1007,1014,1014,1028,1060,1587,2153,2325,2424,2444,2423,2348,2278,2310,2269,2240,2148,2160,2137,2076,2037,2023,1903,1865,1881,1844,1790,1578,1391,1096,1108,1100,1081,1043,1029,1021,1023,1016,982,984,983,992,1014,1007,1001,1015,1000,1020,1002,1010,1007,1007,1004,1021,1045,1048,1017,1013,1005,1012,999,1016,1024,1008,1002,502,504,506,505,508,600,970,1060,1184,1249,1250,1212,1208,1176,1171,1141,1123,1120,1090,1062,1045,1020,998,985,966,945,924,891,882,762,848,731,674,527,513,510,512,513,492,483,500,489,494,490,485,494,490,503,506,494,503,509,510,504,503,515,488,497,502,501,503,541,519,527,522,521,523,525,514,528,739,988,1102,1209,1258,1263,1242,1220,1201,1184,1159,1143,1152,1101,1082,1062,1039,1020,1000,980,958,938,919,899,777,759,730,612,588,536,517,531,501,486,484,491,501,494,497,496,495,503,498,502,505,507,496,502,505,494,502,493,507,522,518,520,521,508,509,508,0,0,0,0,0,0,0,0,0,0,0,0,0,0,0,0,0,0,0,0,0,0,0,0,0,0,0,0,0,0,0,0,0,0,0,0,0,0,0,0,0,0,0,0,0,0,0,0,0,0,0,0,0,0,0,0,0,0,0,0,0,0,0,0,0,974,976,972,979,1122,1547,2044,2204,2271,2363,2312,2298,2275,2198,2180,2125,2147,2102,2014,1959,1961,1905,1868,1832,1795,1786,1747,1392,1351,1213,1165,1074,1027,983,973,972,969,974,964,972,982,986,985,990,976,990,974,994,979,990,980,982,992,992,989,990,990,990,992,988,990,991,985,988,982,293,294,295,296,292,365,512,575,619,669,682,673,663,654,643,633,624,613,603,594,584,573,564,554,543,534,524,514,504,504,456,446,418,445,350,343,293,344,269,271,272,274,277,276,275,275,275,279,278,282,280,280,280,282,282,282,277,283,280,281,278,285,283,284,280,519,487,508,561,537,532,909,958,1120,1216,1111,1112,1102,1056,1041,1092,1081,1081,1004,959,1036,992,974,978,918,943,852,770,710,626,692,604,630,528,477,502,553,477,480,484,481,488,488,487,486,507,479,488,483,481,486,494,494,493,492,490,487,486,503,498,483,488,487,490,487,1086,1089,1093,1104,1145,1738,2234,2483,2590,2611,2573,2532,2499,2461,2439,2379,2387,2305,2266,2233,2186,2149,2122,2098,2025,1832,1491,1465,1389,1298,1198,1171,1200,1136,1098,1102,1081,1062,1020,1023,1023,1026,1034,1031,1027,1031,1030,1033,1029,1036,1028,1027,1026,1033,1030,1030,1036,1028,1027,1032,1031,1035,1025,1029,1026,842,849,851,855,908,1242,1755,1916,2018,2052,2043,2008,1980,1944,1914,1879,1882,1845,1850,1755,1717,1684,1658,1620,1584,1555,1426,1308,1202,1100,1146,976,885,868,863,853,861,844,841,847,852,852,860,849,852,858,852,864,860,859,861,863,864,867,861,856,862,861,863,856,862,863,856,857,851,432,435,437,440,440,631,828,899,1007,1066,1072,1044,1046,999,1013,980,984,967,938,916,896,886,870,866,829,832,799,782,781,749,733,717,614,465,455,441,442,443,427,423,431,440,433,434,430,440,434,430,435,433,440,449,462,476,448,442,431,462,438,439,441,450,453,453,449,731,733,735,737,750,1127,1582,1781,1899,1951,1933,1903,1855,1836,1785,1762,1736,1695,1656,1621,1588,1553,1521,1483,1448,1413,1378,1344,1298,1142,1008,963,779,759,744,743,746,738,743,727,727,732,744,745,743,741,736,740,760,744,751,763,760,764,747,755,758,768,755,756,748,750,759,745,741,1053,1077,1078,1080,1150,1736,2296,2485,2550,2580,2565,2491,2418,2447,2398,2372,2280,2293,2220,2201,2159,2141,2021,1963,1916,1717,1654,1437,1316,1185,1173,1160,1144,1107,1088,1066,1078,1067,1034,1036,1043,1051,1066,1059,1053,1067,1060,1074,1065,1071,1063,1062,1065,1075,1102,1099,1068,1070,1058,1063,1057,1071,1076,1064,1058,452,466,457,455,470,499,811,940,1032,1141,1142,1125,1080,1084,1059,1032,1041,1011,979,952,940,939,924,884,865,849,832,840,760,651,595,583,603,496,454,465,468,448,418,426,417,422,429,426,422,427,422,426,424,428,421,420,424,427,423,423,427,424,423,428,425,432,423,427,424,916,940,939,942,1086,1561,2139,2382,2500,2523,2487,2456,2407,2361,2325,2269,2223,2176,2131,2090,2038,1996,1946,1916,1854,1808,1761,1711,1402,1273,1030,1020,968,965,934,953,940,944,974,945,937,954,961,967,964,971,963,958,1002,970,974,970,971,971,965,963,966,1002,1011,985,961,982,1003,972,957,152,166,166,231,231,132,150,252,294,319,336,331,320,316,313,309,304,301,297,294,270,264,259,254,248,243,238,234,152,148,145,142,252,238,235,231,232,232,136,135,133,136,135,136,136,136,136,136,133,136,133,135,136,135,132,135,133,136,136,136,135,136,133,135,133,432,419,420,455,486,518,771,889,957,1056,1035,1050,1033,1003,987,1024,1014,943,946,897,861,932,916,854,798,824,801,803,717,656,617,588,620,501,427,424,451,486,452,448,448,454,448,453,451,456,450,452,452,447,451,448,453,456,453,453,452,454,455,451,451,466,451,456,452,1244,1248,1273,1296,1589,2400,2727,2912,2968,2980,2975,2925,2880,2778,2753,2740,2663,2608,2593,2546,2503,2459,2373,2306,2058,2038,1694,1535,1443,1500,1355,1362,1321,1287,1267,1262,1260,1240,1212,1227,1223,1231,1236,1239,1244,1237,1229,1261,1233,1251,1241,1238,1275,1281,1247,1247,1274,1243,1241,1245,1268,1287,1241,1246,1234,1020,1038,1044,1058,1106,1834,2206,2363,2476,2495,2498,2459,2378,2313,2296,2274,2268,2176,2143,2103,2086,2026,1987,1949,1902,1896,1724,1557,1455,1276,1114,1104,1064,1066,1050,1053,987,978,968,977,983,984,992,997,998,994,986,1008,996,1007,996,992,1011,1017,1001,1001,1006,998,997,999,995,1014,994,999,987,663,666,668,672,680,1132,1315,1480,1584,1625,1645,1617,1580,1515,1523,1502,1466,1411,1419,1393,1367,1341,1290,1288,1248,1233,1188,1188,1136,984,926,722,722,688,686,674,676,662,654,655,658,666,683,698,675,679,676,686,680,680,684,670,701,701,685,674,687,680,673,682,685,677,689,697,673,1001,1021,1026,1045,1094,1791,2161,2319,2432,2452,2456,2417,2338,2273,2257,2236,2232,2138,2106,2067,2057,1992,1954,1916,1870,1864,1692,1526,1424,1246,1095,1085,1044,1047,1031,1033,987,978,968,977,983,984,992,997,998,994,986,1008,996,1007,996,992,1011,1017,1001,1001,1006,998,997,999,995,1014,994,999,987,1230,1267,1271,1414,2091,2571,3166,3299,3366,3353,3308,3281,3224,3164,3111,3052,2989,2930,2871,2802,2751,2606,2470,2381,2155,1930,1849,1755,1674,1464,1452,1344,1300,1269,1303,1277,1280,1340,1329,1331,1341,1385,1337,1358,1357,1340,1350,1345,1344,1344,1345,1356,1354,1352,1343,1354,1350,1384,1375,1346,1361,1376,1355,1379,1354,532,517,519,536,534,910,1085,1113,1256,1269,1273,1252,1236,1215,1191,1174,1150,1164,1111,1090,1070,1050,1029,1009,990,969,949,956,908,787,757,738,721,606,527,524,525,562,524,528,540,575,536,548,530,547,532,593,540,531,539,540,549,593,548,543,548,537,548,548,544,549,533,541,536,732,739,739,744,840,1117,1489,1664,1765,1803,1794,1782,1747,1710,1690,1663,1629,1590,1577,1548,1503,1493,1464,1436,1310,1288,1262,1238,1211,1100,992,913,794,764,751,748,745,728,718,718,722,766,724,729,721,725,730,725,723,723,720,725,721,723,724,728,729,726,726,723,730,765,734,764,733,571,572,572,576,596,798,1117,1251,1359,1402,1405,1387,1364,1342,1320,1297,1274,1251,1228,1207,1184,1161,1138,1116,1090,1071,1048,1026,1003,978,905,803,608,593,583,580,581,562,552,549,552,599,557,562,553,557,563,557,556,556,553,558,555,557,556,561,560,559,556,556,560,604,564,604,564,922,904,864,887,987,1463,1809,1971,2065,2101,2088,2215,2025,1992,1958,1924,2012,1857,1824,1790,1879,1723,1690,1657,1620,1696,1556,1522,1328,968,948,925,904,885,875,873,876,876,894,888,880,889,925,918,913,909,920,913,909,909,916,919,927,927,926,920,923,928,921,917,930,929,928,929,921,0,0,0,0,0,0,0,0,0,0,0,0,0,0,0,0,0,0,0,0,0,0,0,0,0,0,0,0,0,0,0,0,0,0,0,0,0,0,0,0,0,0,0,0,0,0,0,0,0,0,0,0,0,0,0,0,0,0,0,0,0,0,0,0,0,962,940,904,949,1022,1513,1856,2029,2113,2149,2136,2263,2073,2050,2056,1984,2073,1908,1874,1852,1930,1774,1741,1719,1671,1748,1608,1519,1411,1272,991,1041,944,934,927,913,903,899,913,914,919,933,923,929,927,928,924,929,937,927,929,935,938,932,933,937,931,929,934,936,930,942,929,961,930,1268,1272,1280,1305,1665,2441,2760,2898,2986,2994,2992,2966,2874,2801,2792,2743,2686,2623,2607,2555,2503,2440,2340,2274,2059,2082,1766,1567,1464,1447,1387,1339,1328,1297,1288,1284,1262,1233,1208,1221,1216,1220,1222,1234,1232,1222,1221,1259,1229,1244,1235,1232,1269,1275,1240,1241,1268,1237,1235,1239,1266,1283,1235,1240,1228,1152,1155,1176,1288,2240,2919,3218,3463,3588,3565,3510,3458,3381,3298,3226,3133,3050,2973,2921,2926,2760,2666,2548,2289,2171,2064,1977,1913,1789,1677,1317,1267,1222,1190,1223,1184,1230,1343,1284,1298,1299,1310,1328,1317,1314,1339,1310,1328,1332,1305,1325,1312,1329,1535,1360,1361,1346,1314,1317,1316,1307,1306,1319,1376,1304,177,178,179,179,270,278,314,349,384,418,436,430,423,416,410,403,397,390,382,376,369,363,356,349,343,336,328,322,315,309,302,295,289,282,276,270,271,272,172,172,168,169,172,172,177,178,172,174,173,177,174,172,172,173,173,174,172,172,169,170,169,172,172,172,167,696,699,699,704,730,1030,1398,1560,1663,1703,1695,1683,1649,1622,1595,1568,1547,1509,1487,1458,1429,1405,1376,1351,1319,1297,1269,1245,1218,1101,1018,915,743,725,710,707,708,682,672,669,672,719,677,682,674,678,684,680,679,679,677,682,679,680,680,685,684,684,680,680,684,705,688,722,689,1253,1256,1303,1390,2018,2492,3090,3224,3293,3282,3239,3213,3156,3098,3045,2987,2926,2868,2811,2743,2693,2641,2503,2408,2100,2043,1843,1750,1710,1487,1420,1368,1327,1296,1344,1300,1303,1327,1316,1318,1328,1372,1324,1345,1344,1327,1337,1332,1331,1331,1332,1343,1341,1339,1330,1341,1337,1371,1362,1333,1349,1363,1342,1366,1341,467,446,447,472,456,752,846,945,1048,1096,1104,1154,1068,1101,1083,1015,998,1028,960,973,927,909,892,895,856,840,822,843,782,792,733,698,668,549,455,452,508,454,467,460,460,464,490,485,487,484,474,493,480,474,486,465,468,481,476,469,487,468,464,484,482,512,488,486,480,1274,1280,1288,1316,1630,2448,2803,2969,3051,3061,3055,2990,2907,2853,2827,2800,2757,2673,2644,2572,2485,2480,2253,2291,2091,2078,1749,1693,1425,1412,1393,1364,1328,1307,1290,1284,1226,1217,1207,1216,1222,1223,1231,1236,1237,1233,1225,1247,1235,1246,1235,1231,1250,1256,1240,1240,1245,1237,1236,1238,1234,1253,1233,1238,1226,1213,1215,1240,1363,2370,3061,3355,3614,3717,3693,3637,3583,3504,3424,3346,3260,3165,3087,3031,2930,2874,2774,2491,2201,2125,2097,2038,1940,1827,1700,1378,1327,1282,1251,1284,1266,1260,1323,1378,1408,1380,1382,1409,1381,1397,1400,1402,1405,1418,1410,1425,1423,1413,1422,1470,1424,1425,1429,1462,1428,1472,1477,1548,1593,1466,952,954,958,968,1038,1722,2023,2201,2300,2334,2343,2289,2257,2182,2161,2128,2080,2021,2011,1984,1921,1901,1841,1798,1772,1753,1608,1386,1285,1110,1091,1030,1007,983,968,977,963,940,910,916,912,921,926,931,935,929,921,959,931,942,931,927,964,970,936,936,964,934,932,934,962,964,929,934,922,1244,1248,1273,1296,1589,2400,2727,2912,2968,2980,2975,2925,2880,2778,2753,2740,2663,2608,2593,2546,2503,2459,2373,2306,2058,2038,1694,1535,1443,1500,1355,1362,1321,1287,1267,1262,1260,1240,1212,1227,1223,1231,1236,1239,1244,1237,1229,1261,1233,1251,1241,1238,1275,1281,1247,1247,1274,1243,1241,1245,1268,1287,1241,1246,1234,542,531,529,528,548,629,984,1104,1210,1281,1299,1245,1268,1252,1231,1212,1150,1156,1136,1092,1074,1092,1074,1054,1015,982,976,884,861,751,654,675,612,540,564,547,532,554,469,471,470,475,479,472,474,474,472,476,475,477,492,495,496,481,475,472,476,475,474,475,474,475,469,475,470,267,268,268,269,270,314,461,525,580,630,661,654,642,635,623,613,604,592,583,573,564,553,539,528,516,499,495,464,455,449,441,339,331,365,274,271,272,272,196,198,197,202,206,199,201,201,199,203,202,204,216,219,218,208,202,199,203,202,201,202,201,202,196,202,197,416,418,419,420,420,513,774,858,940,1010,1022,1008,991,976,960,945,930,912,898,881,866,851,834,819,793,777,762,746,730,715,654,526,480,469,425,422,423,425,392,385,391,424,394,399,389,421,419,403,433,396,407,399,399,401,430,397,394,402,394,396,393,392,399,404,390,248,249,250,269,300,293,427,486,537,584,615,609,598,591,580,571,562,552,543,534,526,515,502,492,480,465,462,431,423,417,410,308,301,335,305,283,284,284,196,198,197,202,206,199,201,201,199,203,202,204,219,222,223,208,202,199,203,202,201,202,201,202,196,202,197,604,606,608,609,634,1023,1185,1358,1503,1601,1600,1572,1544,1515,1485,1456,1432,1402,1382,1353,1325,1303,1270,1243,1214,1186,1156,1129,1100,1061,954,827,660,630,653,610,617,590,559,561,565,571,565,570,578,572,569,566,572,572,579,576,577,581,567,568,571,570,571,572,570,568,564,565,564,1073,1080,1079,1111,1143,1546,2318,2475,2551,2601,2570,2529,2499,2423,2405,2372,2285,2296,2264,2211,2166,2140,2034,1992,2014,1756,1661,1578,1360,1225,1168,1152,1140,1092,1096,1093,1085,1075,1035,1035,1034,1045,1058,1067,1053,1057,1066,1063,1061,1062,1062,1057,1052,1070,1062,1061,1074,1066,1063,1067,1056,1080,1067,1067,1059,433,434,436,436,442,533,796,884,970,1034,1048,1033,1017,1009,984,969,954,937,922,906,890,883,858,843,827,812,796,779,764,748,745,535,534,451,441,439,478,441,417,411,414,417,413,419,418,421,417,420,419,416,415,416,416,420,421,420,418,419,417,420,418,422,418,418,418,455,458,459,460,468,586,848,938,1030,1094,1110,1094,1077,1068,1042,1025,1009,991,975,958,940,932,907,906,874,858,840,836,806,787,769,573,583,475,465,463,502,465,448,432,436,439,435,442,438,443,440,439,441,436,436,438,439,441,443,444,440,442,441,443,440,448,441,441,441,233,234,235,235,236,363,405,444,487,527,549,541,534,525,517,510,501,494,486,477,470,462,454,446,438,430,422,414,406,398,391,382,374,244,239,236,236,237,214,213,215,218,213,217,218,218,217,217,220,217,218,216,217,219,219,219,216,218,217,216,218,218,216,216,216,954,957,970,971,1079,1471,1970,2150,2253,2295,2288,2256,2217,2190,2148,2110,2077,2039,2003,1968,1932,1898,1860,1836,1801,1755,1718,1392,1312,1209,1066,1018,1032,990,968,968,1019,972,945,945,955,953,951,958,956,964,960,953,958,952,952,951,951,961,961,964,961,959,958,959,966,968,967,967,967,0,0,0,0,0,0,0,0,0,0,0,0,0,0,0,0,0,0,0,0,0,0,0,0,0,0,0,0,0,0,0,0,0,0,0,0,0,0,0,0,0,0,0,0,0,0,0,0,0,0,0,0,0,0,0,0,0,0,0,0,0,0,0,0,0,584,560,610,570,626,730,1055,1266,1332,1405,1453,1396,1433,1399,1331,1323,1288,1312,1271,1224,1207,1197,1181,1176,1111,1070,1065,939,893,829,749,636,616,632,601,604,618,603,515,517,516,521,525,518,520,520,518,522,521,523,535,538,535,527,521,518,522,521,520,521,520,521,515,521,516,982,985,987,999,1139,1785,2159,2291,2414,2498,2482,2438,2394,2351,2306,2269,2233,2180,2145,2102,2058,2030,1990,1941,1901,1749,1707,1589,1442,1250,1110,1069,1054,1015,1006,993,977,966,934,934,941,949,948,950,957,951,958,952,958,965,962,981,965,983,953,956,986,958,962,960,955,978,945,948,947,909,912,915,924,1000,1479,1885,2064,2158,2197,2187,2160,2124,2091,2058,2021,1987,1951,1918,1885,1850,1815,1787,1774,1700,1684,1518,1406,1323,1244,1107,973,972,943,928,927,948,923,900,892,897,902,901,907,909,916,907,908,916,909,902,904,904,909,903,901,909,909,909,900,902,907,897,907,902,347,348,349,350,352,378,624,689,754,813,831,819,807,804,782,770,758,745,733,722,709,706,684,672,661,649,636,623,611,600,587,378,393,362,354,352,391,353,334,324,328,331,326,340,332,347,342,332,347,330,332,331,331,338,335,335,333,337,333,331,333,336,332,332,332,573,575,576,578,597,965,1118,1276,1424,1523,1524,1496,1469,1442,1414,1387,1364,1334,1316,1288,1262,1240,1209,1183,1156,1129,1100,1074,1048,1009,988,771,711,599,622,579,586,577,546,548,552,558,552,557,565,559,556,553,559,559,566,563,564,568,554,555,558,557,558,559,557,555,552,552,551,1119,1143,1143,1180,1273,1695,2416,2631,2692,2707,2695,2656,2639,2560,2537,2475,2414,2394,2371,2329,2284,2236,2152,2092,1916,1717,1707,1506,1296,1292,1236,1220,1174,1156,1160,1133,1136,1126,1087,1087,1094,1104,1110,1119,1105,1109,1126,1117,1124,1123,1118,1112,1113,1124,1116,1112,1125,1123,1116,1118,1114,1132,1119,1123,1115,528,528,523,530,532,610,950,1073,1152,1241,1274,1251,1240,1217,1215,1192,1162,1121,1102,1088,1066,1059,1051,1026,985,974,963,907,789,723,636,629,596,528,540,535,536,526,435,437,436,441,445,438,440,440,438,442,441,443,458,461,462,447,441,438,442,441,440,441,440,441,435,441,436,780,760,761,786,865,1373,1614,1873,2034,2092,2097,2077,2020,1981,1942,1876,1866,1830,1798,1761,1723,1684,1646,1608,1569,1532,1494,1455,1409,1345,1190,951,891,809,779,792,789,802,774,783,782,782,786,792,787,799,796,793,799,793,792,804,796,809,792,789,807,797,789,793,795,793,792,798,788,269,270,270,271,272,256,286,465,502,527,547,542,535,531,526,521,517,511,507,502,497,493,480,472,449,410,407,287,281,276,270,264,285,268,262,272,272,273,188,191,189,191,196,190,192,192,189,190,189,190,187,189,188,190,187,188,191,188,190,192,189,191,186,189,187,542,531,529,528,548,629,984,1104,1210,1281,1299,1245,1268,1252,1231,1212,1150,1156,1136,1092,1074,1092,1074,1054,1015,982,976,884,861,751,654,675,612,540,564,547,532,554,469,471,470,475,479,472,474,474,472,476,475,477,492,495,496,481,475,472,476,475,474,475,474,475,469,475,470,102,103,103,137,156,159,180,201,222,243,258,254,249,246,242,237,234,229,225,220,217,213,208,254,200,196,192,188,184,180,176,171,168,164,196,156,157,157,98,96,96,96,100,98,99,100,98,99,99,99,100,100,100,100,101,100,100,100,100,100,100,101,101,101,101,378,363,381,375,377,487,723,738,805,855,865,871,840,828,816,802,790,778,766,734,742,732,698,704,732,680,650,661,643,637,618,614,532,430,386,376,439,384,358,366,366,372,371,372,367,375,364,380,367,367,373,373,392,398,398,376,377,371,388,378,378,399,372,377,371,604,612,608,649,614,926,1166,1305,1424,1468,1467,1458,1420,1392,1375,1351,1329,1305,1284,1275,1237,1214,1224,1168,1146,1123,1107,1077,1062,1025,672,656,641,626,662,613,615,612,594,594,598,599,590,598,598,618,609,597,617,601,596,590,608,629,629,603,624,601,603,600,607,603,601,613,599,393,378,409,404,392,579,705,768,841,891,922,886,874,861,848,835,823,810,796,764,772,760,727,733,734,723,676,686,668,662,643,631,564,402,416,391,412,416,358,366,366,372,371,372,367,375,364,380,367,367,373,373,394,398,399,376,377,371,398,378,378,399,372,377,371,748,744,746,760,798,1135,1508,1593,1735,1853,1756,1732,1708,1684,1623,1658,1574,1549,1525,1555,1474,1428,1425,1378,1376,1351,1314,1265,1118,834,810,801,885,794,780,746,741,743,767,755,757,764,751,757,764,762,774,773,767,776,782,778,780,795,783,775,771,774,779,779,781,779,777,778,778,1212,1218,1225,1330,1466,2209,2619,2864,2893,2935,2874,2841,2772,2738,2677,2657,2603,2543,2531,2469,2369,2373,2262,2196,1940,1921,1794,1600,1515,1517,1314,1319,1256,1227,1238,1222,1238,1238,1213,1211,1219,1219,1223,1232,1220,1228,1225,1234,1229,1229,1236,1243,1248,1254,1235,1240,1236,1236,1234,1237,1232,1260,1232,1238,1235,844,837,845,846,892,1438,1705,1890,1970,2016,2005,1982,1946,1911,1897,1879,1833,1804,1775,1742,1700,1662,1629,1619,1589,1533,1505,1329,1114,1111,925,903,902,868,850,856,864,838,820,821,810,816,825,826,823,827,836,845,834,839,848,854,845,849,846,837,836,850,844,845,846,835,850,849,846,835,842,840,869,910,1388,1697,1904,1992,2026,2015,1997,1951,1913,1888,1857,1822,1790,1761,1749,1698,1670,1653,1601,1571,1537,1421,1390,1226,1128,919,947,890,859,872,852,831,826,814,805,809,811,811,825,824,828,823,822,843,829,823,817,840,840,835,834,843,828,828,827,838,842,831,844,844,692,687,688,691,702,1117,1335,1511,1607,1653,1648,1623,1598,1573,1547,1537,1509,1482,1457,1431,1404,1378,1333,1330,1308,1292,1232,1216,1193,1037,1013,879,789,708,698,696,706,678,668,652,650,650,671,675,669,669,669,678,686,685,686,692,692,692,683,685,685,697,692,692,686,681,689,688,687,1283,1290,1292,1349,1569,2320,2804,2972,3000,3041,3034,2990,2908,2890,2848,2770,2725,2699,2623,2610,2430,2115,2095,2069,1997,1916,1803,1609,1543,1469,1392,1368,1339,1320,1297,1291,1294,1301,1279,1278,1283,1288,1288,1298,1294,1297,1295,1292,1294,1293,1291,1294,1306,1319,1295,1298,1290,1296,1297,1295,1298,1307,1293,1300,1297,636,634,631,632,646,981,1194,1305,1424,1476,1474,1454,1432,1410,1389,1382,1364,1327,1313,1291,1268,1250,1210,1206,1188,1174,1118,1109,1077,774,758,741,745,651,644,640,653,620,605,586,584,585,609,612,607,599,602,617,619,617,625,628,627,616,602,615,622,629,625,622,623,621,624,616,615,0,0,0,0,0,0,0,0,0,0,0,0,0,0,0,0,0,0,0,0,0,0,0,0,0,0,0,0,0,0,0,0,0,0,0,0,0,0,0,0,0,0,0,0,0,0,0,0,0,0,0,0,0,0,0,0,0,0,0,0,0,0,0,0,0,904,907,910,915,998,1640,1892,1980,2114,2240,2242,2091,2062,2032,1965,1992,1905,1874,1844,1813,1782,1752,1720,1690,1659,1629,1491,1464,1236,1004,984,1018,1044,952,942,924,916,960,923,928,922,945,933,943,930,959,944,937,941,941,946,942,950,962,954,953,949,951,960,946,952,959,948,948,948,1169,1172,1175,1247,1253,2027,2514,2696,2752,2788,2768,2725,2642,2638,2567,2522,2500,2452,2381,2372,2315,2278,2233,2168,1945,1806,1668,1523,1410,1420,1360,1231,1212,1199,1178,1185,1172,1171,1144,1142,1145,1150,1150,1160,1156,1159,1158,1154,1158,1155,1158,1165,1179,1191,1162,1160,1152,1158,1159,1157,1160,1175,1155,1162,1159,780,768,776,781,857,1296,1543,1735,1821,1848,1840,1815,1802,1755,1744,1732,1686,1655,1631,1602,1571,1543,1497,1491,1462,1460,1384,1362,1243,1091,969,835,837,801,788,786,797,773,760,752,761,755,769,771,769,771,763,778,773,776,788,790,788,789,780,780,787,786,782,783,785,783,785,785,781,717,713,715,727,760,1181,1431,1512,1656,1774,1680,1657,1634,1611,1552,1588,1506,1482,1459,1536,1412,1452,1364,1426,1317,1294,1270,1248,1117,993,784,768,890,763,748,769,728,730,754,742,744,751,738,744,751,749,761,760,754,763,769,765,767,782,770,762,758,761,766,766,768,766,764,765,765,1275,1281,1289,1404,1600,2365,2776,3015,3042,3082,3018,2988,2909,2874,2811,2788,2729,2668,2626,2455,2147,2170,2104,2041,1862,1806,1685,1636,1468,1474,1422,1373,1320,1291,1303,1277,1289,1290,1265,1271,1278,1271,1275,1284,1272,1288,1281,1287,1290,1288,1290,1301,1304,1310,1293,1291,1287,1291,1291,1288,1289,1312,1288,1294,1291,241,242,243,244,237,322,426,474,510,578,609,600,590,580,548,555,546,540,517,507,496,483,491,465,456,459,436,440,430,412,411,402,392,330,318,245,301,316,185,171,173,174,174,177,175,180,174,175,176,183,175,177,177,176,178,177,175,175,175,175,177,175,174,174,174,946,924,951,932,992,1386,1855,1942,2081,2210,2094,2067,2039,2011,1947,1977,1890,1861,1837,1808,1779,1752,1740,1695,1666,1637,1609,1441,1191,1119,997,979,1061,969,960,934,928,920,952,948,951,955,962,967,955,979,962,957,962,964,991,989,990,969,968,962,968,972,962,978,964,970,989,963,960,410,404,405,406,418,637,763,838,913,978,968,954,939,925,910,895,895,880,865,850,836,820,786,790,776,772,726,723,706,692,676,660,496,446,412,408,419,410,407,393,393,394,404,408,404,401,401,413,412,408,413,416,416,408,409,413,415,415,411,417,413,413,411,411,411,102,103,103,137,156,159,180,201,222,243,258,254,249,246,242,237,234,229,225,220,217,213,208,254,200,196,192,188,184,180,176,171,168,164,196,156,157,157,98,96,96,96,100,98,99,100,98,99,99,99,100,100,100,100,101,100,100,100,100,100,100,101,101,101,101,723,742,728,735,805,1289,1471,1629,1728,1771,1767,1737,1710,1681,1653,1625,1605,1568,1540,1513,1492,1456,1431,1400,1371,1344,1316,1289,1259,1162,802,783,791,747,788,756,758,710,721,713,729,715,735,748,720,717,722,753,750,746,750,765,759,740,733,736,717,742,719,741,734,731,723,730,729,901,922,908,935,1006,1602,1822,2072,2164,2291,2187,2152,2164,2083,2091,2012,1977,1927,1908,1911,1838,1802,1753,1764,1710,1663,1655,1604,1244,1174,992,1012,994,928,917,915,925,910,924,922,932,933,933,944,929,933,930,952,938,942,937,940,944,935,946,948,938,945,940,946,949,953,941,974,948,1285,1280,1275,1341,1558,2468,2764,2888,3007,3016,2927,2974,2908,2863,2810,2782,2717,2692,2642,2571,2521,2473,2436,2282,2207,1908,1721,1459,1553,1423,1413,1370,1303,1318,1286,1267,1261,1256,1244,1250,1262,1273,1256,1266,1252,1259,1253,1247,1257,1255,1249,1270,1255,1263,1261,1274,1269,1276,1281,1267,1270,1299,1253,1262,1258,916,937,922,952,1025,1634,1857,2108,2200,2326,2221,2186,2197,2114,2125,2062,2009,1958,1956,1902,1866,1831,1780,1791,1735,1688,1653,1573,1213,1144,1007,992,975,942,946,930,925,910,924,922,932,942,933,945,929,933,930,952,950,942,938,944,967,953,951,951,938,947,950,947,949,953,941,974,948,488,489,501,492,503,814,924,1020,1122,1208,1215,1190,1176,1152,1106,1112,1080,1048,1054,1035,1016,997,955,957,938,942,900,900,861,762,744,726,540,509,512,495,484,479,469,471,475,482,479,481,475,482,475,503,479,478,485,484,505,506,491,487,490,487,491,492,493,497,486,495,489,1206,1223,1244,1329,2218,2704,3099,3272,3351,3364,3320,3266,3190,3126,3070,3026,2940,2863,2802,2736,2691,2613,2567,2482,2441,2298,2264,2071,1732,1424,1384,1334,1295,1245,1233,1225,1229,1238,1288,1283,1292,1298,1320,1369,1310,1336,1327,1339,1373,1344,1339,1378,1346,1377,1332,1323,1338,1336,1333,1368,1342,1378,1338,1347,1341,1137,1141,1154,1178,1409,2227,2589,2781,2838,2843,2805,2785,2734,2684,2644,2612,2565,2516,2465,2408,2359,2310,2276,2212,2175,2113,2062,1869,1616,1256,1251,1239,1188,1168,1156,1160,1156,1154,1141,1147,1151,1172,1150,1158,1144,1152,1146,1141,1147,1145,1139,1160,1149,1151,1152,1161,1157,1167,1171,1157,1155,1204,1146,1155,1151,1161,1164,1170,1203,1344,2288,2680,2841,2896,2888,2863,2840,2788,2737,2714,2660,2613,2565,2518,2455,2406,2355,2305,2257,2220,2151,1957,1835,1475,1281,1305,1287,1212,1192,1180,1184,1179,1178,1164,1169,1173,1192,1170,1180,1167,1171,1168,1161,1168,1167,1162,1181,1171,1175,1174,1184,1181,1190,1197,1183,1178,1227,1169,1178,1174,1082,1086,1089,1118,1401,2096,2401,2645,2707,2701,2678,2660,2612,2564,2527,2497,2450,2402,2354,2300,2252,2205,2158,2113,2076,2017,1969,1773,1595,1355,1195,1268,1133,1113,1100,1101,1101,1099,1085,1090,1095,1114,1092,1101,1088,1095,1089,1083,1092,1089,1083,1102,1092,1095,1095,1105,1101,1110,1114,1100,1100,1148,1090,1099,1095,1345,1356,1343,1603,2424,3228,3726,3799,3877,3874,3903,3820,3649,3572,3498,3410,3256,3276,3150,2986,2950,2801,2441,2364,2208,2100,2106,1868,1640,1496,1525,1421,1422,1358,1318,1382,1350,1332,1441,1434,1445,1452,1451,1444,1448,1449,1451,1463,1453,1447,1449,1451,1459,1480,1473,1461,1451,1456,1463,1480,1461,1459,1451,1451,1451,982,988,987,1005,1152,1856,2207,2379,2452,2449,2424,2413,2379,2366,2305,2276,2234,2191,2149,2114,2077,2016,1975,1921,1900,1834,1807,1722,1447,1226,1088,1060,1035,1028,1002,1001,998,1008,994,999,1005,1024,1002,1011,998,1005,999,993,1002,999,993,1012,1002,1005,1005,1015,1011,1020,1024,1010,1010,1049,1000,1009,1005,696,708,701,706,744,1233,1405,1587,1663,1708,1680,1677,1671,1598,1616,1590,1576,1514,1486,1460,1432,1405,1378,1351,1341,1297,1269,1243,1215,1188,944,744,707,709,710,707,709,700,715,710,705,708,745,828,721,721,736,809,735,818,755,757,727,731,749,744,750,736,796,818,811,806,800,755,757,0,0,0,0,0,0,0,0,0,0,0,0,0,0,0,0,0,0,0,0,0,0,0,0,0,0,0,0,0,0,0,0,0,0,0,0,0,0,0,0,0,0,0,0,0,0,0,0,0,0,0,0,0,0,0,0,0,0,0,0,0,0,0,0,0,1412,1460,1431,1671,2221,3402,3667,3873,3940,3939,3879,3880,3748,3693,3624,3552,3463,3410,3297,3291,3102,2799,2447,2370,2124,1854,1788,1736,1707,1615,1592,1552,1493,1485,1445,1449,1461,1474,1564,1566,1577,1581,1566,1572,1577,1579,1580,1609,1601,1603,1622,1584,1594,1617,1617,1608,1585,1593,1608,1615,1596,1594,1586,1586,1586,1050,1054,1057,1079,1374,2020,2398,2567,2632,2626,2605,2589,2542,2495,2460,2431,2384,2337,2290,2238,2191,2145,2100,2055,2022,1962,1915,1884,1524,1164,1162,1176,1101,1080,1068,1072,1069,1070,1056,1061,1066,1085,1063,1072,1059,1066,1060,1054,1063,1060,1054,1073,1063,1066,1066,1076,1072,1081,1085,1071,1071,1119,1061,1070,1066,457,458,479,461,468,761,861,1022,1117,1123,1131,1113,1095,1077,1103,1041,1009,1045,987,969,951,933,952,897,879,895,843,857,807,789,771,743,484,478,558,464,487,466,456,458,462,469,466,468,462,469,462,491,466,465,472,471,494,528,478,474,477,474,478,479,480,484,474,482,476,1196,1222,1223,1334,2315,2794,3169,3337,3412,3442,3393,3320,3240,3181,3129,3013,2996,2928,2861,2804,2709,2649,2558,2512,2424,2300,2263,2084,1819,1534,1356,1300,1305,1236,1225,1244,1236,1248,1304,1299,1304,1312,1332,1370,1324,1346,1338,1353,1353,1358,1356,1364,1357,1346,1342,1335,1350,1348,1345,1356,1352,1373,1348,1357,1349,751,740,756,759,785,1312,1485,1696,1782,1837,1771,1801,1760,1743,1669,1674,1653,1627,1597,1568,1548,1513,1480,1452,1413,1394,1364,1300,1298,1191,1004,943,772,776,769,763,740,744,739,741,741,739,745,743,752,750,754,748,742,741,748,745,753,745,753,802,750,794,785,744,800,742,746,749,739,565,566,575,569,580,914,1019,1124,1242,1306,1304,1302,1282,1248,1228,1210,1198,1188,1182,1148,1116,1090,1071,1053,1052,1033,1014,994,976,957,937,918,853,682,576,569,573,572,562,564,565,580,573,573,570,571,572,574,571,570,569,576,574,573,580,581,577,578,571,572,576,573,579,573,565,971,993,977,1011,1078,1746,1962,2228,2318,2394,2338,2302,2312,2224,2231,2151,2103,2064,2031,1995,1958,1932,1880,1881,1843,1725,1712,1624,1264,1164,1064,1037,1014,996,988,986,998,983,995,994,1002,1007,1005,1009,1002,1007,1004,1026,1008,1014,1009,1014,1012,1020,1015,1015,1011,1017,1012,1007,1016,1027,1016,1023,1014,723,742,728,735,805,1289,1471,1629,1728,1771,1767,1737,1710,1681,1653,1625,1605,1568,1540,1513,1492,1456,1431,1400,1371,1344,1316,1289,1259,1162,802,783,791,747,788,756,758,710,721,713,729,715,735,748,720,717,722,753,750,746,750,765,759,740,733,736,717,742,719,741,734,731,723,730,729,1167,1154,1157,1190,1388,1728,2502,2647,2769,2745,2792,2708,2679,2624,2553,2518,2506,2421,2417,2356,2307,2300,2260,2180,2071,1977,1713,1353,1348,1323,1237,1233,1231,1191,1170,1161,1170,1143,1136,1144,1129,1138,1164,1170,1167,1166,1158,1170,1163,1183,1167,1170,1171,1170,1174,1162,1171,1175,1169,1172,1174,1173,1170,1177,1163,942,945,948,949,993,1298,1979,2134,2244,2280,2329,2233,2221,2163,2088,2039,2058,2005,2014,1954,1910,1868,1836,1805,1747,1721,1620,1457,1197,1254,1024,998,1015,971,959,949,911,895,894,898,892,891,920,898,924,927,912,926,927,941,923,924,925,924,928,914,926,924,923,926,913,928,923,925,916,569,571,572,572,577,615,1089,1216,1335,1399,1462,1378,1383,1334,1290,1264,1270,1224,1225,1203,1178,1155,1135,1112,1088,1046,1045,1017,870,851,624,619,615,592,578,568,579,570,573,576,567,573,610,564,601,614,600,584,606,608,598,602,604,610,602,572,592,592,601,601,578,610,595,594,600,923,931,929,929,961,1259,1933,2089,2200,2237,2287,2191,2181,2123,2048,2000,2020,1967,1977,1918,1874,1834,1803,1772,1736,1689,1619,1425,1166,1224,1004,1011,996,972,940,929,911,895,894,898,892,891,920,898,924,927,912,926,927,941,923,924,925,924,928,914,926,924,923,926,913,928,923,925,916,1297,1304,1311,1385,1951,2571,3008,3165,3228,3228,3207,3152,3092,3038,2988,2934,2880,2816,2755,2693,2648,2606,2387,2110,2187,1904,1570,1520,1496,1464,1408,1388,1365,1330,1318,1289,1297,1286,1272,1272,1294,1317,1277,1304,1301,1285,1285,1290,1311,1288,1290,1298,1301,1319,1291,1297,1291,1326,1316,1291,1303,1290,1287,1353,1297,523,524,525,527,528,881,978,1073,1171,1227,1226,1206,1187,1169,1153,1141,1119,1101,1083,1067,1045,1027,1013,995,974,956,939,921,903,885,873,566,558,541,535,530,532,532,517,526,524,533,537,528,536,552,524,530,527,556,531,539,537,587,577,546,534,545,554,527,529,554,577,537,528,682,684,685,687,766,1194,1364,1527,1627,1680,1670,1647,1612,1589,1568,1548,1521,1489,1458,1432,1406,1394,1364,1337,1266,1188,1167,1142,1114,1092,994,886,768,704,693,688,691,674,661,659,675,698,664,675,665,670,665,670,693,667,665,667,668,693,672,671,670,668,670,668,672,671,666,714,676,516,517,518,519,532,880,998,1114,1221,1272,1275,1257,1229,1212,1195,1176,1155,1135,1110,1094,1074,1052,1032,1011,991,967,950,930,906,889,866,848,816,536,525,520,523,508,495,490,505,531,497,508,497,502,498,502,528,500,498,500,502,592,504,504,501,501,500,501,502,503,496,665,507,805,808,809,823,877,1284,1670,1939,2041,2068,1960,1932,1893,1864,1838,1896,1834,1743,1708,1681,1648,1751,1586,1555,1524,1489,1460,1429,1378,1244,888,868,848,828,817,816,817,821,848,827,821,833,867,864,849,848,855,858,862,853,861,861,859,879,874,866,864,870,865,862,873,858,860,916,864,360,368,361,371,359,578,648,709,770,819,831,813,801,796,822,807,756,780,733,722,739,698,710,675,709,652,642,630,619,612,600,612,381,374,367,367,365,459,362,351,354,353,353,358,360,375,359,359,360,356,355,356,355,361,364,357,358,356,356,356,357,360,357,363,360,845,848,849,857,964,1336,1785,1997,2089,2116,2065,1981,1953,1914,1887,1945,1884,1794,1758,1772,1700,1803,1648,1606,1575,1540,1513,1482,1170,1213,930,928,884,868,858,856,840,845,849,858,859,862,859,861,864,877,859,858,862,857,863,861,861,856,857,871,870,872,865,867,864,886,873,898,863,1175,1165,1176,1192,1320,1733,2527,2659,2760,2790,2816,2715,2691,2648,2575,2533,2496,2441,2420,2359,2317,2285,2241,2190,2064,2100,1861,1501,1436,1395,1271,1227,1228,1198,1187,1185,1181,1135,1130,1136,1126,1131,1154,1152,1165,1157,1142,1164,1162,1175,1161,1164,1165,1164,1168,1154,1165,1169,1163,1166,1168,1169,1164,1171,1157,1485,1494,1534,1653,2501,3130,3638,3746,3793,3800,3806,3677,3675,3561,3498,3430,3361,3294,3243,3181,2978,2618,2437,2274,1929,1915,1831,1800,1753,1700,1647,1570,1565,1533,1524,1515,1528,1565,1568,1569,1565,1584,1615,1616,1604,1621,1613,1617,1611,1635,1627,1627,1630,1629,1631,1618,1626,1632,1627,1629,1624,1624,1623,1627,1614,0,0,0,0,0,0,0,0,0,0,0,0,0,0,0,0,0,0,0,0,0,0,0,0,0,0,0,0,0,0,0,0,0,0,0,0,0,0,0,0,0,0,0,0,0,0,0,0,0,0,0,0,0,0,0,0,0,0,0,0,0,0,0,0,0,642,644,644,646,680,1117,1267,1421,1525,1579,1570,1548,1515,1493,1473,1454,1428,1397,1368,1345,1322,1305,1276,1249,1225,1197,1176,1149,1121,1095,1031,919,686,674,653,650,652,628,615,610,625,651,617,628,618,623,619,625,651,623,622,624,626,648,628,628,625,626,624,625,626,628,620,748,632,1266,1270,1277,1332,1885,2492,2932,3090,3155,3157,3138,3084,3024,2970,2922,2869,2817,2754,2695,2633,2589,2558,2492,2149,2126,2060,1733,1487,1464,1432,1377,1357,1334,1299,1286,1276,1284,1273,1259,1259,1281,1304,1264,1291,1288,1272,1272,1277,1298,1275,1277,1285,1288,1306,1278,1284,1278,1313,1303,1278,1291,1277,1274,1340,1284,585,527,533,524,588,902,954,1110,1189,1184,1243,1226,1207,1195,1146,1123,1104,1087,1098,1098,1010,985,1030,997,942,960,942,924,916,896,837,542,546,534,543,537,533,575,523,534,527,570,522,542,528,545,535,541,537,528,541,533,542,540,541,540,545,540,576,537,540,579,543,593,581,1182,1196,1192,1216,1356,1793,2590,2710,2820,2829,2872,2784,2757,2695,2622,2577,2562,2490,2491,2421,2372,2331,2295,2245,2182,2007,1852,1650,1379,1377,1275,1243,1241,1211,1207,1183,1150,1134,1133,1137,1131,1130,1159,1137,1163,1166,1151,1165,1166,1180,1162,1163,1164,1163,1167,1153,1165,1163,1162,1165,1152,1167,1162,1164,1155,1474,1482,1476,1636,2361,3065,3544,3629,3704,3709,3664,3601,3498,3461,3398,3312,3275,3208,3136,3011,2883,2591,2468,2224,1864,1818,1774,1718,1696,1649,1588,1566,1521,1485,1501,1481,1507,1505,1513,1489,1518,1535,1517,1517,1512,1510,1510,1539,1542,1546,1511,1523,1563,1538,1544,1542,1512,1520,1549,1518,1519,1519,1512,1556,1520,858,860,863,866,909,1149,1791,1940,2058,2085,2137,2061,2061,2009,1957,1902,1896,1838,1827,1793,1755,1726,1701,1656,1596,1578,1490,1285,1026,1175,945,935,916,895,874,876,867,842,836,837,821,828,854,846,861,862,847,866,862,876,858,859,860,859,863,851,861,866,860,861,864,863,858,865,851,1167,1154,1157,1190,1388,1728,2502,2647,2769,2745,2792,2708,2679,2624,2553,2518,2506,2421,2417,2356,2307,2300,2260,2180,2071,1977,1713,1353,1348,1323,1237,1233,1231,1191,1170,1161,1170,1143,1136,1144,1129,1138,1164,1170,1167,1166,1158,1170,1163,1183,1167,1170,1171,1170,1174,1162,1171,1175,1169,1172,1174,1173,1170,1177,1163,768,756,756,767,809,1155,1483,1646,1806,1879,1823,1826,1795,1779,1693,1696,1675,1637,1589,1559,1569,1537,1489,1448,1416,1461,1346,1257,946,1149,935,828,841,800,784,796,782,747,734,733,735,738,741,738,742,742,741,748,743,762,766,765,748,748,742,742,748,739,738,742,744,746,746,743,742,515,496,497,499,511,651,974,1095,1171,1265,1226,1209,1187,1213,1147,1128,1108,1087,1070,1049,1071,1009,988,970,949,965,910,926,905,819,693,676,609,536,525,546,524,474,461,460,462,465,468,465,469,469,468,475,470,486,490,487,475,475,469,469,475,466,465,469,471,473,473,470,469,258,259,260,278,279,329,461,513,566,618,645,635,625,615,604,595,584,574,562,555,542,533,523,513,502,501,493,474,472,462,452,432,398,330,283,280,280,276,202,203,201,205,206,205,206,210,206,206,210,210,209,205,206,211,206,206,209,207,207,209,207,210,208,208,208,497,477,478,480,489,619,936,1052,1125,1220,1182,1165,1144,1171,1105,1088,1068,1047,1031,1011,1033,972,952,934,915,932,877,894,873,788,662,646,579,516,506,536,504,474,461,460,462,465,468,465,469,469,468,475,470,489,493,492,475,475,469,469,475,466,465,469,471,473,473,470,469,776,778,816,792,869,1477,1709,1908,2021,2050,2035,1999,1962,1930,1893,1992,1821,1787,1743,1835,1674,1636,1603,1557,1528,1492,1455,1418,1383,1114,1047,949,828,804,791,790,776,762,764,758,770,770,763,777,769,774,775,777,821,782,781,782,784,817,785,786,773,784,785,784,817,783,783,809,808,903,918,922,925,986,1384,1864,2033,2155,2198,2178,2143,2090,2078,2038,2002,1967,1960,1930,1829,1826,1802,1764,1749,1707,1658,1623,1430,1284,1133,1004,997,928,939,914,912,922,917,883,884,882,886,887,886,887,891,887,887,891,891,890,886,887,892,887,887,890,888,888,890,888,891,889,889,889,96,96,96,97,97,99,168,187,205,224,238,235,231,228,224,220,217,213,210,205,201,198,194,190,187,183,180,176,172,168,164,160,157,153,100,97,98,98,89,90,87,88,91,91,90,91,90,93,91,93,95,99,95,98,92,91,91,93,91,99,91,91,91,91,91,120,120,120,120,121,124,208,236,261,286,302,297,292,288,283,278,273,268,264,259,254,249,244,240,235,230,225,220,216,207,205,200,195,190,124,121,121,122,120,108,108,108,156,115,114,110,110,112,155,121,121,121,152,120,158,117,117,152,160,123,113,114,186,117,112,336,337,338,339,340,521,648,724,771,870,840,826,813,846,786,772,759,746,732,718,746,692,678,664,651,675,625,646,632,618,603,589,559,545,364,361,362,363,342,351,345,356,362,368,358,362,349,361,355,353,352,358,356,365,366,366,363,357,421,363,357,368,352,362,353,616,617,631,621,647,858,1173,1308,1437,1508,1510,1486,1462,1438,1414,1390,1366,1342,1347,1294,1270,1246,1222,1198,1174,1150,1126,1102,1078,1054,867,847,655,639,628,624,643,644,617,620,619,636,624,625,630,630,624,628,624,627,630,623,627,631,629,633,629,630,634,626,626,652,633,653,630,382,377,373,379,376,556,700,774,819,926,898,885,861,894,835,833,808,806,782,769,796,754,729,716,703,726,676,698,684,670,629,614,618,459,405,410,397,399,358,359,363,375,375,375,367,377,371,373,374,379,378,376,371,384,380,371,372,378,376,385,381,389,380,387,378,801,811,809,819,835,1293,1558,1732,1867,1936,1935,1882,1854,1844,1799,1769,1763,1705,1688,1662,1632,1593,1570,1538,1518,1431,1339,1338,978,1152,967,875,854,836,831,821,823,793,769,765,775,781,782,776,782,786,782,782,786,786,785,781,782,787,782,782,785,783,783,785,783,786,784,784,784,1154,1157,1161,1174,1452,2360,2648,2819,2918,2931,2902,2850,2798,2751,2701,2784,2599,2550,2492,2568,2397,2351,2300,2242,2091,1956,1828,1709,1489,1442,1283,1255,1217,1188,1173,1173,1154,1136,1138,1135,1144,1149,1146,1157,1147,1157,1163,1161,1234,1174,1164,1195,1176,1216,1171,1176,1190,1172,1176,1174,1224,1193,1163,1219,1196,620,623,636,627,652,866,1181,1317,1447,1518,1519,1512,1471,1447,1423,1399,1375,1366,1355,1303,1279,1274,1231,1226,1183,1159,1154,1129,1086,1029,874,676,660,644,633,630,648,647,622,627,625,636,628,628,631,636,630,630,629,634,636,631,636,641,638,641,637,639,647,638,639,638,639,638,633,0,0,0,0,0,0,0,0,0,0,0,0,0,0,0,0,0,0,0,0,0,0,0,0,0,0,0,0,0,0,0,0,0,0,0,0,0,0,0,0,0,0,0,0,0,0,0,0,0,0,0,0,0,0,0,0,0,0,0,0,0,0,0,0,0,745,748,784,758,834,1407,1630,1829,1943,1974,1959,1924,1889,1859,1824,1926,1753,1721,1678,1772,1610,1575,1543,1498,1471,1436,1401,1366,1331,1270,1160,924,796,773,760,759,763,749,751,745,757,757,750,764,756,761,762,764,808,769,768,769,771,804,772,773,760,771,772,771,804,771,770,796,800,967,967,972,979,1090,1518,2027,2196,2315,2342,2326,2287,2182,2219,2127,2115,2097,2088,2040,1952,1947,1924,1882,1860,1814,1556,1465,1543,1355,1142,1114,1012,993,998,978,976,977,968,934,935,933,937,938,937,938,942,938,938,942,942,941,937,938,943,938,938,941,939,939,941,939,942,940,940,940,775,750,744,750,822,1139,1562,1709,1789,1862,1834,1791,1779,1792,1719,1661,1640,1603,1596,1555,1592,1511,1459,1470,1423,1433,1368,1241,1132,1085,837,895,817,802,768,798,761,713,700,699,701,704,707,704,708,708,707,714,709,728,732,731,714,714,708,708,714,705,704,708,710,712,712,709,708,931,964,959,959,1170,1913,2236,2428,2528,2566,2530,2474,2428,2382,2336,2290,2250,2202,2152,2109,2060,2014,1990,1920,1876,1830,1784,1753,1573,1294,1186,1173,984,990,978,979,976,981,985,1000,1027,1011,1023,1016,1020,1031,1000,1024,1008,1032,1012,1033,1030,1076,1033,1039,1029,1030,1018,1014,1031,1025,1028,1019,1004,476,470,471,472,480,636,867,989,1062,1160,1119,1105,1090,1122,1060,1069,1042,1023,1002,984,1000,949,932,876,859,859,807,798,780,763,708,521,522,509,495,492,496,466,443,444,447,452,453,456,453,459,453,454,456,457,455,453,456,460,453,453,457,455,455,457,456,457,457,456,456,768,756,756,767,809,1155,1483,1646,1806,1879,1823,1826,1795,1779,1693,1696,1675,1637,1589,1559,1569,1537,1489,1448,1416,1461,1346,1257,946,1149,935,828,841,800,784,796,782,747,734,733,735,738,741,738,742,742,741,748,743,762,766,765,748,748,742,742,748,739,738,742,744,746,746,743,742,690,667,669,692,706,1050,1329,1483,1644,1684,1681,1653,1632,1555,1528,1503,1515,1450,1498,1440,1372,1390,1360,1335,1306,1242,1215,1227,1165,886,833,853,731,745,703,700,689,679,706,713,714,711,712,720,719,724,719,723,724,726,723,719,724,729,733,718,725,719,721,729,724,727,729,732,719,600,602,618,606,648,1048,1188,1328,1432,1480,1480,1456,1432,1408,1386,1362,1338,1314,1291,1267,1272,1219,1222,1198,1148,1124,1101,1077,1053,1029,910,796,741,681,612,610,612,603,601,590,598,596,594,605,597,599,598,609,618,611,611,614,616,620,614,616,609,614,618,619,626,618,616,626,617,904,906,909,913,1010,1716,1984,2169,2314,2348,2330,2297,2245,2205,2178,2121,2089,2063,1997,1960,1932,1897,1846,1806,1764,1724,1674,1573,1334,1223,1111,992,965,937,919,924,882,880,877,871,882,890,896,898,894,881,893,901,900,894,907,909,910,904,912,900,888,902,891,894,888,906,893,906,882,615,631,646,621,676,1077,1221,1364,1468,1515,1515,1490,1466,1442,1437,1393,1383,1345,1321,1297,1302,1248,1252,1227,1176,1150,1126,1102,1078,1054,954,877,756,653,627,624,626,603,601,590,598,596,594,605,597,599,598,609,618,615,611,616,616,620,614,616,609,617,618,619,636,618,617,648,634,52,52,52,52,52,54,61,67,74,81,88,87,85,84,82,81,80,78,76,75,74,73,72,69,68,67,66,64,63,61,60,58,57,56,55,52,54,54,13,13,13,13,13,13,13,13,13,13,13,13,13,13,13,13,13,13,13,13,13,13,13,13,13,12,13,1288,1303,1339,1391,2344,2816,3239,3424,3575,3598,3549,3488,3367,3349,3278,3201,3138,3058,3012,2954,2848,2580,2222,2210,2097,1968,1928,1855,1574,1489,1473,1379,1338,1327,1321,1306,1334,1319,1320,1309,1315,1326,1326,1326,1326,1331,1330,1327,1333,1326,1328,1327,1326,1330,1326,1326,1327,1330,1326,1325,1327,1327,1326,1327,1322,756,758,771,769,813,1376,1596,1810,1957,1996,1983,1948,1966,1878,1843,1867,1833,1796,1701,1665,1643,1612,1560,1525,1505,1506,1418,1383,1348,1295,1062,873,804,796,779,768,772,804,773,775,768,774,791,786,794,790,793,793,796,783,796,795,799,798,800,798,800,798,799,793,791,787,800,795,782,780,782,794,798,838,1461,1656,1874,2018,2056,2059,2006,2062,1934,1897,1933,1886,1848,1752,1716,1691,1660,1606,1570,1531,1550,1461,1422,1402,1171,1065,852,828,820,803,792,807,823,797,796,788,809,821,806,819,810,812,815,816,804,818,818,820,820,824,820,823,822,822,815,817,810,823,816,805,702,704,706,711,754,1264,1467,1670,1820,1862,1851,1818,1785,1752,1719,1686,1653,1620,1586,1554,1520,1488,1454,1422,1388,1354,1322,1288,1256,1222,1034,771,749,728,715,713,717,720,727,729,732,741,736,740,736,741,741,741,740,738,740,743,740,741,744,741,744,742,741,740,743,744,743,742,741,1280,1286,1295,1396,1572,2661,2893,3073,3200,3205,3172,3118,3148,3010,2962,2968,2912,2856,2743,2685,2578,2442,2328,2105,2040,1869,1748,1599,1465,1496,1435,1388,1332,1324,1306,1300,1304,1341,1308,1321,1305,1308,1337,1327,1340,1328,1331,1334,1335,1323,1336,1334,1343,1342,1339,1341,1344,1338,1343,1362,1345,1365,1346,1334,1331,601,627,604,606,630,1018,1224,1398,1551,1640,1594,1567,1569,1532,1474,1446,1428,1400,1372,1333,1317,1276,1261,1257,1192,1174,1136,1117,1095,1002,851,827,662,648,616,615,618,631,626,624,624,636,631,628,631,635,633,635,643,634,634,637,635,636,636,639,640,640,636,634,640,632,641,637,632,752,754,756,764,790,1220,1432,1570,1652,1705,1732,1678,1640,1629,1605,1612,1543,1531,1507,1512,1446,1450,1402,1466,1348,1336,1316,1276,1237,957,975,786,794,776,766,776,768,755,749,755,757,778,767,770,764,763,758,757,773,767,788,787,794,800,775,776,780,781,791,777,775,772,786,805,768,476,477,479,480,483,608,912,1035,1141,1209,1179,1160,1142,1123,1104,1084,1066,1094,1028,1010,991,972,952,934,950,931,910,891,821,720,703,534,522,497,486,483,484,485,435,440,437,449,455,457,448,462,442,469,456,452,455,453,457,463,456,454,465,469,455,458,457,466,451,449,442,1293,1291,1301,1362,1579,2670,2902,3083,3208,3214,3181,3127,3162,3019,2972,2977,2921,2864,2752,2710,2639,2599,2382,2057,1959,1680,1700,1507,1507,1500,1448,1394,1336,1329,1312,1302,1309,1327,1314,1318,1310,1311,1341,1330,1341,1328,1336,1341,1345,1331,1347,1339,1351,1351,1346,1347,1335,1349,1338,1341,1335,1342,1340,1337,1329,670,672,674,677,714,1200,1393,1587,1741,1785,1776,1743,1806,1680,1648,1674,1643,1611,1521,1489,1456,1425,1393,1362,1329,1348,1266,1234,1202,1217,1030,827,716,696,682,681,685,721,698,688,680,683,712,711,710,700,708,712,711,711,712,714,713,712,710,712,715,713,715,718,714,716,714,704,703,0,0,0,0,0,0,0,0,0,0,0,0,0,0,0,0,0,0,0,0,0,0,0,0,0,0,0,0,0,0,0,0,0,0,0,0,0,0,0,0,0,0,0,0,0,0,0,0,0,0,0,0,0,0,0,0,0,0,0,0,0,0,0,0,0,1289,1287,1323,1427,2283,2818,3260,3487,3659,3644,3600,3534,3456,3429,3337,3246,3184,3086,3041,2926,2838,2613,2343,2312,2215,2056,1963,1713,1684,1490,1426,1411,1344,1315,1309,1312,1333,1333,1336,1325,1327,1340,1340,1342,1340,1345,1344,1341,1347,1340,1342,1341,1340,1344,1340,1340,1341,1344,1340,1339,1341,1341,1340,1341,1336,588,579,580,603,602,805,1126,1258,1364,1450,1420,1440,1437,1353,1356,1308,1310,1285,1296,1294,1195,1197,1201,1151,1126,1081,1058,1047,936,826,738,796,704,687,616,612,599,578,599,600,603,603,607,610,611,616,608,608,610,611,607,607,609,618,620,609,615,610,607,614,611,612,614,619,604,363,364,365,366,367,526,623,682,740,797,828,817,806,794,783,771,760,748,738,727,715,704,692,681,670,658,648,636,625,614,602,591,517,379,372,368,368,369,300,302,301,304,307,305,305,307,301,309,307,310,312,311,321,320,325,310,309,312,320,319,326,319,313,317,312,671,673,672,689,725,1171,1322,1471,1573,1635,1632,1592,1584,1558,1518,1531,1480,1442,1426,1392,1366,1340,1316,1299,1270,1238,1222,1184,1138,1113,910,883,807,692,681,681,680,676,670,664,670,669,669,672,671,672,676,683,681,681,684,684,687,684,689,691,682,690,690,690,694,692,691,703,694,690,667,669,692,706,1050,1329,1483,1644,1684,1681,1653,1632,1555,1528,1503,1515,1450,1498,1440,1372,1390,1360,1335,1306,1242,1215,1227,1165,886,833,853,731,745,703,700,689,679,706,713,714,711,712,720,719,724,719,723,724,726,723,719,724,729,733,718,725,719,721,729,724,727,729,732,719,1357,1357,1379,1405,1529,2669,2967,3085,3192,3169,3192,3132,3073,3071,2987,2925,2894,2830,2810,2755,2623,2317,2189,2010,1862,1652,1652,1553,1566,1545,1488,1425,1441,1384,1390,1381,1357,1318,1310,1315,1323,1335,1316,1341,1319,1321,1330,1325,1345,1326,1327,1329,1326,1356,1359,1332,1329,1336,1328,1335,1331,1351,1332,1363,1336,1156,1154,1167,1174,1356,2190,2522,2644,2772,2746,2764,2707,2660,2627,2555,2523,2484,2447,2436,2376,2338,2294,2194,2219,2138,2071,1711,1351,1355,1310,1279,1220,1233,1176,1191,1155,1118,1081,1065,1067,1082,1092,1069,1101,1077,1076,1089,1088,1107,1081,1081,1083,1080,1110,1113,1087,1085,1092,1082,1090,1086,1104,1085,1116,1089,823,811,802,820,873,1334,1657,1868,1938,2000,1943,1971,1938,1907,1871,1804,1808,1776,1714,1711,1650,1623,1611,1585,1537,1479,1387,1380,1344,1236,895,975,851,854,822,810,835,824,811,809,810,808,830,830,822,833,832,846,845,848,830,836,844,846,830,835,846,837,844,846,854,860,857,863,848,1137,1135,1148,1153,1323,2144,2477,2600,2729,2704,2722,2667,2620,2588,2516,2485,2446,2410,2400,2343,2304,2261,2161,2187,2106,2052,1766,1486,1487,1371,1276,1200,1220,1157,1176,1155,1118,1081,1065,1067,1082,1092,1069,1101,1077,1076,1089,1088,1107,1081,1081,1083,1080,1110,1113,1087,1085,1092,1082,1090,1086,1104,1085,1116,1089,1239,1242,1283,1517,2493,2976,3319,3535,3603,3592,3602,3529,3435,3360,3250,3154,3082,3010,2960,3015,2917,2557,2409,2272,2112,1977,1830,1787,1642,1540,1380,1345,1296,1284,1356,1300,1297,1296,1375,1375,1387,1410,1388,1406,1390,1387,1387,1395,1474,1398,1404,1473,1483,1479,1501,1492,1436,1404,1414,1412,1406,1411,1402,1445,1445,116,116,117,117,177,181,204,228,250,273,290,285,280,276,272,267,262,258,254,249,244,240,235,231,226,222,217,213,208,204,199,195,190,186,181,177,178,178,108,110,110,111,111,112,112,110,110,110,110,110,111,114,111,111,112,112,112,113,114,112,112,112,111,111,111,1084,1074,1074,1096,1194,1853,2227,2509,2570,2600,2552,2555,2492,2459,2418,2307,2335,2294,2197,2211,2157,2098,2026,1976,1938,1897,1728,1468,1320,1314,1184,1144,1092,1103,1088,1077,1080,1065,1046,1050,1059,1070,1045,1060,1057,1058,1083,1048,1046,1051,1051,1067,1057,1071,1054,1067,1064,1067,1054,1073,1078,1078,1075,1088,1068,917,920,906,931,990,1476,1823,2120,2196,2266,2199,2183,2125,2094,2059,2019,1988,1953,1917,1892,1865,1821,1793,1750,1711,1668,1636,1526,1314,1287,1172,973,950,935,920,918,914,899,877,880,892,903,878,892,889,891,915,881,879,884,884,901,891,903,887,898,897,897,887,903,910,908,906,919,899,1164,1155,1150,1172,1442,2087,2459,2679,2762,2769,2736,2722,2694,2657,2605,2485,2507,2443,2361,2382,2316,2254,2214,2193,2143,2089,1923,1584,1534,1378,1252,1232,1174,1196,1173,1158,1175,1157,1141,1146,1155,1160,1148,1174,1154,1149,1164,1165,1185,1158,1160,1171,1160,1189,1180,1165,1166,1172,1162,1171,1165,1183,1164,1185,1168,550,552,553,560,563,560,1067,1208,1200,1363,1332,1281,1260,1239,1219,1225,1177,1183,1136,1114,1028,1009,988,969,950,930,910,891,872,744,555,542,626,611,538,549,550,552,547,520,520,521,532,537,534,531,535,544,557,542,549,551,551,552,543,548,558,557,562,560,552,552,562,557,561,1164,1177,1186,1215,1379,2136,2507,2727,2810,2818,2785,2771,2743,2706,2654,2534,2558,2493,2412,2432,2368,2306,2264,2256,2194,2054,1789,1533,1423,1413,1292,1283,1215,1238,1188,1181,1198,1175,1164,1165,1173,1188,1165,1195,1169,1170,1186,1186,1197,1175,1176,1179,1170,1200,1208,1185,1182,1188,1181,1188,1186,1200,1181,1207,1185,1324,1348,1334,1392,1716,2606,2894,3009,3153,3170,3108,3062,2995,2996,2917,2916,2853,2787,2763,2651,2614,2310,2224,2002,1976,1726,1728,1525,1501,1476,1432,1428,1404,1340,1336,1332,1351,1312,1306,1309,1316,1325,1300,1336,1307,1306,1322,1323,1341,1319,1321,1323,1320,1350,1351,1326,1323,1330,1322,1329,1327,1345,1326,1357,1330,1161,1161,1218,1282,2251,2715,3069,3426,3369,3364,3319,3232,3159,3092,3049,2958,2890,2823,2779,2739,2759,2554,2417,2288,2274,2206,1989,1972,1743,1506,1300,1298,1217,1204,1272,1221,1199,1197,1235,1273,1251,1272,1273,1263,1257,1270,1275,1269,1284,1265,1269,1275,1280,1284,1294,1301,1293,1290,1300,1310,1335,1435,1312,1312,1303,418,418,420,422,411,558,748,877,966,1060,1058,1041,963,948,932,916,901,915,870,854,866,823,833,792,775,759,744,759,712,697,667,652,562,423,520,409,411,412,408,407,410,412,413,412,416,416,415,419,417,417,424,432,439,439,417,416,418,421,429,424,425,443,424,429,423,1043,1037,1034,1059,1146,1756,2125,2416,2480,2518,2464,2460,2397,2364,2324,2227,2245,2204,2120,2135,2086,2027,1986,1985,1941,1876,1707,1349,1184,1163,1132,1106,1065,1063,1048,1047,1034,1019,997,1000,1012,1023,998,1013,1010,1012,1038,1004,1002,1008,1008,1025,1014,1027,1011,1022,1022,1021,1011,1027,1035,1032,1031,1044,1024,1261,1266,1309,1558,2439,3027,3369,3584,3651,3640,3588,3561,3479,3344,3295,3199,3126,3105,3002,2955,2876,2651,2354,2229,2157,1998,1770,1729,1681,1484,1403,1368,1319,1311,1323,1334,1320,1320,1382,1394,1404,1427,1398,1417,1402,1471,1405,1419,1513,1485,1430,1509,1515,1546,1552,1497,1423,1416,1425,1494,1418,1415,1406,1486,1486,0,0,0,0,0,0,0,0,0,0,0,0,0,0,0,0,0,0,0,0,0,0,0,0,0,0,0,0,0,0,0,0,0,0,0,0,0,0,0,0,0,0,0,0,0,0,0,0,0,0,0,0,0,0,0,0,0,0,0,0,0,0,0,0,0,1394,1394,1414,1443,1837,2793,3079,3181,3273,3256,3270,3210,3154,3146,3060,2998,2961,2920,2887,2801,2441,2356,1996,1999,1732,1707,1694,1587,1599,1610,1535,1458,1477,1421,1427,1394,1357,1320,1304,1306,1321,1331,1308,1340,1316,1315,1328,1327,1346,1320,1320,1322,1319,1349,1352,1326,1324,1331,1321,1329,1325,1343,1324,1355,1328,1221,1224,1251,1356,2380,2856,3225,3428,3519,3494,3446,3358,3283,3214,3169,3076,3022,2938,2892,2865,2731,2677,2468,2333,2172,2119,1978,1835,1619,1407,1369,1328,1285,1265,1247,1253,1278,1277,1348,1387,1355,1372,1387,1383,1370,1383,1381,1378,1393,1372,1375,1394,1391,1396,1404,1525,1409,1406,1477,1472,1471,1470,1461,1581,1526,1075,1072,1086,1086,1228,1998,2335,2445,2576,2565,2600,2527,2488,2497,2423,2359,2319,2281,2272,2197,2186,2145,2048,2072,1994,1968,1626,1395,1447,1294,1211,1138,1145,1095,1105,1093,1058,1018,1007,1004,1013,1025,1005,1032,1012,1011,1024,1023,1042,1016,1016,1018,1015,1045,1048,1022,1020,1027,1017,1025,1021,1039,1020,1051,1024,1357,1357,1379,1405,1529,2669,2967,3085,3192,3169,3192,3132,3073,3071,2987,2925,2894,2830,2810,2755,2623,2317,2189,2010,1862,1652,1652,1553,1566,1545,1488,1425,1441,1384,1390,1381,1357,1318,1310,1315,1323,1335,1316,1341,1319,1321,1330,1325,1345,1326,1327,1329,1326,1356,1359,1332,1329,1336,1328,1335,1331,1351,1332,1363,1336,156,156,157,157,158,246,279,312,344,376,393,386,380,374,368,361,355,349,343,337,330,324,318,312,304,298,292,286,280,273,267,261,255,249,212,209,210,210,139,139,139,139,139,139,139,139,139,139,139,139,139,139,139,139,139,139,139,139,139,139,139,139,139,139,139,380,382,398,384,387,555,691,759,826,907,900,867,855,843,831,818,806,794,782,770,786,745,733,720,706,694,711,669,657,644,632,619,471,396,388,385,386,378,362,367,366,368,366,366,372,372,371,372,367,371,367,373,373,373,373,373,372,371,370,370,370,370,370,370,370,698,672,687,704,733,1064,1393,1530,1569,1641,1685,1657,1636,1565,1540,1562,1508,1478,1504,1424,1434,1412,1343,1316,1290,1301,1239,1179,1141,1025,828,831,751,720,689,707,718,654,649,651,655,656,658,656,655,655,655,653,654,655,653,652,652,652,652,652,652,652,652,652,652,652,652,652,652,396,396,397,412,402,619,718,807,864,945,936,902,890,877,864,852,838,825,813,800,817,774,762,747,734,721,735,694,682,669,656,621,575,411,403,400,483,378,362,367,366,368,366,366,372,372,371,372,367,371,367,373,373,373,373,373,372,371,373,373,373,373,373,373,373,609,611,612,615,618,1042,1204,1321,1411,1480,1480,1456,1426,1430,1386,1361,1338,1314,1292,1309,1255,1214,1197,1173,1148,1127,1086,1062,1048,1004,905,859,795,621,610,607,608,592,593,592,593,593,605,609,616,611,605,608,609,609,607,601,604,619,621,604,605,608,598,610,605,610,604,621,605,1338,1313,1310,1402,1703,2485,2919,3021,3079,3098,3093,3087,3018,2920,2880,2879,2791,2746,2785,2654,2418,2203,2110,1779,1868,1628,1582,1553,1545,1477,1461,1450,1407,1384,1345,1330,1354,1289,1288,1291,1297,1303,1306,1299,1291,1303,1314,1300,1302,1305,1306,1299,1299,1299,1299,1299,1299,1299,1299,1299,1299,1299,1299,1299,1299,893,864,873,901,941,1591,1819,1959,2038,2089,2116,2080,2041,1977,1942,1970,1912,1861,1896,1800,1804,1762,1694,1659,1627,1581,1563,1363,1215,1143,1041,1018,962,919,884,909,908,865,868,868,868,868,868,868,868,868,868,868,868,868,868,868,868,868,868,868,868,868,868,868,868,868,868,868,868,911,878,882,924,968,1538,1848,1989,2078,2110,2143,2105,2075,2004,1966,1988,1935,1886,1914,1817,1827,1795,1715,1679,1647,1587,1469,1408,1243,1009,1020,992,984,941,904,914,895,859,857,857,857,857,857,857,857,857,857,857,857,857,857,857,857,857,857,857,857,857,857,857,857,857,857,857,857,740,714,716,746,751,1288,1458,1580,1675,1721,1757,1727,1705,1634,1607,1637,1591,1544,1582,1489,1504,1478,1405,1375,1349,1359,1294,1302,1308,1151,1084,915,824,762,726,750,749,705,709,708,707,707,707,707,707,707,707,707,707,707,707,707,707,707,707,707,707,707,707,707,707,707,707,707,707,1351,1329,1346,1404,1886,2593,2973,3093,3118,3138,3167,3104,3074,2972,2909,2917,2861,2785,2810,2471,2209,2168,2108,1999,1687,1653,1587,1564,1529,1480,1495,1456,1424,1414,1345,1364,1370,1346,1344,1347,1347,1347,1347,1347,1347,1347,1347,1347,1347,1347,1347,1347,1347,1347,1347,1347,1347,1347,1347,1347,1347,1347,1347,1347,1347,614,616,621,624,636,994,1152,1276,1369,1384,1411,1393,1415,1357,1338,1291,1304,1286,1268,1250,1231,1200,1196,1140,1120,1130,1082,1062,1004,985,760,733,717,633,628,627,640,616,600,595,600,609,603,608,606,609,607,610,611,607,605,609,608,607,611,611,609,610,611,611,611,611,611,611,611,242,243,244,244,245,380,431,482,531,594,607,597,586,577,567,558,553,538,529,519,510,504,490,481,471,462,452,441,432,422,415,403,397,307,249,246,295,247,210,210,210,210,210,210,210,210,210,210,210,210,210,210,210,210,210,210,210,210,210,210,210,210,210,210,210,841,844,847,850,971,1549,1720,1879,1902,1963,1910,1904,1879,1851,1824,1851,1819,1825,1754,1723,1707,1658,1626,1622,1569,1529,1416,1359,1352,1226,1005,900,886,852,856,854,856,817,816,813,816,816,816,816,816,816,816,816,816,816,816,816,816,816,816,816,816,816,816,816,816,816,816,816,816,1240,1211,1222,1302,1615,2341,2665,2784,2858,2877,2893,2846,2803,2722,2668,2680,2618,2554,2569,2462,2431,2415,2114,2042,1809,1523,1430,1480,1448,1361,1364,1317,1340,1298,1233,1255,1242,1211,1215,1213,1213,1213,1213,1213,1213,1213,1213,1213,1213,1213,1213,1213,1213,1213,1213,1213,1213,1213,1213,1213,1213,1213,1213,1213,1213,828,803,804,836,973,1479,1663,1799,1889,1921,1951,1918,1916,1821,1797,1823,1766,1717,1763,1660,1672,1643,1563,1538,1505,1516,1449,1421,1262,983,967,946,936,852,816,839,832,800,808,808,808,808,808,808,808,808,808,808,808,808,808,808,808,808,808,808,808,808,808,808,808,808,808,808,808,567,568,570,572,583,975,1123,1233,1324,1395,1396,1374,1352,1350,1308,1285,1263,1240,1219,1243,1191,1152,1130,1107,1084,1063,1029,1008,996,946,927,803,742,590,579,576,577,579,580,579,580,580,592,596,608,608,592,595,596,596,594,588,591,606,608,591,592,595,585,597,592,597,592,608,592,1401,1379,1368,1460,1758,2650,3073,3167,3223,3241,3233,3224,3150,3055,3016,3008,2917,2871,2815,2455,2201,2042,1952,1711,1771,1699,1652,1652,1624,1543,1524,1502,1471,1438,1409,1385,1405,1341,1340,1351,1356,1355,1358,1351,1343,1362,1365,1362,1363,1363,1360,1362,1362,1362,1362,1362,1362,1362,1362,1362,1362,1362,1362,1362,1362,0,0,0,0,0,0,0,0,0,0,0,0,0,0,0,0,0,0,0,0,0,0,0,0,0,0,0,0,0,0,0,0,0,0,0,0,0,0,0,0,0,0,0,0,0,0,0,0,0,0,0,0,0,0,0,0,0,0,0,0,0,0,0,0,0,818,820,823,825,901,1450,1654,1790,1886,1932,1882,1898,1873,1831,1816,1791,1759,1731,1702,1664,1663,1617,1588,1561,1532,1503,1474,1441,1362,1312,1169,990,868,854,844,829,832,816,835,834,832,839,830,835,837,835,848,847,837,852,866,866,866,860,857,845,838,855,866,855,866,866,848,858,854,449,448,451,452,461,705,820,907,986,1014,1020,1022,1009,990,964,951,954,937,909,896,898,885,858,844,824,811,805,790,772,729,698,538,591,465,432,461,458,438,434,438,435,438,436,438,438,438,438,438,438,438,438,438,438,438,438,438,438,438,438,438,438,438,438,438,438,156,156,157,157,158,246,279,312,344,376,393,386,380,374,368,361,355,349,343,337,330,324,318,312,304,298,292,286,280,273,267,261,255,249,212,209,210,210,139,139,139,139,139,139,139,139,139,139,139,139,139,139,139,139,139,139,139,139,139,139,139,139,139,139,139,989,979,998,1036,1185,1886,2029,2245,2256,2358,2263,2275,2320,2202,2125,2164,2102,2122,1987,1984,1962,1929,1849,1814,1858,1744,1742,1454,1094,1071,1048,1025,1003,1008,978,989,1000,999,1002,998,1011,1015,1019,1029,1007,1018,1022,1039,1032,1029,1033,1031,1024,1027,1035,1037,1027,1033,1040,1037,1034,1036,1039,1036,1031,904,906,905,917,1072,1660,1893,2038,2119,2187,2114,2098,2113,2034,2016,1953,1966,1947,1900,1812,1819,1795,1728,1710,1652,1656,1599,1562,1369,1009,980,979,936,932,916,926,905,905,892,906,911,904,917,899,903,909,906,958,959,925,949,920,937,930,931,921,924,928,944,954,949,920,949,933,932,1042,1049,1047,1114,1371,2148,2444,2630,2737,2748,2709,2668,2609,2570,2518,2460,2425,2359,2319,2270,2236,2178,2121,2070,2029,1971,1888,1760,1557,1197,1165,1147,1099,1067,1057,1060,1018,1018,1015,1029,1035,1041,1045,1040,1040,1058,1036,1046,1046,1037,1040,1050,1060,1073,1067,1075,1064,1054,1052,1049,1039,1034,1044,1058,1029,884,887,889,890,1107,1693,1930,2076,2154,2236,2148,2132,2146,2080,2047,1983,1997,1989,1930,1840,1849,1822,1773,1736,1678,1693,1623,1575,1501,1141,980,960,932,913,897,900,905,905,892,906,911,904,917,899,903,909,906,958,959,925,950,920,937,930,931,921,924,928,954,954,949,920,949,933,932,372,373,375,376,378,606,670,735,800,847,856,922,900,820,808,796,784,835,760,748,736,724,712,700,688,676,666,654,642,685,618,606,594,582,380,377,378,379,375,376,375,378,376,399,376,380,377,377,378,372,376,375,377,404,416,378,376,376,380,380,376,429,376,403,376,1364,1356,1399,1499,2525,3126,3435,3550,3674,3612,3561,3483,3424,3395,3357,3218,3150,3127,3014,2971,2875,2769,2748,2529,2321,2224,1933,1733,1582,1516,1458,1421,1359,1374,1364,1371,1365,1384,1433,1433,1446,1549,1451,1468,1452,1512,1459,1462,1471,1450,1448,1458,1457,1580,1568,1472,1454,1470,1499,1464,1464,1452,1462,1518,1452,894,914,897,922,1070,1809,2073,2276,2377,2444,2414,2326,2298,2300,2236,2197,2108,2065,2022,1977,1934,1891,1863,1803,1794,1730,1672,1629,1586,1359,999,970,941,951,907,909,914,947,941,934,928,936,935,951,938,942,963,962,942,960,962,964,957,996,1004,957,948,953,956,966,955,957,966,1007,950,917,961,922,947,1110,1871,2133,2334,2437,2527,2522,2383,2338,2355,2318,2264,2161,2115,2071,2026,1982,1938,1893,1849,1884,1769,1712,1670,1558,1370,1103,992,965,984,931,933,937,961,961,954,957,960,955,973,961,961,981,1000,963,982,985,985,979,1008,1012,980,972,976,978,1006,978,984,1001,1000,981,840,841,843,860,1049,1658,1934,2138,2241,2262,2240,2198,2157,2115,2074,2032,1992,2024,1909,1867,1826,1784,1743,1701,1660,1620,1578,1537,1495,1437,1186,1054,886,862,852,854,860,865,862,896,868,877,883,871,876,882,888,880,892,877,886,884,885,888,896,902,896,898,951,886,903,967,948,977,956,1427,1462,1442,1588,2108,3093,3337,3519,3578,3650,3625,3487,3416,3419,3357,3291,3170,3106,3042,2977,2911,2766,2465,2208,2121,1831,1794,1658,1616,1576,1551,1520,1468,1455,1436,1449,1444,1481,1474,1476,1461,1470,1475,1492,1478,1485,1498,1504,1485,1498,1503,1503,1497,1518,1516,1504,1502,1497,1502,1508,1503,1525,1525,1516,1507,742,743,744,751,921,1432,1659,1867,1971,2004,2011,1944,1906,1879,1928,1807,1760,1724,1714,1689,1627,1591,1552,1515,1478,1441,1404,1389,1364,1292,1080,812,787,772,749,751,760,765,780,792,774,781,775,791,784,797,793,793,790,798,795,794,793,797,801,788,788,781,794,797,798,860,816,830,803,1052,1060,1054,1099,1338,1918,2162,2235,2338,2430,2368,2374,2333,2223,2190,2163,2131,2151,2059,2026,2006,1978,1928,1936,1863,1834,1567,1538,1239,1132,1138,1125,1090,1080,1048,1052,1067,1051,1062,1052,1070,1075,1065,1082,1069,1066,1073,1084,1103,1090,1097,1102,1099,1102,1093,1099,1089,1104,1111,1110,1105,1107,1110,1109,1102,568,572,576,572,591,966,1076,1186,1293,1332,1335,1347,1300,1267,1267,1228,1209,1190,1171,1152,1138,1112,1093,1093,1054,1035,1016,955,942,922,903,885,641,587,577,575,576,568,559,553,549,560,551,560,554,557,553,561,558,551,556,555,558,556,561,559,558,559,555,559,553,576,550,554,551,1432,1468,1447,1636,2041,3103,3346,3527,3587,3658,3633,3495,3424,3429,3367,3300,3188,3115,3052,2986,2929,2742,2382,2333,2127,2056,2023,1663,1622,1580,1568,1525,1473,1502,1442,1452,1449,1465,1462,1476,1465,1473,1477,1487,1484,1488,1483,1493,1491,1484,1487,1497,1507,1520,1514,1513,1511,1501,1499,1496,1486,1481,1491,1505,1476,808,841,811,823,902,1585,1851,2059,2164,2260,2260,2125,2085,2106,2073,2024,1924,1884,1844,1803,1764,1723,1683,1642,1684,1562,1522,1483,1442,1268,908,881,854,872,820,821,827,861,855,846,837,845,876,896,874,878,874,901,896,902,904,897,883,911,916,874,896,892,898,908,910,936,916,959,930,395,396,397,398,525,652,715,783,853,900,918,880,950,855,858,844,831,880,793,794,781,769,756,742,730,717,705,692,680,667,654,642,619,554,403,400,523,402,396,400,396,400,402,402,401,412,400,399,400,400,396,402,404,430,403,401,426,400,467,467,401,468,399,403,404,1374,1364,1412,1535,2632,3196,3456,3618,3694,3669,3613,3547,3471,3414,3355,3283,3187,3114,3042,2962,2922,2817,2710,2616,2412,2147,1787,1798,1544,1500,1456,1403,1363,1360,1346,1387,1375,1398,1449,1449,1458,1518,1463,1484,1466,1522,1470,1476,1483,1464,1465,1472,1468,1534,1539,1484,1466,1482,1511,1474,1474,1462,1472,1528,1462,914,889,892,938,1026,1611,1804,1985,2068,2093,2056,2072,2083,1990,1932,1966,1869,1909,1807,1800,1767,1713,1682,1651,1681,1588,1580,1362,1326,1313,1231,934,914,917,888,900,887,889,889,883,905,918,910,916,894,907,906,926,916,913,917,915,913,915,926,924,918,917,924,924,919,921,924,923,916,0,0,0,0,0,0,0,0,0,0,0,0,0,0,0,0,0,0,0,0,0,0,0,0,0,0,0,0,0,0,0,0,0,0,0,0,0,0,0,0,0,0,0,0,0,0,0,0,0,0,0,0,0,0,0,0,0,0,0,0,0,0,0,0,0,924,925,928,932,1121,1796,2050,2179,2274,2343,2275,2248,2246,2176,2114,2091,2076,2072,1995,1945,1923,1938,1845,1802,1759,1717,1658,1615,1417,1199,1022,1001,973,948,938,942,923,927,925,941,935,937,934,933,934,939,934,944,944,947,945,945,944,935,949,950,947,947,942,943,949,946,972,963,959,989,979,998,1036,1185,1886,2029,2245,2256,2358,2263,2275,2320,2202,2125,2164,2102,2122,1987,1984,1962,1929,1849,1814,1858,1744,1742,1454,1094,1071,1048,1025,1003,1008,978,989,1000,999,1002,998,1011,1015,1019,1029,1007,1018,1022,1039,1032,1029,1033,1031,1024,1027,1035,1037,1027,1033,1040,1037,1034,1036,1039,1036,1031,367,368,369,370,372,453,598,740,800,853,867,858,848,832,820,799,754,746,762,748,712,701,734,722,686,673,661,649,597,528,477,506,390,382,389,372,368,388,348,347,348,348,348,348,349,353,353,348,348,348,348,349,349,353,349,348,348,349,348,348,347,347,347,347,347,115,115,160,160,160,109,173,184,195,207,215,214,211,208,207,205,202,200,197,196,193,191,189,187,184,183,180,177,175,173,172,170,166,165,108,160,108,108,75,74,75,75,75,75,76,80,80,75,75,75,75,76,76,80,76,75,75,76,75,75,74,74,74,74,74,393,393,395,395,398,582,706,816,888,941,942,929,916,861,888,874,855,846,830,819,804,791,778,759,717,736,723,708,694,648,635,621,498,489,408,399,398,398,377,369,373,379,376,374,377,403,374,376,376,375,387,388,387,395,380,379,378,392,393,381,380,396,380,391,381,88,88,133,133,133,134,141,148,156,164,169,168,166,164,163,162,160,158,157,156,154,153,151,150,148,147,146,144,142,141,140,139,136,135,134,133,133,133,75,74,75,75,75,75,76,80,80,75,75,75,75,76,76,80,76,75,75,76,75,75,76,76,76,76,76,749,753,754,758,762,1020,1502,1650,1750,1793,1781,1753,1728,1702,1675,1640,1622,1589,1568,1538,1510,1483,1466,1424,1403,1368,1340,1307,1076,1051,925,803,788,772,762,763,745,705,672,677,679,680,680,675,681,680,685,678,675,680,680,681,681,685,681,680,678,681,680,680,679,679,679,679,679,1028,1020,1026,1049,1084,1459,2134,2358,2425,2434,2430,2378,2348,2327,2235,2230,2204,2154,2105,2077,2056,1998,1969,1933,1887,1840,1788,1572,1376,1275,1193,1081,1068,1061,1035,1012,1042,1007,997,1003,1003,1020,1015,1024,1007,1011,1012,1020,1012,1014,1016,1021,1019,1051,1026,1031,1025,1020,1027,1030,1030,1040,1024,1025,1019,574,569,586,572,590,805,1079,1203,1303,1351,1346,1323,1304,1285,1265,1245,1227,1214,1178,1165,1151,1137,1126,1102,1065,1056,1036,1004,968,802,826,707,692,593,585,580,577,571,542,543,541,542,543,544,548,550,543,547,548,543,542,550,550,550,550,550,550,550,552,554,550,548,548,548,548,594,587,602,593,619,850,1104,1229,1326,1375,1370,1358,1329,1310,1291,1279,1252,1231,1212,1192,1174,1154,1143,1123,1096,1083,1057,1022,968,898,866,714,665,629,605,602,597,568,540,537,535,536,537,538,542,544,537,541,542,537,536,544,544,544,544,544,544,544,546,548,544,542,542,542,542,417,419,420,421,426,637,768,843,914,971,974,961,948,934,921,907,894,880,867,854,841,828,821,808,788,781,762,733,720,667,657,590,497,436,426,424,424,425,387,384,383,384,385,387,391,393,387,391,392,387,387,395,395,396,396,396,397,397,399,401,398,396,396,396,396,1029,1048,1057,1088,1154,1584,2155,2323,2428,2458,2420,2391,2341,2320,2268,2245,2196,2182,2124,2104,2064,2028,2018,1952,1905,1880,1752,1462,1414,1254,1167,1135,1097,1055,1055,1043,1042,1046,1028,1030,1026,1032,1031,1035,1037,1039,1034,1034,1035,1031,1029,1038,1040,1039,1039,1039,1038,1038,1039,1044,1039,1039,1039,1039,1039,334,339,340,381,389,431,563,661,684,718,744,736,728,714,711,706,701,716,690,683,679,672,667,628,596,611,579,571,560,540,454,433,427,399,344,390,343,344,304,302,305,306,306,309,308,311,311,309,311,308,310,310,311,311,313,312,311,311,310,314,313,320,320,320,320,432,439,452,460,464,546,719,885,936,959,990,965,989,996,971,913,897,884,919,884,846,834,845,834,832,818,803,790,684,612,572,503,481,471,435,460,453,440,394,393,394,394,394,394,395,399,399,394,394,394,394,395,395,399,395,394,394,395,394,394,393,393,393,393,393,986,989,992,999,1034,1487,2073,2233,2318,2353,2331,2296,2259,2221,2185,2148,2111,2073,2046,2010,1973,1937,1914,1859,1830,1682,1472,1370,1318,1161,1136,1050,1038,1011,1002,1001,980,967,912,915,920,918,919,919,920,923,927,921,919,922,921,922,917,925,922,921,923,919,918,918,919,919,919,919,919,913,921,938,966,989,1320,1866,2036,2131,2167,2150,2125,2088,2049,2020,1988,1955,1926,1894,1861,1829,1803,1775,1747,1721,1676,1426,1150,1118,1017,1046,975,980,982,934,931,930,916,900,895,895,896,897,898,902,904,897,901,902,897,896,901,904,904,904,904,904,902,901,908,904,902,902,902,902,506,508,523,511,537,749,934,1044,1139,1177,1176,1155,1139,1123,1107,1097,1074,1064,1042,1027,1011,999,991,981,957,941,913,903,866,799,786,650,614,544,516,513,514,506,481,478,476,477,478,479,483,485,478,482,483,478,477,485,485,485,485,485,485,485,487,489,485,483,483,483,483,719,721,724,727,730,961,1421,1566,1671,1715,1704,1678,1654,1627,1602,1569,1549,1522,1502,1473,1447,1422,1406,1365,1344,1311,1285,1255,1232,1037,868,872,756,740,731,730,732,692,659,664,666,667,667,662,668,667,672,665,662,667,667,668,668,672,668,667,665,668,667,667,666,666,666,666,666,1074,1088,1071,1102,1166,1593,2299,2476,2575,2590,2559,2521,2488,2464,2355,2365,2333,2288,2231,2202,2162,2116,2092,2047,1916,1717,1612,1405,1316,1373,1298,1145,1138,1116,1106,1076,1097,1058,1049,1055,1063,1079,1067,1076,1059,1063,1072,1074,1075,1075,1072,1076,1080,1105,1080,1082,1076,1077,1080,1081,1088,1095,1076,1081,1075,352,352,353,354,356,436,661,709,782,811,867,850,808,808,789,762,780,738,726,734,757,709,703,691,655,654,632,620,608,506,450,441,374,366,373,356,372,372,314,313,314,314,314,314,315,319,319,314,314,314,314,315,315,319,315,314,314,315,314,314,313,313,313,313,313,941,940,942,968,996,1441,1979,2131,2226,2254,2246,2215,2183,2149,2117,2085,2051,2018,1975,1958,1929,1892,1875,1823,1792,1766,1717,1526,1402,1128,1070,1017,1010,1004,978,959,973,964,934,936,940,942,942,942,943,947,939,942,940,942,942,943,943,945,943,938,942,943,942,942,941,941,941,941,941,0,0,0,0,0,0,0,0,0,0,0,0,0,0,0,0,0,0,0,0,0,0,0,0,0,0,0,0,0,0,0,0,0,0,0,0,0,0,0,0,0,0,0,0,0,0,0,0,0,0,0,0,0,0,0,0,0,0,0,0,0,0,0,0,0,367,368,369,370,372,453,598,740,800,853,867,858,848,832,820,799,754,746,762,748,712,701,734,722,686,673,661,649,597,528,477,506,390,382,389,372,368,388,348,347,348,348,348,348,349,353,353,348,348,348,348,349,349,353,349,348,348,349,348,348,347,347,347,347,347,0,0,0,0,0,0,0,0,0,0,0,0,0,0,0,0,0,0,0,0,0,0,0,0,0,0,0,0,0,0,0,0,0,0,0,0,0,0,0,0,0,0,0,0,0,0,0,0,0,0,0,0,0,0,0,0,0,0,0,0,0,0,0,0,0,381,382,383,425,429,452,675,744,811,862,871,859,846,834,822,808,796,808,771,759,747,734,722,710,712,699,730,666,654,642,630,618,583,439,430,369,370,362,364,364,363,370,369,380,370,374,373,369,380,374,371,373,375,384,377,377,371,376,371,376,380,378,376,388,382,654,656,686,664,747,908,1276,1391,1512,1577,1593,1552,1529,1503,1497,1469,1446,1407,1396,1371,1332,1305,1298,1272,1248,1214,1197,1172,1122,1025,820,801,767,677,671,650,668,622,613,624,626,625,619,617,632,629,628,628,629,623,630,624,639,631,647,632,640,630,633,632,633,629,621,634,621,402,411,397,398,402,420,703,774,850,898,907,894,880,867,854,842,829,856,802,789,776,764,753,738,754,727,705,693,679,666,634,621,601,411,403,384,399,362,364,365,363,370,401,396,397,396,378,401,394,392,395,373,375,395,382,377,398,377,371,394,386,399,399,399,382,775,806,791,820,844,1196,1584,1743,1772,1816,1800,1788,1821,1735,1825,1657,1657,1630,1660,1563,1551,1531,1485,1472,1425,1480,1394,1270,1184,968,883,841,824,809,820,796,800,822,803,799,805,797,799,829,810,817,817,811,829,816,817,820,815,841,817,820,814,829,816,822,821,826,813,825,824,1297,1294,1309,1366,1709,2357,2777,2930,3024,3070,3000,2962,2930,2897,2859,2816,2753,2676,2649,2602,2445,2460,2278,2272,2015,1993,1794,1605,1500,1430,1417,1352,1351,1330,1324,1274,1302,1256,1248,1265,1270,1268,1263,1267,1268,1277,1274,1276,1277,1272,1283,1272,1292,1286,1293,1289,1286,1278,1286,1281,1287,1282,1268,1280,1267,849,849,872,863,1008,1412,1709,1876,1976,2041,2023,1980,1952,1909,1894,1873,1843,1799,1788,1747,1715,1667,1646,1620,1595,1567,1521,1332,1183,1120,962,985,952,880,866,852,857,833,808,827,819,828,831,828,838,827,839,844,832,830,835,841,837,836,844,837,833,835,832,837,834,833,848,844,839,867,862,893,883,932,1362,1711,1905,2016,2065,2050,2008,1976,1944,1930,1894,1863,1818,1798,1765,1732,1700,1667,1640,1615,1583,1491,1414,1295,1258,936,948,927,884,888,858,848,827,809,811,818,823,827,833,834,827,826,832,839,831,826,831,835,828,833,837,829,834,832,839,838,840,842,840,835,696,698,715,704,792,1109,1339,1496,1613,1676,1666,1629,1604,1579,1570,1541,1515,1475,1463,1437,1410,1383,1357,1336,1311,1291,1252,1226,1195,1143,878,860,748,719,709,692,699,673,656,658,659,662,677,675,679,668,672,678,679,671,670,679,683,680,682,685,679,676,684,684,679,679,687,683,678,1307,1314,1345,1402,1857,2399,2808,3009,3056,3093,3074,3028,2975,2911,2893,2811,2779,2735,2700,2633,2430,2193,2172,2129,1984,1939,1803,1536,1524,1456,1440,1396,1391,1350,1329,1308,1319,1314,1300,1305,1302,1312,1322,1319,1323,1310,1319,1314,1320,1311,1307,1315,1318,1314,1322,1323,1316,1315,1313,1319,1317,1323,1323,1324,1319,640,646,659,651,669,874,1198,1311,1430,1500,1503,1460,1437,1416,1411,1386,1370,1329,1319,1298,1271,1253,1229,1210,1194,1174,1136,1114,1065,925,705,770,743,660,657,637,645,615,599,592,593,597,615,617,611,598,605,615,611,608,610,615,619,612,600,615,615,614,616,617,615,619,622,611,606,87,87,87,132,132,134,152,170,187,205,218,214,211,207,205,201,198,194,190,187,183,180,176,174,170,166,163,159,156,152,148,145,142,139,135,132,133,133,76,75,76,76,75,77,76,80,78,76,80,76,77,76,76,78,76,77,76,76,76,76,77,77,76,80,77,943,963,949,992,1032,1701,1961,2126,2150,2188,2181,2146,2174,2083,2167,2017,1985,1953,1978,1994,1857,1927,1794,1761,1733,1673,1560,1510,1241,1103,1024,1003,982,967,980,956,953,974,961,958,957,985,961,978,964,980,976,975,979,975,977,978,977,980,983,985,982,983,995,974,983,972,987,971,966,1196,1195,1221,1260,1599,2094,2520,2699,2796,2832,2800,2753,2707,2664,2636,2584,2558,2487,2456,2410,2365,2320,2275,2169,1956,1811,1668,1593,1415,1312,1300,1281,1264,1226,1212,1199,1191,1179,1162,1168,1169,1180,1184,1182,1185,1176,1181,1179,1187,1177,1169,1177,1180,1178,1184,1185,1180,1177,1178,1181,1179,1188,1190,1189,1184,784,787,803,795,866,1288,1547,1727,1827,1873,1858,1818,1808,1761,1750,1736,1694,1648,1644,1607,1577,1548,1515,1497,1468,1443,1400,1386,1312,1173,864,915,852,813,796,780,789,768,748,758,770,767,775,773,784,771,766,777,771,767,775,777,780,776,778,780,778,771,770,775,779,781,783,782,776,794,775,760,785,804,1240,1508,1661,1693,1740,1723,1713,1748,1663,1753,1665,1588,1563,1596,1513,1489,1464,1438,1413,1465,1424,1339,1309,1126,1023,826,809,792,778,789,765,787,809,792,786,792,784,786,816,797,804,809,798,816,803,804,807,802,828,804,807,801,816,803,809,808,813,800,812,813,1360,1358,1367,1418,1839,2512,2933,3080,3168,3214,3140,3099,3045,3033,2991,2945,2879,2801,2772,2455,2228,2248,2180,2117,1867,1878,1628,1615,1604,1526,1503,1416,1415,1394,1389,1329,1353,1308,1300,1325,1329,1320,1315,1319,1320,1336,1330,1337,1338,1331,1337,1334,1348,1339,1344,1340,1343,1333,1337,1339,1342,1334,1324,1336,1323,247,240,241,249,274,391,448,500,553,602,616,607,579,598,561,552,558,544,537,528,518,508,499,489,480,476,457,438,443,430,421,411,398,360,342,275,275,276,219,215,218,220,223,220,222,224,221,221,224,228,227,225,225,222,226,221,221,225,226,219,221,222,225,227,222,961,981,966,1010,1035,1447,1932,2093,2119,2160,2153,2123,2153,2063,2147,2052,1973,1942,1969,1884,1852,1826,1796,1766,1736,1707,1677,1456,1196,1058,1039,1019,999,984,1004,972,978,1020,986,971,979,977,977,990,979,988,982,992,1012,998,1027,1025,1023,1015,1004,999,1001,1005,999,1014,1004,1006,1007,1028,1001,414,416,431,420,423,548,770,843,929,1003,991,960,968,931,933,946,901,901,874,856,878,828,811,783,769,776,742,728,700,697,681,654,500,480,423,399,412,406,395,399,402,405,410,411,411,400,404,412,405,399,401,404,408,404,407,413,406,403,406,407,407,411,409,412,403,0,0,0,0,0,0,0,0,0,0,0,0,0,0,0,0,0,0,0,0,0,0,0,0,0,0,0,0,0,0,0,0,0,0,0,0,0,0,0,0,0,0,0,0,0,0,0,0,0,0,0,0,0,0,0,0,0,0,0,0,0,0,0,0,0 ]);
