n = 10;
D = [116,102,92,199,93,199,247,159,238,92 ];
q = 0;
prec = array2d(1..0,1..2,[]);
steps = 64;
l = 360;
r = 0;
which = [];
interval = array2d(1..0,1..2,[]);
T = array3d(1..11,1..11,0..64,[0,0,0,0,0,0,0,0,0,0,0,0,0,0,0,0,0,0,0,0,0,0,0,0,0,0,0,0,0,0,0,0,0,0,0,0,0,0,0,0,0,0,0,0,0,0,0,0,0,0,0,0,0,0,0,0,0,0,0,0,0,0,0,0,0,600,600,601,613,606,677,911,1003,1129,1157,1191,1160,1119,1098,1082,1062,1075,1025,1008,1033,971,995,935,953,895,918,893,878,823,768,818,769,641,622,619,596,611,577,553,548,549,553,557,557,558,551,561,560,562,559,584,577,598,560,557,586,565,589,556,564,594,564,564,564,564,515,516,518,521,530,581,769,880,950,1032,1043,1027,994,993,976,960,943,927,910,893,876,860,843,827,810,793,776,745,743,727,686,570,569,540,528,536,525,527,498,488,491,494,494,492,498,499,502,495,508,497,515,518,516,511,503,505,503,519,507,525,506,513,513,513,513,515,555,528,520,531,675,765,849,931,996,982,963,948,935,920,950,892,933,911,852,902,934,845,795,814,782,806,797,749,715,592,569,661,639,499,570,570,546,522,533,530,535,549,534,540,539,532,534,536,541,547,556,562,556,555,556,547,548,546,534,535,532,532,532,532,613,615,616,618,655,795,935,1037,1127,1185,1193,1178,1162,1144,1130,1113,1099,1083,1066,1035,1017,998,980,962,943,926,907,889,873,853,838,812,725,689,627,636,625,618,563,570,565,575,583,585,574,579,571,580,577,572,586,593,588,586,581,580,583,578,591,582,583,594,593,593,593,1001,993,988,994,1091,1321,1617,1783,1905,1988,1957,1926,1894,1843,1835,1824,1771,1738,1689,1675,1648,1616,1586,1534,1535,1469,1480,1428,1309,1276,1121,1124,1026,1016,995,1008,1000,994,982,979,978,983,982,987,984,988,981,990,987,984,989,991,991,988,989,991,991,988,987,987,988,991,986,986,986,1097,1099,1119,1092,1160,1525,1793,2008,2108,2133,2150,2131,2100,2052,2013,1977,1966,1923,1885,1853,1817,1786,1756,1717,1679,1641,1609,1566,1368,1281,1251,1185,1151,1134,1118,1113,1127,1137,1092,1082,1096,1099,1100,1092,1097,1099,1096,1101,1099,1097,1097,1100,1101,1102,1103,1100,1099,1098,1098,1099,1097,1101,1095,1095,1095,624,624,632,638,637,711,954,1051,1179,1207,1240,1209,1166,1145,1128,1107,1119,1068,1051,1075,1013,1034,975,991,932,956,929,913,858,803,851,802,667,647,644,621,636,577,553,548,549,553,557,557,558,551,561,560,562,559,584,577,598,560,557,586,565,589,556,564,594,564,564,564,564,263,264,265,266,267,344,389,434,480,524,536,529,520,511,502,495,486,477,468,481,452,443,434,425,418,427,400,391,383,375,366,357,349,341,332,268,268,328,258,243,245,246,244,250,246,251,246,252,250,245,246,248,246,246,251,249,249,248,248,249,246,250,249,251,250,586,599,587,594,591,638,863,1001,1099,1127,1138,1133,1091,1074,1056,1035,1049,1001,983,1008,950,971,934,936,894,897,881,858,822,837,818,802,619,625,597,575,605,577,553,548,549,553,557,557,560,551,561,561,570,559,584,577,598,560,557,586,568,589,556,564,594,564,564,564,564,0,0,0,0,0,0,0,0,0,0,0,0,0,0,0,0,0,0,0,0,0,0,0,0,0,0,0,0,0,0,0,0,0,0,0,0,0,0,0,0,0,0,0,0,0,0,0,0,0,0,0,0,0,0,0,0,0,0,0,0,0,0,0,0,0,603,607,608,620,635,816,946,1040,1092,1169,1175,1157,1138,1128,1105,1101,1065,1055,1029,1018,971,988,967,925,910,887,909,839,874,816,713,649,672,620,621,618,627,591,558,558,558,558,558,558,558,558,558,558,558,558,558,558,558,558,558,558,558,558,558,558,558,558,558,558,558,0,0,0,0,0,0,0,0,0,0,0,0,0,0,0,0,0,0,0,0,0,0,0,0,0,0,0,0,0,0,0,0,0,0,0,0,0,0,0,0,0,0,0,0,0,0,0,0,0,0,0,0,0,0,0,0,0,0,0,0,0,0,0,0,0,691,695,697,699,707,813,1033,1170,1287,1369,1359,1353,1331,1294,1272,1251,1247,1212,1210,1173,1163,1137,1117,1097,1052,1052,1021,920,884,834,931,807,744,719,707,704,693,698,637,637,637,637,637,637,637,637,637,637,637,637,637,637,637,637,637,637,637,637,637,637,637,637,637,637,637,225,223,224,233,234,286,298,368,388,446,418,430,424,398,391,385,397,391,403,378,371,381,374,367,324,338,311,326,319,290,314,308,300,287,280,235,235,236,194,194,194,194,194,194,194,194,194,194,194,194,194,194,194,194,194,194,194,194,194,194,194,194,194,194,194,447,449,450,450,453,583,638,694,750,794,806,796,785,777,764,754,743,735,722,712,701,691,680,671,660,650,639,629,619,608,598,587,577,543,462,452,453,454,418,418,418,418,418,418,418,418,418,418,418,418,418,418,418,418,418,418,418,418,418,418,418,418,418,418,418,1541,1555,1589,1690,2123,2507,2739,2896,2957,2964,2939,2896,2856,2814,2752,2732,2696,2639,2589,2530,2224,2298,2040,1966,1946,1862,1823,1773,1824,1713,1652,1622,1604,1593,1566,1583,1567,1549,1512,1512,1512,1512,1512,1512,1512,1512,1512,1512,1512,1512,1512,1512,1512,1512,1512,1512,1512,1512,1512,1512,1512,1512,1512,1512,1512,1690,1681,1734,1877,2155,2741,3012,3145,3213,3226,3153,3146,3074,3054,2996,2968,2903,2841,2820,2758,2500,2184,2159,2089,2070,1967,2011,1972,1959,1849,1816,1764,1758,1725,1715,1732,1703,1676,1642,1642,1642,1642,1642,1642,1642,1642,1642,1642,1642,1642,1642,1642,1642,1642,1642,1642,1642,1642,1642,1642,1642,1642,1642,1642,1642,25,31,31,31,31,31,36,40,44,48,52,51,50,50,49,48,47,47,46,45,44,44,42,41,40,39,39,38,37,36,36,35,34,33,33,31,31,31,0,0,0,0,0,0,0,0,0,0,0,0,0,0,0,0,0,0,0,0,0,0,0,0,0,0,0,537,540,531,536,536,732,819,909,958,1018,1008,994,994,969,963,969,954,921,913,901,856,885,853,795,807,763,780,743,762,723,693,561,594,561,549,561,548,490,449,449,449,449,449,449,449,449,449,449,449,449,449,449,449,449,449,449,449,449,449,449,449,449,449,449,449,51,51,51,51,63,63,71,80,88,95,102,101,99,97,96,94,93,91,90,88,86,85,83,82,80,79,77,75,74,72,71,69,68,67,64,63,63,63,26,26,26,26,26,27,26,26,27,26,26,26,26,26,26,26,27,26,26,26,26,26,26,27,27,27,27,603,607,608,620,635,816,946,1040,1092,1169,1175,1157,1138,1128,1105,1101,1065,1055,1029,1018,971,988,967,925,910,887,909,839,874,816,713,649,672,620,621,618,627,591,558,558,558,558,558,558,558,558,558,558,558,558,558,558,558,558,558,558,558,558,558,558,558,558,558,558,558,543,546,548,551,559,658,842,937,1031,1093,1099,1080,1063,1045,1027,1016,993,973,957,939,926,909,892,875,857,840,822,805,785,764,705,644,628,568,558,552,555,525,510,514,516,521,516,523,514,520,513,515,518,521,512,519,520,522,521,529,522,525,525,527,522,526,514,523,520,652,656,657,658,675,907,1001,1114,1159,1219,1240,1222,1212,1176,1181,1124,1127,1113,1097,1097,1085,1064,1056,1007,1010,983,976,937,922,929,905,874,717,688,678,677,664,640,628,623,634,636,624,636,626,638,632,637,646,636,628,632,635,648,634,639,647,643,637,641,633,644,641,637,629,0,0,0,0,0,0,0,0,0,0,0,0,0,0,0,0,0,0,0,0,0,0,0,0,0,0,0,0,0,0,0,0,0,0,0,0,0,0,0,0,0,0,0,0,0,0,0,0,0,0,0,0,0,0,0,0,0,0,0,0,0,0,0,0,0,471,473,474,475,478,619,683,728,786,832,844,833,822,812,801,790,779,768,757,746,753,741,729,717,706,694,682,671,658,646,634,663,500,490,481,477,478,543,478,484,477,486,477,480,479,499,483,482,484,482,487,479,478,484,485,484,480,486,477,483,476,484,483,482,473,786,801,790,791,806,1112,1255,1390,1483,1540,1523,1515,1477,1477,1430,1406,1397,1368,1364,1313,1290,1266,1243,1219,1196,1198,1149,1150,1107,1083,966,846,843,808,795,792,797,788,773,770,774,774,779,766,774,776,777,783,788,783,787,783,784,787,792,788,784,784,785,783,790,790,784,793,783,1369,1346,1349,1451,1809,2338,2590,2753,2804,2834,2805,2767,2727,2671,2639,2590,2546,2493,2449,2376,2379,2312,2253,2182,2140,2081,2024,1834,1773,1526,1481,1441,1398,1350,1350,1377,1363,1389,1433,1435,1437,1443,1443,1453,1451,1449,1452,1443,1450,1448,1445,1446,1458,1456,1456,1462,1446,1449,1453,1448,1456,1448,1449,1455,1449,1241,1244,1229,1310,1886,2249,2514,2663,2800,2748,2747,2692,2638,2575,2536,2469,2422,2360,2318,2259,2228,2150,2095,2033,1994,1932,1894,1824,1787,1735,1377,1335,1296,1247,1242,1313,1264,1287,1350,1359,1328,1343,1347,1362,1355,1378,1355,1364,1375,1359,1382,1387,1380,1562,1383,1376,1390,1371,1387,1374,1371,1386,1459,1462,1364,676,680,681,686,699,945,1045,1162,1209,1269,1289,1269,1258,1222,1226,1169,1171,1156,1140,1139,1126,1104,1094,1045,1048,1021,1012,972,956,963,938,905,730,712,708,702,688,640,628,623,634,636,624,636,626,638,632,637,646,636,628,632,635,648,634,639,647,643,637,641,633,644,641,637,629,643,636,635,626,642,874,988,1108,1203,1268,1248,1251,1231,1209,1170,1169,1177,1137,1116,1087,1067,1017,997,1003,958,949,929,908,904,852,726,710,673,638,633,648,652,579,569,572,578,580,575,588,578,585,577,576,578,572,578,576,577,599,575,578,576,579,578,579,573,588,571,580,572,638,645,650,654,650,884,979,1102,1155,1190,1238,1181,1210,1150,1155,1096,1103,1087,1072,1072,1079,1057,1054,984,1009,962,970,937,903,917,894,856,681,687,659,653,655,640,628,623,634,636,624,636,628,638,632,638,646,636,628,632,635,648,634,639,647,643,637,641,633,644,641,637,629,543,546,548,551,559,658,842,937,1031,1093,1099,1080,1063,1045,1027,1016,993,973,957,939,926,909,892,875,857,840,822,805,785,764,705,644,628,568,558,552,555,525,510,514,516,521,516,523,514,520,513,515,518,521,512,519,520,522,521,529,522,525,525,527,522,526,514,523,520,506,489,502,510,555,586,743,832,896,955,959,944,929,915,899,886,883,878,855,840,825,809,794,780,766,765,730,720,699,683,579,574,527,524,514,512,502,521,473,474,480,475,470,479,471,479,483,472,480,472,474,473,486,519,502,476,494,481,480,478,487,481,468,481,478,238,239,240,246,241,262,347,388,428,474,487,479,473,464,467,448,441,437,425,416,412,401,393,386,378,380,363,355,347,339,333,322,273,266,260,242,243,243,205,205,205,208,235,237,222,232,223,239,226,219,231,213,214,231,222,212,241,213,211,237,227,241,231,228,223,480,482,483,485,490,636,718,811,880,944,955,941,926,910,896,881,866,851,824,821,812,792,777,762,731,732,718,702,677,673,658,634,525,502,497,487,488,490,461,451,460,463,460,465,461,466,461,465,465,460,460,461,463,467,467,466,464,462,464,463,462,485,459,459,459,0,0,0,0,0,0,0,0,0,0,0,0,0,0,0,0,0,0,0,0,0,0,0,0,0,0,0,0,0,0,0,0,0,0,0,0,0,0,0,0,0,0,0,0,0,0,0,0,0,0,0,0,0,0,0,0,0,0,0,0,0,0,0,0,0,470,471,478,484,489,640,709,729,811,854,862,850,839,827,816,804,793,781,770,757,746,712,719,695,699,688,676,691,672,662,647,640,614,525,514,486,488,477,466,463,463,468,470,480,477,480,475,479,485,479,477,472,474,488,480,472,482,474,470,479,484,486,481,482,478,1455,1426,1453,1591,1873,2266,2542,2702,2770,2766,2740,2702,2654,2614,2567,2526,2499,2456,2415,2370,2339,2284,2233,2196,2141,1921,1862,1764,1608,1630,1566,1519,1480,1471,1475,1458,1447,1493,1418,1423,1420,1429,1433,1436,1431,1435,1436,1431,1436,1437,1429,1437,1438,1433,1439,1439,1441,1446,1442,1434,1442,1439,1440,1441,1439,1560,1561,1578,1685,2081,2501,2821,2903,3031,3031,3000,2905,2899,2847,2812,2768,2731,2651,2639,2585,2503,2311,2218,2212,1996,2024,1872,1827,1780,1728,1677,1629,1622,1590,1589,1584,1594,1604,1555,1566,1579,1572,1562,1575,1570,1574,1583,1571,1574,1569,1574,1574,1586,1579,1576,1575,1581,1579,1579,1575,1588,1576,1565,1576,1573,262,263,264,277,266,280,382,426,472,524,536,529,522,511,513,493,488,482,468,459,455,443,434,425,416,418,400,391,382,374,367,357,306,297,291,267,267,268,205,205,205,208,235,237,222,232,223,239,226,219,231,213,214,231,222,212,241,213,211,237,227,241,231,228,223,449,422,425,460,478,518,619,699,762,799,804,792,779,788,775,744,764,752,707,695,695,671,657,676,663,658,647,589,603,575,560,548,459,443,491,440,429,443,359,360,359,359,363,364,367,364,363,365,361,364,365,367,368,362,364,367,368,376,372,363,372,362,363,364,362,238,239,240,233,241,262,347,387,426,470,485,477,469,462,438,446,438,431,423,415,408,400,392,385,377,357,361,354,346,319,312,322,273,239,234,242,255,256,205,205,205,208,235,237,222,234,223,239,227,227,231,213,214,231,222,212,241,216,211,237,227,241,231,228,223,506,489,502,510,555,586,743,832,896,955,959,944,929,915,899,886,883,878,855,840,825,809,794,780,766,765,730,720,699,683,579,574,527,524,514,512,502,521,473,474,480,475,470,479,471,479,483,472,480,472,474,473,486,519,502,476,494,481,480,478,487,481,468,481,478,611,623,603,604,621,832,941,1051,1118,1175,1146,1157,1111,1093,1103,1085,1067,1049,1030,1013,995,991,935,940,936,917,886,890,850,832,832,734,738,621,611,593,626,628,603,586,592,597,590,604,595,614,609,600,616,593,599,598,605,610,606,601,604,600,604,602,603,605,598,607,599,411,412,413,414,416,569,597,652,707,748,754,744,734,724,711,704,691,680,674,663,653,643,633,622,644,598,621,581,572,557,547,537,528,426,418,415,416,393,382,387,386,390,393,387,409,394,386,394,391,387,394,420,417,395,425,422,384,384,388,388,381,390,390,396,387,928,946,958,986,1025,1360,1534,1709,1802,1802,1833,1757,1773,1755,1721,1653,1624,1632,1594,1579,1551,1490,1455,1466,1445,1409,1362,1312,1299,1279,1162,1025,997,985,945,948,968,943,924,915,920,922,917,933,924,953,933,924,948,921,924,923,922,928,924,923,924,927,923,921,922,926,924,932,924,496,495,499,551,545,647,757,876,917,919,968,948,959,927,909,917,903,888,875,844,822,804,803,807,775,761,748,716,757,710,667,516,626,512,505,503,481,482,493,492,491,513,513,500,515,506,501,517,517,507,511,504,497,504,503,510,506,498,496,504,504,505,510,510,498,0,0,0,0,0,0,0,0,0,0,0,0,0,0,0,0,0,0,0,0,0,0,0,0,0,0,0,0,0,0,0,0,0,0,0,0,0,0,0,0,0,0,0,0,0,0,0,0,0,0,0,0,0,0,0,0,0,0,0,0,0,0,0,0,0,1536,1554,1580,1676,2046,2460,2723,2898,2941,2955,2926,2884,2839,2802,2748,2708,2672,2625,2565,2517,2469,2431,2374,2175,2117,1890,1856,1827,1719,1782,1655,1609,1587,1598,1562,1557,1556,1556,1542,1524,1542,1542,1541,1554,1549,1575,1549,1543,1553,1541,1548,1545,1543,1553,1550,1548,1545,1551,1545,1540,1540,1544,1542,1550,1542,1711,1693,1740,1863,2210,2824,3042,3134,3234,3227,3192,3134,3077,3039,2989,2945,2883,2790,2798,2745,2671,2600,2321,2262,2102,2065,1997,2002,1914,1946,1829,1762,1756,1715,1700,1691,1701,1703,1692,1678,1689,1682,1685,1701,1693,1710,1703,1692,1702,1688,1690,1693,1693,1696,1695,1697,1693,1698,1691,1693,1692,1699,1693,1700,1692,439,436,443,445,447,605,637,696,755,798,804,793,782,771,757,749,735,724,717,706,695,684,673,662,671,637,647,618,608,593,475,466,457,459,449,446,447,393,382,387,386,390,393,387,409,394,386,394,391,387,394,420,417,395,425,422,384,384,388,388,381,390,390,396,387,463,465,466,467,470,579,697,776,840,887,893,882,870,860,847,834,829,811,799,787,770,764,752,741,719,706,678,679,653,640,628,575,567,532,472,469,470,466,452,458,459,463,459,473,461,485,459,465,463,458,461,464,464,471,468,466,464,463,463,462,462,465,461,469,463,387,387,388,389,391,534,556,607,656,697,705,695,686,676,665,657,646,636,630,621,611,602,592,584,611,597,591,546,537,528,519,509,500,490,394,391,392,393,382,387,386,390,393,387,435,394,386,394,391,387,394,434,438,395,435,438,384,384,388,388,381,390,390,396,387,611,623,603,604,621,832,941,1051,1118,1175,1146,1157,1111,1093,1103,1085,1067,1049,1030,1013,995,991,935,940,936,917,886,890,850,832,832,734,738,621,611,593,626,628,603,586,592,597,590,604,595,614,609,600,616,593,599,598,605,610,606,601,604,600,604,602,603,605,598,607,599,958,969,967,975,1000,1431,1577,1772,1860,1905,1914,1853,1830,1789,1773,1762,1718,1672,1680,1649,1610,1570,1555,1521,1491,1458,1427,1395,1228,1318,1081,1056,1009,991,979,961,937,908,868,875,864,876,898,901,904,914,913,919,933,910,899,886,884,904,893,893,908,903,887,898,891,945,893,899,883,1452,1456,1469,1553,1728,2385,2573,2724,2800,2827,2787,2745,2714,2672,2629,2575,2534,2488,2481,2423,2369,2324,2275,2212,2159,2052,1996,1770,1705,1602,1585,1560,1498,1490,1458,1419,1376,1387,1341,1349,1350,1359,1378,1388,1385,1395,1394,1400,1414,1391,1380,1367,1365,1385,1374,1374,1389,1384,1368,1379,1372,1411,1374,1380,1364,1358,1350,1380,1438,1650,2178,2429,2570,2662,2677,2648,2613,2583,2540,2501,2456,2407,2363,2315,2286,2228,2192,2153,2110,2080,2029,1953,1883,1641,1521,1503,1477,1407,1384,1369,1378,1359,1328,1290,1301,1294,1301,1333,1333,1330,1348,1349,1351,1367,1346,1332,1321,1315,1341,1323,1321,1338,1331,1318,1331,1324,1376,1324,1330,1314,1392,1388,1387,1482,1615,2223,2383,2559,2668,2668,2662,2594,2575,2519,2518,2473,2433,2395,2335,2313,2274,2226,2193,2137,2030,1982,1926,1609,1666,1533,1550,1466,1438,1426,1415,1396,1399,1377,1336,1343,1339,1350,1372,1374,1375,1387,1386,1395,1403,1386,1375,1362,1361,1381,1369,1368,1382,1376,1359,1369,1367,1427,1371,1377,1361,1397,1392,1397,1434,1532,2248,2426,2596,2669,2693,2678,2633,2594,2543,2507,2458,2439,2392,2350,2306,2262,2209,2171,2127,2092,2043,2001,1873,1582,1531,1511,1499,1435,1407,1405,1389,1355,1361,1320,1328,1327,1338,1357,1365,1364,1374,1373,1379,1393,1370,1359,1346,1344,1364,1353,1353,1368,1363,1347,1358,1351,1390,1353,1359,1343,0,0,0,0,0,0,0,0,0,0,0,0,0,0,0,0,0,0,0,0,0,0,0,0,0,0,0,0,0,0,0,0,0,0,0,0,0,0,0,0,0,0,0,0,0,0,0,0,0,0,0,0,0,0,0,0,0,0,0,0,0,0,0,0,0,357,347,349,409,351,457,533,579,633,685,701,685,696,663,657,642,631,620,609,602,587,576,569,554,547,536,522,528,500,489,478,467,456,445,356,351,352,353,346,352,349,349,353,351,353,392,348,353,348,350,352,438,438,356,357,353,352,351,396,396,351,354,352,354,354,1476,1480,1495,1584,1772,2435,2623,2771,2848,2873,2832,2790,2757,2715,2671,2616,2575,2529,2519,2461,2407,2362,2267,2207,2187,2080,2015,1805,1731,1628,1610,1585,1523,1515,1458,1419,1376,1387,1341,1349,1350,1359,1378,1388,1385,1395,1394,1400,1414,1391,1380,1367,1365,1385,1374,1374,1389,1384,1368,1379,1372,1411,1374,1380,1364,1038,1038,1026,1082,1065,1585,1743,1918,2009,2027,2022,1995,1974,1938,1915,1878,1845,1806,1793,1765,1720,1690,1654,1612,1595,1562,1528,1487,1301,1223,1210,1113,1071,1058,1043,1038,1024,998,957,962,954,970,990,997,998,1008,1007,1013,1027,1004,993,980,978,998,987,987,1002,997,981,992,985,1039,987,993,977,1450,1434,1444,1519,1703,2356,2543,2697,2776,2801,2760,2744,2689,2648,2604,2565,2510,2468,2459,2401,2347,2304,2255,2210,2173,2030,1962,1785,1729,1577,1564,1536,1479,1469,1458,1419,1376,1387,1341,1349,1350,1359,1378,1388,1385,1395,1394,1400,1414,1391,1380,1367,1365,1385,1374,1374,1389,1384,1368,1379,1372,1411,1374,1380,1364,958,969,967,975,1000,1431,1577,1772,1860,1905,1914,1853,1830,1789,1773,1762,1718,1672,1680,1649,1610,1570,1555,1521,1491,1458,1427,1395,1228,1318,1081,1056,1009,991,979,961,937,908,868,875,864,876,898,901,904,914,913,919,933,910,899,886,884,904,893,893,908,903,887,898,891,945,893,899,883,1137,1133,1144,1155,1268,1705,1958,2101,2193,2245,2207,2164,2126,2106,2092,2061,2000,1988,1954,1909,1879,1828,1804,1743,1733,1699,1661,1497,1353,1284,1371,1200,1169,1192,1150,1141,1086,1050,1055,1061,1055,1071,1080,1084,1072,1085,1066,1074,1083,1070,1064,1085,1096,1077,1077,1080,1078,1071,1091,1094,1065,1096,1067,1063,1060,1620,1628,1674,1818,2091,2648,2947,3059,3132,3141,3100,3026,3023,2963,2902,2867,2813,2790,2729,2659,2626,2570,2263,2045,2089,1981,1912,1883,1834,1798,1836,1708,1689,1686,1607,1551,1566,1524,1531,1544,1534,1553,1563,1565,1553,1566,1547,1555,1564,1551,1545,1566,1577,1558,1558,1561,1559,1552,1572,1575,1546,1577,1548,1544,1541,1321,1323,1350,1425,1917,2371,2695,2889,2979,2981,2944,2906,2834,2833,2723,2658,2610,2550,2487,2429,2389,2361,2258,2220,2143,2083,1995,1880,1829,1521,1770,1427,1443,1354,1342,1398,1413,1361,1477,1487,1449,1458,1485,1477,1483,1493,1488,1496,1505,1492,1497,1513,1513,1514,1495,1508,1508,1499,1518,1519,1498,1527,1498,1494,1491,1554,1553,1567,1715,1928,2495,2781,2911,2970,3008,2949,2910,2858,2865,2803,2762,2720,2645,2618,2571,2538,2352,1992,1941,1975,1975,1842,1889,1828,1693,1722,1615,1586,1627,1576,1573,1548,1519,1523,1529,1530,1545,1554,1557,1543,1558,1539,1550,1553,1546,1540,1562,1573,1554,1553,1555,1552,1544,1563,1565,1543,1574,1545,1541,1538,1565,1553,1583,1689,1998,2536,2819,2914,3014,3033,2987,2919,2902,2840,2785,2753,2709,2659,2626,2566,2517,2461,2409,2347,2255,1895,1826,1809,1766,1719,1740,1616,1615,1596,1564,1530,1540,1503,1510,1516,1513,1532,1542,1544,1532,1545,1526,1534,1543,1530,1524,1545,1556,1537,1537,1540,1538,1531,1551,1554,1525,1556,1527,1523,1520,247,248,249,250,251,321,364,407,449,491,508,499,491,482,475,468,458,451,442,434,426,418,410,401,393,386,377,369,360,353,345,336,328,320,255,251,252,252,242,244,246,257,252,248,246,258,245,255,257,292,293,299,295,300,251,249,256,255,252,246,252,256,248,249,248,0,0,0,0,0,0,0,0,0,0,0,0,0,0,0,0,0,0,0,0,0,0,0,0,0,0,0,0,0,0,0,0,0,0,0,0,0,0,0,0,0,0,0,0,0,0,0,0,0,0,0,0,0,0,0,0,0,0,0,0,0,0,0,0,0,1644,1654,1704,1856,2139,2698,2996,3105,3179,3186,3145,3069,3066,3005,2943,2909,2852,2829,2767,2697,2664,2488,2128,2080,2102,2008,1947,1910,1859,1823,1861,1733,1714,1711,1607,1551,1566,1524,1531,1544,1534,1553,1563,1565,1553,1566,1547,1555,1564,1551,1545,1566,1577,1558,1558,1561,1559,1552,1572,1575,1546,1577,1548,1544,1541,1206,1194,1210,1236,1413,1829,2140,2257,2339,2367,2341,2310,2263,2248,2205,2176,2128,2103,2069,2011,1988,1930,1895,1862,1837,1799,1750,1573,1426,1380,1447,1300,1256,1267,1227,1196,1177,1140,1144,1148,1145,1165,1172,1180,1166,1179,1160,1168,1177,1164,1158,1179,1190,1171,1171,1174,1172,1165,1185,1188,1159,1190,1161,1157,1154,1602,1604,1646,1803,2060,2646,2919,3018,3108,3115,3087,3001,3004,2937,2892,2855,2789,2769,2706,2637,2606,2559,2262,2021,2050,1957,1889,1862,1811,1773,1836,1689,1665,1662,1607,1551,1566,1524,1531,1544,1534,1553,1563,1565,1553,1566,1547,1555,1564,1551,1545,1566,1577,1558,1558,1561,1559,1552,1572,1575,1546,1577,1548,1544,1541,1137,1133,1144,1155,1268,1705,1958,2101,2193,2245,2207,2164,2126,2106,2092,2061,2000,1988,1954,1909,1879,1828,1804,1743,1733,1699,1661,1497,1353,1284,1371,1200,1169,1192,1150,1141,1086,1050,1055,1061,1055,1071,1080,1084,1072,1085,1066,1074,1083,1070,1064,1085,1096,1077,1077,1080,1078,1071,1091,1094,1065,1096,1067,1063,1060,578,594,583,589,604,785,899,1000,1048,1121,1134,1122,1091,1078,1058,1059,1018,1008,983,985,957,944,933,889,871,854,870,801,838,780,751,614,696,667,598,621,596,560,558,552,564,569,565,557,571,574,569,570,571,567,572,573,571,577,577,575,564,564,570,571,561,577,567,571,566,90,90,90,90,112,114,128,144,158,173,184,182,179,176,173,170,167,165,161,158,156,152,149,147,144,140,138,135,132,129,126,123,121,117,114,112,112,113,39,39,39,40,39,39,40,40,39,40,40,39,39,40,40,40,40,40,40,39,39,38,38,38,38,38,38,668,670,671,675,677,782,1016,1130,1243,1319,1326,1305,1284,1264,1244,1226,1200,1165,1165,1128,1120,1100,1075,1056,1039,1013,993,920,848,829,896,786,710,693,685,682,670,671,637,630,640,647,641,649,641,647,641,653,648,642,651,645,653,659,655,652,653,649,660,654,654,675,649,657,652,200,201,202,202,203,259,281,328,363,398,385,379,374,368,363,356,372,366,359,353,346,339,333,326,320,300,306,288,282,287,280,273,267,260,254,204,204,205,194,191,193,194,198,199,193,198,196,193,196,197,197,198,199,204,202,202,196,201,199,204,204,225,221,219,216,422,423,423,424,427,552,602,654,706,746,755,745,771,727,717,707,697,688,678,668,658,650,640,630,621,611,601,623,583,573,563,553,544,510,429,426,427,428,418,418,418,417,422,423,423,423,423,423,423,421,421,425,424,427,427,429,427,430,457,423,427,422,424,428,422,1516,1538,1565,1659,2092,2476,2703,2856,2913,2928,2895,2856,2806,2770,2732,2695,2649,2592,2543,2499,2181,2255,2092,1942,1906,1823,1784,1753,1813,1682,1704,1587,1628,1561,1543,1595,1541,1518,1512,1517,1523,1524,1530,1521,1531,1534,1517,1531,1524,1517,1526,1548,1533,1535,1550,1529,1523,1526,1538,1539,1530,1533,1531,1533,1532,1664,1665,1710,1808,2151,2780,2976,3105,3183,3196,3109,3079,3027,3031,2964,2938,2865,2794,2780,2736,2500,2140,2145,2048,2091,1968,1972,1964,1945,1813,1782,1729,1730,1710,1692,1709,1679,1654,1642,1650,1665,1659,1662,1654,1670,1670,1668,1670,1661,1664,1667,1677,1673,1674,1679,1672,1662,1664,1667,1670,1660,1670,1662,1666,1661,0,0,0,0,0,0,0,0,0,0,0,0,0,0,0,0,0,0,0,0,0,0,0,0,0,0,0,0,0,0,0,0,0,0,0,0,0,0,0,0,0,0,0,0,0,0,0,0,0,0,0,0,0,0,0,0,0,0,0,0,0,0,0,0,0,512,523,524,505,513,701,783,869,914,971,973,986,944,949,937,921,915,874,867,856,850,841,811,784,771,752,741,705,744,687,657,526,593,566,525,572,523,459,449,456,453,454,458,457,460,461,451,456,451,453,456,484,462,460,478,456,454,456,467,469,453,456,454,456,455,90,103,103,103,111,113,127,143,157,171,182,180,177,173,171,168,166,162,159,157,154,151,148,145,143,139,137,134,132,128,125,123,119,117,114,112,112,112,39,39,39,40,39,39,40,42,39,40,41,47,39,40,40,40,40,40,40,42,39,38,38,38,38,38,38,578,594,583,589,604,785,899,1000,1048,1121,1134,1122,1091,1078,1058,1059,1018,1008,983,985,957,944,933,889,871,854,870,801,838,780,751,614,696,667,598,621,596,560,558,552,564,569,565,557,571,574,569,570,571,567,572,573,571,577,577,575,564,564,570,571,561,577,567,571,566,296,246,246,247,248,319,360,403,445,487,500,492,485,476,468,460,453,444,436,429,421,412,404,397,389,380,372,365,357,348,341,333,325,316,309,249,250,250,237,235,239,243,236,272,243,273,266,243,272,242,245,243,243,251,243,243,244,249,243,241,243,245,243,251,243,448,450,445,463,449,542,655,738,828,874,908,885,873,829,823,807,807,781,772,777,746,723,741,717,704,685,656,663,633,524,528,546,553,483,447,469,484,416,384,389,384,387,396,389,388,391,387,393,389,394,387,386,387,390,388,386,391,387,386,390,388,393,388,389,387,648,641,624,646,666,776,998,1128,1240,1247,1234,1263,1241,1174,1183,1195,1128,1153,1089,1095,1107,1017,1050,1016,996,987,955,935,900,887,761,781,745,639,626,648,631,652,624,628,632,636,634,635,634,635,624,639,635,630,634,636,635,635,638,636,636,636,637,635,641,639,635,635,634,426,427,440,434,467,519,658,717,784,820,830,870,801,793,781,801,788,723,762,729,689,711,720,684,643,667,677,668,476,547,470,490,539,470,474,430,460,461,414,419,414,417,426,419,418,421,417,423,419,424,417,416,417,420,418,416,421,417,416,420,418,423,418,419,417,383,385,386,387,388,454,582,641,693,739,746,737,775,717,706,696,730,718,694,655,684,639,625,616,605,595,579,568,566,542,530,518,466,403,386,389,390,400,363,363,363,366,373,368,367,370,366,372,368,373,366,365,366,369,367,365,370,366,365,369,367,372,367,368,366,1082,1136,1086,1093,1215,1597,1881,2032,2123,2170,2121,2158,2053,2029,2002,1956,1918,1974,1846,1816,1782,1759,1729,1680,1654,1612,1585,1575,1516,1232,1180,1214,1206,1106,1098,1092,1102,1094,1090,1080,1083,1085,1116,1097,1105,1099,1101,1105,1100,1093,1107,1085,1090,1101,1102,1092,1105,1086,1085,1102,1099,1114,1107,1115,1105,1264,1281,1275,1295,1404,1929,2189,2391,2458,2504,2443,2461,2394,2345,2324,2271,2199,2214,2146,2109,2087,2031,1964,1953,1932,1890,1842,1713,1588,1475,1377,1373,1360,1303,1284,1294,1292,1286,1282,1272,1275,1277,1307,1299,1297,1298,1293,1312,1298,1285,1299,1277,1282,1293,1294,1284,1297,1278,1277,1294,1291,1309,1299,1305,1297,472,474,476,488,475,572,695,782,878,924,958,933,920,876,869,853,852,825,815,820,788,764,781,755,742,723,694,698,668,560,563,580,579,507,472,499,509,416,384,389,384,387,396,389,388,391,387,393,389,394,387,386,387,390,388,386,391,387,386,390,388,393,388,389,387,0,0,0,0,0,0,0,0,0,0,0,0,0,0,0,0,0,0,0,0,0,0,0,0,0,0,0,0,0,0,0,0,0,0,0,0,0,0,0,0,0,0,0,0,0,0,0,0,0,0,0,0,0,0,0,0,0,0,0,0,0,0,0,0,0,437,436,431,439,426,513,642,713,794,869,880,867,846,816,797,790,779,754,757,752,721,709,735,695,685,674,634,643,612,538,501,564,531,484,423,462,476,416,384,389,384,387,396,389,388,391,387,393,389,394,387,386,387,390,388,386,391,387,386,390,388,393,388,389,387,296,246,246,247,248,319,360,403,445,487,500,492,485,476,468,460,453,444,436,429,421,412,404,397,389,380,372,365,357,348,341,333,325,316,309,249,250,250,237,235,239,243,236,272,243,273,266,243,272,242,245,243,243,251,243,243,244,249,243,241,243,245,243,251,243,600,571,573,611,612,781,919,998,1041,1119,1160,1140,1127,1069,1052,1085,1035,1014,1059,976,997,980,925,908,889,906,853,870,871,816,752,680,665,652,586,596,613,549,551,556,559,559,559,559,551,559,557,555,557,558,552,552,552,552,552,552,552,552,552,552,552,552,552,552,552,34,34,34,34,34,35,39,44,48,52,57,56,55,53,52,52,51,50,49,48,48,47,46,45,44,44,42,41,40,39,39,38,37,36,35,35,35,35,0,0,0,0,0,0,0,0,0,0,0,0,0,0,0,0,0,0,0,0,0,0,0,0,0,0,0,679,681,683,685,689,846,1046,1149,1264,1342,1347,1331,1310,1283,1268,1241,1228,1184,1178,1161,1136,1122,1095,1075,1054,1032,1011,931,911,762,914,738,725,755,693,689,699,683,637,637,637,637,637,637,637,637,637,637,637,637,637,637,637,637,637,637,637,637,637,637,637,637,637,637,637,252,253,209,210,210,267,311,347,383,421,475,427,421,414,407,400,393,386,379,372,365,358,352,344,337,331,323,316,310,302,295,280,281,275,267,211,259,265,194,194,194,194,194,194,194,194,194,194,194,194,194,194,194,194,194,194,194,194,194,194,194,194,194,194,194,418,419,420,421,423,546,599,652,705,745,754,744,734,724,716,706,696,687,677,667,657,649,639,628,618,608,598,589,579,569,559,550,540,530,495,423,423,489,408,412,411,415,416,418,417,418,415,417,418,414,416,418,418,418,418,418,418,418,418,418,416,418,418,418,418,1539,1519,1554,1681,2109,2492,2722,2854,2906,2926,2926,2879,2847,2760,2728,2710,2667,2597,2598,2490,2270,2317,1957,1884,1989,1892,1773,1814,1750,1683,1683,1629,1641,1621,1531,1560,1558,1507,1507,1507,1507,1507,1507,1507,1507,1507,1507,1507,1507,1507,1507,1507,1507,1507,1507,1507,1507,1507,1507,1507,1507,1507,1507,1507,1507,1685,1648,1699,1869,2189,2678,3005,3103,3176,3196,3140,3132,3063,3021,2958,2965,2889,2800,2829,2720,2500,2229,2205,2100,2093,2011,1989,1948,1980,1886,1855,1791,1762,1722,1680,1719,1693,1643,1636,1654,1660,1651,1656,1656,1650,1655,1658,1655,1652,1657,1650,1656,1656,1656,1656,1656,1656,1656,1656,1656,1656,1656,1656,1656,1656,52,52,52,64,64,64,73,82,91,100,107,105,104,102,101,99,96,95,93,92,90,89,86,85,83,81,80,78,77,74,73,71,70,68,66,64,64,64,0,0,0,0,0,0,0,0,0,0,0,0,0,0,0,0,0,0,0,0,0,0,0,0,0,0,0,523,504,495,527,555,717,793,867,904,950,997,985,980,944,931,919,922,895,898,865,858,845,818,801,768,781,737,746,740,728,705,597,618,568,495,528,548,448,448,448,448,448,448,448,448,448,448,448,448,448,448,448,448,448,448,448,448,448,448,448,448,448,448,448,448,0,0,0,0,0,0,0,0,0,0,0,0,0,0,0,0,0,0,0,0,0,0,0,0,0,0,0,0,0,0,0,0,0,0,0,0,0,0,0,0,0,0,0,0,0,0,0,0,0,0,0,0,0,0,0,0,0,0,0,0,0,0,0,0,0,600,571,573,611,612,781,919,998,1041,1119,1160,1140,1127,1069,1052,1085,1035,1014,1059,976,997,980,925,908,889,906,853,870,871,816,752,680,665,652,586,596,613,549,551,556,559,559,559,559,551,559,557,555,557,558,552,552,552,552,552,552,552,552,552,552,552,552,552,552,552,0,0,0,0,0,0,0,0,0,0,0,0,0,0,0,0,0,0,0,0,0,0,0,0,0,0,0,0,0,0,0,0,0,0,0,0,0,0,0,0,0,0,0,0,0,0,0,0,0,0,0,0,0,0,0,0,0,0,0,0,0,0,0,0,0,600,600,601,613,606,677,911,1003,1129,1157,1191,1160,1119,1098,1082,1062,1075,1025,1008,1033,971,995,935,953,895,918,893,878,823,768,818,769,641,622,619,596,611,577,553,548,549,553,557,557,558,551,561,560,562,559,584,577,598,560,557,586,565,589,556,564,594,564,564,564,564,515,516,518,521,530,581,769,880,950,1032,1043,1027,994,993,976,960,943,927,910,893,876,860,843,827,810,793,776,745,743,727,686,570,569,540,528,536,525,527,498,488,491,494,494,492,498,499,502,495,508,497,515,518,516,511,503,505,503,519,507,525,506,513,513,513,513,515,555,528,520,531,675,765,849,931,996,982,963,948,935,920,950,892,933,911,852,902,934,845,795,814,782,806,797,749,715,592,569,661,639,499,570,570,546,522,533,530,535,549,534,540,539,532,534,536,541,547,556,562,556,555,556,547,548,546,534,535,532,532,532,532,613,615,616,618,655,795,935,1037,1127,1185,1193,1178,1162,1144,1130,1113,1099,1083,1066,1035,1017,998,980,962,943,926,907,889,873,853,838,812,725,689,627,636,625,618,563,570,565,575,583,585,574,579,571,580,577,572,586,593,588,586,581,580,583,578,591,582,583,594,593,593,593,1001,993,988,994,1091,1321,1617,1783,1905,1988,1957,1926,1894,1843,1835,1824,1771,1738,1689,1675,1648,1616,1586,1534,1535,1469,1480,1428,1309,1276,1121,1124,1026,1016,995,1008,1000,994,982,979,978,983,982,987,984,988,981,990,987,984,989,991,991,988,989,991,991,988,987,987,988,991,986,986,986,1097,1099,1119,1092,1160,1525,1793,2008,2108,2133,2150,2131,2100,2052,2013,1977,1966,1923,1885,1853,1817,1786,1756,1717,1679,1641,1609,1566,1368,1281,1251,1185,1151,1134,1118,1113,1127,1137,1092,1082,1096,1099,1100,1092,1097,1099,1096,1101,1099,1097,1097,1100,1101,1102,1103,1100,1099,1098,1098,1099,1097,1101,1095,1095,1095,624,624,632,638,637,711,954,1051,1179,1207,1240,1209,1166,1145,1128,1107,1119,1068,1051,1075,1013,1034,975,991,932,956,929,913,858,803,851,802,667,647,644,621,636,577,553,548,549,553,557,557,558,551,561,560,562,559,584,577,598,560,557,586,565,589,556,564,594,564,564,564,564,263,264,265,266,267,344,389,434,480,524,536,529,520,511,502,495,486,477,468,481,452,443,434,425,418,427,400,391,383,375,366,357,349,341,332,268,268,328,258,243,245,246,244,250,246,251,246,252,250,245,246,248,246,246,251,249,249,248,248,249,246,250,249,251,250,586,599,587,594,591,638,863,1001,1099,1127,1138,1133,1091,1074,1056,1035,1049,1001,983,1008,950,971,934,936,894,897,881,858,822,837,818,802,619,625,597,575,605,577,553,548,549,553,557,557,560,551,561,561,570,559,584,577,598,560,557,586,568,589,556,564,594,564,564,564,564,0,0,0,0,0,0,0,0,0,0,0,0,0,0,0,0,0,0,0,0,0,0,0,0,0,0,0,0,0,0,0,0,0,0,0,0,0,0,0,0,0,0,0,0,0,0,0,0,0,0,0,0,0,0,0,0,0,0,0,0,0,0,0,0,0 ]);
