n = 10;
D = [218,171,137,110,63,141,189,114,138,284 ];
q = 0;
prec = array2d(1..0,1..2,[]);
steps = 64;
l = 360;
r = 0;
which = [];
interval = array2d(1..0,1..2,[]);
T = array3d(1..11,1..11,0..64,[0,0,0,0,0,0,0,0,0,0,0,0,0,0,0,0,0,0,0,0,0,0,0,0,0,0,0,0,0,0,0,0,0,0,0,0,0,0,0,0,0,0,0,0,0,0,0,0,0,0,0,0,0,0,0,0,0,0,0,0,0,0,0,0,0,391,392,393,394,397,557,728,812,905,962,972,955,940,926,908,893,878,862,846,831,816,801,786,770,754,738,723,708,693,677,662,574,561,507,400,396,397,381,368,373,371,377,378,394,380,395,388,379,395,381,377,379,378,394,377,378,383,382,379,377,377,385,373,382,372,1347,1352,1418,1521,2490,3067,3648,3837,3852,3842,3843,3783,3675,3561,3474,3420,3320,3235,3181,3090,3014,2828,2584,2415,2156,2090,2039,1935,1594,1547,1469,1443,1388,1354,1352,1349,1364,1384,1538,1533,1548,1557,1552,1549,1554,1553,1575,1622,1559,1573,1568,1580,1582,1585,1671,1551,1569,1564,1577,1604,1560,1587,1568,1574,1577,944,941,949,983,1019,1526,1953,2120,2232,2339,2331,2251,2227,2172,2141,2110,2081,2033,2012,1977,1929,1893,1896,1726,1737,1669,1623,1429,1425,1180,1084,1014,992,972,980,976,962,943,936,933,933,943,942,941,948,937,940,943,947,936,944,944,947,941,945,958,942,946,936,945,943,943,943,943,943,737,740,743,744,751,1205,1465,1625,1766,1809,1810,1776,1746,1718,1687,1658,1629,1600,1571,1541,1513,1488,1460,1430,1400,1370,1342,1317,1288,1147,1089,801,782,764,754,749,752,708,694,695,695,712,712,738,718,723,723,716,744,717,708,713,718,728,713,717,722,715,714,709,713,718,709,708,698,672,669,684,665,708,1152,1335,1489,1621,1615,1701,1636,1597,1536,1571,1564,1479,1453,1428,1401,1356,1330,1402,1372,1270,1263,1237,1192,1166,1140,919,887,708,712,670,700,750,684,687,683,684,689,695,684,684,688,689,696,699,701,699,717,702,695,727,724,698,703,722,704,705,704,708,720,710,1112,1116,1104,1126,1163,1969,2404,2522,2617,2670,2655,2582,2562,2506,2454,2435,2377,2350,2308,2265,2222,2187,2138,2101,2058,2036,1886,1612,1252,1332,1222,1203,1156,1160,1123,1114,1107,1109,1088,1095,1098,1105,1104,1124,1123,1128,1129,1121,1123,1117,1119,1126,1137,1151,1122,1118,1134,1126,1131,1130,1119,1114,1102,1103,1093,1275,1274,1296,1346,1664,2479,2807,2952,3059,3051,3061,2998,2957,2890,2852,2807,2751,2686,2652,2615,2562,2505,2467,2412,2365,2136,1776,1698,1475,1418,1402,1386,1330,1266,1255,1261,1272,1234,1223,1231,1230,1243,1251,1275,1249,1261,1263,1253,1283,1257,1245,1252,1254,1269,1248,1250,1257,1249,1252,1246,1252,1254,1245,1244,1234,1217,1219,1258,1350,2209,2759,3349,3549,3568,3604,3570,3514,3376,3283,3214,3165,3068,2995,2923,2857,2785,2704,2592,2443,2349,2277,2150,1867,1783,1588,1338,1313,1256,1215,1237,1216,1233,1248,1344,1336,1336,1348,1373,1364,1372,1379,1362,1373,1383,1369,1403,1383,1386,1390,1405,1380,1385,1383,1510,1384,1407,1382,1407,1407,1390,906,905,895,921,919,1579,1891,2043,2143,2181,2194,2132,2126,2061,2032,1992,1962,1943,1912,1871,1837,1808,1766,1730,1698,1662,1634,1369,1263,1095,1011,995,948,935,910,910,896,860,846,849,848,864,865,890,870,875,875,868,892,869,860,865,870,880,865,869,875,868,868,861,866,870,861,860,850,0,0,0,0,0,0,0,0,0,0,0,0,0,0,0,0,0,0,0,0,0,0,0,0,0,0,0,0,0,0,0,0,0,0,0,0,0,0,0,0,0,0,0,0,0,0,0,0,0,0,0,0,0,0,0,0,0,0,0,0,0,0,0,0,0,532,524,551,500,559,803,876,1059,1224,1303,1291,1204,1249,1166,1146,1179,1107,1136,1151,1131,999,1089,990,967,924,973,930,891,872,850,834,766,594,516,505,527,504,505,492,499,502,499,495,498,499,500,504,515,513,516,517,513,515,510,516,517,516,519,549,528,523,515,518,519,562,0,0,0,0,0,0,0,0,0,0,0,0,0,0,0,0,0,0,0,0,0,0,0,0,0,0,0,0,0,0,0,0,0,0,0,0,0,0,0,0,0,0,0,0,0,0,0,0,0,0,0,0,0,0,0,0,0,0,0,0,0,0,0,0,0,1335,1344,1364,1444,2001,2563,3217,3362,3404,3434,3395,3309,3259,3206,3144,3098,3010,2961,2918,2858,2774,2523,2468,2198,2076,1971,1737,1677,1679,1500,1466,1410,1380,1359,1360,1372,1356,1393,1373,1373,1385,1414,1384,1404,1403,1418,1395,1396,1408,1389,1398,1387,1398,1405,1402,1401,1406,1395,1422,1396,1425,1423,1417,1422,1416,580,583,584,579,601,806,1095,1272,1382,1430,1430,1408,1366,1364,1342,1321,1298,1276,1253,1230,1208,1177,1165,1143,1119,1004,983,963,942,920,850,634,632,605,592,588,590,570,562,580,573,578,573,564,568,578,575,602,564,561,570,567,582,573,586,568,580,578,581,569,588,588,571,583,577,349,350,351,352,354,495,648,723,799,871,866,852,838,824,811,798,783,770,756,742,728,715,757,687,674,660,646,632,619,606,591,527,505,462,437,354,356,356,327,326,322,324,335,334,344,338,328,335,337,349,336,331,334,340,334,336,339,339,333,335,332,336,333,336,326,679,633,636,681,667,1110,1268,1525,1524,1639,1567,1528,1503,1571,1454,1461,1506,1478,1441,1426,1398,1280,1346,1230,1294,1171,1228,1213,1096,1101,992,688,854,702,681,684,643,696,670,670,687,695,688,671,691,708,692,684,698,695,691,695,700,708,709,688,695,698,700,702,696,706,700,696,698,732,737,724,731,754,1047,1428,1580,1705,1752,1752,1754,1730,1634,1644,1581,1564,1550,1500,1525,1477,1450,1423,1421,1359,1332,1304,1298,1224,998,913,821,788,769,748,750,732,729,728,720,722,727,728,726,730,743,733,741,742,728,736,742,747,759,757,745,740,751,745,752,753,742,729,729,721,899,888,901,908,927,1370,1845,2020,2144,2181,2168,2112,2093,2051,2025,1988,1951,1935,1884,1861,1810,1788,1774,1716,1681,1651,1611,1547,1280,1179,986,975,945,922,910,907,910,887,853,855,858,859,866,873,881,869,866,875,874,888,876,868,873,876,875,871,872,873,867,873,869,875,869,872,862,1241,1252,1253,1325,1838,2518,2935,3081,3166,3151,3116,3070,3044,2941,2891,2841,2796,2714,2670,2636,2566,2512,2451,2367,2021,1970,1890,1787,1427,1378,1356,1306,1293,1270,1257,1259,1278,1292,1293,1290,1317,1325,1319,1302,1317,1315,1328,1333,1333,1347,1333,1316,1327,1338,1332,1332,1334,1332,1328,1332,1329,1333,1331,1336,1326,513,515,516,518,524,686,1002,1072,1222,1255,1238,1219,1230,1189,1189,1150,1124,1134,1084,1092,1066,1058,1037,1017,985,975,944,924,911,788,767,623,554,535,524,520,522,505,479,478,476,477,487,487,496,490,480,487,489,497,488,483,486,492,486,488,491,491,486,489,484,489,485,488,478,532,524,551,500,559,803,876,1059,1224,1303,1291,1204,1249,1166,1146,1179,1107,1136,1151,1131,999,1089,990,967,924,973,930,891,872,850,834,766,594,516,505,527,504,505,492,499,502,499,495,498,499,500,504,515,513,516,517,513,515,510,516,517,516,519,549,528,523,515,518,519,562,1362,1366,1419,1568,2532,3404,3626,3774,3832,3814,3756,3698,3602,3525,3454,3361,3296,3219,3159,3057,2855,2711,2534,2452,2365,2044,1684,1635,1584,1540,1481,1435,1396,1393,1460,1409,1402,1425,1522,1557,1539,1562,1564,1551,1548,1558,1559,1558,1569,1554,1555,1568,1572,1575,1581,1588,1588,1583,1620,1649,1619,1639,1649,1663,1613,1335,1368,1374,1490,1852,2909,3180,3334,3414,3464,3384,3312,3288,3169,3140,3046,2985,2923,2885,2835,2755,2661,2572,2246,1902,1654,1851,1589,1530,1514,1477,1408,1403,1395,1378,1339,1329,1329,1326,1340,1346,1352,1356,1351,1351,1369,1347,1357,1357,1348,1351,1361,1371,1384,1378,1386,1375,1365,1363,1360,1350,1345,1355,1369,1340,0,0,0,0,0,0,0,0,0,0,0,0,0,0,0,0,0,0,0,0,0,0,0,0,0,0,0,0,0,0,0,0,0,0,0,0,0,0,0,0,0,0,0,0,0,0,0,0,0,0,0,0,0,0,0,0,0,0,0,0,0,0,0,0,0,894,914,897,922,1070,1809,2073,2276,2377,2444,2414,2326,2298,2300,2236,2197,2108,2065,2022,1977,1934,1891,1863,1803,1794,1730,1672,1629,1586,1359,999,970,941,951,907,909,914,947,941,934,928,936,935,951,938,942,963,962,942,960,962,964,957,996,1004,957,948,953,956,966,955,957,966,1007,950,1106,1108,1087,1121,1445,2239,2532,2720,2814,2821,2791,2740,2689,2639,2588,2538,2487,2442,2392,2392,2290,2239,2244,2182,2087,2078,1992,1763,1588,1228,1230,1185,1131,1107,1097,1120,1103,1092,1100,1114,1120,1126,1130,1125,1125,1143,1121,1131,1131,1122,1125,1135,1145,1158,1152,1160,1149,1139,1137,1134,1124,1119,1129,1143,1114,1327,1371,1355,1473,1918,2879,3131,3317,3380,3456,3436,3301,3238,3228,3176,3116,2995,2935,2873,2812,2756,2696,2637,2588,2484,2157,1908,1561,1527,1488,1496,1419,1390,1397,1344,1348,1354,1391,1382,1383,1370,1386,1387,1410,1392,1393,1405,1426,1408,1413,1421,1426,1416,1431,1443,1409,1406,1403,1410,1444,1413,1446,1452,1444,1414,788,785,791,792,940,1519,1746,1951,2061,2085,2068,2031,1993,1956,1918,1881,1843,1805,1771,1734,1696,1659,1622,1585,1548,1510,1473,1409,1373,1323,1046,901,833,810,799,800,769,773,773,787,781,784,779,776,781,786,781,792,792,795,793,792,792,786,797,798,790,795,790,791,797,790,816,807,806,1020,1021,1028,1071,1319,2062,2310,2648,2598,2761,2592,2546,2499,2454,2407,2360,2314,2268,2222,2175,2128,2083,2036,2236,1944,2004,1851,1786,1712,1470,1110,1080,1050,1044,1032,1036,1041,1109,1065,1061,1068,1067,1074,1080,1080,1073,1079,1095,1108,1088,1094,1100,1108,1112,1107,1108,1103,1116,1140,1233,1125,1110,1122,1137,1122,454,541,453,455,551,746,829,912,1008,1050,1058,1046,1033,1003,1006,973,958,943,928,913,904,883,868,853,838,823,808,799,777,763,747,733,717,560,460,457,458,552,544,453,452,456,453,460,454,457,454,458,456,451,453,453,456,460,460,457,456,455,456,458,454,571,453,458,455,1032,1034,1028,1044,1253,2094,2332,2468,2540,2616,2545,2498,2532,2420,2407,2348,2304,2318,2262,2160,2133,2126,2055,2048,1950,1871,1823,1726,1531,1184,1128,1110,1080,1061,1046,1066,1050,1029,1049,1060,1069,1066,1065,1052,1058,1070,1060,1092,1095,1071,1100,1070,1068,1067,1091,1079,1066,1083,1088,1080,1077,1077,1103,1090,1080,1362,1366,1419,1568,2532,3404,3626,3774,3832,3814,3756,3698,3602,3525,3454,3361,3296,3219,3159,3057,2855,2711,2534,2452,2365,2044,1684,1635,1584,1540,1481,1435,1396,1393,1460,1409,1402,1425,1522,1557,1539,1562,1564,1551,1548,1558,1559,1558,1569,1554,1555,1568,1572,1575,1581,1588,1588,1583,1620,1649,1619,1639,1649,1663,1613,905,909,912,916,998,1359,1839,2022,2137,2198,2192,2178,2097,2082,2004,2011,1970,1961,1932,1868,1824,1806,1767,1722,1682,1666,1634,1326,1232,1152,983,970,936,929,927,916,922,912,879,880,879,880,879,882,882,886,882,882,882,880,879,882,883,885,884,882,884,881,881,881,881,881,881,881,881,620,622,622,624,642,801,1171,1358,1454,1508,1537,1501,1476,1452,1402,1402,1378,1354,1330,1330,1250,1234,1232,1178,1202,1159,1135,1127,970,947,851,768,659,660,632,629,631,619,585,586,585,586,585,588,588,592,588,588,588,586,585,588,589,591,590,588,590,587,587,587,587,587,587,587,587,931,934,936,951,1107,1863,2164,2373,2498,2508,2472,2431,2388,2342,2289,2244,2198,2125,2107,2067,2038,1976,1968,1885,1837,1794,1748,1702,1636,1294,1022,1013,961,936,924,927,953,968,967,962,1001,1000,992,1003,993,968,980,996,985,985,984,1002,1006,1003,1005,987,1003,987,974,978,1002,988,987,1002,971,0,0,0,0,0,0,0,0,0,0,0,0,0,0,0,0,0,0,0,0,0,0,0,0,0,0,0,0,0,0,0,0,0,0,0,0,0,0,0,0,0,0,0,0,0,0,0,0,0,0,0,0,0,0,0,0,0,0,0,0,0,0,0,0,0,408,409,411,412,414,538,740,859,944,1003,1010,994,979,962,950,933,914,898,882,866,850,834,818,802,786,770,754,738,722,686,656,595,569,428,418,415,416,406,359,360,359,360,359,362,362,366,362,362,362,360,359,362,363,365,364,362,364,361,361,361,361,361,361,361,361,614,616,619,624,630,904,1145,1277,1406,1498,1471,1473,1449,1425,1401,1378,1359,1341,1323,1300,1276,1252,1227,1203,1179,1154,1129,1106,1082,1056,936,684,676,660,636,628,629,631,604,599,605,608,615,614,620,613,615,624,619,618,624,612,613,632,623,615,627,617,607,625,626,626,626,626,626,484,484,475,476,515,599,885,992,1094,1176,1194,1155,1154,1139,1125,1105,1087,1067,1048,1013,1009,962,962,953,907,915,896,880,861,801,749,694,568,558,482,495,496,472,436,431,432,435,434,433,437,437,437,447,438,443,445,448,442,447,448,438,438,442,452,450,445,446,440,447,445,834,838,841,844,856,1319,1643,1893,2007,2029,2019,2001,1969,1936,1904,1872,1839,1807,1776,1741,1689,1675,1642,1610,1576,1542,1500,1478,1192,1155,1050,891,879,861,847,847,841,837,789,790,795,800,794,806,801,810,800,813,808,803,809,807,814,813,815,809,815,812,812,812,808,807,806,805,805,1028,1047,1049,1063,1345,2087,2341,2568,2640,2697,2665,2604,2547,2534,2449,2415,2348,2332,2254,2259,2180,2152,2118,2130,1995,1950,1924,1700,1421,1340,1184,1128,1082,1064,1049,1056,1059,1057,1048,1063,1063,1084,1076,1076,1061,1079,1085,1086,1085,1086,1086,1086,1090,1087,1089,1087,1087,1085,1087,1087,1088,1088,1085,1086,1085,428,429,431,432,435,477,791,910,1000,1062,1069,1052,1035,1017,997,983,967,948,928,915,897,877,862,853,829,810,794,751,656,618,604,550,465,453,456,435,436,419,383,385,385,389,389,390,392,400,387,392,391,398,385,389,393,397,391,391,394,399,394,392,392,391,390,389,389,905,909,912,916,998,1359,1839,2022,2137,2198,2192,2178,2097,2082,2004,2011,1970,1961,1932,1868,1824,1806,1767,1722,1682,1666,1634,1326,1232,1152,983,970,936,929,927,916,922,912,879,880,879,880,879,882,882,886,882,882,882,880,879,882,883,885,884,882,884,881,881,881,881,881,881,881,881,797,790,800,802,816,901,1607,1768,1887,1924,1909,1899,1883,1845,1815,1761,1745,1716,1694,1665,1630,1589,1544,1528,1506,1477,1443,1347,1255,1057,964,948,834,809,810,812,818,797,754,754,754,754,754,754,754,754,754,754,754,754,754,754,754,754,754,754,754,754,754,754,754,754,754,754,754,496,499,508,509,511,543,934,1028,1155,1222,1242,1194,1210,1186,1166,1120,1115,1099,1044,1053,1047,1016,962,977,958,945,928,844,883,852,770,614,532,530,520,506,507,503,462,462,462,462,462,462,462,462,462,462,462,462,462,462,462,462,462,462,462,462,462,462,462,462,462,462,462,1096,1122,1108,1122,1281,2080,2501,2684,2852,2892,2896,2836,2790,2738,2674,2630,2577,2523,2460,2399,2361,2308,2270,2202,2147,2094,1854,1578,1578,1273,1232,1201,1188,1124,1128,1134,1126,1137,1106,1104,1117,1116,1128,1119,1140,1130,1111,1108,1120,1115,1111,1110,1110,1116,1116,1114,1115,1107,1114,1115,1134,1156,1156,1156,1156,404,403,406,408,411,595,752,836,926,980,986,970,955,934,925,909,894,892,864,843,832,813,819,787,788,794,721,707,693,678,662,649,526,462,411,408,447,426,374,376,380,382,382,386,380,382,381,389,385,385,390,390,395,396,394,394,394,394,394,394,394,394,394,394,394,0,0,0,0,0,0,0,0,0,0,0,0,0,0,0,0,0,0,0,0,0,0,0,0,0,0,0,0,0,0,0,0,0,0,0,0,0,0,0,0,0,0,0,0,0,0,0,0,0,0,0,0,0,0,0,0,0,0,0,0,0,0,0,0,0,734,737,739,741,747,1154,1472,1638,1743,1793,1794,1766,1737,1711,1683,1666,1626,1607,1572,1548,1520,1486,1453,1424,1395,1366,1338,1309,1286,1138,1072,884,801,759,748,745,747,749,722,722,722,722,722,722,722,722,722,722,722,722,722,722,722,722,722,722,722,722,722,722,722,722,722,722,722,439,440,441,443,448,512,820,915,1010,1079,1086,1095,1061,1034,1017,999,982,964,948,931,913,896,879,861,844,826,810,801,775,758,734,550,507,495,448,445,447,464,416,416,420,422,416,427,421,429,423,423,423,423,423,423,423,423,423,423,423,423,424,425,423,424,423,423,423,550,552,544,555,559,688,1027,1148,1295,1348,1358,1338,1316,1304,1263,1251,1227,1208,1186,1165,1151,1119,1090,1077,1056,1017,1019,991,969,861,800,728,665,615,555,557,560,561,527,526,529,536,535,531,539,537,531,538,540,537,539,540,537,539,536,542,535,533,535,535,536,538,538,538,538,1123,1140,1124,1150,1238,1919,2427,2593,2713,2788,2775,2726,2685,2642,2609,2546,2493,2457,2432,2380,2325,2288,2234,2201,2130,2080,1872,1596,1508,1294,1300,1209,1172,1132,1148,1149,1132,1151,1105,1107,1113,1118,1124,1122,1119,1124,1120,1120,1120,1119,1120,1120,1120,1120,1120,1120,1120,1120,1121,1122,1120,1119,1120,1120,1120,193,194,194,195,217,253,342,382,422,462,487,476,471,463,456,447,440,432,424,416,409,400,393,385,378,369,362,354,346,338,331,322,315,307,255,217,250,252,152,152,152,154,153,152,153,153,152,152,152,152,152,152,152,152,152,152,152,152,153,154,152,153,152,152,152,797,790,800,802,816,901,1607,1768,1887,1924,1909,1899,1883,1845,1815,1761,1745,1716,1694,1665,1630,1589,1544,1528,1506,1477,1443,1347,1255,1057,964,948,834,809,810,812,818,797,754,754,754,754,754,754,754,754,754,754,754,754,754,754,754,754,754,754,754,754,754,754,754,754,754,754,754,640,657,644,657,676,1148,1298,1426,1557,1573,1597,1600,1549,1563,1495,1470,1443,1408,1393,1405,1341,1316,1291,1266,1243,1216,1189,1166,1119,1077,1070,828,824,803,641,662,662,664,659,654,659,663,659,664,670,664,661,669,675,666,664,672,677,720,677,682,670,678,676,676,678,674,674,718,709,584,587,588,590,612,1014,1146,1279,1383,1431,1432,1410,1387,1364,1341,1407,1297,1274,1251,1228,1206,1183,1160,1137,1114,1093,1070,1115,1024,1002,781,764,744,607,596,593,595,596,603,610,588,594,608,591,626,609,599,625,607,597,591,600,611,609,631,613,610,633,630,604,606,608,601,597,597,1210,1189,1208,1348,2220,2816,3213,3381,3463,3460,3430,3433,3292,3177,3146,3066,2997,2928,2859,2790,2720,2652,2582,2514,2346,2197,2140,1916,1822,1691,1331,1285,1268,1240,1232,1236,1247,1258,1286,1352,1282,1285,1311,1341,1299,1311,1310,1342,1317,1331,1350,1321,1313,1329,1307,1370,1364,1310,1315,1353,1384,1448,1400,1412,1325,619,631,624,635,662,1082,1211,1375,1467,1516,1527,1518,1476,1442,1428,1403,1379,1372,1330,1304,1281,1256,1235,1210,1185,1093,1071,1048,1025,1002,980,873,681,652,640,636,627,589,587,584,583,582,590,587,597,598,589,598,588,589,590,595,598,598,597,595,595,591,595,592,596,626,615,639,627,683,685,687,691,736,1209,1368,1532,1629,1674,1672,1645,1616,1590,1564,1554,1510,1484,1451,1430,1392,1380,1352,1323,1297,1268,1259,1221,1193,1107,758,748,725,708,698,695,693,659,659,660,661,662,670,671,704,708,670,696,674,678,680,675,673,696,702,674,675,668,666,678,671,675,673,683,666,0,0,0,0,0,0,0,0,0,0,0,0,0,0,0,0,0,0,0,0,0,0,0,0,0,0,0,0,0,0,0,0,0,0,0,0,0,0,0,0,0,0,0,0,0,0,0,0,0,0,0,0,0,0,0,0,0,0,0,0,0,0,0,0,0,832,835,837,848,926,1530,1722,1898,1992,2017,2007,1976,2007,1923,1891,1858,1825,1788,1752,1729,1696,1663,1633,1604,1570,1539,1506,1474,1315,955,941,912,970,878,840,880,804,806,802,810,815,827,834,842,826,841,832,843,838,842,851,831,854,858,845,834,850,851,838,845,858,854,855,850,842,1135,1128,1140,1147,1514,2233,2479,2638,2716,2743,2701,2677,2617,2588,2543,2516,2454,2408,2344,2322,2295,2238,2202,2156,2113,2067,1908,1784,1623,1527,1259,1228,1176,1159,1154,1154,1150,1110,1109,1112,1121,1136,1139,1141,1152,1152,1154,1165,1143,1159,1145,1140,1147,1172,1182,1149,1135,1126,1138,1151,1145,1153,1147,1146,1129,1213,1197,1230,1356,2490,3031,3379,3545,3640,3621,3591,3490,3447,3358,3288,3246,3175,3102,3016,2959,2877,2808,2474,2356,2297,2144,2058,1943,1583,1423,1378,1312,1266,1244,1234,1244,1248,1281,1368,1356,1352,1372,1407,1400,1393,1402,1390,1392,1429,1398,1426,1420,1439,1428,1433,1412,1422,1435,1439,1473,1477,1483,1470,1474,1434,748,750,753,755,788,1348,1516,1701,1806,1836,1832,1802,1770,1740,1713,1698,1651,1622,1591,1572,1561,1513,1480,1450,1424,1392,1377,1280,1213,1110,990,821,801,776,761,759,744,726,720,723,722,723,734,734,742,739,733,748,736,740,742,737,735,741,773,737,738,730,727,740,733,738,738,746,730,640,657,644,657,676,1148,1298,1426,1557,1573,1597,1600,1549,1563,1495,1470,1443,1408,1393,1405,1341,1316,1291,1266,1243,1216,1189,1166,1119,1077,1070,828,824,803,641,662,662,664,659,654,659,663,659,664,670,664,661,669,675,666,664,672,677,720,677,682,670,678,676,676,678,674,674,718,709,1043,1047,1074,1062,1153,1698,2227,2400,2490,2531,2534,2478,2436,2388,2359,2320,2278,2233,2195,2155,2088,2079,2031,1994,1951,1929,1609,1503,1193,1195,1141,1113,1090,1081,1087,1060,1068,1050,1024,1029,1025,1030,1032,1027,1029,1049,1029,1032,1026,1029,1028,1045,1038,1038,1035,1046,1037,1034,1049,1050,1035,1060,1024,1034,1030,753,755,766,756,795,1024,1520,1661,1792,1846,1831,1815,1784,1750,1706,1676,1673,1636,1611,1555,1548,1519,1486,1460,1410,1404,1355,1327,1256,1177,903,881,796,788,777,754,768,756,730,728,731,736,738,729,735,755,735,738,732,735,734,747,744,744,741,743,741,740,748,756,741,756,730,740,736,829,808,809,835,904,1435,1707,2072,2171,2218,2207,2167,2126,2084,2069,2028,1986,1943,1903,1859,1818,1775,1708,1691,1650,1609,1573,1531,1402,1343,1188,920,883,852,852,853,849,854,838,848,847,848,857,860,855,869,863,859,870,867,860,882,864,873,861,858,876,865,858,862,876,874,860,866,855,541,540,543,551,550,685,1019,1086,1192,1299,1296,1273,1272,1237,1256,1238,1189,1153,1129,1124,1107,1070,1052,1030,1013,987,967,975,962,939,834,648,584,569,557,551,552,548,519,502,508,507,509,511,508,514,512,522,524,511,519,518,521,517,518,523,509,513,520,513,515,519,509,523,512,424,425,427,428,429,452,789,881,968,1037,1065,1036,1017,1000,985,967,950,933,918,901,884,868,850,834,818,800,783,767,750,734,717,560,539,444,455,431,432,423,377,376,384,387,393,402,388,401,394,399,396,394,399,393,394,420,391,389,395,401,389,392,392,401,391,401,397,969,946,968,976,1032,1466,2001,2159,2252,2293,2300,2254,2212,2175,2137,2099,2063,2024,1988,1951,1920,1889,1853,1818,1774,1743,1701,1404,1324,1061,1041,1012,998,975,981,959,961,956,923,925,929,935,935,954,932,932,945,939,935,941,950,953,954,969,947,937,949,943,932,958,945,946,952,934,932,0,0,0,0,0,0,0,0,0,0,0,0,0,0,0,0,0,0,0,0,0,0,0,0,0,0,0,0,0,0,0,0,0,0,0,0,0,0,0,0,0,0,0,0,0,0,0,0,0,0,0,0,0,0,0,0,0,0,0,0,0,0,0,0,0,734,750,759,768,790,1123,1377,1648,1729,1780,1775,1790,1724,1695,1674,1659,1616,1606,1558,1543,1513,1478,1444,1428,1425,1397,1345,1241,1188,1030,833,816,770,777,744,756,764,755,674,673,672,677,677,675,676,678,675,678,678,684,699,703,701,706,680,672,674,678,681,680,684,701,680,684,676,865,854,856,876,992,1313,1794,1935,2043,2080,2066,2033,1998,1988,1963,1908,1903,1838,1806,1772,1784,1728,1698,1640,1604,1574,1542,1517,1352,1200,975,964,909,912,869,864,869,851,817,816,819,836,834,825,832,831,826,835,849,847,829,831,846,856,841,824,827,827,833,829,827,841,825,826,826,361,362,364,369,372,419,588,746,813,871,885,871,873,859,844,830,816,800,788,774,758,750,730,716,699,689,670,592,581,628,522,422,411,403,375,372,368,372,302,307,303,306,309,308,310,312,305,310,305,311,313,319,318,329,317,307,303,307,315,313,312,332,312,319,309,1043,1047,1074,1062,1153,1698,2227,2400,2490,2531,2534,2478,2436,2388,2359,2320,2278,2233,2195,2155,2088,2079,2031,1994,1951,1929,1609,1503,1193,1195,1141,1113,1090,1081,1087,1060,1068,1050,1024,1029,1025,1030,1032,1027,1029,1049,1029,1032,1026,1029,1028,1045,1038,1038,1035,1046,1037,1034,1049,1050,1035,1060,1024,1034,1030,1160,1161,1169,1236,1699,2520,2877,3036,3092,3123,3114,3052,3018,2926,2882,2822,2752,2685,2637,2565,2589,2448,2386,2317,2291,2092,1864,1834,1696,1532,1281,1244,1209,1167,1161,1186,1173,1200,1229,1254,1232,1232,1248,1232,1246,1253,1252,1254,1276,1253,1258,1268,1264,1270,1276,1313,1278,1276,1305,1263,1283,1301,1302,1278,1302,974,1000,997,1017,1074,1712,2148,2318,2354,2395,2354,2316,2274,2256,2250,2166,2205,2126,2107,2014,1977,1938,1915,1918,1827,1788,1765,1646,1451,1221,1124,1045,1042,1024,991,988,982,990,986,989,997,1003,1003,1005,1004,1008,1008,1003,1009,1007,1005,1005,1007,1011,1013,1019,1005,1009,1011,1008,1009,1007,1005,1014,1008,844,845,847,860,1273,1630,1938,2110,2223,2288,2235,2194,2154,2113,2089,2031,1990,1950,1909,1868,1827,1786,1746,1706,1665,1624,1584,1556,1502,1461,1280,920,892,876,858,867,873,871,882,876,876,912,871,892,891,892,888,884,888,873,884,892,900,1141,1008,908,892,895,903,896,895,897,876,892,877,854,844,854,854,929,1443,1737,1911,2032,2068,2061,2027,1995,1954,1915,1888,1854,1826,1797,1752,1734,1695,1666,1626,1592,1549,1527,1432,1311,1213,990,922,892,904,864,861,863,855,835,842,844,848,847,852,845,870,855,847,855,854,843,854,858,862,856,863,858,856,860,861,863,863,855,863,855,600,602,593,606,608,953,1131,1292,1400,1472,1473,1450,1425,1351,1385,1306,1333,1261,1288,1241,1232,1203,1192,1149,1146,1101,1091,1040,1015,865,843,824,654,639,613,610,588,563,554,553,558,558,559,561,559,561,562,557,562,562,558,560,564,565,567,571,562,567,564,561,563,563,568,568,562,1167,1169,1167,1246,1672,2270,2640,2808,2887,2910,2886,2839,2791,2739,2712,2666,2609,2566,2523,2476,2428,2382,2333,2286,2249,2116,1756,1609,1575,1497,1303,1256,1216,1176,1176,1204,1196,1222,1199,1207,1210,1219,1212,1223,1218,1244,1217,1215,1227,1235,1229,1232,1242,1236,1219,1252,1230,1221,1216,1230,1228,1250,1217,1251,1240,737,735,722,725,749,1210,1456,1646,1736,1777,1770,1747,1717,1691,1656,1631,1621,1594,1571,1516,1489,1458,1431,1405,1351,1336,1305,1203,1244,1121,944,889,761,762,731,740,740,699,691,693,699,700,696,706,698,705,699,698,700,694,700,697,698,717,697,700,698,700,700,700,695,709,693,703,694,0,0,0,0,0,0,0,0,0,0,0,0,0,0,0,0,0,0,0,0,0,0,0,0,0,0,0,0,0,0,0,0,0,0,0,0,0,0,0,0,0,0,0,0,0,0,0,0,0,0,0,0,0,0,0,0,0,0,0,0,0,0,0,0,0,714,716,736,723,782,1362,1594,1803,1922,1998,1959,1906,1870,1834,1821,1777,1725,1688,1652,1616,1579,1543,1507,1470,1434,1398,1366,1324,1288,1170,810,786,761,739,727,727,732,737,735,745,744,760,918,815,775,914,770,919,800,948,815,762,786,940,793,767,934,780,772,913,800,914,812,812,781,499,499,478,480,489,701,902,1061,1122,1173,1179,1160,1142,1123,1104,1084,1117,1099,1080,1009,993,974,952,936,915,896,877,859,840,820,774,678,662,496,486,487,484,480,468,468,468,471,470,470,474,469,473,476,469,470,476,478,481,480,484,478,479,481,480,477,478,482,476,475,474,1160,1161,1169,1236,1699,2520,2877,3036,3092,3123,3114,3052,3018,2926,2882,2822,2752,2685,2637,2565,2589,2448,2386,2317,2291,2092,1864,1834,1696,1532,1281,1244,1209,1167,1161,1186,1173,1200,1229,1254,1232,1232,1248,1232,1246,1253,1252,1254,1276,1253,1258,1268,1264,1270,1276,1313,1278,1276,1305,1263,1283,1301,1302,1278,1302,1134,1141,1159,1243,2186,2672,3127,3265,3400,3385,3330,3270,3174,3128,3058,2966,2910,2874,2778,2707,2654,2638,2490,2416,2352,2279,2232,2008,1764,1524,1289,1244,1200,1201,1189,1166,1176,1190,1245,1264,1262,1272,1301,1308,1301,1319,1292,1330,1305,1292,1305,1287,1322,1325,1446,1302,1311,1295,1302,1334,1309,1334,1300,1448,1304,1300,1301,1305,1412,1887,2698,2989,3151,3229,3369,3229,3172,3142,3102,3001,2947,2893,2833,2795,2771,2668,2607,2267,2148,1986,1759,1742,1480,1480,1471,1418,1361,1342,1316,1297,1287,1300,1314,1330,1348,1352,1340,1340,1352,1398,1381,1360,1375,1397,1385,1392,1401,1376,1394,1415,1376,1383,1390,1358,1392,1372,1376,1363,1404,1392,403,404,405,406,408,648,717,787,856,914,926,913,900,888,874,861,849,836,823,810,798,784,771,759,746,733,720,708,694,681,669,656,643,570,412,408,408,410,412,401,403,407,412,408,412,407,410,413,412,408,470,413,469,406,406,471,412,470,407,406,470,412,411,408,403,996,998,992,1015,1190,1776,2291,2542,2652,2631,2624,2573,2526,2481,2485,2378,2340,2295,2245,2181,2146,2125,2034,1984,1935,1954,1893,1788,1604,1359,1211,1060,1028,1004,995,996,1002,1006,1032,1017,1019,1026,1040,1055,1038,1042,1045,1052,1058,1044,1043,1055,1048,1057,1055,1051,1047,1059,1056,1053,1047,1045,1056,1059,1049,1104,1092,1113,1195,1356,2238,2567,2670,2788,2846,2806,2754,2703,2704,2635,2553,2504,2451,2440,2353,2308,2258,2206,2227,2107,2040,1883,1739,1473,1366,1327,1193,1169,1123,1106,1081,1059,1067,1083,1080,1094,1092,1097,1104,1136,1123,1102,1119,1114,1103,1113,1119,1119,1112,1150,1125,1112,1110,1115,1114,1112,1124,1120,1132,1115,1156,1149,1171,1558,2048,2816,3349,3564,3644,3614,3598,3528,3442,3369,3292,3201,3112,3064,2956,2874,2784,2595,2491,2544,2322,2169,1936,1943,1788,1550,1489,1256,1208,1200,1179,1184,1201,1217,1288,1290,1287,1302,1300,1436,1300,1486,1298,1477,1301,1306,1300,1301,1292,1293,1302,1453,1296,1300,1292,1299,1294,1489,1464,1306,1288,871,873,875,877,970,1523,1898,2082,2176,2210,2198,2163,2127,2092,2116,2080,1988,1952,1982,1934,1848,1812,1809,1768,1725,1672,1696,1572,1297,1106,1053,1035,921,896,883,887,855,867,878,857,870,863,858,872,869,877,872,869,907,868,868,872,867,908,874,873,875,873,874,868,879,879,880,897,896,797,799,800,812,1181,1495,1946,1970,2100,2154,2140,2101,2061,2022,1982,2145,2064,1864,1822,1786,1747,1707,1668,1628,1700,1550,1510,1471,1475,1380,1228,1059,849,826,810,808,813,818,825,823,827,840,834,833,836,847,835,990,840,840,836,840,848,834,846,844,840,843,844,836,846,848,842,848,846,0,0,0,0,0,0,0,0,0,0,0,0,0,0,0,0,0,0,0,0,0,0,0,0,0,0,0,0,0,0,0,0,0,0,0,0,0,0,0,0,0,0,0,0,0,0,0,0,0,0,0,0,0,0,0,0,0,0,0,0,0,0,0,0,0,976,979,1010,1016,1185,1753,2100,2283,2343,2374,2381,2322,2305,2266,2269,2230,2158,2095,2128,2019,1982,1944,1906,1939,1873,1792,1814,1632,1427,1213,1153,1044,1020,1017,992,1012,982,1002,999,999,1004,1009,1001,1013,1003,1010,1007,1011,1028,1028,1020,1025,1026,1019,1012,1027,1011,1023,1015,1027,1012,1029,1015,1020,1014,1134,1141,1159,1243,2186,2672,3127,3265,3400,3385,3330,3270,3174,3128,3058,2966,2910,2874,2778,2707,2654,2638,2490,2416,2352,2279,2232,2008,1764,1524,1289,1244,1200,1201,1189,1166,1176,1190,1245,1264,1262,1272,1301,1308,1301,1319,1292,1330,1305,1292,1305,1287,1322,1325,1446,1302,1311,1295,1302,1334,1309,1334,1300,1448,1304,1002,963,969,978,1061,1464,2066,2223,2316,2353,2323,2299,2248,2232,2178,2110,2119,2071,2029,1992,1927,1917,1951,1842,1805,1775,1596,1504,1315,1080,1055,1030,1006,987,983,977,978,965,964,971,967,977,967,970,977,977,970,974,980,980,991,974,974,979,983,985,979,970,985,981,990,966,960,995,956,711,672,676,668,703,906,1351,1478,1608,1651,1647,1621,1594,1582,1516,1515,1489,1462,1436,1411,1384,1358,1404,1305,1279,1252,1226,1180,1173,991,908,796,734,693,672,681,684,671,672,671,673,680,673,672,683,683,676,677,679,681,690,680,680,685,689,691,685,676,683,673,682,672,666,677,662,972,996,977,1004,1142,1876,2308,2507,2616,2647,2625,2551,2529,2481,2433,2433,2336,2307,2240,2207,2159,2096,2061,2000,1951,1903,1813,1532,1402,1346,1108,1076,1054,1020,991,992,1015,1043,1014,1017,1010,1032,1026,1033,1031,1042,1033,1027,1025,1031,1032,1064,1026,1023,1066,1087,1027,1028,1017,1024,1024,1079,1059,1084,1025,466,463,467,468,472,718,894,991,1097,1148,1153,1135,1123,1096,1072,1058,1044,1026,1004,996,954,952,933,909,892,873,875,841,823,804,748,723,542,487,476,472,473,477,456,447,460,457,453,450,449,457,449,471,470,456,467,471,472,460,459,474,480,460,466,455,461,466,455,475,467,284,285,286,290,288,340,512,572,630,690,712,708,690,686,662,663,652,628,618,607,595,584,573,599,560,580,538,517,468,457,448,424,413,346,292,289,290,290,254,254,251,252,253,253,254,262,252,253,256,256,256,254,253,257,254,254,254,255,252,257,254,254,254,254,254,862,864,867,875,948,1339,1829,1976,2079,2116,2104,2071,2028,2001,1960,1927,1894,1939,1827,1797,1760,1726,1764,1659,1625,1591,1556,1457,1304,1095,1070,1045,904,887,876,875,877,872,861,856,864,865,868,870,870,869,878,875,881,880,896,898,895,904,893,881,896,895,897,892,897,893,894,906,894,333,326,327,328,337,410,612,672,729,806,793,781,769,757,745,760,722,710,705,686,680,667,672,642,628,615,603,591,599,565,565,535,503,392,333,330,331,332,317,319,324,329,330,326,323,332,322,330,326,324,336,329,330,330,338,338,324,326,327,329,329,330,328,325,322,491,492,484,495,512,578,904,1011,1118,1201,1223,1183,1174,1165,1145,1125,1087,1086,1056,1047,1027,1008,988,969,949,930,910,891,870,828,596,584,569,517,497,504,504,497,447,447,450,450,451,450,453,453,446,450,453,450,451,454,456,454,456,451,450,455,455,452,455,451,451,451,451,1040,1048,1073,1073,1173,1734,2184,2414,2514,2542,2489,2448,2432,2402,2382,2300,2253,2223,2229,2188,2113,2092,2049,1991,1958,1902,1856,1550,1387,1195,1160,1130,1142,1086,1058,1072,1064,1038,1004,1004,1017,1021,1031,1021,1021,1027,1019,1025,1022,1026,1028,1020,1017,1024,1027,1031,1019,1019,1019,1025,1021,1026,1021,1019,1016,0,0,0,0,0,0,0,0,0,0,0,0,0,0,0,0,0,0,0,0,0,0,0,0,0,0,0,0,0,0,0,0,0,0,0,0,0,0,0,0,0,0,0,0,0,0,0,0,0,0,0,0,0,0,0,0,0,0,0,0,0,0,0,0,0,1002,963,969,978,1061,1464,2066,2223,2316,2353,2323,2299,2248,2232,2178,2110,2119,2071,2029,1992,1927,1917,1951,1842,1805,1775,1596,1504,1315,1080,1055,1030,1006,987,983,977,978,965,964,971,967,977,967,970,977,977,970,974,980,980,991,974,974,979,983,985,979,970,985,981,990,966,960,995,956,0,0,0,0,0,0,0,0,0,0,0,0,0,0,0,0,0,0,0,0,0,0,0,0,0,0,0,0,0,0,0,0,0,0,0,0,0,0,0,0,0,0,0,0,0,0,0,0,0,0,0,0,0,0,0,0,0,0,0,0,0,0,0,0,0,391,392,393,394,397,557,728,812,905,962,972,955,940,926,908,893,878,862,846,831,816,801,786,770,754,738,723,708,693,677,662,574,561,507,400,396,397,381,368,373,371,377,378,394,380,395,388,379,395,381,377,379,378,394,377,378,383,382,379,377,377,385,373,382,372,1347,1352,1418,1521,2490,3067,3648,3837,3852,3842,3843,3783,3675,3561,3474,3420,3320,3235,3181,3090,3014,2828,2584,2415,2156,2090,2039,1935,1594,1547,1469,1443,1388,1354,1352,1349,1364,1384,1538,1533,1548,1557,1552,1549,1554,1553,1575,1622,1559,1573,1568,1580,1582,1585,1671,1551,1569,1564,1577,1604,1560,1587,1568,1574,1577,944,941,949,983,1019,1526,1953,2120,2232,2339,2331,2251,2227,2172,2141,2110,2081,2033,2012,1977,1929,1893,1896,1726,1737,1669,1623,1429,1425,1180,1084,1014,992,972,980,976,962,943,936,933,933,943,942,941,948,937,940,943,947,936,944,944,947,941,945,958,942,946,936,945,943,943,943,943,943,737,740,743,744,751,1205,1465,1625,1766,1809,1810,1776,1746,1718,1687,1658,1629,1600,1571,1541,1513,1488,1460,1430,1400,1370,1342,1317,1288,1147,1089,801,782,764,754,749,752,708,694,695,695,712,712,738,718,723,723,716,744,717,708,713,718,728,713,717,722,715,714,709,713,718,709,708,698,672,669,684,665,708,1152,1335,1489,1621,1615,1701,1636,1597,1536,1571,1564,1479,1453,1428,1401,1356,1330,1402,1372,1270,1263,1237,1192,1166,1140,919,887,708,712,670,700,750,684,687,683,684,689,695,684,684,688,689,696,699,701,699,717,702,695,727,724,698,703,722,704,705,704,708,720,710,1112,1116,1104,1126,1163,1969,2404,2522,2617,2670,2655,2582,2562,2506,2454,2435,2377,2350,2308,2265,2222,2187,2138,2101,2058,2036,1886,1612,1252,1332,1222,1203,1156,1160,1123,1114,1107,1109,1088,1095,1098,1105,1104,1124,1123,1128,1129,1121,1123,1117,1119,1126,1137,1151,1122,1118,1134,1126,1131,1130,1119,1114,1102,1103,1093,1275,1274,1296,1346,1664,2479,2807,2952,3059,3051,3061,2998,2957,2890,2852,2807,2751,2686,2652,2615,2562,2505,2467,2412,2365,2136,1776,1698,1475,1418,1402,1386,1330,1266,1255,1261,1272,1234,1223,1231,1230,1243,1251,1275,1249,1261,1263,1253,1283,1257,1245,1252,1254,1269,1248,1250,1257,1249,1252,1246,1252,1254,1245,1244,1234,1217,1219,1258,1350,2209,2759,3349,3549,3568,3604,3570,3514,3376,3283,3214,3165,3068,2995,2923,2857,2785,2704,2592,2443,2349,2277,2150,1867,1783,1588,1338,1313,1256,1215,1237,1216,1233,1248,1344,1336,1336,1348,1373,1364,1372,1379,1362,1373,1383,1369,1403,1383,1386,1390,1405,1380,1385,1383,1510,1384,1407,1382,1407,1407,1390,906,905,895,921,919,1579,1891,2043,2143,2181,2194,2132,2126,2061,2032,1992,1962,1943,1912,1871,1837,1808,1766,1730,1698,1662,1634,1369,1263,1095,1011,995,948,935,910,910,896,860,846,849,848,864,865,890,870,875,875,868,892,869,860,865,870,880,865,869,875,868,868,861,866,870,861,860,850,0,0,0,0,0,0,0,0,0,0,0,0,0,0,0,0,0,0,0,0,0,0,0,0,0,0,0,0,0,0,0,0,0,0,0,0,0,0,0,0,0,0,0,0,0,0,0,0,0,0,0,0,0,0,0,0,0,0,0,0,0,0,0,0,0 ]);
