n = 10;
D = [204,188,131,136,249,155,294,226,198,279 ];
q = 0;
prec = array2d(1..0,1..2,[]);
steps = 64;
l = 360;
r = 0;
which = [];
interval = array2d(1..0,1..2,[]);
T = array3d(1..11,1..11,0..64,[0,0,0,0,0,0,0,0,0,0,0,0,0,0,0,0,0,0,0,0,0,0,0,0,0,0,0,0,0,0,0,0,0,0,0,0,0,0,0,0,0,0,0,0,0,0,0,0,0,0,0,0,0,0,0,0,0,0,0,0,0,0,0,0,0,348,350,351,352,354,572,648,723,798,856,868,855,841,828,813,800,786,771,758,744,730,716,703,688,675,661,648,633,620,606,592,578,565,550,358,354,355,356,343,342,342,343,342,343,342,342,340,342,342,343,340,342,348,347,342,340,343,342,342,342,343,343,340,342,340,459,460,462,464,471,737,868,952,1049,1119,1115,1109,1091,1076,1055,1041,1022,1003,986,967,950,932,913,897,878,862,835,818,808,783,773,743,730,480,469,505,506,450,435,436,433,436,436,437,436,437,434,436,436,438,432,436,442,437,431,429,432,431,431,431,432,432,429,431,429,642,624,631,633,650,890,1209,1352,1471,1526,1526,1502,1478,1454,1431,1407,1381,1358,1341,1311,1293,1292,1242,1217,1219,1186,1164,1152,1096,1005,821,779,682,667,659,632,652,619,604,597,605,616,629,612,628,618,645,626,614,626,637,622,641,624,613,642,614,630,625,626,640,631,625,619,613,543,536,546,554,561,790,1034,1155,1259,1314,1337,1297,1275,1275,1256,1213,1212,1171,1172,1129,1107,1104,1065,1066,1023,1020,981,961,894,875,855,801,756,571,545,556,558,554,530,534,537,538,537,538,537,537,535,537,537,538,535,537,543,542,537,535,538,537,537,537,538,538,535,537,535,573,580,576,578,599,742,1110,1246,1371,1420,1414,1399,1378,1347,1324,1308,1279,1262,1233,1217,1195,1160,1157,1120,1112,1070,1065,1043,1006,902,882,678,654,596,625,582,584,585,561,560,563,569,564,565,566,565,561,565,567,563,562,563,567,566,563,566,567,567,558,561,569,568,560,563,559,328,329,330,332,332,535,604,674,745,802,814,802,789,776,763,751,738,724,712,699,686,673,661,648,634,639,609,596,583,570,558,544,531,518,337,333,334,335,324,323,320,323,323,324,323,323,321,323,323,324,321,323,329,328,323,321,324,323,323,323,324,324,321,323,321,379,380,392,393,385,468,709,816,872,932,970,955,913,924,908,892,877,855,841,831,816,800,762,769,732,738,702,687,672,675,642,626,470,459,440,384,385,386,373,372,372,373,372,373,372,372,370,372,372,373,370,372,378,377,372,370,373,372,372,372,373,373,370,372,370,518,520,520,522,525,588,992,1102,1227,1284,1277,1266,1247,1216,1200,1179,1159,1142,1121,1098,1077,1057,1036,1016,996,985,956,945,915,904,726,630,555,553,530,526,527,526,508,503,503,503,510,510,513,514,527,514,509,510,532,518,526,515,512,537,512,530,511,512,522,514,510,511,505,512,513,515,516,528,872,988,1113,1209,1262,1266,1245,1225,1213,1185,1165,1152,1131,1104,1083,1063,1044,1023,1003,990,962,942,921,901,856,861,841,718,703,522,519,520,522,525,513,516,519,524,523,527,524,527,528,528,524,585,582,591,524,524,540,528,539,527,523,532,529,525,523,518,0,0,0,0,0,0,0,0,0,0,0,0,0,0,0,0,0,0,0,0,0,0,0,0,0,0,0,0,0,0,0,0,0,0,0,0,0,0,0,0,0,0,0,0,0,0,0,0,0,0,0,0,0,0,0,0,0,0,0,0,0,0,0,0,0,432,434,448,448,455,745,843,940,1036,1092,1098,1080,1063,1045,1028,1010,993,975,958,916,924,907,889,872,854,814,819,802,784,768,730,729,583,570,455,452,452,454,449,445,451,518,463,524,528,447,455,462,455,456,451,453,461,528,456,456,456,449,450,452,453,454,453,460,448,0,0,0,0,0,0,0,0,0,0,0,0,0,0,0,0,0,0,0,0,0,0,0,0,0,0,0,0,0,0,0,0,0,0,0,0,0,0,0,0,0,0,0,0,0,0,0,0,0,0,0,0,0,0,0,0,0,0,0,0,0,0,0,0,0,284,284,287,288,288,416,516,574,632,686,699,688,677,666,656,645,634,624,612,602,590,580,570,558,547,535,525,514,503,493,481,443,434,425,377,289,290,290,243,239,240,246,244,243,241,244,241,243,243,244,241,243,241,239,239,243,243,244,241,240,241,243,241,239,239,517,518,520,522,523,709,992,1108,1224,1280,1284,1263,1243,1222,1202,1180,1159,1138,1098,1097,1076,1056,1035,1014,993,972,952,931,911,754,738,720,554,563,553,525,527,542,446,445,445,445,448,460,452,469,461,456,471,456,462,455,457,460,458,457,460,464,455,463,459,459,456,457,457,236,237,238,239,266,274,423,470,517,562,578,570,560,552,543,534,525,516,507,499,489,481,472,463,454,445,436,428,418,410,402,392,283,277,271,266,267,268,210,212,212,216,227,232,228,234,226,227,232,225,228,220,222,233,227,218,226,222,218,226,224,226,224,229,229,261,268,263,264,264,280,477,534,589,642,655,645,634,624,613,603,592,582,571,561,550,540,529,519,508,498,487,477,466,456,296,290,362,276,268,265,266,267,241,236,238,240,241,240,243,240,240,244,243,240,243,244,240,238,239,245,244,245,239,239,273,243,239,237,237,294,296,297,298,299,406,541,603,685,733,744,734,723,710,703,693,682,673,662,652,642,632,586,612,563,560,548,537,525,511,502,490,413,405,304,300,300,301,270,269,272,273,272,277,273,284,271,274,271,274,274,273,281,346,271,277,275,273,273,273,276,276,276,274,274,67,68,68,68,68,104,117,130,145,158,170,166,164,162,159,156,153,151,148,145,142,140,138,134,132,129,127,123,121,118,116,112,110,108,105,103,103,103,52,51,52,58,52,52,50,52,52,65,123,53,56,55,56,53,62,56,51,55,51,52,52,51,53,53,51,504,498,504,506,535,668,966,1059,1193,1249,1229,1224,1204,1184,1165,1127,1108,1105,1086,1065,1046,1004,1006,992,979,953,930,884,888,867,690,648,611,525,536,512,526,508,473,471,475,484,484,487,485,493,487,488,484,484,485,486,492,491,482,493,489,490,491,489,489,496,481,487,487,792,794,802,808,912,1443,1662,1816,1914,1952,1944,1912,2025,1858,1819,1801,1758,1738,1695,1653,1644,1602,1570,1530,1508,1468,1446,1312,1255,1183,1163,1075,840,816,811,808,811,830,815,817,839,858,823,844,821,834,822,893,874,834,839,840,846,883,847,841,836,836,873,878,847,842,824,883,843,432,434,448,448,455,745,843,940,1036,1092,1098,1080,1063,1045,1028,1010,993,975,958,916,924,907,889,872,854,814,819,802,784,768,730,729,583,570,455,452,452,454,449,445,451,518,463,524,528,447,455,462,455,456,451,453,461,528,456,456,456,449,450,452,453,454,453,460,448,464,466,468,458,476,725,884,982,1058,1118,1147,1105,1110,1092,1050,1032,1014,1020,981,963,943,946,928,910,873,873,855,837,819,783,783,676,661,485,475,472,473,464,440,442,438,442,453,451,447,450,443,448,448,453,444,444,447,458,448,447,449,452,444,451,446,453,443,447,447,297,299,300,300,301,464,547,610,674,730,742,730,718,708,696,684,716,660,648,637,625,613,601,589,577,565,554,542,530,518,506,494,456,447,335,302,303,332,275,277,281,286,279,278,278,280,284,279,279,280,281,282,280,282,281,284,284,285,282,286,287,291,290,291,291,0,0,0,0,0,0,0,0,0,0,0,0,0,0,0,0,0,0,0,0,0,0,0,0,0,0,0,0,0,0,0,0,0,0,0,0,0,0,0,0,0,0,0,0,0,0,0,0,0,0,0,0,0,0,0,0,0,0,0,0,0,0,0,0,0,319,320,321,322,323,438,591,660,729,786,796,784,771,758,746,733,721,708,724,663,669,657,644,631,619,606,594,580,567,555,542,530,469,456,328,324,324,326,297,297,304,313,300,308,301,309,311,302,310,303,305,306,305,311,307,309,308,311,308,308,310,329,328,332,321,374,375,376,377,406,373,655,781,805,842,931,838,824,811,798,856,770,757,744,729,716,703,688,675,662,648,634,621,608,582,571,552,368,360,351,407,380,382,359,365,354,358,361,357,372,374,361,367,362,358,357,354,365,359,363,364,357,363,362,362,358,362,359,356,356,447,448,450,451,451,527,804,951,990,1027,1111,1016,1000,984,967,1006,952,918,901,884,867,850,835,818,801,784,769,752,735,718,690,594,446,435,424,447,455,466,422,425,427,430,431,433,438,431,429,437,433,429,434,434,434,434,437,437,435,435,430,431,430,436,434,436,436,117,117,118,118,119,182,205,229,252,274,290,285,280,277,272,267,262,259,254,249,246,241,236,231,228,223,218,213,210,205,200,195,192,187,182,119,148,148,98,95,98,102,101,100,98,98,100,102,101,100,102,116,119,164,117,102,98,102,98,98,96,102,99,102,102,359,360,362,362,364,461,644,721,795,866,897,882,868,855,840,826,808,799,784,769,751,741,723,712,699,685,670,655,643,628,614,599,520,385,376,365,381,374,321,320,322,322,322,323,323,323,323,324,324,324,325,325,325,326,325,326,326,326,326,326,327,327,326,327,327,337,338,339,341,341,436,574,676,769,815,836,831,816,803,783,770,757,744,706,693,681,668,655,643,630,616,616,591,578,539,526,483,472,461,345,342,368,344,311,303,303,303,306,311,309,315,313,308,315,307,309,307,308,312,309,310,308,309,308,307,308,310,308,313,313,695,697,699,702,709,1003,1429,1553,1677,1779,1723,1669,1666,1618,1641,1588,1586,1528,1504,1512,1447,1422,1401,1409,1325,1194,1294,1144,984,1084,941,846,817,713,746,705,710,737,690,686,683,686,697,694,696,698,692,703,702,705,700,703,706,713,706,705,707,714,718,704,711,715,699,705,705,464,466,468,458,476,725,884,982,1058,1118,1147,1105,1110,1092,1050,1032,1014,1020,981,963,943,946,928,910,873,873,855,837,819,783,783,676,661,485,475,472,473,464,440,442,438,442,453,451,447,450,443,448,448,453,444,444,447,458,448,447,449,452,444,451,446,453,443,447,447,681,683,675,677,699,1008,1275,1450,1620,1644,1660,1638,1602,1599,1538,1511,1518,1460,1447,1425,1412,1364,1337,1314,1295,1268,1251,1211,1162,929,859,732,726,708,698,692,682,682,659,663,661,671,677,669,676,667,664,669,668,671,668,675,698,698,701,692,684,674,673,665,671,670,695,673,667,570,561,574,572,579,710,1067,1218,1371,1404,1420,1381,1372,1350,1317,1291,1281,1250,1237,1201,1215,1168,1145,1124,1084,1068,1056,1034,1005,901,797,720,703,596,585,578,592,572,562,563,564,567,563,571,575,567,565,570,573,571,568,568,585,583,576,572,577,570,566,572,572,572,568,570,569,366,366,368,368,371,459,664,738,848,889,913,884,885,871,842,828,828,800,799,771,770,756,742,728,703,694,685,660,643,574,562,529,516,452,446,371,372,372,353,353,354,355,353,354,355,354,353,353,354,356,354,356,368,369,356,354,361,356,356,357,359,360,354,356,355,0,0,0,0,0,0,0,0,0,0,0,0,0,0,0,0,0,0,0,0,0,0,0,0,0,0,0,0,0,0,0,0,0,0,0,0,0,0,0,0,0,0,0,0,0,0,0,0,0,0,0,0,0,0,0,0,0,0,0,0,0,0,0,0,0,493,496,498,499,500,647,915,1016,1177,1219,1239,1199,1198,1179,1144,1124,1118,1082,1080,1047,1040,1021,1000,982,955,934,886,895,868,827,722,705,654,530,517,503,512,513,472,471,470,471,474,474,475,475,474,480,478,483,479,481,491,496,481,477,487,481,481,483,483,484,479,482,480,566,571,571,573,576,696,1062,1182,1363,1402,1418,1376,1379,1348,1310,1295,1279,1239,1235,1198,1189,1188,1142,1123,1093,1078,1018,1024,879,841,719,699,630,620,591,578,587,588,554,551,551,555,560,558,556,559,562,556,563,562,559,563,574,578,565,559,563,563,560,565,565,566,560,564,562,389,390,384,392,394,478,709,792,915,936,976,930,945,930,883,885,867,860,850,825,807,788,777,765,743,728,724,690,660,629,600,523,486,412,402,387,417,395,378,380,379,385,398,400,395,398,396,398,399,400,397,388,415,412,396,384,405,396,387,400,401,401,397,399,397,624,629,628,637,642,827,1195,1325,1508,1533,1561,1508,1512,1487,1432,1418,1397,1375,1360,1325,1293,1262,1248,1227,1195,1170,1133,1106,1083,995,853,746,743,659,648,634,644,623,601,601,605,609,613,614,613,613,614,619,615,617,612,616,630,634,615,614,623,612,611,617,618,621,611,620,614,301,302,302,303,308,326,535,603,665,744,746,738,723,712,706,688,676,664,652,639,628,616,604,592,583,588,559,548,356,525,351,354,325,319,318,315,316,316,295,300,300,305,305,308,300,306,300,309,305,300,301,301,309,310,306,304,307,300,305,303,305,307,299,303,299,877,847,853,885,886,1328,1735,1939,2047,2137,2053,2038,1988,1976,1938,1950,1852,1882,1850,1796,1720,1673,1663,1623,1548,1588,1482,1320,1217,963,1042,909,931,901,861,864,862,912,842,842,842,843,841,843,842,841,840,841,842,843,840,842,867,866,842,840,848,842,842,843,844,844,840,842,841,681,683,675,677,699,1008,1275,1450,1620,1644,1660,1638,1602,1599,1538,1511,1518,1460,1447,1425,1412,1364,1337,1314,1295,1268,1251,1211,1162,929,859,732,726,708,698,692,682,682,659,663,661,671,677,669,676,667,664,669,668,671,668,675,698,698,701,692,684,674,673,665,671,670,695,673,667,668,670,672,676,811,1112,1283,1402,1591,1634,1605,1619,1555,1556,1557,1504,1478,1452,1426,1400,1351,1348,1322,1297,1249,1244,1219,1192,1147,1141,998,989,814,692,680,678,680,771,677,672,674,675,675,670,676,676,679,675,676,676,682,683,685,685,683,681,684,684,686,692,687,702,685,681,681,352,353,354,355,356,379,631,705,764,830,843,831,818,806,766,781,768,728,716,739,727,713,702,689,676,655,642,630,616,604,591,527,377,369,360,357,363,359,325,326,325,326,327,331,330,330,330,332,332,334,335,334,337,337,345,338,339,342,339,341,341,340,342,340,340,410,411,412,413,417,607,765,853,940,997,1008,991,975,960,944,928,913,896,880,865,849,834,818,802,786,770,754,739,710,665,632,620,545,429,420,416,417,418,402,400,412,416,404,404,403,404,404,402,404,404,404,406,406,406,406,408,407,406,405,415,409,410,408,408,408,568,570,572,573,576,658,1086,1217,1351,1401,1404,1381,1359,1336,1309,1285,1263,1246,1218,1199,1178,1158,1132,1109,1089,1068,1048,1022,841,824,732,674,649,592,581,575,580,550,516,512,512,513,516,522,518,521,522,524,522,522,527,523,525,525,527,525,527,528,523,536,529,527,524,522,522,0,0,0,0,0,0,0,0,0,0,0,0,0,0,0,0,0,0,0,0,0,0,0,0,0,0,0,0,0,0,0,0,0,0,0,0,0,0,0,0,0,0,0,0,0,0,0,0,0,0,0,0,0,0,0,0,0,0,0,0,0,0,0,0,0,92,92,92,92,140,142,160,180,199,218,234,230,225,222,218,214,211,207,204,200,196,192,188,184,181,177,174,170,166,162,158,154,151,147,144,140,140,141,84,82,82,84,84,86,84,86,84,88,82,88,82,84,86,83,82,84,82,84,84,89,84,84,83,86,82,460,469,471,472,481,609,878,997,1090,1145,1153,1118,1115,1097,1079,1062,1042,1024,1006,987,969,938,933,915,899,882,863,840,699,683,621,616,592,586,477,475,476,468,458,458,464,463,463,461,462,466,466,467,466,468,480,485,486,493,469,465,471,465,464,470,468,469,473,466,466,289,291,292,292,293,389,528,588,649,710,724,714,702,690,679,667,655,644,632,621,609,597,586,574,562,552,540,528,517,505,493,417,407,397,298,294,295,296,284,280,279,281,291,290,291,287,285,296,292,289,299,296,306,309,304,292,296,296,302,299,304,324,294,298,292,583,585,600,588,604,826,1144,1278,1427,1466,1460,1444,1420,1396,1372,1320,1334,1274,1277,1254,1231,1183,1193,1168,1138,1121,1069,1046,908,886,774,769,706,606,595,592,606,577,543,538,542,547,558,552,557,551,555,559,561,560,551,554,563,562,551,560,560,557,564,565,564,563,557,554,554,1000,1003,1007,1014,1045,1624,2083,2300,2403,2462,2427,2346,2376,2312,2296,2220,2169,2127,2113,2075,2038,1976,1943,1801,1864,1736,1572,1507,1278,1258,1183,1088,1047,1061,1011,1007,1023,1021,1008,1008,1003,1012,1022,1025,1018,1025,1031,1040,1025,1029,1028,1032,1032,1025,1031,1034,1041,1036,1023,1036,1034,1032,1029,1029,1026,668,670,672,676,811,1112,1283,1402,1591,1634,1605,1619,1555,1556,1557,1504,1478,1452,1426,1400,1351,1348,1322,1297,1249,1244,1219,1192,1147,1141,998,989,814,692,680,678,680,771,677,672,674,675,675,670,676,676,679,675,676,676,682,683,685,685,683,681,684,684,686,692,687,702,685,681,681,737,738,741,744,782,1192,1406,1648,1764,1774,1798,1770,1740,1711,1678,1654,1626,1571,1567,1538,1509,1480,1451,1422,1415,1394,1356,1314,1280,1200,840,981,788,788,773,780,782,772,755,721,728,735,730,742,729,745,741,761,748,736,734,742,741,752,748,748,738,749,742,751,753,749,747,795,778,421,422,423,447,449,666,647,870,951,1004,1012,998,982,966,951,935,921,905,898,881,865,851,836,812,801,789,774,759,743,728,572,684,528,462,456,450,452,433,389,388,391,395,390,397,390,397,403,393,395,392,394,396,394,400,397,397,394,403,399,400,397,400,398,399,399,516,517,519,520,533,720,991,1105,1208,1282,1264,1266,1225,1228,1209,1165,1146,1125,1123,1086,1065,1046,1026,1006,986,966,946,916,907,896,866,771,655,538,527,536,525,524,502,503,516,520,504,510,505,511,512,502,512,505,506,508,508,512,510,514,510,514,511,515,511,531,511,518,514,556,561,559,560,583,812,1076,1231,1357,1411,1419,1376,1373,1330,1328,1258,1237,1240,1236,1209,1164,1156,1107,1121,1071,1075,1027,1033,1008,991,952,803,630,598,586,573,575,548,534,527,534,544,550,542,536,544,549,552,553,559,554,548,557,560,556,550,545,556,553,544,542,554,548,563,545,223,224,224,225,225,319,397,441,484,528,543,535,528,519,511,502,494,486,477,469,460,452,444,436,428,420,411,403,394,386,378,369,361,352,316,226,227,311,212,211,215,218,213,217,210,218,222,218,215,211,214,215,217,226,217,216,214,220,215,220,218,219,213,213,213,0,0,0,0,0,0,0,0,0,0,0,0,0,0,0,0,0,0,0,0,0,0,0,0,0,0,0,0,0,0,0,0,0,0,0,0,0,0,0,0,0,0,0,0,0,0,0,0,0,0,0,0,0,0,0,0,0,0,0,0,0,0,0,0,0,560,562,577,579,594,822,1062,1245,1355,1376,1405,1380,1363,1312,1306,1299,1276,1254,1250,1209,1186,1165,1142,1094,1096,1050,1051,951,918,897,875,848,598,598,584,595,584,576,558,561,568,573,563,567,564,573,576,567,574,569,595,578,586,599,573,571,574,573,570,570,574,581,578,578,573,358,359,361,362,398,567,518,755,830,884,895,880,865,851,837,823,808,793,779,764,750,736,721,707,698,686,671,657,642,628,588,574,420,409,401,398,399,381,337,336,339,343,338,342,338,345,351,341,343,340,342,344,342,349,345,345,343,351,347,352,349,348,347,347,347,622,609,611,613,631,868,1206,1330,1444,1529,1492,1469,1498,1420,1429,1372,1349,1324,1303,1280,1274,1266,1208,1184,1161,1137,1129,1089,1065,1006,939,968,710,631,620,617,619,575,561,553,564,580,585,574,575,574,583,591,592,590,583,579,594,593,585,585,578,588,586,577,577,589,580,593,575,1038,1041,1044,1055,1104,1849,2228,2403,2491,2503,2486,2464,2414,2384,2335,2295,2260,2221,2181,2140,2101,2048,2020,1981,1941,1878,1729,1606,1420,1265,1128,1101,1076,1060,1055,1053,1056,1059,1083,1055,1057,1054,1097,1108,1081,1085,1090,1121,1103,1121,1122,1116,1107,1123,1110,1099,1104,1103,1115,1110,1108,1121,1114,1127,1109,737,738,741,744,782,1192,1406,1648,1764,1774,1798,1770,1740,1711,1678,1654,1626,1571,1567,1538,1509,1480,1451,1422,1415,1394,1356,1314,1280,1200,840,981,788,788,773,780,782,772,755,721,728,735,730,742,729,745,741,761,748,736,734,742,741,752,748,748,738,749,742,751,753,749,747,795,778,480,481,483,484,539,811,916,996,1124,1178,1155,1136,1146,1128,1108,1089,1045,1027,1009,990,996,954,958,939,921,880,862,865,846,828,808,717,686,630,490,487,488,490,487,484,484,488,485,490,487,492,487,549,488,484,486,488,487,488,517,492,492,488,491,520,487,524,488,515,492,201,202,203,204,204,320,362,404,446,488,504,496,488,480,472,464,456,448,440,432,424,416,408,400,392,384,376,368,360,352,344,336,328,320,312,293,294,295,196,194,196,197,196,196,196,198,196,197,196,198,197,200,200,199,200,197,202,200,202,245,200,235,199,200,200,223,224,225,226,226,347,392,435,479,532,547,538,529,521,514,506,498,489,481,472,464,456,447,439,430,422,414,405,397,388,380,371,363,355,346,339,341,341,203,205,200,202,204,199,216,203,204,221,199,201,200,199,203,200,200,203,199,204,223,203,200,203,201,200,199,452,458,459,460,464,525,832,929,1027,1126,1132,1113,1095,1077,1062,1030,1024,1006,993,960,960,924,906,904,886,868,850,832,813,795,688,631,490,481,471,466,467,469,406,395,396,394,401,407,403,404,405,409,413,407,416,411,412,412,414,409,413,421,430,433,415,409,420,424,421,312,298,299,300,300,425,577,645,712,780,741,729,717,705,694,682,670,658,646,634,624,612,600,588,576,564,553,541,529,517,448,493,475,313,305,301,302,303,296,299,297,300,304,300,303,306,301,305,305,305,305,310,312,316,303,302,304,308,308,298,304,309,303,308,304,385,371,372,373,376,463,679,802,886,967,924,908,894,879,864,849,835,819,805,790,775,760,746,730,716,702,686,672,657,643,494,581,561,388,379,376,376,377,369,364,368,372,369,378,374,383,381,375,379,378,379,379,380,395,380,379,377,384,380,380,383,384,378,388,380,0,0,0,0,0,0,0,0,0,0,0,0,0,0,0,0,0,0,0,0,0,0,0,0,0,0,0,0,0,0,0,0,0,0,0,0,0,0,0,0,0,0,0,0,0,0,0,0,0,0,0,0,0,0,0,0,0,0,0,0,0,0,0,0,0,242,243,244,244,245,375,435,485,536,585,607,597,588,578,568,559,549,540,530,520,511,500,490,481,471,462,452,442,433,423,414,404,394,385,249,246,247,248,231,233,232,239,233,236,232,235,232,232,233,230,232,231,235,235,232,236,234,235,236,235,234,241,232,235,232,457,444,445,447,453,555,842,936,1029,1105,1096,1084,1060,1053,1026,980,977,950,951,943,932,904,886,844,852,844,817,800,787,770,578,576,562,501,481,487,451,452,433,421,424,425,437,439,438,437,435,443,452,446,447,440,443,449,447,438,442,453,460,452,448,446,452,456,451,814,817,819,827,865,1433,1693,1873,1994,2016,2026,1960,1988,1899,1858,1837,1799,1770,1757,1688,1706,1661,1642,1570,1437,1525,1378,1212,1189,1192,1107,897,872,856,829,827,858,832,823,830,824,832,837,840,837,843,841,850,841,842,844,845,853,847,851,850,860,859,851,848,851,844,844,849,845,480,481,483,484,539,811,916,996,1124,1178,1155,1136,1146,1128,1108,1089,1045,1027,1009,990,996,954,958,939,921,880,862,865,846,828,808,717,686,630,490,487,488,490,487,484,484,488,485,490,487,492,487,549,488,484,486,488,487,488,517,492,492,488,491,520,487,524,488,515,492,474,476,477,479,525,800,943,1010,1111,1165,1170,1150,1132,1113,1095,1050,1058,1040,1021,1003,984,966,946,928,910,870,873,854,836,817,799,762,631,617,484,481,483,484,476,478,478,484,480,485,484,485,484,486,482,480,481,480,484,542,484,485,484,484,486,485,484,506,486,506,506,67,102,102,102,102,103,116,129,142,156,168,165,163,159,157,154,152,150,146,144,141,139,136,134,130,128,126,123,121,117,115,112,110,108,105,103,103,103,52,52,52,52,52,55,52,52,52,52,52,52,52,52,52,51,52,52,52,52,52,52,52,52,52,52,52,263,264,265,266,267,312,466,530,582,633,647,638,626,617,607,597,587,578,567,557,547,537,528,516,507,496,488,477,468,458,447,331,324,317,272,268,268,269,239,243,240,246,272,280,258,264,256,272,261,259,265,247,249,261,257,246,264,248,245,262,262,268,271,264,255,496,498,499,501,501,616,906,1063,1172,1227,1232,1213,1192,1173,1153,1132,1111,1092,1053,1052,1033,1013,993,969,953,933,915,903,886,867,758,641,624,546,510,503,506,507,445,445,439,440,449,455,464,460,450,456,454,467,460,450,453,460,458,455,458,459,450,460,453,455,454,458,450,266,267,268,268,269,319,478,531,583,634,651,642,631,621,612,601,591,582,571,561,552,541,531,522,511,501,492,481,471,462,451,359,331,324,317,310,311,313,247,250,249,253,259,259,262,261,260,262,261,261,264,259,261,262,267,257,265,260,260,260,260,260,260,260,260,291,292,292,293,294,380,531,593,653,713,728,717,705,693,681,670,658,646,634,624,612,600,589,577,565,553,542,530,518,507,411,402,393,383,299,295,296,296,278,274,275,277,278,277,280,279,277,283,282,279,282,283,279,277,279,284,283,283,283,283,283,283,283,283,283,285,286,287,288,288,302,499,544,615,669,682,672,661,618,639,628,618,607,596,585,574,564,553,532,523,514,506,498,489,481,472,385,303,297,292,288,289,290,279,281,280,288,292,276,288,307,296,291,305,301,289,296,320,371,311,278,288,292,286,302,283,295,292,285,283,0,0,0,0,0,0,0,0,0,0,0,0,0,0,0,0,0,0,0,0,0,0,0,0,0,0,0,0,0,0,0,0,0,0,0,0,0,0,0,0,0,0,0,0,0,0,0,0,0,0,0,0,0,0,0,0,0,0,0,0,0,0,0,0,0,483,484,486,488,520,633,940,1000,1137,1177,1161,1143,1155,1111,1117,1080,1056,1066,1018,1029,1003,996,976,957,927,919,889,871,858,832,774,610,600,542,493,490,492,493,472,471,469,480,484,485,484,490,484,488,492,485,484,481,485,488,482,490,490,487,487,488,489,492,487,490,480,827,829,832,846,941,1411,1734,1890,1972,2023,2026,1981,1948,1929,1885,1852,1820,1788,1753,1723,1692,1659,1627,1594,1505,1521,1442,1275,1253,1234,1160,1013,870,855,841,834,845,838,855,860,864,871,856,866,868,877,872,876,870,869,872,866,880,882,895,879,897,879,887,877,879,876,878,891,866,474,476,477,479,525,800,943,1010,1111,1165,1170,1150,1132,1113,1095,1050,1058,1040,1021,1003,984,966,946,928,910,870,873,854,836,817,799,762,631,617,484,481,483,484,476,478,478,484,480,485,484,485,484,486,482,480,481,480,484,542,484,485,484,484,486,485,484,506,486,506,506,650,653,654,669,685,960,1286,1422,1525,1568,1570,1540,1540,1515,1468,1443,1442,1392,1369,1363,1317,1312,1345,1242,1235,1210,1185,1161,1118,930,925,841,759,675,662,660,674,650,635,648,639,656,644,658,644,669,649,660,654,647,658,650,665,661,656,654,667,654,671,653,655,662,656,655,655,605,607,602,604,628,733,1183,1321,1426,1473,1485,1449,1425,1402,1378,1356,1332,1308,1285,1261,1238,1214,1238,1176,1143,1120,1096,1074,1050,1026,851,780,698,621,611,608,609,603,594,594,598,595,596,600,602,604,604,610,611,604,605,607,616,613,608,613,608,607,608,612,608,612,608,612,612,435,436,438,439,440,496,782,874,984,1058,1068,1051,1039,1021,1003,988,970,950,937,918,904,884,867,850,834,817,801,784,728,713,601,611,513,498,446,441,446,444,392,389,391,394,393,392,393,396,393,397,395,395,397,398,401,402,400,400,396,398,398,397,398,400,400,400,400,268,269,269,270,304,268,385,511,537,586,622,613,602,592,583,574,564,554,544,533,524,522,527,519,493,412,405,398,391,384,388,379,369,341,279,276,304,276,230,228,229,232,246,239,235,240,235,235,241,248,240,232,236,239,237,234,244,240,233,240,239,248,241,247,242,563,566,567,548,560,641,1039,1176,1285,1385,1393,1368,1348,1322,1300,1282,1256,1236,1215,1192,1171,1147,1126,1103,1079,1058,1034,1013,960,895,856,672,572,632,580,573,567,576,511,507,509,510,514,512,513,517,514,524,519,522,522,523,522,526,525,523,522,523,523,523,522,524,524,524,524,637,640,640,636,644,798,1193,1349,1470,1567,1570,1543,1520,1490,1466,1445,1417,1393,1369,1345,1319,1296,1268,1244,1216,1191,1166,1142,879,849,846,809,648,695,654,647,641,655,593,587,590,594,600,596,594,601,602,600,604,601,602,605,605,608,609,605,598,605,602,605,604,606,606,606,606,403,404,405,407,410,521,758,846,933,990,997,981,966,949,933,918,902,886,871,854,838,823,856,792,776,760,744,728,712,697,653,633,492,422,412,409,410,411,400,410,402,414,400,418,404,420,412,418,413,407,418,412,420,418,417,416,419,417,419,415,417,419,419,419,419,646,648,644,647,669,863,1251,1425,1530,1575,1585,1546,1496,1471,1471,1447,1422,1372,1371,1346,1321,1296,1297,1254,1220,1195,1150,1125,1101,1048,917,800,732,652,652,649,651,639,631,630,634,631,636,636,639,640,640,646,643,639,641,643,655,650,644,649,644,643,652,648,644,651,644,651,648,0,0,0,0,0,0,0,0,0,0,0,0,0,0,0,0,0,0,0,0,0,0,0,0,0,0,0,0,0,0,0,0,0,0,0,0,0,0,0,0,0,0,0,0,0,0,0,0,0,0,0,0,0,0,0,0,0,0,0,0,0,0,0,0,0,712,713,712,739,760,1051,1465,1580,1745,1805,1736,1716,1699,1704,1693,1603,1574,1608,1513,1550,1512,1474,1456,1453,1397,1321,1298,1212,1128,1088,1002,895,747,730,714,717,719,715,724,717,728,724,728,733,731,725,731,728,734,727,734,744,750,738,730,733,732,743,752,734,749,752,732,737,736,650,653,654,669,685,960,1286,1422,1525,1568,1570,1540,1540,1515,1468,1443,1442,1392,1369,1363,1317,1312,1345,1242,1235,1210,1185,1161,1118,930,925,841,759,675,662,660,674,650,635,648,639,656,644,658,644,669,649,660,654,647,658,650,665,661,656,654,667,654,671,653,655,662,656,655,655,621,624,626,627,655,880,1195,1379,1472,1522,1528,1503,1478,1454,1430,1404,1381,1355,1331,1308,1282,1258,1232,1213,1189,1164,1140,1116,1092,1066,1042,923,663,647,665,631,633,613,608,613,617,631,617,615,613,616,622,613,613,616,621,621,630,672,620,622,618,644,624,624,624,630,622,622,619,965,969,972,981,1164,1544,1973,2230,2310,2347,2337,2300,2261,2224,2188,2147,2110,2071,2033,1996,1957,1919,1880,1848,1814,1777,1740,1643,1646,1514,1170,1113,1012,1004,990,980,983,956,950,955,960,968,960,957,955,956,964,955,956,956,963,969,973,989,960,965,960,971,966,967,967,970,964,962,959,878,880,882,885,925,1478,1692,1979,2121,2116,2110,2079,2046,2012,2026,1944,1912,1904,1886,1810,1777,1744,1719,1685,1700,1644,1610,1560,1351,1265,1144,965,976,959,895,915,893,852,847,843,847,849,904,850,863,868,861,850,850,850,847,850,854,870,852,852,850,852,858,853,856,855,855,927,855,993,991,1000,999,1121,1697,1996,2239,2332,2364,2346,2318,2282,2238,2207,2169,2141,2111,2054,2040,1975,1893,1856,1819,1786,1749,1723,1641,1489,1129,1124,1061,1072,1077,1002,1013,987,929,924,920,924,926,980,927,940,945,938,927,927,927,924,927,931,947,929,929,927,929,935,930,933,932,932,1004,932,1103,1101,1103,1114,1249,1946,2170,2536,2622,2654,2630,2595,2563,2512,2468,2403,2364,2335,2297,2240,2220,2129,2123,2066,2042,1851,1707,1672,1599,1416,1241,1200,1182,1156,1101,1108,1104,1035,1030,1026,1030,1032,1087,1033,1046,1051,1044,1033,1033,1033,1030,1033,1037,1053,1035,1035,1033,1035,1041,1036,1039,1038,1038,1110,1038,1170,1174,1177,1194,1377,2101,2357,2714,2797,2823,2797,2748,2719,2672,2624,2544,2515,2482,2444,2382,2359,2266,2262,2199,2109,1848,1701,1341,1633,1324,1316,1274,1256,1229,1176,1182,1177,1117,1112,1108,1112,1114,1169,1115,1128,1133,1126,1115,1115,1115,1112,1115,1119,1135,1117,1117,1115,1117,1123,1118,1121,1120,1120,1181,1120,809,811,813,818,898,1324,1469,1834,1934,1966,1962,1938,1912,1876,1849,1779,1785,1750,1701,1652,1657,1625,1592,1533,1530,1472,1466,1407,1402,1270,1209,925,877,860,808,820,808,777,772,768,772,774,829,775,788,793,786,775,775,775,772,775,779,795,777,777,775,777,783,778,781,780,780,852,780,965,974,972,1012,1100,1606,1993,2222,2304,2340,2331,2294,2256,2218,2181,2142,2105,2066,2030,1993,1954,1917,1878,1845,1813,1776,1750,1701,1664,1404,1060,1055,1012,1046,984,980,983,979,961,971,970,1003,980,972,972,978,985,985,986,983,993,989,999,1025,990,985,990,1007,996,997,996,1000,994,992,989,825,827,828,832,873,1361,1607,1871,1971,2006,2002,1986,1945,1910,1880,1845,1814,1788,1754,1719,1687,1669,1623,1590,1559,1514,1481,1400,1418,1296,936,908,897,900,844,836,839,793,789,786,793,796,840,797,814,810,808,796,806,793,791,797,803,814,798,799,805,797,802,798,799,800,799,888,799,0,0,0,0,0,0,0,0,0,0,0,0,0,0,0,0,0,0,0,0,0,0,0,0,0,0,0,0,0,0,0,0,0,0,0,0,0,0,0,0,0,0,0,0,0,0,0,0,0,0,0,0,0,0,0,0,0,0,0,0,0,0,0,0,0,621,624,626,627,655,880,1195,1379,1472,1522,1528,1503,1478,1454,1430,1404,1381,1355,1331,1308,1282,1258,1232,1213,1189,1164,1140,1116,1092,1066,1042,923,663,647,665,631,633,613,608,613,617,631,617,615,613,616,622,613,613,616,621,621,630,672,620,622,618,644,624,624,624,630,622,622,619,0,0,0,0,0,0,0,0,0,0,0,0,0,0,0,0,0,0,0,0,0,0,0,0,0,0,0,0,0,0,0,0,0,0,0,0,0,0,0,0,0,0,0,0,0,0,0,0,0,0,0,0,0,0,0,0,0,0,0,0,0,0,0,0,0,348,350,351,352,354,572,648,723,798,856,868,855,841,828,813,800,786,771,758,744,730,716,703,688,675,661,648,633,620,606,592,578,565,550,358,354,355,356,343,342,342,343,342,343,342,342,340,342,342,343,340,342,348,347,342,340,343,342,342,342,343,343,340,342,340,459,460,462,464,471,737,868,952,1049,1119,1115,1109,1091,1076,1055,1041,1022,1003,986,967,950,932,913,897,878,862,835,818,808,783,773,743,730,480,469,505,506,450,435,436,433,436,436,437,436,437,434,436,436,438,432,436,442,437,431,429,432,431,431,431,432,432,429,431,429,642,624,631,633,650,890,1209,1352,1471,1526,1526,1502,1478,1454,1431,1407,1381,1358,1341,1311,1293,1292,1242,1217,1219,1186,1164,1152,1096,1005,821,779,682,667,659,632,652,619,604,597,605,616,629,612,628,618,645,626,614,626,637,622,641,624,613,642,614,630,625,626,640,631,625,619,613,543,536,546,554,561,790,1034,1155,1259,1314,1337,1297,1275,1275,1256,1213,1212,1171,1172,1129,1107,1104,1065,1066,1023,1020,981,961,894,875,855,801,756,571,545,556,558,554,530,534,537,538,537,538,537,537,535,537,537,538,535,537,543,542,537,535,538,537,537,537,538,538,535,537,535,573,580,576,578,599,742,1110,1246,1371,1420,1414,1399,1378,1347,1324,1308,1279,1262,1233,1217,1195,1160,1157,1120,1112,1070,1065,1043,1006,902,882,678,654,596,625,582,584,585,561,560,563,569,564,565,566,565,561,565,567,563,562,563,567,566,563,566,567,567,558,561,569,568,560,563,559,328,329,330,332,332,535,604,674,745,802,814,802,789,776,763,751,738,724,712,699,686,673,661,648,634,639,609,596,583,570,558,544,531,518,337,333,334,335,324,323,320,323,323,324,323,323,321,323,323,324,321,323,329,328,323,321,324,323,323,323,324,324,321,323,321,379,380,392,393,385,468,709,816,872,932,970,955,913,924,908,892,877,855,841,831,816,800,762,769,732,738,702,687,672,675,642,626,470,459,440,384,385,386,373,372,372,373,372,373,372,372,370,372,372,373,370,372,378,377,372,370,373,372,372,372,373,373,370,372,370,518,520,520,522,525,588,992,1102,1227,1284,1277,1266,1247,1216,1200,1179,1159,1142,1121,1098,1077,1057,1036,1016,996,985,956,945,915,904,726,630,555,553,530,526,527,526,508,503,503,503,510,510,513,514,527,514,509,510,532,518,526,515,512,537,512,530,511,512,522,514,510,511,505,512,513,515,516,528,872,988,1113,1209,1262,1266,1245,1225,1213,1185,1165,1152,1131,1104,1083,1063,1044,1023,1003,990,962,942,921,901,856,861,841,718,703,522,519,520,522,525,513,516,519,524,523,527,524,527,528,528,524,585,582,591,524,524,540,528,539,527,523,532,529,525,523,518,0,0,0,0,0,0,0,0,0,0,0,0,0,0,0,0,0,0,0,0,0,0,0,0,0,0,0,0,0,0,0,0,0,0,0,0,0,0,0,0,0,0,0,0,0,0,0,0,0,0,0,0,0,0,0,0,0,0,0,0,0,0,0,0,0 ]);
