n = 10;
D = [140,296,172,134,279,292,65,224,268,79 ];
q = 0;
prec = array2d(1..0,1..2,[]);
steps = 64;
l = 360;
r = 0;
which = [];
interval = array2d(1..0,1..2,[]);
T = array3d(1..11,1..11,0..64,[0,0,0,0,0,0,0,0,0,0,0,0,0,0,0,0,0,0,0,0,0,0,0,0,0,0,0,0,0,0,0,0,0,0,0,0,0,0,0,0,0,0,0,0,0,0,0,0,0,0,0,0,0,0,0,0,0,0,0,0,0,0,0,0,0,937,988,951,931,1009,1094,1250,1374,1457,1554,1480,1465,1441,1409,1400,1366,1391,1323,1352,1314,1280,1228,1205,1181,1183,1159,1110,1122,1083,1046,1046,1032,974,978,933,930,932,980,961,965,959,973,974,973,970,985,962,967,969,965,963,976,977,977,973,973,976,968,983,986,965,978,965,974,971,1275,1268,1277,1342,1460,1745,1890,2073,2091,2088,2118,2072,2034,1973,1940,1945,1899,1864,1843,1787,1832,1720,1664,1679,1620,1587,1590,1542,1487,1446,1441,1387,1334,1309,1295,1314,1323,1332,1345,1380,1344,1349,1380,1368,1359,1371,1371,1388,1391,1364,1375,1381,1389,1391,1399,1403,1396,1397,1411,1413,1415,1426,1436,1425,1420,912,915,918,963,982,1106,1241,1376,1458,1505,1488,1464,1440,1417,1393,1369,1345,1321,1297,1274,1250,1226,1202,1188,1155,1131,1107,1083,1059,1044,1012,988,1009,976,929,926,928,939,938,932,947,977,963,958,958,974,967,971,992,986,1136,1167,1272,1054,975,959,965,976,968,950,954,975,960,984,965,1012,1058,1018,1031,1092,1273,1366,1503,1584,1617,1677,1587,1562,1537,1512,1487,1462,1438,1496,1388,1434,1338,1313,1341,1264,1239,1263,1238,1164,1139,1163,1134,1170,1123,1118,1027,1076,1085,1073,1115,1077,1076,1098,1080,1095,1100,1098,1097,1115,1095,1106,1101,1105,1110,1114,1118,1119,1119,1144,1098,1120,1126,1145,1119,1116,1448,1559,1506,1592,1891,2296,2611,2773,2837,2866,2800,2772,2685,2701,2569,2487,2522,2398,2308,2283,2225,2198,2108,2069,2076,2048,1979,1838,1758,1709,1626,1595,1562,1577,1513,1545,1519,1561,1662,1662,1650,1689,1670,1662,1679,1689,1673,1690,1696,1683,1689,1680,1682,1687,1689,1705,1673,1687,1675,1675,1674,1696,1675,1677,1651,517,518,512,522,527,574,650,727,803,850,856,843,829,803,801,788,774,749,747,722,709,706,682,736,665,632,637,615,610,596,583,569,555,542,529,525,518,520,517,516,508,516,522,549,517,523,539,529,518,524,516,523,524,514,526,527,525,523,521,525,534,548,544,552,539,725,727,730,732,758,838,949,1060,1148,1188,1189,1170,1151,1132,1113,1109,1075,1056,1037,1018,1013,980,962,943,924,905,898,867,848,840,810,791,772,753,740,736,738,740,745,740,736,735,769,793,751,760,758,785,769,790,777,784,769,782,766,764,776,759,763,805,782,797,782,781,786,918,961,932,911,988,1071,1213,1348,1431,1529,1455,1440,1417,1385,1376,1342,1367,1300,1329,1292,1258,1206,1183,1159,1161,1138,1089,1101,1063,1025,1026,1012,955,959,914,910,913,960,924,930,927,938,923,931,931,937,932,940,938,936,943,939,946,950,950,950,946,947,950,944,947,955,947,955,957,941,944,947,995,1016,1132,1330,1419,1500,1584,1579,1554,1525,1455,1431,1407,1382,1358,1382,1309,1285,1261,1283,1212,1188,1164,1139,1115,1091,1066,1042,1018,1053,1014,997,955,958,960,981,984,985,986,1021,1039,1026,1001,992,1028,1007,1005,1006,1015,993,1005,999,1000,1003,991,990,1007,1007,1016,1013,999,998,0,0,0,0,0,0,0,0,0,0,0,0,0,0,0,0,0,0,0,0,0,0,0,0,0,0,0,0,0,0,0,0,0,0,0,0,0,0,0,0,0,0,0,0,0,0,0,0,0,0,0,0,0,0,0,0,0,0,0,0,0,0,0,0,0,982,1001,989,1004,1069,1193,1352,1562,1572,1604,1599,1573,1571,1522,1496,1471,1445,1420,1394,1368,1363,1317,1299,1285,1248,1215,1194,1164,1162,1113,1087,1077,1036,1013,1000,997,1088,1009,1011,1017,1029,1053,1038,1037,1030,1053,1026,1059,1045,1057,1090,1082,1108,1107,1051,1047,1063,1060,1058,1054,1066,1081,1050,1055,1049,0,0,0,0,0,0,0,0,0,0,0,0,0,0,0,0,0,0,0,0,0,0,0,0,0,0,0,0,0,0,0,0,0,0,0,0,0,0,0,0,0,0,0,0,0,0,0,0,0,0,0,0,0,0,0,0,0,0,0,0,0,0,0,0,0,743,745,780,786,790,870,1042,1117,1187,1258,1226,1207,1187,1167,1199,1128,1134,1086,1073,1050,1067,1014,992,972,953,942,913,948,868,868,886,820,845,798,758,813,799,783,778,782,783,795,893,863,836,870,823,915,875,882,864,813,837,871,839,821,889,839,822,871,855,901,871,882,844,637,647,641,643,669,737,822,933,1006,1048,1051,1034,1017,1000,984,967,950,933,916,900,883,866,849,832,815,799,782,765,748,731,714,698,681,664,650,647,648,659,644,652,638,654,649,651,656,674,648,644,651,659,655,647,649,653,654,654,651,656,651,656,644,661,653,654,642,579,581,582,584,590,638,714,791,867,913,919,905,892,878,864,851,837,823,810,796,782,767,755,741,726,714,700,686,672,659,644,631,618,604,591,587,589,589,592,592,588,592,596,591,594,596,591,591,592,601,594,596,599,600,596,595,596,598,600,610,598,606,593,595,599,1483,1505,1520,1666,1922,2164,2420,2485,2577,2584,2556,2688,2483,2417,2370,2342,2301,2248,2202,2105,2091,2045,1968,1952,1921,1859,1784,1765,1757,1693,1647,1580,1516,1493,1510,1487,1539,1594,1659,1643,1647,1685,1706,1702,1675,1670,1695,1740,1706,1738,1744,1774,1738,1726,1743,1720,1712,1708,1744,1765,1717,1728,1743,1724,1701,871,881,884,888,952,1049,1274,1270,1400,1484,1557,1458,1356,1334,1313,1289,1298,1265,1296,1274,1189,1147,1133,1130,1220,1233,1080,1029,1026,1039,981,959,910,914,932,866,893,967,911,896,902,901,907,928,911,920,921,931,948,940,936,942,938,952,935,940,937,943,947,961,947,945,947,968,962,299,300,301,302,303,318,359,401,443,483,497,489,481,473,465,457,450,442,434,426,418,410,402,395,387,379,371,363,355,347,340,332,324,316,308,303,304,305,310,311,296,297,319,331,317,333,312,339,322,363,357,364,328,384,338,308,319,320,351,383,369,400,374,386,351,157,157,158,158,159,163,185,206,228,249,263,259,255,251,246,242,238,234,230,226,221,217,213,209,205,200,196,192,188,184,179,175,171,167,163,159,160,160,149,151,148,154,157,157,152,163,151,157,158,171,152,152,155,156,154,156,158,163,156,157,155,164,155,156,155,666,683,670,672,691,761,861,962,1052,1089,1094,1075,1057,1040,1023,1007,988,971,955,936,919,901,886,867,849,843,815,797,780,763,745,728,712,693,680,676,678,681,666,675,679,691,692,695,682,706,677,707,687,697,686,691,702,714,700,694,695,690,701,701,694,699,683,692,684,982,1001,989,1004,1069,1193,1352,1562,1572,1604,1599,1573,1571,1522,1496,1471,1445,1420,1394,1368,1363,1317,1299,1285,1248,1215,1194,1164,1162,1113,1087,1077,1036,1013,1000,997,1088,1009,1011,1017,1029,1053,1038,1037,1030,1053,1026,1059,1045,1057,1090,1082,1108,1107,1051,1047,1063,1060,1058,1054,1066,1081,1050,1055,1049,1400,1390,1586,1629,1695,1952,2049,2176,2302,2243,2238,2193,2189,2192,2196,2039,2002,2059,1940,2089,1862,1826,1806,1867,1829,1743,1648,1626,1585,1539,1504,1499,1455,1487,1407,1448,1411,1429,1499,1496,1566,1811,1563,1514,1551,1662,1595,1535,1662,1608,1555,1567,1641,1634,1597,1509,1542,1550,1586,1590,1525,1575,1528,1547,1560,801,749,787,773,787,881,1047,1165,1289,1301,1246,1275,1200,1257,1141,1215,1200,1111,1134,1045,1051,1006,1040,1027,969,929,912,910,887,853,877,815,809,789,762,776,817,761,778,775,774,783,778,802,813,808,787,793,806,795,790,786,787,815,812,794,792,791,787,792,792,792,795,831,791,0,0,0,0,0,0,0,0,0,0,0,0,0,0,0,0,0,0,0,0,0,0,0,0,0,0,0,0,0,0,0,0,0,0,0,0,0,0,0,0,0,0,0,0,0,0,0,0,0,0,0,0,0,0,0,0,0,0,0,0,0,0,0,0,0,520,483,484,525,490,577,626,675,773,833,826,793,813,758,783,734,760,710,732,686,697,661,645,633,645,649,601,589,591,596,583,570,557,550,532,488,509,530,518,514,521,534,527,519,519,529,525,529,533,537,599,610,633,568,537,526,526,537,527,523,523,533,524,536,524,492,493,496,497,468,533,597,617,676,724,732,754,745,700,731,678,705,657,686,674,663,650,649,630,581,570,594,549,538,555,546,506,525,514,503,469,501,501,487,488,488,507,503,495,499,519,507,500,515,523,626,618,633,553,496,494,507,506,496,501,502,501,501,501,503,1114,1132,1133,1164,1216,1363,1526,1660,1734,1766,1806,1733,1707,1695,1655,1628,1602,1573,1550,1523,1497,1471,1445,1419,1392,1366,1340,1314,1273,1259,1298,1205,1183,1162,1132,1216,1149,1141,1168,1159,1166,1175,1185,1164,1165,1179,1179,1195,1202,1190,1191,1317,1196,1189,1320,1202,1198,1204,1204,1199,1204,1203,1221,1222,1228,1339,1332,1375,1426,1615,1827,2124,2133,2260,2176,2175,2099,2080,2042,2032,1985,1921,1918,1923,1993,1930,1781,1758,1701,1754,1720,1596,1570,1536,1491,1510,1452,1395,1425,1362,1431,1399,1381,1471,1472,1444,1460,1450,1474,1460,1486,1496,1537,1481,1514,1496,1505,1504,1549,1520,1479,1499,1478,1502,1528,1505,1533,1514,1527,1497,758,715,727,716,717,835,931,1026,1075,1116,1119,1149,1088,1096,1045,1091,1112,999,978,956,941,969,945,932,898,850,834,905,814,778,837,743,748,741,700,748,738,728,732,714,720,729,713,749,724,733,735,736,761,736,737,729,735,753,759,732,726,747,729,739,736,728,740,763,738,782,748,786,753,787,859,1022,1139,1184,1219,1221,1250,1175,1159,1143,1120,1126,1087,1065,1046,1029,1004,1018,1005,948,928,911,1021,886,853,876,814,808,770,761,774,797,760,760,772,770,783,781,771,782,784,772,772,774,776,776,775,772,779,782,781,784,779,776,782,779,810,807,813,802,424,425,426,427,429,457,513,595,647,692,702,670,683,649,639,654,683,635,598,616,578,596,587,577,537,526,549,539,496,485,475,465,455,444,434,430,431,432,422,414,424,435,433,431,420,420,430,442,432,433,435,478,503,481,473,441,425,445,431,429,423,437,432,453,425,1400,1390,1586,1629,1695,1952,2049,2176,2302,2243,2238,2193,2189,2192,2196,2039,2002,2059,1940,2089,1862,1826,1806,1867,1829,1743,1648,1626,1585,1539,1504,1499,1455,1487,1407,1448,1411,1429,1499,1496,1566,1811,1563,1514,1551,1662,1595,1535,1662,1608,1555,1567,1641,1634,1597,1509,1542,1550,1586,1590,1525,1575,1528,1547,1560,1070,999,1002,1058,1085,1213,1474,1539,1604,1627,1620,1617,1568,1601,1516,1490,1464,1544,1433,1386,1360,1385,1309,1283,1257,1238,1205,1179,1153,1144,1101,1160,1065,1027,1085,1011,1014,1016,1057,1059,1042,1058,1039,1080,1046,1057,1083,1131,1059,1075,1069,1072,1067,1084,1091,1065,1055,1054,1061,1070,1063,1072,1069,1068,1054,648,659,661,703,670,737,941,931,1017,1060,1062,1045,1029,1012,995,978,994,944,928,911,906,877,860,881,827,810,803,776,759,742,726,716,716,698,662,658,660,670,683,667,662,669,672,675,730,721,680,708,690,672,682,716,725,733,723,739,723,745,723,708,703,690,677,675,666,480,482,483,485,483,550,663,714,831,814,830,817,805,793,815,723,747,698,723,757,660,655,643,644,641,645,592,621,608,605,542,529,516,498,486,482,535,509,484,486,484,498,490,503,486,491,500,492,487,490,485,491,490,485,493,498,493,490,491,493,498,510,500,509,499,0,0,0,0,0,0,0,0,0,0,0,0,0,0,0,0,0,0,0,0,0,0,0,0,0,0,0,0,0,0,0,0,0,0,0,0,0,0,0,0,0,0,0,0,0,0,0,0,0,0,0,0,0,0,0,0,0,0,0,0,0,0,0,0,0,238,239,239,240,241,247,272,297,313,347,361,356,351,346,341,337,332,327,314,317,312,308,303,298,293,288,283,279,274,269,264,259,254,250,245,241,242,242,225,228,226,238,228,234,226,232,226,224,228,225,223,230,228,230,228,234,231,232,235,234,228,240,225,232,228,910,912,900,881,960,1090,1299,1550,1648,1710,1678,1646,1614,1658,1549,1480,1484,1476,1385,1404,1354,1321,1289,1225,1206,1191,1159,1127,1109,1084,1029,997,939,951,911,910,916,923,932,943,943,962,952,960,954,971,955,959,947,944,942,952,961,965,970,966,952,968,977,959,953,947,954,961,943,990,993,996,1050,1076,1201,1360,1499,1580,1614,1606,1614,1555,1589,1679,1479,1565,1427,1501,1376,1351,1524,1299,1319,1344,1223,1197,1213,1146,1120,1137,1227,1117,1021,1008,1031,1089,1011,1095,1050,1051,1061,1044,1057,1065,1059,1084,1128,1068,1084,1159,1082,1087,1159,1093,1078,1072,1080,1144,1212,1233,1264,1261,1122,1120,565,577,584,572,590,636,732,802,899,944,948,933,905,903,888,858,857,842,827,812,797,782,756,752,737,722,707,682,667,652,646,621,616,601,588,584,585,593,580,575,584,603,591,591,584,591,591,596,601,587,599,629,649,630,623,605,584,610,591,585,584,610,599,611,587,629,640,642,635,650,715,810,905,991,1034,1037,1020,1004,987,971,954,970,921,904,888,883,855,838,859,805,788,782,755,739,722,706,697,696,679,642,638,640,651,632,645,648,662,653,657,647,662,642,651,645,641,644,657,657,659,656,659,648,652,662,654,646,645,649,659,647,113,114,114,114,124,125,131,145,160,174,182,180,180,177,174,171,168,165,163,160,157,154,151,148,146,143,140,137,134,131,129,126,123,129,126,124,124,125,106,106,106,108,133,120,115,118,113,134,117,113,120,110,111,117,113,109,125,110,109,120,117,131,120,116,115,1070,999,1002,1058,1085,1213,1474,1539,1604,1627,1620,1617,1568,1601,1516,1490,1464,1544,1433,1386,1360,1385,1309,1283,1257,1238,1205,1179,1153,1144,1101,1160,1065,1027,1085,1011,1014,1016,1057,1059,1042,1058,1039,1080,1046,1057,1083,1131,1059,1075,1069,1072,1067,1084,1091,1065,1055,1054,1061,1070,1063,1072,1069,1068,1054,1055,1064,1061,1149,1245,1299,1633,1668,1842,1695,1684,1657,1631,1669,1609,1552,1526,1560,1473,1511,1420,1394,1368,1475,1315,1342,1320,1314,1275,1184,1157,1178,1104,1098,1072,1069,1130,1076,1119,1120,1110,1159,1141,1112,1123,1139,1127,1142,1179,1135,1145,1126,1120,1123,1129,1139,1119,1121,1113,1124,1118,1131,1131,1129,1107,497,498,500,501,505,548,613,678,743,786,789,791,766,754,753,730,718,739,695,695,671,671,648,636,624,612,600,589,577,565,553,541,530,518,507,504,505,506,492,502,491,504,501,509,496,501,506,498,495,499,495,498,498,495,501,504,500,499,499,502,502,517,509,516,506,438,439,440,442,417,448,536,563,644,690,707,693,689,680,670,662,650,630,627,602,591,595,570,561,550,539,529,488,509,499,488,470,448,457,446,443,445,445,416,425,427,448,425,422,420,424,423,419,422,424,423,424,423,424,425,427,426,426,425,427,426,441,439,440,438,357,358,359,360,361,385,430,475,520,560,567,559,550,542,597,525,535,508,500,520,483,475,492,487,449,441,433,424,416,407,408,391,382,374,365,362,363,364,350,347,355,373,365,356,351,357,361,369,376,376,446,494,567,429,380,365,356,372,361,355,351,365,362,374,357,0,0,0,0,0,0,0,0,0,0,0,0,0,0,0,0,0,0,0,0,0,0,0,0,0,0,0,0,0,0,0,0,0,0,0,0,0,0,0,0,0,0,0,0,0,0,0,0,0,0,0,0,0,0,0,0,0,0,0,0,0,0,0,0,0,1164,1141,1162,1279,1309,1569,1769,1944,2081,2112,2002,2003,1966,1918,1892,1883,1835,1768,1752,1673,1636,1640,1594,1573,1490,1482,1464,1408,1371,1353,1296,1280,1223,1168,1163,1184,1191,1211,1244,1235,1227,1243,1234,1269,1238,1251,1268,1327,1250,1281,1280,1283,1265,1287,1290,1256,1248,1259,1273,1287,1283,1298,1290,1294,1268,1084,1013,1029,1033,1101,1247,1451,1516,1607,1639,1609,1600,1541,1534,1523,1484,1470,1480,1409,1401,1359,1334,1294,1297,1274,1382,1209,1170,1159,1134,1109,1105,1124,1037,1026,1039,1027,1030,1036,1047,1046,1065,1066,1065,1066,1078,1055,1068,1055,1051,1066,1073,1067,1069,1100,1081,1066,1059,1074,1068,1061,1093,1092,1100,1087,424,425,426,428,429,462,504,571,625,668,673,663,653,643,633,623,613,603,593,583,573,563,553,543,533,513,513,503,493,483,473,452,453,443,433,430,431,432,415,416,423,434,417,431,419,431,431,422,432,417,422,422,422,431,424,424,423,426,424,426,422,433,419,431,422,478,479,480,482,485,527,590,654,717,760,764,766,741,729,728,706,694,716,671,672,648,648,625,614,602,591,579,568,556,545,533,521,510,498,487,484,486,487,480,491,483,488,494,490,488,493,483,487,484,486,483,492,493,495,490,488,491,485,496,503,486,495,483,490,488,319,320,320,321,322,336,370,431,460,490,500,494,488,483,477,447,466,434,454,449,443,437,432,426,420,383,377,370,364,358,351,345,339,332,326,323,323,324,320,304,309,305,333,337,310,334,314,309,323,337,320,326,341,368,350,358,318,340,332,338,362,349,363,378,354,1055,1064,1061,1149,1245,1299,1633,1668,1842,1695,1684,1657,1631,1669,1609,1552,1526,1560,1473,1511,1420,1394,1368,1475,1315,1342,1320,1314,1275,1184,1157,1178,1104,1098,1072,1069,1130,1076,1119,1120,1110,1159,1141,1112,1123,1139,1127,1142,1179,1135,1145,1126,1120,1123,1129,1139,1119,1121,1113,1124,1118,1131,1131,1129,1107,1658,1691,1736,1847,2074,2386,2908,2772,2815,2960,2796,2746,2712,2662,2612,2562,2704,2481,2576,2568,2290,2305,2211,2160,2128,2109,2010,1966,1975,1875,1809,1746,1746,1740,1724,1733,1694,1702,1902,1970,1915,1937,1962,1928,1942,1986,1947,1947,1980,1931,1963,1961,1980,1983,2136,2095,2001,1971,1993,1942,1961,1968,2004,1998,1954,1444,1448,1475,1564,1748,2154,2267,2442,2479,2583,2587,2607,2505,2459,2302,2265,2297,2262,2178,2194,2019,2006,1961,1945,1861,1816,1772,1735,1800,1637,1625,1531,1501,1554,1474,1476,1476,1507,1570,1614,1573,1590,1629,1588,1595,1608,1602,1608,1629,1619,1617,1606,1617,1614,1649,1633,1632,1627,1663,1601,1628,1634,1654,1631,1627,1107,1101,1133,1139,1215,1362,1543,1634,1717,1740,1717,1691,1665,1639,1613,1600,1561,1535,1509,1483,1556,1421,1405,1379,1353,1327,1301,1275,1241,1233,1197,1184,1137,1143,1123,1105,1115,1128,1145,1164,1131,1149,1143,1144,1206,1165,1142,1177,1188,1152,1181,1149,1158,1164,1169,1173,1168,1181,1220,1168,1164,1153,1139,1175,1133,1021,947,949,976,1050,1230,1454,1632,1694,1776,1704,1680,1779,1634,1601,1601,1560,1513,1504,1506,1403,1369,1336,1303,1270,1237,1231,1179,1156,1105,1095,1031,1005,976,972,962,968,974,973,989,992,996,996,998,992,1011,989,1009,990,990,997,1000,1015,1019,1013,1009,1000,991,1011,1009,1000,1008,985,1000,988,1164,1103,1105,1150,1275,1464,1703,1842,1913,2053,1931,1910,1900,1826,1818,1852,1775,1705,1708,1761,1565,1551,1595,1506,1445,1410,1448,1411,1327,1271,1301,1203,1211,1133,1183,1113,1125,1134,1170,1167,1187,1187,1198,1235,1193,1208,1206,1210,1235,1211,1211,1221,1218,1226,1202,1202,1211,1218,1206,1216,1216,1230,1210,1220,1228,0,0,0,0,0,0,0,0,0,0,0,0,0,0,0,0,0,0,0,0,0,0,0,0,0,0,0,0,0,0,0,0,0,0,0,0,0,0,0,0,0,0,0,0,0,0,0,0,0,0,0,0,0,0,0,0,0,0,0,0,0,0,0,0,0,1652,1663,1720,1887,2126,2428,2821,2759,2803,2948,2807,2726,2701,2682,2593,2551,2695,2452,2553,2406,2380,2297,2202,2153,2130,2165,2201,1993,1987,1853,1841,1777,1780,1690,1715,1680,1688,1696,1937,1938,1895,1889,1931,1916,1925,1933,1930,1939,1993,1946,1955,1971,1971,1978,1953,1986,1984,1995,2027,1988,1975,1981,2031,1968,1971,1318,1366,1383,1432,1613,1816,2070,2262,2271,2361,2280,2266,2283,2198,2179,2154,2187,2039,2093,1982,1863,1841,1801,1759,1702,1674,1679,1577,1548,1528,1493,1409,1409,1340,1383,1384,1370,1356,1422,1471,1430,1452,1475,1466,1447,1458,1450,1463,1463,1441,1449,1468,1472,1481,1479,1484,1474,1467,1490,1479,1487,1506,1501,1505,1486,1425,1428,1454,1541,1723,2128,2241,2417,2454,2558,2563,2583,2375,2460,2278,2241,2274,2240,2156,2172,1997,1985,1940,1924,1840,1796,1751,1715,1780,1618,1606,1512,1482,1560,1454,1456,1457,1487,1545,1564,1525,1525,1580,1522,1544,1555,1551,1566,1611,1572,1570,1711,1587,1581,1690,1598,1593,1595,1621,1570,1586,1589,1639,1583,1589,967,951,953,1008,1045,1217,1428,1607,1674,1753,1687,1655,1761,1625,1593,1594,1545,1508,1500,1503,1371,1362,1353,1298,1266,1234,1235,1170,1156,1106,1103,1041,1009,979,983,965,971,977,983,992,990,1006,1001,993,1006,1015,1003,1013,998,999,1004,1006,1005,1011,1019,1020,1020,1009,1008,1003,1015,1023,1015,1014,1015,1658,1691,1736,1847,2074,2386,2908,2772,2815,2960,2796,2746,2712,2662,2612,2562,2704,2481,2576,2568,2290,2305,2211,2160,2128,2109,2010,1966,1975,1875,1809,1746,1746,1740,1724,1733,1694,1702,1902,1970,1915,1937,1962,1928,1942,1986,1947,1947,1980,1931,1963,1961,1980,1983,2136,2095,2001,1971,1993,1942,1961,1968,2004,1998,1954,531,533,534,536,542,591,669,747,824,871,871,857,833,830,822,808,794,780,766,752,738,724,710,696,682,668,654,635,626,608,594,580,570,556,543,539,541,542,532,541,542,557,618,593,560,602,557,638,586,618,590,556,578,609,578,559,613,578,561,594,584,624,584,573,563,639,644,686,648,657,728,882,919,1142,1045,1053,1036,1028,1003,986,969,953,928,908,903,882,869,853,862,819,851,811,766,752,736,719,726,725,688,684,663,653,655,657,656,657,659,659,657,657,660,656,663,662,663,663,666,666,667,667,669,666,670,668,670,669,671,671,672,669,1335,1311,1349,1438,1514,1719,1967,2038,2085,2130,2113,2077,2038,2024,2016,1938,1917,1869,1812,1794,1769,1727,1703,1708,1616,1633,1566,1514,1493,1467,1406,1400,1371,1347,1333,1343,1318,1385,1404,1403,1395,1426,1411,1405,1415,1427,1414,1425,1428,1424,1430,1413,1414,1417,1421,1433,1406,1422,1407,1412,1406,1425,1415,1414,1392,1026,927,982,1034,1007,1210,1259,1395,1649,1509,1508,1484,1513,1447,1411,1387,1363,1339,1315,1290,1266,1242,1254,1247,1170,1260,1234,1097,1073,1049,1065,1001,977,955,939,938,941,944,950,946,962,1004,982,984,981,961,971,989,991,969,1001,1005,1026,1006,1003,988,967,980,969,970,965,983,970,1011,958,1118,1027,1076,1139,1107,1277,1385,1522,1665,1633,1631,1658,1634,1576,1606,1525,1480,1488,1462,1405,1379,1414,1347,1366,1296,1282,1302,1203,1178,1181,1128,1114,1078,1055,1040,1083,1067,1091,1088,1089,1095,1115,1122,1127,1118,1106,1116,1131,1124,1127,1134,1129,1103,1108,1110,1121,1124,1108,1129,1127,1116,1101,1126,1097,1099,1747,1779,1850,2043,2413,2661,2882,3038,3026,2981,2937,2911,2925,2814,2775,2710,2630,2561,2632,2440,2414,2368,2302,2282,2190,2176,2126,2069,1996,1963,1882,1839,1831,1797,1805,1800,1832,1826,2109,2114,2068,2079,2115,2102,2109,2121,2117,2127,2177,2125,2139,2150,2150,2154,2136,2167,2177,2177,2209,2163,2162,2168,2221,2154,2162,0,0,0,0,0,0,0,0,0,0,0,0,0,0,0,0,0,0,0,0,0,0,0,0,0,0,0,0,0,0,0,0,0,0,0,0,0,0,0,0,0,0,0,0,0,0,0,0,0,0,0,0,0,0,0,0,0,0,0,0,0,0,0,0,0,714,691,714,721,745,823,959,1041,1137,1152,1171,1154,1124,1105,1096,1078,1061,1098,1022,1003,984,966,947,930,904,894,873,847,815,799,798,746,756,742,728,725,727,729,741,718,720,725,720,726,725,728,724,723,724,718,723,728,728,725,733,728,730,729,731,732,726,740,725,733,729,620,625,667,629,637,706,858,894,1083,1019,1027,1011,1004,978,962,945,929,905,884,880,859,847,830,840,798,830,790,745,732,715,699,707,706,661,657,644,634,636,644,641,641,648,651,642,644,653,637,646,644,641,645,656,651,648,653,649,645,644,652,653,641,642,646,647,642,1047,956,1011,1065,1031,1248,1300,1437,1690,1549,1548,1523,1552,1474,1499,1468,1400,1424,1351,1326,1302,1277,1288,1271,1203,1293,1266,1129,1105,1125,1087,1031,1006,984,1012,968,970,973,997,1000,998,1009,1009,1013,1004,1028,998,1008,1000,1003,1001,1026,1017,1016,1011,1021,1015,1011,1023,1030,1007,1020,999,1012,1006,531,533,534,536,542,591,669,747,824,871,871,857,833,830,822,808,794,780,766,752,738,724,710,696,682,668,654,635,626,608,594,580,570,556,543,539,541,542,532,541,542,557,618,593,560,602,557,638,586,618,590,556,578,609,578,559,613,578,561,594,584,624,584,573,563,820,828,825,829,869,965,1094,1221,1306,1345,1343,1321,1300,1301,1257,1337,1214,1214,1179,1149,1148,1106,1085,1082,1042,1020,1017,977,956,934,929,891,870,849,835,832,850,932,881,870,869,875,876,878,888,879,885,891,894,881,889,892,897,901,892,907,888,905,891,879,897,905,879,884,870,223,223,224,225,225,234,263,293,323,353,367,388,381,375,344,363,357,327,321,315,310,326,298,293,287,281,276,270,264,258,253,247,241,236,230,226,227,227,212,213,215,218,219,217,218,218,215,218,216,217,212,213,216,219,215,215,218,215,216,215,216,217,211,216,213,703,725,713,710,740,811,926,1034,1168,1162,1222,1177,1154,1126,1112,1127,1071,1053,1040,1016,1005,986,967,967,951,911,879,893,849,832,795,768,759,741,715,747,716,718,725,728,726,730,746,753,771,774,744,767,760,755,766,760,761,779,760,746,760,743,739,755,748,755,752,777,749,522,523,525,529,538,588,672,748,818,859,865,859,849,819,813,795,782,768,754,744,730,726,702,698,668,660,646,642,610,599,602,576,557,546,536,526,531,532,527,522,530,526,525,526,525,526,531,534,539,537,527,532,533,533,532,539,544,563,536,539,538,538,540,539,539,486,487,489,490,492,526,588,650,712,759,748,756,726,715,704,693,682,671,660,649,638,627,616,605,594,583,572,561,550,553,542,531,519,508,485,493,494,495,483,494,521,608,509,477,500,546,518,490,613,582,496,527,613,596,595,480,502,513,542,518,480,513,510,488,485,1367,1345,1386,1508,1679,1942,2177,2393,2427,2412,2378,2369,2262,2270,2178,2167,2166,2079,2036,1991,1960,1876,1864,1820,1770,1703,1688,1645,1566,1525,1497,1443,1425,1375,1408,1376,1406,1484,1441,1475,1491,1484,1490,1479,1488,1517,1480,1479,1509,1460,1487,1481,1496,1504,1665,1618,1532,1488,1491,1483,1472,1470,1483,1542,1460,713,740,757,746,771,808,961,1073,1160,1201,1201,1187,1165,1166,1186,1107,1089,1069,1050,1031,1173,996,977,926,909,923,899,853,862,842,805,787,786,741,753,749,725,727,735,733,743,767,760,758,753,769,759,764,774,769,792,822,854,820,783,759,756,777,763,747,748,771,756,776,747,0,0,0,0,0,0,0,0,0,0,0,0,0,0,0,0,0,0,0,0,0,0,0,0,0,0,0,0,0,0,0,0,0,0,0,0,0,0,0,0,0,0,0,0,0,0,0,0,0,0,0,0,0,0,0,0,0,0,0,0,0,0,0,0,0,204,204,205,205,206,214,242,270,298,327,341,362,356,350,319,339,333,303,297,292,287,303,276,270,265,259,254,249,243,238,232,227,221,216,211,207,207,208,193,190,196,204,196,195,198,204,197,196,197,196,204,207,209,204,203,200,196,209,203,196,200,210,203,205,200,550,552,554,558,568,612,708,788,860,901,906,899,877,859,852,834,820,805,791,780,766,751,776,723,702,694,679,665,642,630,632,607,631,576,565,555,560,562,563,560,563,562,560,559,564,564,563,562,561,563,567,569,571,568,564,564,569,569,572,578,569,577,567,565,572,820,828,825,829,869,965,1094,1221,1306,1345,1343,1321,1300,1301,1257,1337,1214,1214,1179,1149,1148,1106,1085,1082,1042,1020,1017,977,956,934,929,891,870,849,835,832,850,932,881,870,869,875,876,878,888,879,885,891,894,881,889,892,897,901,892,907,888,905,891,879,897,905,879,884,870,991,979,971,968,1068,1184,1342,1480,1562,1554,1611,1562,1537,1520,1448,1518,1435,1428,1405,1359,1354,1308,1283,1276,1232,1176,1199,1173,1130,1121,1079,1054,1029,1006,993,1006,993,996,1014,1021,1013,1027,1031,1022,1020,1034,1011,1020,1017,1016,1015,1036,1029,1026,1027,1026,1024,1020,1036,1043,1015,1026,1017,1024,1021,21,21,21,21,21,21,22,24,25,26,28,27,27,27,27,26,26,26,25,25,25,25,24,24,24,24,23,23,23,22,22,22,22,21,21,21,21,21,0,0,0,0,0,0,0,0,0,0,0,0,0,0,0,0,0,0,0,0,0,0,0,0,0,0,0,751,761,769,758,802,941,992,1129,1203,1246,1277,1319,1239,1186,1179,1195,1123,1160,1081,1057,1059,1028,1040,1001,1012,936,925,897,914,860,869,849,811,792,774,765,777,793,798,783,784,786,784,786,855,850,789,821,804,790,790,840,846,859,853,858,847,859,862,841,820,815,795,791,793,647,649,651,653,670,738,837,948,1038,1064,1067,1105,1033,1016,999,982,965,948,931,914,896,879,862,845,828,811,794,777,760,743,726,718,691,674,661,657,659,660,664,660,660,666,662,669,663,670,661,672,666,661,663,662,668,672,670,668,668,666,668,669,664,678,662,670,666,589,591,593,594,601,650,728,807,884,929,936,942,908,894,880,864,852,838,824,810,796,782,768,754,740,726,712,698,684,670,656,642,628,614,602,597,599,600,590,601,599,600,607,603,608,603,601,606,599,601,601,608,615,621,617,619,608,614,615,606,610,605,610,617,602,1511,1516,1562,1657,1896,2184,2386,2541,2593,2586,2585,2525,2441,2431,2372,2396,2281,2282,2220,2150,2145,2057,2010,1963,1953,1870,1848,1798,1703,1683,1664,1611,1623,1521,1539,1549,1553,1562,1663,1673,1648,1667,1666,1703,1670,1706,1711,1779,1690,1724,1712,1716,1694,1749,1729,1703,1695,1679,1696,1733,1706,1739,1715,1726,1688,767,795,798,801,834,923,1043,1327,1216,1289,1289,1268,1253,1228,1207,1233,1167,1146,1127,1234,1056,1036,1066,1025,1024,984,1010,943,923,903,899,951,1002,821,850,804,781,809,821,831,825,859,820,852,832,859,846,851,850,833,850,838,851,853,848,850,855,851,860,845,850,860,852,868,868,292,293,294,295,296,312,353,394,434,483,486,478,470,463,455,447,440,432,424,417,409,401,394,386,378,370,363,355,347,340,332,324,317,309,301,297,298,298,279,279,286,294,279,286,282,288,291,281,291,280,284,282,280,285,282,282,282,286,282,282,281,287,282,288,284,0,0,0,0,0,0,0,0,0,0,0,0,0,0,0,0,0,0,0,0,0,0,0,0,0,0,0,0,0,0,0,0,0,0,0,0,0,0,0,0,0,0,0,0,0,0,0,0,0,0,0,0,0,0,0,0,0,0,0,0,0,0,0,0,0,677,678,680,682,702,773,875,977,1067,1106,1108,1133,1073,1055,1038,1020,1003,985,967,959,932,915,907,879,862,856,827,809,793,775,770,753,735,704,705,701,688,690,677,685,690,721,690,699,684,689,689,680,693,693,722,738,731,705,693,707,707,709,713,702,706,739,714,725,721,991,979,971,968,1068,1184,1342,1480,1562,1554,1611,1562,1537,1520,1448,1518,1435,1428,1405,1359,1354,1308,1283,1276,1232,1176,1199,1173,1130,1121,1079,1054,1029,1006,993,1006,993,996,1014,1021,1013,1027,1031,1022,1020,1034,1011,1020,1017,1016,1015,1036,1029,1026,1027,1026,1024,1020,1036,1043,1015,1026,1017,1024,1021,1216,1148,1189,1188,1415,1432,1607,1810,1793,1811,1793,1766,1739,1720,1706,1679,1651,1632,1560,1601,1542,1515,1487,1671,1483,1402,1476,1361,1338,1283,1280,1292,1221,1210,1161,1160,1179,1166,1218,1219,1266,1531,1274,1211,1257,1350,1290,1231,1329,1307,1250,1259,1357,1363,1310,1222,1262,1249,1295,1295,1243,1279,1251,1254,1266,657,659,661,685,679,746,849,933,1021,1053,1034,1019,1004,989,1022,960,945,931,916,901,896,897,883,842,828,824,798,781,756,741,725,710,695,688,668,666,667,669,668,675,659,676,684,684,690,695,676,677,682,697,679,672,676,689,679,680,684,678,671,676,670,682,674,678,659,426,427,439,429,431,464,546,608,641,673,697,651,641,668,658,647,639,630,607,598,603,593,546,592,583,518,537,499,530,510,512,462,453,443,434,431,432,444,420,426,432,450,430,438,427,442,427,432,433,430,426,431,434,439,434,435,432,432,438,434,430,439,424,433,426,151,152,152,152,152,155,167,179,165,171,175,173,172,171,170,169,168,167,165,164,163,184,182,180,177,175,173,170,168,166,164,161,159,157,154,153,153,153,133,134,134,134,134,135,135,135,135,136,136,136,138,138,138,138,139,139,139,139,140,140,140,140,141,141,141,218,218,219,219,219,223,249,259,268,278,282,281,279,277,275,273,271,269,267,266,264,262,260,258,256,254,253,238,235,233,231,228,226,223,221,219,220,220,202,197,203,209,205,203,201,203,205,209,207,205,209,224,230,222,222,208,202,211,205,205,201,211,207,215,204,989,991,976,981,1059,1208,1460,1595,1777,1778,1756,1751,1695,1660,1592,1596,1537,1541,1509,1478,1424,1362,1376,1298,1297,1324,1229,1188,1164,1131,1099,1066,1065,1022,959,961,1024,998,1017,1008,1005,1019,1004,1039,1009,1016,1042,1095,1016,1029,1024,1031,1029,1031,1049,1034,1024,1024,1021,1029,1028,1027,1028,1032,1022,1139,1188,1146,1180,1376,1419,1592,1799,1837,1797,1842,1753,1782,1700,1733,1646,1619,1592,1656,1753,1532,1506,1478,1483,1469,1427,1442,1381,1332,1270,1313,1246,1241,1198,1155,1155,1179,1161,1235,1238,1233,1289,1285,1282,1266,1261,1277,1309,1274,1317,1315,1311,1253,1262,1283,1294,1294,1267,1309,1355,1309,1300,1313,1283,1288,584,586,587,589,599,655,747,820,889,923,950,906,893,880,867,854,841,829,816,803,790,802,790,751,738,725,712,675,673,660,646,624,619,596,594,592,593,595,592,599,592,598,606,596,599,605,591,598,595,595,593,601,601,602,600,599,600,595,605,611,598,607,593,600,599,638,640,641,666,659,724,825,908,995,1027,1008,994,979,965,998,936,922,907,893,878,873,874,861,820,806,802,777,760,735,720,705,690,675,669,649,646,648,650,630,631,634,648,634,649,633,641,661,639,640,634,636,641,636,638,640,644,640,644,638,642,647,656,651,662,651,0,0,0,0,0,0,0,0,0,0,0,0,0,0,0,0,0,0,0,0,0,0,0,0,0,0,0,0,0,0,0,0,0,0,0,0,0,0,0,0,0,0,0,0,0,0,0,0,0,0,0,0,0,0,0,0,0,0,0,0,0,0,0,0,0,1216,1148,1189,1188,1415,1432,1607,1810,1793,1811,1793,1766,1739,1720,1706,1679,1651,1632,1560,1601,1542,1515,1487,1671,1483,1402,1476,1361,1338,1283,1280,1292,1221,1210,1161,1160,1179,1166,1218,1219,1266,1531,1274,1211,1257,1350,1290,1231,1329,1307,1250,1259,1357,1363,1310,1222,1262,1249,1295,1295,1243,1279,1251,1254,1266,0,0,0,0,0,0,0,0,0,0,0,0,0,0,0,0,0,0,0,0,0,0,0,0,0,0,0,0,0,0,0,0,0,0,0,0,0,0,0,0,0,0,0,0,0,0,0,0,0,0,0,0,0,0,0,0,0,0,0,0,0,0,0,0,0,937,988,951,931,1009,1094,1250,1374,1457,1554,1480,1465,1441,1409,1400,1366,1391,1323,1352,1314,1280,1228,1205,1181,1183,1159,1110,1122,1083,1046,1046,1032,974,978,933,930,932,980,961,965,959,973,974,973,970,985,962,967,969,965,963,976,977,977,973,973,976,968,983,986,965,978,965,974,971,1275,1268,1277,1342,1460,1745,1890,2073,2091,2088,2118,2072,2034,1973,1940,1945,1899,1864,1843,1787,1832,1720,1664,1679,1620,1587,1590,1542,1487,1446,1441,1387,1334,1309,1295,1314,1323,1332,1345,1380,1344,1349,1380,1368,1359,1371,1371,1388,1391,1364,1375,1381,1389,1391,1399,1403,1396,1397,1411,1413,1415,1426,1436,1425,1420,912,915,918,963,982,1106,1241,1376,1458,1505,1488,1464,1440,1417,1393,1369,1345,1321,1297,1274,1250,1226,1202,1188,1155,1131,1107,1083,1059,1044,1012,988,1009,976,929,926,928,939,938,932,947,977,963,958,958,974,967,971,992,986,1136,1167,1272,1054,975,959,965,976,968,950,954,975,960,984,965,1012,1058,1018,1031,1092,1273,1366,1503,1584,1617,1677,1587,1562,1537,1512,1487,1462,1438,1496,1388,1434,1338,1313,1341,1264,1239,1263,1238,1164,1139,1163,1134,1170,1123,1118,1027,1076,1085,1073,1115,1077,1076,1098,1080,1095,1100,1098,1097,1115,1095,1106,1101,1105,1110,1114,1118,1119,1119,1144,1098,1120,1126,1145,1119,1116,1448,1559,1506,1592,1891,2296,2611,2773,2837,2866,2800,2772,2685,2701,2569,2487,2522,2398,2308,2283,2225,2198,2108,2069,2076,2048,1979,1838,1758,1709,1626,1595,1562,1577,1513,1545,1519,1561,1662,1662,1650,1689,1670,1662,1679,1689,1673,1690,1696,1683,1689,1680,1682,1687,1689,1705,1673,1687,1675,1675,1674,1696,1675,1677,1651,517,518,512,522,527,574,650,727,803,850,856,843,829,803,801,788,774,749,747,722,709,706,682,736,665,632,637,615,610,596,583,569,555,542,529,525,518,520,517,516,508,516,522,549,517,523,539,529,518,524,516,523,524,514,526,527,525,523,521,525,534,548,544,552,539,725,727,730,732,758,838,949,1060,1148,1188,1189,1170,1151,1132,1113,1109,1075,1056,1037,1018,1013,980,962,943,924,905,898,867,848,840,810,791,772,753,740,736,738,740,745,740,736,735,769,793,751,760,758,785,769,790,777,784,769,782,766,764,776,759,763,805,782,797,782,781,786,918,961,932,911,988,1071,1213,1348,1431,1529,1455,1440,1417,1385,1376,1342,1367,1300,1329,1292,1258,1206,1183,1159,1161,1138,1089,1101,1063,1025,1026,1012,955,959,914,910,913,960,924,930,927,938,923,931,931,937,932,940,938,936,943,939,946,950,950,950,946,947,950,944,947,955,947,955,957,941,944,947,995,1016,1132,1330,1419,1500,1584,1579,1554,1525,1455,1431,1407,1382,1358,1382,1309,1285,1261,1283,1212,1188,1164,1139,1115,1091,1066,1042,1018,1053,1014,997,955,958,960,981,984,985,986,1021,1039,1026,1001,992,1028,1007,1005,1006,1015,993,1005,999,1000,1003,991,990,1007,1007,1016,1013,999,998,0,0,0,0,0,0,0,0,0,0,0,0,0,0,0,0,0,0,0,0,0,0,0,0,0,0,0,0,0,0,0,0,0,0,0,0,0,0,0,0,0,0,0,0,0,0,0,0,0,0,0,0,0,0,0,0,0,0,0,0,0,0,0,0,0 ]);
