n = 10;
D = [244,232,114,117,231,236,109,95,108,71 ];
q = 0;
prec = array2d(1..0,1..2,[]);
steps = 64;
l = 360;
r = 0;
which = [];
interval = array2d(1..0,1..2,[]);
T = array3d(1..11,1..11,0..64,[0,0,0,0,0,0,0,0,0,0,0,0,0,0,0,0,0,0,0,0,0,0,0,0,0,0,0,0,0,0,0,0,0,0,0,0,0,0,0,0,0,0,0,0,0,0,0,0,0,0,0,0,0,0,0,0,0,0,0,0,0,0,0,0,0,1395,1497,1459,1534,1663,1877,2133,2328,2349,2427,2356,2312,2276,2282,2217,2178,2115,2025,2126,1994,1997,1956,1901,1865,1792,1777,1777,1672,1600,1711,1668,1510,1505,1433,1434,1394,1443,1493,1528,1537,1563,1585,1601,1583,1574,1579,1567,1577,1556,1545,1562,1571,1566,1568,1596,1586,1556,1558,1571,1567,1565,1580,1602,1606,1572,923,894,897,905,980,1042,1180,1313,1415,1463,1458,1435,1460,1388,1365,1342,1319,1295,1406,1249,1226,1202,1179,1156,1133,1109,1086,1091,1040,1016,993,970,972,925,909,905,907,910,904,902,906,912,913,913,922,917,921,925,917,923,951,923,924,921,931,935,932,936,937,934,950,937,931,942,935,1377,1391,1407,1474,1597,1867,2038,2201,2303,2441,2354,2272,2295,2170,2187,2171,2051,2040,2018,2053,1893,2008,1964,1792,1844,1695,1665,1616,1576,1603,1497,1506,1470,1396,1379,1378,1434,1405,1490,1493,1481,1491,1503,1510,1509,1509,1499,1507,1499,1504,1513,1496,1498,1498,1501,1514,1493,1507,1487,1497,1496,1513,1503,1494,1476,548,554,572,552,565,635,747,867,965,1019,1020,1001,981,962,975,956,905,892,866,876,828,830,789,770,751,731,723,693,674,654,635,616,628,582,581,556,569,595,577,577,575,586,588,579,584,585,583,587,594,603,678,677,685,613,584,592,600,603,587,586,607,579,583,587,582,595,625,598,599,641,691,810,967,1036,1090,1126,1069,1085,1064,1044,988,968,948,928,908,887,900,847,827,807,786,777,746,726,706,716,665,654,625,607,633,617,620,614,614,615,626,628,619,625,623,623,628,637,639,717,710,722,652,630,628,636,633,628,628,637,628,628,632,629,1198,1061,1065,1090,1203,1283,1454,1589,1687,1729,1769,1703,1724,1638,1609,1582,1555,1527,1539,1473,1446,1426,1391,1362,1351,1307,1280,1282,1225,1198,1170,1143,1147,1093,1090,1074,1077,1079,1089,1131,1093,1100,1115,1100,1107,1114,1116,1113,1128,1107,1119,1115,1118,1120,1129,1135,1131,1129,1158,1113,1136,1147,1166,1143,1135,1002,954,957,1001,1055,1127,1276,1412,1513,1559,1552,1528,1579,1478,1453,1428,1404,1379,1394,1329,1304,1280,1255,1230,1205,1215,1156,1159,1106,1081,1087,1062,1032,985,969,965,968,1000,1037,1019,998,1008,1001,1020,1013,1027,1031,1095,1023,1075,1068,1077,1029,1099,1083,1024,1023,1019,1061,1097,1069,1092,1081,1080,1062,819,821,824,866,869,993,1094,1220,1305,1343,1394,1417,1302,1276,1255,1251,1212,1191,1193,1148,1178,1105,1083,1111,1049,1019,998,996,955,933,912,909,869,848,835,831,834,836,830,846,840,860,928,890,870,905,856,932,881,917,884,869,878,907,927,905,911,890,871,888,877,916,899,886,866,935,938,940,987,1051,1150,1391,1563,1602,1640,1635,1663,1580,1554,1519,1519,1476,1471,1424,1398,1390,1360,1287,1302,1229,1200,1181,1142,1113,1144,1055,1026,1006,970,986,950,1024,1027,989,991,1034,1303,1045,980,1026,1121,1062,1001,1100,1075,1021,1029,1106,1087,1080,991,1023,1017,1063,1061,1009,1043,1019,1021,1036,0,0,0,0,0,0,0,0,0,0,0,0,0,0,0,0,0,0,0,0,0,0,0,0,0,0,0,0,0,0,0,0,0,0,0,0,0,0,0,0,0,0,0,0,0,0,0,0,0,0,0,0,0,0,0,0,0,0,0,0,0,0,0,0,0,1451,1465,1519,1592,1816,2056,2269,2383,2549,2447,2431,2347,2341,2304,2262,2195,2177,2135,2090,1984,1973,1977,1922,1858,1759,1792,1746,1718,1649,1610,1587,1540,1482,1491,1449,1482,1575,1508,1585,1578,1593,1608,1609,1648,1594,1625,1591,1602,1614,1616,1595,1614,1636,1660,1639,1663,1616,1644,1637,1629,1637,1617,1654,1663,1619,0,0,0,0,0,0,0,0,0,0,0,0,0,0,0,0,0,0,0,0,0,0,0,0,0,0,0,0,0,0,0,0,0,0,0,0,0,0,0,0,0,0,0,0,0,0,0,0,0,0,0,0,0,0,0,0,0,0,0,0,0,0,0,0,0,872,906,877,924,938,1096,1172,1355,1386,1424,1481,1455,1442,1354,1331,1316,1323,1270,1247,1218,1195,1219,1195,1126,1145,1082,1059,1108,1014,1000,1033,983,928,901,900,897,888,923,898,909,908,931,981,977,928,975,939,999,954,968,951,925,943,965,944,929,975,942,934,960,953,990,952,951,940,1007,1066,1064,1088,1194,1311,1458,1528,1691,1628,1773,1704,1717,1553,1646,1578,1551,1504,1415,1475,1432,1413,1318,1358,1297,1233,1261,1248,1240,1143,1103,1138,1099,1022,1016,1022,1052,1116,1067,1069,1068,1076,1078,1074,1075,1089,1063,1076,1069,1068,1075,1089,1084,1078,1083,1080,1076,1075,1091,1093,1070,1076,1074,1077,1074,1128,1142,1111,1168,1290,1405,1608,1739,1805,1842,1844,1821,1785,1737,1708,1663,1648,1631,1624,1515,1543,1545,1484,1445,1372,1381,1354,1327,1310,1267,1241,1212,1157,1167,1140,1153,1155,1141,1203,1176,1185,1189,1223,1266,1211,1235,1243,1266,1261,1299,1329,1292,1235,1297,1254,1234,1244,1245,1299,1405,1372,1394,1365,1313,1318,1115,1123,1102,1155,1238,1374,1592,1697,1773,1791,1794,1803,1739,1709,1680,1632,1626,1615,1559,1500,1465,1488,1686,1427,1316,1366,1337,1332,1255,1227,1225,1191,1111,1144,1094,1129,1137,1136,1160,1156,1153,1161,1157,1159,1167,1166,1168,1164,1167,1164,1170,1172,1181,1181,1179,1188,1169,1182,1177,1175,1177,1196,1168,1173,1164,758,767,767,789,783,862,1004,1122,1179,1249,1296,1238,1181,1232,1168,1150,1171,1088,1084,1048,1054,1009,1014,967,965,931,912,911,886,853,854,833,818,780,829,797,757,759,759,756,774,861,785,760,781,809,789,776,785,783,784,782,791,790,809,793,790,785,797,804,789,800,794,798,805,808,811,813,817,869,1008,1074,1199,1284,1323,1384,1309,1365,1259,1238,1233,1233,1182,1161,1133,1112,1151,1189,1047,1097,1006,984,1036,943,930,966,924,863,837,836,832,823,887,837,835,840,841,837,843,843,848,846,846,851,850,851,853,855,860,860,863,854,860,860,859,862,866,860,869,869,988,998,997,1023,1081,1202,1368,1505,1583,1614,1592,1562,1545,1515,1513,1488,1433,1413,1388,1418,1337,1380,1294,1261,1240,1224,1208,1159,1145,1129,1082,1105,1074,1030,994,993,1050,1041,1050,1043,1040,1046,1045,1051,1073,1062,1043,1032,1047,1052,1042,1039,1038,1036,1039,1053,1044,1044,1042,1040,1037,1060,1058,1068,1037,708,713,716,714,738,798,903,1030,1118,1159,1141,1123,1105,1087,1093,1068,1032,1014,996,978,960,995,923,905,887,884,872,832,814,821,778,780,741,742,710,706,720,752,743,718,739,729,723,721,752,731,722,716,735,729,725,729,728,724,717,729,730,731,732,733,723,732,729,724,726,1451,1465,1519,1592,1816,2056,2269,2383,2549,2447,2431,2347,2341,2304,2262,2195,2177,2135,2090,1984,1973,1977,1922,1858,1759,1792,1746,1718,1649,1610,1587,1540,1482,1491,1449,1482,1575,1508,1585,1578,1593,1608,1609,1648,1594,1625,1591,1602,1614,1616,1595,1614,1636,1660,1639,1663,1616,1644,1637,1629,1637,1617,1654,1663,1619,866,869,872,878,918,1007,1140,1270,1359,1413,1418,1395,1373,1401,1327,1305,1282,1260,1237,1215,1192,1169,1147,1124,1102,1079,1056,1034,1011,989,966,944,975,900,885,879,882,884,876,884,888,921,898,900,888,897,892,890,894,894,925,943,934,908,902,915,916,915,916,906,911,951,925,937,931,866,894,904,835,916,969,1151,1261,1434,1353,1461,1378,1290,1340,1363,1354,1260,1245,1189,1246,1227,1200,1208,1153,1089,1108,1087,1015,1002,968,944,897,943,923,878,870,909,864,877,871,877,886,888,889,889,888,889,900,893,894,898,922,936,919,924,912,904,920,906,900,914,911,911,916,905,0,0,0,0,0,0,0,0,0,0,0,0,0,0,0,0,0,0,0,0,0,0,0,0,0,0,0,0,0,0,0,0,0,0,0,0,0,0,0,0,0,0,0,0,0,0,0,0,0,0,0,0,0,0,0,0,0,0,0,0,0,0,0,0,0,1342,1308,1276,1300,1407,1582,1774,2037,1976,2222,2029,1969,1951,1938,1865,1909,1821,1777,1737,1704,1672,1667,1628,1578,1546,1520,1500,1450,1418,1386,1382,1338,1289,1294,1264,1256,1275,1263,1346,1338,1330,1356,1390,1382,1363,1356,1374,1409,1382,1415,1417,1412,1359,1363,1384,1394,1397,1375,1421,1468,1407,1401,1422,1384,1386,815,772,774,754,806,883,1003,1147,1212,1257,1264,1244,1294,1189,1254,1160,1166,1110,1090,1090,1081,1041,1021,986,964,982,934,907,903,926,854,823,816,795,782,823,797,791,793,806,798,813,813,816,808,829,809,815,809,810,804,816,807,820,825,824,820,814,812,822,814,841,813,827,818,862,804,796,799,857,926,1065,1169,1256,1294,1304,1301,1251,1245,1210,1189,1169,1162,1141,1107,1087,1066,1046,1025,1005,984,986,943,923,902,882,861,851,820,826,814,806,815,817,821,810,841,835,830,841,843,828,828,835,841,839,830,831,840,832,831,837,836,829,828,827,839,832,831,814,251,252,253,254,254,266,301,336,372,406,419,413,425,418,393,386,379,373,366,359,353,346,339,333,326,319,313,306,299,293,286,279,273,266,259,255,256,256,245,245,246,249,248,248,248,250,249,249,249,251,257,268,261,257,247,249,249,249,248,253,249,248,246,249,248,144,145,145,146,146,150,169,189,208,228,241,237,233,229,225,222,218,214,210,207,203,199,195,191,188,184,180,176,172,169,165,161,157,153,150,147,147,147,134,135,136,140,138,141,135,140,135,140,136,134,136,138,140,142,139,138,138,136,140,140,136,140,134,136,134,278,279,280,281,282,297,336,376,415,454,466,458,451,443,436,429,421,414,406,399,391,384,376,369,362,354,347,443,332,324,317,309,302,295,287,283,283,284,274,270,272,274,274,273,273,274,271,276,274,274,274,277,276,274,274,277,277,277,274,279,277,277,276,276,274,388,390,391,392,393,422,477,533,588,635,644,634,623,613,603,593,583,572,562,552,542,532,521,511,501,491,480,470,460,450,440,429,419,409,399,394,395,396,381,384,377,383,387,412,384,388,403,394,384,389,383,387,389,379,389,391,389,387,386,388,396,402,397,403,395,866,869,872,878,918,1007,1140,1270,1359,1413,1418,1395,1373,1401,1327,1305,1282,1260,1237,1215,1192,1169,1147,1124,1102,1079,1056,1034,1011,989,966,944,975,900,885,879,882,884,876,884,888,921,898,900,888,897,892,890,894,894,925,943,934,908,902,915,916,915,916,906,911,951,925,937,931,1140,1142,1146,1192,1368,1665,1983,2149,2241,2256,2228,2171,2135,2089,2042,1996,1950,1903,1857,1811,1764,1718,1672,1628,1695,1585,1596,1440,1394,1340,1301,1257,1209,1174,1163,1234,1175,1186,1214,1252,1220,1228,1254,1245,1228,1244,1244,1256,1260,1231,1242,1249,1258,1266,1269,1269,1257,1266,1274,1280,1281,1288,1298,1289,1284,1009,971,974,1007,1098,1164,1317,1456,1537,1611,1619,1542,1517,1520,1473,1516,1475,1466,1368,1369,1319,1294,1269,1244,1243,1217,1170,1191,1120,1140,1122,1046,1027,1080,1020,983,1023,1034,1031,1013,1017,1022,1073,1053,1057,1057,1040,1078,1050,1034,1051,1022,1027,1043,1043,1032,1052,1028,1022,1046,1043,1068,1054,1058,1050,1100,1113,1150,1215,1222,1367,1664,1682,1758,1836,1777,1749,1720,1692,1664,1650,1607,1622,1592,1522,1507,1465,1437,1422,1393,1482,1335,1308,1278,1322,1296,1249,1188,1215,1199,1180,1151,1194,1222,1222,1199,1213,1207,1251,1212,1225,1256,1302,1231,1251,1246,1249,1243,1267,1264,1238,1238,1228,1244,1269,1239,1252,1256,1251,1234,0,0,0,0,0,0,0,0,0,0,0,0,0,0,0,0,0,0,0,0,0,0,0,0,0,0,0,0,0,0,0,0,0,0,0,0,0,0,0,0,0,0,0,0,0,0,0,0,0,0,0,0,0,0,0,0,0,0,0,0,0,0,0,0,0,960,962,964,975,1072,1306,1526,1695,1774,1798,1777,1821,1755,1707,1680,1641,1607,1571,1534,1535,1498,1426,1426,1408,1317,1334,1244,1208,1212,1135,1099,1063,1062,993,976,977,984,1015,1024,1013,1004,1012,1047,1077,1047,1051,1047,1078,1070,1075,1083,1066,1053,1091,1090,1047,1075,1065,1068,1122,1084,1105,1104,1142,1092,915,916,918,926,1013,1207,1444,1640,1730,1760,1749,1723,1702,1644,1609,1574,1539,1504,1548,1434,1400,1365,1330,1295,1260,1279,1190,1155,1120,1085,1050,1015,980,947,930,931,938,945,951,946,961,978,971,977,967,984,984,981,1000,976,980,1013,1032,1026,1004,982,976,991,978,971,965,992,971,996,966,1162,1206,1215,1248,1317,1484,1689,1785,1862,1918,1873,1843,1814,1802,1773,1759,1702,1708,1635,1605,1587,1544,1515,1498,1480,1450,1419,1390,1346,1341,1275,1313,1250,1331,1207,1207,1182,1209,1279,1285,1276,1299,1326,1322,1302,1299,1312,1340,1307,1329,1328,1322,1291,1300,1304,1327,1334,1296,1326,1367,1320,1315,1323,1303,1305,1036,1055,1085,1140,1139,1273,1559,1579,1656,1747,1679,1653,1626,1599,1572,1569,1518,1543,1465,1438,1425,1384,1358,1352,1317,1378,1262,1236,1214,1254,1229,1184,1156,1151,1135,1084,1061,1129,1146,1156,1126,1138,1142,1183,1145,1166,1180,1241,1160,1206,1191,1200,1173,1237,1207,1158,1159,1150,1182,1216,1193,1223,1205,1215,1179,1196,1187,1195,1254,1357,1523,1710,1890,1920,2013,1904,1902,1876,1841,1786,1779,1725,1717,1662,1670,1625,1592,1542,1511,1501,1467,1481,1389,1359,1363,1314,1282,1260,1282,1220,1218,1209,1281,1269,1266,1281,1303,1295,1306,1292,1323,1306,1307,1318,1298,1305,1334,1355,1348,1322,1312,1298,1309,1299,1292,1287,1315,1297,1321,1283,918,902,910,912,999,1098,1218,1352,1484,1469,1465,1442,1465,1395,1371,1451,1325,1350,1276,1285,1333,1229,1185,1161,1158,1141,1103,1068,1045,1055,1023,994,974,966,958,930,920,942,948,946,954,946,943,940,953,957,942,961,976,948,953,959,965,954,953,954,953,960,957,943,958,955,951,954,962,1140,1142,1146,1192,1368,1665,1983,2149,2241,2256,2228,2171,2135,2089,2042,1996,1950,1903,1857,1811,1764,1718,1672,1628,1695,1585,1596,1440,1394,1340,1301,1257,1209,1174,1163,1234,1175,1186,1214,1252,1220,1228,1254,1245,1228,1244,1244,1256,1260,1231,1242,1249,1258,1266,1269,1269,1257,1266,1274,1280,1281,1288,1298,1289,1284,425,426,427,428,430,478,567,659,750,817,825,813,797,780,761,748,728,715,696,683,664,647,631,615,599,583,567,550,534,518,494,486,470,454,438,431,437,430,433,435,439,444,441,445,454,446,441,442,447,448,453,467,456,455,441,444,448,445,446,445,446,445,440,440,444,1103,1077,1100,1106,1207,1516,1533,1677,1709,1732,1762,1733,1705,1700,1649,1666,1780,1566,1538,1461,1455,1465,1426,1395,1348,1384,1312,1266,1241,1201,1200,1175,1158,1132,1095,1101,1122,1094,1139,1135,1134,1142,1136,1139,1146,1145,1149,1143,1147,1143,1150,1152,1160,1161,1158,1168,1150,1162,1158,1156,1158,1175,1147,1153,1145,858,843,908,870,912,993,1164,1278,1323,1396,1371,1355,1361,1315,1282,1262,1264,1237,1259,1161,1203,1130,1169,1120,1079,1032,1037,1010,978,990,934,903,935,869,901,868,855,873,873,907,871,876,914,898,882,893,886,912,905,885,892,898,913,919,911,920,898,904,914,916,928,930,938,935,921,1038,1124,1035,1056,1120,1310,1418,1556,1637,1669,1662,1635,1609,1582,1578,1529,1564,1476,1449,1443,1396,1369,1389,1468,1297,1281,1236,1227,1190,1204,1176,1224,1121,1054,1041,1038,1041,1044,1124,1088,1078,1164,1135,1130,1118,1097,1114,1142,1158,1130,1143,1139,1119,1115,1103,1137,1142,1139,1174,1174,1112,1099,1160,1092,1090,0,0,0,0,0,0,0,0,0,0,0,0,0,0,0,0,0,0,0,0,0,0,0,0,0,0,0,0,0,0,0,0,0,0,0,0,0,0,0,0,0,0,0,0,0,0,0,0,0,0,0,0,0,0,0,0,0,0,0,0,0,0,0,0,0,206,207,207,208,209,215,243,270,298,325,340,335,329,324,319,314,308,303,298,292,287,282,277,271,266,261,255,250,245,240,234,229,224,218,213,209,210,210,196,190,192,192,194,193,194,195,194,194,194,194,195,196,195,196,198,197,198,197,197,197,198,200,200,201,201,959,947,966,1005,1042,1136,1347,1461,1523,1540,1558,1513,1535,1494,1484,1435,1458,1369,1395,1359,1285,1264,1259,1267,1220,1181,1153,1139,1130,1101,1049,1031,1040,978,964,1003,967,976,977,996,988,1015,989,1007,1000,1012,1006,1006,1006,994,1012,1001,1020,1027,1021,1028,1021,1014,1029,1011,1015,1032,1030,1043,1032,840,822,846,870,888,963,1101,1252,1310,1339,1347,1318,1344,1290,1256,1263,1272,1193,1181,1130,1127,1101,1089,1097,1058,1032,994,1009,962,970,915,885,889,869,836,846,839,848,853,843,850,862,856,863,867,879,864,864,875,867,884,886,884,886,860,856,868,868,870,859,864,873,860,873,866,594,596,596,598,621,650,759,847,922,967,981,951,1003,923,915,898,885,875,855,827,825,792,771,775,765,739,745,695,713,697,667,641,636,620,590,586,604,606,583,586,591,603,588,600,593,607,609,593,606,596,600,599,595,603,599,601,601,608,599,602,603,629,626,632,625,602,604,623,654,638,701,793,886,940,1015,1019,1080,987,994,954,938,922,906,889,873,894,841,824,949,769,828,760,722,727,711,695,679,691,646,615,611,630,661,638,652,648,731,683,668,655,647,656,683,663,668,677,663,641,644,657,669,649,647,668,661,660,648,671,649,645,425,426,427,428,430,478,567,659,750,817,825,813,797,780,761,748,728,715,696,683,664,647,631,615,599,583,567,550,534,518,494,486,470,454,438,431,437,430,433,435,439,444,441,445,454,446,441,442,447,448,453,467,456,455,441,444,448,445,446,445,446,445,440,440,444,618,620,621,623,636,724,837,949,1050,1094,1089,1069,1050,1031,1011,992,966,954,937,915,899,972,857,838,818,802,780,760,741,724,702,675,666,644,628,627,623,634,631,632,629,641,646,632,640,640,637,642,647,657,731,733,736,675,661,670,655,659,642,642,656,634,646,641,636,976,1016,1016,1158,1103,1230,1406,1531,1610,1643,1667,1623,1559,1558,1478,1506,1476,1454,1456,1402,1416,1347,1350,1327,1273,1247,1253,1195,1200,1185,1118,1092,1208,1043,1051,1025,1030,1033,1054,1060,1052,1065,1081,1052,1061,1089,1060,1089,1063,1101,1087,1095,1077,1096,1095,1120,1100,1090,1093,1104,1115,1098,1108,1097,1127,818,777,780,823,846,960,1098,1168,1241,1273,1269,1277,1275,1276,1257,1165,1147,1192,1160,1086,1089,1046,1086,1005,985,965,989,953,904,884,865,844,823,803,835,787,802,791,808,805,807,824,813,816,823,824,827,821,817,818,828,830,838,822,827,829,825,848,836,817,841,813,824,817,809,1066,1054,1029,1088,1163,1326,1466,1603,1684,1714,1705,1701,1651,1623,1649,1569,1541,1514,1495,1480,1432,1493,1397,1413,1323,1341,1293,1270,1234,1204,1162,1126,1105,1098,1069,1067,1070,1057,1137,1099,1090,1175,1156,1149,1137,1115,1129,1164,1174,1145,1161,1152,1131,1133,1119,1151,1161,1152,1185,1192,1130,1120,1179,1108,1105,230,230,231,231,232,239,262,284,306,329,339,335,331,319,322,318,313,309,305,300,296,292,287,283,279,274,270,266,261,257,253,248,244,240,235,232,233,233,217,219,219,224,223,224,219,224,217,226,220,223,220,220,227,231,223,222,224,223,224,223,224,226,218,220,218,0,0,0,0,0,0,0,0,0,0,0,0,0,0,0,0,0,0,0,0,0,0,0,0,0,0,0,0,0,0,0,0,0,0,0,0,0,0,0,0,0,0,0,0,0,0,0,0,0,0,0,0,0,0,0,0,0,0,0,0,0,0,0,0,0,913,902,887,928,962,1095,1215,1362,1432,1463,1430,1471,1449,1389,1367,1316,1323,1302,1247,1235,1265,1183,1166,1153,1111,1143,1070,1063,1060,1036,979,995,935,914,928,927,900,893,908,924,905,922,924,934,932,945,928,921,919,928,920,917,920,920,928,928,925,919,920,923,924,943,934,944,924,754,776,761,758,798,875,1001,1142,1226,1241,1241,1231,1222,1181,1173,1134,1147,1103,1073,1073,1058,1019,1013,985,956,953,924,906,886,866,839,827,798,787,770,770,772,766,787,760,771,771,755,778,768,774,772,784,801,781,782,781,777,785,783,783,769,783,804,784,786,776,776,801,797,541,545,544,546,553,605,686,806,880,878,937,875,903,890,847,841,822,817,816,827,788,774,723,717,695,689,666,652,638,623,609,595,580,579,553,549,551,552,546,534,546,556,534,561,548,549,552,547,571,546,544,545,542,561,556,547,542,548,545,547,549,547,545,575,554,539,540,542,544,551,601,681,760,838,884,889,875,861,847,907,818,804,860,776,824,809,733,719,705,691,677,663,649,635,620,606,592,608,564,597,547,548,579,559,557,553,598,580,556,564,578,563,586,617,577,582,565,557,561,564,575,559,557,550,555,553,555,568,561,541,618,620,621,623,636,724,837,949,1050,1094,1089,1069,1050,1031,1011,992,966,954,937,915,899,972,857,838,818,802,780,760,741,724,702,675,666,644,628,627,623,634,631,632,629,641,646,632,640,640,637,642,647,657,731,733,736,675,661,670,655,659,642,642,656,634,646,641,636,1033,1070,1039,1098,1115,1246,1412,1549,1642,1750,1678,1652,1625,1598,1574,1649,1573,1491,1536,1438,1411,1384,1357,1331,1304,1277,1250,1224,1197,1170,1185,1117,1090,1067,1051,1048,1051,1054,1061,1060,1057,1074,1076,1098,1080,1088,1084,1092,1111,1100,1092,1089,1103,1115,1106,1101,1096,1112,1100,1113,1115,1116,1101,1131,1127,736,769,741,777,804,840,893,1087,1160,1201,1298,1234,1153,1188,1128,1158,1157,1068,1033,1030,1011,1031,957,967,935,861,973,822,880,902,876,846,784,793,745,785,780,770,778,772,769,768,801,828,784,792,790,817,802,823,810,817,802,817,800,799,808,793,797,838,816,829,815,816,823,173,174,174,175,176,181,204,228,251,274,288,283,279,274,270,265,261,256,252,247,243,238,234,229,225,220,216,211,207,202,198,193,189,184,179,176,176,177,164,163,163,164,163,169,165,174,177,165,172,163,166,166,164,169,165,165,165,171,164,166,165,166,164,169,166,1218,1199,1221,1269,1373,1542,1907,1842,1922,1949,1932,1897,2192,1835,1808,1773,1743,1772,1681,1670,1620,1605,1607,1526,1514,1483,1484,1404,1389,1388,1431,1280,1251,1228,1215,1213,1225,1220,1275,1279,1329,1585,1342,1280,1328,1433,1359,1300,1410,1373,1318,1327,1403,1392,1365,1276,1313,1314,1356,1358,1290,1342,1303,1307,1311,856,810,812,819,875,950,1095,1192,1364,1400,1392,1311,1293,1249,1249,1241,1228,1176,1160,1148,1150,1089,1089,1068,1026,1032,1049,974,967,938,918,925,851,853,823,836,822,818,844,833,843,848,838,859,851,853,847,859,882,862,859,864,879,866,852,869,878,877,871,862,873,844,899,854,835,853,823,815,864,857,977,1077,1201,1344,1351,1373,1353,1320,1259,1253,1217,1196,1213,1215,1133,1112,1114,1106,1049,1028,1007,1037,1003,955,934,902,916,894,839,826,823,825,827,832,830,838,883,858,866,851,831,853,861,871,850,874,875,900,881,885,864,848,847,843,846,846,848,840,882,835,0,0,0,0,0,0,0,0,0,0,0,0,0,0,0,0,0,0,0,0,0,0,0,0,0,0,0,0,0,0,0,0,0,0,0,0,0,0,0,0,0,0,0,0,0,0,0,0,0,0,0,0,0,0,0,0,0,0,0,0,0,0,0,0,0,110,110,111,111,111,114,128,143,158,172,183,181,178,175,172,169,166,163,160,158,155,152,149,146,143,140,137,134,132,129,126,123,120,117,114,112,112,112,97,97,98,100,100,100,100,100,100,101,100,101,102,108,104,101,98,101,100,98,98,102,100,98,97,101,98,323,324,325,326,327,348,395,441,488,531,540,531,522,514,505,500,488,479,471,462,453,445,436,427,419,410,402,393,387,376,370,358,350,341,333,328,329,330,318,324,322,328,325,340,326,343,342,326,348,326,328,328,327,338,326,327,330,334,327,326,325,334,324,335,325,411,409,414,415,417,448,502,567,628,694,680,671,659,648,642,629,618,624,595,584,573,557,546,544,530,522,508,497,489,476,465,454,443,433,421,418,415,420,406,406,409,412,415,414,419,411,412,417,416,411,418,417,415,414,429,420,418,419,417,415,423,420,419,422,418,1033,1070,1039,1098,1115,1246,1412,1549,1642,1750,1678,1652,1625,1598,1574,1649,1573,1491,1536,1438,1411,1384,1357,1331,1304,1277,1250,1224,1197,1170,1185,1117,1090,1067,1051,1048,1051,1054,1061,1060,1057,1074,1076,1098,1080,1088,1084,1092,1111,1100,1092,1089,1103,1115,1106,1101,1096,1112,1100,1113,1115,1116,1101,1131,1127,925,928,931,941,988,1165,1284,1368,1461,1516,1510,1486,1462,1438,1473,1455,1366,1342,1318,1294,1270,1246,1222,1198,1174,1149,1125,1181,1077,1097,1029,1005,981,959,944,939,942,944,974,958,960,957,991,1027,977,993,992,1022,1008,1034,1035,1028,1001,1036,999,993,1006,994,1013,1078,1052,1073,1052,1031,1043,794,838,800,802,881,1026,998,1171,1195,1372,1291,1285,1253,1228,1202,1210,1238,1196,1193,1122,1152,1125,1060,1038,1057,1035,934,994,996,916,899,907,897,865,817,867,849,830,835,829,840,928,845,859,832,844,845,851,867,848,853,844,837,856,868,851,839,847,848,851,848,840,850,869,840,154,154,155,155,155,160,180,201,221,242,255,251,247,243,239,235,231,227,223,219,215,211,207,203,199,195,191,187,183,179,175,171,167,163,159,156,156,157,147,146,146,148,147,148,148,150,148,148,147,148,147,152,149,152,148,147,148,148,148,150,148,148,147,148,148,1222,1182,1293,1258,1348,1490,1834,1813,2009,1914,1902,1895,1925,1810,1779,1751,1781,1711,1701,1627,1597,1563,1538,1506,1502,1445,1439,1440,1355,1431,1310,1306,1276,1211,1199,1207,1211,1200,1260,1303,1266,1267,1297,1269,1285,1290,1289,1289,1300,1289,1299,1291,1295,1298,1307,1306,1307,1307,1332,1287,1307,1312,1333,1309,1303,712,723,721,718,730,837,906,1015,1099,1138,1137,1159,1104,1096,1096,1051,1032,1016,998,1010,961,949,928,935,914,880,883,865,845,826,787,782,783,763,715,723,712,722,739,730,724,743,733,732,735,747,733,740,733,730,740,737,747,739,749,740,755,744,744,730,743,749,746,749,751,703,724,718,710,732,823,930,1022,1110,1150,1151,1149,1158,1108,1078,1060,1042,1023,1005,1000,968,950,932,914,895,929,859,841,822,804,786,768,796,748,752,714,726,728,735,731,735,738,740,735,744,735,739,743,747,737,747,751,749,749,763,753,740,743,741,747,740,751,747,749,745,299,300,252,253,254,265,300,335,370,405,418,412,405,398,411,385,378,372,435,358,352,345,339,332,325,380,312,364,299,292,299,279,272,265,259,254,288,289,258,257,255,258,265,262,264,262,264,263,263,277,287,273,270,269,274,262,266,279,302,278,271,272,277,289,272,0,0,0,0,0,0,0,0,0,0,0,0,0,0,0,0,0,0,0,0,0,0,0,0,0,0,0,0,0,0,0,0,0,0,0,0,0,0,0,0,0,0,0,0,0,0,0,0,0,0,0,0,0,0,0,0,0,0,0,0,0,0,0,0,0,217,218,218,219,220,229,259,289,320,350,424,358,352,346,340,335,329,323,317,311,306,300,294,288,282,277,271,265,259,253,247,242,236,230,224,220,221,221,200,200,201,201,202,202,203,203,203,204,204,205,205,207,207,207,208,208,209,209,210,210,210,211,211,212,212,304,305,306,307,308,325,363,410,453,494,505,497,489,481,473,465,457,449,441,433,425,417,409,396,393,385,377,369,361,353,341,337,329,335,313,309,306,307,295,297,295,304,295,299,296,301,297,300,300,299,302,300,303,302,301,302,305,302,304,299,302,305,304,305,305,925,928,931,941,988,1165,1284,1368,1461,1516,1510,1486,1462,1438,1473,1455,1366,1342,1318,1294,1270,1246,1222,1198,1174,1149,1125,1181,1077,1097,1029,1005,981,959,944,939,942,944,974,958,960,957,991,1027,977,993,992,1022,1008,1034,1035,1028,1001,1036,999,993,1006,994,1013,1078,1052,1073,1052,1031,1043,855,857,860,876,921,1025,1157,1291,1377,1430,1435,1386,1364,1363,1319,1297,1293,1289,1229,1207,1194,1162,1140,1117,1095,1072,1050,1033,1005,983,958,938,912,894,871,871,876,882,890,866,863,867,891,898,886,888,901,917,908,937,938,939,908,914,927,920,936,924,953,1003,952,953,967,950,957,835,862,837,858,881,962,1083,1290,1298,1408,1396,1331,1235,1313,1308,1286,1208,1242,1113,1146,1139,1071,1132,1084,1087,1020,1011,1025,957,933,926,906,908,851,880,839,839,857,883,847,854,848,879,909,869,870,870,888,923,892,899,908,906,909,868,879,890,906,906,912,884,893,912,878,890,367,368,369,370,371,397,481,501,554,599,608,599,589,579,570,560,550,541,531,521,512,502,492,483,473,464,454,444,435,425,489,406,396,386,377,372,373,374,364,365,365,365,366,366,370,369,371,371,370,372,372,373,374,376,377,379,377,378,378,379,383,381,381,380,381,1178,1197,1209,1247,1427,1488,1680,1906,1957,2050,1928,1871,1840,1810,1779,1774,1777,1688,1658,1627,1597,1566,1605,1613,1475,1577,1414,1455,1422,1406,1293,1262,1232,1247,1198,1196,1285,1202,1281,1283,1269,1277,1258,1275,1267,1268,1291,1345,1279,1297,1298,1295,1291,1318,1312,1285,1279,1277,1288,1296,1283,1295,1303,1292,1291,488,490,491,493,486,541,597,719,780,810,808,823,781,796,755,742,730,720,735,695,683,690,658,646,634,613,590,577,563,551,549,545,542,510,532,495,512,550,498,510,507,510,509,506,514,515,511,517,504,509,506,514,518,524,523,525,509,506,518,519,519,521,513,515,509,520,521,523,525,530,577,653,729,804,850,856,842,829,815,802,788,775,761,748,734,734,707,693,680,666,653,651,626,612,599,585,571,568,544,532,528,529,531,519,527,527,522,523,519,530,529,529,524,523,524,529,526,531,525,532,536,524,523,527,529,529,532,522,527,523,525,496,497,528,504,543,632,682,781,782,782,800,763,754,743,765,723,768,755,701,696,674,667,686,672,633,643,597,578,603,557,586,545,548,502,493,494,505,517,511,518,511,524,525,517,525,522,557,525,517,526,526,523,532,527,525,517,532,518,533,523,522,517,527,537,369,370,372,373,380,395,450,495,552,573,577,599,564,567,551,562,538,539,529,526,510,506,494,487,480,462,474,445,433,424,418,412,399,389,376,367,367,377,364,366,366,364,368,373,397,377,374,376,378,373,371,373,377,397,378,380,379,372,385,380,373,383,374,434,379,0,0,0,0,0,0,0,0,0,0,0,0,0,0,0,0,0,0,0,0,0,0,0,0,0,0,0,0,0,0,0,0,0,0,0,0,0,0,0,0,0,0,0,0,0,0,0,0,0,0,0,0,0,0,0,0,0,0,0,0,0,0,0,0,0,250,251,251,252,253,264,299,333,368,402,415,408,402,395,389,382,376,369,363,356,350,343,336,330,323,317,310,304,297,291,284,277,271,264,258,254,254,255,240,245,249,256,250,253,246,254,243,261,247,246,253,249,261,271,255,251,255,251,255,250,256,263,247,250,245,855,857,860,876,921,1025,1157,1291,1377,1430,1435,1386,1364,1363,1319,1297,1293,1289,1229,1207,1194,1162,1140,1117,1095,1072,1050,1033,1005,983,958,938,912,894,871,871,876,882,890,866,863,867,891,898,886,888,901,917,908,937,938,939,908,914,927,920,936,924,953,1003,952,953,967,950,957,831,833,835,839,889,1024,1208,1354,1462,1495,1486,1459,1421,1405,1381,1350,1323,1296,1269,1232,1214,1190,1160,1161,1097,1078,1051,1024,997,969,1020,915,888,861,846,846,850,857,893,846,851,852,850,875,854,868,859,888,883,869,862,867,870,884,901,876,866,878,869,879,881,875,878,905,881,697,769,711,712,687,850,913,1085,1111,1152,1136,1183,1116,1079,1076,1113,1029,1024,1056,1016,997,943,974,956,895,918,904,832,861,801,823,808,704,766,721,749,717,713,722,739,736,731,735,736,732,736,733,760,758,756,772,749,755,739,776,754,748,770,844,787,770,749,785,778,771,384,375,383,388,378,417,472,527,581,627,630,624,616,604,596,586,569,563,556,542,536,526,515,505,495,485,475,465,454,443,435,420,414,402,394,390,389,392,381,385,377,385,383,384,393,399,381,384,385,394,389,381,381,386,387,386,384,386,378,381,377,383,384,380,372,1044,1056,1060,1084,1140,1359,1446,1583,1663,1693,1694,1658,1631,1604,1577,1663,1544,1495,1469,1442,1415,1388,1442,1353,1307,1298,1271,1226,1199,1172,1161,1118,1107,1084,1056,1053,1072,1075,1080,1067,1066,1076,1179,1156,1114,1139,1112,1207,1159,1142,1156,1103,1111,1157,1153,1106,1175,1135,1118,1176,1147,1199,1183,1202,1156,504,493,507,508,501,546,618,709,784,798,803,791,779,767,754,742,730,761,735,716,686,673,660,647,632,621,608,608,583,568,555,560,546,542,520,500,518,519,511,515,517,514,524,521,531,517,522,518,522,521,523,524,529,533,533,545,529,537,530,518,527,518,536,532,518,495,497,498,500,504,548,619,691,763,809,816,803,790,777,780,752,739,726,713,700,687,674,661,648,635,623,610,597,584,571,558,545,532,530,507,503,504,506,499,493,503,515,513,511,498,501,506,527,509,509,514,552,572,563,554,519,511,518,513,509,504,522,507,531,501,445,447,468,480,469,504,567,664,701,764,767,739,746,718,698,697,675,657,645,633,621,620,607,596,585,573,551,537,539,528,504,487,510,468,457,483,454,485,450,450,454,457,460,457,463,457,457,462,461,456,461,461,458,457,472,467,463,463,462,460,467,465,463,467,463,321,322,325,324,325,344,390,435,480,533,528,522,526,515,500,491,475,480,466,454,449,440,440,423,415,406,398,387,381,370,364,351,347,342,330,326,325,327,312,312,311,310,315,316,318,315,316,318,315,317,318,320,320,314,316,320,326,337,326,316,341,317,318,319,317,287,288,289,290,291,307,347,388,429,469,480,472,458,457,446,442,434,426,419,411,403,396,388,377,380,365,357,350,342,334,324,319,311,304,296,291,303,304,280,282,279,289,280,287,282,287,285,287,285,284,286,285,286,285,285,285,289,286,286,280,287,289,287,289,287,0,0,0,0,0,0,0,0,0,0,0,0,0,0,0,0,0,0,0,0,0,0,0,0,0,0,0,0,0,0,0,0,0,0,0,0,0,0,0,0,0,0,0,0,0,0,0,0,0,0,0,0,0,0,0,0,0,0,0,0,0,0,0,0,0,831,833,835,839,889,1024,1208,1354,1462,1495,1486,1459,1421,1405,1381,1350,1323,1296,1269,1232,1214,1190,1160,1161,1097,1078,1051,1024,997,969,1020,915,888,861,846,846,850,857,893,846,851,852,850,875,854,868,859,888,883,869,862,867,870,884,901,876,866,878,869,879,881,875,878,905,881,0,0,0,0,0,0,0,0,0,0,0,0,0,0,0,0,0,0,0,0,0,0,0,0,0,0,0,0,0,0,0,0,0,0,0,0,0,0,0,0,0,0,0,0,0,0,0,0,0,0,0,0,0,0,0,0,0,0,0,0,0,0,0,0,0,1395,1497,1459,1534,1663,1877,2133,2328,2349,2427,2356,2312,2276,2282,2217,2178,2115,2025,2126,1994,1997,1956,1901,1865,1792,1777,1777,1672,1600,1711,1668,1510,1505,1433,1434,1394,1443,1493,1528,1537,1563,1585,1601,1583,1574,1579,1567,1577,1556,1545,1562,1571,1566,1568,1596,1586,1556,1558,1571,1567,1565,1580,1602,1606,1572,923,894,897,905,980,1042,1180,1313,1415,1463,1458,1435,1460,1388,1365,1342,1319,1295,1406,1249,1226,1202,1179,1156,1133,1109,1086,1091,1040,1016,993,970,972,925,909,905,907,910,904,902,906,912,913,913,922,917,921,925,917,923,951,923,924,921,931,935,932,936,937,934,950,937,931,942,935,1377,1391,1407,1474,1597,1867,2038,2201,2303,2441,2354,2272,2295,2170,2187,2171,2051,2040,2018,2053,1893,2008,1964,1792,1844,1695,1665,1616,1576,1603,1497,1506,1470,1396,1379,1378,1434,1405,1490,1493,1481,1491,1503,1510,1509,1509,1499,1507,1499,1504,1513,1496,1498,1498,1501,1514,1493,1507,1487,1497,1496,1513,1503,1494,1476,548,554,572,552,565,635,747,867,965,1019,1020,1001,981,962,975,956,905,892,866,876,828,830,789,770,751,731,723,693,674,654,635,616,628,582,581,556,569,595,577,577,575,586,588,579,584,585,583,587,594,603,678,677,685,613,584,592,600,603,587,586,607,579,583,587,582,595,625,598,599,641,691,810,967,1036,1090,1126,1069,1085,1064,1044,988,968,948,928,908,887,900,847,827,807,786,777,746,726,706,716,665,654,625,607,633,617,620,614,614,615,626,628,619,625,623,623,628,637,639,717,710,722,652,630,628,636,633,628,628,637,628,628,632,629,1198,1061,1065,1090,1203,1283,1454,1589,1687,1729,1769,1703,1724,1638,1609,1582,1555,1527,1539,1473,1446,1426,1391,1362,1351,1307,1280,1282,1225,1198,1170,1143,1147,1093,1090,1074,1077,1079,1089,1131,1093,1100,1115,1100,1107,1114,1116,1113,1128,1107,1119,1115,1118,1120,1129,1135,1131,1129,1158,1113,1136,1147,1166,1143,1135,1002,954,957,1001,1055,1127,1276,1412,1513,1559,1552,1528,1579,1478,1453,1428,1404,1379,1394,1329,1304,1280,1255,1230,1205,1215,1156,1159,1106,1081,1087,1062,1032,985,969,965,968,1000,1037,1019,998,1008,1001,1020,1013,1027,1031,1095,1023,1075,1068,1077,1029,1099,1083,1024,1023,1019,1061,1097,1069,1092,1081,1080,1062,819,821,824,866,869,993,1094,1220,1305,1343,1394,1417,1302,1276,1255,1251,1212,1191,1193,1148,1178,1105,1083,1111,1049,1019,998,996,955,933,912,909,869,848,835,831,834,836,830,846,840,860,928,890,870,905,856,932,881,917,884,869,878,907,927,905,911,890,871,888,877,916,899,886,866,935,938,940,987,1051,1150,1391,1563,1602,1640,1635,1663,1580,1554,1519,1519,1476,1471,1424,1398,1390,1360,1287,1302,1229,1200,1181,1142,1113,1144,1055,1026,1006,970,986,950,1024,1027,989,991,1034,1303,1045,980,1026,1121,1062,1001,1100,1075,1021,1029,1106,1087,1080,991,1023,1017,1063,1061,1009,1043,1019,1021,1036,0,0,0,0,0,0,0,0,0,0,0,0,0,0,0,0,0,0,0,0,0,0,0,0,0,0,0,0,0,0,0,0,0,0,0,0,0,0,0,0,0,0,0,0,0,0,0,0,0,0,0,0,0,0,0,0,0,0,0,0,0,0,0,0,0 ]);
