n = 10;
D = [186,230,262,77,163,112,166,191,152,87 ];
q = 0;
prec = array2d(1..0,1..2,[]);
steps = 64;
l = 360;
r = 0;
which = [];
interval = array2d(1..0,1..2,[]);
T = array3d(1..11,1..11,0..64,[0,0,0,0,0,0,0,0,0,0,0,0,0,0,0,0,0,0,0,0,0,0,0,0,0,0,0,0,0,0,0,0,0,0,0,0,0,0,0,0,0,0,0,0,0,0,0,0,0,0,0,0,0,0,0,0,0,0,0,0,0,0,0,0,0,276,276,277,278,279,445,504,562,621,675,690,678,667,656,645,634,624,612,601,590,579,568,558,546,535,524,513,502,492,480,469,458,447,436,381,280,376,377,271,267,272,276,269,276,273,279,272,273,276,272,273,272,272,276,274,276,272,273,272,272,274,276,274,278,276,832,858,848,862,907,1402,1786,1964,2007,2044,2018,1987,1950,1940,1934,1858,1892,1832,1809,1730,1698,1666,1645,1664,1570,1538,1520,1478,1447,1172,960,900,886,881,848,844,838,848,845,847,859,853,853,858,859,857,857,853,859,858,853,857,864,863,863,867,860,862,859,857,860,858,867,867,861,780,804,796,808,847,1332,1660,1839,1884,1924,1899,1869,1839,1827,1822,1748,1779,1777,1699,1628,1598,1567,1552,1564,1477,1447,1430,1386,1356,1219,864,844,883,829,795,792,794,799,792,793,805,802,800,803,806,803,806,799,804,808,805,806,811,812,811,811,808,813,804,804,810,809,815,811,805,823,825,829,831,897,1387,1668,1863,1963,2002,1995,1964,1931,1892,1869,1843,1802,1774,1741,1711,1681,1647,1616,1584,1564,1521,1500,1311,1282,1172,906,884,879,896,838,836,842,815,789,793,795,805,797,809,803,823,801,798,806,804,795,800,804,810,804,842,808,806,802,806,804,831,799,841,822,1081,1064,1074,1097,1327,1986,2355,2509,2554,2594,2632,2526,2485,2461,2407,2377,2309,2297,2238,2197,2173,2112,2050,2015,1879,1805,1777,1594,1434,1192,1173,1175,1142,1164,1090,1084,1086,1104,1083,1083,1104,1101,1102,1099,1093,1112,1102,1093,1097,1101,1087,1095,1097,1105,1102,1101,1099,1097,1101,1111,1108,1103,1094,1101,1093,650,656,652,660,690,1104,1292,1451,1552,1614,1615,1586,1563,1531,1509,1483,1457,1429,1414,1356,1345,1314,1309,1256,1257,1203,1188,1180,1148,995,969,824,724,707,677,662,668,621,615,612,618,620,619,621,619,621,622,617,623,621,618,619,624,625,626,631,621,626,624,620,623,622,628,627,621,770,768,774,783,852,1477,1736,1944,2059,2090,2076,2030,1999,1958,1922,1880,1845,1807,1761,1729,1688,1652,1608,1575,1537,1498,1462,1416,1382,1328,968,844,819,792,783,784,789,794,795,790,790,796,822,800,809,815,812,824,822,811,819,812,819,816,852,819,823,825,828,812,824,865,870,824,821,606,628,610,632,636,990,1246,1407,1441,1489,1490,1490,1492,1419,1440,1412,1410,1419,1365,1314,1252,1230,1266,1216,1158,1134,1111,1087,1063,1039,838,819,798,648,619,616,617,640,627,620,629,628,644,636,634,638,638,643,648,641,639,644,640,658,644,640,641,641,632,637,634,642,640,645,633,536,540,541,543,546,904,999,1114,1154,1224,1251,1231,1222,1184,1190,1128,1134,1120,1105,1106,1099,1077,1070,1015,1023,993,990,946,931,940,904,883,624,568,548,548,547,548,538,533,542,547,533,549,535,547,540,545,554,550,537,541,543,555,542,547,554,553,545,548,541,551,554,547,538,0,0,0,0,0,0,0,0,0,0,0,0,0,0,0,0,0,0,0,0,0,0,0,0,0,0,0,0,0,0,0,0,0,0,0,0,0,0,0,0,0,0,0,0,0,0,0,0,0,0,0,0,0,0,0,0,0,0,0,0,0,0,0,0,0,297,298,299,300,300,482,546,610,674,730,742,730,718,706,696,684,672,660,648,636,624,612,601,589,577,565,553,541,529,517,505,494,482,313,305,301,302,303,295,292,295,302,304,297,295,298,302,297,303,299,296,300,308,336,309,302,301,304,301,298,297,300,302,300,297,0,0,0,0,0,0,0,0,0,0,0,0,0,0,0,0,0,0,0,0,0,0,0,0,0,0,0,0,0,0,0,0,0,0,0,0,0,0,0,0,0,0,0,0,0,0,0,0,0,0,0,0,0,0,0,0,0,0,0,0,0,0,0,0,0,645,648,654,650,672,946,1236,1419,1506,1599,1620,1598,1571,1546,1518,1495,1467,1442,1420,1356,1364,1337,1298,1266,1268,1241,1215,1188,1141,1098,952,808,740,733,678,645,677,651,615,622,628,629,628,633,635,629,629,631,635,632,629,631,628,636,631,631,630,629,625,629,629,634,629,636,631,607,603,616,618,620,855,1165,1288,1432,1494,1502,1479,1424,1405,1396,1358,1331,1335,1292,1287,1245,1237,1219,1197,1149,1130,1120,1084,989,1035,913,725,645,641,624,622,624,597,562,569,574,575,576,576,585,575,577,578,580,581,579,583,577,583,579,574,581,577,569,578,579,584,580,581,575,590,593,593,596,602,743,1119,1248,1379,1439,1443,1432,1399,1375,1352,1329,1305,1284,1260,1237,1215,1200,1170,1146,1123,1101,1077,1054,924,846,812,643,627,624,601,603,605,580,557,553,554,557,562,560,566,582,566,562,567,562,561,566,562,571,566,564,587,565,562,561,563,567,590,569,581,848,831,840,861,863,1236,1696,1935,2013,2098,2030,2019,1963,1930,1919,1905,1833,1838,1780,1794,1704,1683,1642,1651,1555,1519,1361,1333,1234,1033,981,968,875,894,847,881,866,855,846,847,844,865,858,865,856,869,855,867,862,853,858,858,857,864,861,862,858,856,853,860,868,870,854,864,852,447,449,452,452,456,537,822,918,1017,1093,1101,1092,1066,1058,1029,1022,1005,980,970,945,927,910,892,876,859,841,832,813,789,771,709,619,576,467,456,465,456,419,385,388,387,393,395,394,398,393,393,396,399,394,392,396,390,396,394,394,394,390,389,394,392,397,393,397,391,736,738,740,748,768,1273,1468,1602,1704,1936,1776,1773,1708,1692,1653,1790,1760,1602,1573,1513,1646,1486,1429,1429,1381,1372,1344,1315,1148,1210,947,935,781,748,752,732,726,718,725,737,737,741,747,758,748,754,735,754,743,761,742,747,776,831,758,850,753,772,780,748,748,740,749,753,735,464,466,468,476,483,658,863,962,1062,1150,1138,1158,1131,1119,1086,1076,1057,1031,1030,999,982,954,952,908,908,892,862,853,834,816,729,706,506,552,483,480,487,483,444,447,445,449,448,449,447,449,445,449,445,445,448,449,449,452,449,449,449,449,452,449,449,452,447,449,447,346,347,403,349,440,505,615,673,730,876,859,873,766,802,745,730,787,712,702,691,680,669,658,648,675,627,616,606,595,584,639,544,552,360,353,341,400,359,356,349,349,351,356,353,356,351,357,356,356,352,389,357,358,353,352,360,355,401,352,352,360,357,355,352,350,297,298,299,300,300,482,546,610,674,730,742,730,718,706,696,684,672,660,648,636,624,612,601,589,577,565,553,541,529,517,505,494,482,313,305,301,302,303,295,292,295,302,304,297,295,298,302,297,303,299,296,300,308,336,309,302,301,304,301,298,297,300,302,300,297,1029,1024,1035,1048,1107,1553,2160,2342,2448,2481,2460,2399,2374,2324,2306,2266,2227,2175,2148,2092,2089,2027,1981,1948,1897,1861,1832,1580,1405,1139,1141,1098,1070,1044,1040,1032,1035,992,947,956,962,972,967,978,966,971,969,1001,977,998,974,977,1002,998,984,978,981,981,979,979,981,983,968,971,969,804,807,815,834,872,1114,1632,1789,1933,1988,1972,1929,1897,1891,1845,1812,1787,1738,1723,1690,1660,1624,1604,1565,1513,1506,1470,1404,1261,1061,1060,937,868,862,829,821,817,753,706,717,715,725,732,724,722,739,719,756,728,748,724,730,758,752,733,731,744,737,737,734,734,732,724,727,725,0,0,0,0,0,0,0,0,0,0,0,0,0,0,0,0,0,0,0,0,0,0,0,0,0,0,0,0,0,0,0,0,0,0,0,0,0,0,0,0,0,0,0,0,0,0,0,0,0,0,0,0,0,0,0,0,0,0,0,0,0,0,0,0,0,228,228,229,230,231,364,414,462,511,559,574,565,555,547,537,528,519,510,500,492,482,472,464,454,445,436,427,417,409,399,390,381,372,362,236,232,232,233,221,227,225,232,231,233,227,237,224,263,231,266,228,231,266,269,235,233,235,236,236,233,233,236,227,229,227,543,545,547,548,570,747,1045,1151,1269,1329,1332,1311,1290,1269,1248,1227,1206,1185,1164,1143,1122,1101,1080,1058,1038,1016,996,974,954,932,912,619,606,565,580,552,552,534,524,525,526,531,532,535,530,532,532,550,535,535,536,538,544,564,544,544,553,542,545,547,549,567,544,546,543,756,748,755,768,887,1350,1540,1694,1860,1902,1827,1798,1770,1753,1711,1682,1642,1624,1594,1555,1526,1516,1479,1450,1411,1382,1353,1334,1275,1248,1089,812,798,871,764,761,764,766,786,790,754,752,795,779,776,781,779,792,818,788,803,813,817,798,799,808,809,822,816,809,798,809,816,811,788,402,403,405,406,407,569,756,838,921,986,995,979,963,947,931,916,900,885,868,854,837,821,806,790,773,758,743,726,660,648,633,595,447,430,420,408,409,395,353,359,357,364,364,366,360,371,359,387,366,387,363,366,390,391,370,369,372,373,373,371,371,374,364,366,364,1346,1351,1404,1534,2097,2660,3241,3343,3391,3406,3373,3309,3267,3191,3123,3064,3003,2953,2886,2821,2761,2610,2255,2125,2074,1762,1605,1592,1559,1503,1454,1427,1414,1397,1376,1372,1379,1393,1408,1413,1412,1426,1413,1418,1428,1412,1424,1426,1427,1428,1428,1434,1442,1450,1435,1437,1433,1436,1419,1417,1418,1431,1426,1420,1402,447,448,486,462,458,750,864,987,1045,1158,1122,1089,1126,1054,1036,1018,1002,1034,1015,961,979,942,916,922,880,843,862,807,814,749,772,677,480,479,491,454,455,456,464,470,455,471,472,469,473,474,473,469,474,476,475,468,461,469,469,474,469,467,461,465,461,467,473,468,450,1036,1055,1062,1083,1184,1533,2248,2396,2509,2550,2530,2459,2426,2406,2363,2334,2291,2216,2181,2166,2129,2067,2056,2010,1969,1786,1734,1602,1377,1305,1244,1139,1098,1106,1058,1062,1029,1018,979,980,984,1001,998,998,994,1000,991,1021,1000,1019,994,1000,1023,1022,1003,1003,1008,1007,1006,1003,1004,1005,992,995,993,1029,1024,1035,1048,1107,1553,2160,2342,2448,2481,2460,2399,2374,2324,2306,2266,2227,2175,2148,2092,2089,2027,1981,1948,1897,1861,1832,1580,1405,1139,1141,1098,1070,1044,1040,1032,1035,992,947,956,962,972,967,978,966,971,969,1001,977,998,974,977,1002,998,984,978,981,981,979,979,981,983,968,971,969,807,800,808,818,827,1176,1581,1769,1902,1970,1922,1936,1896,1878,1840,1813,1780,1734,1699,1671,1633,1618,1555,1555,1494,1452,1461,1437,1205,1102,967,945,832,813,828,820,817,817,729,725,730,737,741,736,745,740,735,745,749,746,745,747,746,747,742,750,746,745,745,745,746,748,745,742,742,592,595,596,601,607,850,1102,1258,1377,1459,1459,1434,1419,1399,1363,1341,1326,1304,1270,1257,1232,1208,1179,1157,1132,1116,1080,1062,990,904,845,720,639,627,616,608,610,579,490,484,491,490,494,501,491,496,503,495,504,497,495,497,499,503,496,499,499,508,501,503,501,501,494,498,498,89,89,90,90,90,92,153,170,186,202,216,212,210,206,202,200,196,193,190,187,183,181,177,174,171,168,164,162,158,154,152,99,96,95,92,91,91,91,77,80,78,80,194,153,88,96,90,195,95,88,157,82,84,96,90,82,166,83,81,154,96,186,157,98,92,0,0,0,0,0,0,0,0,0,0,0,0,0,0,0,0,0,0,0,0,0,0,0,0,0,0,0,0,0,0,0,0,0,0,0,0,0,0,0,0,0,0,0,0,0,0,0,0,0,0,0,0,0,0,0,0,0,0,0,0,0,0,0,0,0,376,376,377,379,381,646,696,775,859,915,925,910,896,882,867,853,837,823,808,794,780,765,751,736,722,708,692,678,663,649,634,620,561,394,384,381,382,383,354,354,352,353,358,359,358,360,360,378,358,356,358,358,358,355,360,380,359,360,354,359,359,360,359,381,359,752,750,764,756,807,1280,1525,1618,1795,1871,1830,1835,1777,1742,1716,1681,1678,1656,1597,1594,1537,1545,1515,1484,1358,1384,1215,1150,1128,896,1068,883,853,773,774,771,779,764,742,746,751,754,752,753,751,753,756,776,755,751,750,754,757,760,760,776,755,761,755,756,755,752,751,776,754,174,175,176,176,176,273,308,342,376,410,427,421,414,408,400,394,388,381,375,368,362,355,349,342,336,328,322,316,309,303,296,290,283,277,270,176,177,178,132,132,132,132,133,133,133,134,135,135,135,135,135,135,135,135,135,136,137,137,137,138,138,138,137,137,137,1180,1181,1184,1241,1438,2167,2750,2956,3003,3018,2984,2932,2896,2824,2785,2715,2677,2630,2551,2541,2461,2404,2334,2249,2122,1930,1769,1654,1594,1313,1289,1266,1226,1199,1200,1206,1201,1205,1186,1186,1191,1200,1198,1200,1201,1199,1198,1201,1203,1203,1200,1201,1203,1202,1200,1203,1205,1206,1205,1206,1204,1205,1201,1200,1200,309,310,312,312,313,337,568,634,702,758,844,762,750,733,721,709,697,685,673,660,712,636,624,612,598,586,574,562,608,554,350,529,334,326,318,314,315,316,312,312,311,316,335,336,333,343,332,336,341,329,333,317,324,346,333,320,337,322,320,336,337,338,334,346,336,832,841,848,860,894,1337,1674,1878,2000,2070,2031,2022,1968,1966,1903,1897,1869,1807,1773,1743,1712,1677,1652,1644,1584,1553,1426,1334,1280,1197,937,908,895,866,853,865,853,818,760,752,757,767,764,766,767,765,764,767,769,769,766,767,769,768,766,769,771,772,771,772,770,771,767,766,766,807,800,808,818,827,1176,1581,1769,1902,1970,1922,1936,1896,1878,1840,1813,1780,1734,1699,1671,1633,1618,1555,1555,1494,1452,1461,1437,1205,1102,967,945,832,813,828,820,817,817,729,725,730,737,741,736,745,740,735,745,749,746,745,747,746,747,742,750,746,745,745,745,746,748,745,742,742,831,825,829,839,855,1300,1698,1876,1998,2036,2030,2001,1946,1912,1900,1869,1835,1802,1768,1736,1684,1668,1636,1602,1569,1536,1502,1470,1238,1204,1083,1004,877,859,847,845,857,843,794,789,798,805,809,842,807,834,824,831,837,817,829,814,812,828,821,810,824,810,805,823,821,829,823,825,810,616,618,621,623,625,860,1187,1353,1455,1517,1501,1476,1470,1450,1408,1403,1376,1350,1328,1301,1262,1254,1228,1203,1180,1154,1130,1091,1065,974,888,762,700,648,632,626,627,604,555,550,553,555,580,590,564,600,574,585,588,569,579,568,570,581,569,562,589,567,561,582,576,582,579,586,572,508,509,506,512,532,831,963,1075,1178,1231,1237,1216,1208,1178,1168,1138,1119,1156,1080,1070,1041,1022,1011,1034,1014,944,932,910,872,819,813,731,727,555,533,516,516,513,504,503,506,518,508,515,506,510,516,511,508,508,506,511,508,505,511,515,512,512,510,511,516,530,531,538,516,432,433,434,436,440,683,814,909,1003,1058,1066,1050,1033,1016,999,982,966,970,932,915,898,882,864,868,850,813,796,786,719,710,728,635,632,463,442,438,440,440,436,436,435,436,432,444,440,444,437,438,441,442,437,441,440,436,442,447,444,443,440,443,445,464,462,461,442,0,0,0,0,0,0,0,0,0,0,0,0,0,0,0,0,0,0,0,0,0,0,0,0,0,0,0,0,0,0,0,0,0,0,0,0,0,0,0,0,0,0,0,0,0,0,0,0,0,0,0,0,0,0,0,0,0,0,0,0,0,0,0,0,0,396,397,398,400,403,635,741,829,915,974,984,968,952,937,921,906,890,874,859,842,826,811,795,780,764,748,733,717,702,686,670,655,639,623,603,402,403,574,388,392,399,526,394,402,393,526,393,396,398,395,392,396,399,533,400,400,396,396,401,400,396,402,392,400,395,454,459,461,462,463,651,864,959,1052,1120,1129,1109,1103,1074,1056,1039,1024,1005,984,968,946,932,914,898,878,860,841,821,806,792,773,692,647,488,480,465,477,436,388,379,383,386,382,405,384,407,395,401,406,391,392,397,391,397,392,392,392,396,388,393,390,393,389,398,389,1125,1128,1130,1165,1270,2106,2449,2663,2820,2857,2836,2786,2738,2683,2633,2583,2532,2481,2430,2389,2341,2279,2240,2191,2107,2042,1847,1572,1462,1303,1320,1238,1189,1170,1146,1121,1116,1121,1094,1096,1102,1117,1107,1102,1120,1135,1111,1118,1120,1111,1149,1126,1159,1152,1131,1154,1126,1130,1153,1140,1145,1144,1117,1121,1118,604,606,608,610,634,924,1191,1335,1460,1477,1507,1484,1440,1414,1412,1368,1396,1375,1316,1339,1251,1225,1202,1180,1183,1130,1107,1083,1059,1030,940,724,707,690,616,643,615,616,596,587,591,594,590,613,592,615,603,609,614,599,600,605,599,605,600,600,600,604,596,601,598,601,597,606,597,856,832,841,831,892,1247,1698,1871,1973,2012,2008,1995,1961,1932,1865,1840,1802,1777,1744,1773,1696,1666,1605,1648,1570,1538,1426,1327,1299,1184,1048,1010,879,840,844,838,844,788,784,780,788,793,790,802,795,800,806,797,818,823,820,825,807,822,802,799,806,807,800,800,802,807,799,808,798,831,825,829,839,855,1300,1698,1876,1998,2036,2030,2001,1946,1912,1900,1869,1835,1802,1768,1736,1684,1668,1636,1602,1569,1536,1502,1470,1238,1204,1083,1004,877,859,847,845,857,843,794,789,798,805,809,842,807,834,824,831,837,817,829,814,812,828,821,810,824,810,805,823,821,829,823,825,810,1032,1036,1042,1054,1089,1757,2180,2393,2442,2498,2489,2451,2412,2366,2329,2301,2259,2200,2178,2117,2080,2053,2009,1972,1929,1878,1849,1653,1409,1320,1156,1159,1104,1084,1075,1066,1079,1038,968,976,980,977,984,983,986,993,987,1002,980,986,990,989,998,1002,1000,989,995,990,998,992,986,991,986,992,988,788,790,794,798,819,1282,1583,1793,1881,1926,1926,1897,1868,1832,1805,1779,1745,1713,1683,1652,1620,1587,1556,1524,1492,1462,1431,1398,1166,1192,1065,974,857,840,829,827,830,785,722,732,733,727,744,729,738,748,737,752,730,734,733,736,744,752,743,733,742,731,739,737,731,736,731,737,733,805,808,815,840,880,1384,1670,1826,1984,1972,1990,2041,1893,1862,1887,1801,1779,1738,1760,1676,1696,1614,1584,1552,1530,1496,1465,1339,1315,1213,1089,903,848,835,820,822,824,822,785,789,784,786,791,790,789,794,787,796,788,785,787,789,792,796,795,791,789,787,792,793,787,792,787,794,790,734,736,739,749,781,1282,1489,1652,1776,1794,1790,1869,1734,1705,1697,1648,1620,1591,1583,1534,1525,1477,1449,1420,1392,1370,1341,1187,1216,1117,993,808,776,758,748,745,747,749,715,719,714,716,721,720,719,724,717,726,718,715,717,719,722,726,725,721,719,717,722,723,717,722,717,724,720,407,408,409,410,440,584,760,844,926,989,1007,990,975,958,943,927,911,894,879,864,847,832,814,799,782,767,752,735,719,637,624,613,463,452,442,438,440,440,376,383,379,383,386,386,385,390,383,392,384,381,385,387,393,409,393,388,389,385,392,390,390,394,386,392,387,0,0,0,0,0,0,0,0,0,0,0,0,0,0,0,0,0,0,0,0,0,0,0,0,0,0,0,0,0,0,0,0,0,0,0,0,0,0,0,0,0,0,0,0,0,0,0,0,0,0,0,0,0,0,0,0,0,0,0,0,0,0,0,0,0,683,685,688,690,698,987,1336,1516,1617,1666,1673,1650,1621,1592,1566,1539,1513,1486,1458,1434,1405,1379,1351,1324,1297,1271,1245,1217,986,1029,879,865,769,732,722,719,720,642,583,587,582,584,589,588,587,592,585,594,586,583,585,587,590,594,593,589,587,585,590,591,585,590,585,592,588,1180,1226,1186,1290,1372,2141,2744,2920,2997,2981,2994,2940,2885,2831,2794,2727,2675,2658,2581,2551,2465,2428,2384,2337,2283,2207,1847,1565,1535,1354,1351,1263,1234,1208,1201,1245,1183,1182,1167,1183,1179,1183,1188,1189,1186,1193,1188,1189,1196,1190,1189,1190,1195,1196,1196,1190,1188,1188,1195,1189,1186,1191,1191,1197,1187,880,884,887,889,926,1370,1812,2013,2105,2147,2144,2113,2075,2039,2005,1969,1935,1898,1866,1835,1798,1765,1727,1694,1658,1624,1590,1537,1300,1212,1090,972,949,933,920,920,922,850,791,795,790,792,797,796,795,800,793,802,794,791,793,795,798,802,801,797,795,793,798,799,793,798,793,800,796,998,996,1019,1009,1146,1680,2121,2269,2350,2427,2441,2400,2363,2290,2259,2212,2172,2142,2127,2077,2003,1992,1973,1928,1886,1786,1660,1508,1429,1356,1148,1088,1055,1069,1045,1042,1010,993,929,935,938,938,943,937,943,946,943,947,941,957,962,965,948,951,949,947,945,936,939,947,941,946,941,947,943,1032,1036,1042,1054,1089,1757,2180,2393,2442,2498,2489,2451,2412,2366,2329,2301,2259,2200,2178,2117,2080,2053,2009,1972,1929,1878,1849,1653,1409,1320,1156,1159,1104,1084,1075,1066,1079,1038,968,976,980,977,984,983,986,993,987,1002,980,986,990,989,998,1002,1000,989,995,990,998,992,986,991,986,992,988,643,656,639,660,686,742,1271,1425,1532,1583,1590,1564,1538,1514,1487,1462,1436,1409,1385,1359,1333,1289,1281,1257,1230,1204,1179,1153,1127,854,816,735,695,668,671,674,662,668,597,593,598,605,608,603,612,606,600,610,614,611,611,612,611,612,607,612,612,612,612,612,612,612,612,612,612,431,434,434,436,444,548,810,902,994,1064,1078,1060,1044,1025,1008,990,974,956,938,921,907,888,871,852,836,817,801,782,766,698,651,573,552,453,448,445,441,434,358,352,359,358,361,368,358,362,368,360,369,362,361,362,364,368,361,361,361,361,361,361,361,361,361,361,361,348,350,352,353,364,554,624,698,763,832,874,854,841,833,820,801,785,773,759,756,732,719,704,692,684,666,650,636,623,608,594,581,568,555,382,362,363,364,309,305,313,321,313,314,317,320,314,314,315,314,319,319,319,320,317,314,314,314,314,314,314,314,314,314,314,297,298,300,301,308,464,524,585,646,706,742,730,719,688,697,684,671,661,649,638,625,614,602,591,580,568,555,544,532,506,495,496,485,474,313,309,310,311,255,252,259,267,259,261,260,266,260,262,261,259,265,265,265,266,264,262,262,262,262,262,262,262,262,262,262,398,399,400,401,404,576,720,802,886,963,980,964,949,934,919,903,888,872,856,842,826,811,795,780,764,748,739,718,703,687,672,602,582,506,408,404,404,386,341,344,335,342,346,345,358,362,344,344,346,358,355,341,343,347,346,341,341,341,341,341,341,341,341,341,341,773,753,759,761,788,1121,1504,1610,1753,1818,1815,1786,1768,1743,1745,1689,1686,1659,1590,1617,1544,1536,1511,1453,1396,1395,1212,1183,1252,1021,950,828,831,810,782,763,778,774,693,690,685,691,707,706,700,699,692,705,705,701,702,704,706,706,704,705,705,705,705,705,705,705,705,705,705,0,0,0,0,0,0,0,0,0,0,0,0,0,0,0,0,0,0,0,0,0,0,0,0,0,0,0,0,0,0,0,0,0,0,0,0,0,0,0,0,0,0,0,0,0,0,0,0,0,0,0,0,0,0,0,0,0,0,0,0,0,0,0,0,0,1147,1144,1151,1185,1236,1948,2439,2636,2744,2788,2748,2719,2689,2630,2588,2521,2486,2449,2400,2344,2322,2273,2228,2185,2136,2042,1682,1573,1307,1301,1264,1220,1217,1187,1164,1143,1146,1119,1055,1054,1056,1061,1071,1068,1066,1068,1063,1066,1068,1068,1066,1066,1068,1067,1065,1065,1065,1065,1065,1065,1065,1065,1065,1065,1065,328,329,330,331,332,356,596,667,736,798,817,802,789,777,764,751,738,724,712,699,687,673,661,648,634,622,608,596,583,535,522,362,354,348,340,333,334,349,285,283,286,288,285,288,286,287,286,286,287,286,286,286,286,287,285,285,285,285,285,285,285,285,285,285,285,693,694,710,701,706,956,1351,1498,1633,1681,1704,1655,1629,1601,1575,1543,1516,1498,1470,1439,1449,1388,1362,1350,1329,1292,1269,1087,1065,1048,911,882,795,733,706,701,704,693,623,625,622,627,637,634,632,634,629,632,634,634,632,632,634,633,631,631,631,631,631,631,631,631,631,631,631,643,656,639,660,686,742,1271,1425,1532,1583,1590,1564,1538,1514,1487,1462,1436,1409,1385,1359,1333,1289,1281,1257,1230,1204,1179,1153,1127,854,816,735,695,668,671,674,662,668,597,593,598,605,608,603,612,606,600,610,614,611,611,612,611,612,607,612,612,612,612,612,612,612,612,612,612,884,885,888,910,1088,1627,1992,2197,2317,2358,2337,2295,2252,2210,2167,2125,2083,2040,1998,1954,1912,1870,1928,1882,1742,1700,1750,1614,1433,1332,1096,963,935,912,897,937,902,908,932,935,932,954,932,965,938,953,953,957,963,945,950,949,951,998,959,959,957,956,964,954,960,959,962,1007,953,791,793,796,805,881,1417,1605,1776,1900,1944,1935,1905,1874,1843,1812,1782,1750,1736,1688,1657,1627,1596,1564,1533,1502,1472,1458,1410,1378,1157,1102,1075,836,817,805,803,805,807,807,821,809,807,824,811,822,829,825,824,896,822,825,831,832,836,831,846,839,837,842,821,834,855,841,833,830,1245,1235,1251,1331,1689,2469,2822,3066,3135,3156,3093,3057,3037,2978,2979,2822,2734,2776,2664,2672,2499,2504,2457,2392,2352,2032,1763,1651,1650,1408,1383,1306,1278,1254,1238,1232,1250,1252,1277,1296,1299,1303,1294,1312,1337,1342,1296,1322,1308,1304,1334,1350,1351,1349,1348,1354,1337,1346,1347,1328,1309,1300,1301,1305,1288,1191,1182,1197,1266,1585,2342,2692,2946,3019,3033,2984,2949,2926,2869,2871,2721,2690,2670,2566,2568,2481,2409,2367,2300,2200,2056,1862,1778,1636,1502,1330,1253,1226,1202,1188,1188,1195,1200,1224,1235,1240,1252,1243,1256,1280,1286,1235,1264,1253,1238,1247,1294,1293,1295,1300,1294,1287,1294,1304,1276,1257,1248,1253,1257,1240,996,1002,1004,1010,1051,1856,2237,2422,2532,2559,2538,2504,2465,2420,2361,2331,2287,2229,2199,2142,2108,2054,2010,1977,1930,1897,1841,1712,1495,1135,1170,1080,1086,1042,1014,1015,1018,1022,1007,1009,1012,1013,1011,1014,1012,1014,1013,1014,1016,1009,1011,1013,1013,1015,1011,1014,1013,1014,1013,1009,1013,1017,1010,1013,1012,1174,1180,1182,1208,1278,2273,2680,2854,2955,2972,2943,2911,2856,2810,2757,2708,2656,2589,2540,2501,2450,2386,2349,2296,2164,2035,1937,1755,1624,1553,1296,1260,1238,1202,1193,1194,1217,1217,1210,1227,1215,1212,1210,1211,1210,1214,1212,1211,1216,1209,1212,1213,1216,1214,1209,1213,1211,1215,1212,1215,1213,1220,1211,1214,1213,1183,1181,1189,1254,1337,2318,2634,2749,2823,2849,2893,2807,2758,2704,2653,2643,2571,2525,2482,2440,2374,2330,2288,2241,2162,2094,1992,1717,1382,1348,1294,1245,1228,1214,1180,1159,1149,1179,1159,1161,1168,1171,1162,1171,1161,1168,1169,1168,1199,1177,1175,1177,1178,1210,1180,1181,1171,1182,1182,1184,1185,1184,1175,1201,1201,0,0,0,0,0,0,0,0,0,0,0,0,0,0,0,0,0,0,0,0,0,0,0,0,0,0,0,0,0,0,0,0,0,0,0,0,0,0,0,0,0,0,0,0,0,0,0,0,0,0,0,0,0,0,0,0,0,0,0,0,0,0,0,0,0,1015,998,1021,1046,1285,1968,2312,2514,2621,2640,2592,2587,2547,2495,2505,2360,2313,2343,2224,2211,2127,2084,2035,2011,1995,1950,1915,1782,1648,1450,1128,1078,1050,1025,1011,1011,1016,1022,1044,1088,1080,1070,1068,1081,1103,1100,1055,1128,1112,1056,1054,1094,1098,1112,1112,1110,1097,1105,1117,1084,1076,1062,1064,1068,1051,766,776,768,779,816,1380,1559,1694,1796,1853,1848,1819,1790,1761,1748,1701,1676,1662,1608,1589,1557,1532,1501,1473,1444,1414,1388,1357,1190,1058,982,894,830,788,788,776,745,741,736,730,741,742,736,749,740,743,746,750,761,752,755,759,758,757,760,762,751,759,752,763,750,761,760,766,762,884,885,888,910,1088,1627,1992,2197,2317,2358,2337,2295,2252,2210,2167,2125,2083,2040,1998,1954,1912,1870,1928,1882,1742,1700,1750,1614,1433,1332,1096,963,935,912,897,937,902,908,932,935,932,954,932,965,938,953,953,957,963,945,950,949,951,998,959,959,957,956,964,954,960,959,962,1007,953,592,593,595,589,593,649,1105,1268,1398,1425,1441,1382,1360,1368,1364,1270,1270,1298,1225,1252,1231,1149,1189,1113,1111,1145,1116,1084,1063,827,776,733,725,617,606,592,579,580,585,586,582,591,592,598,591,593,597,590,591,590,592,591,593,591,598,600,591,592,592,600,598,597,596,596,595,416,416,419,405,419,446,769,899,991,1010,1026,1014,999,986,968,948,933,936,900,922,908,813,870,817,819,819,804,794,775,758,575,630,616,453,435,429,425,421,379,379,377,380,380,393,382,390,392,386,387,382,382,384,383,385,385,386,383,388,381,383,383,382,380,381,380,314,315,316,316,326,372,570,639,705,763,775,763,757,764,727,714,708,626,678,690,670,642,630,622,604,598,580,568,553,544,550,389,380,330,330,327,328,328,310,318,316,324,324,328,317,334,315,328,323,331,317,325,328,332,327,328,327,328,327,328,323,329,316,322,316,262,263,264,264,273,280,475,530,584,637,650,640,630,638,609,600,589,579,568,559,565,538,528,517,507,496,487,476,466,456,459,290,284,276,278,274,275,276,261,265,261,268,273,273,267,275,263,270,267,268,263,270,272,294,271,270,271,268,272,273,266,275,263,270,264,573,586,577,586,591,763,1129,1249,1354,1394,1429,1382,1390,1365,1316,1318,1303,1249,1252,1230,1182,1187,1165,1116,1094,1071,1065,1027,1005,982,909,652,617,597,595,582,584,577,552,558,550,559,559,558,568,583,557,562,561,565,565,559,564,558,563,561,561,565,556,560,555,560,561,556,556,943,925,954,964,988,1574,1965,2133,2268,2299,2284,2256,2241,2182,2131,2098,2088,2056,2038,1948,1882,1889,1838,1773,1780,1572,1531,1441,1362,1070,1186,1028,1009,979,964,956,964,965,923,919,921,922,919,926,921,923,919,922,924,923,922,924,923,944,930,929,923,925,927,926,934,928,928,944,931,254,255,256,256,257,406,458,510,562,612,670,616,607,597,588,577,567,558,548,538,529,519,510,500,489,480,470,460,451,441,432,422,412,403,288,258,259,260,246,244,248,252,248,248,248,253,248,251,251,254,252,260,259,259,254,252,249,256,253,252,248,284,252,252,251,910,912,915,951,1128,1707,1983,2204,2356,2414,2396,2350,2308,2269,2220,2173,2132,2089,2038,2001,1956,1914,1868,1838,1783,1748,1682,1577,1570,1327,1014,984,956,934,934,935,929,935,937,945,954,992,969,958,960,992,951,957,957,953,952,967,966,1005,1032,966,968,964,969,958,952,957,964,965,952,0,0,0,0,0,0,0,0,0,0,0,0,0,0,0,0,0,0,0,0,0,0,0,0,0,0,0,0,0,0,0,0,0,0,0,0,0,0,0,0,0,0,0,0,0,0,0,0,0,0,0,0,0,0,0,0,0,0,0,0,0,0,0,0,0,690,694,695,696,691,931,1316,1475,1626,1684,1681,1624,1603,1572,1572,1579,1493,1468,1443,1461,1412,1386,1358,1331,1306,1331,1255,1108,1245,1067,1008,903,730,733,723,690,694,695,656,656,655,672,668,669,665,680,674,667,677,678,688,688,706,707,663,663,671,669,664,666,667,666,665,665,664,592,593,595,589,593,649,1105,1268,1398,1425,1441,1382,1360,1368,1364,1270,1270,1298,1225,1252,1231,1149,1189,1113,1111,1145,1116,1084,1063,827,776,733,725,617,606,592,579,580,585,586,582,591,592,598,591,593,597,590,591,590,592,591,593,591,598,600,591,592,592,600,598,597,596,596,595,608,610,613,614,621,741,1140,1263,1390,1476,1484,1457,1434,1411,1388,1364,1340,1304,1300,1263,1252,1230,1202,1182,1161,1134,1115,858,838,753,908,652,646,640,629,619,610,620,579,574,584,587,586,593,586,592,586,594,592,586,590,589,593,595,595,595,594,591,592,592,592,592,592,592,592,384,386,387,388,391,479,738,778,834,892,892,891,878,866,854,841,829,804,810,778,783,753,740,728,715,703,690,678,664,651,639,626,409,465,456,390,391,392,385,385,385,386,386,386,386,386,385,386,386,386,386,386,386,386,386,386,386,386,386,386,386,386,386,386,386,1010,1010,986,1008,1136,1637,2032,2246,2341,2371,2286,2315,2266,2244,2207,2193,2119,2115,2074,2000,1997,1942,1896,1844,1825,1799,1448,1436,1308,1252,1120,1083,1063,1034,1005,989,1000,952,949,950,956,957,969,966,961,964,965,964,969,967,961,968,971,968,967,967,969,966,960,959,959,959,959,959,959,947,958,955,956,983,1520,1935,2124,2223,2252,2203,2182,2149,2115,2071,2078,2031,2012,1973,1895,1914,1844,1792,1757,1736,1730,1519,1407,1209,1166,1066,1030,1003,971,964,967,957,899,896,896,902,905,912,916,907,912,912,909,918,917,913,917,918,916,910,918,917,910,909,909,909,909,909,909,909,909,910,906,907,1022,1553,1801,2012,2113,2139,2124,2096,2066,2032,1998,1985,1951,1912,1878,1822,1825,1754,1718,1684,1644,1580,1534,1335,1134,1087,1077,998,942,925,917,918,894,881,860,866,873,867,884,871,876,875,872,876,876,876,876,876,876,876,876,876,876,876,876,876,876,876,876,876,876,1139,1122,1119,1156,1443,2112,2370,2538,2622,2641,2623,2592,2550,2509,2452,2437,2394,2342,2305,2262,2274,2166,2133,2078,1916,1778,1662,1382,1370,1355,1285,1200,1188,1141,1131,1137,1131,1125,1115,1136,1134,1121,1129,1116,1127,1124,1124,1125,1125,1125,1125,1125,1125,1125,1125,1125,1125,1125,1125,1125,1125,1125,1125,1125,1125,793,796,789,792,802,1136,1511,1725,1825,1858,1850,1826,1803,1772,1746,1735,1710,1679,1638,1585,1598,1530,1506,1471,1439,1441,1224,1212,1037,994,869,849,853,811,802,798,779,722,719,715,719,724,730,729,725,728,730,728,731,730,726,730,731,731,730,731,730,730,725,722,722,722,722,722,722,672,690,676,680,712,1128,1333,1374,1461,1509,1512,1490,1468,1448,1426,1405,1384,1363,1341,1411,1299,1278,1256,1236,1214,1192,1172,1150,1129,1004,724,710,696,696,673,683,684,665,647,642,647,647,648,638,648,648,647,648,648,648,648,648,648,648,648,648,648,648,648,648,648,648,648,648,648,805,805,801,801,818,1291,1551,1759,1867,1898,1886,1863,1837,1801,1774,1766,1736,1700,1672,1617,1620,1567,1536,1507,1468,1477,1237,1225,1219,1192,883,864,836,822,815,812,819,807,796,799,809,797,815,813,806,816,804,825,814,812,807,810,825,822,815,810,817,813,810,810,810,810,810,810,810,0,0,0,0,0,0,0,0,0,0,0,0,0,0,0,0,0,0,0,0,0,0,0,0,0,0,0,0,0,0,0,0,0,0,0,0,0,0,0,0,0,0,0,0,0,0,0,0,0,0,0,0,0,0,0,0,0,0,0,0,0,0,0,0,0,608,610,613,614,621,741,1140,1263,1390,1476,1484,1457,1434,1411,1388,1364,1340,1304,1300,1263,1252,1230,1202,1182,1161,1134,1115,858,838,753,908,652,646,640,629,619,610,620,579,574,584,587,586,593,586,592,586,594,592,586,590,589,593,595,595,595,594,591,592,592,592,592,592,592,592,0,0,0,0,0,0,0,0,0,0,0,0,0,0,0,0,0,0,0,0,0,0,0,0,0,0,0,0,0,0,0,0,0,0,0,0,0,0,0,0,0,0,0,0,0,0,0,0,0,0,0,0,0,0,0,0,0,0,0,0,0,0,0,0,0,276,276,277,278,279,445,504,562,621,675,690,678,667,656,645,634,624,612,601,590,579,568,558,546,535,524,513,502,492,480,469,458,447,436,381,280,376,377,271,267,272,276,269,276,273,279,272,273,276,272,273,272,272,276,274,276,272,273,272,272,274,276,274,278,276,832,858,848,862,907,1402,1786,1964,2007,2044,2018,1987,1950,1940,1934,1858,1892,1832,1809,1730,1698,1666,1645,1664,1570,1538,1520,1478,1447,1172,960,900,886,881,848,844,838,848,845,847,859,853,853,858,859,857,857,853,859,858,853,857,864,863,863,867,860,862,859,857,860,858,867,867,861,780,804,796,808,847,1332,1660,1839,1884,1924,1899,1869,1839,1827,1822,1748,1779,1777,1699,1628,1598,1567,1552,1564,1477,1447,1430,1386,1356,1219,864,844,883,829,795,792,794,799,792,793,805,802,800,803,806,803,806,799,804,808,805,806,811,812,811,811,808,813,804,804,810,809,815,811,805,823,825,829,831,897,1387,1668,1863,1963,2002,1995,1964,1931,1892,1869,1843,1802,1774,1741,1711,1681,1647,1616,1584,1564,1521,1500,1311,1282,1172,906,884,879,896,838,836,842,815,789,793,795,805,797,809,803,823,801,798,806,804,795,800,804,810,804,842,808,806,802,806,804,831,799,841,822,1081,1064,1074,1097,1327,1986,2355,2509,2554,2594,2632,2526,2485,2461,2407,2377,2309,2297,2238,2197,2173,2112,2050,2015,1879,1805,1777,1594,1434,1192,1173,1175,1142,1164,1090,1084,1086,1104,1083,1083,1104,1101,1102,1099,1093,1112,1102,1093,1097,1101,1087,1095,1097,1105,1102,1101,1099,1097,1101,1111,1108,1103,1094,1101,1093,650,656,652,660,690,1104,1292,1451,1552,1614,1615,1586,1563,1531,1509,1483,1457,1429,1414,1356,1345,1314,1309,1256,1257,1203,1188,1180,1148,995,969,824,724,707,677,662,668,621,615,612,618,620,619,621,619,621,622,617,623,621,618,619,624,625,626,631,621,626,624,620,623,622,628,627,621,770,768,774,783,852,1477,1736,1944,2059,2090,2076,2030,1999,1958,1922,1880,1845,1807,1761,1729,1688,1652,1608,1575,1537,1498,1462,1416,1382,1328,968,844,819,792,783,784,789,794,795,790,790,796,822,800,809,815,812,824,822,811,819,812,819,816,852,819,823,825,828,812,824,865,870,824,821,606,628,610,632,636,990,1246,1407,1441,1489,1490,1490,1492,1419,1440,1412,1410,1419,1365,1314,1252,1230,1266,1216,1158,1134,1111,1087,1063,1039,838,819,798,648,619,616,617,640,627,620,629,628,644,636,634,638,638,643,648,641,639,644,640,658,644,640,641,641,632,637,634,642,640,645,633,536,540,541,543,546,904,999,1114,1154,1224,1251,1231,1222,1184,1190,1128,1134,1120,1105,1106,1099,1077,1070,1015,1023,993,990,946,931,940,904,883,624,568,548,548,547,548,538,533,542,547,533,549,535,547,540,545,554,550,537,541,543,555,542,547,554,553,545,548,541,551,554,547,538,0,0,0,0,0,0,0,0,0,0,0,0,0,0,0,0,0,0,0,0,0,0,0,0,0,0,0,0,0,0,0,0,0,0,0,0,0,0,0,0,0,0,0,0,0,0,0,0,0,0,0,0,0,0,0,0,0,0,0,0,0,0,0,0,0 ]);
