n = 10;
D = [248,189,78,80,266,297,204,240,247,222 ];
q = 0;
prec = array2d(1..0,1..2,[]);
steps = 64;
l = 360;
r = 0;
which = [];
interval = array2d(1..0,1..2,[]);
T = array3d(1..11,1..11,0..64,[0,0,0,0,0,0,0,0,0,0,0,0,0,0,0,0,0,0,0,0,0,0,0,0,0,0,0,0,0,0,0,0,0,0,0,0,0,0,0,0,0,0,0,0,0,0,0,0,0,0,0,0,0,0,0,0,0,0,0,0,0,0,0,0,0,344,344,345,346,348,583,607,662,716,760,769,758,748,738,726,717,705,694,687,678,667,657,646,637,667,651,645,596,586,576,556,544,534,449,350,348,348,349,340,344,343,347,349,344,387,350,343,350,348,344,350,385,389,351,386,389,341,341,345,345,339,347,347,352,344,596,598,600,601,608,951,1135,1254,1358,1433,1432,1414,1394,1332,1312,1288,1268,1247,1227,1206,1182,1165,1139,1165,1096,1075,1081,1080,994,972,951,855,632,618,607,590,606,588,582,570,569,572,585,588,593,588,587,584,587,581,580,583,581,609,586,588,584,584,594,582,598,587,585,592,589,553,558,560,557,568,926,1060,1129,1249,1296,1299,1281,1264,1248,1201,1212,1196,1178,1129,1144,1093,1109,1057,1085,1019,1001,983,965,908,890,853,753,724,577,567,564,561,553,543,536,544,549,542,552,550,554,554,550,551,549,549,551,548,568,553,555,551,552,556,553,560,557,562,570,558,269,270,271,272,272,429,475,519,564,607,616,608,600,591,583,574,566,558,549,540,531,523,514,506,498,489,481,472,464,456,447,439,430,422,414,272,273,411,262,260,264,265,260,273,266,404,392,267,396,264,267,265,265,271,268,266,266,269,266,264,265,268,266,273,268,825,827,826,832,862,1317,1685,1843,1920,1968,1966,1919,1897,1865,1833,1805,1778,1747,1718,1689,1658,1628,1593,1582,1541,1511,1474,1446,1414,1262,974,884,860,851,834,832,837,819,807,805,813,816,813,820,815,829,813,818,817,812,815,817,817,824,821,819,817,817,816,815,815,818,815,822,817,882,891,892,896,933,1439,1835,1993,2065,2108,2097,2058,2030,1990,1964,1936,1906,1873,1842,1813,1779,1732,1709,1675,1655,1616,1584,1557,1353,1326,1061,947,953,908,901,899,863,862,850,849,856,855,852,871,858,875,856,861,860,855,858,860,860,867,864,861,860,860,859,858,858,861,858,865,860,387,388,392,391,406,584,715,793,864,915,922,909,896,883,870,856,842,825,816,801,788,774,750,747,733,720,705,690,678,632,620,581,574,419,410,392,393,390,380,377,380,383,380,378,381,388,381,380,384,382,380,383,383,388,384,388,384,387,386,383,384,382,380,386,382,403,404,405,407,449,639,723,843,931,987,996,980,964,949,933,918,902,885,870,854,838,823,806,791,776,759,743,728,712,697,681,666,649,422,412,409,410,411,363,370,369,375,377,375,370,376,370,382,373,372,372,375,382,386,379,374,377,371,377,377,376,396,374,377,376,733,727,738,741,769,1132,1469,1611,1719,1757,1726,1695,1669,1641,1615,1603,1599,1569,1546,1516,1487,1451,1427,1404,1379,1348,1322,1314,1252,1165,1005,912,861,756,732,734,730,748,731,722,725,720,722,733,733,747,735,734,743,725,732,727,731,734,733,731,740,735,733,734,732,738,736,743,734,0,0,0,0,0,0,0,0,0,0,0,0,0,0,0,0,0,0,0,0,0,0,0,0,0,0,0,0,0,0,0,0,0,0,0,0,0,0,0,0,0,0,0,0,0,0,0,0,0,0,0,0,0,0,0,0,0,0,0,0,0,0,0,0,0,372,372,373,374,376,596,654,711,769,813,823,812,801,790,781,770,759,750,739,728,717,708,697,685,674,663,652,643,632,621,610,600,589,538,453,376,376,442,363,366,366,369,370,372,370,371,369,370,371,368,370,372,372,372,372,372,372,372,372,372,370,372,372,372,372,0,0,0,0,0,0,0,0,0,0,0,0,0,0,0,0,0,0,0,0,0,0,0,0,0,0,0,0,0,0,0,0,0,0,0,0,0,0,0,0,0,0,0,0,0,0,0,0,0,0,0,0,0,0,0,0,0,0,0,0,0,0,0,0,0,642,616,618,647,650,1046,1216,1334,1434,1480,1523,1494,1477,1410,1387,1394,1378,1335,1331,1287,1290,1269,1215,1190,1167,1182,1118,1133,1090,972,897,851,678,664,627,649,650,603,597,596,597,597,597,597,597,597,597,597,597,597,597,597,597,597,597,597,597,597,597,597,597,597,597,597,597,614,616,621,624,636,994,1152,1276,1369,1384,1411,1393,1415,1357,1338,1291,1304,1286,1268,1250,1231,1200,1196,1140,1120,1130,1082,1062,1004,985,760,733,717,633,628,627,640,616,600,595,600,609,603,608,606,609,607,610,611,607,605,609,608,607,611,611,609,610,611,611,611,611,611,611,611,238,239,240,240,241,361,429,478,505,577,566,558,576,564,554,544,536,526,495,507,499,469,480,472,462,433,445,433,423,415,405,396,386,367,357,241,242,243,235,242,232,241,279,244,240,244,237,240,240,242,237,235,237,240,239,240,241,240,239,279,236,279,240,242,237,828,803,804,836,973,1479,1663,1799,1889,1921,1951,1918,1916,1821,1797,1823,1766,1717,1763,1660,1672,1643,1563,1538,1505,1516,1449,1421,1262,983,967,912,904,852,816,839,832,800,808,808,808,808,808,808,808,808,808,808,808,808,808,808,808,808,808,808,808,808,808,808,808,808,808,808,808,888,859,868,896,991,1543,1804,1933,2011,2065,2093,2057,2020,1955,1921,1950,1894,1843,1879,1784,1789,1747,1679,1644,1613,1562,1551,1382,1173,1125,982,967,957,913,879,906,876,843,842,842,842,842,842,842,842,842,842,842,842,842,842,842,842,842,842,842,842,842,842,842,842,842,842,842,842,449,448,451,452,461,705,820,907,986,1014,1020,1022,1009,990,964,951,954,937,909,896,898,885,858,844,824,811,805,790,772,729,698,538,591,465,432,461,458,438,434,438,435,438,436,438,438,438,438,438,438,438,438,438,438,438,438,438,438,438,438,438,438,438,438,438,438,604,605,607,609,632,1046,1204,1322,1428,1482,1482,1458,1434,1430,1387,1372,1340,1316,1293,1269,1263,1222,1198,1176,1152,1129,1105,1081,1057,1034,926,754,642,627,616,612,614,607,606,601,602,644,603,603,609,614,615,617,651,615,616,612,606,609,614,615,608,609,602,608,604,608,616,611,594,738,713,715,744,817,1212,1421,1590,1672,1716,1741,1725,1703,1646,1603,1634,1587,1542,1574,1485,1501,1474,1402,1373,1317,1356,1287,1179,1159,880,870,851,836,752,724,747,749,713,723,723,723,723,723,723,723,723,723,723,723,723,723,723,723,723,723,723,723,723,723,723,723,723,723,723,723,372,372,373,374,376,596,654,711,769,813,823,812,801,790,781,770,759,750,739,728,717,708,697,685,674,663,652,643,632,621,610,600,589,538,453,376,376,442,363,366,366,369,370,372,370,371,369,370,371,368,370,372,372,372,372,372,372,372,372,372,370,372,372,372,372,428,430,432,432,438,532,789,874,965,1050,1077,1056,1041,1024,1003,991,974,956,938,930,915,899,881,864,837,830,812,796,778,748,731,581,465,449,439,436,436,467,385,385,384,386,387,386,385,387,386,387,388,393,397,394,389,391,391,386,385,390,393,397,391,395,395,398,391,539,538,533,541,531,654,991,1094,1185,1300,1311,1283,1265,1246,1259,1219,1162,1152,1132,1114,1082,1098,1071,1022,1014,995,984,961,855,733,683,680,645,562,549,539,535,529,451,454,452,458,463,456,457,459,456,461,461,468,486,485,482,469,464,455,458,462,463,466,462,467,461,488,460,0,0,0,0,0,0,0,0,0,0,0,0,0,0,0,0,0,0,0,0,0,0,0,0,0,0,0,0,0,0,0,0,0,0,0,0,0,0,0,0,0,0,0,0,0,0,0,0,0,0,0,0,0,0,0,0,0,0,0,0,0,0,0,0,0,58,58,58,58,88,88,106,108,117,128,136,134,133,130,128,127,124,123,121,118,117,115,114,111,109,108,105,103,110,108,106,105,103,92,90,88,88,88,45,46,45,46,47,47,46,48,47,48,50,55,57,55,50,51,52,46,46,51,55,56,52,56,56,90,52,604,604,607,607,620,688,1133,1281,1388,1493,1463,1466,1432,1408,1384,1362,1318,1319,1296,1251,1219,1206,1212,1170,1154,1113,1099,1075,992,872,816,651,692,636,616,612,613,619,543,546,544,550,555,548,549,551,548,553,553,560,578,577,570,561,556,547,550,554,555,558,554,559,553,580,552,331,332,332,334,338,466,603,672,742,806,827,814,801,800,776,763,749,736,722,711,698,700,671,658,645,633,620,606,593,580,567,483,496,411,339,336,336,337,341,308,310,313,310,314,314,317,315,317,316,314,323,316,314,320,318,316,313,317,322,330,326,328,345,326,319,412,413,414,416,420,611,759,844,932,1000,1019,1002,987,981,956,940,924,908,892,876,861,859,828,813,796,782,766,749,734,718,701,630,592,505,421,418,419,420,392,388,390,393,389,394,393,398,394,390,397,395,399,393,394,403,395,397,394,397,404,410,416,419,419,407,407,268,280,326,320,321,268,391,486,536,568,584,578,572,566,568,554,548,542,535,529,513,517,504,494,449,429,431,390,391,346,339,331,272,265,342,293,256,321,204,208,205,208,214,208,209,211,207,209,209,215,215,213,208,212,210,205,207,209,213,217,211,217,212,236,211,513,511,533,519,521,847,1000,1149,1296,1402,1419,1402,1353,1340,1302,1288,1262,1236,1209,1183,1156,1152,1098,1078,1052,1031,993,963,952,915,802,733,561,544,535,524,555,519,503,500,503,504,501,510,513,545,510,510,533,509,508,511,509,516,513,512,512,510,512,511,514,513,512,529,517,422,428,424,432,432,451,789,880,973,1041,1048,1044,1015,1010,981,964,948,943,914,909,871,864,847,814,813,788,781,774,747,730,574,542,528,442,415,428,435,436,413,414,413,416,415,421,419,420,423,420,422,424,426,424,419,423,425,422,419,424,429,430,425,435,432,443,427,428,430,432,432,438,532,789,874,965,1050,1077,1056,1041,1024,1003,991,974,956,938,930,915,899,881,864,837,830,812,796,778,748,731,581,465,449,439,436,436,467,385,385,384,386,387,386,385,387,386,387,388,393,397,394,389,391,391,386,385,390,393,397,391,395,395,398,391,423,424,425,422,456,518,761,814,893,962,982,969,955,939,925,913,899,884,870,857,844,830,815,802,784,769,754,763,747,729,715,531,495,447,432,424,429,430,352,352,352,354,357,354,353,355,354,358,354,357,354,352,353,355,354,353,355,355,352,355,354,357,354,354,353,528,528,523,530,532,610,950,1073,1152,1241,1274,1251,1240,1217,1215,1192,1162,1121,1102,1088,1066,1059,1051,1026,985,974,963,907,789,723,636,629,596,528,540,535,536,526,435,437,436,441,445,438,440,440,438,442,441,443,458,461,462,447,441,438,442,441,440,441,440,441,435,441,436,88,88,88,88,131,132,142,152,161,170,179,177,176,172,171,169,168,166,163,162,159,157,155,154,153,151,149,146,145,142,140,139,137,136,132,131,132,132,52,52,52,52,52,52,52,52,52,52,52,52,52,52,52,53,53,53,53,53,53,53,53,53,52,52,52,0,0,0,0,0,0,0,0,0,0,0,0,0,0,0,0,0,0,0,0,0,0,0,0,0,0,0,0,0,0,0,0,0,0,0,0,0,0,0,0,0,0,0,0,0,0,0,0,0,0,0,0,0,0,0,0,0,0,0,0,0,0,0,0,0,591,593,601,594,617,672,1101,1260,1355,1416,1426,1421,1399,1377,1354,1334,1289,1288,1266,1225,1203,1181,1184,1152,1125,1089,1078,1041,992,837,791,689,673,606,603,614,620,621,527,529,528,533,537,530,532,532,530,534,533,535,550,553,554,539,533,530,534,533,532,533,532,533,527,533,528,347,348,349,350,352,378,624,689,754,813,831,819,807,804,782,770,758,745,733,722,709,706,684,672,661,649,636,623,611,600,587,378,393,362,354,352,394,353,361,324,326,328,325,330,328,332,329,331,330,326,328,328,328,330,332,332,329,331,329,331,330,333,331,331,331,428,429,431,432,436,532,780,861,944,1007,1023,1007,993,986,962,947,933,917,903,887,872,865,841,827,812,798,782,766,752,738,721,525,489,445,436,434,484,436,405,404,406,408,404,410,407,413,408,404,411,407,404,405,408,413,409,413,410,411,411,411,409,419,404,404,404,269,270,270,271,272,256,286,465,502,527,547,542,535,531,526,521,517,511,507,502,497,493,480,472,449,410,407,287,281,276,270,264,285,268,262,272,272,273,188,191,189,191,196,190,192,192,189,190,189,190,187,189,188,190,187,188,191,188,190,192,189,191,186,189,187,523,524,526,528,577,870,1014,1161,1303,1405,1407,1382,1356,1330,1305,1280,1254,1232,1214,1189,1165,1140,1115,1089,1064,1039,1012,988,961,927,802,682,645,548,569,526,550,527,494,491,494,497,491,501,500,498,501,500,521,499,498,503,499,507,500,502,501,502,502,504,503,501,501,516,505,412,412,414,420,420,509,766,851,938,1000,1027,999,986,952,964,935,931,904,872,873,857,842,826,783,786,770,754,748,723,716,692,521,511,502,420,400,419,403,397,397,397,399,397,403,402,401,405,401,402,399,398,400,399,401,402,405,403,403,406,407,403,428,406,417,413,423,424,425,422,456,518,761,814,893,962,982,969,955,939,925,913,899,884,870,857,844,830,815,802,784,769,754,763,747,729,715,531,495,447,432,424,429,430,352,352,352,354,357,354,353,355,354,358,354,357,354,352,353,355,354,353,355,355,352,355,354,357,354,354,353,363,397,398,398,399,586,609,669,729,781,792,781,769,758,747,735,724,714,702,691,680,669,657,646,636,624,613,602,590,579,568,556,546,356,348,464,465,494,353,350,352,352,352,350,352,351,353,351,351,352,356,357,355,356,359,356,356,357,357,393,357,361,356,355,359,312,313,314,327,328,502,600,624,684,736,747,736,726,714,703,692,680,669,658,646,636,622,612,603,591,580,570,558,547,536,524,518,506,395,320,356,318,319,308,303,307,307,300,313,308,307,312,314,320,312,311,311,309,320,317,311,307,315,309,311,312,308,311,316,314,648,651,652,653,706,1052,1200,1338,1467,1511,1514,1492,1446,1411,1387,1363,1342,1319,1345,1275,1253,1232,1204,1181,1157,1135,1158,1115,974,712,716,697,681,650,639,657,659,642,628,626,636,640,632,639,638,633,628,636,628,627,627,636,641,641,642,641,638,640,647,631,643,630,643,639,627,609,611,612,610,626,958,1126,1231,1330,1377,1381,1362,1316,1297,1307,1288,1269,1250,1253,1214,1182,1176,1157,1101,1081,1061,1043,1022,902,818,719,706,623,609,594,617,614,607,584,592,592,598,597,596,595,599,595,602,592,595,596,604,608,611,609,608,605,608,610,602,612,607,616,614,606,0,0,0,0,0,0,0,0,0,0,0,0,0,0,0,0,0,0,0,0,0,0,0,0,0,0,0,0,0,0,0,0,0,0,0,0,0,0,0,0,0,0,0,0,0,0,0,0,0,0,0,0,0,0,0,0,0,0,0,0,0,0,0,0,0,876,879,878,888,1004,1530,1761,1936,2002,2055,2008,1998,1987,1943,1911,1880,1850,1815,1790,1758,1721,1689,1670,1635,1597,1562,1534,1498,1280,1190,933,931,903,879,869,888,881,872,850,858,854,866,857,864,859,870,862,865,865,858,867,867,874,873,870,864,869,866,871,864,863,898,866,868,862,934,940,944,954,1102,1616,1914,2083,2147,2199,2150,2116,2110,2077,2043,2008,1977,1945,1914,1879,1840,1797,1777,1738,1706,1675,1638,1570,1328,1303,1050,979,959,942,925,944,924,915,893,901,897,907,900,907,902,913,905,908,908,901,910,910,917,916,913,907,912,911,914,907,906,926,909,911,905,442,441,443,455,448,728,781,862,944,998,1005,975,976,946,948,918,916,902,883,859,844,830,816,801,795,784,757,747,732,688,469,456,446,439,429,448,447,450,424,426,429,432,437,425,433,437,430,432,433,433,437,436,442,439,439,433,436,433,439,432,433,469,434,436,434,455,456,458,460,467,688,861,961,1058,1112,1124,1106,1089,1071,1053,1035,1017,999,981,964,946,928,910,892,874,858,840,822,804,786,768,750,685,643,466,462,464,456,442,438,441,443,446,441,444,446,445,451,452,449,451,456,450,451,458,456,456,457,456,456,457,457,457,466,460,769,778,790,794,852,1280,1534,1703,1801,1854,1815,1785,1782,1735,1721,1679,1671,1640,1618,1588,1554,1508,1493,1472,1407,1410,1383,1344,1317,1165,1029,935,817,788,778,780,799,795,758,769,770,772,776,769,779,785,770,780,770,773,780,795,801,793,782,776,789,784,787,782,782,802,782,785,779,363,397,398,398,399,586,609,669,729,781,792,781,769,758,747,735,724,714,702,691,680,669,657,646,636,624,613,602,590,579,568,556,546,356,348,464,465,494,353,350,352,352,352,350,352,351,353,351,351,352,356,357,355,356,359,356,356,357,357,393,357,361,356,355,359,691,696,697,699,703,921,1375,1570,1653,1737,1695,1671,1645,1642,1595,1566,1539,1516,1488,1462,1474,1384,1379,1350,1322,1328,1268,1258,1240,1024,985,895,755,729,719,718,724,694,647,650,649,662,655,670,649,668,651,667,651,652,658,657,667,666,668,654,653,659,664,667,650,649,654,653,647,775,750,744,750,822,1139,1562,1709,1789,1862,1834,1791,1779,1792,1719,1661,1640,1603,1596,1555,1592,1511,1459,1470,1423,1433,1368,1241,1132,1085,837,840,817,802,768,810,761,713,703,698,700,707,699,703,701,700,706,705,703,725,729,728,715,712,713,705,705,712,701,709,705,706,709,702,702,332,332,334,335,336,539,637,710,754,853,824,811,797,830,771,759,746,732,719,706,733,680,666,654,640,665,614,637,622,608,595,566,552,517,368,355,358,360,316,312,317,332,316,327,311,321,323,316,318,322,323,318,322,331,344,322,317,334,318,330,326,322,331,344,325,382,377,373,379,376,619,700,774,819,926,898,885,861,894,835,833,808,806,782,769,796,754,729,716,703,726,676,698,684,670,629,614,618,485,405,437,397,399,361,358,362,378,363,374,357,369,370,364,368,376,378,373,372,382,394,368,363,385,373,383,376,377,380,380,372,828,823,823,827,868,1268,1718,1891,1973,2024,1983,1953,1918,1934,1861,1817,1804,1745,1725,1684,1708,1651,1607,1586,1544,1548,1480,1352,1209,1169,1015,993,891,868,846,885,853,805,795,790,792,799,791,795,793,792,798,797,795,817,821,820,807,804,805,797,797,804,793,801,797,798,801,794,794,0,0,0,0,0,0,0,0,0,0,0,0,0,0,0,0,0,0,0,0,0,0,0,0,0,0,0,0,0,0,0,0,0,0,0,0,0,0,0,0,0,0,0,0,0,0,0,0,0,0,0,0,0,0,0,0,0,0,0,0,0,0,0,0,0,92,92,92,92,92,93,154,170,184,199,212,208,206,202,200,198,194,192,188,186,182,180,176,174,171,168,165,162,159,156,153,151,147,96,94,92,92,93,87,80,80,80,80,80,82,81,81,80,83,84,139,82,84,95,81,81,82,84,129,138,133,132,139,90,90,476,470,471,472,480,628,867,989,1062,1160,1119,1105,1090,1122,1060,1069,1042,1023,1002,984,1000,949,932,876,859,859,807,798,780,763,692,628,577,509,495,492,496,466,444,443,446,455,447,455,447,451,451,453,450,454,452,450,457,458,458,450,452,461,452,458,453,451,454,453,451,696,711,700,704,792,1225,1515,1708,1825,1857,1855,1821,1788,1783,1712,1678,1650,1617,1579,1550,1523,1480,1458,1402,1381,1347,1340,1281,1248,1118,878,765,744,776,724,708,712,699,715,693,697,697,705,699,705,712,704,703,706,706,710,711,715,714,720,712,718,716,716,712,717,720,719,738,725,157,157,158,158,159,247,279,313,345,378,394,388,382,376,369,363,357,351,344,338,332,326,320,313,307,301,295,288,282,276,270,262,256,250,244,220,220,222,133,132,131,138,131,139,131,135,134,136,134,136,137,134,138,141,142,135,136,137,135,141,137,135,138,137,135,691,696,697,699,703,921,1375,1570,1653,1737,1695,1671,1645,1642,1595,1566,1539,1516,1488,1462,1474,1384,1379,1350,1322,1328,1268,1258,1240,1024,985,895,755,729,719,718,724,694,647,650,649,662,655,670,649,668,651,667,651,652,658,657,667,666,668,654,653,659,664,667,650,649,654,653,647,860,857,867,872,935,1331,1782,1952,2055,2099,2093,2062,2029,1994,1963,1930,1896,1866,1832,1797,1763,1729,1694,1660,1627,1594,1568,1527,1306,1232,960,936,906,891,875,868,862,820,805,801,814,824,826,806,815,829,821,819,823,822,831,813,818,831,825,820,824,818,816,827,831,836,825,833,827,909,919,928,919,980,1433,1887,2093,2181,2231,2213,2196,2156,2122,2058,2031,1987,1973,1926,1955,1870,1811,1797,1765,1729,1694,1564,1453,1389,1244,1052,1010,960,938,924,926,921,865,855,852,861,865,865,866,869,876,872,873,870,890,889,900,883,887,881,874,882,882,876,871,868,863,886,877,867,500,503,503,504,516,788,956,1065,1172,1228,1233,1214,1194,1174,1155,1134,1115,1110,1077,1057,1037,1018,999,979,959,939,920,910,880,860,803,746,706,530,511,508,509,492,482,489,487,496,497,492,492,505,487,500,498,512,506,504,509,518,506,499,504,505,496,500,505,496,498,499,496,553,555,548,544,556,755,1018,1140,1237,1291,1297,1278,1269,1238,1218,1198,1178,1171,1140,1119,1100,1080,1060,1040,1021,1000,981,961,942,893,795,775,693,566,573,562,554,537,528,526,533,543,544,531,540,552,535,544,547,547,556,539,545,557,549,545,550,545,540,552,559,552,552,551,548,988,997,994,1008,1061,1564,2090,2277,2343,2386,2375,2335,2298,2256,2214,2192,2152,2102,2055,2085,2005,1959,1930,1883,1844,1792,1712,1485,1452,1279,1092,1072,1021,1017,1004,1004,1011,957,947,944,953,957,957,958,961,968,964,965,962,982,981,988,975,979,973,966,974,974,968,963,960,955,978,969,959,343,343,344,344,350,385,615,686,772,835,848,834,821,807,794,781,769,754,740,728,714,700,687,675,660,647,634,621,607,593,450,439,402,383,357,351,352,352,310,310,312,316,315,313,317,317,315,318,315,323,318,322,321,324,327,319,317,319,320,320,318,321,321,319,317,0,0,0,0,0,0,0,0,0,0,0,0,0,0,0,0,0,0,0,0,0,0,0,0,0,0,0,0,0,0,0,0,0,0,0,0,0,0,0,0,0,0,0,0,0,0,0,0,0,0,0,0,0,0,0,0,0,0,0,0,0,0,0,0,0,623,620,621,624,632,727,1239,1343,1481,1525,1528,1520,1477,1468,1428,1419,1383,1359,1330,1309,1285,1271,1221,1198,1174,1133,1082,1057,1034,902,768,762,676,654,649,632,645,618,594,585,587,590,594,600,598,621,602,598,599,600,601,601,603,605,599,599,603,604,596,603,598,596,596,596,596,915,916,920,924,980,1607,1954,2187,2362,2385,2368,2314,2284,2241,2200,2160,2118,2072,2030,1987,1947,1894,1862,1821,1778,1735,1702,1650,1478,1288,1089,1003,976,959,949,928,927,944,894,891,896,901,912,917,903,914,908,930,923,913,928,932,939,938,924,931,923,931,924,923,923,937,926,936,916,308,309,310,311,312,388,567,634,700,757,771,758,746,734,722,709,697,685,673,660,648,636,624,610,598,586,574,561,549,470,459,450,403,393,317,313,314,315,302,292,288,289,307,307,306,302,302,309,309,310,307,310,310,312,311,312,308,312,312,313,308,314,313,315,308,860,857,867,872,935,1331,1782,1952,2055,2099,2093,2062,2029,1994,1963,1930,1896,1866,1832,1797,1763,1729,1694,1660,1627,1594,1568,1527,1306,1232,960,936,906,891,875,868,862,820,805,801,814,824,826,806,815,829,821,819,823,822,831,813,818,831,825,820,824,818,816,827,831,836,825,833,827,319,320,320,321,322,398,574,630,686,735,740,730,720,709,698,687,678,667,656,645,636,625,630,603,594,583,572,561,552,541,530,519,404,332,325,323,324,324,295,294,295,295,295,295,295,299,296,295,295,295,294,294,294,295,296,295,295,296,294,295,294,294,294,294,294,352,352,353,354,356,436,661,709,782,811,867,850,808,808,789,762,780,738,726,734,757,709,703,691,655,654,632,620,608,506,450,441,374,366,373,356,372,372,314,313,314,314,314,314,315,319,319,314,314,314,314,315,315,319,315,314,314,315,314,314,313,313,313,313,313,321,321,322,323,324,394,576,624,687,721,729,720,711,703,692,684,675,665,655,646,640,628,636,614,605,596,582,558,547,539,530,414,405,344,327,324,325,326,286,283,280,280,283,284,288,289,283,287,288,283,282,290,290,290,288,290,290,290,292,292,289,288,288,287,282,334,339,340,381,389,431,563,661,684,718,744,736,728,714,711,706,701,716,690,683,679,672,667,628,596,611,579,571,560,540,454,433,427,399,344,390,343,344,304,302,305,306,306,309,308,311,311,309,311,308,310,310,311,311,313,312,311,311,310,314,313,320,320,320,320,429,431,432,433,435,513,790,859,946,1008,1030,1017,958,965,951,936,923,906,893,878,864,828,814,800,794,789,775,759,744,731,703,520,508,440,448,429,456,457,406,405,406,406,406,406,407,411,411,406,406,406,406,407,407,411,407,406,406,407,406,406,405,405,405,405,405,506,508,523,511,547,749,934,1044,1139,1177,1176,1155,1139,1123,1107,1097,1074,1064,1042,1027,1011,999,991,981,957,941,913,903,866,868,832,650,636,586,516,513,514,506,481,478,476,477,478,479,483,485,478,482,483,478,477,485,485,485,485,485,485,485,487,489,485,483,483,483,483,569,564,581,568,583,838,1060,1179,1277,1324,1321,1299,1281,1262,1244,1224,1206,1195,1159,1147,1135,1120,1110,1086,1051,1043,1024,992,973,857,923,615,600,588,581,575,572,549,524,521,519,520,521,522,526,528,521,525,526,521,520,528,528,528,528,528,528,528,530,532,528,526,526,526,526,0,0,0,0,0,0,0,0,0,0,0,0,0,0,0,0,0,0,0,0,0,0,0,0,0,0,0,0,0,0,0,0,0,0,0,0,0,0,0,0,0,0,0,0,0,0,0,0,0,0,0,0,0,0,0,0,0,0,0,0,0,0,0,0,0,704,703,710,710,714,960,1417,1561,1667,1714,1703,1677,1650,1625,1599,1572,1546,1518,1496,1473,1444,1419,1407,1363,1341,1315,1290,1263,1124,929,912,890,748,728,712,714,717,695,661,665,667,669,669,664,670,671,674,668,666,669,667,670,670,674,670,669,668,670,669,669,668,668,668,668,668,417,417,432,420,430,638,760,839,886,958,969,934,946,916,878,888,891,862,843,857,837,824,792,785,774,778,759,730,717,692,700,584,591,435,424,428,428,430,405,405,405,406,405,408,404,412,407,409,412,407,406,413,411,414,413,414,413,414,414,414,414,412,412,412,409,319,320,320,321,322,398,574,630,686,735,740,730,720,709,698,687,678,667,656,645,636,625,630,603,594,583,572,561,552,541,530,519,404,332,325,323,324,324,295,294,295,295,295,295,295,299,296,295,295,295,294,294,294,295,296,295,295,296,294,295,294,294,294,294,294,624,626,628,630,652,992,1214,1346,1455,1504,1503,1480,1458,1434,1411,1388,1364,1341,1318,1294,1272,1249,1225,1202,1179,1155,1132,1110,1086,1063,1040,896,662,647,636,633,635,636,631,646,620,620,640,640,632,631,635,639,660,650,663,659,656,651,670,657,654,664,684,658,654,656,686,678,640,654,665,669,672,714,845,1274,1409,1560,1574,1574,1537,1554,1502,1483,1478,1426,1427,1384,1351,1329,1302,1302,1255,1233,1214,1204,1168,936,884,869,774,737,680,664,673,667,654,655,657,657,655,664,666,663,667,663,658,667,667,668,671,675,684,675,684,675,676,672,674,668,669,674,678,668,580,598,583,584,643,898,1209,1386,1540,1562,1558,1530,1510,1484,1446,1428,1402,1391,1331,1302,1292,1265,1225,1190,1161,1134,1106,1122,1048,1020,882,643,624,617,591,589,592,578,576,586,580,601,576,602,585,602,596,599,599,584,597,588,596,599,596,596,600,596,604,592,595,603,596,604,599,548,562,550,552,568,797,1122,1274,1429,1454,1459,1425,1408,1382,1357,1332,1306,1344,1244,1218,1203,1178,1140,1125,1088,1072,1046,1018,984,966,788,746,653,586,567,556,560,563,558,562,560,572,564,573,564,573,579,565,566,568,567,566,564,564,568,570,567,568,564,567,570,578,577,577,567,439,409,441,412,415,556,753,836,919,976,985,969,955,939,925,909,895,879,865,849,835,879,805,789,775,760,745,730,715,700,685,642,568,427,417,414,415,416,411,411,412,414,414,413,412,412,412,414,411,412,412,420,413,412,414,414,412,413,412,415,413,413,414,412,412,613,615,644,618,644,1104,1286,1537,1596,1648,1642,1612,1582,1552,1594,1494,1464,1434,1405,1431,1345,1315,1285,1256,1226,1196,1166,1137,1107,1077,1034,772,751,639,624,623,626,630,632,619,621,623,641,644,704,647,640,644,646,634,647,626,628,640,640,632,648,628,624,643,640,645,643,640,632,695,696,726,702,737,1266,1468,1731,1802,1836,1827,1795,1762,1744,1767,1680,1633,1600,1585,1591,1502,1470,1437,1405,1372,1340,1308,1275,1243,1148,882,858,742,721,707,705,709,712,706,699,698,699,712,722,710,718,720,724,728,737,729,710,723,721,721,714,727,754,738,735,736,724,733,730,717,704,706,708,710,758,1142,1399,1554,1670,1714,1696,1670,1641,1616,1602,1574,1551,1526,1484,1470,1431,1416,1411,1351,1334,1299,1280,1218,1189,1120,938,760,743,725,715,724,716,710,709,698,700,698,704,707,708,703,712,720,726,715,725,728,728,727,721,726,722,730,725,720,731,721,732,731,724,0,0,0,0,0,0,0,0,0,0,0,0,0,0,0,0,0,0,0,0,0,0,0,0,0,0,0,0,0,0,0,0,0,0,0,0,0,0,0,0,0,0,0,0,0,0,0,0,0,0,0,0,0,0,0,0,0,0,0,0,0,0,0,0,0,742,740,763,772,853,1357,1618,1828,1935,1956,1943,1908,1874,1839,1812,1772,1739,1704,1669,1633,1606,1563,1528,1493,1459,1422,1394,1352,1330,1288,1100,900,798,780,772,771,753,751,736,743,744,755,754,764,753,766,749,774,753,748,752,760,768,771,774,760,759,760,766,759,757,751,748,755,746,624,626,628,630,652,992,1214,1346,1455,1504,1503,1480,1458,1434,1411,1388,1364,1341,1318,1294,1272,1249,1225,1202,1179,1155,1132,1110,1086,1063,1040,896,662,647,636,633,635,636,631,646,620,620,640,640,632,631,635,639,660,650,663,659,656,651,670,657,654,664,684,658,654,656,686,678,640,604,605,607,620,629,794,1138,1267,1431,1475,1488,1448,1428,1410,1388,1363,1339,1315,1298,1267,1258,1228,1197,1181,1166,1126,1109,1080,1077,936,807,788,641,625,615,629,625,607,559,545,545,545,545,545,545,545,545,545,545,545,545,545,545,545,545,545,545,545,545,545,545,545,545,545,545,658,649,642,662,667,818,1207,1398,1523,1569,1571,1555,1533,1498,1492,1508,1424,1402,1371,1354,1326,1320,1290,1249,1234,1223,1174,1142,994,920,815,692,724,672,672,674,658,646,578,564,564,564,564,564,564,564,564,564,564,564,564,564,564,564,564,564,564,564,564,564,564,564,564,564,564,304,304,305,307,308,338,557,622,687,744,755,743,731,719,711,700,684,671,659,647,635,622,623,599,587,575,567,552,538,527,518,345,343,329,312,322,324,310,284,289,286,296,307,310,301,313,301,308,311,307,307,298,307,309,309,299,309,310,302,313,308,326,308,311,306,354,344,345,346,348,421,630,686,752,807,829,806,794,782,775,763,746,734,733,720,697,685,673,661,649,637,628,613,601,589,552,443,440,414,356,353,354,355,329,335,331,342,346,349,340,349,336,356,341,340,347,345,355,360,356,345,352,344,353,348,352,359,340,346,338,714,719,718,734,747,1055,1384,1525,1699,1772,1745,1722,1700,1672,1616,1631,1574,1553,1511,1478,1466,1437,1410,1415,1380,1361,1321,1290,1125,1052,809,776,777,744,743,754,737,738,670,656,656,656,656,656,656,656,656,656,656,656,656,656,656,656,656,656,656,656,656,656,656,656,656,656,656,212,212,212,213,214,211,357,404,445,507,522,514,506,498,470,482,474,465,457,450,448,433,424,417,409,400,392,385,376,368,360,352,255,250,244,215,215,247,194,193,185,187,200,203,196,203,199,206,197,210,203,203,199,213,204,199,199,199,199,199,199,199,199,199,199,237,238,239,239,239,280,401,444,495,538,559,551,542,534,526,517,509,501,491,483,474,466,458,451,442,434,425,416,408,399,391,381,291,285,277,240,241,241,155,155,159,163,161,159,159,161,159,160,158,162,161,159,158,163,159,157,157,157,157,157,157,157,157,157,157,322,320,320,324,322,438,576,641,744,793,795,793,782,772,759,783,735,722,710,681,668,656,643,630,658,604,592,579,566,554,551,523,420,335,451,334,336,344,311,311,315,317,316,318,316,318,317,317,318,318,315,316,318,318,316,315,317,318,317,317,318,318,312,318,318,736,738,740,741,784,1176,1537,1778,1911,1965,1941,1916,1885,1845,1792,1779,1751,1704,1669,1630,1641,1572,1536,1501,1458,1429,1390,1351,1316,1126,896,800,783,776,754,747,751,745,744,729,741,768,737,756,744,768,750,774,758,741,756,751,759,786,776,754,753,756,752,746,758,779,749,773,749,0,0,0,0,0,0,0,0,0,0,0,0,0,0,0,0,0,0,0,0,0,0,0,0,0,0,0,0,0,0,0,0,0,0,0,0,0,0,0,0,0,0,0,0,0,0,0,0,0,0,0,0,0,0,0,0,0,0,0,0,0,0,0,0,0,604,605,607,620,629,794,1138,1267,1431,1475,1488,1448,1428,1410,1388,1363,1339,1315,1298,1267,1258,1228,1197,1181,1166,1126,1109,1080,1077,936,807,788,641,625,615,629,625,607,559,545,545,545,545,545,545,545,545,545,545,545,545,545,545,545,545,545,545,545,545,545,545,545,545,545,545,0,0,0,0,0,0,0,0,0,0,0,0,0,0,0,0,0,0,0,0,0,0,0,0,0,0,0,0,0,0,0,0,0,0,0,0,0,0,0,0,0,0,0,0,0,0,0,0,0,0,0,0,0,0,0,0,0,0,0,0,0,0,0,0,0,344,344,345,346,348,583,607,662,716,760,769,758,748,738,726,717,705,694,687,678,667,657,646,637,667,651,645,596,586,576,556,544,534,449,350,348,348,349,340,344,343,347,349,344,387,350,343,350,348,344,350,385,389,351,386,389,341,341,345,345,339,347,347,352,344,596,598,600,601,608,951,1135,1254,1358,1433,1432,1414,1394,1332,1312,1288,1268,1247,1227,1206,1182,1165,1139,1165,1096,1075,1081,1080,994,972,951,855,632,618,607,590,606,588,582,570,569,572,585,588,593,588,587,584,587,581,580,583,581,609,586,588,584,584,594,582,598,587,585,592,589,553,558,560,557,568,926,1060,1129,1249,1296,1299,1281,1264,1248,1201,1212,1196,1178,1129,1144,1093,1109,1057,1085,1019,1001,983,965,908,890,853,753,724,577,567,564,561,553,543,536,544,549,542,552,550,554,554,550,551,549,549,551,548,568,553,555,551,552,556,553,560,557,562,570,558,269,270,271,272,272,429,475,519,564,607,616,608,600,591,583,574,566,558,549,540,531,523,514,506,498,489,481,472,464,456,447,439,430,422,414,272,273,411,262,260,264,265,260,273,266,404,392,267,396,264,267,265,265,271,268,266,266,269,266,264,265,268,266,273,268,825,827,826,832,862,1317,1685,1843,1920,1968,1966,1919,1897,1865,1833,1805,1778,1747,1718,1689,1658,1628,1593,1582,1541,1511,1474,1446,1414,1262,974,884,860,851,834,832,837,819,807,805,813,816,813,820,815,829,813,818,817,812,815,817,817,824,821,819,817,817,816,815,815,818,815,822,817,882,891,892,896,933,1439,1835,1993,2065,2108,2097,2058,2030,1990,1964,1936,1906,1873,1842,1813,1779,1732,1709,1675,1655,1616,1584,1557,1353,1326,1061,947,953,908,901,899,863,862,850,849,856,855,852,871,858,875,856,861,860,855,858,860,860,867,864,861,860,860,859,858,858,861,858,865,860,387,388,392,391,406,584,715,793,864,915,922,909,896,883,870,856,842,825,816,801,788,774,750,747,733,720,705,690,678,632,620,581,574,419,410,392,393,390,380,377,380,383,380,378,381,388,381,380,384,382,380,383,383,388,384,388,384,387,386,383,384,382,380,386,382,403,404,405,407,449,639,723,843,931,987,996,980,964,949,933,918,902,885,870,854,838,823,806,791,776,759,743,728,712,697,681,666,649,422,412,409,410,411,363,370,369,375,377,375,370,376,370,382,373,372,372,375,382,386,379,374,377,371,377,377,376,396,374,377,376,733,727,738,741,769,1132,1469,1611,1719,1757,1726,1695,1669,1641,1615,1603,1599,1569,1546,1516,1487,1451,1427,1404,1379,1348,1322,1314,1252,1165,1005,912,861,756,732,734,730,748,731,722,725,720,722,733,733,747,735,734,743,725,732,727,731,734,733,731,740,735,733,734,732,738,736,743,734,0,0,0,0,0,0,0,0,0,0,0,0,0,0,0,0,0,0,0,0,0,0,0,0,0,0,0,0,0,0,0,0,0,0,0,0,0,0,0,0,0,0,0,0,0,0,0,0,0,0,0,0,0,0,0,0,0,0,0,0,0,0,0,0,0 ]);
