n = 10;
D = [158,228,245,220,184,207,294,236,84,146 ];
q = 0;
prec = array2d(1..0,1..2,[]);
steps = 64;
l = 360;
r = 0;
which = [];
interval = array2d(1..0,1..2,[]);
T = array3d(1..11,1..11,0..64,[0,0,0,0,0,0,0,0,0,0,0,0,0,0,0,0,0,0,0,0,0,0,0,0,0,0,0,0,0,0,0,0,0,0,0,0,0,0,0,0,0,0,0,0,0,0,0,0,0,0,0,0,0,0,0,0,0,0,0,0,0,0,0,0,0,565,567,568,570,584,785,910,993,1089,1133,1139,1120,1103,1084,1067,1048,1086,1012,993,975,957,939,920,903,882,866,848,830,811,794,779,757,655,640,577,574,574,576,562,565,575,588,577,580,573,583,573,594,577,575,590,591,624,704,650,588,590,594,591,586,595,623,588,596,585,1224,1224,1230,1263,1468,1832,2140,2263,2380,2444,2424,2371,2360,2339,2263,2231,2182,2172,2124,2057,2022,2018,1949,1905,1879,1831,1792,1701,1531,1377,1360,1310,1286,1282,1260,1241,1231,1203,1185,1188,1202,1218,1200,1210,1204,1198,1210,1205,1207,1195,1201,1205,1197,1198,1204,1207,1205,1203,1202,1205,1203,1220,1196,1211,1201,766,754,756,774,782,1014,1211,1341,1435,1518,1522,1489,1493,1469,1417,1396,1369,1346,1329,1305,1274,1273,1226,1226,1185,1151,1126,1100,1022,1028,999,957,860,794,783,763,776,759,718,718,728,749,735,740,727,727,743,761,742,741,751,754,743,736,738,740,742,739,737,738,738,754,738,753,743,844,845,850,854,908,1185,1343,1498,1608,1697,1712,1681,1652,1624,1604,1548,1546,1525,1498,1465,1444,1409,1389,1363,1336,1282,1254,1227,1151,1134,1114,1054,933,896,906,856,817,816,805,813,814,816,826,823,828,825,816,828,822,817,828,830,831,827,846,845,824,826,830,825,826,832,824,828,828,1107,1096,1095,1113,1245,1556,1869,2009,2092,2154,2156,2113,2099,2072,2018,1981,1947,1906,1879,1848,1813,1784,1744,1723,1680,1634,1598,1529,1404,1395,1261,1173,1152,1134,1127,1102,1114,1053,1029,1030,1047,1053,1044,1048,1048,1049,1060,1055,1058,1048,1054,1055,1050,1052,1054,1057,1059,1057,1056,1055,1056,1070,1054,1069,1059,559,561,579,565,576,764,885,976,1083,1130,1134,1116,1097,1080,1082,1045,1046,1008,991,961,954,937,919,902,884,865,867,850,812,794,776,759,686,669,579,568,590,571,556,550,551,558,578,568,582,566,558,580,566,565,561,562,558,559,559,565,570,563,558,560,565,582,563,563,557,1484,1506,1515,1592,2106,2520,2884,2953,3002,3032,2981,2929,2920,2846,2839,2781,2692,2660,2611,2521,2476,2362,2358,2305,2192,2182,2037,1737,1707,1649,1627,1584,1542,1504,1534,1496,1484,1516,1541,1548,1559,1569,1558,1545,1576,1543,1549,1581,1539,1556,1559,1581,1587,1588,1598,1602,1565,1572,1571,1555,1548,1558,1586,1547,1536,1276,1253,1271,1297,1467,1787,2116,2263,2333,2393,2398,2347,2331,2307,2267,2242,2203,2171,2124,2067,2062,2025,1982,1948,1912,1862,1825,1754,1539,1525,1425,1357,1322,1296,1285,1261,1284,1220,1204,1204,1214,1229,1212,1229,1220,1213,1224,1219,1222,1212,1218,1219,1214,1216,1218,1221,1223,1221,1220,1219,1220,1234,1218,1233,1223,979,967,963,973,1073,1289,1583,1759,1846,1886,1880,1853,1835,1804,1761,1756,1701,1673,1643,1613,1583,1556,1528,1498,1469,1444,1414,1384,1131,1133,1098,1088,1022,994,1005,972,954,889,867,868,879,887,877,884,881,879,890,885,888,878,884,885,880,882,884,887,889,887,886,885,886,900,884,899,889,0,0,0,0,0,0,0,0,0,0,0,0,0,0,0,0,0,0,0,0,0,0,0,0,0,0,0,0,0,0,0,0,0,0,0,0,0,0,0,0,0,0,0,0,0,0,0,0,0,0,0,0,0,0,0,0,0,0,0,0,0,0,0,0,0,504,506,508,510,518,693,785,878,968,1071,1021,1005,990,973,957,940,924,907,891,874,859,842,826,809,793,776,760,743,728,711,695,678,662,528,516,513,514,515,510,510,517,542,526,518,524,528,522,526,535,543,539,543,543,545,531,522,524,536,529,514,520,531,522,532,523,0,0,0,0,0,0,0,0,0,0,0,0,0,0,0,0,0,0,0,0,0,0,0,0,0,0,0,0,0,0,0,0,0,0,0,0,0,0,0,0,0,0,0,0,0,0,0,0,0,0,0,0,0,0,0,0,0,0,0,0,0,0,0,0,0,1330,1332,1373,1481,1774,2075,2452,2613,2686,2720,2699,2666,2598,2564,2509,2468,2397,2375,2319,2297,2255,2209,2161,2135,2082,2038,1978,1877,1719,1663,1482,1432,1427,1364,1359,1369,1382,1356,1365,1367,1387,1368,1399,1421,1399,1427,1411,1396,1397,1397,1389,1395,1396,1414,1397,1395,1399,1421,1393,1393,1423,1399,1410,1412,1401,936,924,940,938,1026,1363,1489,1687,1788,1849,1841,1787,1777,1734,1699,1692,1647,1633,1609,1579,1550,1522,1491,1454,1435,1413,1395,1337,1302,1282,1209,1019,983,1006,939,928,952,923,917,923,926,956,958,966,949,967,971,955,971,954,939,945,954,968,938,949,953,943,957,957,961,971,953,956,945,954,956,961,973,1018,1282,1552,1715,1826,1927,1924,1848,1833,1792,1762,1729,1710,1669,1653,1625,1579,1555,1561,1495,1476,1445,1416,1376,1356,1283,1074,1030,1006,985,996,990,957,924,924,921,923,930,935,932,938,929,930,933,939,926,937,938,940,932,938,948,934,935,926,935,935,935,935,935,935,1271,1261,1282,1328,1525,1976,2148,2349,2431,2478,2465,2398,2378,2327,2279,2262,2210,2185,2152,2111,2081,2035,1992,1953,1919,1893,1860,1790,1430,1436,1395,1370,1352,1324,1277,1268,1290,1258,1255,1267,1267,1280,1285,1300,1295,1305,1297,1285,1307,1298,1287,1288,1302,1311,1286,1301,1296,1290,1294,1299,1300,1305,1297,1296,1285,422,423,426,427,430,517,620,691,761,828,854,836,826,809,796,783,774,756,743,733,716,702,692,676,665,652,639,623,612,596,583,569,455,444,441,436,438,439,405,397,405,412,400,412,404,409,408,405,429,406,403,406,404,428,407,409,406,409,406,407,409,409,409,409,409,1374,1375,1429,1522,2067,2572,3071,3254,3272,3269,3273,3223,3097,3011,2949,2904,2816,2861,2682,2630,2550,2482,2420,2349,2272,2236,2197,2059,1927,1834,1510,1481,1418,1371,1376,1372,1387,1408,1496,1538,1500,1516,1526,1505,1522,1530,1528,1531,1534,1526,1540,1530,1532,1540,1547,1590,1541,1540,1570,1539,1593,1619,1645,1674,1544,1428,1423,1455,1528,1674,2140,2411,2594,2670,2715,2699,2631,2622,2571,2506,2518,2434,2421,2391,2349,2323,2274,2225,2185,2148,2032,1829,1682,1608,1611,1566,1540,1492,1494,1441,1440,1460,1435,1431,1446,1441,1462,1464,1482,1469,1478,1477,1466,1481,1470,1462,1463,1469,1483,1466,1472,1472,1467,1466,1463,1464,1469,1462,1460,1449,1143,1132,1149,1180,1291,1735,1894,2102,2191,2242,2233,2169,2151,2105,2061,2049,2000,1978,1948,1912,1875,1840,1802,1764,1735,1710,1684,1622,1291,1413,1272,1241,1191,1214,1147,1111,1129,1097,1092,1107,1106,1126,1119,1134,1125,1137,1139,1125,1140,1133,1122,1119,1132,1147,1123,1137,1127,1118,1129,1129,1130,1135,1127,1126,1115,504,506,508,510,518,693,785,878,968,1071,1021,1005,990,973,957,940,924,907,891,874,859,842,826,809,793,776,760,743,728,711,695,678,662,528,516,513,514,515,510,510,517,542,526,518,524,528,522,526,535,543,539,543,543,545,531,522,524,536,529,514,520,531,522,532,523,1389,1359,1421,1444,1633,2111,2406,2595,2636,2643,2625,2628,2536,2533,2445,2459,2375,2359,2298,2276,2212,2167,2126,2108,2079,1988,1874,1753,1607,1512,1493,1446,1462,1419,1389,1396,1378,1344,1321,1313,1326,1345,1337,1330,1318,1328,1331,1343,1344,1328,1335,1340,1340,1345,1343,1344,1328,1340,1334,1336,1341,1338,1332,1338,1330,1457,1448,1464,1569,1789,2164,2515,2753,2841,2850,2844,2775,2729,2653,2626,2609,2549,2475,2464,2415,2372,2361,2262,2118,1947,1940,1846,1815,1683,1617,1594,1530,1542,1490,1483,1485,1482,1434,1411,1403,1416,1435,1427,1420,1408,1418,1421,1433,1441,1418,1425,1430,1430,1445,1433,1434,1418,1430,1424,1426,1431,1428,1422,1428,1420,0,0,0,0,0,0,0,0,0,0,0,0,0,0,0,0,0,0,0,0,0,0,0,0,0,0,0,0,0,0,0,0,0,0,0,0,0,0,0,0,0,0,0,0,0,0,0,0,0,0,0,0,0,0,0,0,0,0,0,0,0,0,0,0,0,660,670,672,674,678,885,1008,1130,1220,1269,1273,1263,1246,1220,1212,1186,1171,1155,1137,1124,1108,1085,1073,1049,1034,1007,1003,964,911,894,795,780,765,685,689,678,672,690,643,653,653,655,654,653,653,654,654,657,654,654,656,653,655,655,655,655,654,658,654,656,655,655,655,656,655,624,626,628,630,640,739,940,1067,1191,1238,1240,1221,1201,1182,1179,1142,1124,1104,1084,1065,1046,1040,1007,1000,982,949,929,926,904,871,736,719,678,649,637,633,635,637,616,615,619,626,621,618,616,626,619,632,635,636,629,633,645,624,629,633,624,635,642,642,638,667,624,638,625,337,338,339,340,341,432,483,533,583,632,664,653,634,624,614,605,596,586,576,566,557,547,537,528,518,509,499,489,479,470,460,451,441,431,345,342,342,342,300,300,300,302,301,300,300,301,301,304,301,301,303,300,302,302,302,302,301,305,302,303,302,302,302,303,302,1102,1098,1103,1117,1175,1489,1791,2019,2149,2181,2168,2114,2099,2046,2029,1977,1943,1924,1889,1841,1807,1784,1739,1715,1683,1636,1616,1597,1352,1313,1223,1171,1165,1141,1113,1111,1114,1115,1096,1095,1121,1112,1104,1105,1107,1106,1106,1117,1127,1114,1113,1119,1119,1114,1119,1131,1111,1129,1113,1131,1126,1124,1114,1124,1111,880,882,883,894,964,1360,1637,1725,1828,1920,1888,1866,1849,1804,1719,1745,1728,1648,1667,1636,1593,1520,1551,1511,1479,1420,1358,1337,1305,1142,1152,1112,944,913,909,895,902,909,925,912,939,928,936,922,923,925,924,928,945,941,939,941,941,941,936,945,919,934,927,927,931,926,918,940,940,155,156,156,190,192,196,218,240,261,283,298,293,289,284,280,276,272,268,264,259,255,250,247,243,238,234,229,225,222,217,213,209,204,201,196,193,193,193,123,123,123,125,124,123,123,124,124,127,124,124,126,123,125,125,125,125,124,128,125,126,125,125,125,126,125,560,562,563,565,606,693,803,895,963,1016,1025,1018,1005,983,979,958,946,928,921,905,893,881,860,855,842,828,816,801,732,720,655,685,612,601,570,567,568,550,490,491,495,497,494,495,495,496,496,495,496,496,498,495,497,497,495,495,494,500,497,498,497,497,497,498,497,1389,1359,1421,1444,1633,2111,2406,2595,2636,2643,2625,2628,2536,2533,2445,2459,2375,2359,2298,2276,2212,2167,2126,2108,2079,1988,1874,1753,1607,1512,1493,1446,1462,1419,1389,1396,1378,1344,1321,1313,1326,1345,1337,1330,1318,1328,1331,1343,1344,1328,1335,1340,1340,1345,1343,1344,1328,1340,1334,1336,1341,1338,1332,1338,1330,741,730,738,743,752,895,1113,1294,1418,1483,1476,1456,1407,1401,1366,1341,1333,1249,1290,1263,1247,1213,1197,1104,1082,1126,1095,1061,969,954,836,869,795,773,747,746,748,723,694,687,688,704,719,710,710,718,714,720,716,721,709,709,709,715,716,711,712,718,706,715,709,727,715,712,710,963,959,962,972,1058,1355,1606,1740,1870,1903,1893,1867,1820,1790,1772,1750,1723,1702,1659,1610,1610,1560,1536,1509,1484,1439,1409,1389,1352,1239,1150,1137,1076,984,971,1001,978,956,948,944,952,956,960,960,948,950,956,963,957,957,958,963,966,961,967,965,957,965,960,956,951,966,956,971,950,534,536,538,539,541,694,844,943,1041,1100,1096,1083,1065,1047,1029,1010,992,974,955,932,919,902,883,865,847,828,810,792,774,752,738,679,663,598,546,542,544,546,522,528,528,539,535,543,533,536,544,536,532,535,534,538,533,532,539,539,538,536,534,539,542,549,540,543,543,0,0,0,0,0,0,0,0,0,0,0,0,0,0,0,0,0,0,0,0,0,0,0,0,0,0,0,0,0,0,0,0,0,0,0,0,0,0,0,0,0,0,0,0,0,0,0,0,0,0,0,0,0,0,0,0,0,0,0,0,0,0,0,0,0,405,407,408,409,411,542,610,670,737,799,808,814,783,771,759,745,732,721,708,696,697,671,657,645,633,620,608,595,576,570,557,545,532,467,415,412,413,411,359,357,364,365,369,364,368,367,364,371,364,368,373,373,370,375,373,369,367,366,362,368,364,371,369,373,367,385,386,387,388,390,495,579,645,712,764,773,761,749,737,724,712,700,688,676,664,652,640,628,616,603,591,579,567,555,543,530,518,505,493,395,390,392,393,386,382,382,388,384,386,388,390,388,390,388,387,390,390,388,391,390,390,393,392,390,386,390,399,391,397,390,787,802,801,797,835,1067,1276,1408,1543,1567,1563,1524,1500,1476,1464,1438,1414,1404,1384,1328,1315,1314,1288,1243,1245,1189,1167,1153,1138,1086,1046,922,837,827,801,811,797,802,791,797,794,793,801,813,799,802,803,805,791,797,792,797,798,793,802,802,800,800,799,795,805,818,810,810,804,1170,1153,1156,1163,1337,1711,2097,2300,2411,2424,2393,2368,2329,2310,2265,2212,2156,2134,2079,2062,2025,2008,1958,1921,1873,1819,1776,1626,1513,1455,1307,1247,1209,1181,1172,1169,1177,1185,1192,1193,1199,1200,1205,1202,1217,1216,1197,1208,1211,1220,1230,1213,1237,1228,1210,1203,1219,1212,1215,1216,1215,1218,1208,1206,1206,553,558,556,558,568,640,803,882,960,1028,1035,1004,1008,975,961,947,932,918,935,920,875,891,875,876,845,829,825,798,783,759,752,654,631,616,553,561,565,564,561,562,556,562,571,567,567,572,561,567,567,569,563,572,570,577,579,569,573,569,567,572,568,583,565,569,569,257,258,259,260,261,274,376,425,467,511,524,516,508,500,490,483,474,466,458,450,441,433,423,414,407,398,390,381,377,365,357,348,279,271,265,261,261,262,226,224,218,223,229,226,230,232,226,226,227,237,226,225,227,229,229,227,229,230,224,226,223,227,229,225,218,741,730,738,743,752,895,1113,1294,1418,1483,1476,1456,1407,1401,1366,1341,1333,1249,1290,1263,1247,1213,1197,1104,1082,1126,1095,1061,969,954,836,869,795,773,747,746,748,723,694,687,688,704,719,710,710,718,714,720,716,721,709,709,709,715,716,711,712,718,706,715,709,727,715,712,710,816,832,823,840,880,1174,1371,1525,1594,1644,1653,1625,1628,1575,1528,1523,1523,1449,1444,1421,1463,1359,1317,1291,1287,1261,1233,1186,1192,1135,1130,928,918,845,853,848,809,830,806,804,815,823,836,833,840,840,835,848,835,846,854,830,830,847,846,830,847,843,832,847,854,858,852,852,852,858,846,864,867,991,1217,1361,1531,1644,1751,1701,1652,1646,1663,1611,1604,1540,1512,1546,1482,1433,1433,1426,1352,1312,1328,1277,1272,1215,1185,1156,1096,996,882,880,855,874,887,871,869,872,873,886,880,886,886,879,890,885,892,895,893,888,883,890,888,894,885,889,889,897,899,910,902,884,756,758,760,764,809,1023,1223,1388,1495,1529,1532,1508,1482,1457,1432,1429,1382,1357,1332,1306,1281,1251,1232,1206,1181,1156,1130,1105,1076,1055,1014,822,799,782,770,765,770,757,751,750,750,766,770,780,776,789,773,790,767,772,773,769,770,772,772,775,768,763,771,775,778,763,783,799,763,481,483,484,486,479,579,734,814,895,953,965,948,934,919,905,889,873,858,843,804,814,799,777,762,752,737,699,717,669,655,641,590,504,493,505,477,478,479,467,449,443,443,463,464,464,459,462,467,466,467,464,468,470,471,468,471,465,471,467,471,466,470,470,471,465,0,0,0,0,0,0,0,0,0,0,0,0,0,0,0,0,0,0,0,0,0,0,0,0,0,0,0,0,0,0,0,0,0,0,0,0,0,0,0,0,0,0,0,0,0,0,0,0,0,0,0,0,0,0,0,0,0,0,0,0,0,0,0,0,0,768,770,781,789,843,1035,1254,1376,1493,1532,1534,1510,1491,1467,1444,1422,1399,1357,1350,1327,1303,1279,1251,1233,1208,1185,1160,1127,1111,1066,1050,923,897,813,783,780,782,737,721,717,730,742,744,722,732,747,738,736,741,740,750,729,735,750,743,737,742,736,732,745,750,756,743,752,745,489,491,493,494,499,646,749,833,918,973,982,965,950,935,940,924,908,892,877,862,846,831,815,781,765,750,734,719,704,688,673,657,558,549,501,496,498,499,490,487,485,502,491,490,492,497,493,497,495,499,497,503,497,504,500,497,499,498,496,499,498,500,511,504,486,1357,1354,1360,1402,1758,2190,2568,2815,2944,2938,2928,2847,2806,2769,2715,2656,2583,2529,2501,2422,2392,2312,2279,2201,2159,2091,2062,1962,1847,1594,1504,1459,1424,1426,1383,1381,1390,1399,1413,1406,1403,1416,1420,1427,1424,1427,1428,1436,1424,1436,1441,1440,1429,1439,1436,1440,1432,1438,1446,1466,1429,1431,1438,1439,1435,858,861,870,877,915,1176,1310,1434,1543,1584,1586,1567,1544,1522,1500,1479,1489,1465,1431,1418,1386,1371,1346,1328,1300,1277,1229,1205,1206,1152,940,937,909,900,873,869,893,854,821,820,834,842,855,828,846,858,845,850,846,845,854,833,843,858,850,843,849,842,835,851,859,863,857,864,857,639,642,644,646,667,838,1013,1127,1235,1282,1285,1265,1243,1222,1203,1182,1162,1142,1122,1150,1079,1058,1038,1017,997,976,960,936,935,896,874,841,682,666,653,649,651,626,616,612,618,618,627,626,630,636,631,632,627,630,627,638,638,644,643,634,641,642,639,631,629,624,647,640,629,816,832,823,840,880,1174,1371,1525,1594,1644,1653,1625,1628,1575,1528,1523,1523,1449,1444,1421,1463,1359,1317,1291,1287,1261,1233,1186,1192,1135,1130,928,918,845,853,848,809,830,806,804,815,823,836,833,840,840,835,848,835,846,854,830,830,847,846,830,847,843,832,847,854,858,852,852,852,1147,1180,1193,1204,1308,1761,1983,2170,2278,2298,2313,2288,2247,2156,2163,2070,2102,2062,2025,1972,1949,1855,1819,1847,1786,1749,1689,1533,1500,1388,1358,1319,1231,1208,1205,1139,1146,1152,1124,1115,1136,1151,1147,1158,1157,1162,1158,1152,1153,1155,1161,1153,1158,1180,1151,1153,1157,1155,1153,1145,1160,1158,1150,1165,1160,1325,1329,1338,1426,1572,2003,2275,2442,2556,2579,2587,2545,2505,2459,2423,2395,2339,2295,2257,2213,2174,2132,2100,2050,2006,1967,1814,1702,1508,1504,1532,1435,1388,1379,1401,1346,1332,1334,1321,1322,1316,1326,1327,1325,1327,1349,1323,1327,1324,1328,1326,1341,1335,1338,1334,1349,1332,1330,1345,1347,1331,1359,1321,1337,1330,321,322,323,324,324,345,467,535,563,568,574,568,563,597,597,546,569,535,546,543,534,525,517,506,495,485,475,465,454,444,434,429,343,336,329,325,326,333,315,321,317,327,337,342,328,343,325,339,338,336,334,331,335,345,335,333,340,341,335,342,336,368,333,335,331,448,449,450,452,454,549,658,736,813,904,910,895,881,866,850,837,822,809,795,779,765,751,737,721,707,693,678,663,649,634,620,574,560,471,459,455,457,458,435,427,438,439,432,464,439,469,466,439,472,445,450,445,445,469,444,444,440,449,438,436,442,443,438,455,451,721,723,730,727,735,914,1136,1254,1360,1434,1392,1368,1347,1326,1339,1284,1298,1276,1252,1193,1207,1201,1154,1117,1096,1075,1074,1050,1013,991,931,899,807,749,740,736,734,739,699,717,693,707,727,711,729,734,700,701,710,738,705,703,719,707,706,712,711,720,721,727,715,729,706,714,706,0,0,0,0,0,0,0,0,0,0,0,0,0,0,0,0,0,0,0,0,0,0,0,0,0,0,0,0,0,0,0,0,0,0,0,0,0,0,0,0,0,0,0,0,0,0,0,0,0,0,0,0,0,0,0,0,0,0,0,0,0,0,0,0,0,1170,1159,1154,1186,1256,1693,1988,2105,2225,2269,2267,2247,2196,2160,2124,2115,2066,2016,1996,1940,1908,1897,1849,1791,1749,1728,1712,1569,1415,1305,1303,1260,1209,1204,1214,1171,1178,1179,1170,1159,1166,1179,1175,1163,1181,1185,1177,1166,1172,1174,1180,1177,1188,1183,1188,1177,1170,1174,1175,1191,1167,1195,1173,1180,1175,961,960,967,975,1092,1249,1571,1704,1848,1946,1898,1843,1838,1790,1776,1780,1752,1686,1633,1608,1605,1575,1520,1505,1455,1406,1395,1403,1344,1330,1079,1077,1062,987,972,967,981,978,947,953,949,985,965,988,958,1008,959,969,964,959,958,959,972,967,964,968,967,958,989,967,961,981,961,970,966,188,189,189,189,233,238,280,294,322,311,317,315,313,352,347,308,335,303,335,319,313,308,302,291,291,286,281,276,270,279,245,275,273,243,237,233,234,234,182,183,180,184,184,187,183,189,182,184,186,183,182,186,187,186,186,189,186,188,189,189,186,232,184,189,186,299,300,300,301,335,408,420,454,512,522,532,547,541,535,529,523,518,511,506,500,466,459,453,446,440,433,426,420,413,441,400,392,386,379,341,302,303,339,278,274,270,276,276,277,279,281,275,276,280,286,286,282,278,295,280,276,273,276,281,282,285,298,285,291,282,1147,1180,1193,1204,1308,1761,1983,2170,2278,2298,2313,2288,2247,2156,2163,2070,2102,2062,2025,1972,1949,1855,1819,1847,1786,1749,1689,1533,1500,1388,1358,1319,1231,1208,1205,1139,1146,1152,1124,1115,1136,1151,1147,1158,1157,1162,1158,1152,1153,1155,1161,1153,1158,1180,1151,1153,1157,1155,1153,1145,1160,1158,1150,1165,1160,438,439,441,443,447,589,667,744,822,883,892,877,862,847,833,820,806,792,777,763,749,734,719,706,691,677,663,649,634,620,606,591,577,461,450,446,447,425,409,408,419,438,418,423,423,425,436,421,432,423,420,423,424,430,424,431,425,425,426,427,437,462,456,467,455,399,400,402,403,405,535,605,676,746,803,810,797,784,772,759,749,732,720,707,694,680,671,655,642,629,619,603,596,577,567,556,543,525,513,502,405,393,395,395,389,389,395,399,399,390,400,397,496,396,399,395,399,401,391,402,402,391,399,396,401,405,404,399,466,404,1072,1078,1081,1125,1254,1649,1885,2092,2120,2145,2189,2102,2117,2032,1993,2016,1925,1893,1858,1821,1789,1754,1717,1685,1653,1612,1577,1546,1480,1452,1317,1149,1124,1104,1136,1091,1080,1105,1095,1101,1110,1107,1135,1122,1146,1145,1135,1133,1141,1114,1132,1132,1139,1150,1149,1146,1142,1135,1129,1137,1120,1124,1127,1154,1109,771,762,779,769,803,1114,1251,1387,1493,1525,1507,1509,1490,1461,1452,1415,1377,1383,1342,1317,1280,1256,1229,1193,1181,1145,1134,1109,1097,1071,1037,943,867,780,780,785,775,774,766,771,774,775,779,767,777,783,775,779,791,781,774,790,787,791,796,791,780,789,786,783,780,789,781,780,772,638,641,643,644,657,866,1005,1119,1222,1265,1267,1251,1228,1213,1193,1169,1148,1133,1113,1093,1073,1053,1029,1013,992,970,950,933,909,893,872,850,683,666,654,650,649,612,604,605,606,612,642,644,646,637,625,646,643,638,639,618,622,672,636,625,646,625,616,640,633,683,639,651,629,1091,1098,1109,1114,1214,1676,1893,2056,2122,2151,2135,2111,2103,2045,2011,1991,1940,1910,1877,1828,1805,1760,1741,1702,1677,1633,1588,1569,1514,1395,1213,1161,1145,1116,1125,1103,1058,1095,1075,1074,1078,1092,1082,1093,1076,1084,1116,1084,1083,1079,1080,1092,1080,1081,1090,1089,1084,1091,1080,1095,1091,1136,1097,1122,1093,0,0,0,0,0,0,0,0,0,0,0,0,0,0,0,0,0,0,0,0,0,0,0,0,0,0,0,0,0,0,0,0,0,0,0,0,0,0,0,0,0,0,0,0,0,0,0,0,0,0,0,0,0,0,0,0,0,0,0,0,0,0,0,0,0,1421,1454,1470,1584,2144,2809,3136,3412,3406,3457,3415,3363,3259,3174,3144,3086,3025,2970,2875,2759,2725,2649,2573,2447,2307,2276,2186,2072,1712,1709,1605,1538,1549,1507,1493,1503,1505,1574,1580,1562,1566,1577,1633,1637,1610,1636,1613,1640,1634,1628,1636,1605,1614,1642,1637,1616,1638,1634,1620,1639,1639,1640,1636,1638,1636,1175,1187,1197,1237,1331,1735,1943,2176,2174,2203,2264,2165,2255,2101,2102,2159,2030,2001,1967,1934,1900,1849,1840,1797,1773,1712,1678,1672,1557,1550,1271,1250,1260,1221,1250,1199,1175,1195,1178,1178,1178,1203,1188,1207,1187,1191,1230,1189,1188,1183,1184,1200,1188,1188,1196,1196,1190,1194,1186,1204,1198,1249,1209,1246,1205,955,961,963,983,1045,1441,1634,1805,1871,1898,1897,1865,1876,1807,1818,1775,1710,1685,1656,1623,1592,1563,1546,1504,1472,1444,1409,1381,1331,1344,1207,1141,1007,987,989,972,953,947,938,947,957,965,953,944,957,971,960,958,971,959,949,961,995,971,976,969,954,958,963,959,953,969,954,952,944,438,439,441,443,447,589,667,744,822,883,892,877,862,847,833,820,806,792,777,763,749,734,719,706,691,677,663,649,634,620,606,591,577,461,450,446,447,425,409,408,419,438,418,423,423,425,436,421,432,423,420,423,424,430,424,431,425,425,426,427,437,462,456,467,455,1448,1452,1492,1655,2114,2668,2948,3155,3229,3260,3202,3157,3045,3019,2957,2898,2812,2798,2697,2645,2575,2531,2453,2396,2334,2271,2133,1886,1699,1647,1643,1548,1539,1491,1474,1477,1487,1530,1605,1568,1633,1597,1629,1598,1578,1602,1582,1595,1603,1593,1597,1604,1615,1665,1685,1612,1598,1604,1674,1689,1612,1600,1593,1706,1676,1354,1350,1380,1517,2214,2637,2994,3149,3216,3232,3175,3118,3052,2973,2919,2853,2802,2744,2678,2589,2537,2450,2382,2322,2455,2190,2123,2058,1835,1776,1538,1467,1419,1407,1375,1388,1419,1409,1525,1518,1537,1560,1541,1545,1550,1531,1533,1579,1595,1537,1566,1586,1589,1599,1594,1558,1535,1548,1535,1533,1537,1545,1538,1598,1535,786,788,790,892,906,1258,1489,1690,1784,1887,1875,1842,1809,1697,1662,1754,1591,1556,1521,1486,1450,1415,1380,1345,1310,1274,1239,1204,1169,1134,1098,1063,1021,813,801,802,808,814,809,808,810,828,815,828,814,922,909,816,824,818,817,819,815,816,817,822,821,823,815,817,818,926,828,920,820,1127,1130,1175,1284,1307,1907,2195,2443,2464,2600,2542,2484,2440,2319,2327,2227,2182,2192,2090,2043,1998,1952,1906,1910,1862,1768,1805,1676,1525,1513,1452,1221,1213,1190,1147,1149,1184,1195,1215,1195,1206,1204,1207,1223,1216,1216,1220,1232,1255,1238,1243,1248,1248,1257,1244,1250,1242,1264,1273,1268,1263,1254,1267,1280,1262,1138,1125,1098,1194,1257,1821,2109,2300,2382,2471,2450,2409,2367,2302,2202,2158,2113,2069,2024,1980,1936,1890,1846,1802,1772,1713,1669,1624,1647,1447,1415,1184,1149,1120,1110,1112,1118,1122,1172,1170,1171,1179,1176,1173,1184,1191,1192,1206,1189,1190,1219,1196,1198,1234,1192,1203,1211,1221,1217,1234,1206,1186,1190,1197,1184,937,940,965,1014,1075,1478,1745,1927,1992,2024,2051,2004,1950,1908,1925,1855,1810,1806,1766,1720,1687,1648,1608,1572,1530,1490,1450,1412,1372,1333,1287,1192,993,966,954,980,952,964,969,949,961,955,973,987,965,963,966,983,1001,995,1009,1010,1017,998,995,989,997,1000,1011,1079,994,997,1019,1019,1007,1522,1512,1565,1813,2046,2776,3044,3213,3282,3347,3311,3254,3199,3121,3010,2952,2894,2835,2777,2728,2662,2603,2559,2487,2287,2226,2167,1845,1884,1760,1697,1660,1587,1561,1546,1547,1558,1551,1604,1656,1617,1630,1640,1634,1632,1652,1634,1635,1655,1626,1637,1649,1643,1655,1654,1699,1661,1655,1689,1645,1690,1672,1676,1661,1650,0,0,0,0,0,0,0,0,0,0,0,0,0,0,0,0,0,0,0,0,0,0,0,0,0,0,0,0,0,0,0,0,0,0,0,0,0,0,0,0,0,0,0,0,0,0,0,0,0,0,0,0,0,0,0,0,0,0,0,0,0,0,0,0,0,942,944,958,989,1022,1365,1621,1772,1820,1893,1877,1901,1824,1795,1762,1734,1703,1742,1644,1676,1588,1589,1524,1502,1508,1465,1454,1405,1344,1257,1199,1190,1001,997,959,960,931,937,932,933,934,951,938,952,938,987,971,940,950,941,942,944,940,941,941,950,946,949,940,942,943,993,953,991,945,1087,1071,1097,1129,1263,1616,1904,2038,2136,2227,2182,2121,2087,2054,1995,1961,1932,1928,1859,1883,1802,1757,1723,1711,1684,1621,1587,1553,1459,1333,1243,1187,1180,1113,1108,1083,1062,1068,1087,1075,1075,1070,1086,1101,1084,1077,1085,1105,1126,1112,1102,1113,1112,1109,1110,1108,1114,1126,1117,1111,1115,1108,1110,1124,1105,1448,1452,1492,1655,2114,2668,2948,3155,3229,3260,3202,3157,3045,3019,2957,2898,2812,2798,2697,2645,2575,2531,2453,2396,2334,2271,2133,1886,1699,1647,1643,1548,1539,1491,1474,1477,1487,1530,1605,1568,1633,1597,1629,1598,1578,1602,1582,1595,1603,1593,1597,1604,1615,1665,1685,1612,1598,1604,1674,1689,1612,1600,1593,1706,1676,1285,1288,1290,1320,1420,1834,2115,2365,2418,2362,2337,2352,2319,2244,2253,2160,2133,2144,2059,2071,2019,1949,1915,1947,1890,1857,1746,1605,1488,1416,1352,1370,1343,1315,1265,1239,1245,1246,1220,1209,1219,1228,1242,1244,1244,1245,1244,1244,1244,1244,1244,1244,1244,1244,1244,1238,1244,1244,1244,1244,1244,1244,1244,1244,1244,1425,1430,1438,1514,1631,2083,2418,2633,2689,2695,2664,2623,2589,2544,2506,2471,2433,2386,2341,2305,2267,2224,2183,2029,1819,1815,1961,1717,1628,1601,1551,1556,1478,1475,1456,1446,1431,1433,1416,1406,1396,1403,1421,1419,1417,1437,1411,1433,1423,1435,1427,1440,1436,1440,1440,1433,1430,1437,1440,1440,1434,1440,1422,1430,1424,160,161,161,161,198,201,222,243,264,283,299,294,290,287,282,278,275,270,266,262,258,254,250,246,242,238,234,229,225,222,217,213,210,205,201,198,199,199,150,153,150,153,153,155,150,154,150,155,152,153,152,152,155,159,153,153,154,153,154,154,153,155,149,152,149,548,550,550,552,554,618,784,890,959,995,992,980,966,953,940,927,914,900,887,873,867,847,835,822,809,796,781,769,708,694,683,635,622,612,557,555,556,557,530,511,518,516,526,550,529,555,549,545,554,552,549,544,546,554,551,529,538,554,541,546,545,538,539,548,552,736,735,738,740,743,908,1114,1237,1319,1381,1344,1325,1307,1289,1270,1252,1234,1215,1197,1179,1160,1142,1124,1106,1087,1069,1051,1031,1013,987,918,856,769,807,747,743,745,746,701,699,690,694,694,720,697,707,701,713,732,737,720,703,740,726,728,709,709,738,724,740,722,740,729,711,710,185,186,186,187,188,236,265,293,322,349,366,360,355,349,344,338,333,327,322,316,311,305,300,294,289,283,278,272,267,261,256,250,245,239,234,188,231,231,177,180,181,201,201,181,177,178,181,201,188,182,184,183,177,178,181,187,178,177,178,178,180,177,182,180,176,1205,1207,1217,1225,1284,1656,2007,2189,2265,2306,2254,2214,2181,2153,2115,2082,2060,2016,1986,1950,1917,1884,1851,1832,1786,1752,1731,1689,1425,1324,1297,1343,1263,1279,1223,1220,1223,1225,1180,1191,1173,1169,1180,1203,1185,1189,1188,1196,1219,1206,1207,1188,1217,1217,1227,1198,1214,1212,1207,1236,1195,1205,1215,1197,1196,919,941,953,957,1026,1323,1530,1682,1867,1883,1887,1787,1743,1714,1753,1706,1692,1662,1633,1541,1512,1499,1521,1470,1401,1406,1324,1302,1269,1233,1138,982,995,991,957,933,935,904,907,907,931,911,908,908,922,907,915,912,931,915,917,931,931,912,919,931,921,917,910,928,931,931,918,930,911,0,0,0,0,0,0,0,0,0,0,0,0,0,0,0,0,0,0,0,0,0,0,0,0,0,0,0,0,0,0,0,0,0,0,0,0,0,0,0,0,0,0,0,0,0,0,0,0,0,0,0,0,0,0,0,0,0,0,0,0,0,0,0,0,0,409,410,424,425,414,477,585,652,697,738,739,732,721,713,703,694,686,677,666,659,643,638,629,614,612,603,594,586,525,515,509,495,491,444,416,414,429,402,372,358,350,353,370,371,369,374,363,382,379,393,387,381,379,396,388,361,371,383,384,392,388,396,387,384,376,1285,1288,1290,1320,1420,1834,2115,2365,2418,2362,2337,2352,2319,2244,2253,2160,2133,2144,2059,2071,2019,1949,1915,1947,1890,1857,1746,1605,1488,1416,1352,1370,1343,1315,1265,1239,1245,1246,1220,1209,1219,1228,1242,1244,1244,1245,1244,1244,1244,1244,1244,1244,1244,1244,1244,1238,1244,1244,1244,1244,1244,1244,1244,1244,1244,1005,1008,1011,1029,1049,1374,1702,1841,1979,1997,1963,1954,1935,1833,1858,1844,1739,1772,1699,1712,1686,1660,1557,1527,1561,1511,1480,1374,1241,1195,1181,1146,1064,1043,1037,1008,1001,987,946,947,960,965,977,976,970,987,972,988,974,980,982,979,982,987,989,979,980,976,969,974,969,984,977,980,971,1158,1155,1165,1203,1271,1792,2014,2173,2257,2282,2270,2280,2194,2167,2119,2081,2067,2020,1975,1934,1899,1863,1848,1814,1755,1721,1697,1487,1529,1377,1259,1231,1230,1189,1184,1170,1164,1157,1141,1130,1134,1137,1157,1150,1156,1154,1152,1154,1152,1144,1159,1141,1148,1157,1159,1144,1156,1138,1136,1153,1150,1164,1158,1163,1150,411,412,434,414,466,499,622,694,766,826,834,821,807,794,781,767,754,740,728,714,701,687,674,661,647,634,619,607,595,580,567,513,500,432,421,417,471,420,399,400,400,402,410,408,403,410,401,412,403,405,408,409,418,430,422,419,412,409,415,416,420,421,428,446,417,275,276,277,278,279,360,408,456,504,550,563,554,544,535,526,518,509,500,490,481,473,464,455,445,436,427,419,410,401,391,382,374,365,356,340,279,280,281,260,257,260,265,263,260,270,263,259,266,261,261,267,272,271,268,283,276,261,262,261,261,260,267,263,268,261,590,592,593,595,606,784,904,1021,1100,1163,1163,1156,1128,1112,1084,1081,1076,1039,1026,1001,990,966,948,929,911,893,881,856,841,825,811,782,653,638,593,595,597,567,540,540,561,562,562,556,552,564,557,557,554,551,549,555,559,555,557,554,551,550,558,559,553,554,546,549,546,202,203,255,204,277,259,292,330,357,389,386,381,391,386,379,372,367,355,355,346,342,337,333,328,324,320,315,299,292,286,280,273,267,261,208,205,277,206,197,197,197,198,206,200,202,207,198,210,202,200,204,203,202,207,208,207,207,207,203,207,204,210,210,211,211,992,999,999,1023,1094,1469,1664,1824,1918,1968,1918,1932,1895,1846,1796,1807,1774,1753,1694,1683,1632,1584,1596,1576,1504,1478,1463,1416,1306,1218,1083,1058,1082,1024,1001,1008,997,1003,987,984,988,991,1002,989,1001,996,993,996,985,991,994,995,1002,1002,1012,998,997,992,990,991,1004,995,1007,1000,993,1012,1033,1010,1001,1119,1379,1702,1842,1914,2000,1971,1901,1891,1849,1818,1850,1810,1728,1696,1672,1690,1628,1628,1593,1525,1514,1475,1445,1400,1184,1090,1069,1043,1042,1040,1011,1017,1014,981,984,986,993,992,990,991,991,991,993,993,994,1005,1003,1014,999,995,991,992,994,991,990,992,991,990,993,990,369,375,380,373,425,445,532,610,636,663,671,662,653,645,636,628,619,611,602,594,598,577,579,569,561,551,534,525,517,509,500,495,438,388,381,375,429,377,372,378,373,381,387,387,378,386,376,381,387,383,382,389,389,393,386,389,393,390,392,384,387,406,375,383,380,0,0,0,0,0,0,0,0,0,0,0,0,0,0,0,0,0,0,0,0,0,0,0,0,0,0,0,0,0,0,0,0,0,0,0,0,0,0,0,0,0,0,0,0,0,0,0,0,0,0,0,0,0,0,0,0,0,0,0,0,0,0,0,0,0,1005,1008,1011,1029,1049,1374,1702,1841,1979,1997,1963,1954,1935,1833,1858,1844,1739,1772,1699,1712,1686,1660,1557,1527,1561,1511,1480,1374,1241,1195,1181,1146,1064,1043,1037,1008,1001,987,946,947,960,965,977,976,970,987,972,988,974,980,982,979,982,987,989,979,980,976,969,974,969,984,977,980,971,0,0,0,0,0,0,0,0,0,0,0,0,0,0,0,0,0,0,0,0,0,0,0,0,0,0,0,0,0,0,0,0,0,0,0,0,0,0,0,0,0,0,0,0,0,0,0,0,0,0,0,0,0,0,0,0,0,0,0,0,0,0,0,0,0,565,567,568,570,584,785,910,993,1089,1133,1139,1120,1103,1084,1067,1048,1086,1012,993,975,957,939,920,903,882,866,848,830,811,794,779,757,655,640,577,574,574,576,562,565,575,588,577,580,573,583,573,594,577,575,590,591,624,704,650,588,590,594,591,586,595,623,588,596,585,1224,1224,1230,1263,1468,1832,2140,2263,2380,2444,2424,2371,2360,2339,2263,2231,2182,2172,2124,2057,2022,2018,1949,1905,1879,1831,1792,1701,1531,1377,1360,1310,1286,1282,1260,1241,1231,1203,1185,1188,1202,1218,1200,1210,1204,1198,1210,1205,1207,1195,1201,1205,1197,1198,1204,1207,1205,1203,1202,1205,1203,1220,1196,1211,1201,766,754,756,774,782,1014,1211,1341,1435,1518,1522,1489,1493,1469,1417,1396,1369,1346,1329,1305,1274,1273,1226,1226,1185,1151,1126,1100,1022,1028,999,957,860,794,783,763,776,759,718,718,728,749,735,740,727,727,743,761,742,741,751,754,743,736,738,740,742,739,737,738,738,754,738,753,743,844,845,850,854,908,1185,1343,1498,1608,1697,1712,1681,1652,1624,1604,1548,1546,1525,1498,1465,1444,1409,1389,1363,1336,1282,1254,1227,1151,1134,1114,1054,933,896,906,856,817,816,805,813,814,816,826,823,828,825,816,828,822,817,828,830,831,827,846,845,824,826,830,825,826,832,824,828,828,1107,1096,1095,1113,1245,1556,1869,2009,2092,2154,2156,2113,2099,2072,2018,1981,1947,1906,1879,1848,1813,1784,1744,1723,1680,1634,1598,1529,1404,1395,1261,1173,1152,1134,1127,1102,1114,1053,1029,1030,1047,1053,1044,1048,1048,1049,1060,1055,1058,1048,1054,1055,1050,1052,1054,1057,1059,1057,1056,1055,1056,1070,1054,1069,1059,559,561,579,565,576,764,885,976,1083,1130,1134,1116,1097,1080,1082,1045,1046,1008,991,961,954,937,919,902,884,865,867,850,812,794,776,759,686,669,579,568,590,571,556,550,551,558,578,568,582,566,558,580,566,565,561,562,558,559,559,565,570,563,558,560,565,582,563,563,557,1484,1506,1515,1592,2106,2520,2884,2953,3002,3032,2981,2929,2920,2846,2839,2781,2692,2660,2611,2521,2476,2362,2358,2305,2192,2182,2037,1737,1707,1649,1627,1584,1542,1504,1534,1496,1484,1516,1541,1548,1559,1569,1558,1545,1576,1543,1549,1581,1539,1556,1559,1581,1587,1588,1598,1602,1565,1572,1571,1555,1548,1558,1586,1547,1536,1276,1253,1271,1297,1467,1787,2116,2263,2333,2393,2398,2347,2331,2307,2267,2242,2203,2171,2124,2067,2062,2025,1982,1948,1912,1862,1825,1754,1539,1525,1425,1357,1322,1296,1285,1261,1284,1220,1204,1204,1214,1229,1212,1229,1220,1213,1224,1219,1222,1212,1218,1219,1214,1216,1218,1221,1223,1221,1220,1219,1220,1234,1218,1233,1223,979,967,963,973,1073,1289,1583,1759,1846,1886,1880,1853,1835,1804,1761,1756,1701,1673,1643,1613,1583,1556,1528,1498,1469,1444,1414,1384,1131,1133,1098,1088,1022,994,1005,972,954,889,867,868,879,887,877,884,881,879,890,885,888,878,884,885,880,882,884,887,889,887,886,885,886,900,884,899,889,0,0,0,0,0,0,0,0,0,0,0,0,0,0,0,0,0,0,0,0,0,0,0,0,0,0,0,0,0,0,0,0,0,0,0,0,0,0,0,0,0,0,0,0,0,0,0,0,0,0,0,0,0,0,0,0,0,0,0,0,0,0,0,0,0 ]);
