n = 10;
D = [259,114,70,150,129,121,117,103,287,80 ];
q = 0;
prec = array2d(1..0,1..2,[]);
steps = 64;
l = 360;
r = 0;
which = [];
interval = array2d(1..0,1..2,[]);
T = array3d(1..11,1..11,0..64,[0,0,0,0,0,0,0,0,0,0,0,0,0,0,0,0,0,0,0,0,0,0,0,0,0,0,0,0,0,0,0,0,0,0,0,0,0,0,0,0,0,0,0,0,0,0,0,0,0,0,0,0,0,0,0,0,0,0,0,0,0,0,0,0,0,819,769,817,781,815,892,1021,1194,1240,1220,1218,1189,1181,1162,1144,1129,1119,1135,1151,1083,1078,1091,1040,1021,972,960,932,912,900,869,858,832,820,800,788,776,780,787,801,787,789,790,789,791,860,854,793,824,808,793,793,845,850,862,858,862,852,862,867,840,824,818,800,797,797,730,711,717,702,725,798,925,1033,1081,1093,1097,1103,1043,1043,1055,1024,991,1055,1031,990,997,969,963,924,905,889,866,830,799,798,793,766,757,722,682,705,708,725,737,721,701,708,732,735,737,751,732,759,751,818,830,810,751,837,769,725,735,749,829,897,876,916,889,828,814,169,170,170,171,171,177,200,224,274,300,284,279,275,298,266,261,257,252,248,243,239,234,230,225,221,216,211,207,202,198,193,189,184,180,175,172,172,173,159,161,161,163,163,163,163,163,161,161,162,162,162,165,165,164,162,163,165,165,167,165,164,169,162,164,163,860,853,856,870,908,1006,1135,1261,1258,1299,1300,1281,1263,1244,1194,1208,1238,1171,1152,1134,1115,1148,1078,1060,1087,1023,1042,1018,997,949,931,946,924,875,875,861,860,865,869,878,900,919,937,940,940,897,899,931,886,875,889,894,892,891,916,901,878,876,889,889,877,890,892,915,876,725,675,677,679,700,769,872,1026,1130,1057,1058,1070,1026,1037,994,992,975,1040,977,960,944,928,912,896,857,839,821,804,786,766,749,733,716,699,686,681,703,685,675,691,690,697,694,693,694,701,691,713,687,694,692,700,713,729,715,713,701,692,708,709,712,715,695,702,693,813,763,811,775,808,884,1012,1201,1231,1211,1209,1180,1172,1154,1135,1121,1111,1127,1143,1075,1070,1084,1033,1014,965,953,925,905,893,862,852,826,813,794,782,770,774,781,782,777,800,816,830,829,840,782,807,824,790,782,792,792,787,786,817,805,784,785,782,787,789,797,804,817,789,108,108,109,109,110,112,127,142,157,172,183,180,177,174,171,168,165,162,159,156,153,150,148,145,142,139,136,133,130,127,124,121,118,115,112,110,110,110,95,96,97,100,98,98,97,101,96,101,98,101,98,98,101,103,100,98,100,100,101,98,100,102,97,98,97,789,740,742,744,773,852,966,1133,1235,1161,1160,1170,1125,1134,1090,1086,1067,1164,1065,1048,1030,1012,994,976,936,917,935,878,859,837,819,801,782,764,751,746,768,750,744,751,763,786,770,768,762,783,755,787,776,785,823,813,840,830,775,774,789,784,782,771,789,802,770,778,770,628,596,598,600,611,667,756,867,967,925,928,914,900,887,873,873,858,902,864,850,836,822,808,822,757,742,726,711,695,677,663,648,634,619,606,618,605,604,603,603,602,606,607,615,639,641,613,619,619,618,613,613,613,632,619,619,619,609,610,613,613,617,614,641,611,0,0,0,0,0,0,0,0,0,0,0,0,0,0,0,0,0,0,0,0,0,0,0,0,0,0,0,0,0,0,0,0,0,0,0,0,0,0,0,0,0,0,0,0,0,0,0,0,0,0,0,0,0,0,0,0,0,0,0,0,0,0,0,0,0,804,803,810,801,837,954,1147,1249,1241,1301,1252,1232,1232,1239,1198,1340,1199,1275,1113,1232,1069,1070,1073,997,1009,995,973,938,944,907,915,881,860,822,851,805,846,808,830,831,823,869,862,838,846,860,843,856,881,859,858,847,838,846,843,848,846,838,836,846,836,845,845,841,821,0,0,0,0,0,0,0,0,0,0,0,0,0,0,0,0,0,0,0,0,0,0,0,0,0,0,0,0,0,0,0,0,0,0,0,0,0,0,0,0,0,0,0,0,0,0,0,0,0,0,0,0,0,0,0,0,0,0,0,0,0,0,0,0,0,486,487,491,490,497,534,597,679,737,796,815,781,813,756,752,738,728,718,702,680,676,663,651,638,625,613,597,583,572,552,551,527,523,505,498,493,495,489,476,485,494,508,493,498,486,503,481,495,487,483,486,494,496,496,495,493,490,487,501,496,485,487,483,491,484,854,929,859,865,895,997,1103,1278,1376,1362,1326,1373,1299,1283,1306,1241,1229,1235,1245,1194,1245,1114,1093,1099,1082,1060,1049,989,979,1000,949,928,904,883,870,863,865,871,863,876,876,889,913,885,884,909,881,888,879,877,878,896,905,914,1021,1007,914,901,901,890,877,878,899,893,878,1137,1263,1142,1187,1332,1541,1733,1876,2056,1993,1981,2099,1913,1913,1857,1825,1794,1763,1716,1693,1628,1639,1584,1551,1510,1472,1436,1382,1359,1320,1279,1313,1205,1177,1154,1161,1178,1184,1252,1230,1226,1241,1244,1267,1297,1297,1262,1322,1264,1246,1248,1288,1300,1290,1294,1309,1295,1323,1288,1274,1282,1266,1244,1248,1230,650,636,656,640,681,718,806,905,1076,1042,1056,1021,1012,984,978,959,960,932,912,910,894,861,845,857,807,795,776,777,743,719,726,709,676,656,649,685,668,640,647,646,642,656,649,653,652,662,653,656,654,653,660,656,659,661,663,660,669,662,660,651,662,668,667,669,669,49,49,49,49,49,50,56,63,70,76,82,81,79,78,77,76,74,73,72,70,69,68,66,65,64,63,61,60,59,57,56,55,53,52,51,50,50,50,20,19,20,20,20,20,20,20,20,20,20,20,20,20,20,20,19,20,20,20,20,20,20,20,19,20,20,711,714,721,711,724,837,865,983,1041,1086,1063,1048,1033,1045,1050,1133,1000,1051,965,963,923,916,924,873,886,876,859,843,827,869,809,780,764,731,758,714,733,735,738,730,743,754,747,745,739,740,748,754,758,744,751,786,808,784,777,760,743,759,745,747,736,761,752,762,743,652,638,658,642,683,720,808,908,1104,1044,1058,1023,1014,986,979,961,962,934,914,912,896,863,847,859,809,797,778,779,744,721,728,711,678,658,651,703,670,642,651,652,651,652,653,662,694,663,656,662,661,667,657,668,659,668,661,663,664,661,661,662,661,661,661,663,659,567,598,584,574,634,634,711,849,922,928,948,910,903,911,878,858,845,833,819,792,786,774,792,742,761,726,694,681,665,658,639,616,607,623,578,574,576,606,590,583,578,582,578,575,582,592,580,709,582,576,583,585,595,576,592,587,584,591,577,580,584,585,578,586,586,804,803,810,801,837,954,1147,1249,1241,1301,1252,1232,1232,1239,1198,1340,1199,1275,1113,1232,1069,1070,1073,997,1009,995,973,938,944,907,915,881,860,822,851,805,846,808,830,831,823,869,862,838,846,860,843,856,881,859,858,847,838,846,843,848,846,838,836,846,836,845,845,841,821,726,728,724,730,756,860,956,1117,1140,1230,1288,1221,1222,1198,1119,1103,1114,1075,1040,1043,1003,979,980,930,927,893,884,925,872,876,808,798,765,747,764,798,736,746,738,737,739,743,744,744,752,749,749,754,751,752,756,758,758,755,767,766,767,771,769,763,778,769,767,771,770,395,395,397,398,400,442,487,544,613,660,684,646,646,637,626,604,605,598,641,573,562,541,530,520,510,499,489,478,524,466,447,436,443,433,405,400,419,472,415,420,410,415,424,423,430,432,419,424,423,429,423,417,418,424,423,422,422,420,415,420,415,422,418,419,411,0,0,0,0,0,0,0,0,0,0,0,0,0,0,0,0,0,0,0,0,0,0,0,0,0,0,0,0,0,0,0,0,0,0,0,0,0,0,0,0,0,0,0,0,0,0,0,0,0,0,0,0,0,0,0,0,0,0,0,0,0,0,0,0,0,711,700,696,698,724,823,909,1018,1093,1120,1182,1154,1125,1096,1077,1061,997,1006,982,1004,945,937,929,890,892,859,834,824,840,804,763,764,736,718,722,740,707,717,720,700,706,702,732,722,714,708,713,729,759,744,747,749,755,736,754,739,737,761,770,756,739,738,766,766,754,1103,1148,1145,1138,1215,1356,1529,1670,1869,1800,1819,1799,1738,1738,1682,1653,1625,1589,1569,1580,1504,1485,1446,1428,1400,1372,1344,1316,1287,1290,1225,1189,1198,1177,1158,1120,1159,1162,1225,1192,1184,1271,1239,1238,1229,1204,1219,1249,1259,1237,1246,1250,1222,1225,1211,1242,1248,1242,1275,1281,1220,1206,1261,1198,1197,218,219,219,220,221,230,260,291,321,352,365,360,354,348,342,336,330,325,319,313,307,301,295,290,284,278,272,266,260,255,249,243,237,231,225,221,222,222,205,208,211,219,212,212,213,224,210,217,216,224,218,213,220,223,213,215,217,225,220,211,218,224,216,216,213,416,417,419,420,432,479,516,576,649,696,735,681,681,713,674,637,675,660,633,603,592,570,593,548,537,526,515,504,517,491,471,460,477,474,461,448,450,434,435,437,439,455,445,441,447,465,444,447,453,464,491,488,493,478,442,441,452,462,453,447,452,457,450,450,449,702,652,621,603,631,735,744,821,971,1001,1003,956,1011,904,889,876,910,848,936,857,878,846,835,785,759,769,729,737,713,744,729,727,619,643,652,687,670,614,647,647,646,657,670,648,659,656,654,656,670,674,747,746,756,691,743,707,682,677,661,651,674,652,664,656,652,220,220,221,222,222,231,262,293,323,354,367,362,356,350,344,338,332,326,321,315,309,303,297,291,285,280,274,268,262,256,250,244,239,233,227,223,224,224,211,211,211,212,211,212,213,225,217,215,212,213,213,217,215,224,216,213,213,215,212,216,215,215,213,215,213,173,173,174,174,175,180,203,226,250,273,286,282,277,273,268,264,259,255,250,246,242,237,233,228,224,219,215,210,206,201,197,192,188,183,179,175,176,176,164,164,164,165,186,174,172,180,172,188,174,170,175,165,167,174,174,166,180,166,166,174,173,187,177,177,173,726,728,724,730,756,860,956,1117,1140,1230,1288,1221,1222,1198,1119,1103,1114,1075,1040,1043,1003,979,980,930,927,893,884,925,872,876,808,798,765,747,764,798,736,746,738,737,739,743,744,744,752,749,749,754,751,752,756,758,758,755,767,766,767,771,769,763,778,769,767,771,770,197,198,198,199,200,207,234,261,289,316,330,325,320,315,309,304,299,294,288,283,278,273,267,262,257,251,246,241,236,230,225,220,215,209,204,200,201,201,188,190,188,190,194,194,193,204,192,194,195,198,190,194,193,198,202,193,196,195,194,193,193,200,190,193,193,889,874,901,895,934,1044,1215,1342,1358,1387,1385,1364,1332,1352,1292,1293,1272,1244,1226,1197,1150,1196,1128,1093,1063,1080,1059,1033,1009,992,960,951,919,925,885,883,913,929,892,905,896,881,884,909,899,909,902,936,915,929,939,911,929,927,961,919,914,938,938,961,940,919,944,934,942,805,785,798,802,828,922,1035,1194,1229,1261,1270,1242,1227,1208,1211,1204,1187,1144,1144,1076,1046,1047,1023,1019,996,951,968,944,950,907,876,869,840,825,806,810,826,794,810,809,809,815,818,812,825,823,828,814,822,825,884,875,892,832,820,828,827,838,827,813,841,810,818,818,809,0,0,0,0,0,0,0,0,0,0,0,0,0,0,0,0,0,0,0,0,0,0,0,0,0,0,0,0,0,0,0,0,0,0,0,0,0,0,0,0,0,0,0,0,0,0,0,0,0,0,0,0,0,0,0,0,0,0,0,0,0,0,0,0,0,758,774,777,779,805,888,1001,1133,1202,1244,1247,1228,1208,1189,1186,1150,1131,1127,1084,1087,1067,1034,1005,995,976,945,937,917,886,879,859,851,820,801,773,769,771,773,768,778,783,801,855,835,798,844,799,877,824,855,829,801,829,871,827,804,855,821,808,838,833,871,824,818,808,770,773,793,808,835,907,1049,1129,1222,1254,1322,1208,1215,1201,1153,1147,1128,1113,1090,1061,1040,1033,1008,990,948,929,962,918,923,882,852,893,834,816,784,815,786,799,797,804,798,815,827,823,845,830,821,815,833,835,828,854,851,862,825,836,838,821,814,867,820,829,820,900,821,858,868,870,888,927,1036,1206,1332,1349,1378,1376,1355,1323,1344,1283,1285,1263,1236,1218,1189,1143,1156,1121,1086,1056,1073,1053,1027,1002,986,953,945,913,894,879,877,907,923,902,886,878,908,952,990,908,908,927,946,931,952,952,952,917,921,943,939,951,927,945,1013,967,975,991,951,950,251,248,249,254,254,260,271,338,353,409,380,415,408,362,356,350,361,356,367,344,338,347,340,334,295,308,283,307,300,264,286,280,273,261,255,255,256,257,242,238,239,242,242,245,241,243,241,243,242,242,240,242,242,239,241,245,243,243,241,239,242,242,242,242,240,834,837,858,875,911,994,1147,1236,1327,1357,1423,1307,1313,1298,1247,1358,1264,1203,1178,1148,1125,1116,1090,1070,1027,1006,1037,992,995,953,921,960,900,881,849,880,851,864,866,876,864,898,877,873,879,898,875,886,885,886,883,876,869,877,882,888,874,878,873,878,866,881,876,879,859,703,694,696,709,722,801,901,994,1060,1095,1097,1081,1063,1053,1032,1029,1012,1000,978,951,909,928,905,866,870,852,847,825,813,794,784,762,735,719,704,717,705,718,700,693,700,705,706,718,712,718,708,728,720,705,710,701,703,714,710,709,715,700,701,706,709,713,712,733,714,197,198,198,199,200,207,234,261,289,316,330,325,320,315,309,304,299,294,288,283,278,273,267,262,257,251,246,241,236,230,225,220,215,209,204,200,201,201,188,190,188,190,194,194,193,204,192,194,195,198,190,194,193,198,202,193,196,195,194,193,193,200,190,193,193,995,1065,1046,1018,1090,1237,1391,1478,1569,1603,1678,1578,1553,1529,1506,1483,1459,1491,1413,1377,1378,1384,1320,1296,1304,1230,1227,1203,1180,1157,1134,1128,1089,1066,1057,1010,1012,1015,1038,1042,1049,1124,1058,1074,1042,1062,1051,1066,1074,1061,1063,1058,1059,1085,1097,1066,1051,1060,1069,1069,1061,1055,1059,1085,1049,1219,1186,1217,1231,1340,1564,1821,1998,2098,2128,2110,2071,2069,1993,1954,1915,1942,1836,1861,1804,1748,1680,1689,1602,1676,1550,1484,1565,1406,1404,1328,1329,1251,1268,1201,1251,1210,1218,1280,1260,1264,1269,1265,1274,1271,1269,1282,1350,1277,1289,1299,1300,1304,1313,1328,1314,1304,1304,1305,1314,1311,1309,1312,1323,1322,1249,1238,1238,1302,1420,1614,1837,1964,2093,2083,2106,2055,2024,1973,1981,1965,1870,1830,1863,1831,1783,1726,1689,1639,1589,1573,1504,1492,1441,1441,1367,1356,1361,1318,1275,1270,1261,1290,1335,1323,1352,1365,1371,1405,1356,1374,1378,1389,1411,1383,1389,1429,1441,1436,1406,1376,1368,1394,1372,1376,1371,1402,1374,1404,1384,857,859,883,867,981,1011,1146,1278,1363,1403,1462,1378,1356,1333,1446,1288,1326,1244,1221,1256,1177,1154,1132,1109,1087,1065,1042,1113,998,975,953,1014,908,887,872,869,873,934,890,891,888,938,917,892,900,917,906,925,955,916,922,908,897,900,907,920,904,902,894,901,901,925,938,935,911,0,0,0,0,0,0,0,0,0,0,0,0,0,0,0,0,0,0,0,0,0,0,0,0,0,0,0,0,0,0,0,0,0,0,0,0,0,0,0,0,0,0,0,0,0,0,0,0,0,0,0,0,0,0,0,0,0,0,0,0,0,0,0,0,0,1100,1103,1106,1140,1235,1416,1633,1843,1878,1903,1943,1911,1823,1790,1757,1787,1691,1704,1713,1636,1605,1525,1532,1458,1465,1432,1359,1325,1292,1259,1226,1193,1211,1145,1124,1118,1123,1129,1154,1157,1172,1195,1173,1193,1176,1188,1166,1180,1190,1168,1167,1185,1177,1200,1219,1207,1173,1181,1184,1179,1172,1170,1181,1208,1174,1213,1180,1211,1224,1332,1555,1812,1989,2089,2119,2102,2063,2061,1985,1946,1907,1934,1829,1853,1796,1741,1673,1682,1595,1669,1543,1478,1558,1400,1398,1322,1323,1245,1262,1195,1245,1204,1212,1290,1280,1296,1309,1298,1287,1309,1295,1299,1319,1318,1290,1294,1335,1366,1350,1366,1328,1318,1313,1313,1321,1321,1321,1294,1303,1315,1029,1043,1046,1068,1139,1321,1444,1611,1638,1761,1688,1661,1634,1648,1634,1586,1592,1499,1495,1488,1517,1391,1364,1357,1280,1317,1316,1231,1202,1175,1148,1157,1094,1071,1061,1055,1088,1061,1082,1089,1083,1103,1129,1127,1141,1151,1111,1149,1149,1146,1154,1136,1137,1149,1137,1123,1146,1130,1120,1129,1138,1136,1129,1156,1122,1112,1102,1134,1173,1252,1474,1636,1813,1980,1905,1892,1858,1843,1846,1776,1806,1731,1697,1731,1629,1622,1541,1554,1536,1446,1407,1365,1326,1306,1271,1239,1205,1189,1157,1152,1147,1135,1146,1176,1169,1166,1175,1177,1213,1206,1222,1200,1210,1220,1213,1221,1222,1221,1251,1234,1202,1218,1213,1210,1242,1220,1216,1226,1271,1230,1183,1233,1221,1237,1346,1543,1736,1843,1952,1943,1966,1901,1905,1951,1854,1814,1804,1729,1701,1688,1665,1654,1562,1559,1500,1469,1485,1469,1383,1346,1343,1278,1324,1229,1208,1203,1231,1272,1271,1269,1275,1274,1274,1269,1287,1295,1279,1281,1288,1292,1360,1365,1313,1291,1305,1326,1336,1399,1394,1292,1336,1410,1418,1386,1328,995,1065,1046,1018,1090,1237,1391,1478,1569,1603,1678,1578,1553,1529,1506,1483,1459,1491,1413,1377,1378,1384,1320,1296,1304,1230,1227,1203,1180,1157,1134,1128,1089,1066,1057,1010,1012,1015,1038,1042,1049,1124,1058,1074,1042,1062,1051,1066,1074,1061,1063,1058,1059,1085,1097,1066,1051,1060,1069,1069,1061,1055,1059,1085,1049,765,796,770,809,846,946,1062,1233,1258,1301,1263,1338,1286,1236,1216,1213,1255,1182,1229,1156,1094,1143,1104,1016,1046,992,982,983,911,877,883,854,832,816,809,799,808,792,791,800,806,823,883,859,820,870,825,911,848,878,853,822,852,897,850,825,881,844,830,861,858,898,850,843,831,511,515,534,529,525,572,669,724,800,846,852,833,824,836,822,784,798,756,721,756,716,687,688,675,696,647,640,607,607,593,567,566,552,550,523,519,520,525,510,522,521,523,522,519,525,526,524,533,518,523,521,527,533,542,539,540,527,521,532,534,538,539,527,531,525,135,135,136,136,136,140,158,176,194,212,225,221,218,214,210,207,203,200,196,193,189,186,182,179,175,172,195,164,161,157,179,150,147,143,140,137,137,138,128,126,125,126,126,128,132,132,127,127,131,131,129,127,127,131,128,128,127,128,126,126,127,127,128,131,127,737,768,738,776,813,851,1019,1160,1211,1255,1212,1251,1222,1193,1195,1167,1210,1121,1149,1100,1056,1053,1017,964,962,958,949,951,875,845,853,824,803,788,780,770,765,764,791,769,767,771,778,781,843,832,783,815,800,779,785,832,837,843,833,853,840,858,836,817,816,800,785,781,772,1113,1106,1118,1122,1226,1435,1662,1765,1884,1886,1904,1828,1815,1785,1801,1713,1688,1657,1625,1591,1550,1521,1497,1460,1418,1433,1376,1350,1285,1254,1248,1190,1157,1129,1116,1108,1130,1127,1158,1157,1156,1166,1175,1157,1159,1174,1150,1169,1162,1160,1165,1220,1176,1166,1214,1172,1164,1166,1182,1184,1158,1162,1168,1173,1168,0,0,0,0,0,0,0,0,0,0,0,0,0,0,0,0,0,0,0,0,0,0,0,0,0,0,0,0,0,0,0,0,0,0,0,0,0,0,0,0,0,0,0,0,0,0,0,0,0,0,0,0,0,0,0,0,0,0,0,0,0,0,0,0,0,532,537,556,568,548,599,699,774,853,882,887,883,874,874,855,816,830,842,765,823,796,716,750,727,688,674,666,663,671,617,602,589,611,572,545,541,578,547,552,554,553,555,609,593,593,588,570,623,591,584,587,565,568,592,578,570,603,568,564,591,582,611,593,607,578,699,716,712,690,735,800,859,1026,1054,1097,1128,1117,1109,1060,977,1008,1027,991,960,978,976,945,922,904,921,868,950,914,804,793,787,823,828,710,705,709,744,697,721,718,728,744,740,735,730,735,732,744,747,736,741,776,795,779,770,745,737,749,741,738,729,753,739,754,733,145,145,146,146,147,151,170,190,210,230,243,239,235,231,227,224,220,216,212,208,204,200,197,193,189,185,181,177,173,170,166,162,158,154,150,147,148,148,135,135,136,136,136,138,140,149,140,140,139,139,138,138,138,143,143,138,139,136,136,138,139,140,138,139,139,129,129,130,130,130,133,151,168,185,202,214,210,207,204,200,197,194,190,187,184,180,177,174,170,167,164,192,157,154,180,147,144,140,137,160,131,131,132,124,123,124,123,124,124,125,127,125,124,124,124,123,125,125,126,126,125,124,124,124,124,124,125,123,124,124,765,796,770,809,846,946,1062,1233,1258,1301,1263,1338,1286,1236,1216,1213,1255,1182,1229,1156,1094,1143,1104,1016,1046,992,982,983,911,877,883,854,832,816,809,799,808,792,791,800,806,823,883,859,820,870,825,911,848,878,853,822,852,897,850,825,881,844,830,861,858,898,850,843,831,811,881,865,890,880,902,1045,1180,1312,1441,1286,1346,1246,1308,1224,1206,1223,1233,1145,1139,1104,1077,1063,1052,1012,1009,944,930,929,918,879,882,884,866,895,870,848,832,845,847,846,855,856,853,852,868,844,854,850,848,854,863,861,858,858,856,853,853,866,871,848,853,851,854,850,6,6,6,6,7,7,7,8,9,9,10,10,10,9,9,9,9,9,9,9,9,8,8,8,8,8,8,8,7,7,7,7,7,7,7,7,7,7,0,0,0,0,0,0,0,0,0,0,0,0,0,0,0,0,0,0,0,0,0,0,0,0,0,0,0,431,434,435,439,442,474,537,594,663,704,718,702,692,702,676,670,642,635,629,615,603,592,581,566,558,546,534,524,509,501,489,478,466,455,444,441,438,436,426,416,430,448,444,439,423,425,441,460,445,448,457,536,613,550,504,453,431,464,441,440,433,446,442,470,435,862,901,863,863,902,1009,1098,1272,1331,1487,1351,1345,1293,1333,1343,1257,1243,1212,1207,1226,1162,1109,1121,1082,1046,1059,1034,992,958,963,921,923,914,899,866,838,851,864,853,871,877,863,870,859,873,874,875,875,904,859,892,863,876,870,891,899,890,874,875,877,881,874,866,904,861,1151,1152,1235,1205,1352,1514,1760,1904,2040,2029,2017,1955,1963,1867,1875,1824,1775,1744,1758,1700,1662,1670,1614,1557,1517,1469,1426,1400,1393,1325,1287,1239,1344,1181,1159,1175,1251,1260,1256,1274,1242,1258,1253,1254,1315,1287,1252,1289,1299,1264,1292,1261,1271,1275,1283,1289,1281,1294,1333,1281,1277,1267,1254,1289,1248,579,582,736,604,600,655,746,823,938,950,960,944,927,936,902,924,860,854,839,822,806,827,776,757,745,730,713,700,681,714,653,637,622,607,593,591,613,587,586,580,580,585,609,600,593,601,605,624,614,628,625,621,614,609,630,614,617,623,632,640,624,634,638,645,621,0,0,0,0,0,0,0,0,0,0,0,0,0,0,0,0,0,0,0,0,0,0,0,0,0,0,0,0,0,0,0,0,0,0,0,0,0,0,0,0,0,0,0,0,0,0,0,0,0,0,0,0,0,0,0,0,0,0,0,0,0,0,0,0,0,723,772,745,758,764,778,902,987,1092,1142,1098,1056,1089,1027,1075,1043,1025,968,997,997,992,940,947,966,897,876,845,829,833,817,782,820,802,775,739,734,756,736,737,735,731,748,805,794,781,785,759,821,795,799,787,752,758,793,792,758,795,775,751,789,775,807,793,808,770,649,584,653,606,601,657,748,825,940,952,962,946,928,938,904,925,862,855,841,823,808,829,777,758,747,731,715,702,682,700,654,639,624,608,595,593,615,589,586,576,578,577,582,585,587,585,586,592,598,592,600,599,599,601,599,600,602,611,615,616,608,606,624,617,622,526,514,515,520,539,572,646,719,797,883,849,849,819,826,796,799,766,752,742,727,730,700,689,688,658,644,634,620,601,605,579,566,577,539,525,523,524,521,509,509,509,511,515,516,515,521,524,544,525,529,521,524,524,525,525,527,530,533,529,531,530,532,531,533,532,811,881,865,890,880,902,1045,1180,1312,1441,1286,1346,1246,1308,1224,1206,1223,1233,1145,1139,1104,1077,1063,1052,1012,1009,944,930,929,918,879,882,884,866,895,870,848,832,845,847,846,855,856,853,852,868,844,854,850,848,854,863,861,858,858,856,853,853,866,871,848,853,851,854,850,215,216,228,204,205,212,240,268,296,324,339,333,328,354,317,312,306,301,295,290,285,279,274,268,295,258,252,247,241,236,231,225,247,214,209,205,206,232,196,196,201,208,202,200,204,212,200,203,204,210,207,202,207,208,201,202,205,215,209,198,207,212,205,205,204,768,764,759,789,803,887,971,1093,1176,1178,1201,1173,1167,1153,1133,1116,1082,1136,1051,1035,1018,1041,985,965,946,923,903,895,854,847,859,824,780,772,780,750,746,782,775,753,746,754,809,848,777,775,791,805,790,816,813,817,785,789,804,800,818,798,820,883,831,841,855,814,817,695,666,681,687,742,771,855,959,1023,1064,1064,1047,1057,1029,1003,1003,978,988,968,930,912,913,878,863,833,837,807,803,773,770,725,718,695,709,692,704,692,707,672,679,684,700,756,733,697,737,697,785,722,753,726,699,724,758,724,705,752,718,706,735,730,769,723,718,706,265,266,267,285,268,282,319,356,394,431,443,436,471,422,442,408,401,433,387,379,409,365,358,351,344,359,330,323,316,321,314,293,297,294,287,269,270,271,266,270,269,276,274,277,270,281,266,282,276,294,271,272,281,287,276,274,279,281,277,274,276,278,269,270,268,944,932,962,945,1036,1097,1205,1317,1393,1481,1430,1436,1434,1407,1385,1327,1307,1286,1310,1245,1225,1246,1184,1184,1161,1132,1110,1087,1064,1042,1019,1012,991,939,945,920,944,947,931,938,943,976,952,958,943,950,948,939,950,951,981,998,989,963,959,970,971,970,971,961,967,1007,983,993,988,690,643,693,695,748,743,848,952,1006,1028,1029,1013,998,982,965,951,947,931,962,945,906,867,850,835,840,810,796,763,747,731,715,708,683,677,683,663,652,702,660,660,663,677,677,677,676,686,675,677,683,680,679,694,702,701,690,674,679,685,680,675,670,689,672,686,668,762,758,753,783,796,879,963,1084,1166,1169,1192,1164,1159,1144,1124,1108,1074,1128,1043,1027,1011,1034,978,958,939,916,897,888,847,841,853,818,774,766,774,744,740,776,759,748,756,768,762,768,772,783,770,769,781,770,787,785,786,786,764,762,772,772,775,760,768,777,764,776,770,0,0,0,0,0,0,0,0,0,0,0,0,0,0,0,0,0,0,0,0,0,0,0,0,0,0,0,0,0,0,0,0,0,0,0,0,0,0,0,0,0,0,0,0,0,0,0,0,0,0,0,0,0,0,0,0,0,0,0,0,0,0,0,0,0,754,707,758,760,823,826,942,1057,1111,1132,1131,1114,1097,1079,1061,1045,1039,1021,1051,1032,992,951,932,916,920,888,872,838,820,802,785,776,749,742,747,728,717,767,717,735,735,744,740,739,738,752,733,762,737,759,735,744,760,777,760,758,747,743,752,753,754,758,737,743,733,594,564,579,598,639,642,708,795,898,923,925,885,872,858,869,832,829,816,825,811,774,760,746,733,719,713,700,684,656,642,628,623,600,597,603,583,572,603,565,569,579,599,576,583,569,580,573,573,576,578,571,580,582,587,584,590,584,586,588,588,588,605,591,599,594,215,216,228,204,205,212,240,268,296,324,339,333,328,354,317,312,306,301,295,290,285,279,274,268,295,258,252,247,241,236,231,225,247,214,209,205,206,232,196,196,201,208,202,200,204,212,200,203,204,210,207,202,207,208,201,202,205,215,209,198,207,212,205,205,204,877,832,835,821,894,956,1128,1255,1409,1413,1365,1334,1325,1282,1329,1247,1226,1209,1195,1162,1137,1152,1094,1094,1153,1011,1018,973,966,945,968,892,901,860,871,854,856,829,852,845,860,877,874,879,870,854,868,881,878,870,891,906,929,905,897,875,858,876,864,868,859,878,871,885,858,578,544,545,541,567,618,703,816,886,930,934,883,883,871,879,860,823,810,794,800,814,752,725,741,711,673,678,667,637,651,623,608,580,563,555,562,564,565,545,545,562,575,555,567,550,568,552,567,560,549,554,556,562,571,562,560,560,554,561,561,556,560,547,557,553,166,167,167,168,168,173,196,218,241,264,277,273,268,264,260,255,251,247,242,238,264,229,225,220,216,212,207,203,198,194,190,185,181,176,172,169,169,170,157,158,159,156,157,159,159,158,158,165,161,159,158,161,159,161,161,162,161,159,159,159,159,159,159,163,161,809,800,806,778,845,918,1065,1202,1276,1342,1320,1290,1282,1234,1267,1201,1186,1150,1161,1104,1099,1115,1058,1059,1070,977,985,940,917,914,881,859,868,832,849,825,827,787,830,813,813,821,809,817,815,818,832,885,822,838,847,845,837,852,866,836,830,832,841,851,835,839,847,854,843,1144,1136,1134,1158,1261,1475,1677,1845,1926,1996,1928,1905,1876,1906,1847,1776,1741,1707,1662,1638,1604,1549,1543,1509,1463,1419,1395,1345,1316,1290,1263,1221,1196,1182,1142,1142,1155,1145,1190,1187,1192,1198,1215,1259,1202,1230,1229,1236,1249,1244,1237,1242,1226,1249,1222,1221,1231,1226,1218,1261,1236,1260,1235,1246,1250,105,106,106,106,107,109,123,137,152,166,177,175,172,169,166,163,160,158,155,152,149,146,144,141,138,135,132,129,127,124,121,118,115,112,110,107,107,108,92,92,94,96,93,95,93,94,93,96,94,93,93,93,94,95,94,93,94,93,94,94,93,94,92,93,93,572,575,577,572,591,657,748,851,922,966,970,959,932,920,938,953,855,841,825,844,806,780,766,802,750,712,735,704,661,675,647,632,613,585,577,593,596,587,588,579,584,585,584,595,593,600,595,598,599,586,585,586,584,591,592,588,590,585,586,586,584,592,585,596,592,735,769,719,735,860,866,920,1059,1109,1156,1135,1140,1169,1084,1092,1047,1060,1042,1068,974,1009,1002,967,983,980,961,916,911,893,875,840,799,763,758,761,739,792,722,775,758,774,777,768,761,784,787,772,789,789,759,755,791,797,814,790,789,783,792,791,813,794,781,759,769,779,0,0,0,0,0,0,0,0,0,0,0,0,0,0,0,0,0,0,0,0,0,0,0,0,0,0,0,0,0,0,0,0,0,0,0,0,0,0,0,0,0,0,0,0,0,0,0,0,0,0,0,0,0,0,0,0,0,0,0,0,0,0,0,0,0,188,189,189,190,191,197,222,248,273,299,313,308,303,298,293,288,283,278,274,269,264,259,254,249,244,239,234,229,224,219,214,210,205,200,195,191,192,192,182,180,178,181,177,187,177,180,181,188,186,188,192,181,189,189,219,181,181,195,181,188,181,177,189,181,179,877,832,835,821,894,956,1128,1255,1409,1413,1365,1334,1325,1282,1329,1247,1226,1209,1195,1162,1137,1152,1094,1094,1153,1011,1018,973,966,945,968,892,901,860,871,854,856,829,852,845,860,877,874,879,870,854,868,881,878,870,891,906,929,905,897,875,858,876,864,868,859,878,871,885,858,680,670,647,725,699,733,839,964,1012,1122,1069,1082,1035,1031,1053,997,966,970,959,912,891,879,877,846,829,816,796,827,774,765,755,713,714,680,657,653,665,697,651,685,676,657,662,682,671,672,667,692,675,683,692,670,678,670,694,680,672,689,764,708,701,680,699,677,685,434,451,453,454,456,495,561,626,692,740,728,735,723,693,706,687,731,663,658,654,642,586,603,619,580,555,537,544,514,520,508,484,485,473,460,457,458,459,442,442,444,457,441,441,442,449,441,439,445,441,441,438,439,441,444,444,438,439,437,438,440,441,441,450,445,193,194,195,195,196,203,229,256,282,309,323,317,312,307,329,324,292,287,282,277,271,266,261,256,274,246,241,236,231,226,220,215,210,205,200,196,215,215,187,193,192,194,195,195,192,195,189,201,192,190,194,195,202,209,202,196,196,192,200,197,197,198,193,197,193,637,642,606,637,668,697,799,913,964,1076,1023,993,991,987,952,955,920,929,919,874,868,837,840,810,794,766,763,747,742,733,721,683,671,648,625,624,636,628,615,618,630,644,631,634,625,638,624,652,631,626,645,641,662,675,649,641,647,647,647,644,653,670,641,648,639,1058,1053,1074,1110,1182,1361,1482,1609,1677,1701,1699,1699,1649,1624,1592,1569,1606,1519,1495,1469,1514,1423,1391,1409,1344,1315,1301,1262,1236,1209,1222,1156,1119,1083,1077,1066,1077,1069,1098,1093,1108,1130,1124,1134,1122,1133,1137,1135,1147,1129,1157,1160,1180,1172,1150,1133,1123,1137,1128,1124,1118,1141,1118,1147,1112,189,190,190,191,191,198,225,251,277,304,318,312,307,302,297,292,287,282,277,272,267,262,257,252,246,241,236,231,226,221,216,211,206,201,196,192,193,193,179,179,179,179,180,180,181,182,181,180,181,181,181,182,181,182,181,181,184,182,181,179,181,182,184,184,182,466,499,474,486,489,521,590,674,729,819,819,770,757,767,739,720,723,745,689,698,685,616,632,660,607,594,575,569,551,545,532,507,518,495,492,488,480,491,478,479,478,479,481,490,513,503,481,492,493,492,486,484,485,499,492,492,492,483,487,486,486,490,488,515,485,593,595,539,598,687,653,680,801,846,932,861,829,837,825,841,848,790,808,785,817,760,758,745,750,733,722,709,696,699,636,656,643,674,616,605,559,560,604,573,577,582,610,580,594,577,585,579,571,588,584,613,624,621,595,582,594,592,595,598,586,587,601,576,588,584,253,254,255,255,256,268,304,339,375,410,423,416,409,403,396,389,383,376,369,362,356,349,383,335,329,322,315,308,302,295,288,281,275,268,261,257,258,258,248,246,247,247,258,248,251,257,247,263,250,248,254,253,251,254,259,257,258,256,253,255,251,255,255,255,257,0,0,0,0,0,0,0,0,0,0,0,0,0,0,0,0,0,0,0,0,0,0,0,0,0,0,0,0,0,0,0,0,0,0,0,0,0,0,0,0,0,0,0,0,0,0,0,0,0,0,0,0,0,0,0,0,0,0,0,0,0,0,0,0,0,680,670,647,725,699,733,839,964,1012,1122,1069,1082,1035,1031,1053,997,966,970,959,912,891,879,877,846,829,816,796,827,774,765,755,713,714,680,657,653,665,697,651,685,676,657,662,682,671,672,667,692,675,683,692,670,678,670,694,680,672,689,764,708,701,680,699,677,685,0,0,0,0,0,0,0,0,0,0,0,0,0,0,0,0,0,0,0,0,0,0,0,0,0,0,0,0,0,0,0,0,0,0,0,0,0,0,0,0,0,0,0,0,0,0,0,0,0,0,0,0,0,0,0,0,0,0,0,0,0,0,0,0,0,819,769,817,781,815,892,1021,1194,1240,1220,1218,1189,1181,1162,1144,1129,1119,1135,1151,1083,1078,1091,1040,1021,972,960,932,912,900,869,858,832,820,800,788,776,780,787,801,787,789,790,789,791,860,854,793,824,808,793,793,845,850,862,858,862,852,862,867,840,824,818,800,797,797,730,711,717,702,725,798,925,1033,1081,1093,1097,1103,1043,1043,1055,1024,991,1055,1031,990,997,969,963,924,905,889,866,830,799,798,793,766,757,722,682,705,708,725,737,721,701,708,732,735,737,751,732,759,751,818,830,810,751,837,769,725,735,749,829,897,876,916,889,828,814,169,170,170,171,171,177,200,224,274,300,284,279,275,298,266,261,257,252,248,243,239,234,230,225,221,216,211,207,202,198,193,189,184,180,175,172,172,173,159,161,161,163,163,163,163,163,161,161,162,162,162,165,165,164,162,163,165,165,167,165,164,169,162,164,163,860,853,856,870,908,1006,1135,1261,1258,1299,1300,1281,1263,1244,1194,1208,1238,1171,1152,1134,1115,1148,1078,1060,1087,1023,1042,1018,997,949,931,946,924,875,875,861,860,865,869,878,900,919,937,940,940,897,899,931,886,875,889,894,892,891,916,901,878,876,889,889,877,890,892,915,876,725,675,677,679,700,769,872,1026,1130,1057,1058,1070,1026,1037,994,992,975,1040,977,960,944,928,912,896,857,839,821,804,786,766,749,733,716,699,686,681,703,685,675,691,690,697,694,693,694,701,691,713,687,694,692,700,713,729,715,713,701,692,708,709,712,715,695,702,693,813,763,811,775,808,884,1012,1201,1231,1211,1209,1180,1172,1154,1135,1121,1111,1127,1143,1075,1070,1084,1033,1014,965,953,925,905,893,862,852,826,813,794,782,770,774,781,782,777,800,816,830,829,840,782,807,824,790,782,792,792,787,786,817,805,784,785,782,787,789,797,804,817,789,108,108,109,109,110,112,127,142,157,172,183,180,177,174,171,168,165,162,159,156,153,150,148,145,142,139,136,133,130,127,124,121,118,115,112,110,110,110,95,96,97,100,98,98,97,101,96,101,98,101,98,98,101,103,100,98,100,100,101,98,100,102,97,98,97,789,740,742,744,773,852,966,1133,1235,1161,1160,1170,1125,1134,1090,1086,1067,1164,1065,1048,1030,1012,994,976,936,917,935,878,859,837,819,801,782,764,751,746,768,750,744,751,763,786,770,768,762,783,755,787,776,785,823,813,840,830,775,774,789,784,782,771,789,802,770,778,770,628,596,598,600,611,667,756,867,967,925,928,914,900,887,873,873,858,902,864,850,836,822,808,822,757,742,726,711,695,677,663,648,634,619,606,618,605,604,603,603,602,606,607,615,639,641,613,619,619,618,613,613,613,632,619,619,619,609,610,613,613,617,614,641,611,0,0,0,0,0,0,0,0,0,0,0,0,0,0,0,0,0,0,0,0,0,0,0,0,0,0,0,0,0,0,0,0,0,0,0,0,0,0,0,0,0,0,0,0,0,0,0,0,0,0,0,0,0,0,0,0,0,0,0,0,0,0,0,0,0 ]);
