n = 10;
D = [189,133,148,285,164,172,216,235,138,102 ];
q = 0;
prec = array2d(1..0,1..2,[]);
steps = 64;
l = 360;
r = 0;
which = [];
interval = array2d(1..0,1..2,[]);
T = array3d(1..11,1..11,0..64,[0,0,0,0,0,0,0,0,0,0,0,0,0,0,0,0,0,0,0,0,0,0,0,0,0,0,0,0,0,0,0,0,0,0,0,0,0,0,0,0,0,0,0,0,0,0,0,0,0,0,0,0,0,0,0,0,0,0,0,0,0,0,0,0,0,1255,1286,1253,1329,1425,1598,1848,1873,1974,2005,1963,1972,1909,1970,1839,1822,1854,1748,1718,1686,1682,1665,1691,1600,1574,1503,1549,1485,1450,1395,1424,1316,1283,1267,1268,1247,1251,1267,1334,1341,1311,1328,1323,1369,1333,1353,1363,1429,1345,1388,1374,1384,1356,1424,1386,1343,1342,1337,1366,1395,1388,1417,1392,1396,1363,1305,1297,1323,1369,1689,1671,1926,2022,2121,2108,2094,2112,2028,2032,1969,1987,1909,1883,1835,1795,1766,1812,1773,1659,1611,1578,1622,1524,1519,1463,1442,1380,1347,1406,1332,1312,1316,1332,1407,1396,1401,1402,1407,1402,1483,1478,1401,1444,1429,1413,1405,1467,1472,1491,1474,1482,1480,1498,1497,1467,1444,1441,1407,1409,1409,1135,1135,1138,1173,1244,1415,1586,1665,1768,1758,1765,1739,1721,1740,1654,1636,1622,1574,1539,1514,1537,1497,1464,1426,1422,1379,1413,1292,1259,1234,1200,1162,1205,1121,1116,1148,1151,1145,1152,1167,1165,1180,1200,1197,1198,1215,1187,1216,1205,1188,1197,1199,1208,1213,1208,1207,1205,1198,1207,1204,1203,1203,1198,1230,1200,1178,1193,1204,1243,1310,1518,1692,1819,1919,1834,1917,1807,1789,1822,1719,1770,1685,1676,1603,1574,1628,1556,1542,1488,1515,1435,1421,1404,1310,1338,1251,1265,1234,1218,1239,1188,1202,1227,1243,1246,1296,1560,1299,1241,1288,1388,1326,1268,1365,1326,1283,1281,1360,1343,1332,1250,1268,1276,1312,1320,1253,1306,1271,1280,1282,1673,1537,1798,1679,1911,2064,2371,2379,2446,2437,2467,2442,2410,2405,2293,2240,2298,2299,2187,2115,2060,2037,1998,2010,1878,1841,1827,1756,1722,1776,1735,1636,1570,1572,1544,1540,1547,1550,1675,1670,1631,1633,1706,1652,1658,1665,1667,1689,1751,1698,1711,1850,1729,1698,1828,1723,1721,1747,1784,1723,1711,1720,1794,1740,1717,1804,1875,1935,2173,2568,2726,2907,3038,3132,2999,3137,3045,2912,2880,2846,2748,2729,2816,2661,2586,2516,2456,2409,2349,2269,2236,2209,2171,2081,2046,2020,1925,1930,1905,1902,1859,1870,1963,2226,2229,2263,2278,2294,2279,2303,2328,2325,2346,2377,2377,2431,2384,2368,2400,2453,2432,2410,2431,2511,2505,2525,2557,2550,2513,2508,993,1008,1016,1030,1103,1235,1382,1567,1622,1643,1638,1622,1596,1573,1523,1498,1512,1446,1445,1417,1388,1376,1315,1282,1305,1261,1229,1195,1172,1139,1100,1076,1057,1049,1052,1019,1017,1015,1046,1055,1035,1053,1030,1072,1039,1051,1078,1123,1052,1067,1069,1066,1066,1087,1090,1061,1053,1051,1063,1074,1061,1072,1072,1072,1060,985,988,959,1041,1113,1192,1402,1527,1622,1590,1632,1621,1594,1518,1527,1494,1478,1450,1424,1399,1346,1357,1336,1230,1243,1207,1215,1166,1137,1141,1109,1077,1025,1037,999,968,1003,1005,1023,1013,1023,1029,1021,1046,1031,1031,1031,1042,1053,1045,1044,1050,1066,1049,1038,1057,1063,1066,1053,1043,1057,1030,1061,1051,1027,1326,1393,1368,1434,1606,1756,1967,2019,2109,2093,2100,2058,2036,2055,1961,1940,1916,1868,1825,1793,1850,1821,1732,1687,1675,1626,1649,1565,1489,1464,1468,1380,1365,1337,1363,1368,1369,1362,1420,1410,1403,1412,1458,1483,1435,1438,1449,1479,1440,1478,1487,1470,1443,1472,1455,1453,1470,1451,1491,1563,1535,1555,1554,1491,1493,0,0,0,0,0,0,0,0,0,0,0,0,0,0,0,0,0,0,0,0,0,0,0,0,0,0,0,0,0,0,0,0,0,0,0,0,0,0,0,0,0,0,0,0,0,0,0,0,0,0,0,0,0,0,0,0,0,0,0,0,0,0,0,0,0,1360,1299,1311,1378,1544,1713,1955,1972,2120,2185,2122,2077,2020,1923,1954,1944,1845,1851,1877,1836,1782,1807,1723,1669,1665,1651,1552,1529,1495,1475,1464,1429,1384,1367,1339,1300,1354,1329,1401,1395,1394,1406,1392,1414,1398,1402,1428,1481,1404,1426,1432,1430,1422,1434,1449,1422,1410,1418,1419,1443,1421,1428,1436,1436,1419,0,0,0,0,0,0,0,0,0,0,0,0,0,0,0,0,0,0,0,0,0,0,0,0,0,0,0,0,0,0,0,0,0,0,0,0,0,0,0,0,0,0,0,0,0,0,0,0,0,0,0,0,0,0,0,0,0,0,0,0,0,0,0,0,0,183,183,184,185,185,192,217,243,268,316,325,321,316,293,288,306,278,300,268,263,258,253,248,244,239,234,229,224,219,214,209,204,199,194,189,224,186,187,180,177,182,181,178,186,181,180,181,182,190,184,182,184,184,189,184,184,180,182,181,182,184,182,180,189,189,262,262,263,264,265,278,315,351,388,425,437,430,423,416,409,402,395,388,381,374,367,361,354,347,340,338,326,319,312,305,298,291,284,277,270,266,266,267,249,248,249,250,250,250,251,253,251,254,254,254,254,255,255,255,256,257,258,259,258,258,261,261,261,261,261,466,471,468,494,482,518,590,688,718,797,810,769,760,747,801,717,778,686,705,694,660,642,635,620,609,629,584,572,550,543,552,515,509,497,478,477,474,483,463,469,473,480,477,483,469,476,469,496,475,472,480,479,496,514,493,485,492,479,487,490,494,501,479,486,479,454,456,480,458,485,518,612,629,694,741,749,737,725,713,702,690,678,666,654,642,631,619,607,595,583,571,560,548,536,524,512,500,489,477,465,461,486,463,458,463,457,463,470,471,469,476,467,465,470,473,464,468,468,475,467,465,473,468,469,477,467,478,463,470,463,806,824,833,833,891,1012,1209,1303,1420,1427,1430,1404,1378,1367,1370,1332,1275,1249,1223,1197,1195,1146,1120,1147,1060,1043,1017,991,965,939,906,888,862,894,821,839,891,828,838,878,837,833,861,847,847,861,854,868,881,853,855,862,870,877,869,888,868,873,888,863,884,888,907,876,864,540,555,554,577,558,616,696,777,836,879,906,892,914,863,848,835,820,800,791,777,744,739,748,700,705,680,676,646,648,622,608,595,591,577,563,542,539,562,559,547,549,554,560,557,561,555,560,563,562,557,568,564,564,555,555,568,563,572,556,556,568,564,561,559,553,506,532,526,506,516,563,638,738,815,833,866,822,838,824,811,797,794,745,755,741,705,691,676,663,672,638,624,630,597,589,589,575,544,530,518,557,532,533,516,524,529,540,536,541,524,540,521,561,536,552,534,534,557,579,549,541,552,542,545,546,549,557,529,536,529,217,220,218,219,219,238,267,289,319,370,378,376,369,350,340,334,328,322,317,311,305,299,293,288,282,284,270,273,267,253,247,241,235,230,224,230,220,221,215,202,210,216,198,208,207,218,209,220,235,219,202,209,216,215,211,212,226,212,217,224,212,210,239,208,200,1360,1299,1311,1378,1544,1713,1955,1972,2120,2185,2122,2077,2020,1923,1954,1944,1845,1851,1877,1836,1782,1807,1723,1669,1665,1651,1552,1529,1495,1475,1464,1429,1384,1367,1339,1300,1354,1329,1401,1395,1394,1406,1392,1414,1398,1402,1428,1481,1404,1426,1432,1430,1422,1434,1449,1422,1410,1418,1419,1443,1421,1428,1436,1436,1419,1288,1296,1343,1349,1521,1732,1921,1969,2109,2061,2051,2007,2010,2033,1924,1877,1794,1824,1837,1761,1714,1713,1675,1717,1604,1616,1519,1536,1525,1477,1411,1357,1379,1310,1255,1291,1262,1268,1367,1341,1340,1342,1357,1379,1402,1404,1368,1447,1384,1357,1353,1415,1415,1401,1411,1426,1415,1443,1402,1394,1396,1376,1350,1352,1338,143,143,144,144,145,148,167,186,240,257,268,265,262,258,255,252,249,245,242,239,235,232,192,188,185,181,177,174,170,166,163,159,155,152,148,145,145,146,129,129,129,131,131,131,131,132,131,132,132,132,132,133,133,133,133,134,134,134,134,134,135,135,135,135,135,0,0,0,0,0,0,0,0,0,0,0,0,0,0,0,0,0,0,0,0,0,0,0,0,0,0,0,0,0,0,0,0,0,0,0,0,0,0,0,0,0,0,0,0,0,0,0,0,0,0,0,0,0,0,0,0,0,0,0,0,0,0,0,0,0,388,390,391,392,393,422,478,534,591,621,627,619,610,602,594,595,584,574,564,554,545,537,523,512,502,492,481,471,461,450,440,430,419,419,399,394,395,396,385,385,389,392,394,395,395,387,394,396,394,388,388,389,394,391,392,400,393,392,392,394,393,397,397,397,393,597,602,596,606,614,675,767,860,940,971,964,948,944,954,917,900,927,880,859,848,832,818,798,776,767,780,732,722,697,685,672,654,635,653,612,601,609,605,598,596,607,628,602,613,607,623,617,605,617,601,615,617,622,623,615,613,605,626,611,605,607,629,613,625,609,346,347,348,349,351,417,421,469,518,562,631,563,554,545,536,527,518,509,500,491,482,473,464,455,446,437,428,419,410,401,392,383,374,365,356,352,352,353,342,340,340,351,341,342,341,347,339,347,346,343,346,345,346,343,345,348,350,349,348,341,347,349,347,348,349,690,692,701,770,726,946,973,1113,1222,1265,1260,1293,1300,1180,1167,1144,1121,1098,1075,1052,1029,1006,983,960,928,992,910,867,836,821,798,775,752,729,711,777,713,717,733,729,737,752,754,766,731,767,733,737,744,749,739,755,768,786,771,777,741,756,767,767,775,766,772,794,768,661,680,682,684,684,770,870,979,1069,1093,1092,1059,1060,1038,1021,1014,1005,988,970,962,948,921,891,855,864,867,829,807,769,756,758,722,723,713,692,688,690,692,671,677,674,689,678,684,679,690,691,678,682,684,685,682,678,682,685,686,684,686,680,685,686,700,698,702,691,482,533,490,487,517,554,605,702,776,822,840,815,813,763,775,801,748,735,722,686,695,682,669,656,642,629,616,583,589,576,592,550,519,506,511,490,508,509,509,484,490,493,486,504,496,513,507,496,516,494,498,495,494,504,500,500,495,499,495,493,499,501,499,518,504,353,354,355,357,358,382,433,483,548,599,581,599,605,597,559,558,555,550,548,539,537,521,476,474,465,456,438,432,420,419,401,430,382,375,366,369,360,363,354,354,355,356,355,361,374,360,356,360,358,360,358,376,358,363,358,360,361,360,361,363,363,360,360,357,361,1288,1296,1343,1349,1521,1732,1921,1969,2109,2061,2051,2007,2010,2033,1924,1877,1794,1824,1837,1761,1714,1713,1675,1717,1604,1616,1519,1536,1525,1477,1411,1357,1379,1310,1255,1291,1262,1268,1367,1341,1340,1342,1357,1379,1402,1404,1368,1447,1384,1357,1353,1415,1415,1401,1411,1426,1415,1443,1402,1394,1396,1376,1350,1352,1338,1183,1168,1171,1229,1414,1453,1653,1800,1890,1883,1824,1796,1762,1733,1791,1758,1665,1664,1598,1590,1595,1577,1505,1524,1490,1457,1424,1460,1384,1350,1282,1288,1214,1198,1178,1292,1200,1225,1267,1235,1239,1291,1251,1266,1250,1262,1265,1264,1287,1267,1275,1265,1254,1279,1297,1267,1262,1274,1268,1268,1273,1265,1284,1302,1272,358,309,310,311,312,325,362,399,436,472,485,478,471,464,457,450,522,436,429,422,415,408,401,394,387,380,373,366,359,352,345,338,331,324,367,312,313,314,307,312,308,312,317,312,314,316,309,310,310,312,309,314,314,316,311,311,316,312,316,317,314,319,309,315,312,411,413,414,427,417,459,514,570,630,669,678,668,663,648,642,631,620,607,603,594,576,566,556,545,535,525,515,505,488,484,466,464,454,433,422,418,430,420,417,418,419,435,452,430,426,452,431,450,453,463,619,579,623,480,433,420,448,429,423,432,432,445,433,432,433,0,0,0,0,0,0,0,0,0,0,0,0,0,0,0,0,0,0,0,0,0,0,0,0,0,0,0,0,0,0,0,0,0,0,0,0,0,0,0,0,0,0,0,0,0,0,0,0,0,0,0,0,0,0,0,0,0,0,0,0,0,0,0,0,0,206,206,207,207,208,216,244,273,301,330,344,338,333,327,322,316,311,305,300,294,289,284,278,273,267,262,256,251,245,240,234,229,223,218,213,209,209,210,198,200,201,259,215,198,195,200,204,219,223,205,211,207,197,200,207,211,198,198,198,200,200,196,205,203,195,644,646,648,709,668,740,843,945,1035,1268,1077,1132,1042,1024,1007,989,971,954,936,919,901,883,866,848,830,813,795,777,760,742,724,707,720,672,658,654,657,659,660,661,664,662,657,659,674,671,659,661,670,664,666,672,670,669,666,662,666,668,667,657,669,664,666,664,670,974,976,979,1035,1106,1246,1489,1599,1707,1721,1708,1730,1645,1616,1585,1554,1553,1515,1462,1471,1422,1370,1339,1309,1278,1274,1216,1178,1180,1124,1158,1063,1062,1004,992,984,1040,1021,1022,1016,1034,1067,1051,1057,1045,1039,1043,1066,1053,1040,1052,1083,1111,1098,1077,1061,1040,1060,1046,1042,1039,1067,1055,1076,1038,269,270,271,272,273,286,322,359,396,432,445,438,431,424,417,410,403,396,389,382,375,368,362,355,348,341,334,327,320,313,306,299,292,285,278,274,274,275,268,264,265,265,280,276,270,279,268,281,273,274,276,276,278,287,285,286,274,280,276,282,284,284,287,293,285,496,498,487,501,506,551,602,673,759,761,765,784,780,768,719,706,696,719,676,683,669,657,626,652,639,606,593,600,586,559,560,533,534,520,495,491,505,507,491,492,494,502,500,509,501,510,507,500,511,502,496,503,502,513,502,501,508,503,504,511,503,514,496,509,501,319,320,306,322,323,314,333,352,371,389,398,398,391,387,383,384,376,372,369,365,361,358,354,350,347,343,339,336,332,328,325,321,317,314,328,308,308,319,296,299,294,297,302,303,320,312,299,302,304,309,307,297,300,309,303,302,303,302,296,301,297,303,303,304,296,1183,1168,1171,1229,1414,1453,1653,1800,1890,1883,1824,1796,1762,1733,1791,1758,1665,1664,1598,1590,1595,1577,1505,1524,1490,1457,1424,1460,1384,1350,1282,1288,1214,1198,1178,1292,1200,1225,1267,1235,1239,1291,1251,1266,1250,1262,1265,1264,1287,1267,1275,1265,1254,1279,1297,1267,1262,1274,1268,1268,1273,1265,1284,1302,1272,1180,1148,1161,1186,1334,1429,1676,1897,1882,1961,1848,1862,1864,1811,1728,1752,1722,1648,1605,1673,1575,1498,1490,1476,1446,1416,1415,1350,1312,1310,1279,1259,1213,1175,1167,1160,1169,1198,1215,1219,1216,1228,1230,1237,1282,1276,1230,1260,1245,1226,1236,1265,1276,1297,1288,1299,1295,1290,1281,1254,1256,1253,1250,1253,1242,440,442,443,473,450,476,533,590,688,693,743,692,688,709,704,704,639,629,618,608,597,593,609,571,555,545,534,529,528,503,513,509,472,487,451,446,460,449,454,458,458,475,486,475,471,471,467,467,479,486,478,509,498,476,470,491,487,471,450,506,470,471,462,491,464,555,545,547,578,573,616,693,774,886,888,934,880,874,891,884,869,814,804,791,771,757,759,771,722,702,689,675,667,641,634,640,654,593,598,556,552,553,555,561,562,567,560,564,573,598,586,564,578,583,582,577,573,577,591,578,579,576,571,571,571,572,575,572,596,582,239,230,240,241,242,253,264,309,342,374,387,381,375,369,362,356,350,344,338,332,325,319,313,307,284,295,288,270,265,260,255,250,251,253,235,243,243,244,220,219,222,224,223,219,220,223,226,226,224,224,225,232,243,236,230,228,225,226,226,226,224,227,226,230,225,0,0,0,0,0,0,0,0,0,0,0,0,0,0,0,0,0,0,0,0,0,0,0,0,0,0,0,0,0,0,0,0,0,0,0,0,0,0,0,0,0,0,0,0,0,0,0,0,0,0,0,0,0,0,0,0,0,0,0,0,0,0,0,0,0,777,779,781,813,910,916,1041,1246,1318,1290,1399,1267,1290,1268,1283,1225,1162,1141,1120,1099,1078,1130,1118,1015,994,973,952,931,910,889,940,877,826,834,792,789,791,794,812,799,804,801,807,806,809,809,813,807,807,809,820,822,823,817,815,822,814,824,823,823,821,828,813,812,812,984,987,990,1005,1060,1172,1327,1576,1555,1608,1601,1661,1550,1525,1499,1474,1448,1423,1397,1372,1410,1321,1295,1270,1244,1219,1194,1168,1143,1117,1092,1066,1041,1018,1003,999,1002,1004,1026,1023,1031,1023,1043,1049,1067,1063,1034,1055,1057,1054,1060,1055,1053,1088,1063,1053,1046,1046,1036,1061,1045,1052,1039,1060,1061,218,218,219,220,220,229,258,300,328,355,370,364,359,354,348,343,338,332,327,322,316,298,306,300,295,290,270,264,259,253,247,242,236,231,225,221,222,222,213,209,216,209,211,209,215,216,210,217,219,212,210,218,216,220,216,220,219,235,222,218,217,213,210,210,212,462,463,465,490,469,539,578,683,732,801,767,755,743,731,718,702,758,721,703,657,666,669,620,632,595,617,571,559,546,561,522,509,497,527,473,469,470,499,471,472,469,516,483,473,499,480,477,480,481,484,481,479,473,478,478,484,480,477,476,477,477,477,484,484,473,227,228,229,229,230,240,272,304,336,368,381,375,369,363,357,351,345,338,332,326,320,314,308,302,296,290,284,278,271,265,259,253,247,241,235,231,231,232,219,223,218,223,227,228,228,234,226,225,230,231,225,224,224,230,225,223,226,225,222,224,222,226,222,225,218,1180,1148,1161,1186,1334,1429,1676,1897,1882,1961,1848,1862,1864,1811,1728,1752,1722,1648,1605,1673,1575,1498,1490,1476,1446,1416,1415,1350,1312,1310,1279,1259,1213,1175,1167,1160,1169,1198,1215,1219,1216,1228,1230,1237,1282,1276,1230,1260,1245,1226,1236,1265,1276,1297,1288,1299,1295,1290,1281,1254,1256,1253,1250,1253,1242,1644,1723,1806,1879,2095,2251,2334,2532,2505,2616,2558,2691,2529,2499,2462,2399,2297,2207,2348,2268,2192,2227,2118,2063,2025,2006,1909,1851,1856,1829,1746,1706,1696,1794,1696,1663,1635,1680,1855,1846,1918,2174,1927,1900,1902,2006,1947,1908,2019,1979,1925,1943,2017,1991,1961,1872,1900,1914,1939,1948,1896,1937,1884,1901,1937,549,551,552,554,562,652,690,758,825,867,875,862,820,838,812,821,787,758,776,769,756,707,727,715,670,657,678,632,653,630,638,606,569,574,555,557,559,560,553,565,559,572,569,579,564,584,563,569,563,559,565,580,575,573,576,573,571,570,592,586,568,573,564,575,570,390,391,392,393,394,418,467,515,563,604,615,606,597,588,579,570,561,552,543,534,525,516,507,531,489,480,471,462,453,444,435,426,417,408,399,395,396,397,386,386,385,392,448,425,408,433,411,454,424,423,423,395,401,419,408,396,432,406,394,422,414,445,422,420,409,660,662,664,666,722,755,856,956,1079,1085,1087,1070,1052,1035,1044,986,1004,1000,974,952,913,896,879,861,844,815,809,792,774,746,740,725,705,688,674,670,684,674,656,661,661,676,663,679,663,676,686,667,672,667,668,669,664,668,669,671,669,671,666,669,674,685,680,690,676,870,873,870,903,966,1034,1166,1306,1440,1421,1421,1402,1373,1351,1390,1297,1286,1295,1262,1240,1248,1163,1141,1148,1102,1069,1057,1038,1012,982,962,942,920,895,889,878,918,908,885,881,899,917,896,915,890,898,890,892,908,898,898,904,904,919,908,909,898,908,907,916,907,913,896,919,919,0,0,0,0,0,0,0,0,0,0,0,0,0,0,0,0,0,0,0,0,0,0,0,0,0,0,0,0,0,0,0,0,0,0,0,0,0,0,0,0,0,0,0,0,0,0,0,0,0,0,0,0,0,0,0,0,0,0,0,0,0,0,0,0,0,510,511,513,514,558,651,686,792,895,958,962,943,978,907,984,870,852,834,805,797,779,760,742,724,705,687,690,650,632,687,595,577,559,540,523,561,521,524,529,532,532,547,533,541,532,552,544,534,542,529,533,540,537,540,537,541,537,546,545,546,536,547,533,546,539,951,1001,955,968,1044,1158,1297,1419,1501,1548,1564,1516,1493,1449,1470,1405,1374,1409,1381,1342,1297,1278,1242,1242,1199,1156,1150,1126,1095,1065,1029,1009,992,963,991,944,980,1001,1000,1000,957,953,1006,982,984,988,980,994,1057,991,1011,1023,1039,1017,1005,1017,1016,1049,1078,1011,1003,1017,1080,1017,989,710,720,705,717,747,826,948,1046,1130,1174,1176,1168,1150,1131,1093,1082,1051,1055,1025,1006,987,969,955,931,914,893,875,843,849,818,801,780,765,743,750,738,699,729,720,744,738,744,730,732,731,741,736,774,762,753,767,745,744,741,762,753,744,753,830,781,769,747,769,761,766,611,670,631,616,689,730,815,896,1003,1023,1084,1008,998,978,986,913,897,901,901,892,872,859,814,798,806,755,750,734,751,710,704,691,653,654,624,620,622,623,618,631,630,641,648,642,640,649,629,639,630,630,633,649,642,649,687,678,640,641,649,639,629,632,647,645,631,1644,1723,1806,1879,2095,2251,2334,2532,2505,2616,2558,2691,2529,2499,2462,2399,2297,2207,2348,2268,2192,2227,2118,2063,2025,2006,1909,1851,1856,1829,1746,1706,1696,1794,1696,1663,1635,1680,1855,1846,1918,2174,1927,1900,1902,2006,1947,1908,2019,1979,1925,1943,2017,1991,1961,1872,1900,1914,1939,1948,1896,1937,1884,1901,1937,1729,1790,1840,2038,2366,2748,2918,3164,3122,3256,3143,3061,3019,2950,2916,2828,2796,2702,2635,2618,2522,2525,2415,2427,2284,2231,2162,2101,2033,1970,1915,1844,1816,1780,1769,1790,1804,1815,2062,2111,2075,2090,2113,2099,2106,2111,2115,2114,2133,2102,2116,2119,2134,2145,2149,2160,2152,2145,2160,2140,2161,2176,2191,2177,2167,867,960,871,880,920,1121,1298,1452,1472,1513,1545,1460,1437,1435,1412,1389,1390,1319,1370,1271,1253,1224,1261,1208,1183,1117,1088,1086,1067,1007,980,953,926,921,882,880,885,916,909,892,896,899,931,930,940,937,921,953,928,912,929,904,905,920,922,912,930,905,900,924,921,943,930,935,928,760,787,767,766,792,894,1032,1169,1313,1319,1316,1293,1313,1247,1224,1201,1179,1156,1165,1110,1087,1090,1042,1019,996,973,950,927,905,882,859,836,813,791,799,771,775,804,781,774,787,809,802,808,797,781,797,815,806,797,797,828,848,837,824,809,793,800,791,794,787,804,802,821,790,996,999,1002,1040,1121,1214,1413,1591,1611,1625,1618,1627,1566,1575,1560,1524,1463,1437,1411,1385,1359,1333,1337,1316,1256,1252,1204,1178,1152,1159,1120,1075,1049,1045,1014,1011,1026,1057,1035,1027,1042,1058,1046,1050,1042,1067,1051,1060,1054,1046,1058,1089,1108,1092,1078,1069,1042,1059,1049,1046,1037,1062,1066,1069,1040,1003,1031,1009,1026,1077,1202,1361,1547,1641,1642,1634,1608,1619,1556,1530,1545,1605,1486,1465,1399,1411,1347,1337,1295,1299,1243,1216,1227,1196,1165,1143,1086,1089,1037,1021,1018,1021,1024,1037,1040,1050,1057,1051,1059,1042,1058,1042,1072,1055,1051,1060,1063,1077,1095,1077,1072,1072,1065,1073,1076,1074,1083,1059,1070,1065,528,529,531,532,538,609,713,817,918,970,972,954,936,973,954,882,863,845,827,809,791,773,802,737,719,701,683,665,647,629,611,592,574,593,539,537,540,543,544,547,549,570,557,553,555,573,549,557,564,575,601,593,607,590,552,555,564,573,564,553,563,575,560,561,557,0,0,0,0,0,0,0,0,0,0,0,0,0,0,0,0,0,0,0,0,0,0,0,0,0,0,0,0,0,0,0,0,0,0,0,0,0,0,0,0,0,0,0,0,0,0,0,0,0,0,0,0,0,0,0,0,0,0,0,0,0,0,0,0,0,1220,1250,1229,1276,1361,1535,1729,1850,1996,1979,1977,1946,1941,1885,1842,1848,1779,1794,1739,1698,1662,1622,1606,1559,1550,1518,1487,1471,1435,1414,1366,1309,1308,1256,1260,1238,1259,1253,1292,1279,1282,1285,1292,1321,1314,1307,1307,1326,1335,1315,1326,1317,1318,1344,1351,1326,1335,1342,1340,1358,1345,1344,1365,1402,1369,1000,1002,1010,1022,1091,1253,1454,1640,1712,1755,1734,1703,1679,1655,1613,1570,1580,1521,1486,1452,1432,1401,1365,1357,1314,1278,1254,1216,1185,1123,1108,1084,1050,1030,1025,1017,1030,1026,1037,1031,1026,1038,1139,1122,1075,1106,1077,1172,1115,1114,1116,1066,1072,1121,1111,1069,1142,1092,1073,1144,1110,1165,1138,1164,1114,886,888,902,909,978,1089,1230,1378,1417,1479,1516,1423,1400,1398,1385,1354,1313,1293,1261,1268,1215,1199,1168,1145,1122,1099,1076,1062,1049,1007,983,1003,937,915,902,899,902,904,914,902,919,932,946,948,908,946,911,922,932,935,931,939,957,958,962,952,930,944,950,944,973,963,958,981,958,1729,1790,1840,2038,2366,2748,2918,3164,3122,3256,3143,3061,3019,2950,2916,2828,2796,2702,2635,2618,2522,2525,2415,2427,2284,2231,2162,2101,2033,1970,1915,1844,1816,1780,1769,1790,1804,1815,2062,2111,2075,2090,2113,2099,2106,2111,2115,2114,2133,2102,2116,2119,2134,2145,2149,2160,2152,2145,2160,2140,2161,2176,2191,2177,2167,1047,1070,1028,1054,1241,1343,1454,1598,1762,1778,1666,1695,1608,1675,1634,1559,1599,1520,1569,1453,1399,1372,1462,1359,1293,1342,1286,1255,1224,1183,1155,1219,1170,1145,1066,1081,1083,1049,1129,1138,1107,1121,1118,1164,1127,1146,1159,1219,1136,1181,1167,1176,1147,1219,1179,1133,1130,1124,1158,1189,1176,1206,1183,1187,1154,607,559,578,575,584,633,672,789,890,866,910,924,845,932,818,848,831,852,806,753,778,764,750,733,723,732,695,738,716,636,640,625,608,581,585,582,582,583,569,569,577,586,579,598,587,607,600,585,607,585,586,586,586,601,584,584,590,594,588,580,587,596,582,599,584,676,662,682,679,713,776,838,978,1025,1065,1068,1116,1029,1077,999,1026,965,946,970,914,936,919,902,877,868,811,834,812,789,765,766,739,785,698,701,761,688,690,689,692,693,703,708,700,701,709,703,712,700,699,707,708,705,707,718,716,721,713,712,712,714,737,738,740,740,327,341,355,343,330,346,401,448,496,505,549,562,501,493,514,506,497,463,456,471,462,453,444,452,427,418,396,388,396,388,390,358,365,343,336,334,332,333,326,320,323,326,318,333,326,323,325,326,342,327,326,326,325,343,335,332,322,328,324,327,330,324,326,347,332,192,192,193,193,194,200,227,253,280,306,320,315,310,305,300,295,290,285,280,275,270,264,259,254,249,244,239,234,229,224,247,241,209,203,198,195,195,196,182,180,181,182,182,182,184,184,182,186,186,185,185,186,185,185,186,187,187,188,187,186,188,188,188,188,188,909,951,916,921,983,1099,1204,1388,1424,1563,1452,1493,1405,1441,1358,1375,1414,1287,1302,1239,1253,1271,1205,1244,1156,1098,1107,1085,1055,1109,1011,986,958,923,967,925,926,1000,948,946,958,948,950,965,986,971,953,980,989,984,978,977,981,992,980,982,971,976,977,976,978,975,970,1007,999,1150,1154,1159,1212,1265,1417,1602,1738,1833,1896,1858,1886,1963,1770,1740,1711,1682,1714,1622,1594,1563,1533,1503,1474,1444,1415,1385,1356,1326,1296,1267,1237,1246,1185,1170,1167,1170,1174,1197,1242,1198,1213,1220,1210,1216,1229,1223,1226,1241,1216,1231,1223,1231,1231,1237,1243,1246,1243,1269,1215,1244,1252,1267,1244,1241,0,0,0,0,0,0,0,0,0,0,0,0,0,0,0,0,0,0,0,0,0,0,0,0,0,0,0,0,0,0,0,0,0,0,0,0,0,0,0,0,0,0,0,0,0,0,0,0,0,0,0,0,0,0,0,0,0,0,0,0,0,0,0,0,0,572,569,583,578,553,645,712,843,899,921,939,932,929,906,899,855,856,833,818,811,795,781,765,743,735,728,704,689,674,623,632,628,613,598,553,581,583,552,568,569,565,571,583,580,577,598,584,603,584,593,591,587,577,598,587,594,591,579,582,601,586,599,584,585,579,390,391,392,393,395,424,480,538,593,640,650,639,628,618,609,598,588,578,566,556,546,536,528,515,507,494,484,473,462,452,442,431,421,411,403,396,397,398,407,385,384,386,426,418,399,397,402,402,430,425,453,431,447,416,442,412,426,450,471,455,429,442,471,483,422,1047,1070,1028,1054,1241,1343,1454,1598,1762,1778,1666,1695,1608,1675,1634,1559,1599,1520,1569,1453,1399,1372,1462,1359,1293,1342,1286,1255,1224,1183,1155,1219,1170,1145,1066,1081,1083,1049,1129,1138,1107,1121,1118,1164,1127,1146,1159,1219,1136,1181,1167,1176,1147,1219,1179,1133,1130,1124,1158,1189,1176,1206,1183,1187,1154,977,932,948,960,1015,1156,1282,1418,1478,1619,1573,1530,1482,1481,1484,1386,1365,1382,1357,1381,1266,1283,1258,1333,1219,1228,1181,1135,1169,1081,1044,1005,1065,1093,977,973,981,1026,996,1004,1008,1031,1021,1023,1013,1008,1005,1006,1017,1012,1042,1055,1044,1021,1019,1028,1030,1037,1037,1017,1036,1036,1007,1019,1015,484,445,447,448,450,485,589,644,699,749,735,746,713,724,713,702,691,680,687,637,627,636,586,575,564,593,542,531,583,550,557,544,515,504,454,491,451,453,461,462,468,475,471,479,475,484,479,471,484,473,471,476,476,484,472,471,478,477,476,473,475,481,469,479,471,507,509,510,512,517,563,679,706,778,822,827,814,801,788,775,762,750,737,724,711,698,685,672,659,646,634,621,608,648,613,628,613,576,561,519,515,516,518,524,522,516,525,529,555,524,531,542,534,525,531,521,529,530,517,527,532,530,529,524,524,534,541,537,541,531,391,392,393,394,396,424,457,538,594,610,683,610,629,590,580,598,588,550,544,637,546,536,501,491,481,494,461,451,442,452,422,412,387,411,401,378,398,399,381,381,386,403,394,384,387,396,388,391,404,412,524,508,530,431,384,387,399,395,392,387,392,395,389,392,393,420,422,423,424,426,460,521,582,700,690,698,687,675,664,653,642,631,670,609,598,587,575,564,553,542,531,558,509,498,486,475,464,465,442,431,427,460,429,425,427,431,440,441,434,437,439,432,438,435,438,438,448,453,450,444,434,441,442,445,439,437,449,435,442,437,699,737,739,702,730,811,923,1034,1125,1162,1164,1195,1212,1114,1095,1120,1050,1031,1016,993,1007,961,936,917,898,911,859,839,822,798,784,767,746,729,713,710,712,714,713,716,714,723,707,724,722,729,710,716,759,725,737,725,746,771,740,740,739,724,738,738,726,716,707,746,702,1028,1013,1016,1054,1164,1300,1506,1669,1747,1791,1759,1751,1696,1702,1670,1711,1599,1571,1552,1526,1503,1440,1382,1375,1319,1288,1256,1271,1215,1162,1140,1099,1086,1090,1070,1066,1053,1039,1099,1084,1088,1090,1127,1143,1110,1122,1134,1157,1137,1179,1167,1162,1111,1119,1146,1134,1146,1127,1154,1214,1160,1153,1173,1144,1138,490,499,501,502,506,548,623,686,761,804,819,807,794,775,763,755,734,729,716,691,670,667,655,646,628,615,612,599,579,552,577,546,531,522,509,505,507,502,493,507,504,515,516,518,507,527,500,532,514,539,510,516,532,547,527,521,523,524,527,523,521,527,508,517,508,0,0,0,0,0,0,0,0,0,0,0,0,0,0,0,0,0,0,0,0,0,0,0,0,0,0,0,0,0,0,0,0,0,0,0,0,0,0,0,0,0,0,0,0,0,0,0,0,0,0,0,0,0,0,0,0,0,0,0,0,0,0,0,0,0,552,595,551,557,565,619,752,777,864,967,942,953,883,901,886,840,825,862,802,781,767,752,781,723,731,691,722,665,668,633,656,641,589,577,564,560,562,563,561,578,565,585,575,585,576,592,572,582,570,570,576,582,586,583,585,586,577,578,591,575,572,573,578,590,577,977,932,948,960,1015,1156,1282,1418,1478,1619,1573,1530,1482,1481,1484,1386,1365,1382,1357,1381,1266,1283,1258,1333,1219,1228,1181,1135,1169,1081,1044,1005,1065,1093,977,973,981,1026,996,1004,1008,1031,1021,1023,1013,1008,1005,1006,1017,1012,1042,1055,1044,1021,1019,1028,1030,1037,1037,1017,1036,1036,1007,1019,1015,1283,1241,1236,1316,1408,1619,1769,1952,1961,2000,1978,1991,1903,1917,1891,1840,1796,1758,1747,1694,1727,1631,1645,1581,1560,1512,1491,1494,1428,1371,1368,1324,1368,1279,1301,1275,1300,1257,1319,1327,1337,1349,1348,1357,1348,1367,1340,1380,1351,1337,1343,1348,1357,1378,1367,1365,1356,1336,1355,1363,1359,1367,1348,1376,1349,238,239,239,240,228,248,275,301,345,334,347,363,357,352,362,358,318,332,327,322,316,324,306,301,296,291,286,281,275,270,265,260,255,237,245,241,242,242,226,225,223,226,232,230,230,230,231,230,231,242,251,240,236,235,241,228,232,243,263,243,238,240,243,254,239,345,346,347,348,349,389,428,467,540,532,542,554,546,537,555,530,498,511,502,494,487,474,472,456,445,437,428,420,412,404,391,387,373,357,362,365,351,352,351,338,347,355,334,360,343,357,343,360,378,356,338,346,353,353,349,350,364,353,360,364,349,347,386,343,335,173,173,174,174,175,180,204,228,252,276,289,285,280,275,271,266,262,257,252,248,243,239,234,229,225,220,216,211,206,202,197,192,188,183,179,175,176,176,163,166,167,169,169,169,166,169,163,175,166,165,169,167,174,180,173,170,171,165,170,170,171,172,165,169,165,384,386,387,388,389,413,470,517,577,599,603,624,589,582,575,585,561,561,551,547,531,527,514,507,492,481,506,464,451,442,435,422,415,405,391,382,382,392,384,379,387,406,394,386,387,397,392,395,401,404,468,471,490,429,403,394,393,409,396,387,393,403,395,406,393,577,579,581,582,593,655,746,837,923,966,970,954,938,922,906,890,874,858,842,826,810,795,779,763,747,731,741,699,683,667,651,635,619,639,590,586,588,590,590,584,591,606,598,590,591,596,596,599,606,608,670,682,703,638,607,596,599,608,600,594,594,605,596,607,598,923,909,912,920,992,1142,1232,1371,1454,1506,1589,1460,1437,1435,1390,1366,1362,1356,1295,1272,1258,1225,1201,1177,1154,1160,1107,1089,1059,1036,1010,994,965,957,924,923,928,932,943,948,937,992,971,948,952,981,952,976,1009,963,969,959,950,951,957,969,950,952,948,953,942,955,957,959,931,464,463,465,466,469,508,574,609,707,701,703,695,737,716,704,701,652,677,665,653,641,629,617,605,593,574,568,557,541,532,506,504,496,485,456,447,447,471,456,461,460,467,468,467,473,465,458,469,468,460,467,473,469,467,491,480,468,470,468,462,469,471,468,469,461,544,546,548,550,564,590,669,773,825,898,903,887,914,870,819,856,854,801,786,772,757,743,707,693,700,665,671,637,622,609,595,581,584,553,540,553,561,556,536,540,541,567,544,556,540,548,542,534,552,546,576,587,583,555,545,556,555,557,561,548,548,563,538,549,545,0,0,0,0,0,0,0,0,0,0,0,0,0,0,0,0,0,0,0,0,0,0,0,0,0,0,0,0,0,0,0,0,0,0,0,0,0,0,0,0,0,0,0,0,0,0,0,0,0,0,0,0,0,0,0,0,0,0,0,0,0,0,0,0,0,1283,1241,1236,1316,1408,1619,1769,1952,1961,2000,1978,1991,1903,1917,1891,1840,1796,1758,1747,1694,1727,1631,1645,1581,1560,1512,1491,1494,1428,1371,1368,1324,1368,1279,1301,1275,1300,1257,1319,1327,1337,1349,1348,1357,1348,1367,1340,1380,1351,1337,1343,1348,1357,1378,1367,1365,1356,1336,1355,1363,1359,1367,1348,1376,1349,0,0,0,0,0,0,0,0,0,0,0,0,0,0,0,0,0,0,0,0,0,0,0,0,0,0,0,0,0,0,0,0,0,0,0,0,0,0,0,0,0,0,0,0,0,0,0,0,0,0,0,0,0,0,0,0,0,0,0,0,0,0,0,0,0,1255,1286,1253,1329,1425,1598,1848,1873,1974,2005,1963,1972,1909,1970,1839,1822,1854,1748,1718,1686,1682,1665,1691,1600,1574,1503,1549,1485,1450,1395,1424,1316,1283,1267,1268,1247,1251,1267,1334,1341,1311,1328,1323,1369,1333,1353,1363,1429,1345,1388,1374,1384,1356,1424,1386,1343,1342,1337,1366,1395,1388,1417,1392,1396,1363,1305,1297,1323,1369,1689,1671,1926,2022,2121,2108,2094,2112,2028,2032,1969,1987,1909,1883,1835,1795,1766,1812,1773,1659,1611,1578,1622,1524,1519,1463,1442,1380,1347,1406,1332,1312,1316,1332,1407,1396,1401,1402,1407,1402,1483,1478,1401,1444,1429,1413,1405,1467,1472,1491,1474,1482,1480,1498,1497,1467,1444,1441,1407,1409,1409,1135,1135,1138,1173,1244,1415,1586,1665,1768,1758,1765,1739,1721,1740,1654,1636,1622,1574,1539,1514,1537,1497,1464,1426,1422,1379,1413,1292,1259,1234,1200,1162,1205,1121,1116,1148,1151,1145,1152,1167,1165,1180,1200,1197,1198,1215,1187,1216,1205,1188,1197,1199,1208,1213,1208,1207,1205,1198,1207,1204,1203,1203,1198,1230,1200,1178,1193,1204,1243,1310,1518,1692,1819,1919,1834,1917,1807,1789,1822,1719,1770,1685,1676,1603,1574,1628,1556,1542,1488,1515,1435,1421,1404,1310,1338,1251,1265,1234,1218,1239,1188,1202,1227,1243,1246,1296,1560,1299,1241,1288,1388,1326,1268,1365,1326,1283,1281,1360,1343,1332,1250,1268,1276,1312,1320,1253,1306,1271,1280,1282,1673,1537,1798,1679,1911,2064,2371,2379,2446,2437,2467,2442,2410,2405,2293,2240,2298,2299,2187,2115,2060,2037,1998,2010,1878,1841,1827,1756,1722,1776,1735,1636,1570,1572,1544,1540,1547,1550,1675,1670,1631,1633,1706,1652,1658,1665,1667,1689,1751,1698,1711,1850,1729,1698,1828,1723,1721,1747,1784,1723,1711,1720,1794,1740,1717,1804,1875,1935,2173,2568,2726,2907,3038,3132,2999,3137,3045,2912,2880,2846,2748,2729,2816,2661,2586,2516,2456,2409,2349,2269,2236,2209,2171,2081,2046,2020,1925,1930,1905,1902,1859,1870,1963,2226,2229,2263,2278,2294,2279,2303,2328,2325,2346,2377,2377,2431,2384,2368,2400,2453,2432,2410,2431,2511,2505,2525,2557,2550,2513,2508,993,1008,1016,1030,1103,1235,1382,1567,1622,1643,1638,1622,1596,1573,1523,1498,1512,1446,1445,1417,1388,1376,1315,1282,1305,1261,1229,1195,1172,1139,1100,1076,1057,1049,1052,1019,1017,1015,1046,1055,1035,1053,1030,1072,1039,1051,1078,1123,1052,1067,1069,1066,1066,1087,1090,1061,1053,1051,1063,1074,1061,1072,1072,1072,1060,985,988,959,1041,1113,1192,1402,1527,1622,1590,1632,1621,1594,1518,1527,1494,1478,1450,1424,1399,1346,1357,1336,1230,1243,1207,1215,1166,1137,1141,1109,1077,1025,1037,999,968,1003,1005,1023,1013,1023,1029,1021,1046,1031,1031,1031,1042,1053,1045,1044,1050,1066,1049,1038,1057,1063,1066,1053,1043,1057,1030,1061,1051,1027,1326,1393,1368,1434,1606,1756,1967,2019,2109,2093,2100,2058,2036,2055,1961,1940,1916,1868,1825,1793,1850,1821,1732,1687,1675,1626,1649,1565,1489,1464,1468,1380,1365,1337,1363,1368,1369,1362,1420,1410,1403,1412,1458,1483,1435,1438,1449,1479,1440,1478,1487,1470,1443,1472,1455,1453,1470,1451,1491,1563,1535,1555,1554,1491,1493,0,0,0,0,0,0,0,0,0,0,0,0,0,0,0,0,0,0,0,0,0,0,0,0,0,0,0,0,0,0,0,0,0,0,0,0,0,0,0,0,0,0,0,0,0,0,0,0,0,0,0,0,0,0,0,0,0,0,0,0,0,0,0,0,0 ]);
