n = 10;
D = [158,228,245,220,184,207,294,236,84,146 ];
q = 0;
prec = array2d(1..0,1..2,[]);
steps = 64;
l = 360;
r = 0;
which = [];
interval = array2d(1..0,1..2,[]);
T = array3d(1..11,1..11,0..64,[0,0,0,0,0,0,0,0,0,0,0,0,0,0,0,0,0,0,0,0,0,0,0,0,0,0,0,0,0,0,0,0,0,0,0,0,0,0,0,0,0,0,0,0,0,0,0,0,0,0,0,0,0,0,0,0,0,0,0,0,0,0,0,0,0,502,504,505,507,519,849,993,1083,1188,1236,1243,1222,1203,1183,1164,1143,1185,1104,1083,1064,1044,1024,1004,985,962,945,925,906,885,866,850,756,602,587,513,510,510,512,500,502,511,523,513,516,509,518,509,528,513,511,524,525,555,626,578,523,524,528,525,521,529,554,523,530,520,1088,1088,1093,1123,1310,1919,2326,2465,2589,2662,2638,2587,2572,2532,2469,2420,2377,2359,2313,2239,2201,2194,2126,2079,2050,1989,1699,1661,1413,1224,1209,1164,1143,1140,1120,1103,1094,1069,1054,1056,1069,1083,1067,1076,1070,1065,1076,1071,1073,1062,1066,1070,1064,1065,1070,1072,1069,1068,1067,1070,1068,1084,1063,1076,1067,681,670,672,688,694,1011,1318,1463,1561,1657,1660,1624,1618,1596,1546,1516,1494,1468,1450,1424,1390,1389,1338,1338,1293,1256,1229,1173,1063,980,961,898,778,706,696,678,690,675,638,639,648,666,653,657,646,646,661,676,660,658,666,669,661,655,656,658,659,657,655,656,656,670,656,669,660,750,751,754,759,778,1236,1450,1633,1754,1852,1847,1814,1789,1772,1748,1689,1683,1661,1632,1597,1572,1538,1517,1487,1458,1398,1368,1324,1076,1100,1026,943,849,798,805,761,764,728,716,721,724,727,731,731,738,731,726,736,731,726,735,737,734,739,752,751,732,734,737,734,732,738,732,735,735,983,973,973,989,1126,1617,2037,2190,2265,2350,2352,2306,2279,2245,2193,2143,2118,2079,2050,2014,1978,1939,1903,1864,1825,1772,1744,1531,1332,1266,1142,1043,1024,1008,1001,980,995,936,915,916,931,937,928,932,932,933,943,938,941,932,936,937,934,936,937,939,940,939,938,937,938,951,937,950,941,497,499,514,502,512,833,966,1065,1182,1233,1237,1218,1197,1178,1181,1140,1141,1100,1081,1048,1041,1022,1003,984,964,944,946,927,886,803,788,778,625,608,515,505,524,507,494,489,490,496,514,505,517,503,496,516,503,502,499,499,496,497,497,502,507,500,496,498,502,517,500,500,495,1319,1339,1346,1415,2012,2843,3146,3264,3275,3308,3252,3195,3186,3105,3097,3032,2937,2902,2849,2750,2687,2577,2569,2285,2016,2006,1851,1544,1517,1466,1446,1408,1371,1337,1364,1330,1319,1348,1370,1376,1385,1395,1385,1373,1400,1372,1377,1405,1368,1383,1386,1406,1411,1412,1420,1429,1391,1397,1396,1382,1376,1385,1410,1375,1365,1133,1123,1115,1147,1304,1870,2309,2455,2528,2611,2616,2561,2532,2496,2474,2423,2395,2341,2317,2255,2248,2202,2162,2095,2047,2020,1851,1647,1399,1393,1287,1206,1175,1152,1152,1121,1147,1084,1067,1071,1080,1093,1077,1092,1085,1078,1088,1083,1086,1077,1081,1082,1079,1081,1082,1084,1085,1084,1083,1082,1083,1096,1082,1095,1086,870,859,856,865,921,1313,1748,1919,2002,2056,2046,2014,1988,1954,1921,1908,1856,1825,1792,1760,1727,1694,1664,1630,1599,1567,1537,1274,1026,1027,996,987,908,883,893,864,855,790,771,772,782,789,780,786,783,782,792,787,790,781,785,786,783,785,786,788,789,788,787,786,787,800,786,799,790,0,0,0,0,0,0,0,0,0,0,0,0,0,0,0,0,0,0,0,0,0,0,0,0,0,0,0,0,0,0,0,0,0,0,0,0,0,0,0,0,0,0,0,0,0,0,0,0,0,0,0,0,0,0,0,0,0,0,0,0,0,0,0,0,0,448,450,452,453,460,756,856,958,1056,1168,1114,1096,1080,1062,1044,1026,1008,990,972,954,937,919,901,883,865,847,829,811,794,776,758,740,664,469,459,456,457,458,453,453,460,481,468,460,466,469,464,468,476,483,479,482,483,484,472,464,466,476,470,457,462,472,464,473,465,0,0,0,0,0,0,0,0,0,0,0,0,0,0,0,0,0,0,0,0,0,0,0,0,0,0,0,0,0,0,0,0,0,0,0,0,0,0,0,0,0,0,0,0,0,0,0,0,0,0,0,0,0,0,0,0,0,0,0,0,0,0,0,0,0,1182,1184,1220,1285,1626,2192,2668,2842,2931,2967,2944,2908,2835,2796,2735,2688,2607,2588,2528,2494,2450,2410,2358,2314,2251,2038,1849,1727,1528,1513,1317,1273,1268,1212,1208,1217,1228,1215,1208,1213,1233,1243,1242,1263,1244,1254,1266,1245,1244,1241,1227,1246,1240,1252,1241,1247,1243,1262,1234,1241,1256,1251,1251,1255,1245,832,832,823,836,836,1418,1711,1841,1951,2017,2008,1950,1939,1893,1853,1846,1796,1781,1750,1717,1686,1660,1622,1586,1561,1542,1497,1410,1314,1217,1189,906,874,893,838,831,826,828,814,820,823,844,851,859,844,860,863,851,863,848,834,840,846,861,834,845,847,838,850,850,859,863,846,850,840,848,850,854,865,905,1327,1696,1871,1990,2100,2096,2014,1998,1952,1922,1887,1865,1820,1803,1771,1723,1695,1704,1630,1608,1575,1545,1493,1416,1171,976,916,894,876,885,880,851,829,821,819,821,827,830,829,833,826,827,831,835,824,832,833,836,829,834,844,831,831,824,830,829,829,829,829,829,1130,1133,1122,1144,1183,2079,2440,2557,2652,2703,2690,2616,2594,2539,2486,2468,2408,2381,2338,2295,2252,2217,2168,2130,2087,2063,1940,1631,1271,1276,1240,1218,1202,1177,1140,1131,1128,1126,1114,1122,1127,1138,1141,1155,1150,1160,1153,1143,1163,1154,1143,1145,1154,1166,1143,1158,1151,1143,1151,1152,1157,1161,1149,1151,1141,375,376,379,380,382,490,676,754,831,903,931,912,902,883,868,854,844,825,811,800,781,766,756,738,726,712,697,680,667,650,636,575,404,395,392,388,389,390,360,353,360,366,356,366,359,364,363,360,381,361,358,361,359,380,362,364,361,364,361,362,363,363,363,363,363,1221,1222,1270,1353,2210,2759,3350,3550,3570,3566,3571,3516,3379,3285,3217,3168,3072,3121,2926,2869,2782,2708,2575,2434,2403,2314,2153,1870,1786,1670,1342,1316,1260,1219,1223,1220,1233,1252,1330,1367,1333,1348,1356,1338,1353,1360,1358,1361,1364,1356,1369,1360,1362,1369,1375,1413,1370,1369,1395,1368,1416,1439,1462,1521,1372,1269,1275,1273,1309,1361,2263,2716,2820,2913,2962,2945,2870,2885,2805,2734,2747,2654,2622,2577,2561,2515,2481,2412,2349,2217,1857,1668,1495,1429,1432,1392,1369,1326,1328,1285,1283,1279,1284,1271,1282,1282,1301,1296,1310,1303,1311,1311,1303,1316,1305,1296,1298,1306,1316,1300,1305,1304,1296,1304,1297,1302,1306,1297,1296,1286,1016,1019,1008,1022,1060,1819,2163,2292,2389,2446,2437,2366,2347,2297,2249,2235,2181,2156,2116,2075,2037,2006,1960,1924,1888,1856,1731,1508,1148,1285,1132,1103,1059,1077,1023,1016,986,982,969,980,984,1001,994,1008,1001,1011,1012,1001,1014,1007,997,996,1004,1020,998,1009,1002,994,1004,1001,1006,1010,1000,1000,990,448,450,452,453,460,756,856,958,1056,1168,1114,1096,1080,1062,1044,1026,1008,990,972,954,937,919,901,883,865,847,829,811,794,776,758,740,664,469,459,456,457,458,453,453,460,481,468,460,466,469,464,468,476,483,479,482,483,484,472,464,466,476,470,457,462,472,464,473,465,1234,1208,1250,1283,1477,2061,2625,2830,2852,2851,2902,2861,2765,2762,2663,2660,2591,2546,2507,2496,2401,2360,2318,2282,2261,1975,1827,1617,1464,1344,1327,1285,1300,1262,1235,1241,1231,1195,1174,1167,1179,1193,1189,1183,1173,1181,1184,1194,1192,1181,1187,1191,1192,1193,1193,1193,1180,1191,1186,1187,1192,1189,1184,1189,1182,1295,1287,1301,1395,1682,2240,2810,3003,3074,3088,3083,2996,2976,2894,2865,2846,2781,2700,2662,2639,2587,2493,2197,1923,1769,1762,1794,1690,1496,1437,1430,1360,1371,1324,1318,1320,1318,1275,1254,1247,1259,1275,1269,1263,1253,1261,1264,1274,1282,1261,1267,1272,1272,1285,1274,1276,1260,1271,1266,1267,1272,1269,1264,1269,1262,0,0,0,0,0,0,0,0,0,0,0,0,0,0,0,0,0,0,0,0,0,0,0,0,0,0,0,0,0,0,0,0,0,0,0,0,0,0,0,0,0,0,0,0,0,0,0,0,0,0,0,0,0,0,0,0,0,0,0,0,0,0,0,0,0,587,595,597,599,603,880,1125,1237,1336,1385,1389,1376,1358,1332,1319,1294,1276,1257,1236,1219,1199,1182,1161,1144,1128,1099,1088,1052,929,912,706,693,680,609,612,603,597,613,576,574,580,582,579,580,580,581,581,584,581,581,583,580,582,582,582,582,581,585,582,583,582,582,582,583,582,555,556,558,560,569,686,1047,1164,1299,1351,1353,1332,1310,1290,1284,1246,1226,1204,1183,1162,1141,1135,1099,1091,1070,1035,1014,1010,985,946,683,666,603,577,566,563,564,566,547,547,550,556,552,550,548,556,550,562,564,565,559,563,573,555,559,563,554,564,571,570,567,593,554,567,555,300,300,301,302,303,472,527,582,636,690,724,713,692,681,670,660,650,639,628,618,608,597,586,576,565,555,544,534,523,513,502,492,481,470,307,304,304,304,266,266,266,268,267,266,266,267,267,270,267,267,269,266,268,268,268,268,267,271,268,269,268,268,268,269,268,980,976,980,993,1045,1504,2021,2202,2331,2365,2351,2306,2276,2232,2200,2157,2120,2099,2061,2008,1971,1947,1897,1871,1833,1785,1757,1576,1242,1222,1088,1041,1036,1014,989,988,990,991,973,972,996,988,982,982,985,983,983,993,1001,991,989,995,995,991,995,1006,988,1004,990,1006,1001,998,990,999,987,782,784,785,795,884,1381,1786,1882,1994,2095,2060,2036,2017,1968,1875,1904,1885,1798,1818,1785,1738,1658,1687,1648,1613,1469,1391,1369,1321,1015,1087,1039,839,812,808,796,802,808,822,811,834,825,832,820,820,822,821,825,840,836,835,836,836,836,832,840,817,830,824,824,828,823,816,836,836,138,139,139,200,210,214,238,262,285,309,325,320,315,310,306,301,297,292,288,283,278,273,270,265,260,255,250,246,242,237,232,228,223,219,214,211,211,211,109,109,109,111,110,109,109,110,110,113,110,110,112,109,111,111,111,111,110,114,111,112,111,111,111,112,111,498,500,500,502,540,671,876,980,1053,1108,1118,1110,1096,1073,1067,1046,1032,1012,1003,987,971,957,938,933,919,904,890,874,734,722,582,655,552,542,507,504,505,489,436,439,441,443,441,441,440,442,442,441,442,442,444,441,443,443,439,440,438,446,443,444,443,443,443,444,443,1234,1208,1250,1283,1477,2061,2625,2830,2852,2851,2902,2861,2765,2762,2663,2660,2591,2546,2507,2496,2401,2360,2318,2282,2261,1975,1827,1617,1464,1344,1327,1285,1300,1262,1235,1241,1231,1195,1174,1167,1179,1193,1189,1183,1173,1181,1184,1194,1192,1181,1187,1191,1192,1193,1193,1193,1180,1191,1186,1187,1192,1189,1184,1189,1182,658,648,656,660,668,847,1267,1412,1547,1609,1609,1586,1535,1528,1490,1463,1455,1363,1408,1378,1361,1323,1307,1202,1178,1228,1181,1158,947,1015,762,791,722,687,664,663,665,643,617,611,611,626,639,631,632,637,635,640,637,641,630,631,631,636,636,633,634,639,628,636,630,646,636,633,631,858,852,855,862,876,1392,1752,1911,2040,2076,2065,2031,1986,1953,1933,1909,1870,1845,1810,1756,1756,1702,1676,1646,1620,1570,1537,1452,1313,1162,1056,1051,991,875,863,890,869,858,843,839,846,851,853,854,843,845,850,856,851,851,854,854,859,857,860,858,851,858,854,850,846,859,850,863,845,475,476,478,479,481,617,921,1029,1136,1200,1196,1182,1162,1142,1123,1102,1082,1063,1042,1017,1003,984,963,944,924,903,884,864,810,763,719,632,616,564,485,482,484,486,464,470,469,479,476,483,474,476,484,476,473,476,475,478,474,473,479,479,478,476,475,479,482,488,480,483,483,0,0,0,0,0,0,0,0,0,0,0,0,0,0,0,0,0,0,0,0,0,0,0,0,0,0,0,0,0,0,0,0,0,0,0,0,0,0,0,0,0,0,0,0,0,0,0,0,0,0,0,0,0,0,0,0,0,0,0,0,0,0,0,0,0,360,362,363,364,365,508,666,731,814,872,882,886,854,841,828,813,799,787,772,759,761,732,717,704,691,676,663,649,628,622,602,512,556,417,369,366,367,382,319,317,323,324,328,324,327,326,324,330,323,327,332,331,329,334,331,328,327,325,322,327,324,330,328,332,326,342,343,344,345,347,480,632,704,777,834,843,830,817,804,790,777,764,751,738,724,711,698,685,672,658,645,632,619,594,581,515,503,491,480,351,347,348,349,343,340,341,345,342,343,345,347,345,347,345,344,347,347,345,348,347,347,349,349,347,343,347,351,348,349,343,700,713,712,708,726,1009,1392,1536,1684,1710,1705,1663,1638,1610,1597,1569,1543,1532,1510,1449,1435,1441,1405,1356,1358,1297,1273,1258,1239,1005,984,835,744,735,712,721,712,708,704,704,704,708,707,722,709,711,718,712,709,706,704,707,709,707,710,715,711,710,708,711,713,727,718,722,713,1040,1025,1028,1034,1189,1734,2366,2509,2631,2640,2611,2583,2541,2520,2471,2414,2352,2328,2268,2250,2210,2191,2136,2096,1982,1962,1845,1506,1418,1339,1162,1108,1075,1050,1042,1039,1047,1054,1060,1061,1065,1067,1071,1068,1082,1081,1064,1074,1076,1085,1093,1079,1100,1091,1075,1070,1084,1077,1079,1080,1079,1082,1074,1072,1072,492,496,494,496,505,569,876,962,1047,1122,1129,1095,1100,1064,1048,1033,1017,1002,1021,1004,955,972,955,956,922,904,900,871,846,828,760,591,561,562,492,499,502,501,499,502,496,500,506,503,504,509,499,503,504,507,500,502,504,506,507,504,506,506,501,503,500,504,502,502,496,228,229,230,231,232,244,412,464,510,557,572,563,554,546,535,527,517,509,500,491,482,472,462,452,444,434,426,416,409,398,390,380,248,241,236,232,232,233,201,199,194,198,204,201,205,207,201,201,202,211,201,200,202,204,204,202,204,205,199,201,198,202,204,200,194,658,648,656,660,668,847,1267,1412,1547,1609,1609,1586,1535,1528,1490,1463,1455,1363,1408,1378,1361,1323,1307,1202,1178,1228,1181,1158,947,1015,762,791,722,687,664,663,665,643,617,611,611,626,639,631,632,637,635,640,637,641,630,631,631,636,636,633,634,639,628,636,630,646,636,633,631,725,739,732,747,782,1181,1508,1662,1739,1794,1804,1773,1776,1719,1664,1660,1660,1578,1574,1549,1580,1483,1437,1408,1404,1375,1345,1294,1155,1128,1064,847,831,751,758,754,740,738,717,714,715,737,744,736,747,747,746,754,745,752,759,736,739,753,747,742,753,745,740,753,759,763,758,758,758,762,752,768,771,904,1241,1484,1726,1794,1910,1856,1802,1796,1814,1757,1750,1680,1650,1687,1616,1563,1591,1556,1475,1431,1425,1393,1388,1313,1193,1141,1036,928,784,782,760,777,788,774,772,775,776,788,783,787,788,781,791,787,793,796,794,790,785,791,790,795,787,791,791,797,799,809,802,786,672,674,676,679,719,980,1354,1514,1626,1666,1671,1643,1614,1588,1559,1554,1508,1480,1453,1425,1398,1365,1344,1316,1288,1261,1233,1206,1174,1010,986,731,710,695,684,680,684,673,668,667,667,681,685,693,691,701,687,702,682,686,687,683,684,686,686,689,683,678,685,689,692,678,696,710,678,428,429,430,432,426,562,801,888,976,1040,1053,1035,1019,1003,987,970,952,937,920,877,888,872,848,832,821,804,763,783,730,656,641,571,448,438,449,424,425,426,415,397,395,397,411,415,412,409,408,416,416,416,413,416,417,420,418,418,415,418,415,420,414,418,418,419,414,0,0,0,0,0,0,0,0,0,0,0,0,0,0,0,0,0,0,0,0,0,0,0,0,0,0,0,0,0,0,0,0,0,0,0,0,0,0,0,0,0,0,0,0,0,0,0,0,0,0,0,0,0,0,0,0,0,0,0,0,0,0,0,0,0,683,684,694,701,738,1020,1369,1501,1625,1672,1673,1648,1622,1596,1571,1546,1520,1480,1473,1448,1422,1395,1365,1341,1315,1288,1265,1230,1212,1004,959,849,832,723,696,693,695,655,640,636,649,659,661,641,650,664,656,654,658,657,666,648,653,666,660,655,659,653,651,662,666,671,660,668,662,435,436,438,439,444,590,817,909,1001,1062,1071,1053,1036,1020,1025,1008,991,973,957,940,923,907,889,852,835,818,801,784,768,751,645,630,516,510,445,441,443,443,435,432,431,446,436,436,437,442,438,442,440,444,442,447,442,448,445,442,444,443,441,444,443,444,454,448,432,1206,1204,1209,1246,1354,2373,2886,3071,3212,3205,3195,3106,3062,3021,2962,2898,2812,2746,2720,2642,2600,2522,2462,2301,2244,2193,2120,1869,1684,1439,1337,1297,1266,1268,1229,1228,1236,1243,1257,1249,1248,1259,1263,1270,1267,1268,1269,1276,1266,1276,1281,1280,1270,1279,1277,1280,1273,1278,1286,1303,1271,1272,1281,1284,1280,763,765,773,780,813,928,1429,1564,1679,1729,1730,1710,1680,1656,1632,1625,1618,1594,1562,1547,1512,1495,1469,1449,1419,1393,1270,1246,1237,1110,836,833,808,800,776,772,797,760,730,728,742,748,760,736,752,763,752,756,752,751,759,741,750,763,756,750,755,748,743,757,764,767,762,768,762,568,571,572,574,593,805,1105,1234,1347,1398,1402,1380,1356,1333,1313,1290,1268,1246,1224,1254,1177,1154,1132,1110,1088,1065,1047,1021,1020,880,830,792,606,592,580,577,579,557,548,544,550,555,557,557,560,567,561,562,558,560,558,567,567,574,572,564,570,573,568,561,559,555,575,569,559,725,739,732,747,782,1181,1508,1662,1739,1794,1804,1773,1776,1719,1664,1660,1660,1578,1574,1549,1580,1483,1437,1408,1404,1375,1345,1294,1155,1128,1064,847,831,751,758,754,740,738,717,714,715,737,744,736,747,747,746,754,745,752,759,736,739,753,747,742,753,745,740,753,759,763,758,758,758,1018,1049,1060,1070,1163,1744,2190,2360,2526,2507,2518,2490,2448,2351,2358,2258,2266,2250,2204,2152,2127,2020,1982,2015,1945,1779,1687,1443,1413,1314,1257,1172,1094,1074,1071,1033,1019,1024,997,991,1015,1024,1015,1034,1020,1039,1026,1028,1029,1025,1031,1027,1031,1043,1027,1028,1029,1027,1026,1018,1032,1029,1022,1036,1031,1177,1181,1189,1206,1284,2120,2482,2664,2821,2814,2816,2774,2725,2681,2639,2591,2546,2502,2462,2410,2366,2326,2197,1939,1929,1952,1648,1553,1340,1337,1412,1275,1232,1226,1245,1196,1206,1186,1174,1176,1170,1178,1180,1176,1179,1199,1177,1180,1177,1180,1179,1193,1186,1189,1186,1197,1185,1182,1196,1198,1184,1208,1174,1189,1182,285,286,287,288,288,307,510,584,614,620,626,620,614,651,651,596,621,584,596,592,583,573,564,552,540,529,518,507,495,484,474,468,305,299,292,289,290,296,280,285,282,291,300,304,292,305,289,302,300,299,297,294,298,306,298,296,302,303,298,304,299,327,296,298,294,398,399,400,402,403,534,718,803,931,986,993,977,961,945,928,913,897,881,865,848,834,818,804,787,771,756,740,723,708,692,654,559,546,419,408,404,406,407,386,380,389,390,384,412,390,417,414,391,419,395,400,396,395,417,394,394,391,399,390,388,393,393,389,405,401,641,643,649,646,653,859,1240,1368,1484,1564,1519,1492,1470,1447,1461,1401,1416,1392,1366,1302,1317,1308,1259,1219,1196,1173,1172,1145,1105,967,878,828,717,666,658,654,652,657,621,638,616,628,646,632,648,653,622,623,632,655,627,625,639,629,628,633,632,640,641,646,636,648,627,635,628,0,0,0,0,0,0,0,0,0,0,0,0,0,0,0,0,0,0,0,0,0,0,0,0,0,0,0,0,0,0,0,0,0,0,0,0,0,0,0,0,0,0,0,0,0,0,0,0,0,0,0,0,0,0,0,0,0,0,0,0,0,0,0,0,0,1040,1030,1025,1046,1116,1678,2173,2297,2463,2475,2473,2452,2396,2356,2317,2291,2254,2195,2165,2096,2082,2037,2005,1954,1908,1885,1778,1472,1273,1160,1158,1120,1075,1074,1078,1054,1043,1049,1035,1031,1038,1046,1046,1032,1047,1050,1043,1044,1040,1043,1047,1046,1054,1049,1054,1046,1040,1041,1049,1059,1046,1058,1042,1049,1044,854,853,860,866,971,1244,1714,1932,2016,2123,2067,2011,1999,1952,1938,1942,1904,1839,1781,1755,1791,1705,1658,1642,1587,1534,1522,1519,1403,1266,959,957,944,877,864,860,872,870,841,847,844,879,859,877,855,896,852,862,857,853,852,853,865,860,857,860,860,852,880,860,855,872,855,863,859,167,168,168,168,249,254,306,321,351,339,346,344,342,384,379,336,366,331,366,348,342,336,330,318,318,312,307,301,295,304,267,300,263,259,253,249,249,236,162,163,160,164,164,166,163,168,162,164,165,163,162,165,166,165,165,168,165,167,168,168,165,206,164,168,165,266,267,267,268,305,409,458,495,559,570,580,597,590,584,577,571,565,558,552,546,508,501,494,487,480,472,465,458,451,459,436,428,421,414,311,268,269,310,247,244,240,245,246,246,248,250,245,246,249,254,254,251,247,262,249,245,243,245,250,251,254,265,253,259,251,1018,1049,1060,1070,1163,1744,2190,2360,2526,2507,2518,2490,2448,2351,2358,2258,2266,2250,2204,2152,2127,2020,1982,2015,1945,1779,1687,1443,1413,1314,1257,1172,1094,1074,1071,1033,1019,1024,997,991,1015,1024,1015,1034,1020,1039,1026,1028,1029,1025,1031,1027,1031,1043,1027,1028,1029,1027,1026,1018,1032,1029,1022,1036,1031,389,390,391,394,397,643,728,812,906,963,973,957,941,924,909,895,878,862,847,831,817,801,784,770,754,739,723,708,692,676,661,645,629,410,400,396,397,395,364,363,371,380,377,378,371,383,379,380,380,379,378,374,375,383,379,377,382,380,375,380,384,411,405,415,404,355,356,357,358,360,584,660,738,814,876,884,870,855,842,828,817,799,786,771,757,742,732,715,700,686,675,658,650,630,619,607,592,531,464,452,360,349,351,351,346,346,351,355,355,347,355,352,441,352,354,351,355,356,348,357,357,348,355,352,356,360,359,355,454,359,953,958,961,1000,1172,1667,2071,2286,2307,2336,2388,2288,2310,2217,2174,2193,2100,2065,2027,1987,1951,1911,1869,1834,1801,1759,1720,1632,1494,1379,1206,1021,999,981,1009,970,960,982,973,979,987,984,1009,997,1019,1018,1009,1007,1015,990,1006,1006,1012,1022,1022,1019,1015,1009,1003,1011,995,999,1002,1025,986,685,677,692,684,713,1215,1365,1528,1629,1664,1644,1647,1626,1594,1584,1540,1502,1503,1461,1434,1396,1370,1341,1302,1288,1249,1237,1210,1151,1070,988,871,770,693,693,698,689,688,681,686,688,689,693,682,691,696,689,693,703,694,688,702,700,703,708,703,694,701,699,696,694,701,694,694,686,567,570,571,572,584,834,1097,1221,1332,1379,1383,1365,1340,1321,1300,1273,1252,1234,1214,1192,1170,1149,1123,1106,1083,1058,1036,1018,992,975,925,831,607,592,581,578,577,544,537,537,539,544,570,572,575,565,556,574,571,567,568,549,552,597,566,556,574,556,547,569,562,607,568,579,558,970,976,986,988,1079,1769,2065,2255,2309,2340,2329,2297,2292,2229,2194,2168,2117,2084,2047,1994,1969,1920,1897,1857,1826,1781,1732,1690,1464,1311,1078,1032,1018,992,999,980,940,973,955,954,958,970,961,971,956,963,991,963,962,959,960,970,959,960,968,967,963,969,959,973,969,1008,975,996,971,0,0,0,0,0,0,0,0,0,0,0,0,0,0,0,0,0,0,0,0,0,0,0,0,0,0,0,0,0,0,0,0,0,0,0,0,0,0,0,0,0,0,0,0,0,0,0,0,0,0,0,0,0,0,0,0,0,0,0,0,0,0,0,0,0,1263,1292,1306,1408,2292,3015,3597,3685,3691,3772,3700,3648,3522,3463,3417,3367,3300,3241,3136,3010,2973,2837,2477,2215,2095,2077,1990,1882,1522,1519,1427,1367,1377,1340,1327,1336,1338,1399,1404,1388,1392,1402,1452,1455,1431,1454,1434,1457,1452,1447,1454,1426,1435,1459,1455,1436,1456,1452,1440,1456,1456,1457,1454,1456,1454,1044,1055,1064,1100,1183,1840,2119,2374,2366,2412,2463,2357,2459,2292,2293,2349,2215,2183,2146,2110,2073,2017,1997,1960,1832,1797,1718,1642,1464,1457,1130,1111,1120,1085,1111,1066,1045,1063,1047,1047,1047,1069,1056,1073,1055,1059,1093,1057,1056,1052,1053,1067,1056,1056,1063,1063,1058,1061,1054,1071,1065,1111,1075,1107,1071,849,854,856,873,936,1514,1782,1979,2041,2071,2070,2035,2047,1971,1983,1933,1866,1839,1806,1771,1737,1705,1687,1641,1606,1575,1537,1507,1317,1257,1132,1047,895,877,879,864,852,846,834,839,851,857,850,838,853,860,856,851,866,849,845,858,884,862,867,860,854,853,851,853,849,861,851,847,839,389,390,391,394,397,643,728,812,906,963,973,957,941,924,909,895,878,862,847,831,817,801,784,770,754,739,723,708,692,676,661,645,629,410,400,396,397,395,364,363,371,380,377,378,371,383,379,380,380,379,378,374,375,383,379,377,382,380,375,380,384,411,405,415,404,1287,1291,1326,1471,2088,2890,3214,3442,3523,3556,3491,3444,3322,3294,3224,3160,3068,3052,2942,2886,2778,2605,2577,2446,2341,2134,1940,1701,1510,1464,1460,1376,1368,1325,1310,1313,1322,1360,1390,1409,1452,1420,1404,1420,1404,1424,1408,1417,1425,1416,1419,1426,1435,1480,1493,1433,1420,1426,1488,1501,1433,1422,1416,1517,1490,1204,1200,1227,1348,2378,2872,3266,3435,3508,3526,3464,3402,3330,3243,3184,3112,3057,2994,2922,2824,2768,2673,2597,2533,2424,2306,2264,1968,1664,1606,1367,1304,1261,1251,1222,1234,1261,1252,1356,1349,1366,1387,1370,1373,1378,1361,1363,1404,1417,1366,1392,1410,1413,1422,1417,1385,1364,1376,1364,1363,1366,1373,1367,1421,1364,699,700,702,793,806,1206,1624,1844,1946,2059,2046,2010,1974,1851,1813,1913,1736,1698,1659,1621,1582,1544,1506,1467,1429,1390,1352,1314,1275,1237,1157,1079,945,723,712,713,718,724,719,718,720,736,724,736,724,843,808,725,732,727,726,728,724,725,726,731,730,732,724,726,727,825,736,823,729,1002,1004,1044,1142,1162,1892,2395,2665,2688,2824,2764,2710,2662,2530,2539,2430,2380,2391,2280,2229,2180,2130,2079,2084,2031,1929,1969,1668,1435,1380,1366,1085,1078,1058,1020,1021,1052,1062,1080,1062,1072,1070,1073,1087,1081,1081,1084,1095,1116,1100,1105,1109,1109,1117,1106,1111,1104,1124,1132,1127,1123,1115,1126,1137,1122,1012,1000,976,1058,1118,1752,2301,2509,2599,2696,2673,2628,2582,2511,2402,2354,2305,2257,2208,2160,2112,2062,2014,1966,1933,1869,1821,1772,1588,1361,1333,1052,1021,996,987,988,994,997,1042,1040,1041,1046,1045,1043,1053,1056,1059,1052,1085,1056,1082,1077,1065,1096,1057,1068,1075,1085,1082,1099,1086,1054,1058,1064,1053,833,836,837,901,956,1492,1903,2110,2173,2208,2238,2186,2127,2082,2101,2024,1975,1970,1927,1876,1840,1796,1752,1715,1669,1626,1582,1540,1383,1339,1184,1116,883,859,848,871,855,852,865,843,851,851,862,878,863,853,862,874,890,885,897,898,904,887,884,879,886,889,899,949,883,886,906,906,895,1353,1344,1380,1602,1927,2744,3321,3505,3580,3649,3612,3550,3490,3405,3283,3217,3157,3093,3030,2976,2904,2840,2703,2426,2085,2039,1966,1640,1675,1564,1508,1476,1412,1389,1380,1381,1385,1379,1426,1472,1440,1449,1458,1453,1451,1469,1452,1454,1472,1446,1455,1467,1462,1472,1471,1517,1477,1471,1500,1463,1504,1494,1490,1477,1467,0,0,0,0,0,0,0,0,0,0,0,0,0,0,0,0,0,0,0,0,0,0,0,0,0,0,0,0,0,0,0,0,0,0,0,0,0,0,0,0,0,0,0,0,0,0,0,0,0,0,0,0,0,0,0,0,0,0,0,0,0,0,0,0,0,837,839,852,879,909,1413,1768,1933,1986,2065,2048,2074,1990,1958,1922,1892,1858,1900,1794,1829,1732,1734,1663,1639,1646,1598,1560,1520,1412,1204,1218,1077,890,886,852,853,829,833,828,827,830,845,833,846,834,877,863,835,844,836,837,839,835,836,836,845,841,844,835,837,838,883,847,880,840,966,952,975,1004,1123,1772,2082,2223,2330,2429,2380,2314,2277,2241,2176,2139,2108,2100,2028,2055,1966,1917,1880,1867,1838,1768,1731,1694,1375,1209,1114,1055,1049,989,985,963,945,950,963,951,965,952,966,980,962,961,964,983,1001,989,980,990,989,986,987,986,990,1001,994,988,990,985,987,1000,983,1287,1291,1326,1471,2088,2890,3214,3442,3523,3556,3491,3444,3322,3294,3224,3160,3068,3052,2942,2886,2778,2605,2577,2446,2341,2134,1940,1701,1510,1464,1460,1376,1368,1325,1310,1313,1322,1360,1390,1409,1452,1420,1404,1420,1404,1424,1408,1417,1425,1416,1419,1426,1435,1480,1493,1433,1420,1426,1488,1501,1433,1422,1416,1517,1490,1142,1145,1147,1159,1262,1868,2442,2566,2638,2576,2550,2566,2530,2447,2443,2354,2325,2338,2246,2260,2203,2126,2090,2124,2031,1989,1729,1500,1334,1259,1202,1217,1200,1169,1125,1115,1107,1112,1082,1066,1086,1093,1099,1103,1101,1104,1103,1103,1103,1103,1103,1103,1103,1103,1103,1103,1103,1103,1103,1103,1103,1103,1103,1103,1103,1266,1271,1278,1346,1450,2205,2763,2873,2933,2941,2906,2862,2822,2773,2734,2690,2645,2600,2554,2510,2473,2426,2136,1837,1630,1626,1840,1558,1478,1425,1394,1388,1314,1311,1294,1285,1272,1274,1259,1251,1241,1247,1264,1261,1260,1277,1255,1274,1265,1275,1269,1280,1277,1280,1280,1274,1272,1278,1280,1280,1275,1280,1264,1272,1266,142,143,143,143,196,219,242,265,288,309,326,321,316,313,308,303,300,295,290,286,282,277,273,268,264,260,255,250,246,242,237,232,229,224,219,196,196,217,133,136,133,136,136,138,133,137,133,138,135,136,135,135,138,141,136,136,137,136,137,137,136,138,132,135,132,487,489,489,491,492,554,896,971,1046,1086,1083,1069,1054,1040,1026,1011,997,982,968,953,946,924,912,897,883,868,852,839,715,701,654,570,559,550,495,493,494,495,471,455,460,459,468,489,471,493,488,485,492,490,488,484,486,492,489,470,478,492,481,485,484,478,479,488,491,654,653,656,658,660,879,1216,1352,1439,1507,1466,1446,1426,1406,1386,1366,1346,1326,1306,1286,1266,1246,1226,1207,1186,1167,1147,1125,1105,946,886,816,684,723,664,660,662,663,623,622,613,617,618,640,620,628,623,634,651,655,640,625,657,646,647,630,630,656,644,657,642,657,648,632,631,164,165,165,166,167,258,289,320,351,381,399,393,387,381,375,369,363,357,351,345,339,333,327,321,315,309,303,297,291,285,279,273,267,261,255,167,252,252,157,160,161,178,178,161,157,158,161,178,167,162,164,163,157,158,161,166,158,157,158,158,160,157,162,160,156,1071,1073,1082,1089,1141,1674,2190,2394,2470,2516,2459,2415,2379,2349,2307,2271,2242,2199,2167,2127,2091,2055,2019,1999,1948,1912,1778,1576,1278,1177,1153,1205,1122,1139,1087,1084,1087,1089,1048,1044,1059,1041,1046,1067,1057,1055,1056,1065,1080,1075,1070,1057,1082,1082,1083,1073,1064,1096,1063,1098,1076,1067,1084,1064,1063,817,836,848,850,912,1359,1669,1835,2031,2055,2013,1950,1902,1870,1912,1861,1846,1813,1781,1681,1650,1635,1649,1604,1528,1469,1354,1332,1285,1176,1138,873,884,881,850,829,831,804,807,807,828,810,808,808,820,807,813,811,828,813,815,828,828,811,816,828,819,815,809,825,828,828,816,827,810,0,0,0,0,0,0,0,0,0,0,0,0,0,0,0,0,0,0,0,0,0,0,0,0,0,0,0,0,0,0,0,0,0,0,0,0,0,0,0,0,0,0,0,0,0,0,0,0,0,0,0,0,0,0,0,0,0,0,0,0,0,0,0,0,0,364,364,377,378,368,429,638,712,761,804,806,797,786,778,767,758,749,739,727,720,702,696,687,670,668,658,648,639,515,506,499,446,471,403,370,368,381,362,332,319,311,314,330,330,329,333,323,340,337,349,344,339,338,353,344,321,330,341,341,348,345,353,343,342,335,1142,1145,1147,1159,1262,1868,2442,2566,2638,2576,2550,2566,2530,2447,2443,2354,2325,2338,2246,2260,2203,2126,2090,2124,2031,1989,1729,1500,1334,1259,1202,1217,1200,1169,1125,1115,1107,1112,1082,1066,1086,1093,1099,1103,1101,1104,1103,1103,1103,1103,1103,1103,1103,1103,1103,1103,1103,1103,1103,1103,1103,1103,1103,1103,1103,892,896,899,914,932,1410,1857,2000,2159,2179,2142,2132,2108,1997,2025,2009,1898,1931,1853,1865,1839,1800,1698,1664,1704,1646,1523,1369,1125,1063,1068,1019,946,927,921,890,894,873,844,841,851,860,869,868,868,873,858,877,864,869,872,871,872,876,883,871,865,870,860,867,861,874,871,871,863,1030,1027,1036,1073,1130,1955,2197,2371,2460,2484,2476,2487,2389,2345,2309,2270,2233,2193,2155,2110,2072,2032,2016,1979,1915,1878,1596,1322,1483,1224,1119,1094,1103,1060,1046,1040,1042,1029,1014,1005,1008,1011,1028,1022,1028,1026,1024,1026,1024,1017,1031,1014,1020,1028,1030,1017,1028,1012,1010,1025,1022,1034,1030,1034,1022,365,366,386,368,430,464,679,758,835,901,910,896,880,866,852,837,823,808,794,779,765,750,735,721,706,692,676,662,649,580,566,478,466,384,374,371,432,373,355,355,355,357,364,363,358,364,356,366,358,360,363,364,371,382,375,372,367,363,369,369,373,374,380,396,371,244,245,246,247,248,393,445,498,550,600,614,604,594,584,574,565,555,546,535,525,516,506,496,486,476,466,457,447,438,427,417,408,398,388,322,248,249,250,231,228,231,236,234,231,240,234,230,237,232,232,237,241,241,238,251,245,232,233,232,232,231,237,234,238,232,524,526,527,528,531,782,987,1114,1218,1269,1269,1261,1231,1213,1183,1179,1169,1134,1118,1092,1080,1054,1034,1014,994,974,961,934,918,850,841,695,596,567,527,529,531,504,480,480,498,500,500,494,500,501,495,499,492,489,495,494,497,493,493,495,490,488,494,496,491,492,486,496,485,180,180,246,181,286,283,319,360,390,424,421,416,427,421,414,406,400,387,387,378,373,368,363,358,354,349,344,326,319,312,306,298,291,285,185,182,288,183,175,175,175,176,183,178,180,184,176,187,180,178,181,180,180,184,185,184,184,184,180,184,181,187,187,187,187,882,888,888,923,986,1592,1815,1990,2092,2147,2092,2107,2067,2014,1959,1969,1933,1902,1848,1826,1780,1728,1741,1719,1640,1612,1596,1418,1185,1133,963,940,977,910,890,896,886,892,877,873,876,879,890,879,889,885,883,885,875,881,884,882,888,890,898,885,886,880,878,881,890,885,895,889,883,900,918,898,890,999,1416,1857,2010,2088,2182,2139,2074,2059,2017,1983,2019,1929,1885,1850,1825,1844,1777,1776,1738,1664,1652,1609,1522,1337,1053,969,950,927,926,924,899,904,901,871,874,876,882,881,879,880,880,880,882,882,883,894,892,902,887,884,880,881,883,880,879,881,880,879,882,879,328,333,338,332,398,416,580,666,694,723,732,722,712,704,694,685,675,667,657,648,652,630,632,621,612,601,583,573,564,555,546,540,411,345,339,333,401,335,331,336,332,339,344,344,336,343,334,339,344,341,340,345,346,349,343,346,349,347,348,341,344,361,333,340,338,0,0,0,0,0,0,0,0,0,0,0,0,0,0,0,0,0,0,0,0,0,0,0,0,0,0,0,0,0,0,0,0,0,0,0,0,0,0,0,0,0,0,0,0,0,0,0,0,0,0,0,0,0,0,0,0,0,0,0,0,0,0,0,0,0,892,896,899,914,932,1410,1857,2000,2159,2179,2142,2132,2108,1997,2025,2009,1898,1931,1853,1865,1839,1800,1698,1664,1704,1646,1523,1369,1125,1063,1068,1019,946,927,921,890,894,873,844,841,851,860,869,868,868,873,858,877,864,869,872,871,872,876,883,871,865,870,860,867,861,874,871,871,863,0,0,0,0,0,0,0,0,0,0,0,0,0,0,0,0,0,0,0,0,0,0,0,0,0,0,0,0,0,0,0,0,0,0,0,0,0,0,0,0,0,0,0,0,0,0,0,0,0,0,0,0,0,0,0,0,0,0,0,0,0,0,0,0,0,502,504,505,507,519,849,993,1083,1188,1236,1243,1222,1203,1183,1164,1143,1185,1104,1083,1064,1044,1024,1004,985,962,945,925,906,885,866,850,756,602,587,513,510,510,512,500,502,511,523,513,516,509,518,509,528,513,511,524,525,555,626,578,523,524,528,525,521,529,554,523,530,520,1088,1088,1093,1123,1310,1919,2326,2465,2589,2662,2638,2587,2572,2532,2469,2420,2377,2359,2313,2239,2201,2194,2126,2079,2050,1989,1699,1661,1413,1224,1209,1164,1143,1140,1120,1103,1094,1069,1054,1056,1069,1083,1067,1076,1070,1065,1076,1071,1073,1062,1066,1070,1064,1065,1070,1072,1069,1068,1067,1070,1068,1084,1063,1076,1067,681,670,672,688,694,1011,1318,1463,1561,1657,1660,1624,1618,1596,1546,1516,1494,1468,1450,1424,1390,1389,1338,1338,1293,1256,1229,1173,1063,980,961,898,778,706,696,678,690,675,638,639,648,666,653,657,646,646,661,676,660,658,666,669,661,655,656,658,659,657,655,656,656,670,656,669,660,750,751,754,759,778,1236,1450,1633,1754,1852,1847,1814,1789,1772,1748,1689,1683,1661,1632,1597,1572,1538,1517,1487,1458,1398,1368,1324,1076,1100,1026,943,849,798,805,761,764,728,716,721,724,727,731,731,738,731,726,736,731,726,735,737,734,739,752,751,732,734,737,734,732,738,732,735,735,983,973,973,989,1126,1617,2037,2190,2265,2350,2352,2306,2279,2245,2193,2143,2118,2079,2050,2014,1978,1939,1903,1864,1825,1772,1744,1531,1332,1266,1142,1043,1024,1008,1001,980,995,936,915,916,931,937,928,932,932,933,943,938,941,932,936,937,934,936,937,939,940,939,938,937,938,951,937,950,941,497,499,514,502,512,833,966,1065,1182,1233,1237,1218,1197,1178,1181,1140,1141,1100,1081,1048,1041,1022,1003,984,964,944,946,927,886,803,788,778,625,608,515,505,524,507,494,489,490,496,514,505,517,503,496,516,503,502,499,499,496,497,497,502,507,500,496,498,502,517,500,500,495,1319,1339,1346,1415,2012,2843,3146,3264,3275,3308,3252,3195,3186,3105,3097,3032,2937,2902,2849,2750,2687,2577,2569,2285,2016,2006,1851,1544,1517,1466,1446,1408,1371,1337,1364,1330,1319,1348,1370,1376,1385,1395,1385,1373,1400,1372,1377,1405,1368,1383,1386,1406,1411,1412,1420,1429,1391,1397,1396,1382,1376,1385,1410,1375,1365,1133,1123,1115,1147,1304,1870,2309,2455,2528,2611,2616,2561,2532,2496,2474,2423,2395,2341,2317,2255,2248,2202,2162,2095,2047,2020,1851,1647,1399,1393,1287,1206,1175,1152,1152,1121,1147,1084,1067,1071,1080,1093,1077,1092,1085,1078,1088,1083,1086,1077,1081,1082,1079,1081,1082,1084,1085,1084,1083,1082,1083,1096,1082,1095,1086,870,859,856,865,921,1313,1748,1919,2002,2056,2046,2014,1988,1954,1921,1908,1856,1825,1792,1760,1727,1694,1664,1630,1599,1567,1537,1274,1026,1027,996,987,908,883,893,864,855,790,771,772,782,789,780,786,783,782,792,787,790,781,785,786,783,785,786,788,789,788,787,786,787,800,786,799,790,0,0,0,0,0,0,0,0,0,0,0,0,0,0,0,0,0,0,0,0,0,0,0,0,0,0,0,0,0,0,0,0,0,0,0,0,0,0,0,0,0,0,0,0,0,0,0,0,0,0,0,0,0,0,0,0,0,0,0,0,0,0,0,0,0 ]);
