n = 10;
D = [298,146,245,202,130,102,150,62,189,237 ];
q = 0;
prec = array2d(1..0,1..2,[]);
steps = 64;
l = 360;
r = 0;
which = [];
interval = array2d(1..0,1..2,[]);
T = array3d(1..11,1..11,0..64,[0,0,0,0,0,0,0,0,0,0,0,0,0,0,0,0,0,0,0,0,0,0,0,0,0,0,0,0,0,0,0,0,0,0,0,0,0,0,0,0,0,0,0,0,0,0,0,0,0,0,0,0,0,0,0,0,0,0,0,0,0,0,0,0,0,1136,1139,1152,1192,1623,2028,2636,2757,2843,2877,2871,2800,2767,2701,2668,2617,2553,2511,2464,2400,2361,2333,2257,2216,2185,2134,2027,1750,1490,1462,1447,1208,1182,1166,1163,1166,1177,1149,1142,1145,1151,1172,1161,1162,1162,1170,1179,1177,1165,1170,1184,1182,1189,1190,1186,1187,1187,1182,1183,1186,1190,1204,1195,1199,1186,1045,1048,1052,1073,1193,1514,2235,2340,2474,2503,2490,2469,2434,2378,2346,2309,2268,2240,2190,2168,2114,2079,2041,1997,1964,1786,1730,1602,1401,1255,1236,1197,1106,1063,1071,1066,1010,1017,993,992,992,1004,1008,1006,1015,1010,1004,1010,1010,1021,1010,1007,1007,1013,1011,1012,1017,1014,1009,1012,1010,1012,1008,1012,1012,651,650,653,653,692,1091,1237,1387,1545,1593,1611,1568,1596,1513,1503,1462,1426,1426,1392,1359,1335,1313,1298,1260,1252,1214,1184,1159,1134,997,932,856,839,672,673,653,663,661,647,645,648,656,659,652,655,652,659,660,661,665,678,675,678,682,671,670,667,683,668,657,677,657,665,668,668,758,760,760,765,828,1012,1494,1608,1757,1807,1807,1779,1767,1707,1696,1678,1644,1633,1588,1574,1545,1510,1491,1454,1440,1374,1377,1305,1212,1102,989,866,800,769,776,782,759,735,703,707,705,709,718,719,730,724,718,724,724,735,724,721,721,727,725,726,731,728,723,726,724,726,722,726,726,415,416,418,419,429,550,750,836,921,1000,1020,1013,988,972,966,940,924,917,892,883,860,843,836,812,795,780,771,747,732,707,690,564,549,434,424,420,422,394,368,370,365,367,374,374,386,382,372,376,376,389,379,373,374,382,378,378,381,380,376,380,377,381,380,383,383,566,566,569,576,586,781,1101,1244,1350,1398,1401,1374,1355,1333,1310,1288,1266,1239,1221,1196,1175,1160,1131,1106,1087,1065,1036,963,941,920,899,710,674,590,575,579,581,543,537,537,542,550,548,550,541,552,543,547,547,547,548,551,557,562,560,559,556,553,557,556,558,573,559,575,558,392,393,395,396,401,515,706,790,870,943,968,952,936,921,909,893,878,863,848,832,818,801,786,771,756,740,726,710,694,680,562,549,536,469,434,398,399,400,351,356,354,357,382,377,367,387,375,385,388,370,406,364,366,382,373,365,389,369,369,370,370,370,370,369,369,841,827,844,854,934,1276,1702,1821,1971,2043,2004,1996,1964,1926,1910,1863,1832,1804,1748,1741,1708,1693,1645,1642,1594,1546,1518,1454,1237,1209,1123,916,894,872,876,872,845,838,839,832,834,838,840,838,842,855,846,854,856,841,850,856,860,869,873,860,856,867,859,869,870,858,847,845,845,733,735,736,740,808,1047,1456,1571,1719,1770,1770,1742,1730,1670,1658,1641,1607,1596,1550,1537,1508,1473,1453,1417,1403,1336,1339,1268,1175,1065,1029,879,775,744,751,757,726,702,673,678,675,679,689,688,700,693,687,693,693,704,693,690,690,696,694,695,700,697,692,695,693,695,691,695,695,0,0,0,0,0,0,0,0,0,0,0,0,0,0,0,0,0,0,0,0,0,0,0,0,0,0,0,0,0,0,0,0,0,0,0,0,0,0,0,0,0,0,0,0,0,0,0,0,0,0,0,0,0,0,0,0,0,0,0,0,0,0,0,0,0,1071,1074,1086,1129,1439,2099,2427,2607,2698,2742,2709,2662,2616,2569,2525,2475,2459,2384,2335,2305,2253,2194,2147,2109,2063,1963,1885,1815,1610,1389,1182,1151,1150,1112,1096,1096,1082,1064,1060,1058,1058,1069,1069,1064,1063,1088,1058,1066,1063,1062,1064,1085,1072,1066,1093,1070,1072,1071,1087,1091,1066,1068,1067,1068,1062,0,0,0,0,0,0,0,0,0,0,0,0,0,0,0,0,0,0,0,0,0,0,0,0,0,0,0,0,0,0,0,0,0,0,0,0,0,0,0,0,0,0,0,0,0,0,0,0,0,0,0,0,0,0,0,0,0,0,0,0,0,0,0,0,0,744,748,748,765,804,998,1459,1610,1742,1799,1809,1774,1754,1723,1694,1678,1641,1614,1585,1556,1531,1506,1471,1442,1414,1389,1357,1318,1157,1028,967,909,792,786,768,763,734,730,698,698,697,693,701,706,702,709,706,701,711,711,714,715,722,725,717,727,721,722,723,721,714,714,714,714,714,1020,1023,1027,1036,1208,1792,2243,2418,2558,2621,2602,2568,2546,2482,2440,2398,2356,2334,2270,2229,2188,2145,2099,2053,2004,1954,1912,1757,1418,1298,1199,1104,1072,1048,1039,1035,1047,1048,1040,1033,1036,1040,1042,1046,1051,1058,1055,1054,1060,1060,1061,1057,1058,1066,1063,1067,1056,1063,1063,1064,1065,1067,1058,1068,1066,731,724,735,737,769,1215,1491,1684,1808,1859,1851,1830,1795,1771,1739,1705,1674,1628,1615,1586,1552,1524,1489,1461,1425,1392,1359,1303,1271,1138,881,861,810,757,758,733,744,697,693,700,689,686,698,690,705,701,704,695,706,706,705,703,723,695,704,693,702,715,705,702,703,720,708,701,700,971,949,950,957,1200,1810,2094,2345,2386,2428,2409,2367,2325,2289,2300,2206,2164,2121,2079,2036,1994,1950,1958,1868,1830,1788,1780,1677,1452,1346,1071,1024,997,976,961,961,908,912,903,899,905,919,916,927,913,930,921,932,925,921,924,936,934,927,959,936,932,937,937,950,932,934,933,934,928,692,695,696,724,734,1277,1479,1674,1797,1848,1839,1807,1773,1740,1707,1674,1664,1628,1574,1557,1508,1476,1468,1410,1376,1342,1310,1276,1244,1210,900,873,871,720,705,704,708,693,689,691,690,700,698,694,695,718,687,694,692,691,693,725,700,700,721,701,699,698,724,722,693,696,699,702,696,1161,1152,1156,1167,1537,2290,2600,2810,2865,2898,2817,2824,2709,2675,2713,2625,2588,2533,2487,2378,2328,2332,2312,2234,2157,1950,1831,1766,1619,1450,1287,1232,1202,1183,1169,1169,1140,1132,1128,1126,1126,1137,1137,1132,1131,1156,1126,1134,1131,1130,1132,1153,1140,1134,1161,1138,1140,1139,1155,1159,1134,1136,1135,1136,1130,576,577,579,580,596,892,1160,1313,1444,1499,1497,1472,1447,1420,1394,1369,1342,1318,1292,1264,1240,1213,1186,1160,1135,1108,1082,1057,1005,984,882,635,617,600,586,584,588,552,548,555,544,541,553,545,556,556,558,550,555,556,554,556,575,550,559,548,557,570,555,553,558,575,559,556,555,724,715,728,716,757,1153,1459,1647,1772,1827,1823,1793,1765,1738,1708,1677,1648,1607,1588,1547,1531,1506,1473,1424,1393,1359,1330,1291,1252,1143,920,810,806,736,722,745,722,683,678,687,677,673,685,677,691,688,691,682,693,694,692,693,710,686,689,680,690,702,691,689,691,707,697,688,687,1071,1074,1086,1129,1439,2099,2427,2607,2698,2742,2709,2662,2616,2569,2525,2475,2459,2384,2335,2305,2253,2194,2147,2109,2063,1963,1885,1815,1610,1389,1182,1151,1150,1112,1096,1096,1082,1064,1060,1058,1058,1069,1069,1064,1063,1088,1058,1066,1063,1062,1064,1085,1072,1066,1093,1070,1072,1071,1087,1091,1066,1068,1067,1068,1062,1066,1062,1072,1084,1293,1881,2195,2400,2491,2511,2468,2451,2416,2377,2324,2315,2270,2215,2190,2129,2119,2049,2008,1967,1934,1921,1785,1552,1421,1202,1168,1128,1089,1081,1078,1074,1054,1042,1033,1031,1039,1040,1041,1036,1041,1043,1039,1033,1033,1033,1033,1033,1033,1033,1033,1033,1033,1033,1033,1033,1033,1033,1033,1033,1033,696,699,701,706,796,1220,1401,1540,1649,1707,1707,1681,1650,1652,1606,1568,1542,1514,1486,1460,1436,1406,1378,1351,1324,1297,1270,1243,1216,1189,1029,838,812,721,710,708,709,713,689,690,686,707,697,687,695,709,698,709,705,712,701,700,693,692,697,706,692,696,691,691,691,691,691,691,691,0,0,0,0,0,0,0,0,0,0,0,0,0,0,0,0,0,0,0,0,0,0,0,0,0,0,0,0,0,0,0,0,0,0,0,0,0,0,0,0,0,0,0,0,0,0,0,0,0,0,0,0,0,0,0,0,0,0,0,0,0,0,0,0,0,669,672,673,701,779,920,1370,1463,1543,1591,1580,1566,1541,1518,1495,1477,1453,1417,1411,1369,1364,1321,1316,1274,1250,1225,1127,1109,1005,968,739,860,707,721,746,692,682,648,644,644,644,645,645,645,645,645,644,645,645,645,645,645,645,645,645,645,645,645,645,645,645,645,645,645,645,496,488,488,491,501,743,872,997,1045,1089,1112,1096,1068,1054,1040,1027,1008,999,985,972,948,937,930,915,890,892,846,844,847,814,752,664,589,503,532,492,542,470,455,455,458,458,460,459,458,459,458,457,457,457,457,457,457,457,457,457,457,457,457,457,457,457,457,457,457,793,796,789,792,802,1136,1511,1725,1825,1858,1850,1826,1803,1772,1746,1735,1710,1679,1638,1585,1598,1530,1506,1471,1439,1441,1224,1212,1037,994,869,849,853,811,802,798,779,722,719,715,719,724,730,729,725,728,730,728,731,730,726,730,731,731,730,731,730,730,725,722,722,722,722,722,722,851,846,857,856,930,1459,1669,1896,1995,2033,2012,1995,1938,1900,1888,1891,1850,1813,1785,1732,1725,1650,1622,1580,1550,1412,1404,1340,1142,1136,1083,986,888,875,867,868,842,823,810,817,819,812,815,819,820,819,817,819,819,819,819,819,819,819,819,819,819,819,819,819,819,819,819,819,819,1010,1010,986,1008,1136,1637,2032,2246,2341,2371,2286,2315,2266,2244,2207,2193,2119,2115,2074,2000,1997,1942,1896,1844,1825,1799,1448,1436,1308,1252,1120,1083,1063,1034,1005,989,1000,952,949,950,956,957,969,966,961,964,965,964,969,967,961,968,971,968,967,967,969,966,960,959,959,959,959,959,959,523,508,509,511,528,834,948,1084,1131,1172,1176,1159,1142,1125,1108,1092,1074,1094,1040,1023,1006,990,973,956,939,1003,906,889,871,854,824,739,616,602,516,513,515,516,501,496,510,513,502,513,505,511,505,509,513,509,503,507,506,513,509,512,507,511,508,508,508,508,508,508,508,504,487,499,494,498,713,873,1025,1078,1120,1126,1117,1096,1082,1066,1052,1036,1022,1006,992,987,940,922,924,898,920,834,834,858,825,714,602,552,539,505,508,502,437,424,426,425,425,427,427,427,427,426,425,425,425,425,425,425,425,425,425,425,425,425,425,425,425,425,425,425,1066,1062,1072,1084,1293,1881,2195,2400,2491,2511,2468,2451,2416,2377,2324,2315,2270,2215,2190,2129,2119,2049,2008,1967,1934,1921,1785,1552,1421,1202,1168,1128,1089,1081,1078,1074,1054,1042,1033,1031,1039,1040,1041,1036,1041,1043,1039,1033,1033,1033,1033,1033,1033,1033,1033,1033,1033,1033,1033,1033,1033,1033,1033,1033,1033,626,627,632,632,648,1064,1243,1384,1491,1539,1556,1530,1489,1460,1440,1416,1388,1362,1358,1317,1293,1284,1244,1247,1228,1188,1146,1120,1096,1085,931,798,764,652,638,636,637,609,625,623,634,643,633,629,627,633,639,651,645,646,646,653,677,664,652,643,641,653,643,637,632,654,643,652,645,984,1003,1008,1051,1117,1849,2156,2406,2518,2569,2523,2484,2448,2407,2362,2323,2286,2242,2226,2164,2101,2109,2069,1984,1971,1891,1869,1753,1397,1257,1195,1082,1035,1011,1017,1003,1037,1032,1032,1037,1051,1056,1057,1058,1064,1062,1053,1071,1051,1053,1050,1060,1066,1067,1064,1066,1058,1056,1052,1067,1067,1067,1067,1067,1067,625,626,627,630,634,725,1200,1311,1475,1531,1514,1510,1466,1454,1430,1395,1407,1348,1324,1300,1274,1291,1229,1206,1182,1197,1136,1096,1041,1067,845,845,811,655,656,632,652,654,604,604,605,620,616,609,613,627,617,614,626,626,638,638,656,666,612,612,623,620,616,619,617,617,617,617,617,0,0,0,0,0,0,0,0,0,0,0,0,0,0,0,0,0,0,0,0,0,0,0,0,0,0,0,0,0,0,0,0,0,0,0,0,0,0,0,0,0,0,0,0,0,0,0,0,0,0,0,0,0,0,0,0,0,0,0,0,0,0,0,0,0,581,582,585,586,590,781,1064,1213,1332,1383,1406,1384,1362,1341,1318,1292,1271,1253,1231,1209,1186,1176,1142,1121,1100,1083,1068,1035,986,833,818,698,680,614,592,592,591,558,503,504,508,511,511,511,512,513,513,515,516,516,518,525,522,520,519,520,522,521,522,524,520,520,520,520,520,361,362,364,364,366,524,704,784,822,924,890,920,861,848,834,819,806,792,816,764,750,736,757,709,694,760,700,652,638,655,610,597,498,379,385,367,368,367,360,361,359,360,361,364,362,366,362,364,363,361,364,363,364,366,364,365,364,364,364,364,364,364,363,366,364,689,699,691,697,704,1029,1338,1506,1629,1692,1701,1677,1653,1618,1581,1567,1535,1509,1479,1444,1423,1391,1362,1334,1315,1291,1221,1197,1131,1003,845,795,741,725,704,709,720,642,605,602,601,601,607,611,608,612,612,613,613,614,614,615,613,615,612,614,633,616,617,630,617,621,622,620,619,420,422,426,424,428,699,790,882,972,1029,1036,1040,1004,984,972,955,939,919,924,890,873,873,841,851,840,822,776,759,742,727,710,706,663,444,430,427,428,400,421,418,425,437,433,427,423,429,428,439,436,439,432,441,473,474,440,436,430,444,433,428,426,438,431,436,429,727,719,730,728,743,989,1386,1597,1697,1759,1763,1737,1707,1676,1652,1624,1605,1575,1539,1514,1484,1453,1431,1405,1370,1346,1312,1205,1117,878,976,840,800,767,744,737,739,703,652,652,653,656,657,657,659,659,659,660,661,662,663,670,667,665,664,665,667,666,667,669,665,665,665,665,665,565,557,568,570,572,763,1038,1200,1307,1371,1384,1347,1336,1317,1295,1273,1245,1227,1208,1184,1163,1141,1119,1097,1082,1058,1046,1004,949,795,780,712,618,612,590,574,574,525,473,474,475,478,479,479,481,481,481,482,483,484,485,492,489,487,486,487,489,488,489,491,487,487,487,487,487,626,627,632,632,648,1064,1243,1384,1491,1539,1556,1530,1489,1460,1440,1416,1388,1362,1358,1317,1293,1284,1244,1247,1228,1188,1146,1120,1096,1085,931,798,764,652,638,636,637,609,625,623,634,643,633,629,627,633,639,651,645,646,646,653,677,664,652,643,641,653,643,637,632,654,643,652,645,665,703,660,664,709,941,1294,1468,1562,1605,1602,1576,1546,1540,1500,1474,1457,1442,1399,1374,1347,1311,1297,1272,1233,1221,1210,1170,1144,993,928,756,737,672,668,659,660,651,639,639,639,639,639,639,639,639,639,639,639,639,639,639,639,639,639,639,639,639,639,639,639,639,639,639,639,612,612,608,616,625,1038,1292,1455,1599,1641,1640,1600,1580,1543,1515,1486,1465,1430,1405,1363,1345,1315,1285,1255,1225,1194,1164,1133,1104,1057,1020,905,786,636,623,621,641,628,615,614,615,615,615,615,615,615,615,615,615,615,615,615,615,615,615,615,615,615,615,615,615,615,615,615,615,365,365,361,368,349,455,630,725,783,860,849,836,850,836,812,800,806,786,778,744,753,712,737,709,679,682,636,623,612,426,419,379,475,380,369,364,372,373,321,321,321,321,321,321,321,321,321,321,321,321,321,321,321,321,321,321,321,321,321,321,321,321,321,321,321,556,572,559,560,583,720,1054,1192,1297,1342,1344,1325,1297,1288,1265,1217,1222,1209,1154,1167,1153,1138,1093,1081,1050,1034,1014,987,973,723,733,719,592,577,584,559,580,553,495,495,495,495,495,495,495,495,495,495,495,495,495,495,495,495,495,495,495,495,495,495,495,495,495,495,495,0,0,0,0,0,0,0,0,0,0,0,0,0,0,0,0,0,0,0,0,0,0,0,0,0,0,0,0,0,0,0,0,0,0,0,0,0,0,0,0,0,0,0,0,0,0,0,0,0,0,0,0,0,0,0,0,0,0,0,0,0,0,0,0,0,448,449,450,451,453,588,847,943,1033,1088,1093,1076,1059,1042,1026,1008,992,974,957,942,923,907,888,873,855,838,820,801,785,765,713,491,479,468,469,455,455,424,383,383,383,383,383,383,383,383,383,383,383,383,383,383,383,383,383,383,383,383,383,383,383,383,383,383,383,454,455,444,458,459,650,847,966,1061,1126,1109,1101,1086,1063,1044,1029,1011,994,969,956,919,919,907,884,855,827,836,798,801,771,754,631,477,474,469,456,462,424,412,412,412,412,412,412,412,412,412,412,412,412,412,412,412,412,412,412,412,412,412,412,412,412,412,412,412,642,654,653,657,663,962,1279,1424,1542,1595,1553,1560,1537,1446,1489,1462,1376,1413,1344,1366,1337,1312,1230,1207,1237,1211,1186,1158,991,1001,978,803,719,673,664,662,663,652,613,613,613,613,613,613,613,613,613,613,613,613,613,613,613,613,613,613,613,613,613,613,613,613,613,613,613,200,201,202,202,203,289,362,398,438,464,476,469,477,470,450,442,436,429,423,417,416,409,402,394,386,379,372,363,356,319,312,307,301,294,207,283,204,204,184,184,184,184,184,184,184,184,184,184,184,184,184,184,184,184,184,184,184,184,184,184,184,184,184,184,184,60,60,60,60,60,60,64,68,72,75,79,79,78,76,76,75,74,74,73,73,72,70,70,69,68,68,67,66,66,64,63,63,62,61,61,60,60,60,6,6,6,6,6,6,6,6,6,6,6,6,6,6,6,6,6,6,6,6,6,6,6,6,6,6,6,665,703,660,664,709,941,1294,1468,1562,1605,1602,1576,1546,1540,1500,1474,1457,1442,1399,1374,1347,1311,1297,1272,1233,1221,1210,1170,1144,993,928,756,737,672,668,659,660,651,639,639,639,639,639,639,639,639,639,639,639,639,639,639,639,639,639,639,639,639,639,639,639,639,639,639,639,487,494,496,497,512,733,909,1047,1162,1204,1248,1224,1194,1162,1154,1135,1114,1082,1090,1071,1020,1004,976,975,946,935,929,896,886,772,753,699,533,520,534,494,501,505,428,426,429,433,431,432,431,436,434,436,433,432,437,439,441,441,439,434,434,434,434,434,434,434,434,434,434,897,900,903,922,1023,1454,1926,2179,2278,2327,2316,2272,2230,2188,2146,2110,2062,2029,1976,1947,1906,1864,1824,1783,1742,1701,1659,1618,1393,1252,1016,969,942,923,914,912,918,949,843,851,853,849,871,861,869,868,855,871,857,859,855,855,865,860,859,856,856,856,856,856,856,856,856,856,856,693,694,710,701,706,956,1351,1498,1633,1681,1704,1655,1629,1601,1575,1543,1516,1498,1470,1439,1449,1388,1362,1350,1329,1292,1269,1087,1065,1048,911,882,795,733,706,701,704,693,623,625,622,627,637,634,632,634,629,632,634,634,632,632,634,633,631,631,631,631,631,631,631,631,631,631,631,411,412,414,416,420,500,763,839,938,1012,1020,1004,976,964,948,931,916,899,892,867,862,845,825,812,795,770,752,746,721,642,627,592,507,449,428,418,427,420,376,378,376,382,382,386,384,391,380,378,382,380,377,380,382,385,383,381,381,381,381,381,381,381,381,381,381,410,412,412,414,416,551,756,838,908,972,986,972,956,942,927,912,897,882,867,853,837,823,807,793,778,763,748,733,718,703,688,577,558,429,420,416,417,412,341,335,337,340,342,344,345,344,343,346,348,348,346,346,348,347,345,345,345,345,345,345,345,345,345,345,345,0,0,0,0,0,0,0,0,0,0,0,0,0,0,0,0,0,0,0,0,0,0,0,0,0,0,0,0,0,0,0,0,0,0,0,0,0,0,0,0,0,0,0,0,0,0,0,0,0,0,0,0,0,0,0,0,0,0,0,0,0,0,0,0,0,457,457,459,464,468,609,837,932,1029,1105,1135,1113,1099,1083,1060,1043,1027,1007,988,972,952,928,922,898,880,862,846,825,753,735,656,581,571,478,471,468,468,434,351,348,350,355,359,359,356,363,349,357,359,358,360,363,365,361,357,357,357,357,357,357,357,357,357,357,357,348,350,352,353,364,554,624,698,763,832,874,854,841,833,820,801,785,773,759,756,732,719,704,692,684,666,650,636,623,608,594,581,568,555,382,362,363,364,309,305,313,321,313,314,317,320,314,314,315,314,319,319,319,320,317,314,314,314,314,314,314,314,314,314,314,556,557,551,552,577,663,1036,1159,1269,1326,1348,1314,1293,1273,1263,1232,1220,1200,1170,1155,1134,1112,1088,1069,1048,1027,1006,984,966,926,860,669,636,620,565,556,557,557,486,483,489,491,489,498,494,498,492,495,497,497,495,495,497,496,494,494,494,494,494,494,494,494,494,494,494,385,387,388,389,392,497,718,801,871,934,949,934,919,904,890,874,860,844,830,816,800,786,770,756,741,726,711,696,681,666,651,540,554,404,395,392,392,379,308,305,308,310,312,315,314,314,312,315,317,317,315,315,317,316,314,314,314,314,314,314,314,314,314,314,314,487,494,496,497,512,733,909,1047,1162,1204,1248,1224,1194,1162,1154,1135,1114,1082,1090,1071,1020,1004,976,975,946,935,929,896,886,772,753,699,533,520,534,494,501,505,428,426,429,433,431,432,431,436,434,436,433,432,437,439,441,441,439,434,434,434,434,434,434,434,434,434,434,438,440,441,443,457,572,847,931,1027,1081,1087,1070,1070,1035,1026,1019,982,966,966,931,920,903,879,861,851,826,810,822,784,699,683,676,594,481,456,445,446,436,420,419,417,419,421,421,420,422,422,427,420,421,422,423,423,421,426,425,426,424,424,425,425,427,427,438,438,641,633,621,624,705,1078,1351,1510,1664,1672,1664,1634,1634,1561,1543,1513,1482,1473,1420,1390,1360,1400,1299,1287,1238,1208,1177,1147,1117,1086,1050,882,793,760,624,629,633,636,624,629,641,703,640,649,634,678,634,651,643,634,639,644,652,678,652,648,646,641,678,652,645,649,639,650,641,720,711,725,715,778,990,1416,1594,1699,1741,1746,1712,1728,1673,1638,1588,1569,1533,1505,1487,1482,1444,1396,1387,1363,1341,1286,1142,1101,988,972,838,798,758,719,720,726,670,662,660,663,663,662,658,658,658,658,658,658,658,658,658,658,658,658,658,658,658,658,658,658,658,658,658,658,663,667,677,679,681,855,1283,1412,1539,1635,1644,1600,1543,1554,1528,1487,1454,1449,1431,1393,1363,1350,1319,1282,1259,1218,1186,1196,1105,997,845,854,727,702,688,677,685,668,606,604,596,604,603,603,603,603,603,603,603,603,603,603,603,603,603,603,603,603,603,603,603,603,603,603,603,462,463,465,470,471,544,832,955,1017,1075,1109,1069,1078,1040,1043,1037,1000,981,986,954,954,937,920,902,884,868,850,834,814,796,673,604,587,521,478,472,475,434,425,419,421,425,425,421,421,421,421,421,421,421,421,421,421,421,421,421,421,421,421,421,421,421,421,421,421,383,387,388,389,394,488,695,774,855,930,946,945,924,908,894,879,864,842,834,819,804,789,774,759,743,729,715,698,679,669,522,511,496,418,408,393,394,363,314,312,311,312,311,311,311,311,311,311,311,311,311,311,311,311,311,311,311,311,311,311,311,311,311,311,311,0,0,0,0,0,0,0,0,0,0,0,0,0,0,0,0,0,0,0,0,0,0,0,0,0,0,0,0,0,0,0,0,0,0,0,0,0,0,0,0,0,0,0,0,0,0,0,0,0,0,0,0,0,0,0,0,0,0,0,0,0,0,0,0,0,525,537,538,540,545,719,999,1102,1236,1291,1314,1283,1273,1243,1222,1201,1167,1158,1139,1106,1076,1039,1056,1044,1023,992,974,965,872,739,796,681,646,538,545,520,541,542,516,514,513,514,513,513,513,513,513,513,513,513,513,513,513,513,513,513,513,513,513,513,513,513,513,513,513,414,415,416,418,423,493,773,861,948,1016,1022,1005,1000,972,957,940,925,912,894,878,862,846,830,813,797,769,765,748,732,728,624,511,498,478,417,414,421,408,365,366,366,372,372,382,382,382,382,381,382,382,381,381,383,383,382,383,382,382,382,384,382,382,382,380,380,430,432,433,440,439,551,772,894,945,1003,1037,997,1006,968,952,968,951,909,920,902,888,871,854,839,822,805,789,772,757,753,582,571,557,508,440,436,438,420,395,390,391,396,396,394,394,394,394,394,394,394,394,394,394,394,394,394,394,394,394,394,394,394,394,394,394,438,440,441,443,457,572,847,931,1027,1081,1087,1070,1070,1035,1026,1019,982,966,966,931,920,903,879,861,851,826,810,822,784,699,683,676,594,481,456,445,446,436,420,419,417,419,421,421,420,422,422,427,420,421,422,423,423,421,426,425,426,424,424,425,425,427,427,438,438,215,216,216,216,217,342,387,432,477,522,537,529,520,512,504,494,486,477,469,460,452,444,435,427,417,409,400,392,384,375,367,358,350,340,332,218,328,328,210,204,205,209,300,200,202,204,204,216,217,214,211,304,212,204,306,212,207,211,212,210,209,206,216,212,216,1144,1168,1173,1220,1629,2047,2600,2799,2871,2957,2909,2847,2810,2716,2693,2626,2620,2588,2468,2449,2342,2364,2288,2272,2088,2042,2015,1745,1490,1296,1324,1270,1222,1213,1180,1181,1212,1176,1176,1181,1184,1200,1201,1194,1199,1198,1210,1208,1201,1203,1205,1220,1218,1224,1217,1220,1212,1213,1220,1219,1212,1220,1222,1217,1214,1036,1055,1062,1083,1184,1533,2248,2396,2509,2550,2530,2459,2426,2406,2363,2334,2291,2216,2181,2166,2129,2067,2056,2010,1969,1786,1734,1602,1377,1305,1244,1139,1098,1106,1058,1062,1029,1018,979,980,984,1001,998,998,994,1000,991,1021,1000,1019,994,1000,1023,1022,1003,1003,1008,1007,1006,1003,1004,1005,992,995,993,585,590,624,596,612,1014,1160,1307,1376,1496,1456,1416,1450,1369,1346,1323,1309,1321,1301,1252,1260,1214,1184,1190,1144,1094,1115,1048,1055,985,1002,768,623,613,619,588,617,589,597,592,591,595,599,604,603,596,600,604,610,611,612,605,598,604,605,611,606,606,599,602,602,603,610,604,586,752,768,774,776,800,1031,1525,1665,1794,1846,1843,1786,1755,1756,1726,1697,1666,1611,1582,1592,1563,1502,1496,1471,1446,1414,1382,1317,1237,1075,1013,905,807,819,768,780,777,736,689,695,697,706,708,711,704,714,705,735,714,733,708,714,737,736,717,717,722,721,720,717,718,719,706,709,707,402,403,405,406,407,569,756,838,921,986,995,979,963,947,931,916,900,885,868,854,837,821,806,790,773,758,743,726,660,648,633,595,447,430,420,408,409,395,353,359,357,364,364,366,360,371,359,387,366,387,363,366,390,391,370,369,372,373,373,371,371,374,364,366,364,601,603,610,612,633,800,1185,1307,1429,1485,1474,1460,1436,1413,1389,1370,1342,1317,1294,1268,1252,1222,1198,1174,1158,1120,1109,1024,1002,964,924,663,644,628,639,615,616,582,571,573,575,578,580,582,578,580,580,592,583,584,585,586,594,595,594,592,604,591,594,594,596,598,588,593,590,0,0,0,0,0,0,0,0,0,0,0,0,0,0,0,0,0,0,0,0,0,0,0,0,0,0,0,0,0,0,0,0,0,0,0,0,0,0,0,0,0,0,0,0,0,0,0,0,0,0,0,0,0,0,0,0,0,0,0,0,0,0,0,0,0,850,851,855,862,923,1264,1703,1878,2002,2054,2044,1996,1954,1948,1924,1913,1860,1827,1793,1730,1723,1701,1682,1630,1597,1570,1548,1454,1237,998,1047,953,911,884,852,865,863,846,837,847,848,853,862,850,858,863,854,870,863,877,857,863,870,871,866,861,871,870,869,866,867,868,855,858,856,728,743,750,751,775,1020,1488,1628,1757,1809,1806,1749,1718,1718,1689,1660,1629,1574,1545,1546,1526,1465,1459,1434,1409,1377,1345,1280,1203,1037,936,858,782,794,743,755,744,703,659,666,667,676,679,680,674,683,674,704,683,702,677,683,706,705,686,686,691,690,689,686,687,688,675,678,676,215,216,216,216,217,342,387,432,477,522,537,529,520,512,504,494,486,477,469,460,452,444,435,427,417,409,400,392,384,375,367,358,350,340,332,218,328,328,210,204,205,209,300,200,202,204,204,216,217,214,211,304,212,204,306,212,207,211,212,210,209,206,216,212,216,713,710,727,720,771,935,1414,1577,1681,1738,1752,1711,1682,1650,1610,1603,1584,1543,1526,1480,1460,1432,1401,1381,1348,1324,1293,1276,1222,1087,813,792,751,726,744,738,723,707,681,677,682,687,689,681,686,706,686,689,683,686,685,696,695,694,692,693,693,691,696,707,692,707,681,690,687,511,507,514,513,544,834,978,1215,1347,1398,1395,1369,1344,1317,1322,1267,1240,1214,1189,1162,1126,1109,1084,1056,1031,1006,981,957,932,906,855,771,552,552,535,514,523,540,505,503,506,510,511,519,513,517,513,513,525,513,510,514,512,519,514,516,515,515,515,517,513,521,514,567,517,387,387,386,388,395,552,745,800,883,939,948,933,918,900,888,873,864,843,828,813,816,800,772,763,739,723,705,702,691,668,649,619,586,406,393,392,391,392,380,369,370,379,377,386,379,388,382,389,389,380,384,375,375,388,389,377,380,380,374,383,384,384,384,395,385,725,730,743,746,763,1013,1374,1594,1701,1746,1733,1707,1698,1675,1633,1634,1611,1585,1549,1532,1488,1480,1429,1404,1381,1352,1319,1229,995,967,896,809,792,754,747,744,744,694,624,627,637,658,635,636,634,636,629,638,632,634,640,644,645,666,643,635,634,635,645,643,647,663,637,646,634,215,215,218,219,236,263,376,411,431,457,477,472,467,462,458,452,448,443,437,434,428,423,427,420,419,412,403,396,388,381,364,280,336,228,262,238,238,238,149,149,147,149,150,150,150,153,149,151,150,155,155,158,151,176,150,149,147,149,155,156,157,175,155,156,151,500,502,505,506,507,631,946,1053,1155,1222,1246,1215,1192,1173,1155,1135,1114,1095,1076,1057,1038,1018,998,979,962,940,921,901,882,864,837,583,536,523,532,509,510,466,420,418,426,428,439,444,431,443,443,445,439,438,441,436,437,451,438,431,439,443,432,435,434,445,436,443,439,494,507,511,512,515,719,969,1080,1187,1242,1272,1221,1211,1196,1177,1151,1131,1099,1099,1071,1058,1031,999,998,972,952,934,903,895,865,845,713,581,543,520,513,517,488,468,452,457,464,464,470,465,470,465,468,471,458,467,458,456,459,461,462,458,459,459,461,460,460,460,472,459,704,707,708,712,717,952,1378,1555,1661,1721,1737,1700,1667,1638,1569,1581,1499,1470,1503,1472,1449,1422,1343,1316,1344,1260,1285,1230,1088,1096,964,832,718,730,710,706,689,698,650,653,667,664,673,683,672,679,679,681,675,679,682,677,678,691,675,668,680,684,669,675,675,685,677,683,679,0,0,0,0,0,0,0,0,0,0,0,0,0,0,0,0,0,0,0,0,0,0,0,0,0,0,0,0,0,0,0,0,0,0,0,0,0,0,0,0,0,0,0,0,0,0,0,0,0,0,0,0,0,0,0,0,0,0,0,0,0,0,0,0,0,185,185,188,206,206,210,321,339,359,385,405,400,395,390,386,380,376,371,365,362,356,351,367,360,355,346,340,333,327,313,314,269,298,217,211,206,207,207,135,134,134,137,137,137,137,139,136,138,137,142,143,145,141,158,141,134,134,137,142,142,144,163,142,145,138,713,710,727,720,771,935,1414,1577,1681,1738,1752,1711,1682,1650,1610,1603,1584,1543,1526,1480,1460,1432,1401,1381,1348,1324,1293,1276,1222,1087,813,792,751,726,744,738,723,707,681,677,682,687,689,681,686,706,686,689,683,686,685,696,695,694,692,693,693,691,696,707,692,707,681,690,687,682,703,686,717,724,1133,1356,1515,1612,1642,1639,1667,1590,1567,1533,1508,1483,1458,1432,1414,1382,1357,1332,1323,1298,1256,1231,1221,1189,1029,927,843,712,722,686,692,693,678,655,646,649,651,664,660,664,660,663,661,658,658,664,651,655,665,665,657,669,652,651,664,663,667,668,665,665,615,617,620,619,621,978,1276,1438,1579,1618,1630,1588,1549,1508,1522,1453,1438,1410,1390,1362,1359,1304,1275,1246,1222,1193,1164,1158,1102,994,966,854,758,639,646,644,626,624,613,612,614,624,610,626,622,624,623,627,639,620,623,622,621,631,626,628,625,626,623,621,625,628,624,663,657,360,361,362,387,409,435,637,711,765,838,856,851,828,798,802,804,787,770,733,720,708,696,720,694,683,668,657,644,631,456,449,470,447,437,406,369,368,368,322,323,325,327,325,327,323,326,323,327,324,323,324,324,326,327,326,325,326,324,326,326,325,327,322,324,323,581,562,593,603,608,768,1111,1251,1337,1379,1378,1346,1327,1327,1300,1274,1276,1243,1231,1195,1189,1159,1154,1116,1086,1070,1051,1016,987,756,767,656,616,630,605,590,591,583,511,514,526,544,521,522,520,520,516,525,518,515,520,521,531,529,532,524,523,521,526,524,526,523,517,522,522,91,91,91,91,91,91,91,91,91,91,91,91,91,91,91,91,91,91,91,91,91,91,91,91,91,91,91,91,91,91,91,91,91,91,91,91,91,91,43,41,41,43,43,41,41,41,41,41,41,41,43,41,41,41,41,41,41,41,41,41,43,43,41,41,41,473,474,476,477,479,627,892,984,1073,1126,1126,1110,1093,1076,1059,1042,1026,1009,992,975,958,940,924,907,891,873,856,832,815,797,651,582,570,492,482,480,480,443,399,397,398,405,418,411,412,416,403,425,412,419,414,410,410,411,424,424,412,415,404,412,405,425,413,411,411,474,473,480,484,485,636,893,989,1107,1154,1153,1125,1125,1093,1077,1062,1048,1022,1029,993,966,943,937,918,899,883,872,850,828,807,790,619,568,523,491,484,490,460,428,428,446,445,454,440,447,451,438,449,436,434,441,437,436,435,434,438,437,435,439,441,435,436,431,438,438,677,679,679,683,689,1001,1323,1465,1584,1556,1588,1594,1570,1537,1455,1431,1410,1446,1380,1400,1371,1350,1266,1243,1272,1247,1222,1189,1028,1038,969,740,713,702,689,687,679,675,629,632,639,641,652,650,653,652,639,661,648,660,655,651,651,651,661,661,653,656,641,652,646,665,654,651,651,196,197,197,198,257,284,346,382,417,440,450,444,438,433,427,421,415,409,412,405,398,392,385,378,372,364,357,374,344,337,331,300,294,289,260,280,258,281,188,187,188,188,190,188,188,190,188,187,188,188,190,190,191,191,190,191,191,190,191,192,188,191,192,192,191,0,0,0,0,0,0,0,0,0,0,0,0,0,0,0,0,0,0,0,0,0,0,0,0,0,0,0,0,0,0,0,0,0,0,0,0,0,0,0,0,0,0,0,0,0,0,0,0,0,0,0,0,0,0,0,0,0,0,0,0,0,0,0,0,0,682,703,686,717,724,1133,1356,1515,1612,1642,1639,1667,1590,1567,1533,1508,1483,1458,1432,1414,1382,1357,1332,1323,1298,1256,1231,1221,1189,1029,927,843,712,722,686,692,693,678,655,646,649,651,664,660,664,660,663,661,658,658,664,651,655,665,665,657,669,652,651,664,663,667,668,665,665,0,0,0,0,0,0,0,0,0,0,0,0,0,0,0,0,0,0,0,0,0,0,0,0,0,0,0,0,0,0,0,0,0,0,0,0,0,0,0,0,0,0,0,0,0,0,0,0,0,0,0,0,0,0,0,0,0,0,0,0,0,0,0,0,0,1136,1139,1152,1192,1623,2028,2636,2757,2843,2877,2871,2800,2767,2701,2668,2617,2553,2511,2464,2400,2361,2333,2257,2216,2185,2134,2027,1750,1490,1462,1447,1208,1182,1166,1163,1166,1177,1149,1142,1145,1151,1172,1161,1162,1162,1170,1179,1177,1165,1170,1184,1182,1189,1190,1186,1187,1187,1182,1183,1186,1190,1204,1195,1199,1186,1045,1048,1052,1073,1193,1514,2235,2340,2474,2503,2490,2469,2434,2378,2346,2309,2268,2240,2190,2168,2114,2079,2041,1997,1964,1786,1730,1602,1401,1255,1236,1197,1106,1063,1071,1066,1010,1017,993,992,992,1004,1008,1006,1015,1010,1004,1010,1010,1021,1010,1007,1007,1013,1011,1012,1017,1014,1009,1012,1010,1012,1008,1012,1012,651,650,653,653,692,1091,1237,1387,1545,1593,1611,1568,1596,1513,1503,1462,1426,1426,1392,1359,1335,1313,1298,1260,1252,1214,1184,1159,1134,997,932,856,839,672,673,653,663,661,647,645,648,656,659,652,655,652,659,660,661,665,678,675,678,682,671,670,667,683,668,657,677,657,665,668,668,758,760,760,765,828,1012,1494,1608,1757,1807,1807,1779,1767,1707,1696,1678,1644,1633,1588,1574,1545,1510,1491,1454,1440,1374,1377,1305,1212,1102,989,866,800,769,776,782,759,735,703,707,705,709,718,719,730,724,718,724,724,735,724,721,721,727,725,726,731,728,723,726,724,726,722,726,726,415,416,418,419,429,550,750,836,921,1000,1020,1013,988,972,966,940,924,917,892,883,860,843,836,812,795,780,771,747,732,707,690,564,549,434,424,420,422,394,368,370,365,367,374,374,386,382,372,376,376,389,379,373,374,382,378,378,381,380,376,380,377,381,380,383,383,566,566,569,576,586,781,1101,1244,1350,1398,1401,1374,1355,1333,1310,1288,1266,1239,1221,1196,1175,1160,1131,1106,1087,1065,1036,963,941,920,899,710,674,590,575,579,581,543,537,537,542,550,548,550,541,552,543,547,547,547,548,551,557,562,560,559,556,553,557,556,558,573,559,575,558,392,393,395,396,401,515,706,790,870,943,968,952,936,921,909,893,878,863,848,832,818,801,786,771,756,740,726,710,694,680,562,549,536,469,434,398,399,400,351,356,354,357,382,377,367,387,375,385,388,370,406,364,366,382,373,365,389,369,369,370,370,370,370,369,369,841,827,844,854,934,1276,1702,1821,1971,2043,2004,1996,1964,1926,1910,1863,1832,1804,1748,1741,1708,1693,1645,1642,1594,1546,1518,1454,1237,1209,1123,916,894,872,876,872,845,838,839,832,834,838,840,838,842,855,846,854,856,841,850,856,860,869,873,860,856,867,859,869,870,858,847,845,845,733,735,736,740,808,1047,1456,1571,1719,1770,1770,1742,1730,1670,1658,1641,1607,1596,1550,1537,1508,1473,1453,1417,1403,1336,1339,1268,1175,1065,1029,879,775,744,751,757,726,702,673,678,675,679,689,688,700,693,687,693,693,704,693,690,690,696,694,695,700,697,692,695,693,695,691,695,695,0,0,0,0,0,0,0,0,0,0,0,0,0,0,0,0,0,0,0,0,0,0,0,0,0,0,0,0,0,0,0,0,0,0,0,0,0,0,0,0,0,0,0,0,0,0,0,0,0,0,0,0,0,0,0,0,0,0,0,0,0,0,0,0,0 ]);
