n = 10;
D = [122,233,155,163,287,79,241,70,155,160 ];
q = 0;
prec = array2d(1..0,1..2,[]);
steps = 64;
l = 360;
r = 0;
which = [];
interval = array2d(1..0,1..2,[]);
T = array3d(1..11,1..11,0..64,[0,0,0,0,0,0,0,0,0,0,0,0,0,0,0,0,0,0,0,0,0,0,0,0,0,0,0,0,0,0,0,0,0,0,0,0,0,0,0,0,0,0,0,0,0,0,0,0,0,0,0,0,0,0,0,0,0,0,0,0,0,0,0,0,0,889,879,913,915,944,1166,1435,1633,1730,1752,1772,1749,1694,1662,1646,1641,1580,1532,1544,1503,1484,1488,1402,1381,1373,1343,1285,1286,1231,1158,1107,971,966,915,903,914,922,874,851,843,856,875,867,860,848,858,861,873,881,858,865,870,870,885,873,874,858,870,864,866,871,868,862,868,860,433,435,435,437,441,454,593,637,680,722,734,726,718,709,701,693,684,676,667,660,651,642,634,625,618,609,600,592,527,518,464,457,450,443,462,440,435,441,387,389,390,392,390,390,389,391,391,390,391,390,390,390,391,392,392,392,390,395,391,393,392,392,392,393,392,650,651,653,655,685,723,979,1072,1152,1196,1203,1186,1170,1153,1137,1119,1103,1086,1070,1053,1037,1050,1004,986,1001,953,937,920,920,726,712,698,684,671,661,670,706,660,677,676,670,696,691,678,692,710,686,713,700,679,674,691,683,691,687,694,690,684,680,684,680,689,676,684,666,155,156,156,190,192,196,218,240,261,283,298,293,289,284,280,276,272,268,264,259,255,250,247,243,238,234,229,225,222,217,213,209,204,201,196,193,193,193,123,123,123,125,124,123,123,124,124,127,124,124,126,123,125,125,125,125,124,128,125,126,125,125,125,126,125,780,790,793,794,808,1074,1212,1361,1457,1502,1502,1488,1467,1438,1427,1397,1378,1358,1337,1320,1301,1274,1261,1232,1213,1182,1176,1134,1078,1026,935,915,842,807,830,800,803,804,751,761,761,763,762,761,761,762,762,765,762,762,764,761,763,763,763,763,762,766,763,764,763,763,763,764,763,898,904,903,942,972,1272,1444,1592,1702,1748,1769,1732,1697,1667,1640,1615,1592,1561,1544,1521,1492,1454,1426,1400,1387,1357,1320,1287,1261,1199,1091,1018,963,953,913,938,901,871,848,844,848,850,845,848,848,849,849,852,849,849,851,848,850,850,850,850,849,853,850,851,850,850,850,851,850,337,338,339,340,341,432,483,533,583,632,664,653,634,624,614,605,596,586,576,566,557,547,537,528,518,509,499,489,479,470,460,451,441,431,345,342,342,342,300,300,300,302,301,300,300,301,301,304,301,301,303,300,302,302,302,302,301,305,302,303,302,302,302,303,302,1210,1195,1236,1259,1412,1726,2074,2280,2361,2381,2379,2345,2288,2233,2212,2192,2135,2064,2067,2022,1994,1988,1892,1860,1835,1801,1730,1677,1528,1380,1325,1326,1288,1233,1255,1244,1227,1179,1156,1148,1161,1180,1172,1165,1153,1163,1166,1178,1186,1163,1170,1175,1175,1190,1178,1179,1163,1175,1169,1171,1176,1173,1167,1173,1165,516,521,519,558,545,680,762,846,927,999,1039,1012,991,976,960,944,929,902,897,882,868,840,825,810,795,790,774,749,733,718,702,687,625,584,526,523,524,509,490,483,488,492,484,490,490,491,491,494,491,489,493,490,491,492,492,492,491,495,492,491,492,492,492,493,492,0,0,0,0,0,0,0,0,0,0,0,0,0,0,0,0,0,0,0,0,0,0,0,0,0,0,0,0,0,0,0,0,0,0,0,0,0,0,0,0,0,0,0,0,0,0,0,0,0,0,0,0,0,0,0,0,0,0,0,0,0,0,0,0,0,880,882,886,891,987,1310,1465,1670,1759,1791,1782,1748,1716,1724,1700,1634,1665,1577,1546,1517,1487,1480,1430,1395,1361,1312,1318,1290,1252,1175,1024,963,927,937,898,893,896,891,876,876,876,876,876,876,876,876,876,876,876,876,876,876,876,876,876,876,876,876,876,876,876,876,876,876,876,0,0,0,0,0,0,0,0,0,0,0,0,0,0,0,0,0,0,0,0,0,0,0,0,0,0,0,0,0,0,0,0,0,0,0,0,0,0,0,0,0,0,0,0,0,0,0,0,0,0,0,0,0,0,0,0,0,0,0,0,0,0,0,0,0,746,778,783,775,796,1031,1201,1371,1459,1513,1497,1474,1449,1426,1403,1384,1356,1310,1293,1265,1267,1238,1215,1199,1168,1160,1098,1097,1078,1063,828,846,830,771,790,782,775,754,745,745,745,745,745,745,745,745,745,745,745,745,745,745,745,745,745,745,745,745,745,745,745,745,745,745,745,1229,1261,1268,1282,1348,1846,2137,2313,2418,2435,2425,2391,2355,2297,2260,2227,2183,2122,2115,2069,2032,1993,1954,1921,1878,1841,1779,1764,1537,1377,1337,1340,1324,1260,1277,1271,1249,1244,1181,1181,1181,1181,1181,1181,1181,1181,1181,1181,1181,1181,1181,1181,1181,1181,1181,1181,1181,1181,1181,1181,1181,1181,1181,1181,1181,934,966,959,967,999,1332,1465,1668,1747,1788,1769,1749,1718,1691,1666,1682,1669,1597,1576,1552,1544,1512,1485,1464,1430,1404,1355,1350,1145,1232,1026,1041,1028,961,979,960,971,985,942,942,942,942,942,942,942,942,942,942,942,942,942,942,942,942,942,942,942,942,942,942,942,942,942,942,942,395,401,403,404,405,517,622,669,761,835,831,817,805,792,778,766,748,739,726,684,671,667,673,661,633,633,620,593,595,555,516,507,487,414,422,406,407,418,346,346,346,346,346,346,346,346,346,346,346,346,346,346,346,346,346,346,346,346,346,346,346,346,346,346,346,640,639,642,644,687,742,1017,1153,1230,1279,1283,1271,1243,1223,1197,1182,1178,1137,1137,1115,1099,1074,1050,1019,1014,996,1014,950,947,858,835,816,702,690,658,648,671,664,582,582,582,582,582,582,582,582,582,582,582,582,582,582,582,582,582,582,582,582,582,582,582,582,582,582,582,765,797,802,794,816,1060,1232,1405,1492,1545,1529,1505,1481,1457,1434,1415,1386,1339,1322,1294,1296,1267,1243,1227,1195,1171,1125,1124,1104,1089,847,865,862,791,809,800,795,816,770,770,770,770,770,770,770,770,770,770,770,770,770,770,770,770,770,770,770,770,770,770,770,770,770,770,770,346,346,347,348,349,369,500,558,616,674,706,694,683,673,660,650,638,628,616,605,595,583,571,560,541,530,526,515,504,493,481,471,460,449,374,370,371,372,305,305,305,305,305,305,305,305,305,305,305,305,305,305,305,305,305,305,305,305,305,305,305,305,305,305,305,753,766,772,767,807,995,1232,1365,1478,1536,1520,1497,1472,1448,1426,1397,1373,1334,1318,1288,1285,1240,1226,1212,1184,1157,1117,1104,1093,909,857,857,816,780,783,770,738,738,675,675,675,675,675,675,675,675,675,675,675,675,675,675,675,675,675,675,675,675,675,675,675,675,675,675,675,880,882,886,891,987,1310,1465,1670,1759,1791,1782,1748,1716,1724,1700,1634,1665,1577,1546,1517,1487,1480,1430,1395,1361,1312,1318,1290,1252,1175,1024,963,927,937,898,893,896,891,876,876,876,876,876,876,876,876,876,876,876,876,876,876,876,876,876,876,876,876,876,876,876,876,876,876,876,332,332,332,334,336,424,481,537,613,664,675,664,652,643,630,621,611,598,589,577,566,556,546,537,524,513,503,492,481,426,417,407,398,388,341,337,338,339,316,312,314,317,328,325,318,328,318,316,320,322,320,320,323,354,326,326,322,325,323,327,322,333,339,341,336,607,609,620,613,630,830,944,1055,1171,1211,1232,1214,1179,1163,1143,1122,1102,1082,1063,1043,1025,1005,986,966,948,930,908,889,870,851,831,812,648,632,631,625,619,621,592,597,593,599,601,605,598,620,597,601,594,598,596,615,608,608,604,620,606,603,620,621,604,632,592,603,599,0,0,0,0,0,0,0,0,0,0,0,0,0,0,0,0,0,0,0,0,0,0,0,0,0,0,0,0,0,0,0,0,0,0,0,0,0,0,0,0,0,0,0,0,0,0,0,0,0,0,0,0,0,0,0,0,0,0,0,0,0,0,0,0,0,585,586,588,590,592,770,894,972,1119,1173,1175,1157,1138,1119,1101,1082,1063,1045,1025,1007,1004,985,951,932,914,894,875,856,838,820,800,782,624,609,597,594,595,596,570,563,570,573,579,565,564,582,574,572,603,594,579,583,593,603,588,570,570,576,579,573,575,577,572,575,575,290,291,292,293,294,376,412,448,446,476,490,554,478,511,506,462,455,484,477,470,464,456,449,443,436,429,422,415,409,401,394,388,378,374,365,360,355,365,280,282,283,284,289,290,300,288,285,292,287,287,288,303,287,292,288,286,291,287,288,292,291,291,288,286,288,417,418,420,422,423,472,625,698,767,829,859,833,818,804,790,778,764,751,738,723,710,697,684,671,657,643,630,617,603,590,576,493,482,439,439,424,425,427,380,370,385,382,382,398,382,396,399,384,406,389,394,393,394,424,393,393,389,399,388,386,393,395,390,405,394,647,649,657,665,673,757,1001,1116,1224,1280,1283,1266,1245,1229,1209,1199,1181,1160,1138,1120,1098,1078,1054,1036,1011,1004,972,948,929,909,852,745,691,695,665,662,660,637,556,555,554,559,559,557,558,560,557,560,560,567,573,580,575,592,562,554,556,560,564,563,567,586,563,567,558,123,123,124,124,124,155,173,192,211,229,243,239,235,232,228,224,221,217,213,210,206,203,199,195,192,188,184,181,177,173,170,166,162,159,156,152,152,154,114,117,117,118,118,118,117,118,115,124,116,116,118,117,124,155,122,118,119,115,119,119,119,120,116,118,115,922,929,937,938,999,1346,1540,1701,1800,1838,1850,1814,1778,1750,1720,1698,1677,1636,1602,1575,1538,1510,1477,1455,1422,1396,1367,1347,1302,1287,1076,1049,971,985,974,936,931,926,897,893,898,904,906,901,903,925,902,906,899,903,901,919,913,913,909,918,911,908,918,926,909,934,897,908,904,270,271,289,290,274,334,416,460,495,559,552,543,534,525,536,508,518,490,481,473,464,468,463,453,444,434,411,413,408,385,389,360,358,343,279,275,275,293,194,193,193,198,198,196,197,199,196,199,199,206,227,228,225,230,200,193,195,199,203,202,206,225,202,206,197,332,332,332,334,336,424,481,537,613,664,675,664,652,643,630,621,611,598,589,577,566,556,546,537,524,513,503,492,481,426,417,407,398,388,341,337,338,339,316,312,314,317,328,325,318,328,318,316,320,322,320,320,323,354,326,326,322,325,323,327,322,333,339,341,336,676,678,679,681,701,924,1073,1329,1428,1467,1463,1437,1410,1384,1347,1330,1305,1277,1252,1225,1199,1171,1138,1119,1093,1086,1053,1016,1006,973,929,849,791,702,690,695,699,702,672,665,666,666,671,671,666,673,667,667,671,672,670,672,671,670,670,673,671,673,672,668,671,671,672,671,670,1163,1167,1171,1183,1362,1815,2024,2183,2254,2281,2273,2238,2189,2173,2133,2096,2062,2025,2092,1950,1917,1894,1855,1819,1781,1735,1694,1696,1520,1485,1399,1313,1215,1200,1184,1180,1197,1170,1169,1162,1169,1177,1172,1187,1173,1184,1181,1184,1176,1176,1171,1176,1181,1166,1179,1182,1174,1181,1170,1167,1175,1175,1168,1174,1166,650,718,655,657,680,917,1039,1161,1258,1301,1304,1283,1263,1243,1222,1201,1180,1159,1238,1117,1096,1076,1056,1035,1014,993,972,985,930,909,888,913,889,676,664,660,662,664,657,662,657,673,665,670,664,674,680,665,666,668,666,666,663,664,668,670,666,668,663,666,670,715,711,716,670,0,0,0,0,0,0,0,0,0,0,0,0,0,0,0,0,0,0,0,0,0,0,0,0,0,0,0,0,0,0,0,0,0,0,0,0,0,0,0,0,0,0,0,0,0,0,0,0,0,0,0,0,0,0,0,0,0,0,0,0,0,0,0,0,0,703,710,726,710,766,905,1119,1291,1360,1414,1423,1389,1373,1400,1306,1324,1290,1243,1295,1189,1213,1156,1161,1103,1082,1060,1053,1013,1025,975,897,846,746,729,717,720,732,717,718,712,720,720,721,721,720,727,721,721,725,726,724,726,725,724,724,727,725,727,726,721,725,725,726,725,724,886,875,878,906,934,1303,1515,1631,1746,1763,1756,1735,1672,1680,1621,1598,1601,1572,1589,1516,1456,1427,1432,1377,1374,1339,1334,1299,1261,1205,1099,971,963,918,917,913,893,881,881,884,881,887,888,901,885,891,897,897,885,892,885,898,903,882,891,897,890,902,888,892,899,894,891,892,884,714,731,733,721,777,1000,1134,1268,1388,1428,1438,1460,1391,1368,1345,1344,1299,1277,1253,1230,1207,1184,1161,1155,1114,1092,1089,1065,1041,1017,995,969,762,744,730,755,720,719,707,711,714,717,709,714,718,730,723,729,722,718,732,725,731,734,732,732,740,731,728,731,737,761,734,756,751,577,593,575,582,596,820,922,1010,1089,1141,1153,1119,1107,1090,1112,1054,1075,1029,1091,994,976,958,972,922,889,887,872,851,834,816,816,796,752,601,589,580,602,588,580,584,587,596,602,594,590,597,587,591,591,596,594,591,594,603,602,602,600,600,594,603,603,604,603,609,671,1479,1490,1506,1568,1884,2461,2666,2810,2871,2879,2867,2816,2756,2746,2666,2640,2591,2543,2603,2448,2415,2381,2336,2289,2142,1782,1767,1759,1670,1652,1632,1611,1533,1529,1523,1485,1502,1475,1474,1467,1473,1482,1477,1492,1478,1489,1486,1489,1481,1481,1476,1481,1486,1471,1484,1487,1479,1486,1475,1472,1480,1480,1473,1479,1471,517,518,530,522,531,709,804,898,988,1069,1045,1028,1012,994,977,961,972,941,1013,894,877,873,844,828,810,794,777,818,744,728,710,694,645,540,536,524,526,528,524,525,518,525,524,538,523,532,531,538,525,527,520,526,532,513,526,529,525,529,519,521,529,529,522,529,521,676,678,679,681,701,924,1073,1329,1428,1467,1463,1437,1410,1384,1347,1330,1305,1277,1252,1225,1199,1171,1138,1119,1093,1086,1053,1016,1006,973,929,849,791,702,690,695,699,702,672,665,666,666,671,671,666,673,667,667,671,672,670,672,671,670,670,673,671,673,672,668,671,671,672,671,670,160,161,161,161,198,201,222,243,264,283,299,294,290,287,282,278,275,270,266,262,258,254,250,246,242,238,234,229,225,222,217,213,210,205,201,198,199,199,150,153,150,153,153,155,150,154,150,155,152,153,152,152,155,159,153,153,154,153,154,154,153,155,149,152,149,858,861,862,865,878,1098,1299,1526,1580,1604,1599,1569,1546,1526,1501,1479,1456,1434,1411,1389,1371,1343,1321,1299,1275,1252,1229,1207,1146,1042,1021,1008,896,879,871,869,871,873,856,846,836,843,861,866,857,877,851,873,863,875,867,880,876,880,880,873,870,877,880,880,874,880,862,870,864,279,279,279,280,280,297,375,397,419,440,446,442,437,433,430,425,421,416,412,408,404,400,396,391,387,383,379,375,314,310,307,304,299,297,293,280,281,281,267,255,248,249,265,267,264,267,259,277,276,291,271,272,273,291,277,260,269,279,277,276,276,279,270,271,269,606,608,609,611,624,827,944,1032,1056,1102,1112,1096,1080,1064,1071,1034,1018,1002,986,971,961,940,924,916,893,877,862,847,830,815,799,692,678,615,618,613,623,616,602,602,606,604,609,614,606,611,611,616,615,611,616,616,616,616,616,616,616,616,616,616,616,616,616,616,616,0,0,0,0,0,0,0,0,0,0,0,0,0,0,0,0,0,0,0,0,0,0,0,0,0,0,0,0,0,0,0,0,0,0,0,0,0,0,0,0,0,0,0,0,0,0,0,0,0,0,0,0,0,0,0,0,0,0,0,0,0,0,0,0,0,650,670,654,656,676,789,975,1118,1198,1232,1225,1207,1191,1174,1158,1140,1124,1107,1091,1073,1063,1039,1023,1007,990,974,955,939,878,861,821,743,742,699,663,676,677,670,638,621,628,632,640,659,645,658,653,658,662,662,662,660,662,662,662,644,655,662,657,662,662,659,662,662,659,746,748,750,755,767,1058,1181,1352,1420,1480,1474,1452,1461,1447,1386,1361,1341,1320,1295,1272,1243,1227,1204,1174,1159,1163,1104,1080,1080,1017,973,809,790,771,785,770,758,732,725,701,704,707,702,715,708,744,714,710,735,705,708,708,707,711,711,710,710,711,709,708,708,711,709,715,711,185,186,186,187,188,236,265,293,322,349,366,360,355,349,344,338,333,327,322,316,311,305,300,294,289,283,278,272,267,261,256,250,245,239,234,188,231,231,177,180,181,201,201,181,177,178,181,201,188,182,184,183,177,178,181,187,178,177,178,178,180,177,182,180,176,1173,1179,1179,1231,1305,1644,1905,2151,2207,2223,2200,2167,2148,2098,2076,2040,2007,1971,1937,1911,1882,1839,1807,1774,1741,1719,1563,1661,1409,1337,1291,1295,1214,1230,1217,1189,1176,1178,1161,1147,1141,1148,1166,1168,1162,1182,1156,1177,1168,1180,1172,1184,1181,1185,1185,1175,1175,1182,1185,1185,1179,1185,1167,1175,1169,364,365,376,368,369,484,544,606,666,735,741,733,704,735,680,669,658,647,635,624,613,602,591,579,568,557,546,534,523,512,501,500,478,454,464,369,370,371,367,339,343,346,341,354,347,376,353,349,369,344,347,347,346,349,349,349,349,350,348,347,347,350,348,354,350,160,161,161,161,198,201,222,243,264,283,299,294,290,287,282,278,275,270,266,262,258,254,250,246,242,238,234,229,225,222,217,213,210,205,201,198,199,199,150,153,150,153,153,155,150,154,150,155,152,153,152,152,155,159,153,153,154,153,154,154,153,155,149,152,149,594,593,597,599,615,783,943,1050,1159,1211,1218,1192,1178,1153,1158,1122,1097,1078,1053,1037,1017,996,984,957,940,924,893,876,853,837,789,717,695,616,606,603,605,595,594,588,594,597,615,595,604,618,600,607,601,599,602,602,609,650,624,606,605,600,600,627,607,624,605,597,596,344,325,326,360,360,406,482,539,594,644,655,645,634,624,614,667,594,583,573,563,552,542,531,521,511,500,532,480,469,459,485,474,429,342,333,380,330,331,328,322,320,337,322,326,324,329,322,329,327,325,329,329,330,326,327,329,331,329,328,325,328,329,327,329,330,447,448,450,450,455,488,658,735,810,882,903,888,874,860,845,831,817,801,787,773,759,744,730,716,701,680,673,658,644,623,616,576,480,468,457,453,455,456,436,440,436,438,442,450,447,453,447,447,450,445,443,448,450,448,451,455,452,447,452,449,446,454,448,451,447,929,927,935,936,984,1200,1489,1657,1770,1817,1818,1808,1764,1749,1709,1683,1655,1628,1613,1582,1547,1522,1490,1459,1434,1404,1380,1347,1325,1044,1030,1002,978,957,945,944,944,930,890,892,885,908,901,899,905,906,896,910,909,905,917,914,915,908,903,902,906,909,900,900,905,903,901,907,900,635,636,639,628,667,842,938,999,1090,1194,1179,1162,1152,1128,1112,1102,1085,1094,1076,1058,1040,1023,1005,986,969,943,909,915,875,873,862,727,768,699,649,644,633,647,629,637,631,640,649,645,645,648,642,648,643,643,650,650,645,648,647,642,650,652,648,648,648,654,646,651,648,0,0,0,0,0,0,0,0,0,0,0,0,0,0,0,0,0,0,0,0,0,0,0,0,0,0,0,0,0,0,0,0,0,0,0,0,0,0,0,0,0,0,0,0,0,0,0,0,0,0,0,0,0,0,0,0,0,0,0,0,0,0,0,0,0,387,389,390,391,392,409,579,644,700,768,794,784,770,751,739,743,736,702,694,676,663,655,647,626,623,607,591,516,569,491,490,443,433,413,398,394,394,384,354,354,345,349,378,372,369,384,364,379,372,368,372,369,370,373,372,364,377,369,374,372,371,379,375,377,371,466,468,469,470,475,603,687,766,843,915,935,920,906,891,876,862,847,832,817,803,788,773,759,744,729,707,699,685,671,649,641,601,610,563,477,473,475,476,459,459,456,461,462,462,465,467,460,463,460,461,464,468,467,465,471,468,467,468,472,472,468,477,466,469,468,677,640,649,683,685,881,1004,1154,1239,1284,1284,1265,1244,1230,1209,1179,1179,1147,1120,1100,1084,1059,1043,1017,1008,987,1010,935,924,904,881,842,735,664,676,684,682,644,633,623,625,640,624,631,629,633,627,632,629,630,634,634,635,631,632,634,636,634,633,630,633,634,632,634,635,441,443,441,446,449,519,666,721,816,873,898,865,870,859,823,825,810,805,773,760,741,727,719,721,684,679,664,671,637,624,619,539,486,488,447,449,450,419,384,382,379,390,390,392,387,392,386,393,391,391,400,396,396,391,391,391,392,396,390,386,391,392,385,391,384,594,593,597,599,615,783,943,1050,1159,1211,1218,1192,1178,1153,1158,1122,1097,1078,1053,1037,1017,996,984,957,940,924,893,876,853,837,789,717,695,616,606,603,605,595,594,588,594,597,615,595,604,618,600,607,601,599,602,602,609,650,624,606,605,600,600,627,607,624,605,597,596,865,872,871,873,889,1164,1399,1557,1676,1749,1750,1712,1684,1650,1634,1597,1577,1533,1513,1485,1460,1428,1399,1371,1348,1318,1289,1257,1229,1086,1042,962,912,893,887,883,881,855,810,810,825,838,841,835,841,842,823,840,827,824,819,832,834,836,833,842,831,831,834,834,842,835,835,827,823,548,540,550,544,554,756,855,959,1056,1113,1100,1070,1069,1050,1017,1012,980,974,960,942,921,917,892,868,848,830,810,803,785,770,750,732,669,563,550,556,557,558,539,539,543,545,547,552,549,570,551,569,553,551,546,550,549,581,574,553,553,547,545,551,553,557,547,558,550,673,675,680,681,673,844,1056,1172,1295,1354,1353,1335,1312,1264,1262,1212,1195,1179,1178,1156,1135,1116,1091,1070,1037,1019,998,974,945,930,731,734,709,689,692,667,684,646,615,621,624,624,626,622,628,621,618,620,619,621,620,626,626,627,628,625,628,625,626,624,627,627,625,624,623,742,745,747,751,775,977,1147,1281,1404,1485,1482,1458,1435,1412,1416,1365,1342,1318,1294,1271,1248,1224,1201,1178,1155,1130,1107,1084,1060,1037,856,836,791,772,757,754,756,757,737,730,742,750,749,748,742,756,751,762,747,751,747,750,754,769,760,755,744,751,750,745,742,754,747,757,740,767,784,782,790,821,1078,1226,1348,1466,1520,1557,1504,1492,1427,1414,1397,1403,1338,1318,1321,1312,1285,1259,1215,1191,1180,1136,1126,1090,923,996,872,886,794,807,802,804,804,787,786,789,797,786,805,799,803,796,804,804,805,791,795,798,804,813,802,807,804,804,807,802,803,802,805,784,389,394,396,394,408,451,575,641,707,769,790,776,759,746,735,725,714,705,689,676,666,655,638,630,617,601,588,572,563,547,538,525,449,414,403,408,410,399,333,333,334,339,335,341,337,340,338,336,340,339,334,336,337,341,339,339,337,337,336,337,339,339,336,339,337,0,0,0,0,0,0,0,0,0,0,0,0,0,0,0,0,0,0,0,0,0,0,0,0,0,0,0,0,0,0,0,0,0,0,0,0,0,0,0,0,0,0,0,0,0,0,0,0,0,0,0,0,0,0,0,0,0,0,0,0,0,0,0,0,0,636,655,652,646,670,853,1008,1097,1192,1250,1295,1244,1219,1163,1175,1179,1151,1111,1087,1080,1088,1053,1031,1023,1002,995,954,948,916,897,815,803,725,666,655,650,651,667,634,634,633,641,647,647,648,644,641,643,642,644,642,649,649,650,651,648,651,648,649,647,650,650,646,647,646,868,863,874,869,914,1183,1427,1596,1712,1752,1738,1697,1679,1639,1612,1598,1537,1522,1507,1465,1441,1436,1399,1375,1345,1315,1284,1259,1230,1173,1116,992,923,881,889,875,876,853,844,844,848,850,852,857,854,863,856,853,858,856,851,855,854,864,862,858,858,852,850,856,858,860,852,862,855,474,475,478,478,486,560,727,810,893,955,961,949,933,892,895,871,870,833,838,825,807,794,776,761,746,731,716,704,685,669,573,567,538,487,486,482,486,477,443,447,447,448,451,452,451,449,447,450,449,450,450,461,456,458,459,456,461,458,461,456,460,461,457,456,455,865,872,871,873,889,1164,1399,1557,1676,1749,1750,1712,1684,1650,1634,1597,1577,1533,1513,1485,1460,1428,1399,1371,1348,1318,1289,1257,1229,1086,1042,962,912,893,887,883,881,855,810,810,825,838,841,835,841,842,823,840,827,824,819,832,834,836,833,842,831,831,834,834,842,835,835,827,823,321,322,323,324,324,345,467,535,563,568,574,568,563,597,597,546,569,535,546,543,534,525,517,506,495,485,475,465,454,444,434,429,343,336,329,325,326,333,315,321,317,327,337,342,328,343,325,339,338,336,334,331,335,345,335,333,340,341,335,342,336,368,333,335,331,758,760,762,765,778,1030,1166,1302,1476,1515,1512,1487,1464,1438,1413,1391,1366,1344,1321,1296,1272,1248,1224,1200,1175,1152,1128,1104,1080,1041,1019,824,805,785,821,769,772,774,761,762,756,766,767,772,767,789,763,767,764,768,766,781,775,778,774,790,772,770,785,787,771,799,761,777,770,179,179,180,180,221,228,258,288,317,347,363,357,352,346,339,334,328,323,317,311,305,300,294,289,282,277,271,266,260,254,248,243,237,232,225,222,222,223,170,166,163,167,166,167,171,173,166,166,170,170,170,166,167,170,170,170,166,167,165,166,168,167,169,174,169,576,578,580,584,583,662,858,958,1103,1153,1161,1141,1123,1104,1086,1067,1048,1030,1011,992,981,963,937,919,900,862,863,844,827,808,789,771,693,601,579,585,586,588,562,559,559,574,569,583,557,584,565,570,570,570,569,573,583,584,572,567,568,568,583,566,565,570,564,575,572,188,189,189,189,233,238,280,294,322,311,317,315,313,352,347,308,335,303,335,319,313,308,302,291,291,286,281,276,270,279,245,275,273,243,237,233,234,234,182,183,180,184,184,187,183,189,182,184,186,183,182,186,187,186,186,189,186,188,189,189,186,232,184,189,186,559,558,561,562,576,720,837,945,1040,1116,1124,1106,1088,1067,1052,1027,1015,998,953,962,944,926,912,894,877,858,841,822,775,782,776,733,580,594,582,545,577,562,543,537,548,555,546,565,555,563,565,552,570,559,564,561,565,577,563,559,557,564,554,554,560,564,566,574,565,636,638,639,654,657,778,996,1148,1220,1278,1270,1258,1229,1216,1191,1170,1151,1134,1112,1091,1074,1052,1032,1022,990,970,952,930,916,889,839,696,708,661,674,660,648,658,594,597,593,597,600,603,602,626,602,599,624,621,599,598,598,621,599,597,601,600,596,598,596,600,597,600,593,0,0,0,0,0,0,0,0,0,0,0,0,0,0,0,0,0,0,0,0,0,0,0,0,0,0,0,0,0,0,0,0,0,0,0,0,0,0,0,0,0,0,0,0,0,0,0,0,0,0,0,0,0,0,0,0,0,0,0,0,0,0,0,0,0,1073,1080,1079,1134,1187,1576,1762,1949,2067,2142,2124,2084,2059,2015,1988,1964,1922,1884,1848,1813,1780,1746,1723,1688,1653,1620,1584,1543,1473,1328,1324,1195,1149,1124,1164,1089,1077,1079,1066,1063,1061,1071,1072,1074,1072,1094,1068,1071,1069,1073,1071,1085,1080,1083,1079,1090,1077,1075,1084,1092,1076,1101,1066,1082,1075,254,255,266,267,258,341,376,420,464,507,540,511,503,495,487,478,470,462,453,445,436,429,420,412,403,396,387,393,370,376,364,358,350,269,262,258,259,260,232,235,232,236,239,242,241,293,241,238,262,261,238,237,237,290,237,236,240,239,235,237,235,239,236,239,232,321,322,323,324,324,345,467,535,563,568,574,568,563,597,597,546,569,535,546,543,534,525,517,506,495,485,475,465,454,444,434,429,343,336,329,325,326,333,315,321,317,327,337,342,328,343,325,339,338,336,334,331,335,345,335,333,340,341,335,342,336,368,333,335,331,979,990,1004,1047,1088,1389,1710,1866,1925,1945,1958,1938,1907,1887,1837,1811,1768,1740,1677,1675,1627,1609,1580,1556,1536,1483,1447,1436,1341,1285,1229,1162,1033,1015,1014,1009,987,993,960,975,972,994,968,997,1003,996,1008,1000,996,978,992,989,993,994,996,998,995,993,1016,991,992,1023,989,1014,1006,366,354,355,367,368,375,500,546,593,638,657,645,636,628,618,609,600,591,583,574,565,556,547,539,530,521,512,503,497,486,476,467,375,368,360,357,358,371,321,325,318,321,346,337,348,352,329,350,336,339,339,325,328,340,337,329,339,329,325,336,330,400,338,342,325,879,879,851,872,913,1136,1401,1526,1649,1700,1690,1699,1651,1588,1602,1543,1509,1504,1464,1452,1425,1399,1371,1345,1300,1292,1266,1264,1195,1122,1051,981,935,921,868,858,850,853,843,836,837,841,843,842,847,860,850,860,861,844,852,860,864,880,876,863,857,870,861,870,871,858,845,845,835,1363,1355,1344,1431,1587,1975,2383,2484,2597,2618,2602,2559,2538,2467,2463,2382,2346,2311,2282,2228,2201,2146,2102,2073,2010,1979,1941,1773,1507,1474,1467,1422,1404,1408,1357,1350,1318,1326,1286,1281,1291,1292,1300,1305,1317,1305,1298,1307,1308,1322,1307,1302,1304,1310,1303,1308,1310,1310,1305,1306,1302,1308,1305,1310,1298,1067,1067,1033,1064,1136,1443,1703,1839,1926,1970,1966,1993,1924,1852,1865,1817,1765,1790,1717,1701,1672,1670,1640,1620,1562,1551,1503,1516,1444,1157,1159,1095,1107,1111,1057,1042,1045,1067,1039,1041,1051,1048,1063,1062,1066,1066,1055,1064,1066,1062,1065,1060,1061,1069,1063,1066,1069,1066,1062,1064,1062,1064,1061,1066,1054,513,513,495,517,513,594,774,840,961,1001,1021,982,997,950,948,923,911,915,875,881,866,849,834,818,775,778,770,757,712,704,704,619,584,561,512,503,520,502,452,450,446,450,464,460,473,464,454,463,465,482,467,462,461,469,463,465,468,469,462,463,460,464,461,466,454,744,758,756,765,793,991,1216,1369,1462,1509,1516,1449,1487,1415,1424,1361,1365,1363,1297,1268,1254,1245,1202,1196,1149,1154,1103,1125,1072,1003,976,833,822,767,787,766,770,731,687,687,680,682,691,698,713,699,698,697,696,711,704,700,702,713,703,699,699,705,695,703,696,696,698,700,687,899,898,871,891,936,1165,1433,1559,1681,1728,1722,1730,1683,1619,1633,1573,1538,1534,1493,1480,1453,1426,1399,1372,1327,1318,1292,1290,1221,1114,1167,934,936,941,887,878,873,897,862,865,872,874,880,883,884,892,886,886,885,888,893,887,886,900,893,887,901,890,885,892,898,900,897,901,890,0,0,0,0,0,0,0,0,0,0,0,0,0,0,0,0,0,0,0,0,0,0,0,0,0,0,0,0,0,0,0,0,0,0,0,0,0,0,0,0,0,0,0,0,0,0,0,0,0,0,0,0,0,0,0,0,0,0,0,0,0,0,0,0,0,871,874,857,882,909,1074,1439,1536,1674,1710,1707,1681,1668,1611,1624,1565,1530,1521,1485,1466,1443,1414,1388,1361,1317,1309,1281,1255,1153,1023,1115,925,927,908,877,867,807,820,781,775,775,784,793,790,803,795,784,793,795,809,794,788,789,798,792,795,798,800,794,793,791,793,790,795,783,979,990,1004,1047,1088,1389,1710,1866,1925,1945,1958,1938,1907,1887,1837,1811,1768,1740,1677,1675,1627,1609,1580,1556,1536,1483,1447,1436,1341,1285,1229,1162,1033,1015,1014,1009,987,993,960,975,972,994,968,997,1003,996,1008,1000,996,978,992,989,993,994,996,998,995,993,1016,991,992,1023,989,1014,1006,427,428,429,431,432,540,650,725,799,860,867,853,867,826,839,798,784,770,756,743,729,715,701,687,673,659,645,632,618,603,590,557,544,449,438,434,435,437,422,413,417,418,424,419,421,424,419,421,420,423,426,463,465,459,436,431,426,428,427,432,429,439,445,446,443,657,660,661,664,674,861,1009,1128,1241,1310,1315,1294,1287,1252,1232,1211,1197,1170,1149,1138,1116,1086,1065,1045,1032,1013,982,969,948,919,794,779,787,684,682,668,670,672,642,645,637,651,652,652,649,650,652,650,646,651,649,651,650,649,653,653,653,649,652,651,646,646,646,646,645,199,199,200,246,246,256,290,323,356,390,404,399,392,386,379,372,367,360,354,347,341,335,328,322,315,309,303,297,290,283,277,271,265,258,251,247,248,248,188,189,189,187,189,188,190,189,189,188,189,188,191,188,191,187,189,190,188,189,189,188,187,189,186,189,187,537,539,540,541,544,690,800,892,986,1067,1081,1064,1048,1029,1013,996,977,961,944,926,909,892,875,858,840,823,810,788,772,754,737,720,648,560,549,545,547,548,520,514,520,516,528,521,513,528,523,520,527,528,524,528,528,528,525,521,521,524,523,520,524,522,521,526,525,387,381,391,393,391,415,562,580,628,697,704,695,686,677,667,658,650,641,646,622,613,605,583,596,577,576,559,550,546,536,526,423,414,405,398,392,396,394,387,388,390,398,409,407,399,409,401,409,409,409,409,409,409,409,408,396,404,404,400,404,404,404,404,404,403,387,369,396,370,389,403,578,650,716,733,783,731,757,708,722,720,707,695,647,636,657,631,633,621,609,595,572,571,559,519,534,521,511,426,379,391,402,403,351,358,358,362,361,365,359,367,357,368,360,359,363,365,372,372,370,367,368,361,373,373,369,371,363,371,363,446,447,450,450,460,507,651,720,819,857,891,858,844,830,825,805,791,778,765,752,739,730,713,700,688,674,667,648,635,621,609,545,477,467,457,463,460,451,371,371,371,371,371,371,371,371,371,371,371,371,371,371,371,371,370,370,371,371,371,371,371,371,371,371,370,218,219,220,221,221,231,317,357,388,409,420,431,424,418,411,404,398,391,383,375,370,365,360,355,350,345,341,323,316,310,303,242,236,231,225,222,223,223,221,224,212,214,232,236,228,239,225,242,232,253,246,259,233,262,243,224,232,228,232,232,232,232,232,232,231,978,976,984,989,1043,1369,1614,1774,1883,1939,1928,1903,1881,1854,1809,1785,1755,1711,1698,1670,1633,1596,1565,1534,1513,1483,1439,1417,1385,1178,1142,1096,1022,1001,1012,988,982,977,947,950,942,954,957,957,954,955,957,955,951,956,954,956,955,954,958,958,958,954,957,956,951,951,951,951,950,0,0,0,0,0,0,0,0,0,0,0,0,0,0,0,0,0,0,0,0,0,0,0,0,0,0,0,0,0,0,0,0,0,0,0,0,0,0,0,0,0,0,0,0,0,0,0,0,0,0,0,0,0,0,0,0,0,0,0,0,0,0,0,0,0,427,428,429,431,432,540,650,725,799,860,867,853,867,826,839,798,784,770,756,743,729,715,701,687,673,659,645,632,618,603,590,557,544,449,438,434,435,437,422,413,417,418,424,419,421,424,419,421,420,423,426,463,465,459,436,431,426,428,427,432,429,439,445,446,443,0,0,0,0,0,0,0,0,0,0,0,0,0,0,0,0,0,0,0,0,0,0,0,0,0,0,0,0,0,0,0,0,0,0,0,0,0,0,0,0,0,0,0,0,0,0,0,0,0,0,0,0,0,0,0,0,0,0,0,0,0,0,0,0,0,889,879,913,915,944,1166,1435,1633,1730,1752,1772,1749,1694,1662,1646,1641,1580,1532,1544,1503,1484,1488,1402,1381,1373,1343,1285,1286,1231,1158,1107,971,966,915,903,914,922,874,851,843,856,875,867,860,848,858,861,873,881,858,865,870,870,885,873,874,858,870,864,866,871,868,862,868,860,433,435,435,437,441,454,593,637,680,722,734,726,718,709,701,693,684,676,667,660,651,642,634,625,618,609,600,592,527,518,464,457,450,443,462,440,435,441,387,389,390,392,390,390,389,391,391,390,391,390,390,390,391,392,392,392,390,395,391,393,392,392,392,393,392,650,651,653,655,685,723,979,1072,1152,1196,1203,1186,1170,1153,1137,1119,1103,1086,1070,1053,1037,1050,1004,986,1001,953,937,920,920,726,712,698,684,671,661,670,706,660,677,676,670,696,691,678,692,710,686,713,700,679,674,691,683,691,687,694,690,684,680,684,680,689,676,684,666,155,156,156,190,192,196,218,240,261,283,298,293,289,284,280,276,272,268,264,259,255,250,247,243,238,234,229,225,222,217,213,209,204,201,196,193,193,193,123,123,123,125,124,123,123,124,124,127,124,124,126,123,125,125,125,125,124,128,125,126,125,125,125,126,125,780,790,793,794,808,1074,1212,1361,1457,1502,1502,1488,1467,1438,1427,1397,1378,1358,1337,1320,1301,1274,1261,1232,1213,1182,1176,1134,1078,1026,935,915,842,807,830,800,803,804,751,761,761,763,762,761,761,762,762,765,762,762,764,761,763,763,763,763,762,766,763,764,763,763,763,764,763,898,904,903,942,972,1272,1444,1592,1702,1748,1769,1732,1697,1667,1640,1615,1592,1561,1544,1521,1492,1454,1426,1400,1387,1357,1320,1287,1261,1199,1091,1018,963,953,913,938,901,871,848,844,848,850,845,848,848,849,849,852,849,849,851,848,850,850,850,850,849,853,850,851,850,850,850,851,850,337,338,339,340,341,432,483,533,583,632,664,653,634,624,614,605,596,586,576,566,557,547,537,528,518,509,499,489,479,470,460,451,441,431,345,342,342,342,300,300,300,302,301,300,300,301,301,304,301,301,303,300,302,302,302,302,301,305,302,303,302,302,302,303,302,1210,1195,1236,1259,1412,1726,2074,2280,2361,2381,2379,2345,2288,2233,2212,2192,2135,2064,2067,2022,1994,1988,1892,1860,1835,1801,1730,1677,1528,1380,1325,1326,1288,1233,1255,1244,1227,1179,1156,1148,1161,1180,1172,1165,1153,1163,1166,1178,1186,1163,1170,1175,1175,1190,1178,1179,1163,1175,1169,1171,1176,1173,1167,1173,1165,516,521,519,558,545,680,762,846,927,999,1039,1012,991,976,960,944,929,902,897,882,868,840,825,810,795,790,774,749,733,718,702,687,625,584,526,523,524,509,490,483,488,492,484,490,490,491,491,494,491,489,493,490,491,492,492,492,491,495,492,491,492,492,492,493,492,0,0,0,0,0,0,0,0,0,0,0,0,0,0,0,0,0,0,0,0,0,0,0,0,0,0,0,0,0,0,0,0,0,0,0,0,0,0,0,0,0,0,0,0,0,0,0,0,0,0,0,0,0,0,0,0,0,0,0,0,0,0,0,0,0 ]);
