n = 20;
D = [246,212,137,145,147,238,182,147,78,290,72,260,138,219,172,108,262,120,295,75 ];
q = 0;
prec = array2d(1..0,1..2,[]);
steps = 64;
l = 360;
r = 0;
which = [];
interval = array2d(1..0,1..2,[]);
T = array3d(1..21,1..21,0..64,[0,0,0,0,0,0,0,0,0,0,0,0,0,0,0,0,0,0,0,0,0,0,0,0,0,0,0,0,0,0,0,0,0,0,0,0,0,0,0,0,0,0,0,0,0,0,0,0,0,0,0,0,0,0,0,0,0,0,0,0,0,0,0,0,0,687,688,689,734,732,1241,1436,1618,1734,1776,1771,1739,1708,1677,1647,1617,1586,1556,1525,1495,1464,1432,1402,1371,1341,1310,1278,1252,1219,1188,1156,836,730,711,698,697,700,692,695,693,688,688,712,718,702,710,709,723,710,740,715,720,709,723,712,710,726,704,715,786,756,792,768,766,723,845,880,848,866,1040,1738,2060,2295,2382,2572,2396,2334,2305,2240,2193,2160,2114,2066,2005,1958,1911,1864,1818,1770,1735,1688,1660,1582,1512,1366,1029,993,898,877,860,878,862,869,885,871,877,871,899,895,887,899,891,902,894,895,906,912,909,901,898,903,898,899,895,908,891,897,897,895,894,981,984,988,1038,1329,2115,2461,2664,2743,2758,2727,2674,2635,2582,2514,2460,2407,2430,2299,2246,2192,2139,2085,2032,1978,1924,1872,1750,1622,1455,1419,1069,1035,1008,1000,1003,1011,1025,1044,1038,1048,1066,1049,1072,1048,1060,1053,1066,1078,1072,1064,1079,1075,1246,1074,1081,1076,1080,1240,1250,1084,1254,1075,1263,1241,552,554,556,557,652,979,1129,1280,1402,1450,1449,1424,1399,1374,1348,1322,1297,1272,1246,1221,1312,1170,1144,1119,1094,1068,1042,1017,992,967,940,879,715,576,564,562,564,567,559,553,562,637,564,572,556,561,566,565,635,568,572,564,557,572,647,568,559,566,566,568,568,560,571,645,562,432,434,435,436,442,662,879,1006,1009,1171,1071,1158,1038,1020,1003,986,969,952,934,918,974,884,867,849,832,816,799,782,764,747,730,682,641,452,442,439,440,423,416,410,417,420,413,416,413,422,418,416,418,414,416,418,416,421,419,422,421,419,421,421,418,456,417,422,420,737,739,744,747,801,1116,1545,1752,1765,1910,1798,1873,1748,1713,1685,1658,1632,1599,1571,1543,1588,1485,1458,1427,1397,1369,1328,1289,1177,1147,1127,831,811,762,752,750,748,676,669,664,677,687,680,673,676,680,690,685,678,678,677,677,680,693,682,684,681,679,684,680,675,698,675,680,678,567,569,571,588,587,809,1162,1326,1344,1498,1393,1474,1350,1332,1305,1286,1261,1241,1218,1197,1249,1150,1130,1107,1085,1062,1040,1017,996,973,926,701,683,589,579,576,592,553,546,545,553,555,549,547,549,552,554,549,550,546,552,554,552,556,555,557,553,555,556,555,550,575,550,555,553,598,600,601,615,645,980,1196,1426,1424,1578,1474,1553,1425,1401,1378,1356,1334,1310,1284,1261,1314,1215,1188,1172,1157,1133,1099,1085,981,959,937,819,746,638,628,618,627,548,541,535,542,545,538,541,538,547,543,541,543,539,541,543,541,546,544,547,546,544,546,546,543,581,542,547,545,914,916,919,920,1084,1821,2153,2361,2463,2651,2464,2417,2371,2324,2276,2230,2175,2133,2083,2041,1991,1955,1908,1865,1807,1768,1730,1609,1534,1280,1020,984,966,935,918,931,868,875,895,876,883,875,904,906,891,909,897,913,904,903,911,926,914,967,904,909,903,904,911,933,896,904,902,909,898,700,696,699,707,767,1145,1410,1580,1699,1779,1740,1711,1712,1653,1653,1598,1593,1562,1533,1502,1472,1468,1414,1384,1351,1322,1291,1263,1119,1078,987,880,739,724,708,706,708,692,694,698,699,712,704,707,708,709,703,710,705,701,706,712,710,711,712,713,712,711,706,705,705,712,708,710,693,792,770,772,809,837,1346,1640,1823,1934,2009,1963,1930,1896,1864,1829,1769,1761,1750,1697,1659,1625,1620,1588,1527,1491,1459,1423,1389,1255,1175,1032,836,820,828,796,780,758,729,732,740,738,763,750,745,754,768,747,767,768,780,776,772,751,757,749,752,752,749,743,744,742,749,746,747,730,710,713,718,720,764,1064,1481,1683,1698,1843,1734,1808,1684,1652,1624,1599,1573,1543,1515,1487,1535,1432,1405,1376,1347,1321,1280,1244,1133,1103,1010,789,753,735,725,722,720,648,640,636,648,658,649,644,647,652,662,656,650,650,646,648,651,664,651,655,652,647,655,651,646,670,646,651,649,648,651,658,661,678,926,1370,1548,1563,1710,1602,1681,1554,1533,1502,1481,1452,1428,1400,1377,1425,1323,1290,1272,1246,1221,1185,1149,1021,998,865,771,706,681,666,664,666,600,593,587,594,597,590,593,590,599,595,593,595,591,593,595,593,598,596,599,598,596,598,598,595,631,594,599,597,398,399,400,401,404,602,778,880,902,1035,968,1027,938,924,908,894,878,864,848,834,892,804,789,774,759,745,729,715,716,685,669,436,427,416,407,404,404,406,396,400,401,410,420,421,423,436,427,428,424,427,426,412,416,435,423,411,431,420,411,433,429,434,431,432,420,875,879,881,879,909,1395,1860,2000,2097,2140,2095,2097,2063,2028,1995,1969,1941,1896,1863,1826,1792,1758,1724,1689,1654,1593,1524,1526,1424,1451,1298,948,916,900,894,875,892,885,877,866,872,876,888,904,882,892,885,895,901,903,894,908,905,917,931,907,909,910,907,915,911,927,915,919,897,806,813,839,832,892,1190,1768,1970,1951,2063,1960,2097,1954,1937,1876,1875,1772,1729,1720,1730,1759,1636,1603,1587,1570,1538,1342,1314,1256,1188,1119,906,884,848,841,831,825,783,776,770,777,780,773,776,773,782,778,776,778,774,776,778,776,781,779,782,781,779,781,781,778,816,777,782,780,1010,1000,1008,1049,1271,2128,2570,2726,2724,2947,2787,2656,2604,2594,2498,2487,2456,2380,2326,2383,2240,2167,2113,2023,2006,1917,1863,1801,1541,1464,1123,1087,1038,1026,1016,999,1040,1033,1052,1055,1067,1080,1066,1081,1065,1080,1064,1077,1082,1076,1075,1079,1091,1116,1088,1088,1075,1085,1139,1084,1083,1081,1076,1099,1092,584,610,588,589,614,995,1202,1362,1482,1566,1526,1500,1473,1447,1430,1379,1366,1364,1312,1286,1269,1233,1206,1179,1153,1125,1099,1072,1020,943,853,665,647,608,596,594,596,582,598,585,581,589,590,603,599,600,593,613,605,590,597,622,619,619,613,613,604,619,607,612,607,602,591,589,581,814,816,812,820,819,1232,1644,1797,1915,1949,1930,1904,1870,1761,1820,1800,1742,1722,1701,1670,1615,1611,1563,1542,1522,1479,1448,1438,1407,1333,1255,1072,849,835,784,815,820,821,810,804,811,812,820,830,815,822,825,837,831,841,837,841,844,898,879,842,850,848,848,858,853,845,856,871,853,0,0,0,0,0,0,0,0,0,0,0,0,0,0,0,0,0,0,0,0,0,0,0,0,0,0,0,0,0,0,0,0,0,0,0,0,0,0,0,0,0,0,0,0,0,0,0,0,0,0,0,0,0,0,0,0,0,0,0,0,0,0,0,0,0,868,895,897,883,942,1443,1790,2037,2128,2140,2137,2095,2049,2029,1995,1971,1939,1933,1864,1837,1798,1770,1732,1705,1660,1651,1526,1473,1316,1201,1112,953,926,892,891,900,889,906,892,892,892,892,892,892,892,892,892,892,892,892,892,892,892,892,892,892,892,892,892,892,892,892,892,892,892,0,0,0,0,0,0,0,0,0,0,0,0,0,0,0,0,0,0,0,0,0,0,0,0,0,0,0,0,0,0,0,0,0,0,0,0,0,0,0,0,0,0,0,0,0,0,0,0,0,0,0,0,0,0,0,0,0,0,0,0,0,0,0,0,0,558,560,562,564,565,869,1072,1198,1318,1370,1356,1390,1356,1308,1285,1262,1240,1219,1198,1176,1154,1132,1110,1088,1066,1044,1022,1000,980,948,937,691,675,586,570,567,587,533,518,518,512,518,523,531,521,525,529,526,520,524,520,523,524,517,528,527,524,522,523,525,531,531,531,531,531,1440,1445,1460,1540,1731,2557,3135,3254,3315,3290,3264,3226,3172,3124,3027,3013,2958,2932,2860,2814,2520,2160,1800,1808,1722,1728,1639,1660,1601,1558,1561,1539,1484,1464,1463,1464,1459,1461,1414,1414,1414,1414,1414,1414,1414,1414,1414,1414,1414,1414,1414,1414,1414,1414,1414,1414,1414,1414,1414,1414,1414,1414,1414,1414,1414,431,432,440,442,440,665,780,898,967,1017,1016,1003,991,978,964,952,938,925,912,899,886,867,860,845,819,804,788,771,756,739,742,704,560,450,440,437,438,511,424,422,426,426,426,426,426,426,426,426,426,426,426,426,426,426,426,426,426,426,426,426,426,426,426,426,426,634,629,628,624,648,888,1178,1309,1388,1446,1435,1389,1370,1356,1356,1344,1293,1270,1251,1232,1207,1197,1174,1170,1158,1137,1100,1089,956,939,768,684,679,652,636,639,640,647,607,607,607,607,607,607,607,607,607,607,607,607,607,607,607,607,607,607,607,607,607,607,607,607,607,607,607,520,522,524,529,551,783,997,1108,1213,1264,1278,1263,1229,1209,1188,1170,1151,1141,1111,1099,1080,1051,1039,1011,991,971,951,932,928,891,765,568,679,541,531,528,530,500,475,475,475,475,475,475,475,475,475,475,475,475,475,475,475,475,475,475,475,475,475,475,475,475,475,475,475,610,607,613,615,636,771,1174,1277,1367,1411,1402,1382,1363,1343,1324,1312,1290,1268,1257,1230,1211,1192,1172,1152,1132,1114,1094,1075,930,776,760,723,710,643,639,631,618,624,575,575,575,575,575,575,575,575,575,575,575,575,575,575,575,575,575,575,575,575,575,575,575,575,575,575,575,739,741,742,745,761,914,1445,1574,1658,1699,1682,1659,1634,1611,1585,1569,1548,1520,1503,1470,1449,1422,1400,1374,1350,1327,1302,1272,1129,901,882,788,772,758,750,754,752,726,674,674,674,674,674,674,674,674,674,674,674,674,674,674,674,674,674,674,674,674,674,674,674,674,674,674,674,582,584,586,588,593,916,1130,1267,1386,1436,1420,1457,1418,1369,1345,1322,1299,1276,1253,1230,1207,1184,1160,1137,1114,1091,1068,1044,1023,879,881,732,614,608,595,592,605,539,524,524,517,524,527,537,526,529,535,532,526,530,526,528,530,522,533,533,530,527,528,531,537,537,537,537,537,401,402,403,404,405,473,688,742,796,842,863,852,835,825,816,805,795,784,775,764,754,744,734,724,714,704,693,684,602,592,497,487,491,415,408,405,406,402,372,372,372,372,372,372,372,372,372,372,372,372,372,372,372,372,372,372,372,372,372,372,372,372,372,372,372,352,352,360,359,356,577,648,721,793,849,879,874,834,820,806,793,780,766,753,740,727,721,700,694,673,660,646,640,627,607,601,579,554,377,368,356,357,359,334,334,334,334,334,334,334,334,334,334,334,334,334,334,334,334,334,334,334,334,334,334,334,334,334,334,334,493,496,497,502,539,736,938,1043,1144,1197,1211,1197,1164,1145,1127,1109,1090,1082,1052,1043,1024,995,986,958,940,921,903,884,883,847,766,625,650,525,504,501,503,472,446,446,446,446,446,446,446,446,446,446,446,446,446,446,446,446,446,446,446,446,446,446,446,446,446,446,446,684,684,684,686,713,932,1353,1497,1583,1632,1609,1588,1565,1541,1519,1502,1480,1454,1441,1408,1389,1361,1342,1317,1284,1261,1157,1130,1021,851,833,739,743,702,690,686,688,670,633,633,633,633,633,633,633,633,633,633,633,633,633,633,633,633,633,633,633,633,633,633,633,633,633,633,633,568,570,578,580,582,873,1050,1217,1309,1350,1346,1328,1310,1291,1276,1258,1237,1221,1200,1183,1164,1146,1126,1105,1076,1054,1034,1012,991,950,850,618,651,590,590,576,578,580,551,551,551,551,551,551,551,551,551,551,551,551,551,551,551,551,551,551,551,551,551,551,551,551,551,551,551,1169,1170,1173,1208,1365,1953,2502,2626,2697,2717,2679,2638,2595,2559,2515,2490,2448,2404,2366,2319,2280,2240,2197,1999,1921,1857,1778,1562,1309,1280,1270,1275,1205,1191,1192,1188,1180,1182,1145,1145,1145,1145,1145,1145,1145,1145,1145,1145,1145,1145,1145,1145,1145,1145,1145,1145,1145,1145,1145,1145,1145,1145,1145,1145,1145,702,688,700,708,736,1119,1365,1488,1602,1651,1658,1673,1639,1577,1572,1524,1507,1527,1455,1462,1436,1399,1374,1294,1298,1256,1217,1239,1180,1071,1000,756,759,709,733,696,710,710,673,673,673,673,673,673,673,673,673,673,673,673,673,673,673,673,673,673,673,673,673,673,673,673,673,673,673,821,817,808,832,834,1449,1660,1996,2099,2136,2113,2120,2082,2033,1997,1965,1926,1887,1808,1840,1797,1770,1686,1636,1629,1485,1421,1424,1397,1101,925,899,866,842,836,837,834,843,817,817,817,817,817,817,817,817,817,817,817,817,817,817,817,817,817,817,817,817,817,817,817,817,817,817,817,376,382,379,383,388,452,646,691,738,768,783,774,764,754,747,739,730,721,712,699,694,685,676,668,659,649,636,633,574,584,557,548,393,452,390,441,388,389,327,327,327,327,327,327,327,327,327,327,327,327,327,327,327,327,327,327,327,327,327,327,327,327,327,327,327,1286,1286,1295,1335,1547,2145,2704,2943,3014,3020,2983,2944,2908,2853,2820,2755,2721,2680,2623,2584,2536,2449,2152,2216,1865,2154,1794,1775,1445,1411,1403,1371,1363,1309,1309,1298,1302,1304,1284,1284,1284,1284,1284,1284,1284,1284,1284,1284,1284,1284,1284,1284,1284,1284,1284,1284,1284,1284,1284,1284,1284,1284,1284,1284,1284,868,895,897,883,942,1443,1790,2037,2128,2140,2137,2095,2049,2029,1995,1971,1939,1933,1864,1837,1798,1770,1732,1705,1660,1651,1526,1473,1316,1201,1112,953,926,892,891,900,889,906,892,892,892,892,892,892,892,892,892,892,892,892,892,892,892,892,892,892,892,892,892,892,892,892,892,892,892,1009,1012,1025,1040,1141,1885,2253,2498,2596,2676,2634,2586,2554,2490,2406,2378,2347,2299,2309,2217,2196,2074,2109,2024,2001,1916,1833,1739,1477,1389,1099,1086,1056,1032,1026,1030,1028,1034,1092,1087,1076,1118,1108,1087,1097,1095,1100,1115,1136,1116,1137,1096,1092,1092,1095,1120,1091,1099,1082,1092,1092,1102,1100,1094,1074,662,663,663,629,653,761,1232,1376,1480,1579,1581,1530,1532,1456,1432,1407,1428,1322,1335,1310,1328,1262,1237,1255,1218,1204,1176,1116,1090,1073,847,708,709,736,657,668,634,664,656,648,645,655,651,654,665,678,662,663,661,652,650,665,657,665,669,672,668,668,659,665,665,664,655,693,650,0,0,0,0,0,0,0,0,0,0,0,0,0,0,0,0,0,0,0,0,0,0,0,0,0,0,0,0,0,0,0,0,0,0,0,0,0,0,0,0,0,0,0,0,0,0,0,0,0,0,0,0,0,0,0,0,0,0,0,0,0,0,0,0,0,1268,1272,1307,1431,2443,2845,3386,3672,3729,3726,3649,3572,3495,3424,3333,3258,3251,3104,3037,2964,2883,2818,2708,2512,2394,2302,2084,1896,1767,1680,1412,1362,1317,1302,1308,1298,1357,1324,1434,1431,1430,1430,1439,1427,1441,1437,1430,1462,1459,1434,1443,1478,1466,1443,1439,1458,1442,1466,1440,1441,1480,1471,1448,1448,1448,648,649,678,677,737,1120,1354,1541,1671,1756,1750,1719,1688,1657,1584,1552,1522,1533,1527,1430,1440,1408,1378,1308,1278,1246,1216,1224,1155,1161,1099,896,790,668,660,655,658,662,671,670,672,675,672,672,681,684,676,680,680,680,681,687,689,761,700,695,684,696,699,689,688,729,684,682,683,859,860,862,909,996,1569,1877,2088,2193,2234,2208,2170,2130,2097,2057,2026,1977,1937,1973,1859,1819,1788,1740,1706,1676,1636,1590,1550,1516,1267,1182,1011,924,881,894,880,864,861,852,858,868,878,877,886,877,905,877,884,893,884,889,886,885,894,891,892,897,893,888,886,893,937,893,902,892,836,839,841,857,915,1444,1716,1881,2039,2048,2041,2007,1975,1942,1910,1878,1845,1812,1802,1770,1736,1698,1650,1616,1584,1551,1538,1486,1381,1195,1087,1008,882,864,862,848,860,853,866,859,867,884,874,877,871,888,879,884,882,874,884,912,908,911,918,918,872,885,877,873,867,886,890,947,872,961,964,967,1003,1126,1764,2099,2322,2431,2458,2438,2397,2357,2315,2270,2288,2239,2194,2167,2057,2015,1975,1933,1935,1848,1804,1762,1548,1374,1174,1175,1064,1006,1024,1004,973,969,968,986,990,993,1002,989,1008,1000,1001,1008,1016,1007,1017,1025,1022,1020,1025,1026,1019,1011,1017,1022,1018,1017,1046,1023,1032,1022,1033,1035,1038,1112,1205,1977,2316,2513,2623,2640,2606,2561,2514,2481,2434,2406,2345,2294,2326,2201,2154,2133,2062,2028,1993,1943,1792,1616,1491,1292,1148,1128,1082,1057,1051,1051,989,986,977,983,993,1003,1002,1011,1002,1030,1002,1009,1018,1009,1014,1011,1010,1019,1016,1017,1022,1018,1013,1011,1018,1062,1018,1027,1017,149,150,150,151,151,155,263,293,323,354,375,369,363,357,351,345,339,333,327,321,316,310,304,298,292,286,280,274,268,262,256,167,163,159,155,152,152,152,124,122,123,121,129,128,123,127,123,124,126,128,126,127,129,154,131,155,125,130,129,130,156,132,162,161,156,830,825,828,846,878,1412,1670,1834,1934,1965,1978,1963,1930,1926,1857,1840,1796,1766,1735,1705,1675,1644,1620,1587,1552,1564,1504,1461,1431,1090,1035,990,883,858,847,848,822,832,830,833,828,842,840,837,841,845,840,835,841,846,841,839,836,838,841,845,838,839,831,839,838,847,847,853,835,721,708,710,716,753,1204,1428,1586,1688,1730,1747,1718,1690,1663,1654,1606,1579,1551,1522,1495,1495,1440,1438,1383,1381,1340,1299,1272,1244,1173,1092,965,826,737,727,716,718,750,724,729,720,736,730,737,736,774,740,732,730,739,733,730,727,730,736,736,732,732,725,731,732,767,771,795,731,869,891,875,895,955,1514,1796,1962,2117,2124,2115,2082,2048,2014,1981,1947,1914,1879,1868,1834,1800,1760,1711,1677,1644,1610,1596,1542,1385,1225,1068,938,916,897,896,882,873,866,879,872,880,897,887,891,884,901,892,897,895,887,897,901,897,900,906,907,885,898,890,886,880,899,903,950,885,1048,1051,1055,1106,1223,1963,2315,2542,2637,2650,2636,2592,2552,2505,2459,2431,2388,2354,2323,2227,2180,2140,2096,2072,1979,1956,1846,1658,1452,1244,1236,1159,1094,1096,1090,1061,1021,1026,1029,1035,1045,1055,1045,1061,1054,1057,1054,1061,1060,1061,1066,1063,1062,1071,1068,1069,1065,1070,1065,1063,1070,1098,1070,1079,1069,767,742,744,751,800,1300,1565,1778,1904,1940,1930,1896,1936,1827,1792,1759,1724,1690,1740,1621,1587,1552,1518,1560,1508,1472,1381,1346,1365,1220,1116,806,783,762,753,781,752,756,771,763,766,762,776,791,779,780,780,784,783,787,777,790,785,838,802,796,789,793,785,797,793,847,788,800,791,1444,1424,1457,1591,1752,2907,3197,3400,3477,3486,3449,3391,3378,3289,3216,3158,3099,3053,3076,2896,2774,2612,2411,2191,2032,1897,1675,1661,1630,1558,1519,1504,1457,1436,1440,1465,1427,1424,1415,1421,1431,1440,1440,1449,1440,1465,1440,1447,1456,1447,1452,1449,1448,1457,1454,1455,1460,1456,1451,1449,1456,1500,1456,1465,1455,1084,1088,1092,1123,1219,1995,2317,2477,2616,2631,2611,2564,2545,2509,2440,2398,2354,2314,2274,2233,2191,2188,2129,2070,2026,1984,1887,1671,1495,1212,1214,1164,1137,1115,1114,1102,1076,1073,1083,1066,1070,1071,1069,1079,1075,1075,1074,1087,1104,1092,1098,1105,1098,1101,1093,1097,1098,1127,1118,1115,1103,1099,1118,1134,1100,449,446,452,453,468,491,812,855,941,984,996,981,967,1009,996,925,910,896,882,867,854,840,825,811,796,782,769,676,647,634,620,553,456,489,477,456,435,418,414,415,419,423,426,420,428,434,420,419,428,433,452,435,436,443,419,422,431,436,433,421,428,435,429,432,431,711,728,719,708,750,1241,1469,1678,1804,1844,1828,1836,1803,1742,1701,1699,1666,1622,1664,1536,1508,1497,1465,1405,1404,1364,1330,1274,1242,1103,928,846,740,728,728,707,727,732,726,729,732,738,728,741,737,743,738,736,741,738,742,740,741,751,743,748,746,748,741,742,733,737,748,748,734,1365,1382,1426,1589,2001,2954,3287,3493,3560,3581,3542,3474,3472,3349,3300,3259,3178,3133,3156,2972,2874,2514,2168,2123,2089,1984,1866,1686,1629,1571,1514,1460,1416,1396,1412,1404,1471,1440,1506,1504,1504,1503,1532,1537,1519,1544,1536,1529,1526,1545,1539,1556,1554,1551,1561,1548,1555,1564,1547,1555,1538,1562,1530,1542,1533,1009,1012,1025,1040,1141,1885,2253,2498,2596,2676,2634,2586,2554,2490,2406,2378,2347,2299,2309,2217,2196,2074,2109,2024,2001,1916,1833,1739,1477,1389,1099,1086,1056,1032,1026,1030,1028,1034,1092,1087,1076,1118,1108,1087,1097,1095,1100,1115,1136,1116,1137,1096,1092,1092,1095,1120,1091,1099,1082,1092,1092,1102,1100,1094,1074,904,903,905,931,1278,1836,2178,2406,2510,2535,2504,2460,2433,2358,2308,2254,2216,2298,2114,2071,2022,1969,1920,1876,1822,1774,1725,1682,1479,1447,1412,1269,956,929,916,918,924,935,960,966,976,1141,1140,987,988,1108,977,987,976,968,977,983,984,984,1115,1133,971,970,978,972,972,978,984,1110,971,1216,1277,1248,1365,1654,2540,2949,3063,3210,3196,3130,3066,3096,3028,2955,2888,2867,2831,2782,2788,2735,2672,2428,2342,2163,1864,1862,1590,1455,1407,1360,1373,1432,1248,1240,1235,1353,1257,1357,1358,1323,1320,1360,1345,1354,1358,1355,1373,1397,1365,1372,1383,1383,1385,1374,1393,1401,1392,1418,1420,1388,1391,1397,1384,1383,1263,1280,1347,1448,2564,3084,3439,3640,3709,3696,3640,3564,3496,3435,3336,3282,3183,3103,3031,2954,2899,2737,2585,2389,2282,2197,2102,1877,1517,1462,1424,1367,1327,1296,1303,1298,1324,1324,1441,1421,1452,1455,1470,1409,1481,1437,1439,1426,1508,1446,1453,1510,1512,1511,1496,1429,1449,1445,1442,1434,1431,1446,1437,1436,1427,0,0,0,0,0,0,0,0,0,0,0,0,0,0,0,0,0,0,0,0,0,0,0,0,0,0,0,0,0,0,0,0,0,0,0,0,0,0,0,0,0,0,0,0,0,0,0,0,0,0,0,0,0,0,0,0,0,0,0,0,0,0,0,0,0,1083,1141,1098,1189,1617,2312,2744,2873,2977,2973,2985,2933,2867,2819,2738,2695,2641,2643,2567,2555,2511,2460,2367,2365,2234,2049,1689,1662,1634,1416,1223,1179,1189,1113,1104,1110,1120,1132,1184,1190,1195,1205,1220,1236,1212,1232,1203,1247,1236,1254,1208,1211,1232,1277,1228,1267,1266,1264,1231,1231,1221,1231,1262,1261,1233,864,880,871,922,933,1513,1810,1972,2065,2103,2131,2066,2032,2004,1960,1933,1899,1868,1832,1799,1766,1731,1698,1662,1629,1613,1565,1530,1370,1172,1150,938,944,912,880,877,879,855,858,869,876,874,879,874,883,884,867,879,885,881,877,898,904,872,873,879,887,879,885,899,882,899,871,873,871,1089,1087,1095,1128,1300,1943,2327,2479,2579,2629,2574,2535,2487,2474,2440,2367,2341,2321,2279,2231,2200,2138,2106,2041,2013,1874,1746,1570,1307,1221,1358,1149,1118,1146,1091,1101,1014,972,975,979,988,1000,1002,1008,994,1015,992,997,1006,991,986,1009,1018,1000,1002,999,1001,995,1013,1022,991,1016,993,988,986,875,868,880,888,980,1503,1822,1984,2071,2148,2107,2077,2037,2011,1990,1938,1917,1904,1871,1815,1803,1740,1705,1672,1663,1631,1569,1542,1192,980,1204,928,913,932,884,881,877,834,838,842,840,857,862,865,854,867,850,857,867,854,850,868,877,860,858,861,859,851,872,873,851,874,851,846,844,742,744,747,750,809,1255,1514,1667,1777,1818,1817,1786,1757,1727,1698,1670,1642,1612,1586,1558,1528,1497,1468,1438,1409,1379,1351,1319,1208,1160,1133,805,786,804,756,754,756,709,713,718,713,748,760,737,745,753,730,741,734,738,720,742,764,740,725,737,727,723,768,760,745,761,739,734,732,1208,1223,1283,1369,2437,2958,3315,3577,3591,3579,3525,3451,3376,3326,3228,3176,3078,2998,2929,2854,2800,2754,2484,2368,2202,2080,2004,1886,1616,1405,1363,1307,1351,1241,1248,1242,1268,1268,1373,1356,1340,1344,1373,1348,1369,1373,1375,1362,1471,1380,1385,1400,1400,1404,1384,1360,1380,1382,1378,1374,1368,1385,1376,1375,1366,1085,1074,1088,1112,1266,1966,2356,2479,2550,2615,2574,2533,2490,2444,2430,2362,2341,2315,2278,2213,2190,2126,2085,2046,2023,1939,1856,1496,1324,1294,1377,1161,1128,1139,1103,1088,1062,1019,1024,1029,1024,1043,1050,1056,1044,1056,1039,1046,1054,1040,1036,1056,1065,1048,1046,1049,1048,1041,1060,1062,1039,1062,1039,1034,1032,1203,1189,1209,1249,1423,2209,2628,2751,2835,2875,2827,2767,2712,2666,2648,2602,2576,2542,2496,2430,2406,2338,2296,2242,2221,2102,1779,1692,1346,1332,1365,1254,1247,1236,1208,1157,1162,1127,1126,1134,1137,1150,1156,1158,1149,1161,1144,1151,1159,1145,1140,1160,1170,1153,1151,1154,1153,1146,1165,1167,1144,1167,1144,1139,1137,1063,1064,1071,1084,1229,1881,2260,2412,2515,2565,2510,2474,2426,2415,2382,2311,2285,2265,2226,2178,2147,2087,2056,1993,1965,1826,1701,1468,1263,1194,1214,1122,1102,1113,1075,1079,986,943,947,950,959,969,973,979,966,987,963,969,978,960,957,980,989,969,973,970,969,966,984,992,963,987,964,959,957,855,856,858,865,952,1481,1790,1943,2046,2084,2078,2043,2009,1976,1941,1910,1877,1842,1816,1782,1749,1715,1680,1647,1613,1579,1546,1425,1065,1043,1187,928,900,914,872,869,823,780,784,787,784,799,808,810,800,812,795,802,810,796,792,812,821,804,802,805,803,795,816,817,796,819,796,791,789,1002,1003,1009,1033,1162,1682,2120,2304,2406,2435,2410,2371,2333,2308,2269,2217,2190,2153,2101,2071,2029,1999,1959,1930,1899,1834,1704,1418,1388,1200,1176,1076,1054,1032,1030,1018,1003,973,989,989,988,992,991,988,994,1011,1015,986,980,988,984,1020,1014,1011,991,1000,1003,1000,1008,1019,1006,1013,999,998,996,329,329,358,360,361,349,610,679,746,808,821,808,777,781,768,757,742,729,716,688,690,662,650,650,637,612,611,586,583,572,558,545,348,523,365,328,363,364,316,320,321,331,327,325,322,332,320,328,330,362,362,374,366,371,327,326,334,334,360,327,330,336,323,325,324,969,968,975,991,1087,1712,2082,2235,2315,2362,2338,2294,2268,2269,2180,2151,2125,2082,2045,2007,1964,1927,1888,1860,1812,1757,1742,1614,1270,1156,1256,1036,1015,1017,984,984,984,942,945,957,942,959,965,975,962,971,954,960,970,957,954,973,982,965,965,962,964,954,979,980,955,981,958,953,951,1423,1334,1356,1481,2614,3129,3486,3753,3812,3804,3708,3615,3540,3504,3388,3351,3237,3158,3041,3010,2906,2755,2754,2519,2303,2246,2056,1914,1554,1504,1468,1405,1365,1340,1398,1324,1350,1358,1494,1488,1489,1501,1528,1518,1527,1532,1517,1528,1538,1519,1558,1534,1658,1667,1676,1534,1535,1533,1560,1534,1544,1561,1552,1551,1540,1121,1139,1133,1187,1338,2078,2442,2568,2675,2702,2714,2653,2599,2579,2509,2483,2411,2389,2329,2303,2264,2220,2182,2130,2087,2008,1732,1690,1522,1339,1256,1211,1202,1145,1136,1119,1124,1123,1109,1118,1114,1125,1131,1128,1137,1146,1131,1139,1121,1127,1132,1157,1185,1160,1142,1136,1153,1139,1168,1169,1133,1149,1120,1117,1115,569,583,584,587,588,980,1074,1212,1319,1368,1395,1353,1355,1332,1312,1290,1275,1231,1248,1210,1189,1168,1148,1127,1105,1082,1061,1039,1017,978,975,886,867,606,577,588,590,583,582,589,586,592,604,587,593,610,584,590,588,588,590,644,595,612,592,590,610,591,607,606,592,610,588,592,591,904,903,905,931,1278,1836,2178,2406,2510,2535,2504,2460,2433,2358,2308,2254,2216,2298,2114,2071,2022,1969,1920,1876,1822,1774,1725,1682,1479,1447,1412,1269,956,929,916,918,924,935,960,966,976,1141,1140,987,988,1108,977,987,976,968,977,983,984,984,1115,1133,971,970,978,972,972,978,984,1110,971,525,545,553,564,564,908,1100,1186,1348,1366,1429,1387,1362,1298,1275,1290,1286,1203,1216,1226,1168,1108,1119,1095,1071,1046,1034,967,985,954,925,766,565,568,564,558,560,537,562,558,557,559,559,562,569,564,568,572,573,564,568,572,696,697,696,695,569,690,574,565,692,699,564,569,559,366,368,368,369,371,536,656,717,777,832,835,824,812,800,789,777,766,754,744,732,721,709,697,686,674,663,651,640,567,557,606,539,540,501,481,371,372,372,349,359,349,361,358,356,354,357,353,354,354,354,353,349,354,355,355,357,354,358,355,360,351,369,354,358,354,607,608,609,611,664,1072,1263,1474,1639,1668,1654,1639,1600,1562,1531,1519,1470,1457,1407,1377,1346,1315,1300,1266,1222,1203,1161,1130,1099,1069,1038,823,722,630,615,616,620,617,615,616,614,620,623,616,625,625,622,623,628,628,632,632,634,628,631,641,635,637,625,624,635,617,626,621,617,1203,1201,1228,1350,1688,2440,2789,2972,3070,3100,3041,2983,2934,2934,2840,2773,2760,2736,2661,2610,2521,2478,2301,2338,2135,1845,1786,1633,1617,1573,1343,1296,1263,1240,1268,1266,1229,1249,1275,1275,1272,1277,1283,1282,1278,1295,1275,1281,1278,1275,1278,1295,1285,1285,1281,1286,1283,1285,1292,1296,1280,1286,1283,1281,1279,0,0,0,0,0,0,0,0,0,0,0,0,0,0,0,0,0,0,0,0,0,0,0,0,0,0,0,0,0,0,0,0,0,0,0,0,0,0,0,0,0,0,0,0,0,0,0,0,0,0,0,0,0,0,0,0,0,0,0,0,0,0,0,0,0,445,443,444,445,447,675,841,928,1057,1114,1128,1076,1064,1046,1035,1011,1002,976,958,948,930,913,895,870,852,834,818,800,782,764,725,567,516,502,501,448,460,447,433,433,430,435,441,440,436,453,433,439,436,433,436,453,443,443,439,444,441,443,450,454,438,444,441,439,437,504,504,506,508,523,711,964,1076,1183,1246,1250,1229,1211,1189,1171,1148,1131,1109,1092,1069,1050,1030,1009,990,968,949,928,908,866,814,684,637,595,553,516,513,515,486,447,453,453,464,464,460,461,462,448,462,456,456,460,459,462,467,465,460,459,457,457,459,458,460,450,459,451,471,472,474,476,484,709,888,993,1096,1158,1162,1146,1126,1107,1088,1070,1051,1032,1015,995,977,959,940,922,904,885,867,849,830,814,793,700,633,492,481,478,480,473,460,459,464,475,464,473,477,477,467,468,469,471,473,470,475,482,477,473,473,476,471,471,473,476,486,482,476,588,589,591,594,616,899,1133,1284,1401,1450,1448,1424,1403,1378,1356,1331,1308,1284,1262,1239,1215,1192,1168,1146,1124,1101,1078,1054,999,876,813,774,718,630,599,603,599,572,558,554,555,560,566,565,561,572,558,564,561,558,561,568,568,568,564,569,566,568,574,568,563,569,566,564,562,675,678,678,681,692,1207,1362,1544,1708,1750,1737,1706,1663,1647,1616,1586,1547,1514,1498,1465,1440,1428,1365,1347,1317,1279,1257,1227,1148,1069,1038,864,762,692,685,679,682,623,621,622,619,629,631,621,630,629,628,629,635,638,647,641,649,645,646,649,641,642,630,630,640,622,630,624,620,296,297,298,299,300,318,527,570,612,661,681,672,663,654,644,624,626,606,607,598,589,579,589,578,566,555,544,534,523,512,369,361,319,312,304,300,301,302,264,266,267,275,273,271,275,274,267,270,272,273,271,270,271,276,273,271,270,270,267,269,267,271,266,271,267,368,370,372,372,376,462,671,749,843,908,923,907,893,877,863,837,835,809,803,790,776,761,744,728,714,699,685,670,654,640,496,484,472,461,378,375,376,366,301,303,304,314,312,308,313,312,305,309,312,314,329,327,330,317,310,308,309,310,305,306,306,308,303,309,304,476,478,480,482,493,553,908,1012,1113,1179,1183,1165,1146,1125,1107,1087,1070,1050,1033,1013,994,974,956,937,917,899,880,860,821,787,640,619,577,511,490,487,488,458,418,425,424,435,433,431,432,434,420,433,428,428,429,430,433,438,434,431,430,425,428,430,427,432,421,430,422,558,559,561,564,582,844,1067,1196,1319,1375,1376,1353,1332,1310,1286,1265,1241,1221,1200,1176,1155,1130,1110,1087,1072,1036,1024,1003,980,955,827,727,685,580,569,566,568,525,518,513,522,528,519,529,528,532,523,524,525,524,526,523,523,524,527,527,525,530,524,522,523,523,525,531,525,324,324,326,327,328,528,596,663,732,788,799,787,774,762,748,736,724,711,699,686,674,661,649,690,624,663,598,586,573,561,548,536,523,511,332,328,329,330,319,316,329,408,335,316,332,411,408,326,332,331,332,327,335,332,334,326,328,326,335,410,327,336,329,333,411,998,992,999,1009,1076,1784,2102,2273,2385,2406,2389,2357,2313,2275,2243,2198,2160,2136,2102,2046,2007,1997,1930,1926,1855,1857,1778,1646,1369,1287,1223,1092,1051,1016,1016,1012,1007,1008,996,992,993,998,1004,1003,999,1011,996,1002,999,996,999,1016,1006,1006,1002,1007,1004,1006,1013,1017,1001,1007,1004,1002,1000,659,661,685,687,693,935,1311,1467,1564,1622,1629,1607,1569,1557,1540,1503,1463,1437,1460,1423,1406,1380,1347,1289,1238,1229,1232,1178,1129,1055,797,785,735,687,664,692,671,695,658,660,656,668,672,672,682,681,663,670,675,681,676,666,672,678,679,671,673,670,663,668,663,675,667,682,660,760,773,772,751,800,1463,1622,1895,2038,2061,2053,2004,1920,1928,1981,1820,1815,1736,1740,1702,1692,1688,1616,1551,1514,1441,1413,1401,1322,1202,1020,884,870,765,770,772,776,781,789,786,788,784,776,790,788,804,804,800,812,800,808,802,814,819,804,804,806,805,807,794,803,808,806,800,800,143,144,144,144,212,224,253,282,310,340,356,351,345,339,334,328,322,318,312,306,301,295,289,284,278,273,267,261,256,250,244,240,234,228,223,218,219,219,132,132,133,139,132,135,138,137,132,132,136,136,136,132,133,136,135,135,133,135,132,132,132,133,133,133,132,1045,1053,1048,1044,1104,1922,2204,2317,2458,2480,2470,2444,2395,2368,2336,2294,2246,2214,2187,2151,2077,2078,2019,2031,1930,1953,1851,1668,1576,1433,1292,1107,1083,1065,1055,1054,1070,1044,1055,1053,1071,1107,1068,1084,1079,1072,1090,1081,1070,1068,1093,1087,1087,1106,1100,1090,1080,1084,1091,1091,1083,1080,1079,1077,1071,525,545,553,564,564,908,1100,1186,1348,1366,1429,1387,1362,1298,1275,1290,1286,1203,1216,1226,1168,1108,1119,1095,1071,1046,1034,967,985,954,925,766,565,568,564,558,560,537,562,558,557,559,559,562,569,564,568,572,573,564,568,572,696,697,696,695,569,690,574,565,692,699,564,569,559,465,506,508,509,478,524,891,997,1098,1224,1245,1136,1248,1191,1183,1149,1130,1110,1006,988,969,951,1047,989,869,702,927,841,718,636,523,511,602,553,539,472,473,542,490,495,499,524,499,505,493,498,496,490,502,500,524,547,550,509,500,511,511,512,516,507,508,554,507,516,512,591,592,602,591,607,845,1067,1166,1259,1323,1330,1302,1284,1276,1258,1244,1228,1279,1258,1172,1190,1201,1183,1162,1116,1113,1031,914,857,949,734,717,709,623,602,598,600,601,576,563,564,588,562,572,570,600,575,566,578,569,571,566,566,572,571,570,568,572,567,568,565,574,570,576,570,808,810,812,824,849,1447,1799,2049,2172,2223,2227,2199,2121,2065,2072,2018,1956,1902,1860,1819,1778,1737,1725,1654,1614,1573,1532,1491,1476,1190,1036,954,864,832,823,824,834,838,834,832,835,843,841,850,839,845,840,844,839,842,836,849,849,841,847,850,846,850,839,849,843,860,833,841,839,880,882,882,889,906,1459,1840,1959,2082,2131,2125,2099,2058,2024,1993,1956,1924,1896,1855,1845,1788,1754,1720,1698,1652,1636,1595,1432,1331,1009,986,944,941,904,894,905,906,896,842,842,842,842,842,842,842,842,842,842,842,842,842,842,842,842,842,842,842,842,842,842,842,842,842,842,842,440,420,443,424,451,456,775,864,954,1082,1036,1072,1056,987,1021,996,986,969,904,934,916,900,876,823,848,831,813,792,741,724,676,560,450,439,452,426,444,453,434,439,432,438,438,443,443,443,438,439,439,445,435,441,444,447,440,441,454,441,445,458,444,442,436,438,432,0,0,0,0,0,0,0,0,0,0,0,0,0,0,0,0,0,0,0,0,0,0,0,0,0,0,0,0,0,0,0,0,0,0,0,0,0,0,0,0,0,0,0,0,0,0,0,0,0,0,0,0,0,0,0,0,0,0,0,0,0,0,0,0,0,359,360,361,365,368,472,647,734,809,878,896,884,867,853,839,826,811,798,782,769,755,740,725,711,697,682,666,654,633,594,551,540,494,404,396,366,368,368,279,279,279,279,279,279,279,279,279,279,279,279,279,279,279,279,279,279,279,279,279,279,279,279,279,279,279,191,191,192,192,193,278,335,373,413,450,474,466,459,452,448,441,429,424,417,409,402,396,385,381,372,362,355,348,340,332,325,318,310,280,275,193,194,195,136,136,136,136,136,136,136,136,136,136,136,136,136,136,136,136,136,136,136,136,136,136,136,136,136,136,136,189,189,190,192,192,216,335,373,413,451,478,470,463,456,447,440,433,424,417,409,402,394,386,379,371,363,356,349,340,333,217,212,207,202,196,193,194,194,125,125,125,125,125,125,125,125,125,125,125,125,125,125,125,125,125,125,125,125,125,125,125,125,125,125,125,876,879,881,889,915,1558,1876,2120,2236,2291,2305,2259,2228,2125,2159,2103,2034,1977,1953,1908,1870,1825,1804,1749,1713,1674,1617,1589,1355,1147,1076,978,928,905,895,892,840,844,840,837,841,847,867,855,848,851,846,850,845,854,841,863,854,861,853,861,851,855,857,855,848,864,836,844,842,363,366,367,365,373,451,655,732,808,872,883,870,864,843,830,825,804,790,777,764,751,738,724,715,698,685,671,658,644,630,549,497,436,417,377,368,368,366,325,326,327,327,327,327,327,327,327,327,327,327,327,327,327,327,327,327,327,327,327,327,327,327,327,327,327,460,461,463,465,471,599,845,971,1085,1138,1143,1124,1105,1087,1068,1052,1032,1013,999,982,963,944,926,911,885,867,849,829,811,794,587,602,578,481,507,481,482,437,394,383,386,396,392,393,390,395,391,396,396,393,409,414,413,394,394,392,394,398,389,386,393,392,387,394,385,332,335,337,338,340,430,597,675,744,809,829,817,803,788,775,763,750,737,723,711,699,684,669,658,644,631,616,606,585,549,507,495,452,362,344,340,341,341,251,251,251,251,251,251,251,251,251,251,251,251,251,251,251,251,251,251,251,251,251,251,251,251,251,251,251,269,271,272,273,274,326,397,533,590,643,682,672,660,650,638,628,618,606,596,580,568,559,547,541,529,516,507,497,448,397,353,345,337,330,277,275,275,276,177,177,177,177,177,177,177,177,177,177,177,177,177,177,177,177,177,177,177,177,177,177,177,177,177,177,177,183,184,184,184,253,279,314,349,385,420,435,429,422,416,409,402,396,388,382,375,368,362,355,349,342,334,328,321,315,308,301,295,288,282,183,261,262,263,173,172,173,175,175,176,175,177,175,176,176,178,180,190,182,181,174,175,176,175,175,178,176,175,173,176,175,612,610,613,616,622,777,1173,1304,1434,1498,1501,1483,1453,1429,1405,1386,1357,1333,1313,1285,1262,1238,1214,1195,1169,1142,1118,1094,1077,1046,806,794,778,633,622,622,621,625,563,563,563,563,563,563,563,563,563,563,563,563,563,563,563,563,563,563,563,563,563,563,563,563,563,563,563,445,446,443,458,448,509,809,897,985,1072,1081,1083,1012,1035,1030,1036,994,980,944,914,898,880,885,874,832,837,819,816,622,539,522,589,530,466,460,456,467,464,360,360,360,360,360,360,360,360,360,360,360,360,360,360,360,360,360,360,360,360,360,360,360,360,360,360,360,941,975,959,996,1034,1781,2186,2461,2505,2572,2547,2544,2426,2419,2390,2361,2313,2233,2206,2133,2089,2041,1999,1946,1862,1851,1768,1713,1467,1218,1115,1048,1018,968,958,969,988,981,998,995,992,1004,1030,996,1003,1001,1012,1015,1005,1017,1019,1020,1018,1035,1023,1011,1041,1011,1031,1048,1018,1042,1008,1017,1017,308,310,311,312,312,455,568,687,700,757,770,757,756,733,721,709,697,684,672,660,648,636,624,610,598,586,574,603,550,537,525,506,463,435,318,313,314,315,287,290,289,311,289,290,291,315,293,287,293,292,293,289,289,291,291,290,290,293,289,291,287,293,290,291,287,800,797,813,819,862,1285,1572,1768,1867,1928,1942,1899,1879,1852,1806,1799,1758,1711,1705,1654,1628,1611,1587,1551,1508,1479,1452,1421,1293,1221,1055,867,860,828,824,812,836,827,783,783,783,783,783,783,783,783,783,783,783,783,783,783,783,783,783,783,783,783,783,783,783,783,783,783,783,465,506,508,509,478,524,891,997,1098,1224,1245,1136,1248,1191,1183,1149,1130,1110,1006,988,969,951,1047,989,869,702,927,841,718,636,523,511,602,553,539,472,473,542,490,495,499,524,499,505,493,498,496,490,502,500,524,547,550,509,500,511,511,512,516,507,508,554,507,516,512,750,787,754,757,823,1274,1593,1729,1891,1915,1852,1897,1896,1875,1873,1786,1694,1668,1639,1637,1561,1579,1562,1335,1458,1428,1418,1253,1052,1081,923,864,925,820,786,784,799,794,793,775,794,803,810,791,806,806,807,809,802,807,809,818,818,813,818,818,799,818,809,802,805,818,814,818,812,569,571,576,570,565,662,1054,1080,1210,1231,1249,1209,1195,1178,1173,1166,1150,1136,1102,1111,1062,1083,1028,1011,1012,1005,1013,920,901,801,750,698,653,558,586,572,556,557,544,537,537,541,544,544,548,549,546,549,552,553,554,555,555,558,548,555,556,560,557,560,554,562,560,555,554,848,849,852,860,875,1266,1686,1847,1911,2008,2013,1928,1909,1869,1857,1870,1844,1767,1747,1705,1686,1705,1670,1593,1612,1538,1548,1485,1313,1083,1053,1010,896,880,878,860,858,834,809,809,813,826,816,823,813,809,818,813,810,809,813,828,824,824,818,825,813,825,846,825,837,827,819,825,821,1088,1093,1104,1086,1184,1786,2300,2498,2562,2620,2606,2571,2538,2488,2451,2420,2362,2320,2271,2228,2204,2165,2110,2071,2042,1954,1787,1444,1382,1260,1219,1200,1136,1116,1111,1112,1117,1102,1060,1050,1064,1066,1067,1059,1064,1067,1063,1063,1063,1063,1063,1063,1063,1063,1063,1063,1063,1063,1063,1063,1063,1063,1063,1063,1063,466,468,469,471,479,675,882,979,1093,1146,1150,1132,1114,1095,1076,1059,1041,1023,1034,986,968,950,932,914,895,881,859,841,823,804,718,701,612,488,476,473,475,476,452,452,463,475,462,467,455,462,456,452,457,460,454,458,463,470,464,465,460,462,462,467,467,469,463,469,464,340,342,343,335,345,431,633,706,781,837,847,834,820,784,793,780,729,753,739,726,712,699,667,672,658,645,618,618,604,576,545,461,449,429,349,329,347,348,324,321,321,325,326,325,324,331,322,322,322,322,322,322,322,322,322,322,322,322,322,322,322,322,322,322,322,0,0,0,0,0,0,0,0,0,0,0,0,0,0,0,0,0,0,0,0,0,0,0,0,0,0,0,0,0,0,0,0,0,0,0,0,0,0,0,0,0,0,0,0,0,0,0,0,0,0,0,0,0,0,0,0,0,0,0,0,0,0,0,0,0,222,223,224,224,225,314,399,442,488,532,553,544,536,536,518,510,501,493,483,475,466,457,448,440,432,422,414,405,397,387,379,370,362,362,308,226,226,227,189,190,189,190,191,192,191,196,190,190,190,190,190,190,190,190,190,190,190,190,190,190,190,190,190,190,190,380,380,381,382,385,426,694,773,853,932,946,931,918,898,888,871,857,837,819,807,793,780,763,747,733,718,703,687,601,587,510,459,451,424,388,385,387,387,326,319,318,320,320,322,321,324,318,318,318,318,318,318,318,318,318,318,318,318,318,318,318,318,318,318,318,824,828,830,841,876,1184,1599,1752,1863,1917,1921,1881,1856,1832,1807,1786,1761,1734,1696,1671,1644,1616,1591,1565,1537,1511,1388,1364,1341,1095,1045,967,873,862,857,836,852,834,809,806,812,829,821,821,817,815,818,819,816,815,814,829,825,827,820,831,818,823,843,828,840,830,822,828,824,202,203,204,238,248,258,361,400,441,482,498,489,482,474,466,459,451,444,435,428,421,412,405,398,390,382,374,367,360,351,344,336,328,261,254,249,252,252,187,178,175,175,187,188,187,182,181,187,192,188,189,191,191,194,180,187,191,198,191,195,184,187,195,180,179,260,260,261,261,261,270,416,436,436,475,453,451,447,445,442,439,436,434,430,428,426,422,441,438,433,429,425,414,400,394,273,271,268,265,263,262,262,262,227,232,228,233,233,237,230,233,230,230,233,229,228,238,234,238,238,238,237,237,267,237,237,240,228,234,232,52,52,52,52,52,54,60,66,72,78,84,82,81,80,79,78,76,75,74,73,72,70,69,68,67,66,64,63,62,61,60,58,57,56,55,54,54,54,13,13,13,13,13,13,13,14,13,13,13,13,13,13,13,13,13,13,13,13,13,13,13,13,13,13,13,297,299,298,299,300,345,536,596,659,724,744,728,721,704,698,685,669,657,642,632,622,613,598,586,574,562,552,544,456,445,368,359,351,344,331,303,304,326,241,238,241,242,241,241,240,243,239,239,239,239,239,239,239,239,239,239,239,239,239,239,239,239,239,239,239,438,438,440,441,460,725,816,925,994,1061,1088,1071,1034,1018,1019,994,972,973,956,922,905,892,888,871,855,824,803,802,785,752,700,696,587,466,457,444,444,445,432,423,438,457,442,439,437,447,442,448,447,441,456,482,482,482,482,451,435,461,447,438,435,482,451,464,441,872,879,896,899,934,1303,1788,1994,2096,2131,2119,2085,2073,2020,1984,1950,1947,1882,1867,1830,1780,1774,1713,1683,1671,1611,1497,1462,1336,1222,1045,939,916,928,894,892,908,883,853,845,849,853,849,856,854,857,850,850,850,850,850,850,850,850,850,850,850,850,850,850,850,850,850,850,850,309,288,289,330,291,392,528,589,649,656,669,670,652,644,644,636,618,609,625,614,602,591,580,568,558,546,535,523,512,500,489,477,443,303,296,292,371,293,269,273,272,277,278,273,277,279,273,273,273,273,273,273,273,273,273,273,273,273,273,273,273,273,273,273,273,1012,1018,986,1021,1060,1822,2289,2439,2539,2584,2588,2529,2497,2460,2426,2396,2313,2274,2294,2176,2167,2128,2031,2000,1913,1879,1839,1574,1468,1278,1246,1092,1031,1007,1037,1020,1026,1026,1016,1007,1021,1069,1008,1020,1015,1020,1030,1028,1023,1032,1038,1037,1037,1058,1047,1035,1026,1032,1048,1058,1041,1076,1035,1048,1045,335,336,336,338,339,518,620,692,764,824,831,820,807,792,778,765,754,739,728,712,699,686,673,660,646,633,622,609,594,580,567,554,470,372,344,340,340,341,323,325,314,341,340,323,330,376,327,326,328,344,340,325,318,324,327,330,326,323,318,321,320,321,332,322,309,1064,1083,1080,1108,1161,1728,2268,2425,2532,2578,2537,2536,2495,2450,2404,2352,2314,2303,2238,2172,2180,2125,2099,2040,2041,1947,1920,1657,1423,1242,1207,1164,1120,1091,1106,1089,1105,1083,1078,1074,1079,1077,1077,1080,1085,1092,1082,1082,1082,1082,1082,1082,1082,1082,1082,1082,1082,1082,1082,1082,1082,1082,1082,1082,1082,750,787,754,757,823,1274,1593,1729,1891,1915,1852,1897,1896,1875,1873,1786,1694,1668,1639,1637,1561,1579,1562,1335,1458,1428,1418,1253,1052,1081,923,864,925,820,786,784,799,794,793,775,794,803,810,791,806,806,807,809,802,807,809,818,818,813,818,818,799,818,809,802,805,818,814,818,812,581,583,624,587,629,739,1141,1276,1387,1435,1435,1411,1523,1360,1365,1400,1297,1273,1314,1249,1226,1242,1234,1136,930,1151,1143,1044,905,837,765,635,620,678,662,590,645,661,624,617,624,629,631,637,626,633,628,626,638,628,635,628,633,638,633,635,637,628,628,632,635,639,637,640,639,583,596,585,600,627,707,1057,1126,1228,1342,1324,1305,1294,1267,1249,1238,1220,1261,1212,1221,1201,1182,1161,1107,1121,1077,1021,941,920,931,888,673,642,629,619,603,604,588,572,579,576,583,584,586,583,586,581,585,583,582,578,584,584,579,583,584,585,587,585,582,584,586,582,584,580,860,860,864,874,885,1510,1951,2172,2307,2326,2313,2264,2224,2175,2158,2096,2048,2003,1959,1924,1881,1838,1819,1765,1712,1674,1631,1587,1439,1191,1078,1054,909,892,876,873,873,877,874,872,876,879,881,883,882,887,879,881,876,882,881,891,889,887,898,891,886,883,887,889,885,893,877,887,884,885,886,880,905,948,1552,1741,1932,2073,2074,2113,2082,2054,2025,1992,1972,1928,1886,1865,1841,1779,1767,1724,1680,1651,1612,1598,1432,1220,985,1005,940,918,938,890,888,928,898,874,877,874,881,881,877,882,883,882,896,883,884,885,886,886,883,885,884,882,885,881,885,882,881,883,883,882,473,477,479,480,489,671,904,1008,1117,1171,1173,1154,1136,1112,1122,1074,1062,1042,1028,1005,982,973,968,931,908,901,872,856,835,819,719,702,602,495,486,483,482,483,474,475,472,477,481,476,481,479,476,476,476,479,478,479,483,484,480,482,483,481,482,480,479,488,478,482,480,141,142,142,207,208,215,250,279,308,337,352,348,342,336,331,325,319,314,308,303,297,291,286,280,276,270,264,259,253,247,242,236,231,219,214,208,211,211,135,131,132,135,135,133,133,135,132,136,136,135,133,136,133,132,133,136,136,137,133,132,136,136,133,133,133,256,258,258,262,261,343,456,509,563,628,644,634,629,613,603,593,582,573,563,553,543,533,528,511,502,496,481,474,465,450,440,368,360,350,288,262,263,265,192,193,192,194,216,208,201,206,199,216,204,200,203,198,198,204,204,199,210,197,200,205,204,214,204,208,202,0,0,0,0,0,0,0,0,0,0,0,0,0,0,0,0,0,0,0,0,0,0,0,0,0,0,0,0,0,0,0,0,0,0,0,0,0,0,0,0,0,0,0,0,0,0,0,0,0,0,0,0,0,0,0,0,0,0,0,0,0,0,0,0,0,166,167,168,168,202,205,297,332,366,401,418,411,405,398,391,385,378,372,364,358,351,345,338,331,325,318,312,304,298,291,285,278,271,242,208,203,203,204,137,129,129,130,129,130,130,130,128,136,130,129,132,133,133,130,131,131,131,130,129,133,131,130,130,131,131,930,922,933,937,951,1479,1924,2116,2308,2343,2368,2298,2268,2225,2180,2169,2114,2084,2050,2010,1972,1929,1894,1847,1803,1735,1707,1641,1355,1084,1033,1009,977,953,946,944,879,883,880,877,882,883,886,888,886,893,885,887,882,888,886,897,894,892,904,897,891,888,895,894,890,897,880,890,887,277,278,279,280,280,362,493,548,602,659,682,672,661,651,639,630,619,608,598,586,576,565,555,544,534,523,512,502,492,481,470,385,376,368,320,281,329,283,240,240,241,244,252,251,249,253,249,249,251,249,251,247,248,250,251,247,254,247,247,251,251,255,252,254,250,392,394,392,396,400,442,727,768,890,952,980,944,950,937,898,900,884,878,820,805,807,792,782,787,746,741,725,732,695,681,675,516,441,434,397,399,400,372,341,338,337,347,347,348,344,348,343,349,347,347,356,352,353,347,347,347,348,352,347,343,347,348,342,348,341,229,233,234,235,246,302,408,454,502,558,575,567,562,549,538,529,521,512,504,494,487,477,472,458,449,445,431,426,417,405,395,324,315,308,300,245,246,247,164,164,164,165,187,177,172,177,171,188,175,172,175,167,169,175,175,168,181,168,168,176,175,183,176,179,173,136,136,137,137,138,213,241,268,298,326,340,337,332,326,319,314,310,304,298,294,288,282,276,271,266,261,254,250,244,238,232,229,223,218,212,144,144,145,88,88,88,88,88,91,88,88,88,89,88,89,90,91,91,88,86,87,87,86,86,88,87,86,86,87,86,293,292,295,296,296,366,564,622,657,711,723,705,700,684,702,667,656,638,633,643,632,598,588,576,565,554,542,531,536,508,486,486,475,448,377,365,296,367,291,292,292,294,292,292,294,294,292,292,292,292,294,296,315,296,292,294,296,296,308,296,294,311,292,294,295,698,666,674,704,709,1094,1332,1477,1587,1632,1629,1603,1576,1551,1525,1495,1488,1454,1420,1395,1369,1342,1317,1291,1264,1239,1267,1186,1160,1146,893,843,704,688,676,708,682,677,667,657,657,664,657,665,662,665,660,662,662,662,664,665,669,665,663,665,664,664,667,665,667,668,662,668,666,316,320,323,323,325,329,569,633,704,769,764,783,767,683,727,727,690,706,669,680,628,616,646,608,621,567,580,578,531,428,405,324,414,340,331,316,326,326,273,269,267,273,289,285,285,291,283,292,288,284,289,276,279,290,289,278,290,285,277,288,288,295,290,294,288,994,1015,998,1035,1070,1919,2364,2574,2702,2660,2640,2630,2585,2486,2506,2452,2339,2312,2280,2241,2191,2128,2082,2005,1995,1945,1850,1666,1467,1367,1234,1100,1064,1038,1032,1009,1028,1020,1041,1030,1033,1040,1027,1029,1041,1037,1051,1052,1042,1051,1063,1060,1058,1071,1069,1052,1049,1051,1069,1075,1059,1073,1052,1063,1061,348,348,350,351,352,403,650,721,796,886,862,901,836,817,831,799,781,768,748,740,726,717,706,685,674,664,640,630,613,603,589,577,374,363,356,353,354,355,329,333,333,341,344,346,344,346,342,346,343,342,345,345,352,349,353,344,347,349,348,353,344,352,345,348,347,854,860,864,884,928,1495,1779,1932,2040,2123,2046,1984,1998,1959,1942,1941,1862,1830,1810,1758,1747,1714,1671,1651,1600,1620,1525,1506,1297,1217,1066,947,900,910,873,906,879,856,893,885,885,897,892,888,894,898,892,898,896,895,895,898,899,895,896,894,900,898,897,895,897,898,896,898,899,581,583,624,587,629,739,1141,1276,1387,1435,1435,1411,1523,1360,1365,1400,1297,1273,1314,1249,1226,1242,1234,1136,930,1151,1143,1044,905,837,765,635,620,678,662,590,645,661,624,617,624,629,631,637,626,633,628,626,638,628,635,628,633,638,633,635,637,628,628,632,635,639,637,640,639,644,660,663,634,673,776,1210,1353,1480,1549,1582,1500,1476,1551,1426,1401,1460,1403,1378,1351,1326,1256,1248,1229,1011,1158,1134,1064,958,707,829,722,656,711,674,668,670,632,657,663,666,668,666,674,661,668,664,660,672,669,694,699,692,679,672,683,681,684,688,677,676,695,680,688,688,692,697,686,701,725,1013,1223,1374,1461,1517,1507,1485,1464,1520,1422,1400,1378,1425,1403,1381,1292,1335,1318,1274,1234,1245,1118,1090,1133,943,732,754,728,700,684,695,708,693,672,668,670,675,673,678,676,679,675,680,677,674,672,676,674,670,678,676,678,679,674,673,677,679,676,675,675,950,936,940,975,1009,1607,2069,2417,2458,2485,2474,2428,2415,2319,2309,2246,2200,2180,2109,2077,2044,1986,1948,1902,1821,1777,1771,1699,1499,1333,1041,1009,990,982,952,953,951,958,965,966,945,940,975,959,970,975,967,968,987,973,973,985,987,995,968,979,983,981,989,975,980,986,990,965,964,836,838,840,851,864,1359,1698,1879,1993,2044,2024,2017,1945,1925,1892,1861,1828,1795,1762,1723,1704,1674,1653,1620,1611,1577,1552,1414,1331,1167,1073,1025,884,870,857,871,878,846,835,862,840,869,842,858,859,870,867,871,870,845,838,854,867,864,866,871,861,870,867,865,862,869,867,867,866,569,569,569,569,557,708,1025,1205,1269,1321,1389,1320,1340,1257,1256,1234,1254,1222,1214,1192,1165,1138,1069,1101,1027,1006,1000,1013,998,875,833,762,667,613,579,554,576,567,560,565,564,572,570,577,567,572,570,568,568,567,565,578,569,573,574,580,579,578,579,576,578,594,574,578,578,179,180,180,180,242,252,319,356,393,364,446,439,432,426,418,411,404,397,390,382,375,369,362,355,348,340,333,326,320,313,306,298,264,258,252,246,247,246,167,168,167,172,167,169,168,170,168,170,170,169,170,169,172,170,172,172,173,172,172,170,172,174,173,174,174,376,377,379,380,383,467,611,761,840,924,938,925,907,882,877,848,839,837,822,795,793,764,764,747,732,717,701,687,648,483,526,478,450,405,396,390,390,388,293,296,293,295,312,308,311,310,299,310,304,302,303,299,299,306,306,300,307,298,302,305,303,312,303,304,301,173,174,174,175,211,216,242,336,370,403,429,423,416,410,404,396,390,383,376,370,363,355,350,343,336,330,322,316,309,243,238,233,227,221,217,211,212,214,156,154,152,152,163,162,161,158,159,166,162,162,164,162,163,163,165,160,161,160,160,163,162,165,163,163,161,0,0,0,0,0,0,0,0,0,0,0,0,0,0,0,0,0,0,0,0,0,0,0,0,0,0,0,0,0,0,0,0,0,0,0,0,0,0,0,0,0,0,0,0,0,0,0,0,0,0,0,0,0,0,0,0,0,0,0,0,0,0,0,0,0,1012,1006,1008,1030,1082,1658,2125,2464,2541,2548,2545,2502,2490,2406,2366,2332,2286,2266,2188,2152,2136,2058,2006,1986,1909,1862,1834,1683,1407,1289,1102,1071,1044,1048,1015,1021,957,964,971,971,951,944,980,964,974,981,973,974,993,979,978,991,992,1000,974,997,988,986,995,980,985,990,993,968,967,372,374,375,376,378,435,639,772,831,903,931,912,889,874,868,852,838,824,814,800,774,766,752,730,716,702,687,679,658,595,552,452,400,391,381,378,379,371,341,341,342,343,347,350,351,354,349,350,351,350,348,348,347,352,348,348,351,348,348,349,350,350,349,348,347,482,489,495,492,504,544,855,1050,1130,1185,1193,1176,1157,1154,1119,1103,1084,1037,1033,1027,1006,988,974,951,937,919,895,875,859,756,692,625,551,510,506,496,492,467,437,428,431,438,436,440,437,441,439,444,442,439,453,453,443,438,440,440,443,441,436,434,439,439,439,436,436,349,352,353,355,356,420,561,702,776,855,871,858,843,817,813,787,778,778,763,737,737,709,708,694,679,666,651,639,600,438,482,433,408,407,382,373,374,360,265,267,265,266,283,277,283,281,271,282,275,274,275,268,270,277,277,269,278,269,270,276,274,282,275,275,272,144,144,145,145,146,226,256,286,315,345,362,356,351,345,339,333,327,322,316,310,304,298,294,288,282,276,270,265,259,253,247,242,236,230,224,220,220,220,113,117,113,117,121,119,120,120,116,119,118,121,117,115,116,119,117,116,120,117,115,119,116,121,117,118,116,331,332,332,342,344,492,633,679,748,740,816,802,792,777,778,751,739,720,712,700,687,675,680,649,637,624,610,616,585,572,556,547,530,492,336,336,372,373,336,335,336,335,336,333,336,335,338,335,335,336,340,340,340,341,343,339,340,340,341,348,344,347,340,340,344,599,601,606,602,605,766,1120,1285,1437,1458,1453,1436,1412,1388,1365,1342,1319,1296,1272,1248,1225,1202,1177,1168,1132,1108,1092,1076,1036,920,805,761,654,616,609,608,610,663,590,585,586,590,590,592,588,591,588,592,591,591,587,591,588,585,588,592,592,592,588,586,591,591,588,588,587,323,326,327,304,364,403,585,652,718,775,786,801,762,776,763,750,736,724,686,674,685,666,660,646,612,603,608,574,558,430,534,523,426,416,393,398,306,398,314,312,313,314,315,315,317,320,316,316,317,317,320,320,320,322,321,320,323,321,320,316,322,323,324,324,324,1100,1071,1097,1143,1346,1981,2480,2774,2871,2811,2847,2794,2785,2630,2660,2608,2525,2505,2390,2410,2350,2254,2215,2178,2102,2068,1934,1696,1467,1220,1203,1174,1148,1113,1101,1109,1107,1121,1120,1123,1130,1118,1130,1139,1134,1149,1152,1150,1158,1160,1155,1153,1171,1170,1157,1150,1155,1164,1169,1173,1162,1166,1161,1163,1163,436,448,436,440,443,483,761,910,1009,1008,1072,1056,1039,1026,1037,984,967,949,936,927,898,883,880,882,841,817,807,783,772,716,728,625,568,480,445,444,441,424,430,430,421,432,433,434,437,439,436,441,437,434,439,437,430,437,437,441,436,433,426,430,428,431,439,436,416,824,802,804,804,858,1268,1547,1802,1881,1923,1908,1886,1843,1803,1776,1767,1737,1688,1659,1648,1620,1590,1584,1576,1520,1461,1444,1424,1254,1232,1011,903,842,824,803,832,808,815,812,812,816,820,820,821,818,821,818,822,821,821,817,821,818,815,818,822,822,822,818,816,821,821,818,818,817,644,660,663,634,673,776,1210,1353,1480,1549,1582,1500,1476,1551,1426,1401,1460,1403,1378,1351,1326,1256,1248,1229,1011,1158,1134,1064,958,707,829,722,656,711,674,668,670,632,657,663,666,668,666,674,661,668,664,660,672,669,694,699,692,679,672,683,681,684,688,677,676,695,680,688,688,1040,1039,1026,1072,1159,1895,2307,2572,2706,2725,2698,2632,2618,2569,2528,2478,2406,2322,2330,2274,2228,2162,2161,2119,2014,1959,1879,1776,1477,1233,1148,1096,1099,1072,1048,1035,1059,1069,1069,1059,1081,1077,1081,1085,1072,1086,1087,1082,1088,1081,1083,1082,1082,1085,1082,1082,1079,1085,1076,1076,1076,1076,1076,1076,1076,645,647,644,633,671,771,1249,1423,1526,1600,1587,1603,1561,1502,1477,1446,1420,1396,1386,1346,1364,1296,1311,1213,1221,1209,1171,1146,1120,1073,713,774,680,707,652,685,682,676,656,653,650,660,658,661,670,675,658,658,667,656,657,661,664,664,662,661,670,664,663,663,663,663,663,663,663,119,119,119,180,180,183,205,226,249,271,288,283,279,274,271,266,261,258,253,249,244,240,236,231,228,223,219,214,210,206,201,198,193,188,184,181,181,181,112,108,110,112,112,112,111,112,111,112,112,112,110,112,111,108,110,112,112,112,111,110,111,111,111,111,110,1219,1226,1259,1347,2362,2753,3237,3450,3602,3615,3564,3489,3414,3338,3283,3208,3132,3038,2976,2887,2812,2728,2661,2512,2394,2323,2116,1896,1782,1423,1412,1367,1282,1266,1245,1247,1272,1268,1338,1335,1334,1331,1339,1332,1342,1342,1337,1351,1357,1336,1347,1351,1351,1345,1342,1351,1341,1354,1339,1339,1339,1339,1339,1339,1339,673,675,676,680,702,1152,1408,1601,1788,1826,1774,1743,1754,1680,1647,1680,1585,1552,1582,1489,1514,1425,1444,1363,1330,1299,1267,1236,1204,1209,1099,739,732,708,713,684,688,697,677,676,678,674,685,692,690,695,686,690,696,689,691,690,690,693,690,690,690,688,680,680,680,680,680,680,680,884,886,893,913,957,1599,1931,2183,2264,2292,2276,2236,2195,2154,2123,2137,2047,1998,2027,1926,1932,1836,1846,1764,1716,1681,1647,1599,1566,1296,1067,1012,972,920,918,920,889,891,854,867,867,869,863,872,869,873,874,868,874,867,870,869,869,872,869,869,869,872,868,869,868,870,869,872,869,853,856,859,876,950,1545,1721,1928,2033,2091,2082,2048,2014,1981,1948,1915,1881,1849,1815,1798,1748,1732,1682,1648,1709,1582,1549,1515,1381,1195,1048,996,972,881,868,867,868,871,871,871,874,878,875,880,885,897,885,889,883,885,883,884,891,890,895,913,896,896,898,892,913,894,905,916,893,987,989,992,1038,1088,1789,2153,2382,2481,2523,2548,2511,2418,2379,2334,2325,2247,2236,2218,2169,2124,2028,2032,1943,1947,1903,1812,1548,1390,1192,1092,1124,1076,1024,1007,1003,999,999,978,984,989,991,990,994,991,996,996,991,997,990,992,991,991,994,991,991,991,994,991,990,991,992,991,994,991,1059,1062,1069,1116,1188,2009,2370,2573,2694,2698,2674,2627,2579,2531,2510,2507,2415,2355,2380,2268,2267,2181,2168,2084,2023,1988,1792,1697,1491,1357,1188,1157,1125,1096,1080,1076,1014,1016,979,992,992,994,988,997,994,998,999,993,999,992,995,994,994,997,994,994,994,997,993,994,993,995,994,997,994,0,0,0,0,0,0,0,0,0,0,0,0,0,0,0,0,0,0,0,0,0,0,0,0,0,0,0,0,0,0,0,0,0,0,0,0,0,0,0,0,0,0,0,0,0,0,0,0,0,0,0,0,0,0,0,0,0,0,0,0,0,0,0,0,0,845,847,850,857,904,1477,1673,1853,1958,2038,2001,1971,1940,1909,1903,1864,1816,1802,1755,1756,1737,1693,1645,1617,1570,1539,1520,1483,1435,1188,1055,953,876,874,855,860,850,862,823,828,830,835,837,840,838,843,840,838,843,836,837,840,841,831,835,840,836,836,838,838,839,841,838,841,838,742,730,732,736,779,1269,1472,1606,1720,1797,1770,1741,1713,1684,1644,1645,1600,1587,1575,1515,1552,1459,1430,1444,1374,1345,1317,1288,1261,1232,1131,866,759,747,745,742,758,764,741,745,735,746,743,744,750,762,748,738,748,760,757,741,745,750,750,748,745,751,742,742,742,742,742,742,742,887,890,892,913,1004,1617,1802,2008,2111,2168,2156,2121,2088,2053,2018,1984,1950,1916,1881,1863,1813,1795,1746,1710,1743,1640,1606,1572,1422,1152,1038,1014,987,915,902,900,881,884,884,884,887,891,888,894,898,910,898,902,896,898,896,897,904,903,908,919,909,909,911,905,911,907,911,911,906,1070,1077,1080,1136,1214,1985,2369,2585,2660,2694,2701,2651,2608,2552,2511,2483,2416,2391,2348,2303,2284,2191,2178,2072,1997,1953,1903,1658,1468,1284,1209,1204,1164,1107,1094,1080,1051,1057,1031,1042,1042,1045,1040,1048,1045,1050,1050,1045,1051,1044,1046,1045,1045,1048,1045,1045,1045,1048,1045,1044,1045,1046,1045,1048,1045,793,768,769,783,809,1331,1619,1838,1975,2010,1998,1963,1927,1892,1856,1884,1785,1750,1774,1680,1699,1609,1623,1538,1502,1467,1486,1396,1360,1220,860,836,827,800,783,779,783,786,760,770,765,773,772,776,773,778,773,773,776,771,774,773,773,776,773,773,773,773,773,772,773,774,773,776,773,1447,1428,1456,1609,1810,2941,3251,3438,3546,3554,3514,3454,3393,3330,3272,3271,3157,3106,3108,2896,2818,2648,2411,2238,2032,1746,1750,1700,1627,1587,1548,1532,1500,1478,1447,1442,1452,1454,1417,1430,1430,1432,1426,1435,1432,1436,1437,1431,1437,1430,1433,1432,1432,1435,1432,1432,1432,1435,1431,1432,1431,1433,1432,1435,1432,1043,1046,1076,1067,1162,1946,2319,2520,2638,2672,2651,2605,2562,2522,2478,2435,2390,2350,2324,2303,2241,2187,2161,2101,2058,2013,1887,1693,1532,1308,1172,1181,1105,1117,1062,1057,1066,1065,1049,1047,1052,1057,1059,1060,1064,1075,1068,1075,1090,1074,1073,1082,1074,1071,1072,1072,1084,1091,1088,1087,1089,1090,1081,1084,1081,379,381,382,383,384,399,663,727,792,855,882,869,857,844,832,829,808,795,783,771,757,747,734,721,708,697,683,672,502,492,481,473,447,438,390,384,385,369,318,319,323,331,326,325,329,336,327,322,335,330,332,331,331,334,322,324,330,334,331,330,331,332,331,334,331,727,731,728,740,783,1251,1523,1770,1902,1914,1922,1893,1830,1807,1796,1806,1714,1692,1711,1618,1623,1527,1543,1466,1426,1392,1383,1333,1343,1146,1070,849,837,759,741,736,743,749,722,711,719,717,717,738,719,731,725,724,741,730,727,726,726,738,735,732,723,737,728,728,728,728,728,728,728,1318,1323,1343,1505,2027,2977,3341,3517,3619,3649,3599,3527,3485,3402,3363,3343,3236,3177,3175,3060,2874,2514,2205,2153,2218,1984,1910,1866,1594,1539,1484,1423,1381,1360,1347,1352,1380,1377,1444,1455,1451,1457,1456,1460,1457,1462,1462,1457,1463,1456,1458,1457,1457,1460,1457,1457,1457,1460,1457,1456,1457,1458,1457,1460,1457,1040,1039,1026,1072,1159,1895,2307,2572,2706,2725,2698,2632,2618,2569,2528,2478,2406,2322,2330,2274,2228,2162,2161,2119,2014,1959,1879,1776,1477,1233,1148,1096,1099,1072,1048,1035,1059,1069,1069,1059,1081,1077,1081,1085,1072,1086,1087,1082,1088,1081,1083,1082,1082,1085,1082,1082,1079,1085,1076,1076,1076,1076,1076,1076,1076,765,772,774,775,779,1195,1582,1779,1890,1928,1907,1899,1802,1824,1845,1790,1694,1676,1647,1641,1571,1521,1550,1365,1450,1426,1424,1263,1117,1001,943,969,843,804,782,780,783,804,766,763,785,787,773,793,782,792,791,785,786,785,788,790,789,808,781,783,786,804,785,779,784,792,774,791,791,380,394,396,396,388,461,706,699,753,788,825,784,846,796,757,747,739,757,788,739,715,758,747,738,727,716,687,642,646,656,504,572,409,454,404,416,413,404,380,370,371,371,371,372,374,375,371,378,374,371,373,375,373,372,381,377,377,376,376,377,375,379,379,381,380,748,752,752,754,761,1116,1569,1741,1819,1882,1921,1844,1776,1742,1763,1735,1707,1684,1650,1593,1562,1582,1550,1473,1486,1464,1422,1363,1215,1094,956,891,820,773,768,779,768,748,716,723,726,729,727,724,725,724,725,727,721,725,726,726,728,729,728,727,726,726,728,728,727,729,724,726,725,1160,1167,1168,1205,1283,2050,2525,2672,2744,2724,2730,2715,2637,2600,2527,2482,2446,2439,2389,2363,2339,2278,2190,2184,2156,1960,1792,1611,1450,1293,1287,1250,1200,1190,1175,1186,1182,1178,1155,1146,1149,1151,1175,1171,1169,1170,1165,1175,1170,1158,1171,1151,1155,1165,1165,1157,1169,1152,1151,1166,1163,1180,1170,1169,1169,390,391,392,393,396,460,721,794,868,924,927,914,900,886,872,859,844,831,817,804,789,776,762,748,734,721,706,693,679,534,524,513,501,436,398,396,396,397,357,356,362,368,361,363,363,363,364,360,362,360,358,358,360,363,358,360,363,361,362,362,360,365,357,361,361,356,357,358,346,352,390,654,703,764,833,848,836,823,811,798,767,754,742,747,734,704,709,679,672,672,658,646,633,621,594,596,388,380,372,364,361,352,363,337,336,350,362,361,335,347,362,357,345,362,359,344,345,362,362,362,350,355,348,355,356,340,349,346,342,342,257,259,260,284,261,301,454,508,553,598,607,598,591,581,573,563,553,545,537,529,519,510,501,492,484,475,466,456,449,441,322,315,276,270,278,285,285,263,204,209,208,212,212,214,209,212,204,216,208,206,209,213,218,217,220,214,212,207,216,213,212,215,205,209,209,344,344,345,346,348,489,627,692,755,810,816,804,792,780,768,754,742,730,718,707,694,683,670,658,646,634,622,610,598,586,574,562,529,359,351,348,349,350,316,308,313,317,321,316,330,321,313,319,316,317,321,322,322,325,335,336,318,320,318,319,320,326,325,339,338,460,461,462,464,466,680,871,963,1052,1104,1105,1092,1071,1054,1038,1021,1004,987,970,954,937,920,903,887,870,852,836,811,795,777,651,595,561,497,469,466,474,458,416,407,408,417,424,421,423,423,418,425,420,421,424,420,420,421,440,438,424,422,417,422,417,433,423,422,422,751,753,765,753,774,1006,1499,1646,1771,1791,1833,1755,1730,1704,1678,1652,1624,1650,1569,1550,1512,1501,1476,1446,1414,1399,1288,1247,1221,1073,897,896,786,783,763,767,782,749,716,720,725,729,727,729,725,728,725,729,726,725,726,726,728,729,728,727,728,726,728,728,727,729,724,726,725,0,0,0,0,0,0,0,0,0,0,0,0,0,0,0,0,0,0,0,0,0,0,0,0,0,0,0,0,0,0,0,0,0,0,0,0,0,0,0,0,0,0,0,0,0,0,0,0,0,0,0,0,0,0,0,0,0,0,0,0,0,0,0,0,0,143,144,145,145,217,222,247,273,275,354,351,347,359,355,353,332,339,335,332,276,273,286,281,276,271,266,261,256,252,246,241,237,232,228,222,219,219,219,109,110,113,115,113,115,111,114,111,115,112,111,112,112,114,114,113,113,114,112,114,114,113,115,110,112,111,230,231,233,233,234,309,408,449,488,528,538,531,524,517,508,499,492,484,478,470,463,454,445,439,431,424,416,408,401,394,277,271,258,253,267,235,235,236,176,180,180,183,183,183,180,183,176,188,179,178,181,182,189,188,191,183,183,178,184,184,183,184,177,180,180,418,418,418,420,422,578,777,858,940,997,996,981,964,951,934,924,913,892,874,860,847,832,814,799,783,778,757,663,650,635,515,489,479,440,440,422,424,400,368,366,367,375,374,371,379,374,369,375,372,373,374,377,375,373,387,381,372,372,372,372,371,376,372,374,374,453,454,470,458,458,642,854,921,1038,1087,1081,1073,1056,1041,1009,994,996,978,964,931,915,899,883,870,863,830,819,799,786,702,687,674,635,552,492,459,461,460,421,418,442,448,430,444,426,446,426,434,431,426,433,446,446,445,436,434,431,446,436,431,428,448,430,446,446,888,898,898,929,949,1563,1861,2022,2117,2137,2120,2146,2054,2022,1988,1956,1922,1890,1856,1827,1795,1761,1724,1703,1675,1624,1497,1371,1336,1085,1141,968,928,912,903,908,904,899,876,867,870,872,882,880,884,881,883,881,878,879,885,872,876,886,886,878,888,873,872,887,884,888,888,889,889,435,404,426,439,444,561,795,903,943,991,996,985,970,957,951,932,942,904,864,866,878,868,846,830,820,805,783,730,716,755,636,536,522,508,472,441,442,432,416,418,412,416,422,424,433,431,419,423,426,432,428,418,421,437,427,423,426,423,419,422,419,427,423,430,430,904,906,886,888,947,1527,2056,2266,2358,2421,2367,2354,2296,2209,2209,2140,2124,2055,2034,2001,1958,1885,1869,1825,1755,1701,1675,1632,1480,1244,990,982,961,939,916,917,919,904,911,911,913,921,907,916,922,921,929,936,928,931,938,921,934,944,941,930,929,931,943,941,934,952,929,937,937,258,259,260,260,261,317,460,506,554,596,606,597,589,582,571,562,554,544,536,528,520,512,501,493,483,475,466,458,448,442,388,415,332,271,264,262,262,263,219,215,219,220,217,224,221,226,225,221,240,220,221,220,220,223,220,221,220,221,221,220,221,222,219,244,244,1083,1113,1104,1165,1228,1975,2287,2446,2581,2593,2530,2511,2452,2420,2383,2345,2305,2319,2240,2190,2166,2149,2098,2069,1905,1965,1833,1650,1439,1325,1180,1154,1152,1114,1099,1104,1096,1104,1103,1097,1100,1102,1108,1118,1120,1115,1116,1126,1113,1109,1122,1102,1106,1116,1116,1108,1120,1103,1102,1117,1114,1132,1119,1117,1117,765,772,774,775,779,1195,1582,1779,1890,1928,1907,1899,1802,1824,1845,1790,1694,1676,1647,1641,1571,1521,1550,1365,1450,1426,1424,1263,1117,1001,943,969,843,804,782,780,783,804,766,763,785,787,773,793,782,792,791,785,786,785,788,790,789,808,781,783,786,804,785,779,784,792,774,791,791,838,842,844,850,865,1238,1740,1944,2047,2088,2110,2097,2017,1968,1954,1938,1862,1825,1838,1766,1751,1754,1589,1514,1603,1574,1424,1377,1252,1042,941,911,906,868,876,863,858,876,844,841,847,845,858,854,863,866,859,863,861,861,863,866,866,866,865,865,866,866,864,863,863,863,862,863,862,374,380,386,365,364,410,645,668,724,800,807,796,786,776,784,754,744,773,775,712,739,729,667,710,690,658,673,662,625,645,579,433,385,413,403,365,368,367,357,358,360,364,371,373,368,377,369,373,377,377,377,377,377,377,373,365,372,372,369,372,372,372,372,372,371,664,665,667,669,714,955,1311,1401,1586,1666,1675,1645,1568,1562,1519,1545,1515,1489,1425,1440,1372,1355,1359,1334,1338,1274,1292,1227,1125,1010,811,823,706,691,677,674,678,638,615,620,622,623,623,618,623,618,623,621,618,623,623,623,623,623,622,622,621,623,623,623,623,623,623,623,622,1187,1197,1189,1212,1327,1979,2580,2736,2801,2870,2844,2797,2735,2668,2666,2616,2562,2526,2484,2440,2391,2123,2295,2022,2006,1924,1792,1594,1345,1330,1300,1253,1230,1218,1212,1191,1222,1201,1184,1179,1191,1193,1186,1191,1192,1191,1190,1194,1196,1188,1192,1193,1195,1194,1193,1197,1195,1193,1194,1194,1196,1196,1195,1196,1192,440,442,443,445,452,534,820,901,1018,1086,1092,1076,1063,1040,1030,1005,990,972,954,937,919,903,884,868,849,832,816,798,781,753,678,659,638,495,452,453,450,452,432,425,428,429,431,428,433,432,431,433,431,432,436,443,445,436,445,437,437,436,437,444,437,447,439,438,438,427,430,424,434,434,545,784,875,931,1042,1048,1045,1019,991,994,945,948,929,914,910,870,877,860,835,821,782,787,750,764,727,675,553,532,468,430,436,444,428,403,400,401,401,401,407,407,409,411,407,411,409,409,409,406,415,409,408,406,412,408,408,413,413,413,413,412,241,249,249,249,252,357,431,471,518,552,561,572,558,556,542,537,530,523,514,505,498,498,484,473,464,456,446,440,432,423,413,402,262,260,255,252,253,247,182,182,182,182,182,182,182,182,182,182,182,182,182,182,182,182,181,181,182,182,182,182,182,182,182,182,181,344,328,352,329,346,358,636,709,781,800,854,798,826,772,788,785,772,759,706,694,717,689,691,678,664,649,624,623,610,566,570,531,532,387,337,348,357,358,313,318,318,322,321,325,319,326,317,327,320,319,323,325,331,331,329,326,327,321,332,332,328,330,323,330,323,483,484,484,488,490,575,917,1021,1138,1194,1196,1177,1168,1147,1119,1098,1078,1060,1048,1022,1002,982,964,949,927,909,887,794,777,761,597,528,517,503,494,489,490,473,447,445,447,452,450,454,449,453,451,454,449,449,455,458,459,463,458,455,458,450,461,462,459,460,453,461,454,644,645,648,645,665,874,1227,1382,1491,1574,1580,1554,1528,1495,1482,1460,1432,1407,1387,1360,1334,1309,1285,1260,1219,1202,1191,1064,1041,1019,912,696,694,667,652,662,650,639,615,617,621,623,623,623,623,622,623,623,623,623,623,623,623,623,622,622,623,623,623,623,623,623,623,623,622,135,135,135,204,162,164,223,241,258,274,288,284,280,278,274,271,267,264,261,258,254,250,248,244,241,237,234,230,226,224,220,217,213,210,166,162,162,164,107,109,106,107,108,109,110,114,109,107,110,112,111,107,108,109,109,108,109,109,106,107,106,108,109,107,105,0,0,0,0,0,0,0,0,0,0,0,0,0,0,0,0,0,0,0,0,0,0,0,0,0,0,0,0,0,0,0,0,0,0,0,0,0,0,0,0,0,0,0,0,0,0,0,0,0,0,0,0,0,0,0,0,0,0,0,0,0,0,0,0,0,214,214,216,217,218,339,385,431,463,478,493,489,486,482,477,473,470,466,462,459,451,442,432,425,415,408,400,392,384,375,367,358,319,316,310,256,256,257,168,165,166,165,168,171,167,172,167,171,170,169,171,169,172,171,170,170,170,171,172,168,169,169,169,169,168,400,402,401,404,406,428,750,837,928,988,996,979,973,957,931,913,896,880,873,853,832,817,801,790,770,757,738,646,632,619,587,534,540,418,410,405,406,387,364,364,367,367,368,368,368,367,366,370,371,367,368,370,371,370,370,373,372,370,370,371,372,373,371,373,369,525,528,528,528,536,696,1000,1091,1198,1295,1284,1282,1272,1224,1222,1187,1167,1142,1123,1110,1089,1070,1042,1022,1008,980,959,944,933,799,784,753,639,556,536,533,535,527,494,503,505,505,507,508,509,513,508,506,509,511,510,506,507,508,508,507,508,508,502,506,505,507,508,506,504,960,965,967,974,1022,1534,1979,2174,2283,2342,2324,2287,2266,2232,2175,2142,2114,2066,2034,2002,1966,1916,1882,1842,1816,1785,1497,1219,1336,1166,1109,1046,1005,988,987,976,981,973,947,949,943,955,954,953,953,954,956,954,950,955,953,955,954,953,957,956,957,953,956,955,951,951,951,951,950,419,420,420,423,415,584,764,840,931,984,992,980,948,951,972,925,885,870,901,889,861,856,840,819,806,792,752,736,740,690,651,570,545,470,416,425,426,451,395,396,398,403,397,404,400,404,410,401,405,398,402,402,398,399,402,402,402,403,402,403,404,410,408,410,408,887,887,866,868,927,1456,1885,2065,2178,2250,2246,2221,2176,2133,2110,2080,2041,2008,1971,1938,1911,1878,1844,1764,1728,1577,1559,1518,1379,1244,1131,1044,915,911,899,895,900,884,895,893,897,896,903,898,903,903,903,903,903,903,903,903,903,903,902,902,903,903,903,902,901,903,899,902,900,317,302,318,304,320,377,541,609,658,723,745,732,724,718,709,697,686,674,664,631,635,631,601,591,582,571,561,552,541,531,516,508,399,366,349,305,345,344,270,276,274,276,277,277,274,276,273,280,273,276,277,285,283,293,282,278,278,277,278,285,278,279,274,280,274,1161,1178,1173,1198,1282,1851,2437,2611,2708,2782,2792,2734,2666,2622,2566,2526,2496,2454,2396,2341,2332,2289,2215,2211,1878,2115,1806,1650,1376,1278,1290,1253,1230,1206,1186,1180,1173,1168,1173,1163,1173,1175,1173,1185,1183,1180,1186,1184,1180,1182,1183,1185,1184,1183,1187,1186,1187,1183,1186,1185,1181,1181,1181,1181,1180,838,842,844,850,865,1238,1740,1944,2047,2088,2110,2097,2017,1968,1954,1938,1862,1825,1838,1766,1751,1754,1589,1514,1603,1574,1424,1377,1252,1042,941,911,906,868,876,863,858,876,844,841,847,845,858,854,863,866,859,863,861,861,863,866,866,866,865,865,866,866,864,863,863,863,862,863,862,769,776,774,781,810,1282,1518,1758,1849,1889,1889,1932,1819,1821,1807,1737,1706,1714,1639,1637,1579,1620,1524,1311,1479,1440,1387,1256,1104,1060,863,845,927,848,776,805,807,839,800,794,800,806,809,816,804,815,805,805,820,805,813,809,815,818,815,819,816,807,810,815,813,821,820,830,825,620,629,609,625,635,709,1117,1177,1318,1366,1340,1423,1335,1337,1306,1307,1330,1286,1246,1263,1233,1207,1201,1138,1127,1097,1031,1022,961,903,766,719,644,649,640,635,618,616,591,585,584,590,593,595,596,598,593,597,601,601,602,606,604,607,597,606,605,609,609,609,603,613,607,602,601,816,837,840,838,913,1460,1648,1831,1969,2047,2036,2005,1974,1941,1910,1830,1838,1814,1783,1798,1672,1640,1656,1624,1640,1561,1528,1485,1382,1022,1005,952,880,873,832,848,854,852,845,846,849,856,865,855,854,860,859,858,859,861,859,879,873,869,861,859,864,858,854,873,859,859,859,859,859,1059,1063,1073,1056,1115,1715,2173,2417,2490,2549,2548,2508,2466,2417,2379,2347,2294,2273,2211,2172,2136,2099,2062,2022,1983,1926,1787,1432,1345,1199,1179,1142,1103,1086,1081,1074,1080,1081,1047,1037,1051,1053,1054,1046,1051,1053,1050,1055,1057,1050,1052,1055,1057,1056,1058,1059,1054,1054,1053,1054,1052,1057,1054,1051,1051,525,533,528,530,544,685,1000,1080,1239,1290,1262,1272,1221,1231,1210,1190,1170,1149,1128,1107,1088,1066,1046,987,963,943,924,944,902,884,690,674,658,603,536,540,535,527,499,500,512,528,510,518,503,508,503,500,509,504,502,512,513,515,514,519,506,513,514,516,518,515,513,513,512,328,329,331,332,332,411,589,660,730,796,817,804,790,777,764,751,739,726,712,700,688,674,661,653,643,622,609,602,583,570,558,429,418,409,337,333,334,335,311,308,308,312,313,312,311,317,309,315,318,312,311,317,315,312,315,320,315,316,315,315,314,318,316,314,314,90,91,92,92,137,138,158,175,193,211,228,224,220,218,212,210,207,202,199,195,193,187,185,181,177,173,170,167,162,159,155,152,148,144,141,137,137,138,47,48,47,49,49,51,48,49,47,48,49,48,48,51,49,49,49,51,49,49,52,49,49,51,47,49,48,192,193,193,194,195,301,339,377,416,454,478,471,464,456,447,440,433,426,418,411,397,396,388,381,373,366,358,351,343,336,328,320,313,306,298,271,272,272,176,177,176,177,178,179,178,182,177,179,182,177,178,181,182,180,182,184,179,179,182,183,178,182,183,181,181,348,350,351,352,353,372,626,707,781,854,874,859,847,828,817,799,786,777,760,742,732,717,703,688,675,663,648,634,539,526,450,439,429,368,360,354,355,356,313,306,305,307,307,309,308,310,305,315,312,306,310,314,314,310,313,315,310,309,309,314,309,312,313,311,311,805,796,799,827,932,1381,1561,1737,1875,1956,1947,1917,1886,1856,1825,1795,1755,1734,1704,1720,1632,1656,1581,1551,1520,1490,1495,1429,1398,1064,995,949,840,828,820,806,808,810,816,817,834,845,846,808,842,861,830,833,837,836,844,849,847,843,867,817,836,836,848,847,824,824,824,824,824,261,291,263,264,264,312,472,477,579,630,612,684,592,613,602,592,583,572,562,553,586,532,523,468,459,450,441,511,440,453,442,326,318,322,314,309,265,266,234,226,222,224,236,239,235,231,228,235,241,236,237,242,240,243,229,238,240,244,243,244,233,238,242,227,226,340,340,342,343,348,408,575,598,629,661,678,671,664,658,652,645,639,633,626,620,614,608,621,595,607,591,592,581,558,553,428,423,416,402,396,348,347,348,274,280,275,282,282,288,278,282,277,278,282,277,276,289,283,287,287,289,286,286,307,286,286,291,275,281,280,0,0,0,0,0,0,0,0,0,0,0,0,0,0,0,0,0,0,0,0,0,0,0,0,0,0,0,0,0,0,0,0,0,0,0,0,0,0,0,0,0,0,0,0,0,0,0,0,0,0,0,0,0,0,0,0,0,0,0,0,0,0,0,0,0,266,267,268,269,269,291,476,530,587,646,668,659,649,634,627,612,602,595,580,571,562,549,538,528,517,506,496,486,394,384,308,301,294,288,276,270,272,272,228,225,228,229,228,228,227,229,226,231,233,228,229,231,235,232,234,236,230,231,230,230,229,233,231,227,227,480,482,484,478,491,688,886,988,1080,1169,1183,1171,1138,1125,1105,1087,1064,1051,1032,1009,989,976,952,941,907,903,865,872,841,828,792,684,562,512,500,507,489,490,467,469,468,471,470,471,472,476,469,471,474,469,472,477,495,476,474,478,475,475,490,479,472,492,475,475,475,872,859,862,865,927,1249,1671,1928,2046,2082,2080,2037,2006,1981,1938,1920,1887,1839,1813,1780,1739,1711,1674,1645,1612,1582,1542,1520,1384,1165,1045,932,936,908,867,865,867,882,840,832,836,840,836,843,841,843,837,841,843,841,840,849,850,845,848,848,844,843,845,846,845,846,845,847,847,257,258,259,338,339,338,469,523,577,628,595,588,640,612,565,558,580,571,560,550,541,530,520,510,500,489,480,469,459,448,439,428,418,344,265,261,340,263,256,260,259,264,265,260,264,265,260,260,261,264,261,264,264,265,260,260,265,264,266,262,264,296,260,264,262,1040,1073,1072,1112,1275,1921,2258,2455,2567,2623,2674,2565,2526,2484,2445,2406,2356,2325,2292,2298,2202,2172,2129,2055,1896,1858,1816,1574,1439,1343,1263,1140,1152,1087,1080,1074,1066,1091,1059,1055,1075,1118,1063,1078,1063,1082,1077,1070,1081,1088,1083,1086,1101,1098,1084,1085,1076,1099,1104,1090,1119,1087,1092,1094,1093,393,395,396,397,400,565,739,772,910,967,944,960,914,928,913,897,882,866,850,835,822,806,789,729,715,700,686,711,674,680,667,648,618,468,403,399,400,385,370,373,361,381,385,374,378,381,374,374,377,385,387,376,367,373,376,381,375,372,370,370,369,371,379,369,368,1046,1051,1057,1078,1131,1674,2118,2359,2460,2500,2462,2456,2420,2385,2325,2293,2238,2228,2176,2158,2110,2061,2030,1981,1983,1891,1866,1657,1465,1181,1147,1154,1076,1074,1094,1057,1092,1102,1065,1061,1066,1064,1064,1067,1072,1078,1069,1077,1077,1070,1076,1079,1080,1075,1078,1078,1079,1077,1075,1076,1075,1080,1078,1078,1078,769,776,774,781,810,1282,1518,1758,1849,1889,1889,1932,1819,1821,1807,1737,1706,1714,1639,1637,1579,1620,1524,1311,1479,1440,1387,1256,1104,1060,863,845,927,848,776,805,807,839,800,794,800,806,809,816,804,815,805,805,820,805,813,809,815,818,815,819,816,807,810,815,813,821,820,830,825,677,694,681,685,718,819,1350,1512,1607,1694,1642,1644,1684,1588,1543,1598,1502,1465,1450,1435,1438,1357,1355,1229,1117,1305,1242,1110,1009,932,835,756,710,700,689,702,687,721,678,671,678,684,687,691,680,688,682,681,692,683,691,686,691,692,689,690,690,690,690,690,690,690,689,689,688,655,650,660,646,676,1002,1169,1286,1404,1474,1487,1461,1440,1418,1397,1376,1358,1362,1339,1326,1301,1272,1225,1236,1210,1188,1133,1088,1133,990,900,840,683,680,669,666,664,652,596,598,601,608,601,603,605,610,602,602,602,602,602,602,602,602,602,602,602,602,603,604,602,603,601,601,600,942,945,955,968,1016,1626,2075,2306,2454,2483,2465,2449,2407,2376,2328,2266,2234,2176,2138,2091,2040,1997,1946,1901,1854,1807,1765,1707,1473,1158,1108,1034,1004,979,970,964,962,975,918,924,924,929,934,928,940,933,923,921,924,922,935,929,933,928,937,936,928,927,934,932,937,919,925,923,922,861,864,888,865,924,1436,1695,1883,2016,2068,2081,2038,2008,1980,1948,1914,1872,1848,1809,1795,1743,1677,1680,1644,1627,1586,1556,1432,1284,1153,975,946,933,893,906,882,895,886,828,834,829,838,839,831,837,838,838,838,838,838,834,838,837,838,838,837,838,836,836,836,836,836,836,836,836,557,559,561,563,580,748,1056,1184,1297,1363,1379,1357,1336,1314,1291,1269,1248,1226,1204,1189,1161,1138,1110,1095,1072,1051,1028,1008,984,891,871,742,661,591,584,577,571,575,518,523,522,529,521,527,530,528,520,520,523,519,520,523,524,520,521,524,521,523,524,525,525,521,522,519,518,236,237,238,239,240,295,423,470,516,561,585,566,558,548,540,531,531,513,505,496,487,478,475,462,462,444,435,428,426,409,362,354,348,300,264,240,240,241,189,185,186,190,191,191,187,190,186,191,191,190,190,194,191,188,189,189,189,189,189,189,189,189,188,188,187,291,293,294,295,299,361,514,580,645,703,733,723,711,698,685,674,661,651,637,628,616,603,591,580,567,556,543,534,523,512,498,489,319,311,305,300,300,301,191,192,191,192,204,201,194,198,194,203,197,195,196,195,194,197,197,196,200,194,198,200,197,203,195,197,194,110,111,111,112,112,171,193,214,236,259,273,268,265,260,256,252,248,243,240,235,231,226,223,218,214,210,205,201,196,193,188,184,180,176,171,112,160,169,54,54,54,55,56,58,54,55,54,55,55,55,57,58,58,56,56,56,56,56,56,56,56,56,55,55,54,143,143,159,160,161,175,251,280,309,339,360,356,349,344,339,332,327,322,314,309,304,298,292,286,281,275,270,264,258,253,246,240,235,179,176,162,172,173,100,97,95,96,105,103,100,102,103,108,106,117,118,120,106,106,112,106,109,105,118,119,119,119,119,119,118,996,1005,1002,1017,1056,1663,1982,2213,2363,2425,2422,2389,2350,2310,2262,2232,2192,2156,2116,2090,2039,2000,1949,1923,1883,1808,1773,1683,1407,1179,1153,1076,1058,1032,1020,1012,968,981,924,929,930,933,939,933,944,939,929,927,930,928,941,935,938,933,943,942,933,935,940,937,943,923,928,926,925,311,313,313,314,315,427,553,616,678,741,769,760,745,733,721,709,697,685,672,661,650,637,625,612,601,588,577,564,554,540,529,440,429,419,320,316,317,319,239,239,240,242,240,244,242,246,244,244,244,244,244,244,244,244,244,244,244,244,245,246,244,245,243,243,242,424,425,423,427,432,502,792,842,958,1037,1066,1035,1029,1013,980,964,965,907,891,879,889,867,853,839,823,797,785,762,759,738,700,504,495,447,478,428,428,406,341,346,342,347,353,351,348,354,349,349,349,349,349,349,349,348,348,349,349,349,350,351,349,350,348,348,347,264,268,268,270,272,319,466,526,582,635,664,656,644,634,620,610,600,590,578,570,560,547,535,527,514,505,493,486,475,467,454,444,290,283,279,272,273,274,163,163,163,163,175,170,165,169,166,175,168,167,168,164,165,168,168,165,171,165,166,171,168,175,167,168,165,0,0,0,0,0,0,0,0,0,0,0,0,0,0,0,0,0,0,0,0,0,0,0,0,0,0,0,0,0,0,0,0,0,0,0,0,0,0,0,0,0,0,0,0,0,0,0,0,0,0,0,0,0,0,0,0,0,0,0,0,0,0,0,0,0,388,389,391,392,388,508,721,796,875,938,937,939,908,904,884,870,866,841,826,831,798,787,774,750,750,764,706,706,682,672,657,518,571,404,397,411,392,389,345,346,346,349,348,350,348,349,346,347,347,347,351,354,359,352,348,348,348,348,348,348,348,348,347,347,346,671,673,691,693,692,754,1318,1462,1583,1642,1645,1628,1582,1574,1547,1503,1494,1468,1443,1409,1383,1337,1334,1309,1269,1242,1216,1190,1173,1123,875,771,723,706,701,690,700,694,626,626,626,626,630,630,635,638,634,637,633,633,631,634,632,647,638,634,635,629,628,632,632,632,632,632,632,230,242,223,224,244,301,421,464,531,528,573,571,583,573,564,554,519,516,525,465,457,498,470,478,446,442,433,440,430,373,403,402,373,304,299,293,292,226,224,225,223,228,234,233,235,236,233,237,236,235,237,231,233,238,236,234,236,236,233,235,236,236,236,236,236,1100,1080,1086,1153,1326,2000,2575,2740,2861,2861,2846,2794,2743,2687,2644,2593,2526,2510,2427,2390,2320,2258,2201,2168,2133,2073,1934,1697,1492,1256,1224,1170,1159,1148,1106,1114,1106,1139,1073,1081,1085,1075,1084,1087,1090,1102,1096,1086,1095,1103,1099,1097,1112,1103,1091,1090,1091,1109,1114,1099,1122,1093,1101,1100,1099,429,431,431,433,440,525,791,884,976,1048,1069,1052,1036,1018,1001,985,967,945,934,916,899,883,861,849,831,814,822,781,762,747,729,538,509,466,450,440,440,437,378,374,374,378,377,387,378,384,392,389,380,385,379,383,385,377,386,386,385,383,383,386,390,390,390,390,388,891,885,903,911,932,1364,1775,1974,2097,2116,2113,2085,2044,2021,2005,1933,1918,1909,1859,1808,1785,1751,1731,1686,1660,1611,1583,1544,1297,1179,1090,968,936,922,914,913,915,915,852,856,859,856,861,856,867,873,864,873,863,863,861,864,862,873,873,863,865,859,858,862,862,862,862,862,862,677,694,681,685,718,819,1350,1512,1607,1694,1642,1644,1684,1588,1543,1598,1502,1465,1450,1435,1438,1357,1355,1229,1117,1305,1242,1110,1009,932,835,756,710,700,689,702,687,721,678,671,678,684,687,691,680,688,682,681,692,683,691,686,691,692,689,690,690,690,690,690,690,690,689,689,688,348,348,349,351,352,380,739,723,800,858,1015,854,841,826,907,942,918,901,757,744,816,715,702,687,674,660,754,709,618,534,393,384,375,365,356,352,354,355,363,368,353,356,374,383,370,389,377,433,380,435,393,441,381,441,383,369,388,377,389,440,433,433,433,433,389,598,600,602,604,621,764,1119,1223,1307,1390,1357,1343,1330,1354,1289,1270,1270,1237,1270,1248,1222,1201,1178,1158,1134,1112,1031,932,915,1004,858,778,637,623,640,607,608,599,593,585,589,590,604,601,597,594,599,597,607,597,600,601,607,605,608,601,605,596,608,607,598,607,598,610,601,767,777,777,780,863,1496,1770,1971,2082,2127,2094,2049,2010,1986,1932,1892,1857,1818,1789,1740,1696,1658,1638,1592,1540,1501,1462,1449,1384,1178,1111,913,890,803,790,790,787,778,780,774,786,786,779,793,785,790,791,793,822,798,797,798,800,833,801,802,789,800,801,800,819,799,797,823,811,988,987,990,996,1061,1633,2068,2227,2348,2378,2378,2325,2274,2248,2210,2198,2133,2100,2070,2031,2005,1944,1934,1879,1841,1820,1786,1580,1331,1170,1161,1064,1008,1022,1010,1021,997,1004,964,965,963,967,968,967,968,972,968,968,972,972,971,967,968,973,968,968,971,969,969,971,969,972,970,970,970,379,380,381,382,384,626,709,788,871,922,930,915,901,886,872,858,848,834,814,804,786,771,757,742,728,714,699,685,670,656,642,550,541,507,388,384,385,387,384,380,380,380,381,378,383,381,384,382,381,383,387,387,387,387,434,388,387,388,387,436,440,439,387,384,438,150,151,151,152,179,236,266,297,327,358,375,369,363,357,351,345,339,333,328,322,316,310,304,298,292,286,280,274,268,262,258,252,246,240,234,180,180,180,122,123,121,125,126,125,126,130,126,126,130,130,129,125,126,131,126,126,129,127,127,129,127,130,128,128,128,454,455,456,460,462,618,831,928,1026,1113,1126,1108,1089,1072,1053,1035,1018,998,981,963,944,927,910,892,874,864,837,821,787,739,669,654,539,476,466,461,464,439,375,376,375,385,395,390,383,392,384,399,398,390,396,386,385,395,400,389,391,387,387,392,386,387,387,386,386,285,285,286,287,288,358,504,563,622,686,706,696,685,674,662,651,640,628,618,607,595,590,573,561,550,540,528,517,506,495,483,463,452,364,292,288,350,290,252,253,256,261,261,261,257,266,256,262,263,262,261,261,262,267,261,262,264,259,263,264,261,262,262,261,261,315,316,317,330,337,448,566,644,710,767,790,777,767,753,741,728,715,703,688,678,663,652,639,627,614,610,602,579,575,564,475,464,453,441,341,338,371,346,247,248,246,250,251,250,251,255,251,251,255,255,254,250,251,256,251,251,254,252,252,254,252,255,253,253,253,835,838,835,844,929,1593,1839,2054,2163,2191,2157,2134,2094,2061,2022,1997,1933,1908,1862,1852,1789,1738,1700,1666,1635,1598,1548,1509,1355,1187,1152,932,888,864,851,850,798,784,786,779,792,790,784,798,789,796,797,799,843,804,802,804,805,838,807,808,794,805,807,805,838,803,800,826,825,438,434,446,436,441,555,798,915,951,1050,1017,1003,988,1020,958,973,930,942,901,909,934,876,859,845,828,847,794,812,795,759,587,574,549,473,463,464,460,443,408,409,409,417,419,416,419,428,413,421,424,431,419,417,419,425,417,420,425,428,420,420,421,422,422,421,421,527,508,509,511,523,670,997,1121,1198,1292,1252,1234,1212,1238,1172,1154,1133,1111,1093,1073,1093,1032,1010,991,971,987,931,946,924,838,712,695,561,548,536,558,535,480,467,467,469,472,475,472,476,476,475,482,477,496,500,499,481,481,476,476,482,473,472,476,478,480,480,477,476,426,429,431,433,435,569,776,867,959,1044,1059,1041,1025,1007,989,974,957,939,923,907,888,871,857,839,823,814,789,773,739,694,625,609,497,460,439,435,437,411,347,347,347,356,364,361,354,364,356,370,370,362,365,355,356,366,369,358,362,358,355,363,357,358,358,357,357,372,372,374,374,376,475,667,746,834,909,922,908,894,880,864,850,836,820,806,792,784,770,748,730,715,703,688,680,637,604,514,501,489,449,380,377,378,360,299,300,298,302,303,302,303,307,303,303,307,307,306,302,303,308,303,303,306,304,304,306,304,307,305,305,305,0,0,0,0,0,0,0,0,0,0,0,0,0,0,0,0,0,0,0,0,0,0,0,0,0,0,0,0,0,0,0,0,0,0,0,0,0,0,0,0,0,0,0,0,0,0,0,0,0,0,0,0,0,0,0,0,0,0,0,0,0,0,0,0,0,674,676,689,682,713,968,1303,1453,1588,1654,1653,1627,1600,1574,1548,1521,1495,1468,1473,1416,1389,1363,1336,1310,1284,1257,1231,1204,1079,1054,966,732,715,698,687,684,703,704,676,680,674,680,687,678,689,693,679,685,686,687,690,686,689,694,689,686,692,690,690,692,690,693,691,691,691,544,547,548,554,562,687,1036,1092,1265,1300,1282,1261,1252,1281,1269,1232,1232,1172,1127,1118,1141,1124,1084,1075,1024,1024,1014,982,810,781,800,723,703,580,564,561,565,551,482,483,481,485,486,485,486,490,486,486,490,490,489,485,486,491,486,486,489,487,487,489,487,490,488,488,488,921,923,941,968,1048,1859,2197,2326,2427,2492,2467,2376,2376,2330,2307,2238,2197,2109,2101,2058,2036,1984,1917,1836,1790,1780,1735,1659,1458,1304,1013,983,968,960,942,937,943,948,966,981,976,984,983,988,980,989,984,984,996,993,995,992,1014,1026,984,984,1001,995,987,996,996,998,991,994,992,329,324,325,326,327,460,620,693,735,841,802,789,777,811,752,739,726,714,700,688,716,662,650,637,625,649,598,621,608,595,580,535,521,360,352,408,348,350,308,316,315,323,331,335,324,333,317,340,322,320,322,324,330,330,328,321,327,317,330,330,320,326,318,325,318,724,739,727,717,771,1158,1400,1528,1654,1740,1750,1724,1717,1657,1642,1616,1588,1561,1522,1507,1467,1443,1426,1380,1363,1326,1299,1275,1264,1197,1000,777,770,753,756,740,741,734,743,738,735,741,738,741,756,746,740,764,756,745,743,758,762,771,769,769,765,754,786,775,770,758,745,748,742,348,348,349,351,352,380,739,723,800,858,1015,854,841,826,907,942,918,901,757,744,816,715,702,687,674,660,754,709,618,534,393,384,375,365,356,352,354,355,363,368,353,356,374,383,370,389,377,433,380,435,393,441,381,441,383,369,388,377,389,440,433,433,433,433,389,908,915,919,931,1001,1543,1840,2034,2156,2219,2184,2179,2158,2108,2043,2023,2002,1938,1932,1869,1873,1776,1803,1754,1732,1681,1647,1526,1372,1012,989,1008,943,925,936,922,928,932,932,926,922,926,934,956,952,955,941,953,966,957,953,954,953,969,1032,948,961,960,962,969,963,965,967,967,967,1176,1178,1156,1195,1271,1969,2418,2569,2661,2691,2729,2640,2573,2621,2517,2452,2502,2381,2353,2313,2335,2293,2254,2111,2014,1803,1769,1660,1300,1307,1298,1268,1204,1221,1191,1155,1158,1174,1143,1146,1153,1156,1182,1187,1167,1195,1176,1193,1188,1189,1180,1170,1170,1185,1175,1170,1186,1177,1161,1175,1172,1215,1174,1179,1163,1312,1387,1380,1511,2096,2836,3338,3473,3539,3533,3501,3448,3383,3320,3252,3188,3145,3065,2998,2960,2706,2676,2316,2180,2145,1837,1783,1655,1585,1546,1484,1428,1379,1349,1368,1352,1372,1419,1411,1414,1421,1425,1423,1446,1435,1428,1426,1432,1452,1432,1430,1440,1443,1461,1433,1437,1434,1451,1444,1433,1442,1430,1425,1456,1435,333,344,345,346,337,559,612,682,752,846,822,808,795,806,793,780,745,732,740,727,714,699,708,654,642,646,652,603,590,577,564,552,542,350,342,338,339,340,334,336,334,337,355,344,341,359,344,471,347,348,473,476,467,490,351,341,352,341,338,356,347,357,348,350,344,1016,1019,1024,1030,1147,1635,2155,2319,2413,2455,2446,2412,2370,2331,2280,2251,2200,2171,2140,2098,2061,2025,1985,1930,1909,1853,1691,1676,1555,1250,1223,1086,1096,1050,1033,1029,1032,1006,997,1001,1008,1007,1031,1018,1014,1013,1007,1015,1035,1009,1012,1013,1023,1037,1027,1017,1019,1013,1013,1019,1018,1013,1010,1042,1019,647,649,666,656,699,1068,1305,1430,1546,1594,1592,1567,1577,1516,1493,1467,1441,1416,1384,1364,1339,1313,1292,1266,1235,1210,1186,1163,1131,1107,871,805,775,789,660,672,659,661,625,629,632,651,653,660,645,679,647,663,667,677,662,653,654,666,641,641,659,663,648,642,651,683,651,654,644,870,875,873,869,932,1453,1795,1987,2064,2094,2112,2085,2016,2018,1956,1951,1915,1856,1851,1805,1774,1747,1713,1671,1643,1610,1464,1344,1177,1301,1001,946,928,944,893,870,828,789,742,747,742,763,777,783,778,799,779,786,787,793,771,762,765,782,767,771,781,774,765,772,772,825,770,775,759,668,661,654,675,672,1070,1300,1477,1568,1633,1607,1608,1554,1545,1508,1487,1482,1431,1408,1403,1377,1350,1325,1270,1264,1228,1214,1167,1149,1101,787,768,738,763,675,663,680,650,604,610,605,615,636,643,636,650,630,646,645,656,636,626,624,639,629,627,640,635,621,629,625,684,628,633,617,526,529,530,532,534,821,1023,1134,1242,1301,1303,1283,1263,1243,1223,1202,1180,1160,1139,1117,1098,1075,1053,1033,1011,990,969,949,926,906,779,754,691,669,540,535,536,525,479,484,481,489,527,541,508,541,515,526,528,524,519,496,501,524,508,494,517,503,492,527,515,539,523,521,505,1258,1300,1310,1449,2147,2905,3405,3553,3609,3622,3588,3521,3468,3404,3326,3272,3214,3151,3091,3034,2679,2641,2362,2259,2008,1890,1826,1766,1528,1484,1429,1397,1324,1294,1286,1296,1331,1383,1416,1420,1425,1430,1428,1450,1439,1434,1432,1438,1440,1437,1436,1445,1448,1432,1439,1442,1439,1465,1430,1438,1446,1433,1428,1448,1435,869,870,860,870,896,1483,1799,1976,2062,2094,2086,2070,2020,2011,1962,1922,1906,1855,1837,1810,1771,1737,1705,1652,1638,1604,1529,1489,1196,1257,1036,1014,927,934,874,888,867,835,790,796,792,799,822,831,827,840,819,835,834,843,822,812,812,827,817,815,828,824,811,817,814,872,816,821,805,985,986,985,992,1033,1746,2076,2248,2340,2381,2370,2330,2272,2262,2184,2142,2143,2090,2064,2030,1992,1953,1915,1861,1843,1803,1693,1528,1326,1396,1087,1065,1020,1045,992,1006,928,939,892,901,905,906,928,939,929,945,924,940,939,948,927,916,916,932,922,920,933,929,916,922,919,977,921,926,910,846,848,850,852,872,1397,1725,1920,1997,2030,2047,2021,1955,1957,1897,1892,1859,1800,1795,1749,1721,1694,1662,1621,1595,1562,1416,1299,1133,1263,956,918,901,916,864,854,800,760,713,719,713,734,748,754,750,771,750,758,759,762,742,733,736,751,738,742,749,745,736,741,744,796,741,746,730,638,640,642,646,657,945,1274,1410,1521,1571,1570,1544,1520,1499,1476,1449,1423,1400,1374,1347,1322,1296,1271,1245,1220,1194,1169,1144,1117,1047,907,807,687,732,653,650,652,596,550,556,550,559,578,589,581,596,575,591,590,599,578,568,568,583,573,571,584,579,565,573,569,629,573,578,562,762,764,766,771,794,1083,1508,1684,1797,1849,1850,1816,1788,1767,1727,1706,1673,1637,1621,1591,1558,1533,1495,1457,1449,1402,1369,1356,1326,1204,1032,1011,807,791,774,769,771,745,738,736,745,743,747,754,745,750,744,751,774,751,746,750,752,773,754,752,752,750,749,751,751,754,744,774,756,0,0,0,0,0,0,0,0,0,0,0,0,0,0,0,0,0,0,0,0,0,0,0,0,0,0,0,0,0,0,0,0,0,0,0,0,0,0,0,0,0,0,0,0,0,0,0,0,0,0,0,0,0,0,0,0,0,0,0,0,0,0,0,0,0,752,754,754,760,776,1245,1537,1701,1797,1856,1834,1806,1790,1753,1739,1688,1659,1684,1607,1576,1548,1518,1483,1453,1433,1393,1348,1321,1308,1240,1099,944,794,837,766,764,765,757,712,717,720,717,738,746,746,758,734,750,748,759,739,730,729,744,734,734,741,740,724,736,732,788,735,740,724,1356,1365,1429,1562,2470,3225,3672,3827,3857,3869,3851,3793,3743,3611,3587,3508,3432,3352,3041,2729,2617,2533,2285,2262,2146,2027,1975,1695,1627,1583,1535,1467,1422,1392,1385,1378,1393,1443,1568,1585,1567,1606,1591,1615,1604,1621,1614,1619,1642,1623,1620,1619,1626,1608,1613,1611,1627,1635,1612,1617,1616,1631,1628,1624,1611,901,910,924,940,972,1439,1918,2062,2139,2208,2200,2154,2138,2090,2068,2020,1988,1925,1884,1860,1843,1811,1782,1753,1703,1668,1636,1440,1297,1241,997,977,967,994,920,932,901,906,894,880,881,889,904,912,899,933,909,927,927,912,908,908,913,945,929,910,916,929,908,925,921,950,901,903,888,495,496,490,500,498,591,925,1029,1108,1184,1190,1172,1154,1117,1158,1095,1064,1064,1046,1028,992,991,957,955,937,919,901,883,865,832,829,811,679,575,497,502,504,496,494,502,502,512,511,510,512,528,499,511,507,498,508,532,512,510,546,523,503,500,511,509,498,508,507,510,500,908,915,919,931,1001,1543,1840,2034,2156,2219,2184,2179,2158,2108,2043,2023,2002,1938,1932,1869,1873,1776,1803,1754,1732,1681,1647,1526,1372,1012,989,1008,943,925,936,922,928,932,932,926,922,926,934,956,952,955,941,953,966,957,953,954,953,969,1032,948,961,960,962,969,963,965,967,967,967,834,853,842,838,900,1261,1643,1840,1998,2040,2043,2030,1972,1930,1898,1879,1839,1815,1790,1769,1713,1688,1589,1421,1557,1554,1411,1318,1148,957,944,969,952,901,858,850,860,846,829,827,827,827,835,834,829,834,830,831,833,833,834,834,835,854,838,839,832,836,834,840,840,873,846,852,850,760,760,742,771,801,1088,1410,1543,1672,1702,1720,1693,1651,1634,1590,1594,1609,1591,1557,1530,1518,1489,1460,1416,1378,1391,1274,1250,1142,1060,805,804,821,796,760,737,749,779,743,745,745,745,753,752,747,752,748,749,751,751,752,752,753,764,756,757,750,754,752,758,757,761,756,758,757,988,991,1003,1012,1070,1658,1995,2234,2379,2445,2383,2403,2320,2293,2267,2225,2209,2169,2125,2072,2026,1981,1936,1940,1881,1864,1802,1742,1435,1251,1159,1079,1048,1026,1016,1007,1010,1009,985,995,999,1007,1010,1004,1004,1018,999,1019,1019,1016,1022,1021,1035,1027,1019,1014,1017,1014,1012,1029,1014,1017,1012,1018,1018,962,969,968,991,1012,1572,1925,2157,2263,2318,2302,2253,2199,2200,2163,2116,2084,2055,1987,1980,1938,1885,1879,1822,1795,1760,1720,1427,1067,1072,1038,1024,1004,1014,998,971,972,992,970,961,972,973,983,974,975,980,976,977,979,977,979,980,979,1000,984,984,978,981,979,986,985,998,987,993,990,658,659,660,679,695,852,1304,1462,1599,1609,1659,1581,1555,1529,1504,1479,1516,1426,1402,1377,1408,1358,1300,1275,1249,1271,1198,1172,1147,984,963,849,783,680,669,674,676,691,661,663,664,661,676,672,672,672,670,671,671,671,673,677,679,682,677,681,673,677,677,683,684,686,676,675,674,389,391,399,393,395,504,716,798,902,962,969,950,938,923,907,892,876,861,845,830,814,798,783,767,753,736,720,705,691,636,542,530,518,416,401,406,407,409,340,338,338,338,346,345,340,345,341,342,344,344,345,345,346,350,349,350,343,347,345,351,350,372,345,351,349,258,260,260,261,262,335,472,526,581,633,647,636,627,616,606,596,584,575,565,555,544,533,523,511,502,492,481,471,461,450,440,430,421,340,370,263,327,327,235,233,234,235,235,236,237,236,234,236,234,235,238,242,240,239,259,242,237,238,241,241,238,243,237,238,237,253,275,257,258,259,372,463,515,568,616,632,618,612,603,592,582,573,562,552,543,532,522,512,502,490,482,472,461,453,444,434,424,414,316,263,260,260,285,205,203,203,203,211,210,205,210,206,207,209,209,210,210,211,218,214,215,208,212,210,216,216,239,212,218,216,247,248,248,249,250,338,440,490,542,606,619,610,598,589,579,571,560,549,540,530,520,510,500,490,481,471,460,451,441,432,421,411,402,338,254,251,252,252,235,232,230,231,236,237,237,244,241,240,247,239,266,240,246,244,258,253,249,240,244,248,243,240,236,283,234,966,971,971,990,1024,1577,1952,2140,2288,2355,2348,2316,2284,2253,2194,2162,2128,2090,2050,2016,1978,1939,1893,1868,1818,1792,1758,1706,1408,1292,1071,1037,1026,995,988,981,984,987,962,968,985,992,1001,961,992,988,996,991,1011,993,998,1009,1017,1008,1011,978,981,994,991,993,982,1005,995,996,996,392,393,394,410,399,513,732,816,900,957,1000,950,934,919,904,889,874,904,843,829,898,828,783,768,753,814,722,708,692,718,662,526,513,411,401,398,399,432,384,388,387,388,395,395,390,395,391,392,393,388,391,395,394,398,397,396,393,397,395,398,395,399,391,396,395,509,511,513,517,520,584,894,962,1031,1084,1094,1081,1068,1054,1042,1029,1016,1002,990,976,966,969,955,941,920,914,885,871,855,723,711,583,555,523,523,511,520,505,463,464,463,467,468,472,469,470,461,469,465,464,465,482,474,479,494,481,472,476,486,480,474,481,467,470,469,231,232,234,235,236,369,419,467,516,564,578,569,560,552,541,532,523,514,506,496,488,477,467,458,449,441,431,423,413,405,396,387,377,368,240,236,236,237,207,204,206,206,206,205,208,207,206,208,205,207,210,211,211,210,237,211,208,209,209,212,209,212,209,209,208,164,165,165,166,172,259,293,328,362,398,412,406,400,393,387,381,374,367,361,354,348,340,334,327,321,314,308,301,295,289,282,276,268,262,175,173,173,174,151,149,149,149,157,156,151,156,152,153,155,155,156,156,157,162,160,161,154,158,156,162,161,234,157,163,160,541,541,552,547,548,673,1014,1128,1274,1332,1337,1314,1284,1269,1248,1222,1205,1178,1157,1142,1120,1110,1077,1057,1023,1001,991,971,961,811,792,594,694,580,555,558,556,551,496,494,494,494,502,501,496,501,497,498,500,500,501,501,502,514,505,506,499,503,501,507,507,531,504,510,508,776,778,772,779,817,1197,1507,1672,1823,1899,1891,1843,1826,1772,1751,1738,1707,1655,1646,1600,1587,1539,1525,1493,1467,1440,1411,1381,1334,1165,1043,934,803,800,790,777,784,779,763,761,764,761,773,773,774,780,772,778,774,775,774,776,775,808,784,781,775,774,771,782,782,792,779,787,779,0,0,0,0,0,0,0,0,0,0,0,0,0,0,0,0,0,0,0,0,0,0,0,0,0,0,0,0,0,0,0,0,0,0,0,0,0,0,0,0,0,0,0,0,0,0,0,0,0,0,0,0,0,0,0,0,0,0,0,0,0,0,0,0,0,1134,1136,1146,1168,1264,2073,2563,2804,2899,2946,2922,2856,2817,2743,2700,2646,2597,2542,2516,2440,2396,2350,2297,2228,2175,2140,1934,1629,1520,1289,1286,1211,1177,1172,1156,1136,1143,1149,1147,1145,1141,1149,1170,1132,1154,1146,1165,1177,1172,1172,1171,1200,1186,1182,1200,1196,1186,1202,1202,1202,1199,1203,1198,1200,1194,524,526,528,544,544,730,1016,1137,1240,1291,1328,1274,1251,1233,1210,1192,1243,1149,1128,1107,1153,1098,1046,1026,1005,1029,963,943,925,881,772,727,560,546,536,532,534,549,513,514,519,527,518,529,517,521,517,511,525,521,534,534,535,531,521,530,526,530,532,522,524,533,512,524,523,997,990,990,1007,1161,1640,1997,2184,2298,2367,2348,2305,2273,2214,2181,2162,2148,2074,2053,2002,1987,1946,1924,1875,1836,1796,1772,1595,1367,1345,1077,1061,1016,1017,1013,994,1007,1007,993,991,994,991,993,1003,1004,1015,1002,1012,1004,1005,1004,1006,1005,1035,1008,1011,1005,1004,1001,1012,1012,1022,1010,1017,1009,834,853,842,838,900,1261,1643,1840,1998,2040,2043,2030,1972,1930,1898,1879,1839,1815,1790,1769,1713,1688,1589,1421,1557,1554,1411,1318,1148,957,944,969,952,901,858,850,860,846,829,827,827,827,835,834,829,834,830,831,833,833,834,834,835,854,838,839,832,836,834,840,840,873,846,852,850,1057,1080,1092,1084,1530,2001,2385,2780,2876,2893,2820,2821,2752,2688,2677,2588,2526,2477,2452,2430,2284,2258,2202,2202,2093,2040,1925,1832,1728,1520,1180,1148,1115,1084,1075,1077,1109,1091,1119,1140,1122,1137,1139,1132,1136,1146,1142,1143,1154,1136,1151,1139,1146,1152,1151,1156,1173,1157,1162,1137,1177,1177,1157,1168,1153,728,732,731,735,797,1211,1492,1848,1931,1996,1949,1912,1906,1869,1822,1795,1758,1720,1683,1651,1582,1573,1536,1498,1461,1424,1386,1350,1312,1178,1147,787,825,752,740,740,745,739,732,727,734,734,730,730,732,736,738,731,733,739,735,739,751,743,738,737,741,753,751,750,741,755,743,741,737,412,413,415,416,420,589,745,817,888,934,955,932,919,906,894,880,867,854,841,828,823,801,788,775,762,748,735,722,657,644,631,620,437,428,420,417,419,420,412,411,416,421,427,423,416,416,420,428,424,427,422,435,426,433,425,420,424,424,420,423,413,429,421,423,414,1334,1344,1404,1539,2555,3003,3606,3744,3806,3800,3729,3654,3577,3523,3424,3348,3271,3258,3118,3055,2994,2889,2805,2491,2405,2123,2111,1885,1565,1514,1464,1420,1379,1366,1396,1372,1385,1405,1536,1546,1547,1554,1565,1551,1558,1575,1552,1576,1581,1557,1568,1577,1582,1564,1566,1581,1566,1578,1565,1563,1581,1581,1558,1562,1565,714,716,717,721,783,1195,1481,1859,1962,1988,1986,1904,1898,1861,1813,1785,1747,1715,1671,1639,1638,1558,1521,1483,1446,1408,1370,1332,1294,1269,1129,842,749,739,727,727,732,760,722,724,722,744,728,728,748,764,729,724,729,781,768,726,727,736,733,734,731,735,725,729,727,736,737,734,725,928,927,929,950,1032,1646,2039,2390,2444,2498,2442,2397,2381,2334,2287,2250,2194,2149,2106,2066,1988,1968,1921,1884,1830,1783,1736,1689,1593,1233,1184,993,993,951,961,966,937,936,919,924,937,941,945,934,938,941,936,950,952,950,945,962,951,950,952,955,956,961,956,951,958,952,948,952,948,1074,1078,1079,1091,1157,1822,2307,2414,2494,2512,2497,2484,2420,2406,2343,2306,2290,2229,2191,2152,2169,2076,2092,2019,2013,1923,1935,1728,1446,1341,1154,1137,1105,1088,1080,1079,1069,1067,1057,1047,1062,1063,1073,1051,1055,1056,1063,1076,1076,1079,1069,1089,1076,1077,1089,1077,1075,1076,1083,1080,1073,1068,1088,1082,1080,1027,1031,1033,1051,1158,1849,2230,2613,2679,2737,2669,2677,2602,2551,2493,2452,2402,2361,2312,2261,2180,2157,2108,2058,2008,1961,1910,1751,1532,1273,1225,1096,1066,1055,1057,1045,1043,1044,1053,1058,1033,1029,1066,1051,1047,1053,1047,1058,1080,1055,1071,1098,1086,1081,1067,1080,1076,1096,1090,1075,1071,1085,1078,1082,1059,1103,1103,1105,1153,1297,2062,2436,2805,2864,2896,2840,2788,2765,2711,2660,2620,2551,2505,2448,2408,2323,2313,2243,2204,2137,2017,1953,1792,1510,1312,1252,1195,1142,1127,1118,1119,1062,1061,1044,1049,1062,1066,1070,1059,1063,1066,1061,1075,1077,1075,1070,1087,1076,1075,1077,1080,1081,1086,1081,1076,1083,1077,1073,1077,1073,358,359,360,360,362,384,638,699,759,806,819,808,796,786,774,763,752,740,729,717,760,694,684,673,661,650,638,627,563,553,542,532,380,372,365,362,363,364,356,358,353,358,368,361,366,365,363,368,376,376,376,364,368,376,372,368,372,371,362,365,373,364,364,367,364,939,945,951,931,1041,1598,1929,2290,2374,2419,2380,2345,2335,2268,2240,2211,2169,2119,2071,2053,1964,1946,1906,1862,1804,1769,1718,1663,1520,1236,1080,1016,968,945,946,930,900,902,893,887,900,899,909,887,885,894,891,911,915,911,903,917,906,892,917,907,904,908,912,909,908,907,912,919,911,905,908,909,912,1007,1581,1947,2133,2196,2221,2191,2190,2124,2121,2088,2040,2019,1957,1970,1890,1928,1812,1816,1783,1723,1690,1657,1609,1459,1316,1191,971,968,932,920,944,911,908,889,876,891,890,920,882,882,890,890,913,914,907,897,919,914,905,919,904,908,903,912,907,900,906,919,916,914,1048,1052,1052,1062,1223,1893,2279,2491,2571,2587,2570,2557,2492,2476,2413,2373,2358,2295,2256,2216,2212,2140,2142,2079,2039,1980,1857,1745,1493,1344,1201,1116,1099,1076,1065,1065,1041,1038,1029,1018,1033,1035,1044,1022,1034,1028,1037,1048,1048,1048,1040,1060,1047,1046,1060,1056,1043,1047,1054,1055,1045,1039,1059,1053,1051,1114,1118,1121,1152,1281,2052,2446,2820,2885,2940,2859,2863,2792,2740,2678,2633,2580,2539,2482,2431,2345,2320,2268,2213,2160,2044,1992,1785,1503,1380,1266,1184,1161,1143,1132,1108,1095,1102,1096,1101,1086,1084,1122,1104,1103,1109,1103,1114,1129,1110,1122,1139,1128,1127,1121,1132,1130,1138,1133,1125,1118,1129,1125,1129,1108,807,808,810,814,888,1379,1694,2078,2155,2214,2163,2122,2113,2071,2020,1988,1947,1905,1869,1827,1755,1740,1699,1658,1616,1575,1532,1492,1450,1268,1215,870,843,832,820,821,826,832,817,827,829,842,849,840,837,861,829,844,835,864,831,844,852,881,872,868,860,855,845,837,835,843,848,846,832,1485,1490,1507,1664,2031,2989,3347,3669,3708,3735,3658,3612,3576,3508,3429,3373,3305,3241,3179,3111,2981,2621,2261,1901,1881,1889,1828,1758,1743,1640,1627,1568,1530,1507,1508,1499,1500,1499,1482,1487,1500,1504,1508,1497,1501,1504,1499,1513,1515,1513,1508,1525,1514,1513,1515,1518,1519,1524,1519,1514,1521,1515,1511,1515,1511,1187,1180,1195,1275,1355,2210,2695,2872,2961,2968,3024,2938,2873,2815,2790,2680,2692,2577,2524,2476,2453,2368,2320,2296,2248,2197,2014,1903,1559,1312,1290,1250,1205,1202,1174,1177,1221,1213,1217,1208,1217,1225,1238,1218,1235,1246,1253,1261,1261,1249,1262,1252,1241,1243,1262,1259,1264,1264,1265,1265,1266,1259,1257,1258,1252,0,0,0,0,0,0,0,0,0,0,0,0,0,0,0,0,0,0,0,0,0,0,0,0,0,0,0,0,0,0,0,0,0,0,0,0,0,0,0,0,0,0,0,0,0,0,0,0,0,0,0,0,0,0,0,0,0,0,0,0,0,0,0,0,0,782,767,768,772,841,1296,1631,1977,2050,2149,2064,2034,2035,1978,1939,1935,1878,1832,1818,1794,1672,1658,1618,1579,1539,1500,1469,1420,1384,1344,1183,896,813,790,795,779,784,791,789,782,796,798,797,795,790,798,800,798,807,798,802,805,804,817,806,809,796,811,796,800,792,802,803,809,800,1432,1449,1535,1697,2200,3033,3444,3728,3788,3830,3751,3685,3639,3580,3522,3453,3387,3310,3249,3190,2874,2627,2567,2627,2344,2111,1807,1740,1678,1628,1572,1518,1486,1468,1462,1479,1494,1516,1552,1568,1567,1573,1589,1572,1577,1602,1585,1576,1578,1594,1593,1604,1619,1625,1611,1591,1604,1606,1614,1594,1580,1591,1590,1588,1574,1057,1080,1092,1084,1530,2001,2385,2780,2876,2893,2820,2821,2752,2688,2677,2588,2526,2477,2452,2430,2284,2258,2202,2202,2093,2040,1925,1832,1728,1520,1180,1148,1115,1084,1075,1077,1109,1091,1119,1140,1122,1137,1139,1132,1136,1146,1142,1143,1154,1136,1151,1139,1146,1152,1151,1156,1173,1157,1162,1137,1177,1177,1157,1168,1153,661,675,658,666,682,1125,1310,1456,1636,1693,1693,1682,1676,1607,1595,1578,1551,1533,1460,1448,1417,1374,1345,1316,1321,1275,1230,1161,1113,989,824,832,783,711,678,684,716,690,678,669,673,672,673,669,673,679,674,680,671,676,679,703,683,684,681,685,680,679,678,691,683,700,690,725,701,313,295,333,333,428,493,534,499,530,559,572,566,560,554,590,543,537,531,595,588,582,574,567,561,554,581,539,531,311,307,412,299,447,453,403,429,394,430,289,273,275,277,273,282,278,286,282,279,285,277,278,277,277,281,280,280,278,279,278,277,278,281,280,285,283,636,641,638,640,688,1083,1279,1491,1722,1786,1764,1729,1707,1671,1630,1598,1585,1539,1503,1470,1428,1385,1361,1324,1297,1263,1242,1208,1164,1116,974,779,745,665,650,648,655,651,628,629,632,638,634,639,647,643,637,637,643,643,650,647,648,651,638,639,642,641,642,642,642,639,639,639,639,1160,1173,1172,1185,1283,2154,2536,2694,2764,2801,2760,2716,2670,2633,2595,2542,2473,2465,2433,2387,2324,2281,2211,2214,2160,1845,1740,1526,1538,1438,1255,1249,1201,1186,1176,1186,1178,1178,1174,1169,1179,1184,1183,1190,1190,1198,1189,1190,1198,1198,1184,1185,1186,1191,1185,1183,1190,1190,1188,1180,1183,1188,1179,1189,1185,241,242,242,243,245,299,425,474,559,600,601,594,584,574,593,585,577,568,561,552,542,496,487,477,469,459,450,440,430,421,411,321,313,306,298,245,246,247,228,224,223,226,261,245,236,246,238,243,240,233,241,230,231,245,237,228,247,230,227,244,241,247,240,244,240,356,344,359,351,362,571,664,741,819,876,885,872,858,820,807,816,801,787,774,759,745,730,717,675,688,674,661,646,632,619,604,542,493,514,365,362,363,355,356,356,359,359,359,361,360,356,361,362,384,357,360,363,382,362,384,387,363,362,360,364,361,366,388,364,362,378,380,381,382,385,417,688,787,851,912,917,905,892,880,868,864,850,835,821,807,793,782,762,745,731,716,701,686,671,614,559,547,468,397,388,384,385,387,314,322,319,326,330,327,323,326,316,329,321,320,321,329,329,331,328,327,326,319,328,327,324,330,316,326,319,344,344,346,347,348,564,637,710,781,843,853,840,825,812,799,786,771,758,745,732,717,704,691,677,663,650,636,623,609,597,582,513,501,361,352,349,404,351,333,325,331,334,334,344,336,356,351,335,362,335,337,336,338,347,342,342,338,343,338,337,340,343,344,380,344,460,462,463,465,466,732,882,981,1078,1137,1142,1124,1106,1091,1069,1051,1033,1014,997,980,962,942,925,904,886,868,850,831,813,773,745,661,493,481,471,466,475,461,433,424,426,434,437,446,437,446,442,439,445,439,440,434,436,443,439,436,444,445,437,440,437,450,442,446,440,705,700,707,710,732,1160,1378,1561,1791,1871,1852,1819,1793,1749,1709,1674,1649,1627,1596,1561,1508,1466,1443,1418,1383,1359,1320,1294,1217,1129,1015,780,755,738,716,717,723,657,634,635,637,644,638,644,652,647,643,643,649,649,656,652,654,656,643,645,648,646,647,648,647,644,644,644,644,160,160,160,237,242,224,274,302,302,321,336,332,327,324,320,316,313,309,306,302,298,295,310,304,300,294,288,283,277,275,266,261,233,249,248,160,160,160,132,134,134,137,141,136,137,137,135,138,136,137,135,138,138,140,138,136,137,135,135,137,135,138,133,138,135,231,232,233,250,265,246,407,458,506,553,583,573,562,555,544,535,527,518,508,499,491,480,468,457,448,438,430,421,412,402,378,273,250,355,270,234,235,236,169,171,171,176,180,173,175,175,173,177,176,178,193,195,197,181,175,173,176,175,173,174,174,175,170,176,172,351,352,354,356,357,386,637,728,786,843,850,838,828,815,804,803,789,776,762,748,737,727,706,692,678,665,651,638,623,569,541,530,458,452,361,357,359,360,286,293,291,297,301,296,294,297,288,301,292,292,293,298,300,302,299,296,297,290,296,298,295,299,288,297,290,430,432,432,435,436,660,816,910,1001,1060,1069,1052,1033,1016,1000,984,966,949,934,915,898,880,863,847,829,813,794,777,762,745,727,547,537,445,435,436,437,410,385,383,385,392,387,399,392,405,396,391,404,391,390,391,391,395,392,392,392,395,392,390,391,393,391,398,393,373,375,376,383,385,522,675,752,838,914,928,914,899,899,885,885,855,839,817,809,802,774,753,738,724,699,694,670,656,642,627,471,485,476,384,380,381,382,370,355,359,362,357,371,363,379,373,366,380,360,363,362,362,368,366,366,363,367,363,362,363,365,365,365,365,889,920,900,901,952,1662,1878,2044,2134,2164,2152,2123,2087,2052,2022,1984,1950,1915,1880,1862,1815,1777,1747,1754,1685,1643,1545,1571,1336,1081,979,955,931,914,904,905,908,899,897,895,900,905,904,905,912,918,902,911,908,905,905,906,907,912,906,904,904,905,910,901,904,909,900,910,906,541,558,548,549,579,647,1012,1185,1249,1300,1303,1286,1269,1262,1235,1264,1230,1183,1170,1168,1105,1134,1069,1083,1042,1021,976,971,928,866,786,632,580,578,568,564,566,557,526,531,523,530,540,537,546,545,531,538,539,546,540,534,539,542,544,536,540,535,531,536,531,542,534,547,528,773,796,772,774,873,1453,1638,1912,2123,2142,2148,2107,2078,2002,2011,1905,1913,1834,1829,1771,1747,1695,1652,1627,1550,1510,1492,1450,1387,1202,1020,963,892,820,790,788,791,813,792,790,791,792,802,796,798,807,804,826,819,810,812,801,830,818,824,813,802,819,814,818,815,811,811,811,811,0,0,0,0,0,0,0,0,0,0,0,0,0,0,0,0,0,0,0,0,0,0,0,0,0,0,0,0,0,0,0,0,0,0,0,0,0,0,0,0,0,0,0,0,0,0,0,0,0,0,0,0,0,0,0,0,0,0,0,0,0,0,0,0,0,1085,1091,1093,1137,1235,1842,2248,2438,2556,2627,2600,2547,2497,2466,2404,2385,2366,2331,2252,2200,2185,2143,2074,2064,1880,1986,1810,1650,1451,1326,1294,1188,1161,1106,1118,1106,1115,1111,1101,1092,1101,1100,1098,1119,1103,1108,1121,1120,1111,1103,1111,1114,1115,1127,1128,1125,1110,1115,1122,1120,1115,1109,1109,1109,1109,661,675,658,666,682,1125,1310,1456,1636,1693,1693,1682,1676,1607,1595,1578,1551,1533,1460,1448,1417,1374,1345,1316,1321,1275,1230,1161,1113,989,824,832,783,711,678,684,716,690,678,669,673,672,673,669,673,679,674,680,671,676,679,703,683,684,681,685,680,679,678,691,683,700,690,725,701,908,923,890,930,1003,1636,1959,2068,2157,2197,2181,2151,2116,2082,2044,2010,1976,1940,1905,1872,1837,1801,1779,1706,1695,1662,1621,1526,1317,1014,994,965,962,946,916,922,936,940,922,929,926,932,928,933,934,937,933,954,935,928,934,937,955,954,955,943,943,952,944,943,944,953,937,951,942,1232,1236,1270,1330,1555,2091,2654,2809,2875,2905,2888,2908,2798,2817,2714,2660,2687,2626,2608,2563,2522,2471,2448,2169,2150,1896,1536,1543,1503,1400,1358,1313,1280,1263,1289,1249,1258,1250,1259,1247,1243,1259,1248,1255,1262,1268,1268,1258,1259,1253,1269,1272,1272,1266,1262,1268,1262,1266,1265,1275,1269,1275,1265,1260,1260,1332,1341,1387,1512,2219,2971,3513,3623,3673,3688,3649,3582,3508,3441,3374,3308,3251,3183,3116,3049,2999,2820,2572,2545,2332,2196,1977,1751,1604,1548,1517,1439,1401,1369,1363,1386,1393,1417,1467,1466,1477,1476,1476,1486,1497,1486,1476,1481,1479,1478,1484,1492,1493,1493,1481,1486,1482,1501,1498,1484,1492,1477,1480,1478,1478,546,544,562,558,566,852,1071,1195,1276,1345,1348,1310,1311,1290,1248,1226,1206,1204,1179,1162,1123,1120,1099,1060,1039,1035,1023,985,964,990,883,822,801,707,560,567,559,560,560,553,560,564,564,660,569,612,565,688,606,561,567,560,561,571,568,567,570,560,560,564,567,571,569,681,600,1076,1078,1082,1090,1190,1825,2352,2488,2570,2609,2594,2554,2502,2461,2417,2376,2339,2295,2253,2211,2168,2127,2100,2056,2012,1971,1925,1855,1580,1220,1214,1180,1141,1118,1102,1099,1091,1075,1053,1053,1069,1059,1085,1058,1067,1071,1057,1064,1059,1055,1066,1065,1073,1072,1075,1066,1067,1063,1067,1071,1066,1060,1065,1062,1062,757,766,761,763,785,1173,1599,1730,1828,1858,1854,1881,1806,1759,1729,1700,1674,1646,1615,1586,1555,1525,1495,1466,1459,1406,1375,1346,1317,1163,924,901,820,795,780,774,776,778,749,749,748,750,754,749,752,762,748,752,750,749,751,753,753,752,753,752,750,750,754,754,751,751,750,749,749,1062,1051,1071,1072,1170,1832,2317,2430,2515,2565,2557,2473,2435,2380,2378,2305,2314,2271,2215,2188,2146,2088,2056,2005,1977,1824,1691,1588,1363,1293,1176,1166,1134,1105,1088,1078,991,983,970,974,988,987,985,979,979,1001,983,985,982,980,983,988,985,984,991,986,986,986,987,995,982,982,981,980,980,850,837,853,887,897,1449,1809,1935,2028,2083,2076,2012,1983,1935,1919,1874,1898,1840,1806,1772,1738,1706,1657,1623,1618,1575,1517,1491,1385,1112,950,938,916,906,881,868,848,845,833,837,838,841,844,836,839,853,835,839,837,836,838,840,840,839,840,839,837,837,841,841,838,838,837,836,836,716,719,722,744,771,1195,1465,1617,1714,1762,1764,1720,1692,1659,1642,1605,1593,1564,1534,1508,1478,1448,1423,1392,1387,1335,1296,1268,1166,1111,1080,971,773,764,740,734,736,720,706,706,706,714,718,712,714,723,709,713,711,710,712,714,714,713,714,713,711,711,715,715,712,712,711,710,710,1277,1283,1321,1436,2321,2911,3493,3687,3740,3770,3728,3656,3596,3521,3466,3397,3325,3258,3152,3091,3007,2725,2471,2368,2163,1998,1935,1792,1547,1492,1436,1384,1345,1314,1307,1330,1333,1361,1432,1427,1434,1460,1480,1492,1467,1477,1467,1487,1482,1462,1489,1497,1484,1492,1486,1463,1488,1473,1446,1488,1469,1480,1483,1481,1462,1054,1048,1061,1065,1176,1762,2306,2428,2511,2558,2544,2471,2429,2380,2370,2312,2313,2260,2214,2169,2137,2088,2036,2006,1977,1895,1839,1607,1311,1282,1180,1161,1118,1096,1082,1077,1039,1030,1019,1024,1024,1030,1033,1027,1029,1042,1029,1033,1030,1029,1032,1034,1032,1032,1034,1033,1031,1031,1034,1035,1030,1028,1027,1026,1026,1168,1156,1178,1205,1276,1964,2543,2707,2755,2810,2774,2731,2674,2602,2588,2540,2501,2458,2414,2369,2344,2283,2244,2193,2160,2059,1821,1737,1451,1320,1276,1236,1244,1209,1179,1155,1123,1116,1095,1098,1096,1096,1101,1096,1099,1111,1097,1102,1120,1119,1120,1106,1104,1099,1101,1102,1097,1096,1102,1101,1097,1100,1096,1095,1095,1036,1027,1044,1042,1108,1768,2250,2363,2451,2500,2493,2412,2374,2321,2320,2249,2258,2215,2159,2135,2093,2037,2006,1957,1929,1776,1646,1544,1319,1248,1149,1128,1101,1078,1060,1058,963,954,942,945,959,956,956,950,951,973,954,957,954,949,954,959,956,953,962,957,954,957,958,965,954,953,952,951,951,829,830,833,842,864,1414,1741,1896,1984,2029,2025,1977,1945,1908,1885,1848,1828,1792,1764,1732,1700,1666,1635,1601,1591,1535,1491,1459,1298,1034,1006,1000,887,877,853,847,807,791,779,782,784,786,791,781,785,798,786,790,786,785,789,791,788,788,791,792,788,786,790,790,787,785,784,783,783,820,821,824,830,843,1214,1709,1862,1945,2003,1998,1972,1927,1897,1863,1831,1805,1772,1739,1708,1676,1643,1620,1583,1550,1520,1484,1453,1410,1189,1104,897,879,859,842,838,831,814,794,788,792,794,800,794,798,808,794,800,798,797,800,802,802,805,802,801,800,800,803,803,799,801,799,799,799,371,372,373,375,377,495,692,774,855,913,924,909,895,880,865,992,836,820,806,792,777,762,747,840,717,703,688,674,660,644,630,669,600,390,524,516,378,379,378,381,388,418,384,417,380,390,384,382,384,384,378,388,387,420,388,420,388,418,422,422,388,419,382,389,387,939,944,979,984,989,1637,2022,2217,2312,2292,2283,2306,2200,2178,2127,2104,2057,2020,2010,1961,1914,1876,1863,1866,1794,1711,1671,1665,1548,1226,1175,1099,997,987,984,968,968,953,941,952,942,946,948,948,947,957,945,948,946,946,951,952,949,949,954,949,949,945,953,953,946,947,946,945,945,1376,1386,1427,1557,2588,3083,3663,3941,4014,4031,3999,3921,3814,3736,3646,3562,3483,3401,3215,2977,2862,2539,2367,2343,2179,2118,1758,1733,1646,1590,1534,1482,1444,1412,1414,1412,1429,1442,1533,1538,1552,1564,1664,1660,1609,1626,1566,1676,1609,1582,1675,1681,1672,1668,1686,1643,1670,1649,1628,1680,1611,1678,1685,1675,1598,1032,971,991,1032,1050,1532,2088,2262,2318,2362,2351,2377,2266,2229,2192,2155,2134,2085,2047,2009,1972,1977,1918,1858,1843,1804,1742,1597,1444,1395,1077,1050,1096,1010,993,990,976,977,984,970,970,977,969,970,980,989,983,981,981,976,992,991,993,986,984,989,984,989,987,994,989,1001,982,977,977,0,0,0,0,0,0,0,0,0,0,0,0,0,0,0,0,0,0,0,0,0,0,0,0,0,0,0,0,0,0,0,0,0,0,0,0,0,0,0,0,0,0,0,0,0,0,0,0,0,0,0,0,0,0,0,0,0,0,0,0,0,0,0,0,0,908,923,890,930,1003,1636,1959,2068,2157,2197,2181,2151,2116,2082,2044,2010,1976,1940,1905,1872,1837,1801,1779,1706,1695,1662,1621,1526,1317,1014,994,965,962,946,916,922,936,940,922,929,926,932,928,933,934,937,933,954,935,928,934,937,955,954,955,943,943,952,944,943,944,953,937,951,942,0,0,0,0,0,0,0,0,0,0,0,0,0,0,0,0,0,0,0,0,0,0,0,0,0,0,0,0,0,0,0,0,0,0,0,0,0,0,0,0,0,0,0,0,0,0,0,0,0,0,0,0,0,0,0,0,0,0,0,0,0,0,0,0,0,687,688,689,734,732,1241,1436,1618,1734,1776,1771,1739,1708,1677,1647,1617,1586,1556,1525,1495,1464,1432,1402,1371,1341,1310,1278,1252,1219,1188,1156,836,730,711,698,697,700,692,695,693,688,688,712,718,702,710,709,723,710,740,715,720,709,723,712,710,726,704,715,786,756,792,768,766,723,845,880,848,866,1040,1738,2060,2295,2382,2572,2396,2334,2305,2240,2193,2160,2114,2066,2005,1958,1911,1864,1818,1770,1735,1688,1660,1582,1512,1366,1029,993,898,877,860,878,862,869,885,871,877,871,899,895,887,899,891,902,894,895,906,912,909,901,898,903,898,899,895,908,891,897,897,895,894,981,984,988,1038,1329,2115,2461,2664,2743,2758,2727,2674,2635,2582,2514,2460,2407,2430,2299,2246,2192,2139,2085,2032,1978,1924,1872,1750,1622,1455,1419,1069,1035,1008,1000,1003,1011,1025,1044,1038,1048,1066,1049,1072,1048,1060,1053,1066,1078,1072,1064,1079,1075,1246,1074,1081,1076,1080,1240,1250,1084,1254,1075,1263,1241,552,554,556,557,652,979,1129,1280,1402,1450,1449,1424,1399,1374,1348,1322,1297,1272,1246,1221,1312,1170,1144,1119,1094,1068,1042,1017,992,967,940,879,715,576,564,562,564,567,559,553,562,637,564,572,556,561,566,565,635,568,572,564,557,572,647,568,559,566,566,568,568,560,571,645,562,432,434,435,436,442,662,879,1006,1009,1171,1071,1158,1038,1020,1003,986,969,952,934,918,974,884,867,849,832,816,799,782,764,747,730,682,641,452,442,439,440,423,416,410,417,420,413,416,413,422,418,416,418,414,416,418,416,421,419,422,421,419,421,421,418,456,417,422,420,737,739,744,747,801,1116,1545,1752,1765,1910,1798,1873,1748,1713,1685,1658,1632,1599,1571,1543,1588,1485,1458,1427,1397,1369,1328,1289,1177,1147,1127,831,811,762,752,750,748,676,669,664,677,687,680,673,676,680,690,685,678,678,677,677,680,693,682,684,681,679,684,680,675,698,675,680,678,567,569,571,588,587,809,1162,1326,1344,1498,1393,1474,1350,1332,1305,1286,1261,1241,1218,1197,1249,1150,1130,1107,1085,1062,1040,1017,996,973,926,701,683,589,579,576,592,553,546,545,553,555,549,547,549,552,554,549,550,546,552,554,552,556,555,557,553,555,556,555,550,575,550,555,553,598,600,601,615,645,980,1196,1426,1424,1578,1474,1553,1425,1401,1378,1356,1334,1310,1284,1261,1314,1215,1188,1172,1157,1133,1099,1085,981,959,937,819,746,638,628,618,627,548,541,535,542,545,538,541,538,547,543,541,543,539,541,543,541,546,544,547,546,544,546,546,543,581,542,547,545,914,916,919,920,1084,1821,2153,2361,2463,2651,2464,2417,2371,2324,2276,2230,2175,2133,2083,2041,1991,1955,1908,1865,1807,1768,1730,1609,1534,1280,1020,984,966,935,918,931,868,875,895,876,883,875,904,906,891,909,897,913,904,903,911,926,914,967,904,909,903,904,911,933,896,904,902,909,898,700,696,699,707,767,1145,1410,1580,1699,1779,1740,1711,1712,1653,1653,1598,1593,1562,1533,1502,1472,1468,1414,1384,1351,1322,1291,1263,1119,1078,987,880,739,724,708,706,708,692,694,698,699,712,704,707,708,709,703,710,705,701,706,712,710,711,712,713,712,711,706,705,705,712,708,710,693,792,770,772,809,837,1346,1640,1823,1934,2009,1963,1930,1896,1864,1829,1769,1761,1750,1697,1659,1625,1620,1588,1527,1491,1459,1423,1389,1255,1175,1032,836,820,828,796,780,758,729,732,740,738,763,750,745,754,768,747,767,768,780,776,772,751,757,749,752,752,749,743,744,742,749,746,747,730,710,713,718,720,764,1064,1481,1683,1698,1843,1734,1808,1684,1652,1624,1599,1573,1543,1515,1487,1535,1432,1405,1376,1347,1321,1280,1244,1133,1103,1010,789,753,735,725,722,720,648,640,636,648,658,649,644,647,652,662,656,650,650,646,648,651,664,651,655,652,647,655,651,646,670,646,651,649,648,651,658,661,678,926,1370,1548,1563,1710,1602,1681,1554,1533,1502,1481,1452,1428,1400,1377,1425,1323,1290,1272,1246,1221,1185,1149,1021,998,865,771,706,681,666,664,666,600,593,587,594,597,590,593,590,599,595,593,595,591,593,595,593,598,596,599,598,596,598,598,595,631,594,599,597,398,399,400,401,404,602,778,880,902,1035,968,1027,938,924,908,894,878,864,848,834,892,804,789,774,759,745,729,715,716,685,669,436,427,416,407,404,404,406,396,400,401,410,420,421,423,436,427,428,424,427,426,412,416,435,423,411,431,420,411,433,429,434,431,432,420,875,879,881,879,909,1395,1860,2000,2097,2140,2095,2097,2063,2028,1995,1969,1941,1896,1863,1826,1792,1758,1724,1689,1654,1593,1524,1526,1424,1451,1298,948,916,900,894,875,892,885,877,866,872,876,888,904,882,892,885,895,901,903,894,908,905,917,931,907,909,910,907,915,911,927,915,919,897,806,813,839,832,892,1190,1768,1970,1951,2063,1960,2097,1954,1937,1876,1875,1772,1729,1720,1730,1759,1636,1603,1587,1570,1538,1342,1314,1256,1188,1119,906,884,848,841,831,825,783,776,770,777,780,773,776,773,782,778,776,778,774,776,778,776,781,779,782,781,779,781,781,778,816,777,782,780,1010,1000,1008,1049,1271,2128,2570,2726,2724,2947,2787,2656,2604,2594,2498,2487,2456,2380,2326,2383,2240,2167,2113,2023,2006,1917,1863,1801,1541,1464,1123,1087,1038,1026,1016,999,1040,1033,1052,1055,1067,1080,1066,1081,1065,1080,1064,1077,1082,1076,1075,1079,1091,1116,1088,1088,1075,1085,1139,1084,1083,1081,1076,1099,1092,584,610,588,589,614,995,1202,1362,1482,1566,1526,1500,1473,1447,1430,1379,1366,1364,1312,1286,1269,1233,1206,1179,1153,1125,1099,1072,1020,943,853,665,647,608,596,594,596,582,598,585,581,589,590,603,599,600,593,613,605,590,597,622,619,619,613,613,604,619,607,612,607,602,591,589,581,814,816,812,820,819,1232,1644,1797,1915,1949,1930,1904,1870,1761,1820,1800,1742,1722,1701,1670,1615,1611,1563,1542,1522,1479,1448,1438,1407,1333,1255,1072,849,835,784,815,820,821,810,804,811,812,820,830,815,822,825,837,831,841,837,841,844,898,879,842,850,848,848,858,853,845,856,871,853,0,0,0,0,0,0,0,0,0,0,0,0,0,0,0,0,0,0,0,0,0,0,0,0,0,0,0,0,0,0,0,0,0,0,0,0,0,0,0,0,0,0,0,0,0,0,0,0,0,0,0,0,0,0,0,0,0,0,0,0,0,0,0,0,0 ]);
