n = 10;
D = [105,258,153,253,297,295,107,296,259,141 ];
q = 0;
prec = array2d(1..0,1..2,[]);
steps = 64;
l = 360;
r = 0;
which = [];
interval = array2d(1..0,1..2,[]);
T = array3d(1..11,1..11,0..64,[0,0,0,0,0,0,0,0,0,0,0,0,0,0,0,0,0,0,0,0,0,0,0,0,0,0,0,0,0,0,0,0,0,0,0,0,0,0,0,0,0,0,0,0,0,0,0,0,0,0,0,0,0,0,0,0,0,0,0,0,0,0,0,0,0,689,691,687,695,718,785,898,1004,1117,1101,1133,1105,1097,1079,1061,1042,1024,998,996,970,944,909,908,913,880,868,843,825,785,782,750,746,735,697,703,680,695,684,689,685,695,710,707,701,697,699,700,710,714,703,707,744,762,745,736,712,703,716,708,705,695,720,706,721,700,73,73,73,73,73,74,84,93,102,111,120,118,116,114,112,110,108,107,105,103,101,99,97,96,94,92,90,88,86,85,83,81,79,77,75,74,74,74,54,52,54,55,52,57,54,59,58,55,62,55,56,55,55,57,55,55,55,56,55,54,55,56,55,59,55,647,649,656,671,697,737,834,931,1018,1060,1062,1045,1033,1039,994,978,961,970,927,910,897,876,859,843,826,809,792,780,758,741,724,708,691,674,664,657,667,669,655,645,651,652,660,664,664,676,664,674,668,657,667,654,657,663,668,662,667,659,656,661,663,672,669,677,672,942,945,947,950,1122,1198,1414,1549,1635,1661,1649,1717,1658,1561,1624,1502,1472,1443,1414,1384,1355,1348,1296,1256,1257,1197,1178,1149,1109,1110,1061,1076,1002,975,960,962,964,989,988,984,971,986,985,980,977,1003,996,985,990,1049,1017,1030,1007,1061,1014,1039,1011,1000,1026,1034,1032,1016,1032,1007,1017,217,217,218,219,219,226,252,278,304,330,343,338,333,328,323,318,313,308,303,298,293,288,283,278,273,268,263,258,253,248,243,238,233,228,223,220,220,221,207,211,207,215,212,218,209,216,208,210,211,211,207,215,213,217,213,217,215,216,222,217,212,222,208,213,210,428,429,430,432,434,468,529,590,683,699,707,696,685,703,662,651,640,629,617,606,595,584,573,562,550,562,551,517,527,494,483,472,461,469,439,434,435,456,433,441,425,425,437,429,462,432,434,452,433,432,431,432,435,433,435,435,439,449,461,438,444,442,438,438,438,624,625,621,629,644,701,803,897,1008,994,1028,1001,995,978,962,946,929,904,904,880,855,822,823,829,798,789,765,749,711,709,679,677,667,631,637,614,629,617,621,619,625,630,629,637,638,644,637,636,642,631,630,629,630,639,632,628,636,631,637,626,630,638,625,639,632,411,412,414,415,416,504,514,573,625,680,689,678,659,648,645,626,616,605,601,583,572,569,558,547,536,519,508,497,486,481,470,459,443,438,422,423,424,425,412,416,417,422,430,437,434,431,425,429,431,431,425,435,429,444,430,422,431,424,426,431,430,427,420,422,420,763,765,766,777,788,904,1023,1142,1229,1267,1247,1209,1220,1229,1185,1147,1127,1107,1104,1085,1060,1028,994,985,955,963,945,910,899,867,850,844,807,803,775,770,771,792,783,778,787,806,792,794,787,795,795,799,807,789,802,830,851,832,828,807,786,813,794,790,784,818,802,817,792,0,0,0,0,0,0,0,0,0,0,0,0,0,0,0,0,0,0,0,0,0,0,0,0,0,0,0,0,0,0,0,0,0,0,0,0,0,0,0,0,0,0,0,0,0,0,0,0,0,0,0,0,0,0,0,0,0,0,0,0,0,0,0,0,0,670,625,623,635,649,716,814,900,980,1040,1025,1022,996,983,962,953,989,937,901,885,877,867,867,827,799,783,767,756,758,721,707,691,707,670,643,639,681,640,654,646,654,656,660,656,663,657,660,662,664,661,670,683,691,684,693,682,655,668,667,659,655,669,666,671,655,0,0,0,0,0,0,0,0,0,0,0,0,0,0,0,0,0,0,0,0,0,0,0,0,0,0,0,0,0,0,0,0,0,0,0,0,0,0,0,0,0,0,0,0,0,0,0,0,0,0,0,0,0,0,0,0,0,0,0,0,0,0,0,0,0,621,592,590,602,613,676,770,891,929,1031,976,1012,949,936,916,908,944,893,857,842,835,825,826,767,790,744,729,718,703,685,698,656,691,637,609,605,632,606,610,605,616,629,626,625,613,613,622,641,624,623,626,672,705,682,671,638,621,633,623,622,614,636,625,647,615,599,601,603,614,616,707,778,855,953,982,985,1008,954,938,923,943,891,910,872,856,829,813,798,782,796,751,735,748,704,688,672,683,641,650,612,608,610,635,621,610,615,628,616,619,621,629,621,617,622,615,626,629,636,631,629,625,617,634,625,617,619,640,626,636,623,825,827,866,906,885,1112,1189,1465,1453,1512,1478,1451,1424,1396,1369,1367,1315,1288,1309,1266,1295,1264,1167,1148,1099,1072,1037,1018,991,956,937,910,883,922,833,907,844,841,867,863,862,873,881,863,862,878,858,874,871,867,869,921,877,869,914,875,868,870,881,881,862,863,873,875,870,530,521,536,518,528,589,672,724,814,872,851,851,862,803,810,801,787,770,767,723,739,715,690,691,657,661,656,634,639,596,593,579,565,559,531,552,527,529,529,526,532,533,533,544,544,547,549,545,547,538,534,534,534,540,538,538,540,536,537,534,536,545,538,549,544,399,381,383,384,385,412,466,520,574,620,629,619,609,628,589,608,569,560,550,540,530,520,510,500,490,480,470,460,450,472,430,420,430,400,390,386,387,388,383,386,387,389,393,392,388,404,391,395,394,399,409,427,417,410,402,402,399,394,391,397,394,397,383,394,389,54,54,54,54,54,55,62,69,76,83,89,88,86,85,83,82,81,79,78,77,75,74,72,71,70,68,67,65,64,63,61,60,59,57,56,54,55,55,25,25,25,25,25,25,25,25,26,26,26,26,26,26,26,26,26,26,26,26,26,26,26,26,26,26,26,411,412,429,415,432,448,507,566,625,672,680,670,659,648,637,627,639,605,594,583,573,562,551,540,529,519,508,497,486,476,465,454,443,432,422,417,418,420,414,415,417,417,418,420,417,424,418,420,415,419,416,435,424,425,420,431,426,426,426,430,424,427,412,422,418,492,511,495,514,520,553,631,705,788,834,839,826,813,799,786,773,759,747,726,720,707,693,671,647,671,640,627,614,601,583,574,560,547,527,522,538,519,515,508,522,513,546,508,534,516,539,525,532,526,515,530,521,532,530,527,526,534,527,539,523,525,534,526,538,540,670,625,623,635,649,716,814,900,980,1040,1025,1022,996,983,962,953,989,937,901,885,877,867,867,827,799,783,767,756,758,721,707,691,707,670,643,639,681,640,654,646,654,656,660,656,663,657,660,662,664,661,670,683,691,684,693,682,655,668,667,659,655,669,666,671,655,99,100,100,100,101,102,114,126,138,150,160,158,155,153,150,148,146,143,141,139,136,134,131,129,127,124,122,120,117,115,112,110,108,105,103,101,101,101,85,85,85,85,87,87,86,89,89,88,87,86,86,86,86,89,87,85,87,86,86,86,87,88,87,88,87,675,677,666,667,714,757,886,980,1046,1109,1110,1102,1055,1057,1048,1002,985,968,950,933,941,898,905,862,869,828,811,794,791,780,755,724,706,702,675,672,673,675,663,672,676,698,683,674,675,682,678,679,672,675,677,679,676,678,686,686,687,684,679,683,684,715,713,715,712,0,0,0,0,0,0,0,0,0,0,0,0,0,0,0,0,0,0,0,0,0,0,0,0,0,0,0,0,0,0,0,0,0,0,0,0,0,0,0,0,0,0,0,0,0,0,0,0,0,0,0,0,0,0,0,0,0,0,0,0,0,0,0,0,0,646,648,647,644,660,726,822,918,1004,1046,1049,1032,1015,999,982,965,949,932,915,899,882,865,849,844,815,799,782,766,749,732,716,699,682,666,655,648,650,652,652,631,630,654,628,648,670,694,710,630,633,628,641,630,639,626,683,630,639,636,633,645,664,640,625,639,629,889,891,887,890,968,1196,1287,1540,1544,1582,1599,1642,1516,1488,1556,1508,1478,1359,1321,1398,1376,1260,1232,1203,1157,1142,1113,1089,1061,1028,1004,992,967,920,906,887,916,904,915,950,908,909,931,919,921,928,925,940,945,920,935,928,936,937,942,947,938,944,971,936,946,948,965,945,938,209,209,210,210,211,217,242,267,292,316,330,325,320,315,311,306,301,296,291,287,282,277,272,268,263,258,253,248,244,239,234,229,224,220,215,211,212,212,198,198,200,198,200,200,202,217,204,205,201,203,201,205,202,209,210,205,202,201,198,202,202,203,198,202,201,438,440,422,442,425,458,518,578,638,685,694,713,672,661,650,667,655,617,606,595,584,598,562,551,540,529,518,529,496,506,474,463,452,441,430,426,427,428,424,425,425,440,434,426,427,441,431,433,444,454,559,549,567,481,427,424,438,434,430,435,432,433,431,431,433,609,611,600,601,640,673,790,874,936,1001,1004,998,952,956,950,905,890,874,858,842,852,811,820,778,788,748,733,717,716,707,684,654,638,636,609,605,607,609,601,609,614,629,685,660,625,667,623,713,649,680,655,626,653,686,652,632,679,645,636,662,655,694,649,645,632,408,409,405,412,408,444,503,561,619,666,675,665,654,709,632,622,611,600,590,579,627,558,540,536,519,515,503,493,483,466,456,449,440,429,413,414,415,416,406,407,416,432,419,420,412,424,411,435,418,415,444,444,465,461,433,422,425,429,424,417,430,442,417,426,412,762,764,751,776,790,892,1004,1089,1215,1246,1252,1268,1204,1167,1173,1152,1132,1113,1092,1091,1044,1018,991,993,959,939,920,898,877,874,842,807,803,795,788,765,768,793,785,777,776,772,805,837,789,801,799,828,813,830,820,824,809,827,804,806,817,800,802,848,823,838,822,820,831,99,100,100,100,101,102,114,126,138,150,160,158,155,153,150,148,146,143,141,139,136,134,131,129,127,124,122,120,117,115,112,110,108,105,103,101,101,101,85,85,85,85,87,87,86,89,89,88,87,86,86,86,86,89,87,85,87,86,86,86,87,88,87,88,87,669,748,684,647,660,797,886,969,1075,1107,1195,1079,1062,1059,1028,1039,1022,991,977,960,953,908,913,889,854,840,849,832,766,735,738,699,746,711,698,651,733,682,667,676,680,702,687,678,680,685,683,685,678,679,682,684,680,684,691,691,693,689,685,689,690,722,718,721,716,596,598,600,602,614,674,765,855,938,1000,985,983,972,937,920,906,890,875,893,876,827,849,794,781,765,748,733,717,700,686,670,653,639,623,609,606,607,609,600,595,606,600,596,608,607,600,601,615,629,622,619,621,621,626,617,619,607,621,617,618,621,614,611,629,640,636,740,651,614,624,756,841,919,1025,1031,1186,1031,1014,1066,982,994,977,947,934,917,911,867,905,849,814,831,811,823,729,699,703,664,712,703,664,617,684,649,649,648,651,663,675,654,657,657,661,662,671,677,710,732,749,710,731,713,679,692,671,656,674,657,675,670,654,0,0,0,0,0,0,0,0,0,0,0,0,0,0,0,0,0,0,0,0,0,0,0,0,0,0,0,0,0,0,0,0,0,0,0,0,0,0,0,0,0,0,0,0,0,0,0,0,0,0,0,0,0,0,0,0,0,0,0,0,0,0,0,0,0,1219,1230,1260,1330,1447,1654,1998,2017,2166,2104,2079,2075,2031,1968,1937,1922,1898,1852,1831,1814,1740,1679,1667,1688,1572,1519,1494,1463,1431,1406,1348,1323,1280,1254,1287,1260,1268,1261,1318,1307,1297,1304,1318,1361,1342,1364,1341,1359,1359,1369,1371,1371,1355,1401,1389,1343,1361,1360,1367,1417,1378,1387,1390,1443,1384,596,612,611,573,579,712,779,912,947,981,977,961,942,938,916,941,905,876,874,886,842,811,791,795,762,766,731,740,682,652,658,620,641,626,628,576,618,607,614,605,610,626,605,614,613,624,618,626,630,616,603,606,613,611,622,621,615,642,640,616,622,611,614,609,606,292,293,294,295,296,324,366,392,433,472,484,476,469,461,453,462,455,447,505,431,453,400,392,385,377,370,362,354,347,339,331,324,316,309,301,297,297,298,276,277,277,278,278,279,280,280,281,281,282,284,284,285,286,286,287,288,288,289,289,291,291,292,293,293,293,531,533,534,536,543,593,672,751,828,892,879,879,869,836,821,808,794,781,800,786,738,762,709,697,683,668,654,640,625,612,599,583,570,556,543,539,541,542,548,540,534,538,540,541,593,591,542,578,564,542,539,577,595,606,601,606,600,613,602,583,576,561,545,547,548,348,349,350,333,334,371,420,469,483,524,535,527,554,510,502,526,517,508,499,490,481,445,437,429,443,412,425,416,388,380,372,364,355,367,367,335,363,364,339,345,343,345,342,338,347,345,348,346,340,343,339,346,343,347,349,355,341,341,343,348,351,350,345,342,342,437,439,440,441,443,490,541,597,665,713,721,710,699,709,670,658,653,642,630,619,607,596,585,592,562,551,539,528,517,500,489,482,471,460,448,444,445,446,439,442,442,447,444,444,453,449,444,444,444,445,445,449,449,449,442,445,449,449,452,448,448,455,445,447,448,669,748,684,647,660,797,886,969,1075,1107,1195,1079,1062,1059,1028,1039,1022,991,977,960,953,908,913,889,854,840,849,832,766,735,738,699,746,711,698,651,733,682,667,676,680,702,687,678,680,685,683,685,678,679,682,684,680,684,691,691,693,689,685,689,690,722,718,721,716,903,905,942,915,986,1107,1286,1507,1552,1592,1583,1642,1527,1499,1529,1442,1414,1386,1428,1376,1301,1273,1245,1217,1208,1160,1132,1104,1075,1047,1019,991,963,936,918,933,921,926,927,925,938,946,948,963,943,963,936,977,954,937,947,943,952,969,957,950,957,936,947,953,947,955,943,969,945,905,908,911,940,1006,1084,1265,1442,1445,1481,1488,1488,1429,1440,1428,1394,1335,1311,1287,1264,1240,1217,1223,1204,1146,1144,1099,1075,1051,1060,1024,981,957,954,922,919,921,964,968,969,945,954,951,969,961,977,975,1040,969,1008,1005,1009,978,1059,1015,966,968,959,996,1024,1006,1036,1019,1019,994,869,872,906,880,928,1063,1237,1451,1503,1582,1535,1534,1480,1453,1450,1398,1370,1343,1358,1329,1260,1232,1205,1177,1150,1122,1095,1067,1039,1039,984,957,952,903,885,883,888,910,897,891,908,937,908,917,905,919,922,916,932,905,920,950,970,954,943,929,906,936,912,907,904,939,921,938,907,1287,1300,1276,1329,1513,1691,1883,2036,2164,2156,2172,2137,2099,2123,2063,1999,1916,1910,1896,1805,1808,1731,1731,1736,1681,1583,1574,1544,1472,1435,1430,1370,1326,1384,1336,1314,1288,1354,1367,1367,1371,1371,1372,1366,1380,1388,1375,1375,1384,1388,1455,1458,1410,1386,1399,1422,1433,1497,1491,1387,1432,1507,1512,1481,1424,0,0,0,0,0,0,0,0,0,0,0,0,0,0,0,0,0,0,0,0,0,0,0,0,0,0,0,0,0,0,0,0,0,0,0,0,0,0,0,0,0,0,0,0,0,0,0,0,0,0,0,0,0,0,0,0,0,0,0,0,0,0,0,0,0,767,769,806,773,805,920,1072,1281,1330,1374,1369,1344,1319,1294,1329,1245,1220,1195,1171,1193,1121,1096,1071,1047,1022,997,972,948,923,898,873,849,824,799,781,779,783,788,794,795,790,836,828,801,812,828,808,830,867,823,825,813,806,810,806,816,808,805,800,799,800,809,809,810,784,1043,1046,1049,1101,1144,1311,1549,1680,1807,1813,1801,1769,1737,1753,1772,1689,1611,1579,1590,1516,1484,1453,1421,1431,1420,1326,1295,1319,1231,1200,1201,1136,1105,1078,1112,1090,1064,1069,1092,1101,1092,1138,1113,1111,1107,1122,1118,1127,1124,1119,1115,1110,1098,1101,1113,1122,1105,1105,1097,1103,1104,1118,1120,1124,1097,919,921,923,956,988,1133,1263,1476,1488,1529,1524,1499,1462,1453,1431,1404,1409,1358,1340,1334,1309,1272,1265,1202,1181,1157,1134,1110,1110,1081,1037,1007,980,953,935,953,975,943,984,986,977,1063,1031,1026,1007,1003,1022,1055,1016,1058,1057,1045,990,999,1030,1037,1036,1005,1045,1100,1050,1039,1058,1031,1031,1074,1098,1080,1129,1186,1358,1570,1734,1831,1862,1849,1817,1784,1755,1712,1709,1679,1649,1633,1557,1527,1521,1462,1469,1425,1363,1330,1333,1266,1234,1188,1182,1136,1109,1092,1091,1096,1123,1151,1113,1118,1123,1116,1127,1122,1121,1131,1176,1126,1137,1146,1149,1150,1159,1176,1160,1149,1149,1149,1158,1153,1151,1153,1164,1164,1220,1250,1229,1276,1361,1535,1729,1850,1996,1979,1977,1946,1941,1885,1842,1848,1779,1794,1739,1698,1662,1622,1606,1559,1550,1518,1487,1471,1435,1414,1366,1309,1308,1256,1260,1238,1259,1253,1344,1332,1328,1421,1387,1380,1368,1358,1381,1418,1379,1440,1465,1434,1356,1391,1399,1396,1394,1373,1452,1539,1493,1491,1503,1415,1422,903,905,942,915,986,1107,1286,1507,1552,1592,1583,1642,1527,1499,1529,1442,1414,1386,1428,1376,1301,1273,1245,1217,1208,1160,1132,1104,1075,1047,1019,991,963,936,918,933,921,926,927,925,938,946,948,963,943,963,936,977,954,937,947,943,952,969,957,950,957,936,947,953,947,955,943,969,945,148,149,149,149,150,153,172,191,210,229,242,238,234,231,227,223,220,216,212,209,205,201,198,194,190,186,183,179,175,172,168,164,161,157,153,150,151,151,144,136,138,138,139,142,138,140,139,139,139,138,139,139,140,142,143,140,139,140,140,142,140,139,140,141,141,598,600,602,604,615,700,800,877,939,1015,986,971,956,969,924,947,893,877,861,845,855,812,798,782,766,766,735,748,718,709,686,670,666,644,636,632,622,624,618,616,630,657,642,641,636,653,646,645,666,656,729,767,836,713,651,637,642,655,646,628,636,652,637,656,636,115,116,116,116,117,119,163,149,164,179,232,188,185,182,179,176,173,170,167,165,162,159,156,153,150,147,144,141,138,163,132,129,126,123,120,117,117,118,104,105,103,104,105,105,104,105,104,108,105,108,110,115,110,116,108,105,106,108,105,115,106,105,106,105,105,575,585,578,580,615,646,731,816,898,942,946,931,916,901,886,871,856,841,826,811,808,793,766,751,736,721,706,696,676,661,646,631,616,601,612,584,585,587,586,579,592,609,611,616,602,584,601,621,601,603,618,633,634,630,640,608,588,609,595,595,591,602,601,623,586,870,889,875,881,1024,1085,1263,1424,1521,1548,1563,1535,1547,1509,1427,1399,1375,1348,1316,1292,1346,1234,1250,1169,1151,1123,1117,1068,1040,1033,985,957,930,970,906,885,890,888,932,897,906,899,929,963,920,925,928,939,980,944,951,960,958,963,920,931,942,961,958,963,936,945,962,932,943,0,0,0,0,0,0,0,0,0,0,0,0,0,0,0,0,0,0,0,0,0,0,0,0,0,0,0,0,0,0,0,0,0,0,0,0,0,0,0,0,0,0,0,0,0,0,0,0,0,0,0,0,0,0,0,0,0,0,0,0,0,0,0,0,0,375,357,358,359,360,384,434,484,534,610,589,610,571,562,552,571,534,524,515,506,496,512,478,468,459,450,440,431,422,413,403,414,385,375,366,361,381,363,354,355,358,365,364,372,366,374,371,363,377,365,361,364,364,374,365,363,369,366,365,362,365,370,358,370,361,533,534,536,538,544,618,707,773,829,907,880,867,853,868,825,811,797,783,769,755,766,725,712,698,684,686,656,671,643,635,614,600,598,577,570,566,555,557,560,571,562,573,578,579,571,592,570,576,571,573,564,578,569,582,585,584,579,575,570,583,572,594,564,576,569,344,346,347,348,349,371,419,468,516,560,571,554,556,544,535,518,517,508,491,490,474,465,463,454,447,429,426,411,408,399,390,381,372,363,354,350,351,346,337,339,342,355,349,343,349,355,343,346,354,355,387,383,387,365,343,345,355,356,360,343,354,357,349,351,351,695,690,682,698,717,797,897,1013,1109,1149,1151,1132,1114,1060,1078,1041,1040,1008,999,986,987,942,902,912,877,895,887,822,795,788,773,754,734,754,703,713,703,705,708,717,708,713,724,728,732,739,718,736,732,737,723,721,717,729,725,728,723,722,716,715,713,723,716,720,702,148,149,149,149,150,153,172,191,210,229,242,238,234,231,227,223,220,216,212,209,205,201,198,194,190,186,183,179,175,172,168,164,161,157,153,150,151,151,144,136,138,138,139,142,138,140,139,139,139,138,139,139,140,142,143,140,139,140,140,142,140,139,140,141,141,440,441,443,444,446,481,569,602,669,717,724,713,701,686,723,667,656,644,633,640,628,599,587,576,565,553,542,530,516,526,487,485,473,478,451,447,448,449,434,440,447,456,449,454,442,452,440,469,447,444,455,449,469,486,462,455,462,453,458,457,464,473,449,455,448,387,388,389,391,392,421,477,533,589,635,644,634,623,614,603,593,582,572,563,551,541,531,521,510,500,490,480,470,460,449,438,428,418,408,397,393,394,395,385,380,383,386,386,384,389,388,385,391,388,388,391,392,389,387,396,394,394,397,393,389,399,395,393,394,394,407,408,409,411,412,443,527,556,619,666,675,664,692,638,652,675,611,600,589,596,585,557,546,535,525,514,503,493,479,471,451,449,439,428,442,413,414,415,394,396,400,402,401,403,400,402,402,411,406,406,409,408,415,422,415,414,417,412,416,418,420,423,417,419,418,281,282,283,284,284,299,338,377,415,454,466,458,489,444,436,466,422,414,407,400,426,418,378,370,363,356,373,341,363,326,319,312,304,297,290,285,286,287,272,269,270,273,273,274,273,276,273,277,276,276,274,277,277,274,276,279,279,280,278,277,280,280,279,279,279,987,979,992,1007,1180,1275,1473,1634,1817,1736,1757,1692,1655,1631,1622,1577,1542,1511,1476,1449,1418,1386,1361,1324,1296,1286,1255,1192,1239,1209,1107,1081,1112,1015,1005,1005,1010,1015,1040,1031,1049,1103,1074,1078,1067,1045,1055,1076,1068,1060,1059,1096,1126,1119,1088,1067,1059,1065,1059,1054,1050,1070,1055,1080,1046,367,365,369,370,371,395,470,519,548,593,603,588,584,570,585,556,547,532,528,536,527,499,490,480,471,462,452,443,447,424,405,405,396,386,377,372,370,374,364,365,366,368,366,366,368,368,366,365,366,365,368,371,372,371,366,368,370,370,372,370,368,373,366,368,369,0,0,0,0,0,0,0,0,0,0,0,0,0,0,0,0,0,0,0,0,0,0,0,0,0,0,0,0,0,0,0,0,0,0,0,0,0,0,0,0,0,0,0,0,0,0,0,0,0,0,0,0,0,0,0,0,0,0,0,0,0,0,0,0,0,322,323,324,325,326,346,391,437,483,525,536,528,519,511,502,493,485,476,469,459,451,442,434,425,417,408,400,392,383,374,365,357,348,340,331,327,328,329,308,308,314,330,307,316,308,315,311,307,311,308,305,308,309,311,309,316,310,311,311,312,310,320,308,314,310,94,94,94,94,95,96,108,120,132,144,153,151,149,146,144,142,139,137,135,132,130,128,125,123,120,118,116,113,111,109,106,104,102,99,97,95,95,95,83,73,73,73,73,74,73,74,73,73,73,73,73,74,73,73,75,74,74,74,74,74,74,73,73,74,74,402,403,404,406,407,435,494,531,608,654,688,644,642,631,609,603,590,590,573,569,568,537,538,517,534,506,486,485,456,455,445,443,432,442,413,407,409,410,403,402,403,446,406,404,402,408,404,406,426,427,409,411,435,444,422,402,412,407,415,408,407,407,402,404,399,440,441,443,444,446,481,569,602,669,717,724,713,701,686,723,667,656,644,633,640,628,599,587,576,565,553,542,530,516,526,487,485,473,478,451,447,448,449,434,440,447,456,449,454,442,452,440,469,447,444,455,449,469,486,462,455,462,453,458,457,464,473,449,455,448,700,651,655,657,672,726,866,943,1038,1070,1063,1055,1033,1026,996,979,951,955,937,960,899,899,928,847,832,810,785,795,760,731,765,714,695,712,655,707,663,656,668,662,663,662,663,663,666,669,664,667,670,672,675,677,677,679,682,683,677,680,679,678,682,686,682,686,686,122,123,123,123,124,127,143,160,177,193,205,202,199,195,192,189,186,182,179,176,173,169,166,163,159,156,153,150,146,143,140,137,133,130,127,124,125,125,105,106,109,116,106,106,105,106,106,105,105,105,105,106,105,106,106,106,105,108,105,106,106,106,105,106,106,651,618,622,624,663,686,798,868,987,1061,1014,1007,986,979,949,970,907,911,893,917,857,836,866,807,823,772,747,739,723,695,730,679,661,679,622,674,629,623,667,632,632,637,640,634,653,648,647,645,651,670,740,664,661,728,653,644,648,666,743,785,807,835,825,710,706,621,623,625,627,641,704,797,890,1015,1057,1035,1004,988,972,956,975,923,907,925,875,859,842,826,821,794,777,788,755,729,713,696,707,689,657,634,630,632,643,628,641,640,655,692,677,656,697,649,713,672,709,671,657,679,706,678,659,690,672,667,679,674,697,668,667,656,847,866,851,868,913,1064,1226,1449,1477,1509,1503,1472,1486,1436,1393,1356,1340,1319,1291,1264,1259,1199,1202,1153,1126,1098,1069,1043,1015,988,960,933,905,898,863,862,878,888,878,889,884,902,906,912,913,908,891,908,894,885,894,902,900,892,925,913,888,885,896,890,885,896,900,905,886,549,542,552,566,564,621,680,758,850,896,901,886,858,869,844,816,819,788,787,773,747,733,730,716,692,688,685,659,635,637,617,593,588,574,561,570,545,582,564,552,545,547,537,582,553,555,560,564,577,578,579,554,578,599,630,559,555,594,556,582,563,547,582,579,561,402,403,405,406,407,437,495,552,609,656,665,655,644,679,623,612,602,618,581,570,585,589,539,528,518,507,497,486,476,465,455,476,434,423,413,424,428,410,403,400,402,406,406,404,406,407,404,410,409,408,409,410,409,408,409,412,414,415,411,414,416,415,414,414,414,0,0,0,0,0,0,0,0,0,0,0,0,0,0,0,0,0,0,0,0,0,0,0,0,0,0,0,0,0,0,0,0,0,0,0,0,0,0,0,0,0,0,0,0,0,0,0,0,0,0,0,0,0,0,0,0,0,0,0,0,0,0,0,0,0,433,434,436,437,439,474,536,598,661,708,741,705,694,706,671,659,648,659,625,614,603,591,580,569,557,610,535,523,512,500,489,478,466,455,444,440,441,442,427,429,427,438,429,431,430,434,430,432,432,432,435,434,438,438,435,438,440,438,441,438,437,441,441,444,444,513,509,517,518,524,585,620,719,793,840,846,823,818,805,791,770,765,750,739,695,701,689,685,664,658,638,643,618,604,607,576,564,550,520,527,521,524,524,525,531,523,545,541,533,538,547,532,554,545,545,540,532,526,534,537,540,534,530,524,530,525,531,533,533,516,700,651,655,657,672,726,866,943,1038,1070,1063,1055,1033,1026,996,979,951,955,937,960,899,899,928,847,832,810,785,795,760,731,765,714,695,712,655,707,663,656,668,662,663,662,663,663,666,669,664,667,670,672,675,677,677,679,682,683,677,680,679,678,682,686,682,686,686,429,457,439,441,443,477,536,601,664,711,740,708,696,685,674,662,651,640,644,639,606,594,597,568,577,546,538,527,515,516,492,481,470,459,463,440,442,443,437,439,442,453,450,445,448,453,444,449,447,447,452,461,467,463,454,447,452,456,457,448,448,461,448,455,448,429,383,385,386,387,415,500,599,581,627,636,626,616,606,596,585,575,565,555,545,535,524,514,564,494,542,474,464,453,443,433,423,413,403,392,388,389,390,386,380,397,384,384,396,385,392,400,393,408,394,396,399,397,403,393,394,386,403,389,394,395,391,386,396,417,420,424,406,432,409,440,527,555,614,702,691,659,648,638,627,616,606,595,600,596,563,552,588,528,537,537,499,489,478,480,457,446,436,425,430,407,408,409,397,403,403,415,402,404,401,408,404,402,403,400,401,404,404,408,407,408,404,407,409,412,404,416,403,411,407,291,291,292,293,315,310,350,390,430,470,481,474,466,459,451,443,436,428,421,413,406,426,390,383,375,368,360,383,345,337,330,322,315,307,299,295,296,297,285,295,288,303,292,301,292,311,291,299,293,287,296,297,301,299,299,296,295,294,308,300,291,295,292,299,296,988,984,1026,993,1093,1351,1463,1633,1821,1736,1753,1692,1690,1634,1633,1568,1546,1515,1562,1444,1429,1475,1362,1359,1300,1270,1296,1268,1162,1132,1150,1070,1045,1053,1068,1002,999,1012,1042,1015,1028,1027,1062,1058,1036,1034,1038,1051,1097,1077,1080,1082,1091,1075,1097,1074,1063,1097,1108,1089,1075,1073,1103,1122,1095,363,403,366,367,368,388,438,492,543,588,619,589,604,570,560,571,542,552,518,536,504,495,481,496,483,454,448,439,426,417,411,402,392,383,389,366,367,368,363,366,358,361,369,373,392,387,369,370,377,380,377,366,369,378,371,371,373,372,365,368,364,372,372,376,361,88,88,88,89,89,90,101,112,123,134,143,141,139,137,135,132,130,128,126,124,122,119,117,115,113,111,108,106,104,102,100,98,95,93,91,89,89,90,70,70,71,71,73,73,73,69,71,72,70,70,70,70,70,70,69,70,69,70,70,70,70,70,70,71,69,364,318,319,320,321,340,414,502,475,517,528,520,511,503,495,486,478,469,461,453,444,436,427,482,410,463,394,385,377,368,360,352,343,335,326,322,323,324,312,311,314,314,316,318,312,317,315,312,317,316,316,317,318,324,325,322,315,319,318,323,323,327,327,333,328,0,0,0,0,0,0,0,0,0,0,0,0,0,0,0,0,0,0,0,0,0,0,0,0,0,0,0,0,0,0,0,0,0,0,0,0,0,0,0,0,0,0,0,0,0,0,0,0,0,0,0,0,0,0,0,0,0,0,0,0,0,0,0,0,0,410,411,412,414,416,458,497,563,621,668,671,665,655,644,634,623,605,586,586,580,570,570,539,520,527,539,500,495,480,470,461,452,442,425,444,399,441,418,419,415,416,422,422,415,427,418,417,420,418,417,424,423,418,420,448,431,417,417,416,418,417,424,424,422,419,429,457,439,441,443,477,536,601,664,711,740,708,696,685,674,662,651,640,644,639,606,594,597,568,577,546,538,527,515,516,492,481,470,459,463,440,442,443,437,439,442,453,450,445,448,453,444,449,447,447,452,461,467,463,454,447,452,456,457,448,448,461,448,455,448,836,878,808,809,850,979,1022,1203,1274,1371,1290,1347,1280,1316,1278,1225,1185,1164,1143,1123,1157,1137,1060,1034,1067,998,977,956,936,892,875,875,936,825,806,879,818,800,829,821,835,862,841,835,843,844,841,847,850,839,852,877,885,873,891,855,840,852,846,847,835,861,848,863,847,561,474,475,477,480,522,591,673,730,776,784,771,770,746,734,721,709,697,694,671,659,646,637,621,611,596,584,571,558,546,533,521,508,504,486,479,481,573,491,490,493,488,513,509,529,514,496,519,516,513,514,500,506,527,510,508,510,502,495,507,504,518,508,519,514,803,845,775,800,812,936,975,1152,1224,1362,1242,1338,1233,1246,1232,1157,1192,1120,1100,1114,1116,1096,1020,994,1028,960,940,919,899,856,840,840,903,792,773,845,784,791,802,810,825,846,850,846,858,823,837,832,869,856,827,833,874,876,890,839,825,832,845,827,821,828,838,833,806,424,425,426,428,419,460,509,568,644,714,700,689,693,681,670,636,634,608,612,601,575,579,554,543,532,533,511,512,501,478,477,466,457,435,424,448,431,446,422,423,424,430,442,424,433,430,426,425,427,431,427,437,431,441,529,494,442,437,430,424,425,427,447,430,424,1150,1154,1159,1212,1265,1417,1602,1738,1833,1896,1858,1886,1963,1770,1740,1711,1682,1714,1622,1594,1563,1533,1503,1474,1444,1415,1385,1356,1326,1296,1267,1237,1246,1185,1170,1167,1170,1174,1228,1235,1208,1223,1218,1259,1227,1244,1262,1325,1241,1298,1281,1295,1250,1310,1297,1243,1238,1238,1275,1313,1294,1317,1298,1303,1275,728,742,748,758,787,870,911,1062,1152,1179,1172,1200,1166,1145,1122,1096,1079,1089,1041,1023,1032,981,965,958,929,909,914,871,876,810,795,797,797,751,765,741,757,725,766,771,753,767,768,779,767,789,785,787,772,822,810,812,808,862,814,768,781,769,806,835,815,843,816,832,800,352,353,351,355,356,379,425,478,523,568,613,602,579,567,555,536,555,516,507,500,490,481,472,460,454,444,434,426,417,408,398,389,380,390,362,357,358,357,339,341,345,347,346,348,343,346,345,358,348,348,351,350,360,368,358,355,360,353,356,360,362,365,355,358,356,496,482,501,530,505,585,584,695,722,769,775,854,750,799,725,755,701,688,716,663,690,677,664,688,638,589,611,600,582,555,560,546,530,504,507,505,505,506,488,488,491,488,499,490,499,503,494,526,498,495,501,502,498,501,504,501,507,504,496,496,500,504,506,504,506,501,502,438,483,473,480,578,606,669,712,734,711,717,702,688,667,715,644,631,621,610,634,587,609,597,552,540,577,518,506,495,483,472,489,477,486,446,445,434,434,435,445,438,434,434,442,438,438,434,452,445,449,453,445,447,456,450,450,454,444,439,439,434,438,437,0,0,0,0,0,0,0,0,0,0,0,0,0,0,0,0,0,0,0,0,0,0,0,0,0,0,0,0,0,0,0,0,0,0,0,0,0,0,0,0,0,0,0,0,0,0,0,0,0,0,0,0,0,0,0,0,0,0,0,0,0,0,0,0,0,836,878,808,809,850,979,1022,1203,1274,1371,1290,1347,1280,1316,1278,1225,1185,1164,1143,1123,1157,1137,1060,1034,1067,998,977,956,936,892,875,875,936,825,806,879,818,800,829,821,835,862,841,835,843,844,841,847,850,839,852,877,885,873,891,855,840,852,846,847,835,861,848,863,847,0,0,0,0,0,0,0,0,0,0,0,0,0,0,0,0,0,0,0,0,0,0,0,0,0,0,0,0,0,0,0,0,0,0,0,0,0,0,0,0,0,0,0,0,0,0,0,0,0,0,0,0,0,0,0,0,0,0,0,0,0,0,0,0,0,689,691,687,695,718,785,898,1004,1117,1101,1133,1105,1097,1079,1061,1042,1024,998,996,970,944,909,908,913,880,868,843,825,785,782,750,746,735,697,703,680,695,684,689,685,695,710,707,701,697,699,700,710,714,703,707,744,762,745,736,712,703,716,708,705,695,720,706,721,700,73,73,73,73,73,74,84,93,102,111,120,118,116,114,112,110,108,107,105,103,101,99,97,96,94,92,90,88,86,85,83,81,79,77,75,74,74,74,54,52,54,55,52,57,54,59,58,55,62,55,56,55,55,57,55,55,55,56,55,54,55,56,55,59,55,647,649,656,671,697,737,834,931,1018,1060,1062,1045,1033,1039,994,978,961,970,927,910,897,876,859,843,826,809,792,780,758,741,724,708,691,674,664,657,667,669,655,645,651,652,660,664,664,676,664,674,668,657,667,654,657,663,668,662,667,659,656,661,663,672,669,677,672,942,945,947,950,1122,1198,1414,1549,1635,1661,1649,1717,1658,1561,1624,1502,1472,1443,1414,1384,1355,1348,1296,1256,1257,1197,1178,1149,1109,1110,1061,1076,1002,975,960,962,964,989,988,984,971,986,985,980,977,1003,996,985,990,1049,1017,1030,1007,1061,1014,1039,1011,1000,1026,1034,1032,1016,1032,1007,1017,217,217,218,219,219,226,252,278,304,330,343,338,333,328,323,318,313,308,303,298,293,288,283,278,273,268,263,258,253,248,243,238,233,228,223,220,220,221,207,211,207,215,212,218,209,216,208,210,211,211,207,215,213,217,213,217,215,216,222,217,212,222,208,213,210,428,429,430,432,434,468,529,590,683,699,707,696,685,703,662,651,640,629,617,606,595,584,573,562,550,562,551,517,527,494,483,472,461,469,439,434,435,456,433,441,425,425,437,429,462,432,434,452,433,432,431,432,435,433,435,435,439,449,461,438,444,442,438,438,438,624,625,621,629,644,701,803,897,1008,994,1028,1001,995,978,962,946,929,904,904,880,855,822,823,829,798,789,765,749,711,709,679,677,667,631,637,614,629,617,621,619,625,630,629,637,638,644,637,636,642,631,630,629,630,639,632,628,636,631,637,626,630,638,625,639,632,411,412,414,415,416,504,514,573,625,680,689,678,659,648,645,626,616,605,601,583,572,569,558,547,536,519,508,497,486,481,470,459,443,438,422,423,424,425,412,416,417,422,430,437,434,431,425,429,431,431,425,435,429,444,430,422,431,424,426,431,430,427,420,422,420,763,765,766,777,788,904,1023,1142,1229,1267,1247,1209,1220,1229,1185,1147,1127,1107,1104,1085,1060,1028,994,985,955,963,945,910,899,867,850,844,807,803,775,770,771,792,783,778,787,806,792,794,787,795,795,799,807,789,802,830,851,832,828,807,786,813,794,790,784,818,802,817,792,0,0,0,0,0,0,0,0,0,0,0,0,0,0,0,0,0,0,0,0,0,0,0,0,0,0,0,0,0,0,0,0,0,0,0,0,0,0,0,0,0,0,0,0,0,0,0,0,0,0,0,0,0,0,0,0,0,0,0,0,0,0,0,0,0 ]);
