n = 10;
D = [91,203,83,145,291,137,274,186,156,117 ];
q = 0;
prec = array2d(1..0,1..2,[]);
steps = 64;
l = 360;
r = 0;
which = [];
interval = array2d(1..0,1..2,[]);
T = array3d(1..11,1..11,0..64,[0,0,0,0,0,0,0,0,0,0,0,0,0,0,0,0,0,0,0,0,0,0,0,0,0,0,0,0,0,0,0,0,0,0,0,0,0,0,0,0,0,0,0,0,0,0,0,0,0,0,0,0,0,0,0,0,0,0,0,0,0,0,0,0,0,844,848,846,853,901,1107,1381,1493,1637,1647,1666,1645,1590,1578,1549,1533,1517,1494,1467,1408,1384,1386,1359,1324,1305,1277,1249,1115,1089,1078,1053,943,937,876,861,857,842,820,801,820,805,813,826,822,834,831,822,828,830,837,829,825,825,831,829,834,836,832,829,830,826,829,825,830,818,925,973,931,939,1079,1357,1566,1757,1860,1834,1821,1876,1829,1744,1761,1694,1665,1624,1666,1569,1592,1517,1492,1453,1461,1400,1365,1327,1315,1230,1196,1112,973,977,939,936,915,952,922,923,934,934,932,934,936,945,939,947,941,943,948,953,950,946,960,957,956,981,960,959,966,983,956,973,955,1216,1220,1224,1275,1552,1959,2222,2434,2495,2527,2504,2474,2422,2385,2341,2296,2248,2203,2162,2116,2063,2028,1981,1938,1889,1847,1804,1759,1631,1548,1374,1300,1287,1252,1234,1237,1251,1219,1218,1219,1222,1242,1246,1223,1256,1233,1257,1252,1239,1249,1255,1293,1309,1259,1271,1271,1260,1249,1245,1249,1261,1285,1251,1275,1243,266,267,268,269,270,347,393,440,486,531,545,536,528,519,510,501,492,484,475,466,457,449,441,432,423,414,405,397,388,379,370,361,353,281,275,270,271,272,256,256,259,264,259,261,257,259,259,261,261,259,260,268,315,280,268,265,261,264,263,264,261,267,262,266,262,1162,1146,1164,1187,1323,1609,1986,2132,2244,2258,2274,2229,2167,2131,2115,2088,2043,2013,1983,1914,1884,1872,1839,1812,1758,1719,1623,1583,1531,1269,1327,1251,1222,1197,1182,1172,1113,1120,1100,1108,1113,1115,1120,1124,1130,1125,1116,1122,1124,1134,1123,1119,1119,1125,1123,1128,1130,1123,1123,1124,1120,1123,1119,1124,1112,1198,1182,1200,1227,1386,1671,2056,2199,2311,2323,2338,2293,2252,2192,2175,2148,2103,2083,2040,1969,1938,1925,1892,1863,1825,1770,1691,1602,1550,1319,1295,1287,1267,1233,1218,1195,1136,1143,1123,1131,1136,1138,1143,1147,1153,1148,1139,1145,1147,1157,1146,1142,1142,1148,1146,1151,1153,1146,1146,1147,1143,1146,1142,1147,1135,921,973,932,948,1014,1360,1544,1765,1857,1824,1825,1864,1827,1741,1758,1682,1650,1624,1650,1568,1592,1508,1479,1450,1447,1388,1361,1327,1303,1230,1214,1117,972,950,938,936,907,940,922,923,930,934,932,934,936,945,939,940,936,937,939,939,946,945,958,943,941,952,960,943,947,948,956,946,941,800,856,811,811,906,1152,1309,1520,1615,1587,1592,1635,1602,1520,1541,1469,1439,1414,1449,1367,1400,1315,1290,1265,1266,1211,1188,1159,1137,1145,1121,1054,846,827,812,810,814,845,834,832,837,843,842,837,841,854,847,846,841,844,844,844,847,852,883,848,844,857,862,846,852,849,870,849,844,832,835,835,842,893,1088,1356,1465,1612,1617,1640,1617,1564,1553,1526,1509,1491,1474,1445,1388,1366,1367,1348,1304,1289,1261,1234,1202,1150,1147,1041,930,926,886,850,845,831,808,794,799,794,805,807,813,821,814,805,811,813,823,812,808,808,814,812,817,819,815,812,813,809,812,808,813,801,0,0,0,0,0,0,0,0,0,0,0,0,0,0,0,0,0,0,0,0,0,0,0,0,0,0,0,0,0,0,0,0,0,0,0,0,0,0,0,0,0,0,0,0,0,0,0,0,0,0,0,0,0,0,0,0,0,0,0,0,0,0,0,0,0,653,655,657,658,682,912,1045,1171,1318,1307,1307,1287,1266,1245,1224,1203,1192,1159,1152,1120,1100,1079,1058,1037,1016,995,983,953,932,913,892,871,832,678,693,663,665,658,650,659,650,664,661,657,656,660,667,657,655,658,655,657,656,655,660,664,660,656,657,661,663,673,671,670,664,0,0,0,0,0,0,0,0,0,0,0,0,0,0,0,0,0,0,0,0,0,0,0,0,0,0,0,0,0,0,0,0,0,0,0,0,0,0,0,0,0,0,0,0,0,0,0,0,0,0,0,0,0,0,0,0,0,0,0,0,0,0,0,0,0,360,369,363,364,357,432,534,617,651,732,720,718,726,709,694,667,671,649,638,625,619,602,591,566,568,555,559,521,535,510,488,500,440,430,408,368,367,369,334,336,333,336,343,344,339,344,336,344,339,342,340,339,341,344,345,339,344,342,338,343,340,340,340,340,340,671,673,676,678,698,1000,1073,1331,1440,1496,1478,1458,1431,1403,1376,1351,1321,1293,1267,1265,1235,1183,1146,1129,1101,1074,1038,1019,992,955,937,909,856,795,678,682,686,685,684,675,683,690,682,704,686,731,690,702,697,682,689,691,702,705,698,695,692,688,704,693,692,692,685,727,691,637,646,648,681,690,865,1019,1138,1291,1276,1292,1271,1251,1230,1199,1190,1167,1143,1113,1096,1084,1065,1031,1023,991,970,950,941,920,903,884,848,679,703,669,685,686,639,632,637,632,646,643,659,638,642,649,639,637,640,637,639,638,637,642,646,642,638,639,643,645,655,658,661,646,420,428,438,439,426,487,640,712,788,848,855,860,833,812,815,798,798,792,774,754,743,712,699,682,668,667,653,640,619,525,515,568,506,484,430,443,434,429,383,388,383,386,395,391,387,391,386,392,388,393,386,385,386,389,387,385,390,387,386,390,387,387,387,387,387,455,463,473,475,463,527,697,774,855,919,925,928,900,900,879,865,862,852,844,813,821,770,755,737,722,720,704,691,675,593,554,609,544,520,466,478,470,452,406,411,406,409,418,414,410,414,409,415,411,416,409,408,409,412,410,408,413,410,409,413,410,410,410,410,410,351,357,354,355,361,440,520,585,640,685,695,685,680,664,657,647,639,640,625,612,602,590,579,567,556,543,532,522,510,499,474,462,449,407,368,366,369,368,306,306,310,312,311,316,309,311,309,318,312,312,315,314,320,322,320,317,320,316,318,321,318,318,318,318,318,236,236,237,238,239,317,347,388,430,469,484,476,468,460,453,445,437,430,422,414,407,399,391,383,375,367,359,352,344,336,328,321,313,250,243,240,240,241,258,224,220,220,236,236,235,228,227,234,259,237,243,252,253,252,225,235,248,261,264,267,231,233,280,225,223,96,96,118,118,118,121,136,151,166,181,192,190,187,183,181,178,174,172,169,166,163,160,157,155,151,148,145,143,139,136,134,130,127,125,122,119,119,119,85,88,85,87,90,86,87,87,86,86,86,87,84,86,86,87,86,86,87,85,86,87,85,87,85,86,85,653,655,657,658,682,912,1045,1171,1318,1307,1307,1287,1266,1245,1224,1203,1192,1159,1152,1120,1100,1079,1058,1037,1016,995,983,953,932,913,892,871,832,678,693,663,665,658,650,659,650,664,661,657,656,660,667,657,655,658,655,657,656,655,660,664,660,656,657,661,663,673,671,670,664,767,769,771,778,819,1074,1220,1365,1470,1530,1532,1512,1483,1467,1442,1417,1386,1361,1337,1312,1295,1263,1239,1215,1190,1166,1147,1117,1093,1073,905,834,814,795,801,796,799,776,729,729,729,729,729,729,729,729,729,729,729,729,729,729,729,729,729,729,729,729,729,729,729,729,729,729,729,350,351,353,352,356,440,509,569,611,656,675,666,657,649,640,631,622,613,606,596,587,579,579,567,565,553,531,523,509,497,475,467,464,369,360,357,358,359,252,252,252,252,252,252,252,252,252,252,252,252,252,252,252,252,252,252,252,252,252,252,252,252,252,252,252,0,0,0,0,0,0,0,0,0,0,0,0,0,0,0,0,0,0,0,0,0,0,0,0,0,0,0,0,0,0,0,0,0,0,0,0,0,0,0,0,0,0,0,0,0,0,0,0,0,0,0,0,0,0,0,0,0,0,0,0,0,0,0,0,0,485,486,488,487,495,648,763,879,996,1091,1105,1084,1074,1043,1023,1002,981,960,939,918,897,876,855,842,814,794,773,742,731,710,680,668,647,627,496,494,497,500,479,477,481,485,479,491,484,487,484,490,504,483,483,487,486,495,488,489,489,486,488,488,489,490,485,510,490,753,758,757,757,807,1003,1195,1337,1449,1510,1514,1490,1457,1442,1425,1393,1365,1333,1309,1300,1281,1240,1228,1192,1179,1144,1125,1095,1069,1055,984,818,798,799,784,781,781,758,711,711,711,711,711,711,711,711,711,711,711,711,711,711,711,711,711,711,711,711,711,711,711,711,711,711,711,498,499,495,498,505,585,756,837,923,986,1003,987,970,952,939,923,898,890,874,860,844,833,818,806,782,766,747,735,718,703,688,542,530,517,505,502,503,507,454,454,454,454,454,454,454,454,454,454,454,454,454,454,454,454,454,454,454,454,454,454,454,454,454,454,454,533,536,540,534,543,647,822,919,994,1056,1071,1054,1051,1029,1003,987,960,952,936,920,920,890,879,861,835,829,817,785,768,751,718,608,593,552,540,537,539,530,477,477,477,477,477,477,477,477,477,477,477,477,477,477,477,477,477,477,477,477,477,477,477,477,477,477,477,75,75,75,75,93,94,107,119,133,145,155,152,150,148,145,143,140,138,135,133,130,127,125,123,121,117,115,113,111,107,105,103,100,97,95,93,93,93,56,56,57,57,57,57,57,57,57,58,58,58,58,58,58,58,59,59,59,59,59,59,59,60,60,60,60,187,187,189,189,189,234,263,289,318,345,366,359,354,349,344,338,333,327,323,317,311,306,301,295,290,284,279,274,269,263,257,253,247,241,236,190,190,191,162,155,156,156,162,164,156,163,157,157,162,165,161,162,166,183,167,171,160,166,165,166,182,166,166,166,166,297,280,280,280,316,298,374,446,482,512,534,528,523,517,511,505,500,494,489,482,477,471,458,449,441,432,423,414,405,374,366,358,323,315,307,317,302,328,199,199,199,199,199,199,199,199,199,199,199,199,199,199,199,199,199,199,199,199,199,199,199,199,199,199,199,767,769,771,778,819,1074,1220,1365,1470,1530,1532,1512,1483,1467,1442,1417,1386,1361,1337,1312,1295,1263,1239,1215,1190,1166,1147,1117,1093,1073,905,834,814,795,801,796,799,776,729,729,729,729,729,729,729,729,729,729,729,729,729,729,729,729,729,729,729,729,729,729,729,729,729,729,729,1165,1150,1173,1193,1363,1812,2135,2251,2379,2415,2398,2357,2314,2273,2201,2179,2137,2093,2051,2009,1983,1898,1863,1830,1791,1766,1708,1667,1619,1481,1412,1271,1239,1209,1178,1159,1141,1138,1133,1133,1131,1146,1143,1138,1137,1166,1131,1139,1137,1136,1139,1162,1147,1141,1171,1145,1147,1147,1164,1169,1139,1144,1142,1143,1136,827,820,833,835,870,1204,1381,1610,1720,1774,1756,1731,1695,1664,1638,1620,1571,1525,1511,1478,1447,1446,1386,1354,1322,1292,1262,1242,1162,1080,1051,1022,966,857,842,840,844,847,841,850,850,842,839,858,858,858,863,863,853,841,848,865,884,851,861,856,856,875,856,857,856,881,843,845,841,589,591,604,586,610,848,1006,1134,1235,1324,1305,1282,1258,1234,1210,1185,1177,1138,1114,1090,1052,1030,1018,994,970,947,922,919,874,851,827,684,664,617,601,599,603,595,590,598,586,583,614,587,603,600,602,593,614,612,601,611,621,625,616,591,616,615,656,620,602,621,612,599,598,0,0,0,0,0,0,0,0,0,0,0,0,0,0,0,0,0,0,0,0,0,0,0,0,0,0,0,0,0,0,0,0,0,0,0,0,0,0,0,0,0,0,0,0,0,0,0,0,0,0,0,0,0,0,0,0,0,0,0,0,0,0,0,0,0,1150,1134,1134,1176,1341,1786,2106,2224,2351,2389,2371,2330,2289,2248,2175,2154,2113,2068,2026,1986,1960,1871,1840,1807,1769,1744,1695,1666,1593,1460,1425,1305,1221,1193,1160,1143,1122,1119,1114,1114,1112,1127,1124,1119,1118,1147,1112,1120,1118,1117,1120,1143,1128,1122,1152,1126,1128,1128,1145,1150,1120,1125,1123,1124,1117,837,842,842,861,903,1055,1337,1476,1600,1652,1662,1626,1611,1584,1557,1538,1505,1479,1453,1428,1403,1381,1348,1322,1296,1273,1247,1224,1181,1067,1035,961,891,884,864,858,820,819,786,785,783,780,790,794,790,798,794,788,800,800,804,803,813,816,808,818,812,813,814,811,803,804,804,804,804,813,825,830,837,884,1004,1270,1410,1565,1590,1599,1565,1559,1527,1507,1482,1450,1437,1407,1374,1351,1323,1306,1275,1253,1232,1210,1185,1049,1032,1009,939,875,852,839,837,833,831,797,799,799,797,806,809,807,812,806,803,810,810,813,819,821,826,821,828,822,823,818,822,814,815,815,815,815,556,557,577,560,573,797,935,1071,1186,1245,1245,1222,1199,1173,1152,1137,1106,1080,1058,1037,1012,991,968,944,928,896,881,871,829,806,781,684,664,584,567,565,568,571,572,580,572,585,576,570,586,626,583,593,577,576,572,574,583,581,645,591,576,586,628,585,603,622,581,576,575,635,669,639,617,644,886,1048,1191,1309,1362,1361,1337,1314,1290,1266,1241,1217,1184,1170,1131,1111,1097,1082,1031,1007,982,957,995,916,882,867,773,751,663,624,621,625,629,630,624,638,656,645,644,641,642,648,655,651,646,671,674,690,689,733,656,637,657,646,643,640,658,646,664,638,795,788,800,802,838,1149,1319,1542,1653,1699,1691,1667,1632,1599,1577,1548,1513,1466,1452,1422,1391,1365,1332,1304,1273,1245,1225,1185,1144,1126,897,901,900,825,809,798,810,794,789,797,785,782,795,786,799,799,801,792,804,804,800,801,820,793,799,790,799,814,802,800,801,820,807,798,797,1165,1150,1173,1193,1363,1812,2135,2251,2379,2415,2398,2357,2314,2273,2201,2179,2137,2093,2051,2009,1983,1898,1863,1830,1791,1766,1708,1667,1619,1481,1412,1271,1239,1209,1178,1159,1141,1138,1133,1133,1131,1146,1143,1138,1137,1166,1131,1139,1137,1136,1139,1162,1147,1141,1171,1145,1147,1147,1164,1169,1139,1144,1142,1143,1136,319,320,321,322,323,419,474,529,584,633,647,636,627,617,607,596,586,576,565,555,545,534,524,514,503,493,484,473,463,453,442,432,422,412,401,396,397,398,401,315,315,315,314,318,318,318,318,315,319,314,315,315,315,315,319,318,315,317,318,319,315,396,317,321,319,724,739,741,745,769,909,1163,1302,1433,1487,1472,1421,1432,1407,1379,1333,1332,1301,1278,1276,1237,1221,1191,1180,1144,1120,1109,987,957,934,862,855,782,750,756,753,750,738,660,660,653,652,671,662,671,666,668,671,676,680,725,680,681,688,675,675,679,688,737,740,716,734,725,718,687,872,891,891,901,944,1166,1428,1595,1675,1709,1717,1695,1707,1691,1639,1565,1564,1565,1509,1510,1428,1402,1384,1346,1329,1293,1311,1236,1165,1212,1097,917,894,901,872,899,875,879,868,856,854,864,870,874,878,878,880,880,887,875,888,897,886,893,878,887,891,894,893,905,890,899,880,875,874,1184,1197,1201,1236,1457,1775,2149,2349,2380,2383,2380,2338,2348,2342,2263,2224,2202,2101,2107,2077,1992,1912,1872,1826,1798,1776,1769,1673,1580,1547,1432,1259,1215,1199,1174,1194,1227,1197,1186,1200,1194,1219,1222,1213,1215,1215,1219,1214,1210,1226,1229,1235,1231,1224,1223,1225,1224,1222,1231,1238,1237,1227,1224,1233,1215,0,0,0,0,0,0,0,0,0,0,0,0,0,0,0,0,0,0,0,0,0,0,0,0,0,0,0,0,0,0,0,0,0,0,0,0,0,0,0,0,0,0,0,0,0,0,0,0,0,0,0,0,0,0,0,0,0,0,0,0,0,0,0,0,0,1047,1053,1060,1070,1120,1445,1763,1943,2043,2098,2080,2010,1981,1977,1940,1888,1887,1830,1797,1792,1739,1711,1667,1660,1608,1576,1482,1459,1414,1350,1147,1171,1115,1070,1068,1071,1046,1017,964,945,952,962,966,961,973,960,962,965,970,974,1019,974,975,982,969,969,973,982,1020,1031,1010,1028,1015,1012,981,1083,1089,1096,1106,1161,1466,1839,2012,2110,2164,2144,2078,2065,2061,2000,1948,1945,1898,1854,1850,1794,1765,1720,1713,1669,1626,1550,1500,1443,1224,1196,1202,1150,1105,1103,1103,1069,1040,987,968,975,985,989,984,996,983,985,988,993,997,1042,997,998,1005,992,992,996,1005,1043,1054,1033,1051,1038,1035,1004,868,891,887,900,913,1154,1439,1577,1668,1714,1703,1669,1706,1670,1638,1579,1578,1532,1497,1508,1427,1398,1371,1342,1316,1289,1297,1235,1165,1187,1097,924,903,900,871,900,873,870,868,846,841,864,842,867,875,858,863,863,857,840,855,870,878,883,872,868,874,881,885,888,878,868,845,856,843,747,773,765,766,765,969,1204,1328,1423,1477,1470,1439,1481,1449,1417,1362,1365,1323,1292,1307,1229,1205,1182,1157,1135,1112,1124,1062,1076,1021,986,906,783,774,745,779,780,775,774,752,748,769,747,770,780,764,766,769,762,747,760,775,779,786,773,773,777,786,787,791,791,769,748,759,746,713,729,730,732,757,923,1139,1276,1409,1460,1446,1392,1405,1382,1354,1312,1311,1280,1258,1256,1218,1203,1173,1165,1124,1104,1093,1070,1033,995,847,841,771,754,740,741,739,726,653,639,642,644,652,653,658,649,651,654,659,663,708,663,664,671,658,658,662,671,721,723,699,717,708,701,670,319,320,321,322,323,419,474,529,584,633,647,636,627,617,607,596,586,576,565,555,545,534,524,514,503,493,484,473,463,453,442,432,422,412,401,396,397,398,401,315,315,315,314,318,318,318,318,315,319,314,315,315,315,315,319,318,315,317,318,319,315,396,317,321,319,1128,1129,1125,1155,1335,1667,1848,2059,2139,2164,2146,2118,2088,2053,2021,2008,1988,1937,1904,1840,1839,1770,1736,1715,1673,1673,1605,1581,1547,1316,1242,1199,1162,1146,1137,1141,1127,1104,1104,1103,1109,1111,1108,1109,1116,1116,1108,1115,1115,1115,1115,1115,1115,1115,1115,1115,1115,1115,1115,1115,1115,1115,1115,1115,1115,477,474,469,475,497,624,664,779,834,888,891,884,875,856,845,851,838,819,806,763,783,735,721,707,686,708,660,651,673,657,646,569,571,503,476,478,471,454,450,453,456,452,451,453,456,455,451,460,460,460,460,460,460,460,460,460,460,460,460,460,460,460,460,460,460,690,675,676,678,741,911,1037,1200,1244,1278,1278,1259,1240,1222,1203,1184,1166,1180,1128,1109,1091,1067,1078,1035,1016,1072,974,960,941,922,904,770,791,694,684,682,684,685,678,668,676,673,673,681,675,685,678,691,694,687,677,689,684,696,696,696,683,689,689,692,690,690,690,690,690,783,786,789,794,866,1118,1279,1412,1511,1565,1565,1541,1512,1514,1472,1437,1413,1388,1362,1338,1316,1289,1263,1238,1214,1189,1164,1139,1115,1090,1064,898,887,811,799,796,798,802,776,777,772,796,784,773,782,798,785,798,793,801,789,787,779,779,784,794,779,783,778,778,778,778,778,778,778,1093,1086,1096,1095,1264,1630,1800,1995,2077,2066,2084,2023,1988,1971,1948,1914,1889,1893,1863,1752,1793,1717,1655,1624,1623,1598,1536,1511,1340,1289,1272,1228,1136,1104,1104,1083,1060,1034,1023,1026,1038,1038,1054,1066,1040,1046,1049,1046,1048,1045,1041,1053,1051,1047,1053,1042,1046,1048,1037,1040,1040,1040,1040,1040,1040,0,0,0,0,0,0,0,0,0,0,0,0,0,0,0,0,0,0,0,0,0,0,0,0,0,0,0,0,0,0,0,0,0,0,0,0,0,0,0,0,0,0,0,0,0,0,0,0,0,0,0,0,0,0,0,0,0,0,0,0,0,0,0,0,0,60,60,60,60,60,61,69,77,83,91,97,96,95,93,92,91,89,88,86,84,83,81,80,79,77,75,74,72,71,70,68,67,66,63,62,61,61,61,23,23,23,24,24,24,24,26,23,24,25,32,24,24,24,24,24,24,24,27,24,24,24,24,24,24,24,664,648,650,652,746,875,996,1151,1196,1230,1232,1213,1195,1177,1159,1141,1123,1138,1086,1069,1050,1027,1039,996,979,1035,937,924,906,888,870,848,789,667,657,655,657,658,645,646,644,643,650,646,650,659,656,656,657,653,657,656,656,663,663,663,665,661,659,658,659,659,659,659,659,711,709,705,704,796,969,1050,1219,1316,1358,1353,1338,1321,1299,1280,1277,1256,1231,1208,1159,1170,1116,1095,1072,1045,1059,1006,990,1001,982,961,861,811,723,713,716,710,690,672,669,668,684,687,684,680,678,683,695,695,695,695,695,695,695,695,695,695,695,695,695,695,695,695,695,695,531,522,522,524,539,693,748,855,935,979,986,972,946,932,921,905,891,876,863,849,836,821,804,790,765,785,724,724,726,713,700,680,612,568,527,526,524,512,506,507,507,507,510,510,510,510,510,509,509,509,509,509,509,509,509,509,509,509,509,509,509,509,509,509,509,1128,1129,1125,1155,1335,1667,1848,2059,2139,2164,2146,2118,2088,2053,2021,2008,1988,1937,1904,1840,1839,1770,1736,1715,1673,1673,1605,1581,1547,1316,1242,1199,1162,1146,1137,1141,1127,1104,1104,1103,1109,1111,1108,1109,1116,1116,1108,1115,1115,1115,1115,1115,1115,1115,1115,1115,1115,1115,1115,1115,1115,1115,1115,1115,1115,1121,1094,1096,1154,1326,1669,1886,2028,2103,2138,2155,2116,2088,2020,1998,1999,1967,1899,1927,1831,1836,1802,1730,1692,1671,1661,1593,1608,1498,1246,1256,1208,1220,1193,1108,1136,1129,1078,1078,1078,1078,1078,1078,1078,1078,1078,1078,1078,1078,1078,1078,1078,1078,1078,1078,1078,1078,1078,1078,1078,1078,1078,1078,1078,1078,469,439,440,474,479,626,702,748,798,853,900,882,875,821,808,848,817,782,832,754,781,767,712,698,685,706,656,679,699,649,637,539,542,531,448,473,474,428,428,428,428,428,428,428,428,428,428,428,428,428,428,428,428,428,428,428,428,428,428,428,428,428,428,428,428,648,650,656,657,681,885,1008,1093,1249,1244,1244,1225,1308,1189,1171,1153,1135,1117,1098,1074,1062,1045,1043,1007,988,1010,952,933,915,897,878,703,762,670,664,661,663,660,655,650,655,664,659,661,662,669,669,667,669,659,664,669,670,672,672,672,672,669,672,672,672,672,663,666,659,738,740,750,747,806,1057,1214,1331,1428,1476,1474,1450,1427,1421,1380,1364,1333,1310,1287,1262,1255,1216,1192,1169,1146,1125,1098,1075,1051,1028,1005,958,840,765,753,749,751,754,753,754,749,772,760,749,758,772,762,774,768,770,765,763,755,755,760,770,755,756,754,755,752,755,763,761,742,1086,1051,1067,1105,1243,1568,1827,1964,2048,2039,2092,2021,1988,1936,1911,1919,1869,1856,1876,1743,1793,1749,1646,1620,1621,1595,1531,1521,1393,1258,1242,1191,1132,1118,1075,1081,1061,1008,1004,1015,1028,1024,1030,1031,1016,1022,1026,1022,1023,1020,1017,1025,1025,1025,1025,1025,1025,1025,1025,1025,1025,1025,1025,1025,1025,95,95,95,107,117,117,133,149,165,181,193,190,188,184,181,178,175,172,169,166,163,160,157,154,150,148,145,141,138,135,133,129,126,123,121,117,117,117,16,16,16,16,16,16,16,16,16,16,16,16,16,16,16,16,16,16,16,16,16,16,16,16,16,16,16,0,0,0,0,0,0,0,0,0,0,0,0,0,0,0,0,0,0,0,0,0,0,0,0,0,0,0,0,0,0,0,0,0,0,0,0,0,0,0,0,0,0,0,0,0,0,0,0,0,0,0,0,0,0,0,0,0,0,0,0,0,0,0,0,0,622,624,630,631,718,849,967,1049,1161,1196,1197,1180,1263,1145,1127,1109,1092,1074,1057,1034,1021,1004,1005,968,950,972,915,897,880,862,844,803,789,643,637,634,636,634,622,623,622,635,626,632,627,633,633,632,632,631,635,632,632,639,639,639,641,634,635,643,640,645,645,645,644,704,674,676,709,758,971,1083,1188,1280,1327,1362,1336,1321,1264,1241,1249,1231,1193,1190,1150,1153,1134,1085,1064,1042,1056,999,1017,1031,973,939,852,792,726,684,711,713,664,664,664,664,664,664,664,664,664,664,664,664,664,664,664,664,664,664,664,664,664,664,664,664,664,664,664,664,497,496,502,504,511,667,741,818,897,937,942,929,916,918,892,875,862,849,836,822,809,794,794,781,763,739,728,715,698,687,694,658,615,584,493,505,507,486,486,486,486,486,486,486,486,486,486,486,486,486,486,486,486,486,486,486,486,486,486,486,486,486,486,486,486,1121,1094,1096,1154,1326,1669,1886,2028,2103,2138,2155,2116,2088,2020,1998,1999,1967,1899,1927,1831,1836,1802,1730,1692,1671,1661,1593,1608,1498,1246,1256,1208,1220,1193,1108,1136,1129,1078,1078,1078,1078,1078,1078,1078,1078,1078,1078,1078,1078,1078,1078,1078,1078,1078,1078,1078,1078,1078,1078,1078,1078,1078,1078,1078,1078,816,819,821,847,853,1138,1293,1445,1556,1609,1613,1589,1572,1546,1523,1494,1461,1445,1420,1399,1371,1345,1319,1300,1275,1244,1216,1195,1163,1136,973,889,887,850,839,858,853,845,765,764,762,762,761,767,764,764,765,765,764,766,767,764,766,767,773,764,764,770,764,767,764,762,767,764,764,399,401,403,403,404,467,587,659,690,739,759,750,741,731,722,713,701,693,683,676,666,656,658,646,634,622,605,594,576,573,551,523,475,441,430,418,427,428,288,287,284,290,295,297,291,311,292,301,296,307,297,296,301,301,307,292,296,306,291,298,292,308,297,295,295,55,55,69,69,69,69,78,85,94,102,110,107,106,105,103,102,100,99,96,95,93,92,90,89,86,85,83,82,80,79,77,75,73,72,70,69,69,69,36,35,33,33,32,38,35,35,36,36,35,37,38,35,37,38,44,35,35,41,35,38,35,33,38,35,35,464,465,481,468,472,620,731,843,955,1048,1062,1042,1010,1002,982,962,942,921,891,882,868,831,821,790,781,761,731,720,700,672,657,640,620,541,475,471,475,492,454,451,453,454,451,461,459,459,459,461,485,458,457,462,459,466,461,463,462,461,460,460,460,460,460,460,460,807,807,812,808,862,1032,1268,1411,1527,1590,1582,1573,1554,1528,1504,1469,1446,1417,1396,1378,1351,1318,1296,1275,1256,1223,1200,1173,973,997,936,873,871,832,823,842,835,827,747,746,744,744,743,749,746,746,747,747,746,748,749,746,748,749,755,746,746,752,746,749,746,744,749,746,746,546,545,547,549,567,682,828,917,1012,1083,1104,1086,1068,1049,1035,1001,998,979,963,947,930,917,899,887,860,843,823,809,791,774,745,617,603,589,559,556,553,551,490,488,487,487,486,492,489,489,490,490,489,491,492,489,491,492,498,489,489,495,489,492,489,487,492,489,489,586,580,582,601,605,736,900,999,1083,1153,1172,1153,1150,1126,1099,1081,1060,1043,1024,1007,1008,974,961,942,913,906,893,859,841,822,787,683,663,624,594,603,589,574,513,511,510,510,509,515,512,512,513,513,512,514,515,512,514,515,521,512,512,518,512,515,512,510,515,512,512,0,0,0,0,0,0,0,0,0,0,0,0,0,0,0,0,0,0,0,0,0,0,0,0,0,0,0,0,0,0,0,0,0,0,0,0,0,0,0,0,0,0,0,0,0,0,0,0,0,0,0,0,0,0,0,0,0,0,0,0,0,0,0,0,0,112,112,138,138,138,140,156,170,185,200,211,207,204,202,199,196,193,190,188,184,181,179,176,173,170,167,165,161,158,156,152,150,147,144,141,138,139,139,106,99,99,99,105,107,99,106,100,99,104,107,103,104,108,125,108,112,101,107,106,107,125,108,125,125,111,351,335,330,331,377,367,447,524,561,595,618,613,605,598,592,587,580,573,567,561,555,548,535,525,515,506,496,487,454,422,407,397,389,351,370,375,342,382,235,234,232,232,231,235,234,234,233,235,234,236,237,234,236,237,243,234,234,240,234,237,234,232,237,234,234,816,819,821,847,853,1138,1293,1445,1556,1609,1613,1589,1572,1546,1523,1494,1461,1445,1420,1399,1371,1345,1319,1300,1275,1244,1216,1195,1163,1136,973,889,887,850,839,858,853,845,765,764,762,762,761,767,764,764,765,765,764,766,767,764,766,767,773,764,764,770,764,767,764,762,767,764,764,758,755,756,761,822,1083,1223,1365,1459,1500,1500,1472,1510,1428,1404,1381,1357,1333,1310,1285,1261,1237,1257,1200,1166,1141,1118,1138,1070,1047,837,905,795,778,800,764,765,759,758,750,758,758,758,751,750,758,758,758,758,758,758,758,758,758,758,758,758,758,758,758,758,758,758,758,753,355,355,357,360,360,389,515,574,635,683,695,686,677,667,658,656,647,639,613,619,600,597,587,572,564,552,541,529,515,504,487,409,397,414,366,361,362,363,283,283,283,283,283,283,283,283,283,283,283,283,283,283,283,283,283,283,283,283,283,283,283,283,283,283,283,156,156,157,157,191,196,224,246,268,290,298,292,294,283,286,282,278,273,269,265,260,256,251,248,244,242,228,232,227,222,217,212,207,202,198,192,192,193,122,122,122,122,122,122,122,122,122,122,122,122,122,122,122,122,122,122,122,122,122,122,122,122,122,122,122,483,499,486,486,491,683,820,935,1054,1117,1119,1098,1076,1054,1034,1012,991,969,973,951,904,883,861,840,818,796,775,753,732,701,688,687,645,565,494,490,494,497,494,495,498,506,498,503,497,506,500,498,505,495,497,503,499,503,501,504,501,505,505,504,500,506,498,506,500,742,738,747,774,781,959,1198,1337,1440,1468,1474,1456,1492,1412,1379,1356,1328,1318,1296,1261,1248,1214,1234,1178,1153,1130,1106,1112,1000,981,857,886,779,763,782,785,779,741,737,731,737,737,737,732,731,737,737,737,737,737,737,737,737,737,737,737,737,737,737,737,737,737,737,737,734,582,585,579,588,585,674,872,966,1033,1152,1162,1136,1123,1104,1102,1081,1034,1021,993,988,964,972,941,912,876,888,862,841,809,746,716,712,658,615,582,585,588,587,485,485,485,485,485,485,485,485,485,485,485,485,485,485,485,485,485,485,485,485,485,485,485,485,485,485,485,618,620,614,624,621,714,929,1030,1103,1221,1231,1204,1188,1170,1181,1144,1095,1081,1052,1046,1021,1031,1007,966,948,940,923,904,877,785,719,742,695,657,618,620,624,610,508,508,508,508,508,508,508,508,508,508,508,508,508,508,508,508,508,508,508,508,508,508,508,508,508,508,508,121,121,121,122,122,154,173,194,215,235,249,245,242,237,233,229,225,221,217,213,210,205,201,198,193,189,185,181,177,173,169,166,161,157,154,150,150,150,93,93,93,93,93,93,93,93,93,93,93,93,93,93,93,93,93,93,93,93,93,93,93,93,93,93,93,0,0,0,0,0,0,0,0,0,0,0,0,0,0,0,0,0,0,0,0,0,0,0,0,0,0,0,0,0,0,0,0,0,0,0,0,0,0,0,0,0,0,0,0,0,0,0,0,0,0,0,0,0,0,0,0,0,0,0,0,0,0,0,0,0,306,307,308,309,318,308,394,463,498,539,555,548,543,536,531,524,519,512,497,500,490,493,475,471,456,444,438,429,420,365,335,327,319,315,353,299,300,317,230,230,230,230,230,230,230,230,230,230,230,230,230,230,230,230,230,230,230,230,230,230,230,230,230,230,230,758,755,756,761,822,1083,1223,1365,1459,1500,1500,1472,1510,1428,1404,1381,1357,1333,1310,1285,1261,1237,1257,1200,1166,1141,1118,1138,1070,1047,837,905,795,778,800,764,765,759,758,750,758,758,758,751,750,758,758,758,758,758,758,758,758,758,758,758,758,758,758,758,758,758,758,758,753,718,721,732,726,773,1015,1140,1271,1367,1410,1402,1388,1362,1339,1318,1298,1272,1255,1234,1213,1192,1171,1150,1129,1118,1084,1063,1031,1010,918,861,805,756,741,729,729,750,729,705,699,699,700,702,703,719,715,700,715,710,700,699,704,709,720,721,711,724,705,704,718,714,706,702,702,699,125,150,117,117,117,148,165,181,191,200,205,204,202,200,199,196,194,193,191,189,188,186,185,183,180,179,177,175,167,172,169,157,154,150,147,145,145,145,99,99,99,99,99,99,99,99,99,99,99,99,99,99,99,99,99,99,99,99,99,99,99,99,99,99,99,311,309,313,311,312,410,460,511,562,608,619,609,599,584,574,606,562,546,543,533,523,514,504,489,480,476,462,457,447,479,451,441,332,327,410,315,316,314,315,317,317,318,318,318,318,318,318,320,318,320,322,342,323,322,321,320,319,325,319,319,319,317,324,320,319,675,682,684,684,685,1005,1153,1302,1430,1488,1500,1445,1419,1380,1366,1372,1313,1294,1260,1234,1197,1171,1178,1132,1102,1097,1049,1035,998,961,964,900,729,707,747,688,692,689,687,686,684,694,689,697,723,731,698,696,726,721,697,694,691,733,696,698,698,731,692,700,695,700,698,733,697,702,705,717,735,750,944,1114,1246,1339,1390,1375,1368,1334,1313,1292,1271,1259,1236,1210,1189,1168,1148,1127,1112,1095,1071,1041,1009,998,897,840,788,771,725,712,713,723,705,684,681,681,682,684,684,684,684,682,684,684,682,681,684,684,684,684,684,684,684,684,684,684,684,684,684,681,338,342,340,373,382,366,504,561,622,667,706,679,668,644,634,636,625,620,605,588,580,561,576,540,529,519,508,497,487,389,381,489,379,371,378,383,418,386,330,330,330,330,330,330,330,330,330,330,330,330,330,330,330,330,330,330,330,330,330,330,330,330,330,330,330,394,377,376,408,418,406,561,623,689,761,775,771,735,722,698,700,688,680,683,647,658,618,632,617,583,572,559,548,536,457,420,496,417,420,426,418,429,409,353,353,353,353,353,353,353,353,353,353,353,353,353,353,353,353,353,353,353,353,353,353,353,353,353,353,353,285,282,287,284,285,374,421,468,515,561,572,562,553,537,529,562,518,502,500,491,482,474,465,451,442,437,424,420,411,402,415,407,371,367,353,351,351,287,285,282,284,285,286,282,283,283,282,284,283,283,284,323,286,284,324,285,284,284,284,322,284,284,286,285,284,302,303,330,305,328,392,437,489,537,573,581,574,569,558,550,542,534,526,518,513,502,495,486,481,470,463,454,432,434,416,409,410,392,375,308,306,306,307,281,278,274,275,277,278,291,290,275,291,285,275,274,290,289,291,293,305,287,286,289,292,289,281,277,277,274,0,0,0,0,0,0,0,0,0,0,0,0,0,0,0,0,0,0,0,0,0,0,0,0,0,0,0,0,0,0,0,0,0,0,0,0,0,0,0,0,0,0,0,0,0,0,0,0,0,0,0,0,0,0,0,0,0,0,0,0,0,0,0,0,0,718,721,732,726,773,1015,1140,1271,1367,1410,1402,1388,1362,1339,1318,1298,1272,1255,1234,1213,1192,1171,1150,1129,1118,1084,1063,1031,1010,918,861,805,756,741,729,729,750,729,705,699,699,700,702,703,719,715,700,715,710,700,699,704,709,720,721,711,724,705,704,718,714,706,702,702,699,0,0,0,0,0,0,0,0,0,0,0,0,0,0,0,0,0,0,0,0,0,0,0,0,0,0,0,0,0,0,0,0,0,0,0,0,0,0,0,0,0,0,0,0,0,0,0,0,0,0,0,0,0,0,0,0,0,0,0,0,0,0,0,0,0,844,848,846,853,901,1107,1381,1493,1637,1647,1666,1645,1590,1578,1549,1533,1517,1494,1467,1408,1384,1386,1359,1324,1305,1277,1249,1115,1089,1078,1053,943,937,876,861,857,842,820,801,820,805,813,826,822,834,831,822,828,830,837,829,825,825,831,829,834,836,832,829,830,826,829,825,830,818,925,973,931,939,1079,1357,1566,1757,1860,1834,1821,1876,1829,1744,1761,1694,1665,1624,1666,1569,1592,1517,1492,1453,1461,1400,1365,1327,1315,1230,1196,1112,973,977,939,936,915,952,922,923,934,934,932,934,936,945,939,947,941,943,948,953,950,946,960,957,956,981,960,959,966,983,956,973,955,1216,1220,1224,1275,1552,1959,2222,2434,2495,2527,2504,2474,2422,2385,2341,2296,2248,2203,2162,2116,2063,2028,1981,1938,1889,1847,1804,1759,1631,1548,1374,1300,1287,1252,1234,1237,1251,1219,1218,1219,1222,1242,1246,1223,1256,1233,1257,1252,1239,1249,1255,1293,1309,1259,1271,1271,1260,1249,1245,1249,1261,1285,1251,1275,1243,266,267,268,269,270,347,393,440,486,531,545,536,528,519,510,501,492,484,475,466,457,449,441,432,423,414,405,397,388,379,370,361,353,281,275,270,271,272,256,256,259,264,259,261,257,259,259,261,261,259,260,268,315,280,268,265,261,264,263,264,261,267,262,266,262,1162,1146,1164,1187,1323,1609,1986,2132,2244,2258,2274,2229,2167,2131,2115,2088,2043,2013,1983,1914,1884,1872,1839,1812,1758,1719,1623,1583,1531,1269,1327,1251,1222,1197,1182,1172,1113,1120,1100,1108,1113,1115,1120,1124,1130,1125,1116,1122,1124,1134,1123,1119,1119,1125,1123,1128,1130,1123,1123,1124,1120,1123,1119,1124,1112,1198,1182,1200,1227,1386,1671,2056,2199,2311,2323,2338,2293,2252,2192,2175,2148,2103,2083,2040,1969,1938,1925,1892,1863,1825,1770,1691,1602,1550,1319,1295,1287,1267,1233,1218,1195,1136,1143,1123,1131,1136,1138,1143,1147,1153,1148,1139,1145,1147,1157,1146,1142,1142,1148,1146,1151,1153,1146,1146,1147,1143,1146,1142,1147,1135,921,973,932,948,1014,1360,1544,1765,1857,1824,1825,1864,1827,1741,1758,1682,1650,1624,1650,1568,1592,1508,1479,1450,1447,1388,1361,1327,1303,1230,1214,1117,972,950,938,936,907,940,922,923,930,934,932,934,936,945,939,940,936,937,939,939,946,945,958,943,941,952,960,943,947,948,956,946,941,800,856,811,811,906,1152,1309,1520,1615,1587,1592,1635,1602,1520,1541,1469,1439,1414,1449,1367,1400,1315,1290,1265,1266,1211,1188,1159,1137,1145,1121,1054,846,827,812,810,814,845,834,832,837,843,842,837,841,854,847,846,841,844,844,844,847,852,883,848,844,857,862,846,852,849,870,849,844,832,835,835,842,893,1088,1356,1465,1612,1617,1640,1617,1564,1553,1526,1509,1491,1474,1445,1388,1366,1367,1348,1304,1289,1261,1234,1202,1150,1147,1041,930,926,886,850,845,831,808,794,799,794,805,807,813,821,814,805,811,813,823,812,808,808,814,812,817,819,815,812,813,809,812,808,813,801,0,0,0,0,0,0,0,0,0,0,0,0,0,0,0,0,0,0,0,0,0,0,0,0,0,0,0,0,0,0,0,0,0,0,0,0,0,0,0,0,0,0,0,0,0,0,0,0,0,0,0,0,0,0,0,0,0,0,0,0,0,0,0,0,0 ]);
