n = 10;
D = [169,129,292,72,230,219,64,82,271,191 ];
q = 0;
prec = array2d(1..0,1..2,[]);
steps = 64;
l = 360;
r = 0;
which = [];
interval = array2d(1..0,1..2,[]);
T = array3d(1..11,1..11,0..64,[0,0,0,0,0,0,0,0,0,0,0,0,0,0,0,0,0,0,0,0,0,0,0,0,0,0,0,0,0,0,0,0,0,0,0,0,0,0,0,0,0,0,0,0,0,0,0,0,0,0,0,0,0,0,0,0,0,0,0,0,0,0,0,0,0,980,998,985,1003,1059,1584,2131,2299,2403,2445,2425,2396,2352,2310,2277,2234,2195,2139,2104,2058,1984,1937,1865,1825,1787,1746,1720,1610,1371,1293,1074,1081,1028,1006,975,989,1001,987,988,993,1003,1002,997,1005,1010,1000,1017,1018,1012,1015,1013,1015,1033,1011,1017,1016,1021,1030,1009,1007,1018,1039,1026,1004,1001,1219,1222,1218,1249,1697,2413,2764,2884,2989,3046,2989,2968,2872,2838,2779,2728,2697,2625,2602,2522,2466,2399,2359,2330,2049,1940,1871,1678,1548,1502,1360,1307,1276,1247,1226,1235,1216,1208,1204,1202,1202,1213,1213,1208,1207,1232,1202,1210,1207,1206,1208,1229,1216,1210,1237,1214,1216,1215,1231,1235,1210,1212,1211,1212,1206,931,935,938,1017,986,1776,2064,2241,2379,2409,2401,2325,2284,2242,2228,2186,2207,2191,2058,2032,1987,1928,1951,1850,1797,1777,1724,1661,1448,1221,1027,1011,1012,965,937,947,952,956,963,954,972,969,964,965,972,976,983,988,965,981,968,1006,976,988,988,1006,981,980,981,987,995,977,976,972,971,187,188,188,189,189,296,336,374,414,453,471,464,457,448,441,434,427,418,411,404,396,388,381,374,366,358,351,343,336,328,321,313,306,298,193,190,191,191,180,180,178,180,185,184,184,184,184,184,184,193,214,192,188,188,192,182,185,214,210,211,190,192,211,213,191,820,825,835,849,914,1267,1668,1773,1985,2005,1996,1977,1972,1866,1837,1836,1801,1747,1756,1706,1729,1622,1625,1578,1532,1497,1466,1472,1325,1060,916,927,874,883,844,844,879,871,833,835,836,846,837,849,835,843,840,835,841,837,843,847,839,843,844,848,844,852,846,848,848,847,847,847,847,200,200,200,207,208,310,351,389,430,469,497,490,483,474,466,459,451,443,436,427,419,412,405,396,388,381,373,366,358,350,341,334,326,318,212,208,208,209,178,176,177,178,177,179,178,182,178,180,179,177,179,181,179,181,180,181,180,180,180,181,181,181,181,181,181,893,871,872,879,1062,1645,1906,2179,2210,2254,2237,2197,2159,2125,2140,2046,2006,1967,1926,1887,1847,1807,1817,1731,1695,1653,1651,1615,1389,1325,1011,985,919,897,883,883,865,870,860,858,863,875,874,880,871,881,877,889,881,877,880,893,888,883,916,893,890,894,895,901,889,891,890,891,885,616,618,620,621,645,1086,1276,1453,1581,1636,1620,1603,1574,1516,1504,1486,1458,1514,1399,1345,1341,1312,1282,1254,1225,1196,1167,1137,1108,1080,1028,993,806,642,628,625,628,632,624,619,621,622,631,625,628,629,631,637,632,644,651,641,638,648,644,639,640,644,658,660,710,720,720,720,720,772,767,777,798,840,952,1526,1696,1819,1906,1910,1863,1834,1793,1778,1737,1711,1688,1652,1622,1592,1564,1533,1503,1477,1447,1420,1389,1330,1108,1014,976,868,800,800,790,784,749,737,739,742,735,746,751,742,749,751,765,749,749,742,748,773,758,746,770,755,776,748,745,746,771,769,751,748,0,0,0,0,0,0,0,0,0,0,0,0,0,0,0,0,0,0,0,0,0,0,0,0,0,0,0,0,0,0,0,0,0,0,0,0,0,0,0,0,0,0,0,0,0,0,0,0,0,0,0,0,0,0,0,0,0,0,0,0,0,0,0,0,0,888,893,895,909,997,1377,1920,2145,2239,2290,2299,2262,2213,2172,2142,2102,2047,2030,1994,1918,1901,1850,1810,1792,1735,1716,1647,1610,1397,1169,1177,962,964,916,896,920,924,905,900,904,910,907,925,918,939,928,913,953,916,913,911,910,922,927,920,917,919,912,912,920,915,929,936,929,918,0,0,0,0,0,0,0,0,0,0,0,0,0,0,0,0,0,0,0,0,0,0,0,0,0,0,0,0,0,0,0,0,0,0,0,0,0,0,0,0,0,0,0,0,0,0,0,0,0,0,0,0,0,0,0,0,0,0,0,0,0,0,0,0,0,554,557,559,559,564,687,1037,1153,1329,1369,1384,1344,1341,1318,1282,1260,1247,1212,1207,1173,1163,1142,1118,1099,1070,1047,997,1003,974,952,821,692,600,660,580,566,575,577,535,534,538,537,538,540,539,539,539,541,544,545,542,545,559,560,545,543,552,545,545,547,547,548,543,546,544,681,683,675,677,699,1008,1275,1450,1620,1644,1660,1638,1602,1599,1538,1511,1518,1460,1447,1425,1412,1364,1337,1314,1295,1268,1251,1211,1162,929,859,732,726,708,698,692,682,682,659,663,661,671,677,669,676,667,664,669,668,671,668,675,698,698,701,692,684,674,673,665,671,670,695,673,667,933,932,934,942,1081,1513,2105,2349,2437,2470,2474,2431,2377,2330,2293,2241,2187,2150,2107,2020,2013,1968,1922,1898,1837,1806,1737,1692,1453,1225,1121,1014,1004,956,936,967,967,942,947,952,951,955,961,959,948,962,965,988,974,967,971,969,973,978,973,967,975,982,973,991,967,980,986,993,979,461,497,507,468,471,561,848,1006,1074,1123,1158,1143,1098,1084,1112,1050,1065,1032,1029,1024,1020,1009,964,948,884,914,900,748,703,764,644,621,616,524,514,504,504,474,504,496,502,516,507,504,504,509,504,523,524,508,514,512,514,512,560,537,502,515,531,508,505,504,512,508,500,850,852,855,862,889,1365,1638,1843,1987,2078,2067,2036,2005,1970,1938,1904,1872,1837,1803,1774,1738,1707,1672,1639,1608,1575,1544,1508,1325,1189,1126,1025,895,878,889,864,866,868,855,855,863,876,875,876,868,874,872,887,876,871,900,896,889,873,896,888,866,883,870,872,871,869,874,875,861,207,208,208,208,209,318,381,424,471,500,530,506,513,505,482,474,480,458,463,441,448,439,430,422,402,393,397,376,362,354,348,335,327,320,312,210,316,316,169,169,169,170,168,170,169,168,167,168,169,170,167,169,180,179,169,167,175,169,169,170,171,171,167,169,168,833,834,836,838,884,1198,1662,1879,1983,2030,2056,2017,1965,1942,1920,1881,1829,1817,1777,1704,1694,1678,1645,1627,1578,1567,1512,1470,1360,1252,1081,996,923,851,836,863,856,837,843,843,847,852,853,852,849,855,846,847,853,846,872,851,855,861,855,878,855,877,876,857,868,861,847,861,850,368,369,371,372,373,493,646,698,747,792,806,796,787,778,769,759,751,744,735,753,714,704,696,686,698,668,661,653,640,631,622,591,566,385,377,373,374,376,363,355,360,371,373,370,354,365,360,371,371,369,370,370,374,377,375,377,360,371,364,373,377,365,369,371,368,888,893,895,909,997,1377,1920,2145,2239,2290,2299,2262,2213,2172,2142,2102,2047,2030,1994,1918,1901,1850,1810,1792,1735,1716,1647,1610,1397,1169,1177,962,964,916,896,920,924,905,900,904,910,907,925,918,939,928,913,953,916,913,911,910,922,927,920,917,919,912,912,920,915,929,936,929,918,1157,1143,1146,1179,1576,2053,2614,2766,2866,2887,2880,2793,2761,2709,2658,2632,2556,2506,2480,2405,2346,2325,2283,2204,2088,1923,1872,1745,1490,1250,1246,1202,1180,1190,1150,1160,1166,1160,1165,1164,1162,1182,1174,1175,1190,1177,1173,1169,1183,1181,1176,1180,1178,1193,1180,1179,1183,1181,1182,1183,1183,1197,1180,1180,1180,557,558,560,561,564,858,1061,1192,1315,1373,1375,1332,1331,1303,1279,1264,1241,1220,1198,1174,1148,1131,1108,1083,1068,1049,1023,1002,935,915,796,765,739,598,565,572,566,548,499,499,500,504,509,518,514,513,510,519,515,517,517,517,517,525,519,511,524,519,515,522,517,517,511,511,511,0,0,0,0,0,0,0,0,0,0,0,0,0,0,0,0,0,0,0,0,0,0,0,0,0,0,0,0,0,0,0,0,0,0,0,0,0,0,0,0,0,0,0,0,0,0,0,0,0,0,0,0,0,0,0,0,0,0,0,0,0,0,0,0,0,555,556,558,560,657,860,1080,1206,1284,1362,1334,1341,1320,1298,1276,1250,1233,1212,1165,1168,1147,1125,1104,1082,1060,1060,1034,996,954,952,930,815,789,724,566,563,564,566,633,549,553,557,557,565,557,566,557,641,572,564,560,566,567,572,572,572,565,568,567,571,576,573,572,639,633,1196,1183,1186,1244,1709,2226,2812,2947,3043,3060,3044,2955,2917,2860,2804,2773,2690,2635,2605,2524,2475,2440,2374,2300,2096,2057,1843,1670,1539,1296,1288,1242,1248,1230,1193,1202,1209,1207,1213,1205,1210,1219,1216,1209,1227,1229,1233,1239,1237,1242,1235,1239,1236,1246,1230,1235,1253,1242,1254,1236,1234,1249,1244,1244,1240,990,995,995,1004,1052,1662,2077,2247,2354,2424,2374,2355,2300,2250,2225,2199,2163,2131,2091,2073,2005,1981,1962,1910,1828,1656,1732,1509,1294,1246,1188,1105,1104,1028,1033,1022,1007,992,950,949,956,963,969,971,972,962,961,971,973,970,969,974,974,981,971,968,980,974,973,969,968,974,967,967,967,1255,1246,1251,1293,1360,2296,2849,2990,3090,3109,3096,3009,2973,2917,2862,2833,2753,2698,2670,2597,2529,2506,2452,2335,1982,1817,1770,1562,1527,1352,1348,1301,1281,1289,1250,1247,1251,1257,1242,1242,1239,1239,1264,1261,1269,1257,1252,1262,1264,1269,1262,1267,1266,1274,1261,1260,1274,1269,1269,1266,1264,1266,1259,1259,1259,436,432,434,444,440,655,816,910,1004,1056,1085,1068,1033,1010,1016,999,982,965,928,914,897,880,879,852,844,810,795,776,719,704,688,670,637,451,441,437,441,430,381,380,383,388,395,397,398,391,388,398,398,400,393,398,398,405,395,392,405,399,398,397,396,397,390,390,390,1096,1096,1100,1110,1160,1828,2339,2524,2632,2662,2632,2602,2528,2505,2471,2419,2383,2345,2296,2248,2193,2170,2131,2056,2046,2028,1960,1760,1431,1196,1193,1164,1141,1144,1089,1114,1114,1103,1104,1101,1107,1108,1109,1110,1120,1110,1107,1118,1116,1129,1117,1121,1119,1128,1125,1115,1132,1128,1120,1127,1115,1118,1112,1112,1112,811,801,816,818,827,1253,1586,1823,1937,1969,1932,1924,1905,1865,1809,1805,1777,1749,1710,1657,1657,1623,1566,1564,1532,1504,1453,1356,1277,1192,1035,955,852,844,826,827,812,785,733,734,739,744,749,751,754,743,740,750,750,752,745,750,750,757,747,744,757,752,752,749,749,749,742,742,742,1157,1143,1146,1179,1576,2053,2614,2766,2866,2887,2880,2793,2761,2709,2658,2632,2556,2506,2480,2405,2346,2325,2283,2204,2088,1923,1872,1745,1490,1250,1246,1202,1180,1190,1150,1160,1166,1160,1165,1164,1162,1182,1174,1175,1190,1177,1173,1169,1183,1181,1176,1180,1178,1193,1180,1179,1183,1181,1182,1183,1183,1197,1180,1180,1180,898,901,903,907,951,1584,2025,2192,2317,2352,2322,2282,2253,2212,2169,2128,2086,2045,2002,1961,1919,1868,1835,1794,1752,1711,1665,1627,1548,1315,1000,990,963,948,923,911,922,928,885,884,893,903,903,907,892,904,903,919,913,901,917,923,933,931,912,921,914,924,915,916,918,937,922,936,933,642,624,631,633,650,890,1209,1352,1471,1526,1526,1502,1478,1454,1431,1407,1381,1358,1341,1311,1293,1292,1242,1217,1219,1186,1164,1152,1096,1005,821,779,682,667,659,632,652,619,604,597,605,616,629,612,628,618,645,626,614,626,637,622,641,624,613,642,614,630,625,626,640,631,625,619,613,524,525,527,528,536,871,1004,1124,1235,1288,1293,1272,1251,1231,1210,1190,1170,1148,1128,1107,1087,1060,1046,1024,1004,979,963,943,921,901,877,808,725,546,535,532,533,535,520,511,508,520,519,520,516,519,514,519,519,516,517,519,525,522,519,517,520,519,519,519,520,520,515,519,517,0,0,0,0,0,0,0,0,0,0,0,0,0,0,0,0,0,0,0,0,0,0,0,0,0,0,0,0,0,0,0,0,0,0,0,0,0,0,0,0,0,0,0,0,0,0,0,0,0,0,0,0,0,0,0,0,0,0,0,0,0,0,0,0,0,938,941,946,955,1076,1720,2224,2422,2498,2530,2494,2455,2408,2371,2324,2277,2230,2183,2135,2088,2044,1998,1947,1900,1853,1807,1755,1714,1464,1104,1047,1032,1002,988,963,959,967,969,941,942,925,934,950,930,938,948,945,945,967,944,947,953,954,965,948,964,954,968,954,955,954,970,983,967,965,944,927,951,954,1013,1404,1955,2121,2221,2288,2246,2230,2197,2146,2101,2065,2054,2038,2008,1928,1915,1890,1854,1814,1752,1584,1586,1537,1388,1297,1154,1029,1012,959,977,972,966,940,931,939,936,947,937,939,945,956,946,941,944,967,968,958,943,945,945,945,943,942,935,943,938,964,964,964,938,1000,999,1007,1013,1082,1794,2273,2432,2542,2579,2546,2502,2460,2424,2379,2332,2287,2245,2199,2152,2109,2052,2016,1972,1927,1882,1836,1791,1575,1419,1103,1096,1061,1047,1022,1013,1009,1012,980,981,991,1006,991,987,999,1005,993,994,995,995,998,1002,1005,1009,1010,998,1003,1004,1021,1021,1003,1032,1022,1024,1022,480,485,485,487,526,642,910,1021,1124,1187,1192,1172,1154,1136,1119,1096,1081,1062,1042,1024,1004,985,967,947,928,910,891,871,855,831,663,649,594,506,495,492,493,471,459,452,454,454,458,459,460,462,476,460,459,459,487,468,476,464,461,486,461,480,462,462,471,462,457,459,453,854,857,864,866,941,1384,1886,1995,2084,2121,2109,2177,2102,2004,1963,1935,1889,1865,1830,1796,1758,1790,1696,1663,1628,1594,1564,1582,1317,1202,1172,925,898,884,874,872,870,876,872,880,876,893,883,885,886,896,883,901,885,878,913,891,894,893,896,915,909,909,913,885,905,928,892,892,892,745,744,745,749,754,1015,1478,1645,1773,1818,1804,1786,1751,1718,1700,1666,1634,1609,1587,1549,1518,1496,1471,1438,1412,1397,1358,1345,1297,1165,858,840,788,777,763,756,760,738,729,729,732,734,735,737,743,741,744,739,737,739,764,748,741,743,739,743,740,740,733,741,736,743,741,742,736,898,901,903,907,951,1584,2025,2192,2317,2352,2322,2282,2253,2212,2169,2128,2086,2045,2002,1961,1919,1868,1835,1794,1752,1711,1665,1627,1548,1315,1000,990,963,948,923,911,922,928,885,884,893,903,903,907,892,904,903,919,913,901,917,923,933,931,912,921,914,924,915,916,918,937,922,936,933,129,130,130,131,131,201,228,253,278,303,321,315,310,306,301,296,291,286,280,276,271,266,261,256,250,246,241,236,231,226,222,216,211,206,201,198,198,199,196,120,121,121,120,123,121,124,120,125,123,120,121,123,121,121,124,124,123,123,121,124,121,124,124,124,124,1009,1009,1013,1032,1090,1861,2194,2370,2472,2513,2493,2450,2406,2362,2329,2296,2254,2197,2164,2120,2002,1958,1918,1879,1840,1798,1768,1656,1437,1165,1113,1104,1084,1037,1003,1023,1028,1004,1021,1023,1027,1039,1037,1038,1036,1032,1055,1057,1053,1053,1041,1051,1063,1047,1054,1064,1053,1049,1050,1061,1052,1048,1062,1046,1038,1248,1249,1263,1277,1646,2473,2799,2993,3062,3104,3088,3026,2935,2930,2845,2787,2757,2694,2660,2578,2521,2454,2404,2358,2036,1776,1678,1681,1451,1428,1384,1336,1308,1247,1256,1265,1240,1234,1244,1219,1224,1232,1227,1236,1236,1290,1239,1235,1242,1234,1239,1239,1239,1239,1243,1238,1247,1243,1238,1234,1241,1322,1242,1240,1240,960,964,968,1007,1159,1863,2113,2304,2414,2475,2468,2425,2476,2328,2294,2251,2199,2157,2133,2072,2046,1983,2012,1890,1839,1828,1773,1644,1448,1294,1187,1132,1033,980,976,985,990,974,984,984,1001,1019,1002,1001,1000,1025,1012,1013,998,1017,988,1012,999,1035,1023,1018,1008,1012,1006,1019,1010,1021,1006,1011,1003,0,0,0,0,0,0,0,0,0,0,0,0,0,0,0,0,0,0,0,0,0,0,0,0,0,0,0,0,0,0,0,0,0,0,0,0,0,0,0,0,0,0,0,0,0,0,0,0,0,0,0,0,0,0,0,0,0,0,0,0,0,0,0,0,0,902,874,877,900,965,1302,1832,1945,2177,2191,2171,2110,2081,2017,1969,1979,1942,1886,1877,1842,1825,1750,1703,1707,1646,1639,1628,1490,1365,1082,1064,938,958,877,910,884,938,889,895,883,893,897,903,911,897,901,904,913,911,912,914,913,920,929,920,921,922,923,921,922,924,920,919,928,923,301,302,302,304,305,357,540,602,664,718,733,721,710,698,686,675,663,652,640,628,618,606,594,583,571,559,548,536,525,513,456,445,434,363,304,306,330,349,294,293,294,297,297,298,298,300,297,298,299,295,298,297,297,301,301,298,298,298,298,301,297,301,297,301,301,897,924,902,915,1077,1743,1982,2172,2282,2323,2303,2320,2222,2182,2141,2106,2066,2025,1984,1943,1902,1861,1878,1781,1739,1704,1663,1623,1467,1275,1001,999,949,926,912,936,893,899,908,898,903,911,906,915,915,941,918,914,921,913,918,918,918,918,922,917,926,922,917,913,920,978,921,919,919,644,646,648,637,664,1160,1346,1530,1654,1705,1699,1669,1732,1609,1578,1548,1518,1488,1458,1402,1398,1342,1338,1306,1276,1246,1208,1186,1225,1126,1096,1042,811,658,651,655,658,661,652,649,645,645,651,664,654,660,664,671,665,676,676,664,750,678,763,670,676,756,676,764,678,672,770,680,753,801,803,804,823,913,1307,1714,1884,2007,2049,2035,2002,1964,1930,1905,1865,1828,1777,1758,1727,1690,1650,1614,1582,1534,1514,1480,1444,1330,1063,994,972,853,832,828,827,784,775,770,769,779,772,784,783,781,781,781,801,778,788,783,789,833,792,800,799,797,784,789,792,780,793,797,790,785,129,130,130,131,131,201,228,253,278,303,321,315,310,306,301,296,291,286,280,276,271,266,261,256,250,246,241,236,231,226,222,216,211,206,201,198,198,199,196,120,121,121,120,123,121,124,120,125,123,120,121,123,121,121,124,124,123,123,121,124,121,124,124,124,124,836,839,851,859,904,1399,1626,1811,1926,1987,1962,1928,1960,1894,1855,1828,1794,1810,1732,1702,1675,1640,1610,1579,1549,1509,1478,1340,1417,1146,1012,993,951,844,850,832,850,851,836,841,848,842,847,842,847,854,848,847,861,844,855,855,860,866,859,860,860,863,853,856,854,850,859,866,844,519,502,514,523,535,653,948,1061,1162,1201,1202,1186,1167,1149,1137,1118,1110,1091,1072,1053,1035,1015,998,979,961,933,913,899,876,776,668,651,568,520,527,509,508,514,488,494,498,505,507,509,497,510,496,507,504,506,504,514,513,504,512,512,510,511,508,512,512,510,503,512,500,1003,980,972,1014,1069,1414,2061,2167,2333,2346,2330,2234,2215,2219,2182,2148,2113,2029,2053,2015,1947,1942,1902,1860,1819,1799,1638,1383,1388,1094,1067,1048,1028,1019,995,972,996,976,936,940,946,945,940,947,943,949,957,944,953,948,951,952,964,957,956,957,961,960,956,955,963,954,948,954,952,1037,1015,1021,1080,1209,1620,2121,2312,2390,2416,2395,2347,2306,2266,2242,2197,2179,2157,2124,2083,2045,1983,1962,1924,1892,1845,1588,1472,1412,1272,1098,1166,1068,1047,1052,1027,1016,1055,988,981,988,999,993,1007,996,1001,1000,1000,1012,1007,1002,1012,1009,1009,1013,1017,1003,1020,1011,1009,1020,1009,1010,1008,1006,900,911,935,943,986,1378,1840,2003,2091,2175,2092,2122,2112,2072,2004,1964,1932,1900,1879,1815,1807,1784,1750,1737,1702,1641,1623,1283,1379,1142,1081,964,940,926,932,912,904,903,902,899,907,915,907,919,912,913,918,912,921,912,918,918,924,946,936,931,917,930,921,918,907,926,922,934,914,0,0,0,0,0,0,0,0,0,0,0,0,0,0,0,0,0,0,0,0,0,0,0,0,0,0,0,0,0,0,0,0,0,0,0,0,0,0,0,0,0,0,0,0,0,0,0,0,0,0,0,0,0,0,0,0,0,0,0,0,0,0,0,0,0,711,712,724,720,763,1150,1340,1495,1617,1686,1662,1638,1675,1604,1579,1552,1526,1549,1474,1448,1423,1396,1371,1345,1318,1285,1258,1172,1206,1150,978,906,802,718,723,703,721,721,706,715,718,712,726,713,721,724,728,718,731,714,731,723,730,736,727,729,731,730,721,724,723,720,727,736,712,632,618,619,640,652,676,1175,1313,1436,1481,1456,1433,1437,1389,1396,1342,1336,1312,1291,1291,1242,1226,1197,1175,1152,1142,1080,1039,1021,955,673,706,640,639,645,626,626,610,571,571,579,575,570,577,572,577,584,569,578,573,575,576,587,581,580,580,585,584,579,579,586,578,571,578,576,843,851,858,860,875,1473,1714,1850,1969,2010,1997,1953,1938,1927,1864,1855,1834,1775,1754,1725,1684,1664,1631,1556,1569,1597,1513,1422,1360,1239,1063,984,881,872,866,857,852,859,839,841,839,839,854,849,856,853,849,857,857,853,866,864,865,860,862,864,863,861,850,860,860,856,853,858,852,327,304,315,381,382,412,535,596,648,675,686,678,668,660,649,642,646,637,627,618,608,598,588,579,570,588,562,532,523,513,504,413,322,404,389,316,307,386,307,307,304,308,308,310,310,316,307,309,311,316,311,308,308,315,312,311,308,311,304,307,304,308,307,308,304,836,839,851,859,904,1399,1626,1811,1926,1987,1962,1928,1960,1894,1855,1828,1794,1810,1732,1702,1675,1640,1610,1579,1549,1509,1478,1340,1417,1146,1012,993,951,844,850,832,850,851,836,841,848,842,847,842,847,854,848,847,861,844,855,855,860,866,859,860,860,863,853,856,854,850,859,866,844,132,132,132,132,133,205,265,256,283,309,325,320,315,310,306,343,295,290,285,280,274,270,265,260,255,249,244,240,235,230,224,219,214,210,204,229,229,230,130,130,129,130,130,131,129,129,129,131,129,129,130,130,132,132,130,130,132,131,131,136,132,132,131,130,132,894,897,899,914,1004,1478,1850,2012,2126,2140,2131,2136,2065,2057,1998,2002,1952,1909,1861,1844,1825,1686,1674,1624,1632,1588,1533,1474,1296,1011,989,970,943,920,910,918,906,899,895,889,905,908,899,905,915,916,919,915,922,918,919,922,915,928,921,928,919,926,917,914,919,928,918,928,917,1209,1214,1210,1240,1581,2398,2733,2905,2970,3000,3010,2914,2865,2820,2794,2714,2662,2605,2578,2529,2450,2384,2323,2239,1998,1843,1753,1654,1426,1336,1331,1293,1271,1221,1229,1228,1212,1196,1195,1191,1191,1191,1191,1191,1191,1191,1191,1191,1191,1191,1191,1191,1191,1191,1191,1191,1191,1191,1191,1191,1191,1191,1191,1191,1191,924,916,930,942,976,1759,2060,2230,2325,2367,2425,2341,2361,2258,2208,2166,2125,2102,2058,1980,1974,1898,1928,1847,1835,1734,1723,1644,1448,1269,1204,1050,996,953,977,939,982,948,945,945,945,945,945,945,945,945,945,945,945,945,945,945,945,945,945,945,945,945,945,945,945,945,945,945,945,247,247,248,249,250,301,437,488,539,591,620,609,600,590,580,570,560,550,541,530,520,511,501,490,481,471,460,451,441,432,421,411,402,306,254,251,306,252,208,207,209,209,211,220,209,222,209,211,214,210,213,217,214,217,214,214,214,217,218,218,213,213,213,213,213,715,687,689,712,767,1088,1419,1536,1669,1683,1670,1659,1647,1618,1582,1579,1536,1488,1490,1412,1408,1404,1369,1357,1298,1268,1248,1219,1218,1068,957,920,720,686,733,675,693,699,693,696,700,719,706,706,700,718,703,706,701,705,699,711,702,712,717,716,713,708,704,715,712,737,728,741,725,0,0,0,0,0,0,0,0,0,0,0,0,0,0,0,0,0,0,0,0,0,0,0,0,0,0,0,0,0,0,0,0,0,0,0,0,0,0,0,0,0,0,0,0,0,0,0,0,0,0,0,0,0,0,0,0,0,0,0,0,0,0,0,0,0,881,887,864,870,1037,1630,1887,2095,2224,2236,2219,2179,2147,2107,2068,2028,1990,1950,1909,1915,1831,1792,1752,1720,1680,1677,1649,1555,1381,1029,1002,984,912,889,898,874,861,861,874,870,870,870,870,870,870,870,870,870,870,870,870,870,870,870,870,870,870,870,870,870,870,870,870,870,870,608,610,612,608,636,1078,1258,1401,1532,1618,1614,1585,1556,1527,1471,1470,1441,1412,1383,1354,1326,1287,1268,1239,1228,1182,1165,1124,1132,1066,1038,1009,851,634,620,605,620,624,614,614,614,614,614,614,614,614,614,614,614,614,614,614,614,614,614,614,614,614,614,614,614,614,614,614,614,674,666,681,725,716,846,1260,1405,1506,1555,1554,1529,1526,1480,1453,1461,1407,1383,1359,1332,1336,1284,1259,1234,1214,1191,1167,1144,1150,975,861,841,823,668,657,648,656,630,630,634,631,639,647,652,643,649,650,649,649,649,649,649,649,649,649,649,649,649,649,649,649,649,649,649,649,132,132,132,132,133,205,265,256,283,309,325,320,315,310,306,343,295,290,285,280,274,270,265,260,255,249,244,240,235,230,224,219,214,210,204,229,229,230,130,130,129,130,130,131,129,129,129,131,129,129,130,130,132,132,130,130,132,131,131,136,132,132,131,130,132,798,801,804,813,836,1314,1680,1890,2039,2071,2068,2031,2005,1967,1929,1892,1858,1817,1756,1746,1701,1664,1626,1590,1549,1513,1470,1438,1393,1256,1006,872,873,824,814,812,818,820,773,784,784,780,801,789,796,801,786,799,783,785,783,783,791,787,788,785,787,783,782,789,787,787,813,813,813,231,228,229,230,230,266,407,454,501,548,571,569,553,522,559,549,540,515,498,496,502,470,468,452,426,434,431,416,406,382,396,330,370,240,266,231,232,232,217,219,216,219,219,219,219,219,217,219,219,219,218,219,219,219,219,219,219,219,219,219,219,219,219,219,219,429,431,432,433,439,526,784,875,961,1041,1065,1050,1038,1014,997,982,963,946,928,912,891,878,860,844,828,813,794,724,756,741,726,527,516,450,462,439,436,438,392,392,392,392,392,392,392,392,392,392,392,392,392,392,392,392,392,392,392,392,392,392,392,392,392,392,392,555,556,559,560,579,773,1059,1182,1262,1353,1337,1341,1319,1298,1267,1239,1217,1215,1175,1154,1154,1129,1104,1082,1046,1039,1017,996,974,929,709,631,617,601,556,563,564,566,542,537,535,534,534,534,534,534,534,534,534,534,534,534,534,534,534,534,534,534,534,534,534,534,534,534,534,838,840,843,850,888,1450,1855,2106,2229,2269,2261,2216,2174,2131,2087,2043,2000,1957,1904,1870,1826,1783,1755,1697,1652,1609,1561,1537,1434,1253,940,916,905,873,854,855,861,857,820,832,825,828,837,830,832,835,838,855,841,839,843,842,842,838,841,835,843,853,843,859,839,838,857,857,857,563,561,593,567,569,760,1055,1170,1306,1359,1403,1355,1358,1316,1295,1266,1258,1234,1200,1192,1172,1182,1128,1108,1100,1088,1032,853,975,817,705,727,654,670,611,599,604,570,562,569,569,573,575,574,574,574,571,573,573,577,570,580,584,584,584,583,580,580,581,575,572,572,577,577,577,897,900,902,914,949,1404,1860,2055,2158,2220,2218,2191,2150,2123,2088,2072,2015,1984,1954,1921,1888,1851,1809,1770,1726,1684,1639,1604,1432,1189,996,973,964,924,913,912,904,900,860,861,862,867,867,871,864,874,866,864,869,866,869,869,869,868,869,866,868,869,870,871,869,868,869,869,869,0,0,0,0,0,0,0,0,0,0,0,0,0,0,0,0,0,0,0,0,0,0,0,0,0,0,0,0,0,0,0,0,0,0,0,0,0,0,0,0,0,0,0,0,0,0,0,0,0,0,0,0,0,0,0,0,0,0,0,0,0,0,0,0,0,740,742,744,746,787,1135,1450,1612,1749,1815,1820,1779,1749,1719,1699,1652,1630,1599,1569,1549,1519,1489,1459,1427,1398,1376,1335,1311,1277,1180,1032,974,827,770,753,746,754,752,716,723,721,725,729,723,730,728,719,719,720,718,731,724,724,721,723,736,723,734,734,726,736,719,721,721,721,388,391,390,390,399,559,703,780,857,934,957,936,922,908,889,879,864,849,835,816,809,790,782,760,748,724,716,702,684,672,657,568,515,500,398,396,396,397,355,352,354,356,356,354,354,356,352,352,352,352,352,352,352,352,352,352,352,352,353,354,352,353,352,352,352,798,801,804,813,836,1314,1680,1890,2039,2071,2068,2031,2005,1967,1929,1892,1858,1817,1756,1746,1701,1664,1626,1590,1549,1513,1470,1438,1393,1256,1006,872,873,824,814,812,818,820,773,784,784,780,801,789,796,801,786,799,783,785,783,783,791,787,788,785,787,783,782,789,787,787,813,813,813,612,600,601,602,678,1149,1394,1603,1692,1763,1774,1696,1681,1627,1639,1558,1575,1490,1512,1480,1386,1352,1342,1282,1238,1214,1170,1167,1111,1076,1041,857,648,625,623,604,608,619,610,616,620,632,647,645,631,681,624,701,640,682,641,633,649,693,648,639,686,643,643,686,649,700,640,645,638,853,856,858,860,956,1477,1772,1968,2077,2123,2114,2080,2045,2007,1971,1933,1897,1874,1822,1786,1762,1650,1619,1586,1551,1518,1485,1433,1387,1169,1085,1041,909,883,868,866,850,866,848,856,877,897,883,850,865,888,881,874,908,898,869,895,891,909,903,858,882,881,902,898,880,899,894,873,872,1107,1104,1119,1141,1349,2128,2416,2572,2699,2706,2686,2654,2589,2545,2545,2469,2418,2394,2330,2304,2240,2186,2128,2086,2073,2022,1737,1702,1601,1344,1259,1172,1146,1132,1123,1128,1101,1088,1084,1084,1087,1101,1099,1099,1100,1110,1098,1099,1103,1102,1104,1110,1110,1108,1107,1098,1107,1109,1106,1098,1102,1114,1096,1103,1092,847,844,824,828,860,1543,1748,1926,2039,2062,2049,2041,2016,1983,1949,1909,1879,1834,1798,1742,1747,1692,1657,1621,1586,1550,1515,1482,1428,1329,1018,1155,868,841,835,867,836,828,837,837,830,828,852,848,853,851,855,865,857,859,852,865,851,865,860,869,859,856,864,856,853,848,860,858,848,638,639,640,642,731,1249,1513,1804,1886,1958,1914,1874,1852,1794,1800,1774,1732,1634,1651,1614,1515,1476,1436,1395,1356,1316,1292,1237,1197,1156,1117,979,882,665,650,651,656,663,657,664,671,708,674,680,668,682,668,680,671,665,672,678,709,748,683,682,677,675,712,696,681,681,672,680,672,895,905,910,910,946,1469,1904,2059,2184,2238,2198,2163,2163,2118,2090,2044,1979,1987,1948,1878,1903,1871,1772,1788,1704,1546,1564,1442,1360,1289,1133,1010,940,918,917,913,919,874,852,856,856,864,863,863,863,871,866,874,867,881,882,884,872,872,868,870,867,862,869,868,868,884,881,886,882,696,698,700,704,752,1326,1572,1846,1930,1995,1948,1922,1908,1848,1854,1771,1783,1694,1713,1678,1580,1546,1505,1465,1418,1390,1345,1313,1275,1236,1200,980,748,730,709,703,708,706,692,699,711,714,710,718,708,720,708,735,713,704,711,716,722,751,722,718,716,709,785,719,715,717,708,715,708,756,758,760,787,792,1335,1599,1783,1877,1929,1921,1889,1858,1832,1801,1770,1735,1702,1668,1634,1605,1567,1535,1501,1468,1434,1401,1367,1338,1245,1008,826,811,784,770,767,760,752,762,763,756,775,778,770,779,783,777,775,779,775,773,776,774,781,785,777,781,771,769,772,777,776,775,777,753,0,0,0,0,0,0,0,0,0,0,0,0,0,0,0,0,0,0,0,0,0,0,0,0,0,0,0,0,0,0,0,0,0,0,0,0,0,0,0,0,0,0,0,0,0,0,0,0,0,0,0,0,0,0,0,0,0,0,0,0,0,0,0,0,0,690,693,695,696,715,1084,1418,1607,1722,1774,1771,1741,1710,1679,1648,1623,1588,1556,1531,1496,1470,1441,1411,1377,1348,1316,1289,1256,1227,1157,1010,759,739,717,704,701,705,672,650,654,654,662,661,661,661,669,664,672,665,678,679,684,670,670,666,668,665,660,667,666,666,682,679,684,680,612,600,601,602,678,1149,1394,1603,1692,1763,1774,1696,1681,1627,1639,1558,1575,1490,1512,1480,1386,1352,1342,1282,1238,1214,1170,1167,1111,1076,1041,857,648,625,623,604,608,619,610,616,620,632,647,645,631,681,624,701,640,682,641,633,649,693,648,639,686,643,643,686,649,700,640,645,638,705,706,708,711,729,1060,1393,1625,1719,1765,1754,1739,1699,1672,1650,1623,1596,1569,1541,1515,1487,1462,1434,1407,1383,1356,1328,1268,1248,916,895,801,777,728,719,716,719,721,679,679,679,679,679,679,679,679,679,679,679,679,679,679,679,679,679,679,679,679,679,679,679,679,679,679,679,307,308,308,309,378,377,532,611,677,742,765,766,741,736,717,704,692,680,668,656,644,631,619,611,574,565,554,544,535,525,520,508,448,406,315,311,317,313,296,293,297,298,298,309,302,304,305,301,310,303,303,300,300,309,300,299,301,308,299,299,301,302,298,307,303,770,769,753,777,783,1158,1508,1697,1828,1878,1874,1848,1755,1784,1750,1726,1696,1668,1576,1604,1576,1516,1515,1484,1456,1421,1395,1293,1260,1171,903,830,838,797,786,751,780,747,706,706,706,706,706,706,706,706,706,706,706,706,706,706,706,706,706,706,706,706,706,706,706,706,706,706,706,804,807,802,816,846,1220,1625,1756,1913,1932,1954,1899,1892,1838,1807,1800,1746,1713,1704,1679,1645,1614,1568,1536,1526,1470,1444,1423,1162,1133,916,896,861,818,819,816,820,809,757,757,757,757,757,757,757,757,757,757,757,757,757,757,757,757,757,757,757,757,757,757,757,757,757,757,757,744,746,748,750,757,1247,1633,1876,2012,2049,2033,2017,1953,1929,1888,1856,1826,1778,1738,1699,1660,1621,1589,1543,1503,1464,1434,1394,1298,1158,1080,819,819,768,759,756,762,769,716,716,716,716,716,716,716,716,716,716,716,716,716,716,716,716,716,716,716,716,716,716,716,716,716,716,716,268,386,258,386,305,402,481,494,633,596,609,601,565,558,645,542,534,526,519,597,504,526,552,564,505,546,518,511,312,312,307,428,296,393,308,392,291,292,289,288,287,289,292,294,290,292,292,296,291,289,290,292,292,288,294,292,292,291,291,293,293,292,292,295,292,614,616,618,620,626,830,1126,1310,1412,1462,1457,1447,1413,1391,1370,1349,1326,1304,1281,1259,1238,1216,1193,1172,1149,1128,1106,1084,1069,996,876,817,808,635,626,624,625,597,575,578,577,584,586,577,580,580,584,582,575,580,578,586,598,591,580,582,579,583,586,584,582,601,579,584,581,401,402,417,418,407,516,734,817,903,981,981,970,950,981,918,908,890,877,858,846,838,849,799,780,766,750,732,681,668,655,535,547,490,442,445,402,404,381,342,342,342,342,342,342,342,342,342,342,342,342,342,342,342,342,342,342,342,342,342,342,342,342,342,342,342,646,643,649,652,653,948,1236,1423,1534,1595,1608,1584,1552,1517,1500,1484,1446,1425,1397,1372,1346,1320,1288,1267,1240,1210,1188,1158,1136,1000,828,808,830,669,658,656,649,662,611,611,611,611,611,611,611,611,611,611,611,611,611,611,611,611,611,611,611,611,611,611,611,611,611,611,611,0,0,0,0,0,0,0,0,0,0,0,0,0,0,0,0,0,0,0,0,0,0,0,0,0,0,0,0,0,0,0,0,0,0,0,0,0,0,0,0,0,0,0,0,0,0,0,0,0,0,0,0,0,0,0,0,0,0,0,0,0,0,0,0,0,705,706,708,711,729,1060,1393,1625,1719,1765,1754,1739,1699,1672,1650,1623,1596,1569,1541,1515,1487,1462,1434,1407,1383,1356,1328,1268,1248,916,895,801,777,728,719,716,719,721,679,679,679,679,679,679,679,679,679,679,679,679,679,679,679,679,679,679,679,679,679,679,679,679,679,679,679,0,0,0,0,0,0,0,0,0,0,0,0,0,0,0,0,0,0,0,0,0,0,0,0,0,0,0,0,0,0,0,0,0,0,0,0,0,0,0,0,0,0,0,0,0,0,0,0,0,0,0,0,0,0,0,0,0,0,0,0,0,0,0,0,0,980,998,985,1003,1059,1584,2131,2299,2403,2445,2425,2396,2352,2310,2277,2234,2195,2139,2104,2058,1984,1937,1865,1825,1787,1746,1720,1610,1371,1293,1074,1081,1028,1006,975,989,1001,987,988,993,1003,1002,997,1005,1010,1000,1017,1018,1012,1015,1013,1015,1033,1011,1017,1016,1021,1030,1009,1007,1018,1039,1026,1004,1001,1219,1222,1218,1249,1697,2413,2764,2884,2989,3046,2989,2968,2872,2838,2779,2728,2697,2625,2602,2522,2466,2399,2359,2330,2049,1940,1871,1678,1548,1502,1360,1307,1276,1247,1226,1235,1216,1208,1204,1202,1202,1213,1213,1208,1207,1232,1202,1210,1207,1206,1208,1229,1216,1210,1237,1214,1216,1215,1231,1235,1210,1212,1211,1212,1206,931,935,938,1017,986,1776,2064,2241,2379,2409,2401,2325,2284,2242,2228,2186,2207,2191,2058,2032,1987,1928,1951,1850,1797,1777,1724,1661,1448,1221,1027,1011,1012,965,937,947,952,956,963,954,972,969,964,965,972,976,983,988,965,981,968,1006,976,988,988,1006,981,980,981,987,995,977,976,972,971,187,188,188,189,189,296,336,374,414,453,471,464,457,448,441,434,427,418,411,404,396,388,381,374,366,358,351,343,336,328,321,313,306,298,193,190,191,191,180,180,178,180,185,184,184,184,184,184,184,193,214,192,188,188,192,182,185,214,210,211,190,192,211,213,191,820,825,835,849,914,1267,1668,1773,1985,2005,1996,1977,1972,1866,1837,1836,1801,1747,1756,1706,1729,1622,1625,1578,1532,1497,1466,1472,1325,1060,916,927,874,883,844,844,879,871,833,835,836,846,837,849,835,843,840,835,841,837,843,847,839,843,844,848,844,852,846,848,848,847,847,847,847,200,200,200,207,208,310,351,389,430,469,497,490,483,474,466,459,451,443,436,427,419,412,405,396,388,381,373,366,358,350,341,334,326,318,212,208,208,209,178,176,177,178,177,179,178,182,178,180,179,177,179,181,179,181,180,181,180,180,180,181,181,181,181,181,181,893,871,872,879,1062,1645,1906,2179,2210,2254,2237,2197,2159,2125,2140,2046,2006,1967,1926,1887,1847,1807,1817,1731,1695,1653,1651,1615,1389,1325,1011,985,919,897,883,883,865,870,860,858,863,875,874,880,871,881,877,889,881,877,880,893,888,883,916,893,890,894,895,901,889,891,890,891,885,616,618,620,621,645,1086,1276,1453,1581,1636,1620,1603,1574,1516,1504,1486,1458,1514,1399,1345,1341,1312,1282,1254,1225,1196,1167,1137,1108,1080,1028,993,806,642,628,625,628,632,624,619,621,622,631,625,628,629,631,637,632,644,651,641,638,648,644,639,640,644,658,660,710,720,720,720,720,772,767,777,798,840,952,1526,1696,1819,1906,1910,1863,1834,1793,1778,1737,1711,1688,1652,1622,1592,1564,1533,1503,1477,1447,1420,1389,1330,1108,1014,976,868,800,800,790,784,749,737,739,742,735,746,751,742,749,751,765,749,749,742,748,773,758,746,770,755,776,748,745,746,771,769,751,748,0,0,0,0,0,0,0,0,0,0,0,0,0,0,0,0,0,0,0,0,0,0,0,0,0,0,0,0,0,0,0,0,0,0,0,0,0,0,0,0,0,0,0,0,0,0,0,0,0,0,0,0,0,0,0,0,0,0,0,0,0,0,0,0,0 ]);
