n = 10;
D = [283,144,135,190,84,291,158,148,172,89 ];
q = 0;
prec = array2d(1..0,1..2,[]);
steps = 64;
l = 360;
r = 0;
which = [];
interval = array2d(1..0,1..2,[]);
T = array3d(1..11,1..11,0..64,[0,0,0,0,0,0,0,0,0,0,0,0,0,0,0,0,0,0,0,0,0,0,0,0,0,0,0,0,0,0,0,0,0,0,0,0,0,0,0,0,0,0,0,0,0,0,0,0,0,0,0,0,0,0,0,0,0,0,0,0,0,0,0,0,0,587,649,640,647,616,964,1245,1319,1443,1546,1545,1538,1494,1425,1445,1332,1415,1396,1263,1377,1297,1234,1246,1148,1241,1107,1149,945,916,904,874,658,642,688,653,637,668,580,619,619,628,641,653,637,638,640,652,652,654,652,650,651,652,662,651,647,651,647,642,650,646,660,653,656,642,565,557,568,570,572,763,1038,1200,1307,1371,1384,1347,1336,1317,1295,1273,1245,1227,1208,1184,1163,1141,1119,1097,1082,1058,1046,1004,949,795,780,712,618,612,590,574,574,525,473,474,475,478,479,479,481,481,481,482,483,484,485,492,489,487,486,487,489,488,489,491,487,487,487,487,487,770,772,773,780,950,1485,1734,1936,2060,2088,2074,2036,1998,1959,1921,1882,1844,1806,1767,1729,1689,1651,1612,1572,1536,1497,1453,1420,1382,1280,967,917,818,795,784,784,788,794,804,812,821,865,833,828,824,862,816,824,822,817,817,830,829,868,897,883,831,827,830,820,815,816,828,828,816,1088,1089,1102,1118,1156,2001,2313,2473,2542,2610,2580,2532,2498,2452,2427,2377,2357,2290,2270,2230,2184,2155,2095,2069,2041,1981,1901,1654,1434,1411,1211,1199,1144,1116,1102,1108,1107,1078,1115,1112,1113,1124,1143,1117,1114,1124,1124,1151,1144,1129,1122,1146,1164,1168,1150,1125,1158,1150,1145,1138,1125,1139,1134,1138,1133,348,350,351,352,354,488,631,706,775,850,869,863,850,837,813,808,790,777,763,744,730,716,703,688,679,668,651,637,626,610,528,514,502,367,360,354,365,356,323,320,319,319,325,329,326,330,330,331,331,332,332,333,331,333,330,332,351,334,335,348,335,339,340,338,337,919,912,926,932,964,1654,1930,2102,2179,2217,2224,2211,2134,2115,2084,2029,2011,1972,1957,1887,1850,1821,1793,1778,1748,1710,1611,1372,1177,1149,1023,1022,952,937,925,919,926,893,918,918,941,940,943,922,926,929,920,945,940,952,949,958,970,970,951,947,946,960,940,937,943,934,937,940,933,362,363,366,365,368,465,649,732,809,882,902,889,873,859,844,830,816,801,787,772,758,745,729,715,700,686,679,657,643,628,598,568,390,462,441,368,369,370,323,324,325,328,328,328,330,329,330,330,330,330,331,338,334,333,331,336,334,331,331,335,335,335,335,335,335,537,540,542,544,545,637,974,1102,1193,1264,1280,1270,1253,1238,1218,1198,1178,1156,1137,1117,1097,1077,1056,1037,1017,1002,978,957,938,892,857,666,574,568,598,545,547,537,485,486,489,490,491,491,496,493,493,495,495,496,501,506,503,501,500,502,506,504,501,506,504,504,504,504,504,540,540,543,545,548,705,960,1074,1164,1236,1251,1239,1221,1205,1188,1173,1156,1137,1118,1100,1081,1062,1043,1024,1006,991,979,970,950,859,824,633,570,571,548,548,545,547,485,486,487,492,493,493,496,492,493,497,497,496,499,506,503,503,501,502,504,502,503,506,503,503,503,503,503,0,0,0,0,0,0,0,0,0,0,0,0,0,0,0,0,0,0,0,0,0,0,0,0,0,0,0,0,0,0,0,0,0,0,0,0,0,0,0,0,0,0,0,0,0,0,0,0,0,0,0,0,0,0,0,0,0,0,0,0,0,0,0,0,0,617,619,620,631,648,1045,1185,1337,1438,1496,1530,1494,1461,1450,1418,1401,1375,1325,1304,1280,1270,1248,1232,1177,1153,1120,1131,1082,1076,1035,939,798,871,622,643,648,622,611,607,607,612,620,618,610,612,614,615,615,618,614,615,627,624,619,622,622,625,628,623,618,626,620,619,622,619,0,0,0,0,0,0,0,0,0,0,0,0,0,0,0,0,0,0,0,0,0,0,0,0,0,0,0,0,0,0,0,0,0,0,0,0,0,0,0,0,0,0,0,0,0,0,0,0,0,0,0,0,0,0,0,0,0,0,0,0,0,0,0,0,0,838,831,831,820,868,1242,1672,1846,1946,1980,1972,1939,1915,1880,1848,1884,1784,1754,1721,1689,1657,1625,1595,1563,1531,1501,1471,1373,1125,1126,953,900,860,845,851,825,813,740,721,723,732,740,731,737,734,733,743,738,741,732,736,737,734,736,737,739,740,739,738,737,738,751,737,750,741,1372,1392,1400,1571,2133,2980,3273,3374,3379,3433,3375,3316,3305,3158,3186,3136,3048,3010,2955,2848,2788,2615,2343,2044,1684,1681,1624,1597,1573,1520,1499,1483,1422,1386,1414,1384,1372,1413,1419,1417,1420,1439,1433,1423,1431,1430,1436,1437,1435,1431,1445,1456,1462,1457,1452,1453,1452,1458,1443,1433,1442,1448,1447,1438,1435,765,765,768,766,817,1285,1546,1686,1812,1850,1878,1832,1787,1759,1754,1701,1675,1642,1608,1567,1580,1551,1498,1494,1465,1405,1389,1353,1325,1178,1045,1030,812,804,793,775,776,782,776,773,774,782,785,786,786,790,781,786,787,791,784,788,788,807,784,785,793,792,790,806,789,810,782,784,783,550,551,552,544,559,707,1045,1163,1279,1324,1328,1306,1286,1262,1244,1293,1195,1181,1159,1138,1116,1089,1074,1053,1031,1011,988,968,963,926,722,704,617,589,599,547,548,501,482,483,490,500,487,495,488,489,499,494,497,488,492,493,490,492,493,495,496,494,492,493,493,508,494,507,498,502,504,505,507,519,849,993,1083,1188,1236,1243,1222,1203,1183,1164,1143,1185,1104,1083,1064,1044,1024,1004,985,962,945,925,906,885,866,850,756,602,587,513,510,510,512,500,502,511,523,513,516,509,518,509,528,513,511,524,525,555,626,578,523,524,528,525,521,529,554,523,530,520,810,812,811,803,865,1198,1634,1806,1912,1942,1936,1908,1881,1847,1812,1850,1748,1717,1686,1654,1623,1593,1562,1531,1500,1471,1442,1339,1225,1164,983,914,844,822,836,809,780,692,674,674,682,704,688,689,686,683,702,691,692,684,687,687,687,689,689,695,690,692,692,690,698,703,691,704,695,905,906,903,893,948,1371,1828,1993,2075,2104,2096,2070,2058,2030,1999,2012,1915,1887,1846,1817,1788,1751,1706,1673,1654,1619,1591,1403,1155,1132,982,979,932,916,923,896,881,811,794,796,814,818,803,815,805,813,816,810,815,801,806,810,807,806,814,809,809,813,811,817,814,825,811,824,815,934,933,929,929,985,1437,1924,2100,2197,2240,2211,2182,2162,2125,2047,2079,2004,1968,1925,1892,1860,1832,1785,1748,1730,1686,1659,1427,1195,1126,1030,1002,967,948,952,930,909,841,822,818,838,840,830,838,832,831,841,836,839,830,834,835,832,834,835,837,838,837,836,835,836,849,835,848,839,617,619,620,631,648,1045,1185,1337,1438,1496,1530,1494,1461,1450,1418,1401,1375,1325,1304,1280,1270,1248,1232,1177,1153,1120,1131,1082,1076,1035,939,798,871,622,643,648,622,611,607,607,612,620,618,610,612,614,615,615,618,614,615,627,624,619,622,622,625,628,623,618,626,620,619,622,619,581,562,593,603,608,768,1111,1251,1337,1379,1378,1346,1327,1327,1300,1274,1276,1243,1231,1195,1189,1159,1154,1116,1086,1070,1051,1016,987,756,767,656,616,630,605,590,591,583,511,514,526,544,521,522,520,520,516,525,518,515,520,521,531,529,532,524,523,521,526,524,526,523,517,522,522,885,892,894,906,924,1414,1832,2006,2115,2071,2083,2082,2048,2007,1917,1905,1871,1892,1810,1828,1799,1775,1662,1631,1663,1617,1496,1360,1119,1097,969,980,939,892,905,903,862,871,828,825,835,843,853,851,851,858,842,865,849,853,854,852,851,855,871,862,847,855,844,852,845,865,853,851,851,0,0,0,0,0,0,0,0,0,0,0,0,0,0,0,0,0,0,0,0,0,0,0,0,0,0,0,0,0,0,0,0,0,0,0,0,0,0,0,0,0,0,0,0,0,0,0,0,0,0,0,0,0,0,0,0,0,0,0,0,0,0,0,0,0,819,822,824,829,839,1122,1653,1815,1934,1951,1987,1909,1880,1852,1823,1793,1764,1784,1706,1680,1648,1627,1597,1564,1538,1510,1476,1447,1179,922,901,952,872,843,833,828,852,803,748,755,758,761,759,761,757,760,757,761,758,757,758,758,760,761,760,759,760,758,760,760,759,761,756,758,757,1083,1113,1104,1165,1228,1975,2287,2446,2581,2593,2530,2511,2452,2420,2383,2345,2305,2319,2240,2190,2166,2149,2098,2069,1905,1965,1833,1650,1439,1325,1180,1154,1152,1114,1099,1104,1096,1104,1103,1097,1100,1102,1108,1118,1120,1115,1116,1126,1113,1109,1122,1102,1106,1116,1116,1108,1120,1103,1102,1117,1114,1132,1119,1117,1117,418,418,418,420,422,578,777,858,940,997,996,981,964,951,934,924,913,892,874,860,847,832,814,799,783,778,757,663,650,635,515,489,479,440,440,422,424,400,368,366,367,375,374,371,379,374,369,375,372,373,374,377,375,373,387,381,372,372,372,372,371,376,372,374,374,1020,1027,1028,1061,1146,1891,2173,2339,2420,2436,2414,2435,2338,2301,2273,2228,2182,2152,2115,2070,2055,1999,1968,1937,1907,1850,1596,1357,1453,1258,1139,1099,1058,1049,1033,1060,1039,1021,998,989,992,994,1012,1006,1012,1010,1008,1009,1008,1001,1014,994,998,1008,1008,1000,1012,995,994,1009,1006,1024,1013,1012,1012,257,259,260,284,261,301,454,508,553,598,607,598,591,581,573,563,553,545,537,529,519,510,501,492,484,475,466,456,449,441,322,315,276,270,278,285,285,263,204,209,208,212,212,214,209,212,204,216,208,206,209,213,218,217,220,214,212,207,216,213,212,215,205,209,209,110,111,111,111,168,171,188,204,204,205,204,204,205,205,205,204,204,204,204,204,204,205,205,205,202,200,196,193,189,187,183,180,176,174,170,168,168,168,88,88,88,89,100,94,92,98,92,101,95,94,96,91,92,95,95,92,99,91,91,91,91,91,91,91,91,132,133,133,190,199,204,228,252,251,328,323,320,332,329,328,307,314,311,306,252,249,262,258,254,249,246,240,234,231,226,222,218,213,210,204,201,201,201,103,104,106,108,106,108,104,107,104,108,105,104,105,105,107,108,107,106,107,105,107,107,106,108,103,105,104,581,562,593,603,608,768,1111,1251,1337,1379,1378,1346,1327,1327,1300,1274,1276,1243,1231,1195,1189,1159,1154,1116,1086,1070,1051,1016,987,756,767,656,616,630,605,590,591,583,511,514,526,544,521,522,520,520,516,525,518,515,520,521,531,529,532,524,523,521,526,524,526,523,517,522,522,819,821,823,840,899,1548,1831,2062,2163,2206,2188,2149,2181,2068,2089,1988,1947,1968,1870,1882,1786,1750,1707,1666,1680,1586,1598,1506,1466,1425,1183,896,872,847,832,832,836,842,852,860,866,876,871,883,907,904,859,888,873,860,861,898,914,913,918,914,904,918,921,890,877,866,872,876,859,1309,1313,1352,1461,2144,2822,3247,3484,3584,3538,3556,3456,3402,3312,3279,3201,3133,3068,3015,2916,2778,2418,2302,2279,2168,2040,1940,1580,1534,1483,1452,1404,1368,1341,1332,1338,1372,1382,1453,1409,1403,1408,1474,1439,1423,1436,1434,1446,1452,1434,1455,1430,1441,1462,1463,1444,1458,1453,1488,1500,1486,1515,1514,1518,1488,828,830,832,864,883,1489,1711,1874,1954,1980,2052,1942,1924,1881,1857,1826,1827,1760,1714,1699,1669,1639,1633,1603,1548,1518,1518,1456,1375,1025,1017,925,870,871,842,840,830,853,837,838,847,851,843,857,843,844,846,853,866,854,851,855,857,878,858,860,846,858,855,859,862,858,851,866,858,0,0,0,0,0,0,0,0,0,0,0,0,0,0,0,0,0,0,0,0,0,0,0,0,0,0,0,0,0,0,0,0,0,0,0,0,0,0,0,0,0,0,0,0,0,0,0,0,0,0,0,0,0,0,0,0,0,0,0,0,0,0,0,0,0,1268,1266,1308,1449,2006,3068,3552,3759,3800,3795,3727,3648,3566,3494,3405,3358,3254,3163,3085,3013,2874,2514,2326,2294,2252,2156,2093,1938,1812,1476,1427,1376,1320,1304,1292,1306,1320,1335,1456,1448,1444,1449,1465,1476,1469,1466,1472,1497,1474,1487,1496,1529,1484,1491,1519,1488,1468,1488,1489,1482,1480,1488,1485,1554,1471,1119,1104,1113,1155,1228,2170,2437,2556,2636,2667,2714,2625,2580,2529,2481,2473,2405,2362,2322,2280,2218,2176,2137,2072,1997,1932,1910,1695,1447,1252,1195,1188,1149,1128,1137,1100,1087,1119,1098,1098,1107,1110,1101,1110,1100,1107,1107,1108,1138,1117,1114,1116,1118,1151,1120,1121,1110,1122,1121,1124,1124,1124,1115,1141,1141,1226,1224,1274,1371,2046,2804,3298,3492,3570,3576,3523,3440,3367,3288,3219,3156,3109,3028,2928,2877,2746,2608,2450,2356,2276,2212,2122,2008,1669,1539,1372,1342,1278,1299,1245,1271,1280,1282,1375,1364,1375,1386,1384,1397,1386,1390,1388,1404,1428,1404,1412,1400,1404,1443,1421,1412,1413,1424,1418,1446,1447,1442,1439,1481,1425,866,868,872,903,969,1581,1791,1960,2080,2120,2110,2076,2067,2034,2040,1941,1930,1891,1840,1807,1773,1738,1705,1671,1638,1604,1590,1537,1468,1209,1066,935,912,904,881,890,905,884,892,902,904,895,894,902,906,908,907,907,920,905,914,917,920,916,921,927,909,907,915,914,907,918,910,957,954,765,750,752,784,798,1346,1524,1687,1786,1827,1890,1820,1790,1735,1706,1722,1671,1620,1600,1584,1532,1503,1474,1492,1438,1387,1377,1329,1249,889,828,808,789,772,773,759,741,772,748,748,756,759,750,760,751,755,753,758,787,764,760,763,765,798,766,768,757,769,766,768,770,768,762,788,788,721,724,740,758,770,1296,1468,1665,1730,1806,1847,1740,1711,1683,1654,1626,1598,1569,1555,1513,1485,1456,1455,1426,1371,1344,1315,1286,1244,884,878,843,764,746,735,747,725,757,733,733,739,740,735,745,736,739,738,743,757,749,745,748,749,760,751,753,742,753,751,753,755,753,747,777,765,819,821,823,840,899,1548,1831,2062,2163,2206,2188,2149,2181,2068,2089,1988,1947,1968,1870,1882,1786,1750,1707,1666,1680,1586,1598,1506,1466,1425,1183,896,872,847,832,832,836,842,852,860,866,876,871,883,907,904,859,888,873,860,861,898,914,913,918,914,904,918,921,890,877,866,872,876,859,972,989,1010,987,1029,1705,2103,2272,2378,2369,2358,2347,2272,2235,2198,2229,2125,2083,2059,2020,1976,1939,1923,1917,1848,1853,1769,1715,1501,1378,1080,1084,1031,1020,1015,1001,1019,997,989,1001,996,1002,1006,997,1003,1014,1000,1004,1002,1000,1003,1005,1005,1004,1005,1004,1002,1002,1006,1006,1003,1003,1002,1001,1001,583,585,588,590,612,879,1293,1285,1390,1590,1440,1418,1393,1371,1348,1472,1301,1279,1254,1232,1209,1186,1164,1237,1117,1095,1072,1049,1114,1003,653,823,623,607,648,646,595,576,591,591,596,612,600,603,608,608,610,606,608,601,605,605,615,611,603,611,604,612,610,605,612,613,612,611,609,1054,1048,1061,1065,1176,1762,2306,2428,2511,2558,2544,2471,2429,2380,2370,2312,2313,2260,2214,2169,2137,2088,2036,2006,1977,1895,1839,1607,1311,1282,1180,1161,1118,1096,1082,1077,1039,1030,1019,1024,1024,1030,1033,1027,1029,1042,1029,1033,1030,1029,1032,1034,1032,1032,1034,1033,1031,1031,1034,1035,1030,1028,1027,1026,1026,1243,1250,1284,1380,2225,2769,3360,3709,3768,3765,3699,3632,3547,3472,3426,3303,3229,3183,3067,3008,2928,2821,2583,2554,2355,2201,2007,1939,1586,1553,1404,1351,1312,1280,1272,1296,1294,1324,1390,1349,1356,1359,1439,1425,1387,1409,1388,1437,1432,1420,1447,1410,1417,1452,1427,1422,1474,1430,1468,1440,1453,1467,1559,1454,1441,0,0,0,0,0,0,0,0,0,0,0,0,0,0,0,0,0,0,0,0,0,0,0,0,0,0,0,0,0,0,0,0,0,0,0,0,0,0,0,0,0,0,0,0,0,0,0,0,0,0,0,0,0,0,0,0,0,0,0,0,0,0,0,0,0,829,830,833,842,864,1414,1741,1896,1984,2029,2025,1977,1945,1908,1885,1848,1828,1792,1764,1732,1700,1666,1635,1601,1591,1535,1491,1459,1298,1034,1006,1000,887,877,853,847,807,791,779,782,784,786,791,781,785,798,786,790,786,785,789,791,788,788,791,792,788,786,790,790,787,785,784,783,783,404,426,427,428,434,641,782,898,991,1020,1054,1038,1021,979,987,970,954,937,920,880,886,870,853,836,818,782,784,768,751,716,664,649,631,473,434,431,432,423,432,424,426,430,433,432,433,430,433,436,436,432,447,437,437,430,431,448,437,449,431,432,451,438,436,433,429,1062,1051,1071,1072,1170,1832,2317,2430,2515,2565,2557,2473,2435,2380,2378,2305,2314,2271,2215,2188,2146,2088,2056,2005,1977,1824,1691,1588,1363,1293,1176,1166,1134,1105,1088,1078,991,983,970,974,988,987,985,979,979,1001,983,985,982,980,983,988,985,984,991,986,986,986,987,995,982,982,981,980,980,1129,1118,1135,1133,1223,1876,2451,2579,2662,2709,2694,2621,2580,2525,2498,2444,2431,2381,2341,2295,2262,2211,2147,2119,2097,1986,1769,1602,1406,1268,1241,1201,1189,1171,1145,1132,1109,1102,1080,1080,1079,1082,1085,1081,1084,1095,1080,1084,1082,1082,1084,1085,1086,1085,1087,1085,1083,1083,1087,1087,1085,1084,1084,1083,1083,1156,1144,1166,1203,1266,1937,2516,2682,2730,2785,2749,2705,2650,2578,2564,2516,2479,2435,2392,2348,2322,2261,2223,2172,2140,2039,1836,1718,1474,1311,1264,1224,1232,1198,1167,1149,1117,1109,1088,1091,1089,1089,1094,1089,1092,1104,1090,1095,1108,1108,1110,1100,1097,1092,1094,1095,1090,1089,1095,1094,1090,1093,1089,1088,1088,972,989,1010,987,1029,1705,2103,2272,2378,2369,2358,2347,2272,2235,2198,2229,2125,2083,2059,2020,1976,1939,1923,1917,1848,1853,1769,1715,1501,1378,1080,1084,1031,1020,1015,1001,1019,997,989,1001,996,1002,1006,997,1003,1014,1000,1004,1002,1000,1003,1005,1005,1004,1005,1004,1002,1002,1006,1006,1003,1003,1002,1001,1001,388,388,381,383,402,487,715,785,874,921,961,958,933,906,892,875,861,824,842,789,782,794,759,765,749,708,700,702,679,655,657,599,531,414,404,393,401,403,364,371,362,369,377,373,375,378,369,374,374,375,370,367,370,375,374,373,378,372,372,376,373,376,373,376,372,578,573,593,583,604,766,1059,1237,1303,1393,1418,1402,1371,1349,1333,1290,1282,1247,1235,1208,1192,1129,1147,1124,1101,1087,1046,1007,919,801,868,655,633,612,606,607,574,578,501,505,502,512,514,509,515,514,517,514,515,512,507,515,516,516,519,521,513,508,513,513,513,513,513,513,513,311,313,313,314,315,427,553,616,678,741,769,760,745,733,721,709,697,685,672,661,650,637,625,612,601,588,577,564,554,540,529,440,429,419,320,316,317,319,239,239,240,242,240,244,242,246,244,244,244,244,244,244,244,244,244,244,244,244,245,246,244,245,243,243,242,1069,1069,1077,1091,1136,1843,2181,2372,2534,2605,2602,2551,2521,2459,2416,2383,2342,2294,2265,2223,2176,2130,2098,2056,2014,1949,1682,1445,1363,1197,1187,1161,1121,1109,1089,1086,1065,1045,986,988,988,993,999,997,994,1000,995,995,995,995,995,995,995,995,995,995,995,995,996,997,995,996,994,994,993,891,885,903,911,932,1364,1775,1974,2097,2116,2113,2085,2044,2021,2005,1933,1918,1909,1859,1808,1785,1751,1731,1686,1660,1611,1583,1544,1297,1179,1090,968,936,922,914,913,915,915,852,856,859,856,861,856,867,873,864,873,863,863,861,864,862,873,873,863,865,859,858,862,862,862,862,862,862,0,0,0,0,0,0,0,0,0,0,0,0,0,0,0,0,0,0,0,0,0,0,0,0,0,0,0,0,0,0,0,0,0,0,0,0,0,0,0,0,0,0,0,0,0,0,0,0,0,0,0,0,0,0,0,0,0,0,0,0,0,0,0,0,0,798,802,820,821,830,1142,1614,1778,1895,1949,1947,1927,1877,1864,1809,1782,1772,1739,1707,1670,1638,1585,1563,1551,1503,1474,1441,1185,1164,1093,912,896,853,843,831,833,831,823,748,748,751,748,753,752,759,767,756,765,755,755,753,756,754,769,769,756,757,751,750,754,754,754,754,754,754,291,293,294,295,299,361,514,580,645,703,733,723,711,698,685,674,661,651,637,628,616,603,591,580,567,556,543,534,523,512,498,489,319,311,305,300,300,301,191,192,191,192,204,201,194,198,194,203,197,195,196,195,194,197,197,196,200,194,198,200,197,203,195,197,194,383,385,384,391,388,474,676,746,807,891,912,890,873,883,842,829,845,835,801,793,785,765,752,738,726,703,687,673,674,658,626,508,483,422,396,392,392,395,310,312,312,313,323,318,316,321,316,324,317,316,318,313,314,317,317,314,321,314,314,320,317,322,319,317,314,412,413,412,413,420,483,770,816,931,1010,1039,1009,1004,988,955,939,939,883,867,855,866,844,831,818,801,775,764,741,739,719,633,485,448,435,438,416,416,400,335,340,335,340,346,344,341,347,342,342,342,342,342,342,342,342,342,342,342,342,343,344,342,343,341,341,340,388,388,381,383,402,487,715,785,874,921,961,958,933,906,892,875,861,824,842,789,782,794,759,765,749,708,700,702,679,655,657,599,531,414,404,393,401,403,364,371,362,369,377,373,375,378,369,374,374,375,370,367,370,375,374,373,378,372,372,376,373,376,373,376,372,917,921,920,926,949,1578,1889,2070,2199,2221,2222,2191,2155,2114,2076,2040,1999,1967,1932,1891,1866,1822,1797,1758,1721,1684,1649,1604,1357,1224,1135,985,962,944,935,931,934,917,902,909,915,924,918,937,920,941,935,927,947,945,940,943,945,950,932,929,950,934,919,937,917,933,925,921,911,448,450,452,453,460,756,856,958,1056,1168,1114,1096,1080,1062,1044,1026,1008,990,972,954,937,919,901,883,865,847,829,811,794,776,758,740,664,469,459,456,457,458,453,453,460,481,468,460,466,469,464,468,476,483,479,482,483,484,472,464,466,476,470,457,462,472,464,473,465,1004,1004,994,1036,1031,1799,2123,2271,2369,2403,2412,2352,2338,2269,2237,2193,2160,2137,2105,2060,2022,1992,1948,1910,1871,1790,1764,1496,1136,1168,1090,1094,1048,1035,1009,1010,990,946,933,936,934,955,953,983,961,966,966,959,987,960,951,956,961,971,956,960,966,959,959,952,957,961,952,951,941,1274,1276,1326,1422,2330,2901,3478,3678,3690,3812,3686,3633,3496,3402,3331,3277,3181,3099,3032,2956,2883,2549,2585,2390,2153,2087,1972,1894,1842,1545,1396,1370,1310,1272,1273,1273,1288,1305,1421,1404,1404,1417,1417,1441,1420,1416,1442,1454,1428,1435,1444,1446,1449,1439,1476,1467,1445,1471,1433,1444,1494,1450,1446,1494,1442,523,524,526,528,536,869,1025,1146,1197,1254,1370,1238,1219,1200,1224,1162,1171,1124,1132,1112,1093,1047,1081,1009,990,1009,951,932,913,930,874,855,669,544,533,530,532,546,541,532,535,532,536,536,540,536,542,537,536,540,553,544,562,544,541,581,540,596,546,579,546,590,542,540,540,771,774,776,783,793,1277,1550,1715,1852,1894,1888,1858,1827,1798,1764,1733,1705,1674,1642,1611,1581,1554,1524,1493,1461,1430,1404,1376,1346,1183,1135,843,816,799,791,786,762,707,693,694,694,711,711,741,717,722,722,715,744,716,707,712,717,727,712,716,721,714,713,708,712,718,709,708,698,0,0,0,0,0,0,0,0,0,0,0,0,0,0,0,0,0,0,0,0,0,0,0,0,0,0,0,0,0,0,0,0,0,0,0,0,0,0,0,0,0,0,0,0,0,0,0,0,0,0,0,0,0,0,0,0,0,0,0,0,0,0,0,0,0,1004,1009,1008,1017,1087,1791,2126,2289,2371,2429,2430,2348,2346,2270,2262,2194,2165,2152,2113,2063,2032,1997,1961,1890,1880,1805,1614,1518,1260,1230,1100,1088,1058,1042,1014,1006,942,899,884,886,898,912,905,935,911,925,919,910,939,911,901,909,914,923,912,910,919,913,912,913,909,915,906,905,895,1075,1075,1068,1099,1103,1939,2270,2427,2519,2542,2556,2502,2488,2388,2359,2311,2294,2270,2233,2186,2145,2116,2060,2033,1992,1881,1692,1530,1275,1270,1195,1168,1124,1106,1089,1080,1047,1019,1005,1007,1018,1029,1027,1058,1033,1046,1039,1031,1061,1029,1021,1029,1034,1041,1033,1030,1035,1033,1032,1032,1033,1035,1026,1025,1015,1110,1109,1104,1135,1157,2050,2389,2518,2613,2662,2653,2578,2558,2471,2433,2416,2377,2341,2303,2260,2216,2178,2136,2095,2053,1934,1780,1640,1313,1341,1199,1199,1154,1142,1115,1092,1055,1047,1028,1034,1040,1055,1052,1078,1059,1064,1064,1057,1085,1058,1049,1054,1059,1069,1054,1058,1064,1057,1057,1050,1055,1059,1050,1049,1039,917,921,920,926,949,1578,1889,2070,2199,2221,2222,2191,2155,2114,2076,2040,1999,1967,1932,1891,1866,1822,1797,1758,1721,1684,1649,1604,1357,1224,1135,985,962,944,935,931,934,917,902,909,915,924,918,937,920,941,935,927,947,945,940,943,945,950,932,929,950,934,919,937,917,933,925,921,911,400,404,404,407,408,501,744,828,919,988,1001,979,969,945,934,914,901,888,867,854,843,824,811,795,779,759,740,731,702,697,618,575,563,425,415,412,412,413,347,346,357,374,351,354,351,355,349,349,349,349,349,349,349,349,349,349,349,349,349,349,349,349,349,349,349,800,811,792,804,838,1058,1622,1800,1872,1934,1958,1920,1873,1869,1799,1787,1782,1734,1675,1645,1640,1590,1598,1530,1486,1456,1305,1279,1115,1073,1022,887,869,846,831,821,782,773,733,726,729,743,740,737,743,737,746,746,746,746,746,746,746,746,746,746,746,746,746,746,746,746,746,746,746,202,203,204,238,248,258,361,400,441,482,498,489,482,474,466,459,451,444,435,428,421,412,405,398,390,382,374,367,360,351,344,336,328,261,254,249,252,252,187,178,175,175,187,188,187,182,181,187,192,188,189,191,191,194,180,187,191,198,191,195,184,187,195,180,179,897,902,915,934,942,1320,1753,1921,2026,2077,2081,2034,2006,1978,1955,1928,1897,1868,1838,1800,1770,1739,1710,1681,1651,1620,1592,1322,1221,1037,985,967,951,936,930,920,900,888,841,841,845,865,854,861,850,853,847,865,858,855,857,867,862,869,860,866,863,867,889,865,881,869,860,866,862,1064,1083,1080,1108,1161,1728,2268,2425,2532,2578,2537,2536,2495,2450,2404,2352,2314,2303,2238,2172,2180,2125,2099,2040,2041,1947,1920,1657,1423,1242,1207,1164,1120,1091,1106,1089,1105,1083,1078,1074,1079,1077,1077,1080,1085,1092,1082,1082,1082,1082,1082,1082,1082,1082,1082,1082,1082,1082,1082,1082,1082,1082,1082,1082,1082,297,299,298,299,300,345,536,596,659,724,744,728,721,704,698,685,669,657,642,632,622,613,598,586,574,562,552,544,456,445,368,359,351,344,331,303,304,326,241,238,241,242,241,241,240,243,239,239,239,239,239,239,239,239,239,239,239,239,239,239,239,239,239,239,239,1003,1006,1028,1037,1104,1568,2107,2306,2371,2431,2414,2374,2357,2300,2262,2220,2212,2143,2126,2085,2002,2018,1957,1915,1898,1834,1638,1504,1144,1183,1159,1093,1044,1056,1046,1044,1032,1005,975,972,971,976,975,979,977,984,974,974,974,974,974,974,974,974,974,974,974,974,974,974,974,974,974,974,974,0,0,0,0,0,0,0,0,0,0,0,0,0,0,0,0,0,0,0,0,0,0,0,0,0,0,0,0,0,0,0,0,0,0,0,0,0,0,0,0,0,0,0,0,0,0,0,0,0,0,0,0,0,0,0,0,0,0,0,0,0,0,0,0,0,291,297,292,293,294,292,368,373,376,380,384,382,381,381,380,379,379,378,376,376,375,374,374,373,372,372,370,369,364,360,355,352,347,294,290,294,295,296,224,224,222,231,223,224,224,228,223,227,225,224,227,225,228,227,225,228,229,228,228,223,227,228,228,228,228,283,289,288,284,284,315,324,333,343,351,355,354,351,350,348,346,344,343,340,339,337,336,333,332,330,328,326,325,322,321,319,318,315,314,312,284,284,285,192,196,193,197,198,202,196,197,193,196,196,194,193,204,198,202,200,202,200,202,253,202,200,204,194,198,196,400,404,404,407,408,501,744,828,919,988,1001,979,969,945,934,914,901,888,867,854,843,824,811,795,779,759,740,731,702,697,618,575,563,425,415,412,412,413,347,346,357,374,351,354,351,355,349,349,349,349,349,349,349,349,349,349,349,349,349,349,349,349,349,349,349,540,542,531,562,571,694,1024,1141,1259,1300,1302,1284,1256,1249,1228,1201,1186,1177,1144,1132,1144,1119,1070,1067,1022,1005,986,958,944,758,769,681,687,548,563,548,569,528,488,487,497,521,489,493,492,493,491,491,493,489,493,491,497,495,494,495,496,497,497,490,495,494,493,496,494,884,885,885,883,918,1336,1781,1992,2069,2133,2142,2067,2024,2032,1964,1955,1869,1903,1826,1803,1770,1743,1725,1675,1649,1624,1431,1329,1142,1109,964,928,908,917,904,868,879,848,840,842,850,856,856,854,859,859,856,857,853,853,856,863,860,868,867,862,854,855,857,854,856,857,861,859,853,171,147,215,147,147,226,226,231,236,241,247,246,244,243,242,241,240,240,238,237,236,235,234,232,232,231,230,229,236,226,226,225,224,223,148,196,147,225,104,101,101,101,101,101,101,101,101,101,101,101,101,101,101,101,101,101,101,101,101,101,101,101,101,101,101,765,768,770,775,792,1110,1470,1713,1819,1873,1863,1834,1802,1773,1743,1712,1682,1657,1627,1599,1568,1538,1508,1478,1449,1418,1388,1359,1179,924,921,846,826,790,784,776,757,748,691,697,697,700,705,704,701,704,701,704,703,705,702,700,701,702,701,701,704,702,700,704,702,708,703,703,701,1137,1160,1148,1194,1268,2044,2393,2600,2686,2711,2718,2656,2608,2596,2504,2455,2401,2398,2356,2304,2268,2215,2185,2143,1971,2043,1896,1650,1290,1311,1260,1260,1189,1164,1163,1154,1178,1140,1155,1147,1161,1153,1154,1154,1154,1154,1154,1154,1154,1154,1154,1154,1154,1154,1154,1154,1154,1154,1154,1154,1154,1154,1154,1154,1154,374,376,376,377,382,527,678,775,896,907,922,906,895,880,867,842,837,822,805,790,776,757,742,733,726,704,690,632,591,576,565,550,540,418,384,380,380,361,352,352,353,357,358,353,359,356,356,356,355,357,356,361,359,363,360,363,358,355,357,353,356,356,360,358,353,1065,1068,1059,1083,1192,1948,2249,2433,2554,2571,2567,2525,2484,2417,2401,2355,2305,2268,2227,2188,2143,2111,2065,2038,1959,1888,1596,1362,1438,1280,1185,1191,1144,1092,1086,1109,1088,1070,1051,1056,1053,1056,1056,1056,1056,1056,1056,1056,1055,1054,1054,1054,1054,1054,1054,1054,1054,1054,1054,1054,1054,1054,1054,1054,1054,216,218,218,219,220,340,382,425,468,487,493,489,486,482,478,475,471,474,465,458,451,442,434,426,417,409,402,393,384,376,368,359,351,343,322,220,220,221,181,182,179,189,180,185,181,185,179,182,183,180,182,183,184,183,182,185,185,183,187,179,181,186,181,183,182,0,0,0,0,0,0,0,0,0,0,0,0,0,0,0,0,0,0,0,0,0,0,0,0,0,0,0,0,0,0,0,0,0,0,0,0,0,0,0,0,0,0,0,0,0,0,0,0,0,0,0,0,0,0,0,0,0,0,0,0,0,0,0,0,0,87,87,119,119,119,120,92,152,166,181,193,191,187,185,183,179,176,174,169,168,165,161,159,155,152,151,146,143,94,92,135,133,129,127,122,119,120,120,46,46,45,47,52,51,48,51,48,51,50,52,49,47,48,49,48,48,51,49,47,51,49,55,50,50,48,540,542,531,562,571,694,1024,1141,1259,1300,1302,1284,1256,1249,1228,1201,1186,1177,1144,1132,1144,1119,1070,1067,1022,1005,986,958,944,758,769,681,687,548,563,548,569,528,488,487,497,521,489,493,492,493,491,491,493,489,493,491,497,495,494,495,496,497,497,490,495,494,493,496,494,534,535,540,539,549,746,984,1103,1242,1282,1309,1273,1252,1221,1219,1182,1161,1167,1128,1108,1090,1084,1052,1031,1016,992,978,953,932,853,796,711,673,562,552,549,551,521,489,483,483,488,486,491,487,490,485,490,490,488,490,492,491,497,493,493,492,492,492,492,492,492,492,492,492,896,908,914,935,950,1317,1871,2075,2171,2232,2233,2144,2153,2093,2051,2042,1967,1910,1889,1878,1864,1816,1759,1728,1721,1646,1494,1357,1256,1169,992,988,976,927,941,900,897,880,872,866,884,893,879,887,880,887,883,889,884,879,885,888,891,897,895,888,885,890,888,887,894,892,891,891,890,187,187,188,188,188,219,315,344,352,358,364,363,362,361,360,358,357,356,375,369,364,358,354,348,345,337,331,326,320,315,309,233,234,225,232,188,189,189,136,136,137,137,137,137,137,137,137,138,136,138,139,139,139,138,138,138,138,139,139,138,140,136,136,136,136,708,739,712,717,726,1015,1378,1512,1653,1725,1744,1723,1674,1646,1618,1595,1574,1537,1508,1480,1456,1428,1396,1371,1344,1316,1288,1261,1179,958,786,768,802,732,721,719,720,689,645,647,649,665,660,658,654,658,653,669,663,661,662,663,663,669,661,661,665,663,667,664,667,682,663,669,666,1161,1185,1181,1206,1328,2032,2454,2670,2791,2780,2809,2722,2712,2665,2590,2558,2517,2476,2435,2379,2349,2305,2240,2216,1971,2121,1861,1650,1440,1356,1262,1268,1216,1196,1182,1182,1191,1175,1188,1180,1194,1193,1190,1203,1198,1200,1204,1199,1199,1200,1198,1203,1200,1199,1205,1205,1205,1200,1201,1204,1205,1208,1208,1208,1206,408,410,409,410,414,457,767,858,949,1004,1012,998,976,970,944,930,908,901,882,866,854,834,819,801,788,768,752,660,646,631,578,458,500,426,414,413,414,393,381,378,386,392,383,386,380,384,383,388,385,385,384,386,389,392,388,389,390,390,387,387,393,392,390,391,390,1097,1101,1092,1114,1199,1929,2315,2503,2635,2658,2660,2596,2576,2506,2464,2449,2403,2342,2317,2254,2210,2173,2131,2100,2045,1888,1528,1278,1449,1224,1181,1178,1143,1150,1120,1128,1115,1103,1084,1089,1086,1095,1095,1094,1090,1097,1096,1091,1091,1095,1090,1095,1092,1091,1097,1097,1097,1092,1093,1096,1097,1100,1100,1100,1099,203,206,204,204,277,318,353,384,422,454,466,471,464,468,448,460,427,421,427,421,402,422,391,382,376,369,362,358,351,345,338,332,326,319,313,277,309,310,180,180,180,180,182,182,182,183,183,183,184,185,185,186,186,186,185,186,186,186,186,186,186,186,186,186,186,100,101,101,102,102,103,160,166,174,180,186,184,183,182,181,180,178,177,176,175,174,171,170,169,168,166,165,164,163,162,160,159,158,160,156,102,102,103,53,53,52,53,52,52,51,53,54,52,54,52,53,51,53,53,55,52,54,52,53,53,54,53,51,50,50,0,0,0,0,0,0,0,0,0,0,0,0,0,0,0,0,0,0,0,0,0,0,0,0,0,0,0,0,0,0,0,0,0,0,0,0,0,0,0,0,0,0,0,0,0,0,0,0,0,0,0,0,0,0,0,0,0,0,0,0,0,0,0,0,0,534,535,540,539,549,746,984,1103,1242,1282,1309,1273,1252,1221,1219,1182,1161,1167,1128,1108,1090,1084,1052,1031,1016,992,978,953,932,853,796,711,673,562,552,549,551,521,489,483,483,488,486,491,487,490,485,490,490,488,490,492,491,497,493,493,492,492,492,492,492,492,492,492,492,0,0,0,0,0,0,0,0,0,0,0,0,0,0,0,0,0,0,0,0,0,0,0,0,0,0,0,0,0,0,0,0,0,0,0,0,0,0,0,0,0,0,0,0,0,0,0,0,0,0,0,0,0,0,0,0,0,0,0,0,0,0,0,0,0,587,649,640,647,616,964,1245,1319,1443,1546,1545,1538,1494,1425,1445,1332,1415,1396,1263,1377,1297,1234,1246,1148,1241,1107,1149,945,916,904,874,658,642,688,653,637,668,580,619,619,628,641,653,637,638,640,652,652,654,652,650,651,652,662,651,647,651,647,642,650,646,660,653,656,642,565,557,568,570,572,763,1038,1200,1307,1371,1384,1347,1336,1317,1295,1273,1245,1227,1208,1184,1163,1141,1119,1097,1082,1058,1046,1004,949,795,780,712,618,612,590,574,574,525,473,474,475,478,479,479,481,481,481,482,483,484,485,492,489,487,486,487,489,488,489,491,487,487,487,487,487,770,772,773,780,950,1485,1734,1936,2060,2088,2074,2036,1998,1959,1921,1882,1844,1806,1767,1729,1689,1651,1612,1572,1536,1497,1453,1420,1382,1280,967,917,818,795,784,784,788,794,804,812,821,865,833,828,824,862,816,824,822,817,817,830,829,868,897,883,831,827,830,820,815,816,828,828,816,1088,1089,1102,1118,1156,2001,2313,2473,2542,2610,2580,2532,2498,2452,2427,2377,2357,2290,2270,2230,2184,2155,2095,2069,2041,1981,1901,1654,1434,1411,1211,1199,1144,1116,1102,1108,1107,1078,1115,1112,1113,1124,1143,1117,1114,1124,1124,1151,1144,1129,1122,1146,1164,1168,1150,1125,1158,1150,1145,1138,1125,1139,1134,1138,1133,348,350,351,352,354,488,631,706,775,850,869,863,850,837,813,808,790,777,763,744,730,716,703,688,679,668,651,637,626,610,528,514,502,367,360,354,365,356,323,320,319,319,325,329,326,330,330,331,331,332,332,333,331,333,330,332,351,334,335,348,335,339,340,338,337,919,912,926,932,964,1654,1930,2102,2179,2217,2224,2211,2134,2115,2084,2029,2011,1972,1957,1887,1850,1821,1793,1778,1748,1710,1611,1372,1177,1149,1023,1022,952,937,925,919,926,893,918,918,941,940,943,922,926,929,920,945,940,952,949,958,970,970,951,947,946,960,940,937,943,934,937,940,933,362,363,366,365,368,465,649,732,809,882,902,889,873,859,844,830,816,801,787,772,758,745,729,715,700,686,679,657,643,628,598,568,390,462,441,368,369,370,323,324,325,328,328,328,330,329,330,330,330,330,331,338,334,333,331,336,334,331,331,335,335,335,335,335,335,537,540,542,544,545,637,974,1102,1193,1264,1280,1270,1253,1238,1218,1198,1178,1156,1137,1117,1097,1077,1056,1037,1017,1002,978,957,938,892,857,666,574,568,598,545,547,537,485,486,489,490,491,491,496,493,493,495,495,496,501,506,503,501,500,502,506,504,501,506,504,504,504,504,504,540,540,543,545,548,705,960,1074,1164,1236,1251,1239,1221,1205,1188,1173,1156,1137,1118,1100,1081,1062,1043,1024,1006,991,979,970,950,859,824,633,570,571,548,548,545,547,485,486,487,492,493,493,496,492,493,497,497,496,499,506,503,503,501,502,504,502,503,506,503,503,503,503,503,0,0,0,0,0,0,0,0,0,0,0,0,0,0,0,0,0,0,0,0,0,0,0,0,0,0,0,0,0,0,0,0,0,0,0,0,0,0,0,0,0,0,0,0,0,0,0,0,0,0,0,0,0,0,0,0,0,0,0,0,0,0,0,0,0 ]);
