n = 30;
D = [155,201,209,226,245,73,193,255,186,296,127,180,295,123,139,103,75,179,93,252,188,197,78,296,279,101,298,297,118,180 ];
q = 0;
prec = array2d(1..0,1..2,[]);
steps = 64;
l = 360;
r = 0;
which = [];
interval = array2d(1..0,1..2,[]);
T = array3d(1..31,1..31,0..64,[0,0,0,0,0,0,0,0,0,0,0,0,0,0,0,0,0,0,0,0,0,0,0,0,0,0,0,0,0,0,0,0,0,0,0,0,0,0,0,0,0,0,0,0,0,0,0,0,0,0,0,0,0,0,0,0,0,0,0,0,0,0,0,0,0,570,572,574,575,586,651,739,830,917,960,963,947,1008,915,903,887,867,851,836,820,804,788,772,756,740,724,711,692,676,660,699,628,612,596,583,579,581,583,583,583,587,599,586,591,591,598,591,590,591,583,596,594,601,600,593,592,588,601,595,591,591,613,595,601,593,469,464,470,471,469,506,621,633,689,730,757,761,721,737,702,722,682,671,661,637,654,628,615,605,624,603,581,559,544,532,511,510,491,485,498,474,475,494,476,491,471,478,487,484,491,496,478,481,484,490,481,478,481,485,485,484,485,481,483,484,477,487,481,492,476,232,233,234,235,235,252,285,319,352,385,398,392,385,379,373,418,375,354,385,351,326,320,314,308,301,334,328,283,277,271,265,258,252,246,257,236,237,237,219,222,225,232,220,219,220,223,225,219,222,220,222,222,219,222,222,222,220,224,220,224,220,225,222,224,223,579,570,582,574,585,638,755,807,903,932,939,922,907,908,878,863,891,832,832,803,788,773,757,792,729,717,699,687,669,701,639,635,619,597,581,576,581,580,598,584,580,585,586,606,646,644,594,621,605,590,593,633,640,649,638,653,639,655,644,626,616,605,591,590,580,550,541,553,566,575,629,723,778,889,939,877,957,942,892,905,865,837,828,802,808,778,760,763,757,733,741,700,662,648,633,590,616,590,575,573,569,572,586,575,564,564,569,576,570,573,564,575,573,573,567,584,575,578,572,571,578,575,582,565,570,580,576,571,567,565,312,313,314,316,317,336,381,426,471,514,524,514,505,499,491,482,474,466,455,449,440,432,424,415,407,397,390,382,373,365,356,348,338,331,323,317,318,320,314,309,312,310,318,322,311,316,318,315,316,311,317,317,316,325,320,317,312,323,316,327,319,317,315,322,325,385,387,388,389,390,422,475,531,587,634,643,632,622,612,606,595,581,571,560,550,540,530,519,509,499,488,481,468,457,447,440,427,416,406,396,391,392,393,393,380,387,385,386,406,384,400,401,388,403,393,393,395,395,407,397,394,391,403,393,400,400,399,395,406,407,240,241,242,242,243,253,286,318,364,383,396,390,384,377,371,365,359,353,347,340,334,328,322,316,300,303,297,291,285,279,273,266,260,254,248,244,244,245,233,234,231,233,233,234,234,247,239,238,234,236,238,242,238,251,239,234,235,238,233,243,236,236,235,236,235,827,821,823,827,864,940,1130,1183,1269,1306,1304,1306,1263,1243,1270,1237,1182,1180,1158,1120,1100,1102,1059,1060,1039,1019,1035,957,936,937,909,875,879,847,850,830,832,835,855,840,841,847,845,846,916,908,847,882,863,848,850,904,908,921,923,921,905,917,919,897,876,874,855,853,850,706,656,658,661,676,739,835,933,1014,1058,1027,1064,1028,1013,996,964,948,963,930,899,912,866,835,833,816,800,783,767,751,734,718,688,685,681,655,663,652,667,648,664,657,671,699,691,679,703,666,708,684,713,679,677,690,707,690,684,695,695,685,690,682,702,684,689,672,1363,1367,1383,1460,1733,2000,2213,2253,2328,2408,2355,2284,2293,2199,2153,2170,2168,2065,2037,1948,1917,1971,1850,1855,1755,1717,1677,1681,1609,1563,1541,1491,1432,1410,1421,1418,1428,1410,1496,1488,1519,1548,1532,1554,1528,1557,1540,1536,1565,1540,1543,1548,1551,1557,1536,1529,1533,1542,1540,1550,1540,1563,1533,1544,1556,746,748,754,753,782,865,980,1096,1184,1227,1223,1204,1188,1168,1149,1126,1156,1087,1067,1048,1028,1008,992,969,950,930,908,891,872,852,836,813,829,774,760,757,759,761,766,770,763,863,804,784,793,798,783,785,790,800,806,805,789,797,784,786,789,778,777,781,782,779,783,777,762,483,484,482,483,487,529,604,674,742,792,798,785,770,757,741,732,719,709,682,684,669,655,646,633,621,595,628,570,568,557,544,531,515,502,484,487,488,488,478,490,488,495,495,500,492,504,486,495,487,485,488,500,500,499,499,496,492,496,507,498,492,488,487,499,488,169,170,170,171,171,183,207,230,254,278,292,287,282,278,273,269,264,259,255,250,237,233,228,224,219,215,210,206,202,197,193,188,184,179,181,172,172,172,163,162,163,163,163,164,163,164,164,167,161,165,163,169,166,164,162,167,163,164,164,167,165,163,161,164,162,208,208,209,209,210,218,248,277,319,335,349,343,338,332,326,321,315,310,304,299,293,287,282,276,271,265,259,254,248,243,237,231,226,220,215,211,211,212,202,201,200,203,203,205,203,205,204,208,201,208,204,211,209,204,201,204,202,204,205,212,205,204,202,205,201,1202,1206,1185,1225,1466,1696,1862,2072,2149,2126,2172,2102,2086,2001,1934,1965,1925,1863,1790,1783,1740,1701,1636,1624,1554,1576,1507,1464,1424,1384,1366,1305,1266,1235,1223,1266,1269,1302,1334,1325,1320,1376,1379,1374,1358,1349,1366,1399,1375,1409,1411,1407,1351,1358,1375,1384,1386,1368,1413,1452,1398,1390,1414,1373,1375,595,596,598,600,613,682,774,869,957,1000,1002,985,1045,952,940,923,903,886,869,853,836,820,803,787,770,754,740,720,704,687,725,654,638,621,607,604,606,608,599,598,591,600,605,633,600,608,621,615,603,608,598,607,607,594,608,611,609,608,603,605,617,623,616,623,613,1178,1211,1233,1288,1366,1593,1753,1892,1910,1960,1977,1892,1939,1878,1876,1807,1827,1728,1755,1650,1635,1581,1591,1614,1512,1483,1462,1403,1398,1387,1369,1262,1312,1261,1228,1234,1183,1253,1273,1246,1254,1253,1256,1266,1266,1262,1266,1284,1303,1288,1295,1300,1297,1300,1292,1298,1297,1315,1323,1321,1312,1306,1327,1332,1337,239,239,240,241,242,279,316,353,404,427,399,393,386,380,374,367,361,355,348,342,336,329,323,316,310,304,297,291,285,278,272,266,259,253,246,242,243,244,248,233,227,230,250,256,242,247,253,270,254,289,281,286,251,262,272,257,269,258,284,328,289,295,293,282,284,652,654,656,658,676,710,844,943,1032,1074,1076,1059,1041,1024,1007,990,983,955,900,921,904,886,834,852,801,785,766,783,766,719,731,714,705,652,639,662,664,666,642,641,651,676,660,669,639,659,646,637,652,657,645,654,663,683,670,678,649,668,661,672,678,679,674,691,672,806,733,790,740,764,840,949,1062,1144,1186,1153,1188,1150,1133,1114,1080,1062,1074,1040,1006,1018,969,936,932,914,895,877,858,840,821,803,771,766,760,733,742,731,747,745,728,732,739,774,768,758,782,758,784,770,768,758,741,746,766,755,743,770,749,744,758,753,776,756,761,753,347,348,349,350,351,376,422,471,519,563,573,564,555,546,541,532,519,510,501,492,483,474,465,456,447,438,432,420,411,402,396,384,375,366,357,352,353,354,341,348,354,360,357,361,349,358,345,372,351,351,357,354,372,384,365,357,363,353,363,358,363,366,348,355,347,498,488,490,503,507,552,635,697,785,812,769,804,792,773,771,750,745,727,715,702,692,676,662,653,636,623,614,601,588,575,516,548,535,522,510,491,482,509,491,493,495,492,502,499,507,494,500,496,501,500,500,503,508,513,509,523,507,516,509,496,506,496,514,510,496,486,487,488,490,496,548,623,701,779,825,829,816,879,788,778,764,746,732,718,704,690,677,663,649,635,621,610,593,579,565,606,537,524,510,497,493,495,497,492,502,501,510,509,513,506,513,499,508,502,498,502,515,511,510,517,509,504,504,518,515,500,507,500,510,503,312,313,314,315,316,344,379,435,495,524,521,513,505,496,488,480,471,463,455,446,438,430,456,413,405,396,368,379,371,363,354,346,338,313,321,316,317,318,303,307,302,309,374,343,341,354,324,380,342,358,347,315,320,340,328,317,358,331,315,345,333,371,349,343,328,476,478,479,481,468,507,597,676,711,758,766,753,741,729,716,704,692,680,667,655,643,631,618,626,594,582,569,557,545,533,520,508,496,484,472,511,469,470,471,461,462,470,456,485,464,467,470,475,493,477,477,470,475,491,496,470,467,486,469,480,475,465,478,495,473,494,496,497,499,503,547,618,690,762,809,816,803,790,777,764,751,738,725,712,699,687,674,661,648,635,622,606,596,583,570,557,544,531,518,506,502,503,505,493,494,500,518,496,496,499,507,501,494,499,493,504,504,508,506,502,502,495,514,502,498,500,518,504,510,502,694,718,720,722,716,777,877,926,1001,1047,1049,1037,1023,1009,998,984,1041,954,969,913,940,926,957,897,907,890,856,838,840,823,798,772,748,742,739,725,727,740,715,718,718,735,722,743,723,739,748,726,735,726,726,728,723,728,728,731,729,733,723,728,732,745,737,748,735,769,771,773,776,807,904,1016,1150,1245,1283,1280,1259,1313,1217,1200,1170,1154,1133,1112,1091,1070,1049,1053,1008,987,966,948,924,941,882,914,865,819,798,784,781,783,786,777,778,798,824,805,778,802,823,808,794,828,818,802,807,837,823,829,798,806,809,822,821,808,821,812,808,810,0,0,0,0,0,0,0,0,0,0,0,0,0,0,0,0,0,0,0,0,0,0,0,0,0,0,0,0,0,0,0,0,0,0,0,0,0,0,0,0,0,0,0,0,0,0,0,0,0,0,0,0,0,0,0,0,0,0,0,0,0,0,0,0,0,695,676,699,701,724,783,904,991,1073,1075,1133,1102,1074,1068,1041,1024,977,960,973,966,948,922,906,897,872,863,817,821,804,795,771,764,737,720,714,712,707,709,702,706,703,720,718,710,716,729,710,726,714,710,721,717,718,720,728,722,736,724,720,710,718,726,725,726,730,0,0,0,0,0,0,0,0,0,0,0,0,0,0,0,0,0,0,0,0,0,0,0,0,0,0,0,0,0,0,0,0,0,0,0,0,0,0,0,0,0,0,0,0,0,0,0,0,0,0,0,0,0,0,0,0,0,0,0,0,0,0,0,0,0,352,353,354,356,357,379,429,478,528,572,583,573,564,554,546,537,527,518,509,500,491,482,472,463,454,445,436,426,417,408,399,390,381,371,362,358,359,360,346,353,350,356,347,345,351,364,355,357,377,355,386,349,370,355,370,366,360,356,357,362,360,353,347,381,347,717,716,722,718,746,827,949,1044,1169,1171,1207,1153,1131,1111,1094,1075,1064,1044,1019,1067,989,993,947,956,910,889,876,854,868,814,795,777,763,742,759,724,727,757,732,733,731,739,805,779,777,789,755,824,799,802,783,752,761,783,767,761,792,770,748,784,770,801,787,795,764,914,917,976,929,1032,1095,1260,1376,1458,1492,1558,1494,1440,1415,1433,1369,1345,1349,1298,1308,1302,1295,1203,1204,1155,1132,1154,1084,1097,1037,1034,989,1028,1005,1024,978,950,966,971,976,971,994,969,962,966,989,986,1073,965,975,994,976,1021,974,984,985,1001,984,968,978,993,985,988,982,976,882,866,868,914,948,1023,1234,1318,1401,1436,1374,1439,1371,1363,1332,1293,1294,1252,1244,1257,1204,1175,1154,1154,1106,1058,1053,1066,1010,1005,996,953,927,909,883,892,880,875,914,892,890,900,902,921,961,959,907,939,922,905,911,951,955,960,952,973,959,977,957,939,937,922,907,905,894,533,535,537,538,545,596,693,755,834,879,884,870,855,841,827,813,799,785,771,791,742,728,714,725,686,672,657,643,629,615,601,587,572,558,545,541,543,544,529,537,539,548,536,552,538,554,539,559,545,539,547,547,557,556,555,552,556,548,562,555,554,560,548,555,552,555,556,558,559,567,615,685,754,824,862,865,853,840,827,815,802,790,777,765,752,739,727,735,716,689,677,664,651,639,626,614,601,589,576,565,562,563,565,563,557,557,561,557,562,561,563,562,559,561,555,560,561,561,561,563,562,563,563,565,569,561,575,562,568,564,751,812,774,766,787,894,972,1078,1159,1247,1205,1173,1155,1137,1118,1100,1073,1116,1047,1029,1011,993,975,955,937,920,902,884,865,848,822,831,794,776,764,778,780,765,779,764,766,772,758,768,766,767,782,841,769,778,784,785,782,795,806,785,777,775,778,787,776,777,784,786,783,729,731,742,736,763,843,960,1065,1171,1192,1192,1181,1166,1162,1126,1102,1095,1059,1061,1032,1013,984,962,953,927,908,910,899,878,843,814,795,776,757,744,760,742,744,745,749,748,764,775,751,761,763,760,754,779,789,870,885,888,809,812,807,787,785,772,749,769,753,770,759,756,1190,1194,1198,1238,1334,1490,1671,1797,1866,1944,1979,1847,1818,1789,1849,1831,1702,1721,1753,1722,1661,1558,1529,1500,1471,1442,1413,1440,1355,1326,1298,1269,1262,1219,1208,1207,1210,1213,1305,1266,1256,1342,1344,1318,1300,1282,1295,1334,1345,1315,1330,1322,1303,1305,1283,1319,1333,1321,1357,1357,1296,1291,1348,1275,1269,979,992,1014,997,1094,1276,1450,1617,1856,1763,1762,1690,1673,1693,1601,1568,1538,1511,1518,1447,1417,1389,1356,1325,1286,1329,1234,1255,1219,1143,1125,1102,1052,1019,1008,994,1002,1014,1051,1029,1043,1068,1058,1068,1058,1049,1055,1065,1066,1051,1078,1087,1111,1089,1084,1065,1039,1068,1051,1047,1044,1075,1060,1078,1044,1354,1416,1398,1497,1571,1830,2010,2141,2135,2227,2147,2132,2071,2034,2001,1971,1934,1949,1867,1958,1883,1811,1737,1701,1721,1720,1636,1567,1586,1504,1468,1515,1405,1406,1452,1394,1377,1419,1461,1458,1453,1473,1519,1521,1497,1512,1494,1520,1542,1526,1532,1511,1536,1545,1555,1514,1522,1544,1541,1548,1531,1528,1550,1565,1548,737,739,766,743,772,853,969,1080,1168,1207,1207,1187,1168,1148,1130,1174,1159,1096,1053,1057,1015,995,1008,961,937,948,899,935,861,841,823,803,817,765,751,788,750,792,753,763,767,784,885,838,789,839,790,917,821,844,836,785,815,861,821,792,867,806,795,844,829,896,833,828,804,679,706,689,691,712,783,889,974,1055,1145,1104,1074,1058,1041,1024,1008,982,1029,958,942,925,909,892,876,859,842,826,809,793,769,753,790,720,704,698,702,697,692,715,693,690,693,684,687,690,698,692,776,692,685,692,693,708,686,703,695,693,699,691,693,697,702,693,703,701,718,779,722,733,750,839,929,1030,1112,1200,1159,1128,1111,1093,1140,1058,1093,1074,1005,988,970,953,935,918,900,883,865,848,830,813,795,843,760,743,731,728,730,732,732,733,740,781,759,764,756,731,751,764,777,748,779,777,795,778,781,761,746,744,738,746,739,744,739,771,728,818,795,836,832,834,1002,1205,1334,1497,1551,1541,1511,1481,1414,1384,1392,1326,1332,1302,1361,1260,1213,1183,1153,1123,1093,1042,1005,976,994,936,929,885,873,808,815,836,841,837,877,837,838,860,843,851,859,855,867,873,850,862,856,864,864,873,877,870,874,900,859,875,883,900,877,873,189,190,190,191,191,198,224,250,276,303,317,312,307,302,296,291,286,281,276,271,266,261,256,251,246,241,236,231,226,221,216,211,206,201,196,192,192,193,173,174,174,175,175,175,177,177,178,178,178,179,179,179,180,180,181,181,181,182,182,184,184,184,185,185,185,1670,1681,1800,1915,2296,2398,2591,2703,2776,2777,2736,2750,2632,2598,2566,2648,2586,2445,2427,2321,2284,2254,2263,2157,2095,2132,2034,2035,1927,1892,1861,1818,1750,1794,1711,1722,1763,1719,1991,1966,1993,2009,2022,2067,2009,2048,2032,2048,2078,2038,2048,2085,2100,2098,2047,2042,2033,2054,2039,2044,2023,2058,2057,2056,2031,844,826,829,845,897,983,1084,1205,1285,1342,1358,1293,1273,1253,1262,1241,1192,1221,1152,1159,1137,1092,1086,1051,1055,1011,988,982,950,943,910,890,890,848,849,856,838,840,840,855,852,847,881,861,851,854,853,879,894,894,906,878,891,860,928,882,874,904,988,914,892,876,921,919,896,1260,1294,1295,1379,1401,1630,1843,1993,1989,2042,2006,1952,1930,1899,1829,1799,1768,1824,1744,1803,1730,1660,1586,1588,1576,1526,1531,1434,1426,1402,1371,1421,1283,1311,1329,1272,1254,1292,1321,1313,1336,1368,1357,1368,1353,1346,1357,1369,1372,1352,1352,1390,1413,1409,1382,1363,1355,1364,1355,1351,1345,1372,1355,1386,1344,1268,1272,1280,1332,1441,1613,1802,1926,1992,2067,2099,1966,1935,1904,1962,1942,1812,1828,1862,1825,1762,1657,1626,1595,1564,1533,1503,1527,1441,1410,1379,1348,1340,1298,1287,1286,1289,1293,1364,1371,1365,1396,1418,1412,1391,1394,1403,1433,1403,1424,1441,1436,1414,1406,1401,1418,1425,1396,1421,1445,1411,1410,1415,1399,1394,407,408,409,411,393,440,470,512,557,598,605,597,588,579,569,561,553,545,536,529,521,510,501,497,489,475,490,465,471,462,453,444,434,406,397,394,414,415,399,401,399,409,407,409,403,422,397,410,407,401,403,411,409,406,408,410,408,409,417,408,402,404,403,408,403,816,819,828,794,864,960,1106,1213,1299,1336,1269,1289,1291,1269,1289,1227,1206,1212,1163,1176,1121,1074,1078,1064,1036,978,999,972,988,930,893,855,929,830,838,829,816,866,836,828,841,855,845,841,839,840,851,854,856,844,853,884,906,884,875,859,841,855,847,846,835,860,846,864,841,301,302,302,324,304,319,354,389,423,457,467,460,454,447,440,434,427,421,414,407,401,394,388,381,374,368,361,355,348,341,335,328,344,315,308,326,305,306,296,292,296,301,299,303,292,304,309,294,299,297,296,301,301,311,304,305,295,311,301,310,309,307,307,315,312,780,783,785,804,841,909,1018,1133,1214,1302,1303,1226,1207,1188,1228,1150,1131,1160,1092,1073,1054,1035,1016,997,978,959,937,932,901,882,863,844,847,804,792,791,793,795,818,792,800,809,804,813,816,825,812,813,821,808,816,814,815,818,809,806,814,813,817,801,808,820,806,818,813,253,254,255,255,256,266,294,322,350,377,389,383,378,373,367,362,356,351,346,340,335,330,324,319,313,308,303,297,292,287,281,276,271,265,260,256,257,258,259,240,242,245,251,247,253,248,251,249,258,268,310,269,265,279,265,253,253,270,316,320,322,337,343,297,284,1101,1162,1129,1186,1221,1421,1607,1731,1731,1833,1757,1749,1690,1663,1636,1609,1582,1605,1528,1601,1558,1447,1420,1393,1418,1339,1349,1285,1281,1231,1204,1259,1219,1151,1161,1183,1120,1123,1159,1164,1173,1197,1182,1189,1176,1175,1170,1169,1185,1175,1206,1218,1207,1188,1183,1192,1191,1200,1199,1179,1199,1199,1170,1187,1181,274,275,275,276,276,284,310,335,326,346,358,354,350,347,343,339,335,331,358,353,348,343,338,334,329,324,319,314,309,304,300,295,290,285,280,277,277,278,277,271,263,266,285,294,277,288,286,296,291,316,322,317,297,308,303,284,295,296,314,342,309,328,323,337,308,584,586,581,575,596,650,727,804,881,923,925,911,897,883,870,856,842,828,814,801,787,773,759,745,731,718,704,690,676,662,642,635,607,607,595,578,587,595,586,586,592,585,590,599,623,610,588,603,607,607,601,598,602,615,603,605,601,595,596,595,598,600,596,622,607,695,676,699,701,724,783,904,991,1073,1075,1133,1102,1074,1068,1041,1024,977,960,973,966,948,922,906,897,872,863,817,821,804,795,771,764,737,720,714,712,707,709,702,706,703,720,718,710,716,729,710,726,714,710,721,717,718,720,728,722,736,724,720,710,718,726,725,726,730,520,516,570,526,525,572,646,720,762,848,870,857,854,802,816,776,763,757,736,792,710,697,692,670,657,652,617,625,604,618,578,564,558,545,532,522,523,531,522,529,523,529,534,536,531,542,529,527,531,529,525,536,536,540,537,534,537,531,540,544,532,546,526,537,534,525,520,521,523,536,577,654,720,816,855,856,844,831,818,806,793,780,768,751,726,730,717,696,682,658,675,641,627,604,600,584,572,557,545,523,526,534,529,530,527,529,536,530,534,532,539,530,536,533,530,532,529,536,541,533,533,534,536,537,533,533,546,530,537,531,0,0,0,0,0,0,0,0,0,0,0,0,0,0,0,0,0,0,0,0,0,0,0,0,0,0,0,0,0,0,0,0,0,0,0,0,0,0,0,0,0,0,0,0,0,0,0,0,0,0,0,0,0,0,0,0,0,0,0,0,0,0,0,0,0,389,390,391,392,395,422,479,529,618,631,636,626,619,610,596,620,580,567,557,547,537,571,517,507,504,488,478,468,458,448,474,428,418,408,401,400,395,398,389,393,396,407,412,414,399,422,395,424,409,418,406,403,414,423,410,406,414,409,410,414,407,414,399,403,399,590,592,594,635,606,665,750,836,997,960,963,1010,933,918,903,888,872,857,897,827,850,797,782,767,752,760,721,706,758,676,661,646,631,616,634,599,621,602,596,606,601,618,607,618,603,613,606,602,608,605,603,617,611,616,616,624,619,622,630,622,621,640,619,631,624,545,545,542,561,569,660,694,756,859,845,840,831,821,811,801,791,781,807,793,764,741,759,761,722,708,676,679,665,651,640,603,608,577,569,569,564,565,580,549,547,552,548,660,556,556,559,560,562,628,655,572,573,576,568,680,603,578,568,603,575,575,575,588,579,587,211,211,212,213,213,222,249,277,304,332,345,339,334,329,323,318,313,308,302,297,292,286,281,276,270,265,260,255,249,244,239,233,228,223,217,214,214,215,196,197,198,207,197,202,204,205,200,196,203,202,201,197,198,203,200,200,198,201,196,197,197,200,198,200,196,516,517,564,521,526,574,648,723,849,867,865,853,841,806,804,780,796,753,740,726,713,700,686,673,660,646,633,620,606,593,580,566,553,540,527,524,525,526,515,522,519,536,523,532,519,529,524,523,525,523,522,529,529,532,531,537,533,532,538,536,534,555,540,549,542,441,442,444,445,448,482,546,603,716,714,716,706,698,689,672,761,654,640,629,617,605,639,584,573,569,550,540,529,518,507,533,484,473,462,454,453,449,452,441,441,442,447,468,442,453,456,447,445,444,447,446,455,453,463,586,537,470,457,448,442,445,446,465,450,445,540,551,543,578,541,594,711,752,831,886,880,868,804,843,786,825,763,797,765,756,740,727,712,698,684,670,655,641,632,642,599,585,571,557,544,540,597,543,542,545,553,567,560,570,564,585,573,562,588,569,588,588,587,591,560,557,572,576,572,559,568,576,561,573,562,1098,1058,1149,1095,1156,1323,1493,1614,1830,1836,1756,1755,1698,1674,1628,1576,1532,1546,1480,1452,1441,1415,1388,1373,1319,1350,1344,1268,1241,1339,1186,1186,1133,1097,1099,1082,1074,1124,1105,1141,1112,1120,1127,1115,1122,1131,1136,1129,1152,1122,1126,1135,1134,1139,1141,1157,1149,1144,1160,1131,1154,1185,1202,1170,1169,1122,1113,1124,1112,1243,1354,1562,1648,1781,1991,1791,1908,1691,1727,1663,1633,1579,1596,1548,1545,1505,1463,1434,1421,1378,1328,1333,1325,1282,1252,1189,1194,1151,1110,1127,1126,1098,1119,1149,1145,1152,1157,1174,1216,1160,1188,1188,1196,1206,1203,1197,1202,1184,1207,1180,1179,1190,1184,1176,1218,1196,1215,1193,1204,1208,1322,1175,1245,1220,1316,1476,1665,1796,1990,1989,1907,1909,1847,1822,1786,1761,1702,1696,1642,1612,1586,1600,1522,1518,1466,1457,1474,1373,1347,1332,1284,1333,1268,1203,1191,1262,1192,1234,1260,1259,1272,1280,1284,1288,1313,1315,1284,1311,1326,1325,1363,1359,1368,1366,1313,1305,1302,1313,1298,1305,1306,1313,1302,1330,1327,413,415,416,417,419,450,508,565,622,646,648,640,631,623,677,669,601,602,592,581,570,560,549,539,605,518,507,497,541,530,514,469,444,459,423,445,421,422,434,434,423,467,456,432,440,454,438,452,473,453,456,439,430,434,440,447,435,432,426,430,429,430,445,435,415,411,402,413,411,416,444,465,557,613,613,672,656,646,593,630,598,609,599,573,578,567,557,533,536,491,515,505,490,484,469,463,452,442,437,391,389,406,407,402,402,402,410,402,406,402,407,402,402,402,400,403,404,407,406,406,406,408,408,409,412,407,416,404,408,406,475,453,455,456,460,497,565,626,742,739,741,731,722,713,694,717,675,661,649,637,624,658,602,620,612,566,556,544,532,521,547,496,486,474,465,464,460,487,460,460,463,475,463,465,468,475,468,463,468,461,471,471,476,472,469,469,462,478,470,462,464,484,470,477,467,1173,1173,1154,1220,1390,1576,1807,1902,1960,2114,1968,2083,1932,1958,1870,1840,1854,1811,1739,1693,1668,1667,1621,1583,1561,1525,1482,1421,1396,1325,1312,1275,1210,1207,1161,1194,1201,1189,1227,1233,1239,1260,1276,1265,1261,1275,1243,1271,1260,1249,1252,1260,1262,1282,1361,1323,1269,1254,1257,1252,1246,1254,1272,1279,1248,542,544,546,547,577,607,688,758,857,895,895,882,869,856,842,829,816,802,785,759,763,749,728,713,688,705,670,656,632,627,611,598,582,570,548,551,552,554,542,550,550,571,553,563,547,556,547,547,552,547,544,559,555,560,557,563,559,560,568,561,557,569,549,560,553,1466,1529,1589,1574,1750,1968,2196,2263,2332,2314,2333,2334,2238,2276,2275,2152,2073,2144,2017,1988,2070,1944,1919,1882,1862,1803,1736,1710,1718,1679,1590,1537,1509,1509,1537,1483,1502,1559,1563,1606,1573,1586,1608,1596,1589,1603,1605,1605,1618,1594,1603,1613,1616,1620,1632,1635,1634,1627,1643,1637,1649,1671,1681,1667,1662,680,665,712,668,688,758,857,955,1132,1132,1110,1091,1075,1031,1040,997,980,987,945,928,911,984,877,860,843,826,874,792,775,777,740,723,706,689,725,673,674,676,698,670,674,684,671,701,678,707,702,699,710,680,683,685,695,695,690,680,692,693,686,680,687,695,679,700,683,1137,1081,1120,1080,1157,1295,1465,1601,1800,1802,1723,1727,1709,1686,1653,1591,1534,1531,1517,1453,1462,1434,1406,1405,1319,1316,1337,1268,1211,1203,1186,1210,1146,1108,1096,1136,1069,1107,1126,1123,1169,1437,1177,1111,1159,1258,1193,1133,1229,1212,1154,1164,1242,1218,1206,1118,1153,1149,1195,1198,1136,1177,1142,1142,1161,1176,1136,1344,1185,1365,1530,1625,1743,1956,1959,1878,1875,1816,1790,1742,1688,1642,1654,1586,1556,1544,1515,1486,1469,1413,1442,1434,1356,1327,1425,1268,1266,1212,1176,1178,1161,1153,1257,1223,1219,1233,1256,1246,1257,1251,1239,1248,1292,1259,1245,1257,1268,1303,1272,1276,1260,1234,1265,1245,1243,1239,1268,1256,1272,1239,361,362,410,364,365,390,437,486,534,605,606,598,591,560,562,542,535,524,515,506,497,488,479,471,461,452,443,434,425,416,407,398,389,379,370,366,367,368,355,354,360,370,364,362,364,370,361,365,366,374,370,378,384,379,370,364,369,378,376,365,366,377,366,371,366,493,480,466,497,502,545,611,684,754,758,805,793,780,745,733,742,730,717,705,692,718,667,654,642,629,612,604,591,579,565,554,541,529,490,505,500,486,472,483,484,477,483,491,509,486,494,499,526,486,488,484,488,490,478,493,493,491,491,484,488,492,493,488,493,488,449,451,452,454,456,519,560,616,701,742,745,734,723,712,701,691,710,669,684,630,636,625,606,594,571,591,558,546,524,522,508,498,484,474,454,456,458,459,453,455,456,453,462,460,469,456,462,458,462,460,462,462,468,470,464,480,470,480,472,458,475,456,472,468,456,760,722,770,750,766,863,956,1123,1157,1239,1203,1183,1179,1128,1146,1082,1090,1084,1026,1025,997,1004,997,953,935,945,897,880,880,841,827,805,791,758,747,747,749,735,729,738,743,766,753,740,745,749,745,747,740,743,745,748,744,747,756,756,760,754,749,754,754,786,784,785,783,286,306,288,289,309,305,346,405,444,470,477,470,471,452,451,446,442,438,437,428,438,431,415,407,388,378,371,374,356,358,347,335,310,302,295,310,311,292,288,296,296,305,300,308,294,311,293,309,297,291,297,301,307,311,304,300,301,295,309,305,296,301,292,299,294,1014,922,1015,935,989,1102,1245,1379,1584,1619,1629,1522,1466,1447,1418,1399,1345,1346,1298,1334,1251,1228,1205,1207,1158,1159,1183,1087,1064,1060,1017,1088,1014,949,936,1026,936,938,1008,971,971,974,1001,1024,996,1001,1000,1015,1049,1019,1024,1028,1012,1011,996,1008,1016,1031,1031,1036,1003,994,1039,988,980,495,498,498,499,492,539,594,638,711,726,748,739,730,704,713,704,695,669,673,651,670,661,642,632,610,610,599,588,567,566,553,545,533,522,504,504,504,506,496,503,499,515,611,563,523,568,526,621,554,564,562,514,531,559,537,518,583,533,518,563,547,606,561,546,532,733,721,737,739,764,826,947,1056,1146,1202,1197,1179,1140,1143,1125,1107,1069,1052,1064,1019,999,981,973,929,924,936,897,878,849,839,812,795,780,749,740,744,746,738,739,738,746,759,752,756,761,771,759,756,770,760,787,781,785,774,752,749,761,760,763,746,755,766,752,764,759,520,516,570,526,525,572,646,720,762,848,870,857,854,802,816,776,763,757,736,792,710,697,692,670,657,652,617,625,604,618,578,564,558,545,532,522,523,531,522,529,523,529,534,536,531,542,529,527,531,529,525,536,536,540,537,534,537,531,540,544,532,546,526,537,534,380,381,358,359,361,385,439,514,531,581,591,582,572,557,554,545,536,527,518,509,499,490,481,472,463,451,460,437,426,417,419,417,389,372,366,362,363,364,361,354,355,355,358,356,361,361,362,369,364,373,385,370,365,377,368,364,364,371,385,396,396,397,406,386,388,715,717,719,721,750,835,951,1067,1156,1195,1195,1247,1155,1136,1116,1096,1077,1057,1038,1018,998,979,959,939,920,900,880,861,841,821,802,782,762,743,784,781,729,731,756,747,751,766,755,761,756,767,759,755,762,754,781,781,790,775,769,762,755,774,763,758,760,777,762,774,761,441,437,438,440,438,475,551,594,642,679,726,719,705,670,661,652,643,649,609,600,615,606,581,580,560,560,548,511,513,491,482,480,469,457,443,442,448,454,440,446,433,437,448,448,473,477,442,449,450,458,454,441,446,454,453,447,452,446,444,447,444,453,452,458,439,0,0,0,0,0,0,0,0,0,0,0,0,0,0,0,0,0,0,0,0,0,0,0,0,0,0,0,0,0,0,0,0,0,0,0,0,0,0,0,0,0,0,0,0,0,0,0,0,0,0,0,0,0,0,0,0,0,0,0,0,0,0,0,0,0,348,342,350,351,345,373,414,462,510,554,565,556,547,538,529,531,512,503,494,485,475,466,458,449,440,430,421,413,404,403,386,377,368,359,350,346,347,347,334,337,338,343,402,377,357,385,364,403,370,372,374,348,354,378,360,345,387,355,347,374,369,399,377,366,362,321,322,313,324,325,345,414,434,480,523,534,526,517,508,500,491,483,474,467,457,449,406,432,424,415,375,399,390,381,373,336,356,347,328,355,326,327,328,315,323,316,323,323,332,324,338,332,322,337,324,324,322,322,330,322,322,325,326,320,322,318,327,320,327,316,266,267,268,269,270,283,321,359,397,434,446,439,432,425,418,411,403,396,389,382,375,368,361,353,346,342,332,325,318,311,302,296,289,282,275,270,271,272,259,251,254,257,269,246,248,250,251,264,266,263,259,325,261,251,323,262,255,261,262,261,257,254,266,264,268,572,574,575,577,587,641,727,815,895,939,946,931,901,898,883,857,853,838,822,807,792,777,752,747,732,717,702,687,671,656,633,618,611,596,583,580,582,582,577,575,580,592,587,585,579,579,587,594,609,596,624,634,633,617,605,598,584,593,584,591,580,591,590,596,584,127,127,128,128,128,131,147,163,179,195,207,204,201,197,194,191,188,185,182,179,175,172,169,166,163,160,157,153,150,147,144,141,138,135,131,129,129,129,116,116,117,118,118,118,116,116,118,119,119,118,119,127,138,129,125,121,118,121,118,119,118,121,121,121,119,729,734,736,738,748,825,932,1068,1125,1211,1166,1197,1129,1138,1120,1075,1056,1038,1020,1002,1001,985,947,968,911,908,895,892,859,819,801,823,787,759,746,749,744,746,737,745,747,770,760,749,752,766,749,766,767,776,817,809,833,813,763,759,770,764,770,755,767,775,762,771,764,759,758,734,763,788,849,957,1092,1154,1210,1221,1143,1139,1188,1145,1126,1075,1091,1059,1020,1030,991,992,944,947,935,869,876,832,832,840,823,807,783,727,740,761,762,745,744,743,747,749,744,751,760,756,751,758,767,767,759,761,777,758,762,762,761,768,783,767,771,769,768,770,1347,1329,1342,1450,1666,1913,2168,2246,2311,2296,2308,2238,2225,2173,2143,2106,2064,2050,2015,1973,1862,1793,1784,1743,1782,1650,1621,1638,1539,1512,1431,1417,1379,1348,1366,1368,1360,1383,1414,1459,1417,1434,1443,1429,1438,1449,1444,1449,1455,1438,1456,1444,1453,1455,1460,1465,1467,1465,1491,1438,1467,1472,1487,1468,1460,854,910,851,856,904,1116,1109,1264,1323,1375,1423,1401,1328,1340,1357,1272,1250,1228,1225,1266,1165,1118,1117,1095,1065,1092,1010,1012,967,963,944,921,901,879,845,902,854,856,889,894,883,969,939,931,904,907,919,950,921,938,938,927,897,908,915,931,934,902,929,959,924,917,937,914,907,352,353,354,356,357,380,430,480,530,574,584,626,566,557,547,538,529,520,510,501,492,482,473,464,455,484,436,464,418,408,399,390,381,371,362,358,359,360,347,347,351,361,373,366,356,377,354,381,366,383,363,355,363,371,363,357,371,364,358,366,362,372,361,361,358,156,156,157,157,158,162,183,204,225,246,259,255,251,247,243,239,235,231,227,223,219,215,210,206,202,198,194,190,186,182,178,174,170,166,162,158,159,159,148,151,151,155,154,155,151,156,149,156,151,149,154,152,157,161,154,154,154,154,156,154,155,157,151,152,150,139,139,140,140,141,144,164,183,202,221,234,230,227,223,219,215,212,208,204,200,197,193,189,185,182,178,174,170,167,163,159,155,152,148,144,141,141,142,128,129,131,134,133,134,132,141,129,138,136,154,132,134,138,140,134,134,136,143,136,134,134,136,132,132,131,1361,1351,1375,1412,1659,1870,2163,2334,2380,2404,2320,2391,2271,2253,2149,2140,2098,2021,2011,1997,1924,1909,1838,1764,1742,1740,1636,1593,1597,1672,1509,1422,1383,1381,1418,1429,1381,1403,1491,1489,1480,1568,1535,1536,1525,1513,1528,1564,1527,1566,1580,1560,1506,1541,1535,1549,1550,1520,1573,1637,1603,1603,1617,1554,1552,739,741,743,746,778,867,988,1108,1196,1234,1233,1285,1193,1172,1152,1132,1112,1091,1071,1051,1031,1010,990,970,950,929,909,889,868,848,828,808,787,767,808,806,753,756,767,784,779,782,781,782,775,781,779,810,810,802,822,794,802,785,830,800,792,817,891,833,815,792,832,823,815,1132,1121,1120,1158,1210,1342,1539,1737,1738,1778,1760,1763,1715,1734,1680,1648,1620,1611,1535,1584,1537,1460,1448,1433,1415,1354,1318,1334,1301,1278,1208,1219,1200,1154,1178,1161,1111,1130,1169,1190,1145,1139,1182,1159,1175,1182,1175,1174,1221,1180,1183,1202,1199,1207,1176,1205,1213,1207,1233,1185,1192,1202,1239,1177,1176,388,430,391,392,393,422,478,534,590,637,646,636,625,615,605,594,584,632,563,553,543,532,522,512,502,491,481,471,460,494,440,429,419,409,398,394,395,396,388,386,391,397,394,385,388,394,394,409,397,391,399,387,400,394,402,400,393,406,399,403,402,399,393,399,396,730,740,739,744,759,851,928,1088,1127,1209,1193,1215,1144,1160,1145,1097,1154,1059,1093,1068,1002,961,964,945,1003,924,902,874,863,830,828,805,778,769,752,808,759,734,746,740,740,745,749,775,766,762,762,771,782,764,764,756,760,784,789,767,779,772,766,787,774,775,779,816,777,837,836,812,842,879,953,1164,1225,1284,1431,1346,1267,1261,1307,1262,1324,1188,1202,1168,1127,1135,1094,1093,1043,1044,1030,962,967,921,918,924,905,887,861,806,819,840,841,840,823,830,837,868,889,870,888,870,883,889,859,874,850,852,882,864,853,874,856,844,868,871,891,876,888,869,491,494,494,496,500,543,614,685,756,803,812,797,784,771,758,746,733,720,707,696,682,669,656,643,632,618,605,592,579,568,554,541,528,515,503,499,500,502,492,496,499,518,508,499,502,515,501,508,516,526,555,547,562,546,504,503,515,515,513,503,511,516,509,514,510,259,260,261,262,263,275,311,347,383,418,431,424,417,411,404,397,390,383,377,370,321,315,349,343,336,329,317,310,309,302,261,288,281,274,268,263,264,265,245,247,249,251,250,251,248,250,247,259,250,249,253,253,259,266,259,255,257,251,256,257,259,261,254,257,254,630,632,634,636,655,727,829,931,1020,1061,1062,1045,1027,1010,992,995,957,939,921,904,886,868,851,833,816,798,780,763,745,727,710,692,675,657,698,695,642,645,678,646,649,667,653,677,652,664,661,667,687,674,668,667,668,690,706,674,661,678,666,678,679,671,683,706,672,445,487,448,450,452,490,555,621,686,734,741,729,717,705,694,682,670,716,646,634,622,611,599,587,575,563,551,539,527,559,504,492,480,468,457,452,454,455,442,449,450,460,456,455,453,458,450,463,453,453,462,470,483,479,477,463,460,462,467,458,461,470,460,472,457,503,505,506,508,513,559,637,712,783,829,835,821,806,792,781,765,755,741,734,714,710,726,677,664,651,639,626,608,601,588,576,563,551,538,515,511,512,525,523,524,521,524,527,523,525,529,523,523,523,534,524,529,531,531,529,527,529,529,531,541,529,537,525,527,530,599,630,617,628,640,728,818,885,904,963,1017,1015,962,972,921,928,921,905,873,852,857,785,825,809,752,750,710,771,680,713,697,683,665,649,591,631,598,620,609,621,621,631,637,634,631,641,618,634,622,625,624,639,636,642,662,657,630,632,639,629,621,623,633,632,619,759,747,763,766,790,862,930,1052,1102,1225,1174,1130,1114,1098,1082,1081,1064,1058,1025,1031,1008,1001,974,957,941,924,907,914,877,872,840,845,806,796,783,770,774,782,777,778,777,789,778,782,781,790,791,775,789,778,786,781,782,789,784,785,781,789,782,790,784,798,784,790,786,908,916,971,926,984,1118,1243,1398,1481,1514,1508,1507,1459,1434,1410,1406,1361,1351,1311,1287,1262,1229,1213,1188,1158,1126,1115,1083,1065,1041,1016,991,973,970,985,983,931,934,951,967,955,989,960,980,965,992,974,980,971,970,980,977,990,997,996,1001,989,985,998,990,999,1008,999,1011,1007,380,381,358,359,361,385,439,514,531,581,591,582,572,557,554,545,536,527,518,509,499,490,481,472,463,451,460,437,426,417,419,417,389,372,366,362,363,364,361,354,355,355,358,356,361,361,362,369,364,373,385,370,365,377,368,364,364,371,385,396,396,397,406,386,388,683,653,695,689,698,785,887,1020,1082,1136,1126,1111,1102,1071,1045,1062,992,1002,970,961,907,911,901,891,874,974,848,813,808,790,765,812,737,705,707,707,698,707,713,686,692,692,691,701,701,710,706,701,709,699,702,702,700,708,706,703,708,707,702,699,705,709,709,715,712,1041,1127,1031,1164,1155,1295,1472,1609,1686,1670,1788,1654,1650,1580,1595,1526,1499,1511,1462,1497,1391,1363,1434,1309,1378,1476,1263,1236,1215,1267,1222,1092,1065,1076,1060,1057,1167,1035,1091,1085,1089,1095,1078,1093,1093,1093,1113,1175,1101,1114,1124,1121,1111,1129,1139,1113,1104,1110,1119,1129,1112,1120,1124,1135,1121,767,768,756,772,782,812,883,954,1025,1071,1107,1065,1052,1040,1027,1014,1001,988,975,1048,949,938,925,912,955,1035,873,893,879,874,853,805,779,760,791,775,806,754,777,776,778,779,779,779,792,798,782,786,783,784,789,790,795,794,799,795,785,792,806,792,787,797,790,789,789,451,428,430,431,433,467,527,591,653,700,708,710,685,675,656,652,641,629,618,606,595,584,606,561,551,547,528,516,512,494,483,472,460,449,438,434,430,436,426,426,430,435,435,437,439,446,439,434,441,437,434,435,437,442,433,433,438,439,438,433,437,442,432,441,434,0,0,0,0,0,0,0,0,0,0,0,0,0,0,0,0,0,0,0,0,0,0,0,0,0,0,0,0,0,0,0,0,0,0,0,0,0,0,0,0,0,0,0,0,0,0,0,0,0,0,0,0,0,0,0,0,0,0,0,0,0,0,0,0,0,210,211,211,212,213,221,249,278,307,336,349,344,338,333,327,322,316,311,305,300,294,289,283,278,272,267,261,256,250,245,239,234,228,223,217,213,214,214,201,195,202,210,208,205,198,198,205,213,210,207,209,236,249,238,233,211,201,213,203,204,198,208,204,217,200,399,400,401,402,404,434,492,550,608,655,664,654,643,632,622,611,601,590,579,569,558,547,537,526,515,574,494,540,540,528,452,441,430,420,409,405,406,407,408,408,406,417,415,408,407,414,412,417,424,432,504,508,519,454,415,420,422,420,411,419,418,410,410,417,412,899,891,877,909,964,1144,1215,1350,1432,1408,1450,1402,1403,1337,1368,1292,1270,1298,1242,1243,1180,1157,1181,1112,1105,1173,1081,1067,1051,1012,994,933,910,889,913,909,904,877,906,909,909,927,931,928,937,934,907,932,921,909,919,928,923,915,947,937,913,913,921,912,906,917,923,924,908,458,436,456,435,465,496,560,598,660,731,755,744,695,711,693,688,676,638,627,641,629,617,605,570,559,556,558,546,521,523,511,475,487,453,442,460,457,462,446,442,442,449,477,475,461,478,465,483,478,461,468,454,455,472,462,454,472,455,450,465,465,480,465,477,460,822,771,810,796,807,877,1010,1191,1261,1246,1296,1209,1243,1218,1204,1131,1113,1169,1075,1096,1078,1031,1057,979,976,1236,979,953,934,914,892,886,838,831,844,799,770,772,799,797,801,814,802,807,808,818,807,808,809,801,815,814,820,820,815,814,812,823,817,812,813,835,817,823,817,855,863,833,896,941,1046,1178,1225,1394,1415,1428,1407,1311,1372,1338,1241,1294,1147,1218,1315,1150,1152,1131,1137,1106,1094,1042,1048,998,976,956,931,912,889,881,853,874,877,885,891,885,897,898,900,894,915,890,897,893,891,890,905,905,905,901,901,904,897,911,913,896,909,892,902,899,1087,1070,1081,1112,1251,1415,1643,1805,1881,1936,1915,1851,1818,1790,1748,1713,1710,1644,1609,1575,1540,1517,1471,1447,1402,1374,1348,1308,1288,1229,1199,1160,1125,1097,1097,1102,1095,1124,1128,1123,1124,1131,1115,1131,1130,1130,1150,1211,1138,1151,1160,1157,1149,1166,1176,1151,1141,1146,1157,1167,1149,1160,1161,1173,1158,892,876,896,906,944,1036,1170,1306,1389,1461,1424,1400,1383,1406,1332,1309,1293,1213,1241,1423,1209,1203,1152,1132,1130,1088,1059,1074,1039,993,1000,949,944,905,898,916,899,921,931,896,904,901,912,922,906,919,909,920,937,935,927,936,938,951,938,948,925,943,944,945,952,948,952,939,936,490,460,462,487,466,505,571,675,741,740,759,747,735,723,711,699,700,690,662,683,669,626,647,602,603,644,601,589,574,563,545,531,518,505,481,466,467,481,461,468,475,498,469,464,463,471,473,464,465,467,467,471,468,471,470,473,472,480,472,480,476,504,500,503,508,485,488,488,489,494,535,606,675,748,793,803,799,780,765,741,739,726,714,701,684,675,662,649,633,624,622,599,585,582,560,547,532,522,509,497,490,489,493,483,486,485,481,496,501,509,499,490,511,498,494,495,493,494,504,499,499,508,491,496,500,495,504,500,529,498,426,468,428,426,432,462,528,590,652,760,709,698,686,738,664,709,641,630,677,607,618,584,573,561,550,589,523,516,505,493,478,471,456,460,433,432,433,435,434,438,432,434,437,431,452,434,434,445,437,433,430,431,438,437,433,437,432,445,465,433,433,438,438,432,430,1300,1302,1322,1382,1534,1776,2023,2237,2245,2327,2314,2228,2159,2148,2077,2037,2105,1957,1917,1877,1837,1809,1769,1728,1677,1643,1607,1566,1516,1476,1436,1396,1358,1331,1332,1334,1343,1341,1373,1366,1368,1361,1498,1389,1381,1390,1397,1417,1484,1504,1424,1407,1428,1413,1573,1447,1426,1433,1450,1443,1427,1415,1457,1430,1445,1065,1165,1055,1209,1187,1331,1513,1649,1725,1709,1820,1691,1687,1616,1630,1561,1533,1545,1495,1529,1422,1395,1464,1339,1424,1504,1291,1263,1242,1297,1248,1117,1090,1100,1085,1082,1185,1059,1135,1137,1092,1089,1135,1115,1124,1129,1126,1130,1185,1134,1141,1154,1154,1158,1131,1158,1168,1170,1203,1158,1144,1151,1204,1131,1134,975,986,1013,992,1060,1236,1314,1512,1614,1610,1642,1610,1553,1524,1524,1509,1446,1448,1400,1442,1351,1318,1272,1262,1288,1237,1193,1160,1126,1122,1088,1053,1038,1069,1012,1039,989,1058,1069,1062,1042,1051,1049,1066,1058,1068,1077,1149,1075,1122,1118,1127,1080,1147,1129,1072,1068,1069,1113,1147,1116,1145,1138,1135,1111,659,682,663,678,684,776,885,954,1042,1076,1120,1069,1114,1057,1016,1020,1253,964,968,951,912,942,981,860,843,826,829,791,774,756,828,722,712,689,685,669,671,689,685,709,706,794,714,690,690,705,708,752,767,721,740,713,705,697,725,728,708,713,786,737,726,701,729,714,707,711,675,696,718,750,874,908,1014,1101,1139,1147,1129,1108,1108,1076,1048,1036,960,1005,1164,983,941,923,883,886,870,825,845,812,772,801,760,757,701,697,732,734,735,738,710,714,720,772,758,739,766,741,787,756,749,751,722,728,746,740,726,762,732,723,749,739,776,751,754,741,933,968,912,979,1037,1156,1303,1357,1522,1599,1552,1529,1431,1539,1454,1439,1405,1258,1326,1420,1254,1254,1231,1235,1241,1239,1134,1179,1086,1062,1039,1012,991,967,959,932,953,956,959,966,951,1060,988,974,971,988,984,970,969,984,984,970,958,965,974,981,971,968,959,968,969,981,991,986,960,816,820,806,825,867,959,1086,1211,1299,1288,1331,1286,1289,1225,1247,1186,1165,1183,1140,1188,1084,1062,1078,1021,1016,1125,995,975,961,933,910,857,837,850,833,829,864,804,825,818,822,822,838,814,824,829,823,833,839,838,839,884,840,839,889,845,839,843,841,838,843,845,852,852,855,196,197,197,198,198,205,232,259,285,312,326,321,316,310,305,300,295,290,285,280,275,269,264,259,254,249,244,239,234,228,223,218,213,208,203,199,200,200,186,186,186,187,188,185,186,187,186,187,186,187,188,187,186,186,188,188,189,187,187,193,188,187,188,187,192,955,988,945,1033,1048,1173,1335,1473,1553,1539,1654,1527,1525,1478,1473,1407,1381,1396,1348,1386,1281,1256,1329,1205,1196,1371,1165,1140,1121,1088,1133,1004,979,990,974,971,1090,948,988,996,996,988,980,1001,998,998,998,1017,1020,1014,1027,1007,1009,1016,1042,1016,1009,1034,1087,1051,1039,1014,1047,1051,1052,717,740,721,736,750,852,972,1050,1138,1171,1213,1160,1203,1146,1104,1106,1336,1047,1049,1030,990,1018,1055,934,915,896,898,858,839,820,891,783,772,747,744,728,730,747,751,747,758,774,769,760,758,762,764,772,776,767,769,805,824,808,797,776,767,778,771,766,758,782,766,783,761,828,831,817,838,891,982,1112,1238,1315,1356,1356,1309,1312,1247,1270,1209,1189,1204,1160,1366,1102,1082,1098,1042,1037,1150,1017,997,983,946,922,870,849,828,845,841,867,816,851,861,815,813,853,835,839,845,843,858,896,847,855,871,870,862,852,874,873,883,914,871,860,869,911,853,847,582,584,575,587,607,651,732,820,892,945,952,937,928,928,892,878,999,795,833,955,816,788,763,762,733,732,713,698,681,668,653,642,623,608,605,591,602,604,577,584,590,596,594,599,585,593,586,616,593,592,600,598,616,636,614,606,614,600,608,613,616,623,601,608,602,1085,1098,1061,1124,1181,1275,1455,1576,1672,1686,1691,1642,1641,1575,1574,1525,1507,1550,1476,1512,1436,1379,1399,1337,1328,1375,1293,1269,1251,1219,1191,1137,1111,1087,1108,1100,1128,1079,1110,1110,1120,1145,1115,1153,1121,1138,1120,1133,1142,1124,1126,1130,1136,1154,1164,1131,1123,1144,1138,1141,1130,1119,1126,1159,1126,1252,1274,1232,1364,1491,1586,1803,1922,2003,1982,2087,1956,1939,1894,1873,1809,1770,1784,1730,1774,1649,1617,1681,1553,1536,1701,1492,1460,1428,1394,1430,1297,1266,1277,1262,1259,1374,1263,1300,1321,1333,1341,1346,1329,1333,1367,1329,1334,1353,1315,1336,1335,1352,1358,1514,1463,1368,1342,1343,1334,1323,1320,1334,1376,1318,683,653,695,689,698,785,887,1020,1082,1136,1126,1111,1102,1071,1045,1062,992,1002,970,961,907,911,901,891,874,974,848,813,808,790,765,812,737,705,707,707,698,707,713,686,692,692,691,701,701,710,706,701,709,699,702,702,700,708,706,703,708,707,702,699,705,709,709,715,712,675,658,680,686,684,789,895,965,1087,1122,1105,1095,1076,1023,1052,1022,997,1000,981,963,933,923,898,873,871,869,876,809,791,799,755,757,715,703,670,685,685,689,690,690,686,728,722,699,707,713,701,728,758,714,715,708,699,706,702,710,701,692,692,695,697,695,700,698,679,1054,1013,1021,1057,1091,1272,1392,1588,1619,1713,1730,1656,1651,1586,1607,1499,1524,1493,1419,1438,1395,1339,1341,1314,1299,1233,1206,1205,1157,1126,1100,1078,1124,1046,1034,1042,1047,1020,1042,1036,1052,1072,1061,1061,1057,1077,1061,1069,1067,1060,1069,1096,1119,1104,1085,1078,1057,1073,1063,1057,1053,1078,1067,1083,1054,670,595,596,598,616,659,741,829,892,928,954,927,929,915,903,915,905,885,836,821,806,793,778,763,765,734,750,706,691,711,662,647,633,632,606,608,610,647,629,592,600,606,593,622,606,613,611,606,632,606,603,606,602,622,618,610,605,610,606,609,611,609,608,639,616,399,400,401,403,404,449,506,605,628,675,663,652,642,631,640,610,599,603,594,586,557,574,536,526,531,505,518,483,473,462,474,460,449,420,410,464,406,407,415,424,418,430,427,434,425,429,418,425,422,419,419,432,429,434,438,435,430,430,439,431,426,439,419,432,422,263,263,264,265,266,295,334,373,411,449,436,429,422,439,539,480,438,410,473,374,367,360,354,347,340,333,326,319,330,305,298,292,315,308,271,267,267,268,257,258,264,274,259,259,258,261,264,259,261,261,262,263,262,264,264,265,264,266,264,268,268,279,278,280,279,0,0,0,0,0,0,0,0,0,0,0,0,0,0,0,0,0,0,0,0,0,0,0,0,0,0,0,0,0,0,0,0,0,0,0,0,0,0,0,0,0,0,0,0,0,0,0,0,0,0,0,0,0,0,0,0,0,0,0,0,0,0,0,0,0,384,385,386,394,395,416,473,528,594,631,641,640,620,610,599,588,579,569,558,548,540,529,519,507,497,487,477,473,456,453,442,425,421,411,401,396,392,392,391,386,388,391,388,384,389,391,391,387,387,388,395,393,394,394,395,393,393,397,395,401,396,402,396,394,397,922,860,876,882,931,1050,1128,1325,1352,1443,1410,1353,1377,1354,1287,1265,1290,1281,1199,1231,1197,1133,1149,1117,1116,1045,1023,1027,1012,990,935,918,914,900,887,853,888,863,877,868,881,871,893,919,877,881,888,898,900,896,898,906,904,905,899,898,886,905,890,909,907,911,907,911,931,408,427,410,456,431,477,516,575,664,682,701,662,651,709,674,646,635,638,603,618,591,580,569,558,555,536,549,514,534,491,505,488,477,447,463,432,433,434,433,431,438,448,444,440,440,442,439,446,444,444,447,464,472,464,457,445,446,453,452,445,441,456,442,453,442,665,667,666,670,687,739,852,929,1014,1092,1059,1041,1054,1010,993,998,982,969,1072,929,939,901,901,860,840,823,795,799,776,765,748,712,708,692,697,691,676,695,682,682,728,983,738,666,718,808,748,700,785,758,712,713,787,766,760,676,698,701,739,745,683,720,698,698,706,1011,1014,1035,1057,1118,1220,1417,1521,1662,1719,1656,1662,1581,1576,1636,1535,1477,1515,1471,1415,1365,1329,1239,1297,1299,1239,1260,1157,1163,1114,1125,1108,1089,1036,1056,1026,1024,1033,1051,1036,1043,1049,1053,1060,1051,1062,1062,1074,1091,1069,1073,1083,1082,1088,1085,1083,1082,1090,1098,1081,1099,1103,1101,1115,1110,1042,1045,1047,1082,1215,1374,1598,1762,1856,1864,1848,1814,1780,1746,1712,1678,1644,1610,1576,1548,1508,1474,1440,1406,1378,1338,1330,1270,1236,1212,1208,1158,1100,1072,1066,1067,1069,1076,1099,1110,1099,1115,1114,1118,1116,1134,1105,1126,1121,1120,1115,1112,1105,1111,1116,1124,1107,1115,1112,1112,1103,1119,1112,1112,1095,1021,1030,1027,1050,1121,1287,1462,1523,1657,1710,1661,1640,1647,1652,1611,1569,1542,1496,1537,1450,1410,1387,1296,1316,1328,1263,1259,1209,1213,1162,1130,1105,1108,1078,1043,1039,1042,1058,1066,1062,1073,1106,1093,1105,1099,1070,1083,1099,1098,1084,1081,1093,1097,1093,1090,1098,1091,1084,1084,1099,1088,1093,1095,1104,1084,350,351,321,322,323,377,386,431,474,516,530,571,513,504,496,488,479,470,462,452,446,437,470,461,451,404,395,387,379,370,362,353,345,337,328,324,325,357,316,315,318,322,319,334,325,338,335,325,340,324,323,323,322,333,324,322,325,325,322,320,322,325,319,331,320,457,481,460,459,462,516,588,653,721,768,758,746,734,725,726,697,685,723,677,665,637,625,610,598,602,577,589,553,538,529,540,523,511,480,469,464,466,467,462,455,454,457,494,483,493,486,472,502,478,472,486,462,464,479,475,467,487,463,458,483,481,496,487,485,479,439,438,442,423,443,492,563,624,661,709,726,688,708,696,697,668,657,659,649,637,610,598,587,575,572,531,565,529,497,505,519,501,489,459,430,443,444,445,448,442,449,444,456,457,449,455,454,462,456,449,458,456,454,464,460,456,450,463,452,465,455,454,450,458,469,1275,1277,1286,1339,1495,1781,1979,2134,2238,2223,2263,2161,2122,2082,2043,2003,1964,1924,1885,1845,1861,1841,1727,1687,1672,1608,1592,1529,1567,1513,1449,1371,1334,1306,1297,1299,1307,1315,1360,1365,1379,1392,1383,1410,1429,1430,1373,1405,1398,1375,1374,1421,1433,1460,1437,1457,1426,1443,1441,1414,1404,1384,1392,1412,1384,1078,1038,1046,1085,1123,1308,1433,1627,1658,1709,1729,1693,1678,1622,1595,1534,1548,1526,1452,1462,1427,1371,1371,1343,1334,1261,1234,1232,1184,1152,1125,1103,1148,1071,1058,1067,1072,1045,1061,1088,1060,1084,1080,1082,1084,1104,1195,1129,1208,1100,1101,1136,1144,1089,1111,1139,1087,1112,1090,1093,1087,1093,1126,1128,1099,1171,1140,1160,1218,1316,1444,1614,1886,1859,1860,1941,1868,1754,1790,1773,1750,1753,1645,1658,1563,1548,1507,1478,1449,1411,1419,1400,1351,1367,1300,1244,1244,1207,1204,1167,1162,1182,1172,1219,1225,1231,1257,1268,1276,1268,1258,1238,1262,1244,1235,1257,1254,1254,1258,1284,1272,1241,1242,1254,1256,1251,1268,1273,1287,1259,669,671,674,676,695,782,886,990,1078,1118,1102,1084,1068,1049,1048,1014,996,992,1033,959,926,908,891,873,864,838,844,803,785,767,774,751,733,697,683,680,826,683,695,701,705,701,707,720,715,709,710,708,714,708,712,710,718,729,724,731,718,718,724,720,718,717,722,726,714,822,827,866,834,875,1042,1180,1232,1374,1425,1388,1372,1345,1357,1359,1322,1299,1379,1304,1184,1175,1169,1069,1069,1065,1026,1027,1004,1028,982,918,935,926,896,879,837,839,875,862,874,868,882,875,873,885,897,870,871,874,881,876,874,874,879,884,881,883,878,877,881,881,904,902,914,896,1089,1092,1114,1145,1219,1335,1609,1669,1789,1843,1779,1782,1700,1693,1750,1697,1587,1623,1578,1570,1468,1430,1338,1393,1394,1371,1350,1246,1250,1198,1207,1189,1168,1114,1135,1105,1137,1154,1157,1173,1130,1126,1174,1151,1158,1162,1156,1154,1195,1165,1182,1185,1188,1189,1174,1187,1193,1200,1241,1170,1174,1189,1245,1188,1160,830,790,796,812,809,938,1013,1189,1228,1310,1294,1238,1251,1232,1177,1157,1189,1165,1097,1125,1087,1037,1046,1027,1017,957,937,943,902,877,857,843,842,820,807,814,818,790,801,805,802,808,817,808,817,809,814,814,827,831,906,904,919,859,816,830,832,843,825,820,837,808,824,822,810,180,180,181,181,182,188,212,236,261,285,298,294,289,284,280,275,270,266,261,256,252,247,242,238,233,228,223,219,214,209,205,200,195,191,186,182,183,183,171,171,171,171,171,171,172,172,172,170,172,171,170,171,171,172,171,171,172,171,172,170,171,171,170,171,172,969,928,936,963,986,1151,1257,1451,1508,1561,1629,1529,1547,1462,1506,1380,1407,1377,1306,1326,1286,1231,1235,1210,1197,1133,1108,1109,1063,1034,1009,990,1038,960,948,1015,961,934,957,994,954,955,983,967,968,978,975,989,992,974,989,978,990,996,996,1003,988,999,1023,991,1007,1012,1031,1012,999,727,729,731,734,760,858,972,1087,1174,1213,1195,1175,1158,1138,1135,1099,1080,1075,1113,1038,1004,985,965,946,936,908,913,870,851,832,837,812,792,755,742,738,893,742,775,748,749,756,781,772,771,775,782,799,793,815,856,809,799,817,810,790,794,813,864,890,882,906,911,860,828,825,800,808,824,833,958,1035,1230,1246,1324,1304,1258,1300,1243,1200,1181,1217,1191,1117,1141,1105,1058,1062,1042,1039,973,953,958,916,900,871,865,853,832,819,827,841,813,812,804,817,832,828,830,816,835,830,843,824,828,832,873,901,881,864,844,820,835,827,822,815,832,829,853,817,731,736,736,731,756,875,993,1031,1176,1237,1196,1182,1158,1160,1178,1134,1124,1076,1134,1026,1020,1007,913,941,949,903,892,872,885,841,818,800,810,785,748,744,737,762,764,758,762,787,782,759,764,778,763,836,890,778,789,784,777,769,769,792,762,759,756,759,760,766,760,778,753,942,940,958,958,1033,1157,1272,1439,1478,1513,1536,1529,1462,1460,1412,1405,1370,1382,1382,1291,1323,1249,1232,1247,1176,1183,1132,1108,1089,1134,1034,1068,1005,984,979,955,1041,981,990,1000,1014,1039,1053,1062,1062,1020,1026,1052,1007,998,1008,1015,1013,1004,1038,1026,999,997,1007,1003,998,1007,1017,1040,998,1247,1213,1217,1319,1350,1571,1715,1928,1960,1994,2063,1958,1948,1878,1914,1782,1801,1765,1712,1715,1653,1593,1589,1551,1537,1467,1436,1454,1377,1396,1303,1283,1324,1247,1236,1257,1250,1236,1298,1315,1285,1298,1319,1290,1357,1298,1298,1336,1365,1365,1391,1342,1363,1355,1378,1299,1306,1349,1392,1319,1327,1311,1310,1295,1282,675,658,680,686,684,789,895,965,1087,1122,1105,1095,1076,1023,1052,1022,997,1000,981,963,933,923,898,873,871,869,876,809,791,799,755,757,715,703,670,685,685,689,690,690,686,728,722,699,707,713,701,728,758,714,715,708,699,706,702,710,701,692,692,695,697,695,700,698,679,440,442,439,469,447,484,548,612,700,723,725,720,707,696,685,673,661,650,638,626,614,603,589,579,592,556,544,533,545,509,493,486,516,459,458,443,444,449,444,441,441,448,483,479,465,479,470,492,481,461,476,454,457,475,465,454,479,457,449,472,472,490,476,484,468,678,680,682,684,708,787,896,1006,1096,1136,1136,1117,1099,1080,1061,1148,1024,1005,986,968,949,930,912,893,874,855,837,818,799,781,762,743,724,706,692,722,691,693,680,686,682,698,690,698,689,697,702,689,686,693,690,690,686,686,693,694,691,691,686,692,694,706,703,708,695,367,361,361,362,362,364,375,386,398,409,417,415,413,411,408,406,404,402,400,397,395,393,391,388,386,384,382,380,377,375,373,371,368,366,364,362,362,363,345,346,349,349,351,353,350,363,351,356,350,355,349,366,355,361,362,362,356,354,351,357,355,356,343,353,349,275,276,277,278,279,293,331,370,406,445,458,450,443,437,429,422,415,407,400,393,385,378,369,364,356,349,342,335,327,320,313,306,298,291,284,279,280,281,268,266,269,273,281,286,277,292,284,286,291,285,279,273,274,284,276,273,282,280,272,277,277,284,278,282,276,477,479,480,501,485,526,596,665,767,801,830,864,807,781,763,837,714,758,689,676,690,651,638,626,638,601,588,576,560,551,538,526,513,501,489,533,486,487,487,486,490,490,491,493,488,496,491,493,487,492,490,509,498,499,494,503,500,499,500,510,499,503,486,494,494,323,324,325,326,327,346,391,437,482,525,536,528,519,511,502,494,485,477,468,460,451,443,434,426,417,408,400,392,383,375,366,358,349,341,332,328,329,330,314,318,314,328,314,323,317,323,320,324,319,318,322,319,323,322,320,320,326,322,322,315,323,325,323,326,325,0,0,0,0,0,0,0,0,0,0,0,0,0,0,0,0,0,0,0,0,0,0,0,0,0,0,0,0,0,0,0,0,0,0,0,0,0,0,0,0,0,0,0,0,0,0,0,0,0,0,0,0,0,0,0,0,0,0,0,0,0,0,0,0,0,526,527,529,531,537,587,665,743,821,867,872,858,844,830,816,802,788,774,760,746,732,718,704,690,676,662,648,634,620,606,593,579,565,551,538,534,535,537,553,529,532,536,530,538,532,538,532,537,536,527,531,532,532,536,539,536,534,532,536,538,531,542,531,539,536,327,328,331,330,331,351,396,444,485,601,540,534,522,515,506,498,489,481,472,464,458,447,437,430,422,413,405,396,388,379,371,362,354,345,337,332,333,334,333,324,325,326,332,330,333,326,333,332,331,328,339,333,334,328,326,335,330,338,325,327,334,332,328,325,322,624,580,581,583,592,631,712,792,870,949,954,905,891,877,945,870,882,819,805,848,777,762,765,734,757,705,722,698,662,663,634,633,618,603,578,587,588,589,583,584,583,586,595,596,622,629,594,605,600,603,600,593,594,615,609,599,601,592,587,598,594,605,596,608,592,982,1020,988,1044,1064,1170,1341,1459,1608,1574,1672,1544,1549,1544,1499,1474,1479,1426,1400,1376,1347,1324,1333,1271,1272,1209,1185,1188,1158,1124,1128,1060,1088,1012,1048,996,1035,1068,1045,1043,1059,1128,1066,1085,1045,1070,1059,1084,1084,1063,1074,1066,1068,1098,1104,1070,1063,1067,1075,1081,1072,1063,1063,1087,1054,1266,1296,1251,1322,1415,1561,1783,1895,2025,2041,2028,2015,1957,1927,1920,1865,1830,1783,1765,1712,1701,1673,1655,1606,1569,1539,1510,1491,1442,1398,1366,1348,1314,1292,1260,1276,1332,1335,1373,1334,1338,1369,1357,1379,1349,1396,1383,1388,1380,1372,1382,1357,1392,1381,1374,1364,1396,1373,1355,1365,1378,1384,1374,1376,1361,1165,1090,1093,1152,1253,1347,1590,1705,1766,1767,1918,1821,1753,1674,1676,1618,1619,1644,1534,1506,1505,1453,1454,1419,1387,1379,1309,1299,1274,1271,1229,1202,1184,1118,1141,1103,1203,1162,1184,1175,1189,1211,1196,1197,1195,1203,1204,1207,1212,1193,1208,1235,1257,1238,1234,1219,1197,1220,1205,1197,1191,1228,1208,1230,1202,242,242,243,244,245,255,289,322,355,391,401,395,389,385,376,370,363,357,351,344,338,332,325,319,313,306,300,294,287,281,275,268,262,256,249,245,246,238,233,238,235,236,239,238,238,245,234,241,234,235,238,242,245,245,243,239,238,235,246,249,236,239,236,240,238,265,266,267,267,268,281,318,355,390,427,441,434,426,420,413,406,399,392,385,378,371,364,355,350,343,336,329,322,315,308,297,294,287,280,273,269,270,270,261,261,261,259,262,262,263,278,265,269,263,266,264,272,266,277,272,274,265,263,259,270,264,264,261,264,263,338,339,342,342,343,365,414,465,509,554,565,559,546,538,564,520,511,502,493,484,477,466,455,477,439,458,448,411,429,393,384,375,366,357,348,344,345,346,324,325,325,326,326,327,328,330,330,331,331,332,333,334,334,335,337,337,338,339,339,340,341,341,342,342,343,1311,1289,1346,1461,1542,1780,2014,2093,2186,2267,2303,2171,2138,2105,2071,2038,2005,1971,1930,1962,1863,1852,1763,1759,1771,1705,1683,1553,1512,1496,1451,1408,1394,1343,1352,1344,1343,1351,1395,1415,1390,1418,1419,1402,1411,1437,1407,1432,1417,1440,1426,1434,1427,1436,1441,1443,1449,1434,1436,1427,1448,1452,1448,1440,1467,702,704,706,709,736,818,932,1046,1136,1175,1175,1155,1136,1117,1097,1078,1059,1039,1020,1001,981,962,943,923,904,885,865,846,827,807,788,769,749,730,716,747,716,718,730,724,743,756,740,736,737,733,736,762,771,753,754,752,745,752,745,755,730,745,732,737,738,731,733,741,760,1375,1335,1393,1536,1591,1808,1947,2096,2190,2204,2252,2165,2059,2120,2066,2003,2008,1951,1914,1892,1845,1827,1747,1813,1686,1668,1597,1584,1609,1495,1481,1434,1399,1459,1362,1381,1406,1450,1490,1483,1474,1565,1534,1524,1511,1509,1526,1556,1518,1560,1577,1547,1503,1533,1525,1537,1542,1517,1568,1632,1598,1600,1613,1552,1550,578,580,582,608,594,651,738,921,931,950,955,940,923,909,894,879,863,848,832,818,802,787,770,757,765,725,711,696,704,665,657,635,661,604,602,586,589,590,601,606,601,618,636,624,628,639,617,622,632,637,631,654,647,639,633,632,639,618,599,661,621,626,618,647,617,993,996,972,1015,1132,1211,1387,1511,1574,1578,1677,1685,1537,1537,1542,1485,1489,1479,1408,1382,1348,1296,1303,1271,1242,1237,1170,1163,1175,1141,1101,1078,1059,1024,1018,981,1029,1000,1074,1022,1035,1054,1036,1069,1046,1080,1061,1051,1083,1054,1080,1082,1089,1080,1053,1045,1063,1067,1061,1044,1058,1068,1045,1067,1054,1060,1098,1066,1132,1163,1283,1471,1589,1735,1700,1794,1665,1668,1660,1614,1587,1590,1535,1506,1481,1450,1425,1432,1368,1496,1302,1276,1276,1245,1208,1210,1140,1167,1091,1126,1075,1115,1172,1121,1165,1127,1134,1160,1145,1143,1153,1154,1154,1168,1143,1151,1158,1162,1165,1174,1175,1176,1169,1183,1173,1185,1199,1212,1193,1191,456,456,459,459,463,499,564,629,695,743,750,738,726,714,702,691,679,667,655,643,631,620,608,596,584,572,560,548,537,526,513,502,491,477,466,463,463,464,452,449,460,491,491,452,461,481,470,458,463,461,458,471,487,490,568,542,492,476,465,464,464,461,468,462,460,343,351,345,346,348,369,466,466,515,520,531,561,517,510,534,497,516,507,498,488,479,470,461,452,443,462,425,416,407,398,389,379,371,362,360,348,387,350,337,335,347,362,338,342,338,347,354,341,346,340,342,347,343,349,346,348,348,358,348,355,353,380,376,381,384,593,595,597,598,614,680,776,872,959,1001,1003,987,970,953,937,920,903,887,870,853,837,820,803,786,770,753,736,720,703,704,670,653,636,620,606,636,605,607,629,598,602,609,594,618,599,621,621,621,618,601,606,608,618,613,614,605,610,618,610,608,613,615,605,618,616,636,638,664,690,657,724,821,957,1028,1046,1087,1032,1014,1049,1031,965,948,931,913,932,915,887,846,831,838,796,780,763,808,730,720,696,745,663,706,645,647,649,671,671,670,677,676,677,676,684,672,677,682,671,674,678,675,676,679,682,678,680,683,682,677,689,676,685,679,465,468,469,498,502,523,587,658,716,758,773,763,750,735,721,713,703,692,681,663,652,639,628,617,617,606,582,570,558,547,535,523,512,490,478,474,475,476,471,464,476,487,480,479,471,472,480,488,491,478,484,517,537,516,513,493,475,490,476,480,469,491,485,495,475,835,837,926,872,932,985,1224,1243,1424,1363,1492,1432,1317,1296,1306,1253,1261,1264,1188,1166,1173,1123,1134,1106,1080,1079,1015,1078,1048,997,990,969,946,864,905,847,887,919,900,899,914,913,927,963,919,934,934,934,961,935,931,940,937,946,924,928,929,937,922,929,934,946,928,940,943,725,727,726,729,749,813,878,970,1073,1082,1099,1073,1075,1042,1027,1037,1028,1019,990,957,965,926,935,894,895,885,878,831,838,815,802,788,769,752,739,733,737,740,738,732,753,794,762,738,759,774,766,755,754,759,759,764,768,763,763,756,748,751,755,766,739,761,746,755,754,877,880,882,900,938,1050,1195,1336,1421,1448,1450,1427,1403,1379,1348,1332,1299,1308,1285,1237,1214,1190,1166,1143,1111,1095,1096,1048,1018,1035,977,953,982,906,914,924,893,896,924,885,894,893,900,915,896,909,900,911,927,928,916,925,931,947,936,943,915,935,934,938,952,940,946,971,959,440,442,439,469,447,484,548,612,700,723,725,720,707,696,685,673,661,650,638,626,614,603,589,579,592,556,544,533,545,509,493,486,516,459,458,443,444,449,444,441,441,448,483,479,465,479,470,492,481,461,476,454,457,475,465,454,479,457,449,472,472,490,476,484,468,431,440,441,442,438,481,536,598,661,720,717,716,694,683,681,660,648,647,635,623,602,600,588,568,557,530,534,530,511,499,488,458,452,454,442,438,439,440,438,433,434,440,440,433,446,438,437,439,437,435,444,442,437,439,468,450,437,437,435,438,437,444,444,441,439,502,503,504,506,511,562,641,721,800,846,852,838,824,809,795,781,767,753,739,724,710,696,682,668,654,640,625,611,597,583,569,555,540,526,513,509,511,513,509,516,511,527,537,536,524,539,517,533,537,563,531,538,541,545,530,533,542,544,539,530,532,546,523,529,524,229,230,231,231,232,233,265,292,314,335,349,373,367,333,357,327,323,320,327,314,308,302,297,292,287,282,277,268,263,257,252,246,234,243,237,233,233,234,231,215,215,216,218,216,217,218,215,218,216,215,217,218,217,216,223,219,222,218,219,220,218,218,220,220,223,434,433,460,436,438,473,536,599,661,718,720,709,694,682,674,663,648,640,625,659,603,621,580,568,557,546,534,523,511,500,488,477,470,454,443,473,440,441,435,439,438,449,513,483,463,490,460,515,478,494,480,450,458,478,463,450,498,463,450,484,472,507,481,470,464,634,704,638,640,655,745,815,911,997,1125,1189,1026,1009,993,976,960,971,926,910,893,903,860,843,827,810,794,777,760,744,771,711,694,677,661,647,643,645,647,639,634,648,641,654,683,646,649,653,664,675,663,664,669,667,666,656,660,654,664,652,661,667,670,666,667,680,582,601,602,594,617,652,766,836,939,983,944,984,955,899,952,884,892,881,824,823,809,814,798,754,777,706,704,715,704,676,672,657,650,644,613,591,597,630,605,600,611,606,619,645,610,616,617,629,638,631,630,632,628,629,618,621,616,624,614,626,628,633,628,628,637,254,255,256,257,257,270,306,342,378,414,426,420,413,406,399,392,385,379,372,365,358,351,344,338,331,324,317,310,303,297,290,283,276,269,262,258,259,260,245,245,248,251,249,257,253,261,259,253,262,251,249,250,249,257,250,249,253,251,249,248,249,253,247,256,248,0,0,0,0,0,0,0,0,0,0,0,0,0,0,0,0,0,0,0,0,0,0,0,0,0,0,0,0,0,0,0,0,0,0,0,0,0,0,0,0,0,0,0,0,0,0,0,0,0,0,0,0,0,0,0,0,0,0,0,0,0,0,0,0,0,487,488,483,491,495,537,617,678,748,800,801,803,776,764,751,738,726,713,700,686,675,674,659,634,624,609,596,586,574,558,548,533,532,510,498,493,495,497,493,486,491,492,493,501,501,506,503,500,506,495,492,492,492,499,495,493,496,492,493,492,491,498,490,501,495,649,609,635,669,687,665,806,804,981,1059,931,927,924,887,874,911,917,909,845,808,864,835,814,823,801,786,721,718,738,682,714,690,713,661,597,628,675,615,621,622,632,649,637,638,631,642,631,655,639,636,666,666,689,684,657,647,651,655,651,644,657,671,646,655,642,997,1000,977,991,1080,1188,1324,1482,1545,1708,1605,1671,1595,1513,1504,1463,1482,1456,1387,1347,1338,1297,1272,1263,1238,1226,1201,1162,1125,1111,1098,1108,1050,1014,1001,998,1009,1041,1017,1017,1014,1028,1020,1032,1015,1017,1029,1026,1017,1023,1019,1027,1024,1019,1027,1032,1027,1026,1024,1028,1032,1045,1039,1044,1042,1267,1262,1281,1316,1440,1636,1880,1917,1994,1995,1996,1987,1935,1904,1890,1843,1894,1822,1766,1752,1705,1661,1661,1654,1594,1552,1522,1484,1462,1426,1392,1372,1349,1329,1286,1292,1257,1284,1326,1334,1343,1353,1355,1366,1355,1375,1348,1389,1359,1346,1352,1356,1365,1386,1375,1374,1366,1344,1363,1372,1368,1374,1358,1386,1357,1088,1092,1098,1123,1305,1350,1529,1665,1810,1811,1761,1733,1757,1677,1649,1621,1622,1593,1597,1554,1483,1452,1424,1399,1368,1339,1311,1322,1293,1227,1196,1203,1142,1120,1164,1103,1143,1114,1173,1150,1142,1153,1166,1188,1225,1223,1177,1239,1183,1162,1162,1215,1220,1213,1219,1239,1226,1242,1211,1195,1199,1184,1164,1162,1150,504,458,460,461,464,518,569,635,723,749,830,744,732,784,708,696,684,732,660,648,636,624,629,600,588,576,564,552,540,528,516,504,525,480,468,505,465,466,462,467,467,471,479,487,485,483,477,480,483,481,476,488,479,496,480,473,481,475,477,483,480,478,470,472,471,422,423,418,426,421,461,519,573,643,680,699,678,674,663,665,634,632,621,610,599,588,577,564,555,544,532,514,510,492,488,477,466,455,437,433,428,423,430,419,416,420,439,433,424,418,424,430,438,442,453,560,560,596,484,441,431,426,434,427,430,423,429,427,441,426,454,456,466,458,461,500,577,634,700,748,755,757,731,719,707,695,683,670,658,646,634,634,619,651,586,585,562,550,537,572,513,511,498,477,465,461,462,464,454,452,463,491,488,449,461,485,473,457,464,461,458,461,470,479,553,517,492,468,467,467,462,463,462,462,462,1108,1154,1176,1189,1306,1534,1777,1953,2049,2135,2039,2030,1925,2000,1886,1903,1806,1790,1699,1695,1656,1586,1597,1542,1474,1465,1427,1389,1385,1285,1274,1243,1198,1185,1153,1167,1135,1172,1198,1206,1208,1227,1226,1210,1229,1235,1223,1223,1234,1225,1228,1227,1241,1251,1256,1245,1246,1239,1243,1223,1230,1242,1242,1243,1237,526,527,529,530,537,591,675,759,841,886,891,876,861,847,832,817,802,788,773,758,743,728,714,699,684,669,654,640,625,610,595,581,566,551,537,534,536,538,533,529,540,559,546,546,538,548,544,555,555,541,555,585,608,592,582,559,540,564,549,541,539,565,552,565,541,1505,1498,1511,1576,1682,2022,2176,2343,2337,2405,2381,2297,2197,2295,2278,2202,2117,2142,2085,1990,1937,1969,1885,1875,1804,1785,1729,1741,1602,1579,1609,1609,1538,1578,1511,1478,1511,1539,1581,1629,1589,1609,1627,1623,1611,1636,1624,1631,1640,1611,1624,1636,1641,1644,1655,1655,1654,1647,1672,1655,1662,1680,1690,1680,1675,580,582,584,585,596,653,740,827,910,954,958,943,926,911,897,880,866,901,835,820,805,789,774,759,744,728,713,698,683,666,652,686,621,606,593,589,590,592,592,594,594,598,600,595,601,605,594,599,595,599,601,603,606,607,601,598,608,603,613,613,606,615,600,602,606,968,998,1001,987,1183,1213,1375,1465,1618,1582,1617,1592,1577,1500,1474,1488,1492,1428,1431,1395,1359,1298,1273,1248,1220,1229,1203,1186,1152,1126,1069,1107,1048,1026,1041,980,1020,1015,1047,1050,1038,1124,1099,1096,1078,1073,1083,1122,1080,1108,1112,1095,1053,1076,1078,1096,1101,1061,1095,1147,1106,1104,1115,1084,1082,1075,1078,1135,1077,1180,1302,1453,1612,1672,1832,1728,1869,1713,1630,1619,1576,1593,1643,1494,1452,1441,1398,1371,1360,1332,1319,1291,1251,1211,1196,1180,1188,1128,1093,1080,1077,1089,1206,1113,1115,1161,1426,1168,1106,1151,1244,1184,1124,1223,1200,1143,1152,1250,1254,1202,1113,1154,1141,1187,1185,1134,1168,1141,1144,1156,278,279,280,281,282,295,333,371,410,447,460,453,446,438,431,424,417,410,402,395,388,381,374,366,359,352,345,338,330,323,316,309,301,294,287,283,283,284,269,266,270,287,282,271,268,272,278,282,293,299,427,460,555,347,289,278,277,282,274,274,271,277,278,288,278,537,524,540,542,548,594,678,710,834,831,836,831,857,797,829,815,780,743,730,759,735,731,716,697,657,624,624,646,632,618,604,590,549,562,523,545,546,548,526,525,540,628,548,525,545,573,553,538,547,545,546,541,552,548,552,541,545,542,554,561,545,556,548,553,560,417,418,419,420,422,461,528,595,662,710,718,706,693,681,669,657,645,633,621,609,597,584,572,560,548,536,524,512,500,505,475,463,451,439,427,423,425,427,412,418,424,434,426,430,420,430,418,444,423,419,432,427,445,461,438,432,437,431,435,433,441,452,427,433,426,658,661,663,643,681,726,852,945,1033,1049,1097,1060,1053,1010,1023,966,981,984,945,927,915,866,872,858,841,799,782,766,763,738,739,702,710,684,670,647,671,678,660,647,656,680,648,678,657,662,667,667,690,664,666,659,659,679,697,662,655,669,656,666,662,655,664,689,663,290,291,292,293,294,320,357,394,435,467,478,471,470,457,455,447,440,434,428,422,408,401,404,387,380,373,366,359,352,345,338,331,315,317,310,295,295,296,287,285,287,293,303,287,288,297,294,294,289,287,289,287,295,301,337,338,308,297,292,292,291,289,293,293,289,836,839,842,846,942,987,1117,1315,1400,1367,1364,1343,1321,1299,1277,1256,1264,1304,1249,1169,1147,1220,1104,1082,1058,1039,1017,1046,974,952,928,942,887,866,874,847,851,854,840,837,841,848,850,850,854,852,853,862,856,860,864,878,883,876,885,876,871,884,876,869,884,877,878,884,877,545,550,549,563,555,597,664,697,781,792,830,789,778,831,758,780,746,751,740,729,729,706,679,692,672,668,650,639,627,616,605,594,582,571,557,541,555,556,550,549,546,555,580,614,555,550,553,563,563,555,561,556,561,559,565,556,553,559,548,557,563,563,582,553,552,694,722,699,706,727,808,921,1033,1130,1170,1187,1151,1124,1113,1094,1075,1055,1060,1008,998,978,951,940,921,902,882,863,844,857,823,786,767,748,723,707,711,707,715,720,730,721,725,738,744,743,749,731,751,745,747,736,731,728,738,736,739,731,730,728,726,724,731,731,730,712,431,440,441,442,438,481,536,598,661,720,717,716,694,683,681,660,648,647,635,623,602,600,588,568,557,530,534,530,511,499,488,458,452,454,442,438,439,440,438,433,434,440,440,433,446,438,437,439,437,435,444,442,437,439,468,450,437,437,435,438,437,444,444,441,439,341,342,343,344,345,362,428,479,529,574,584,574,565,556,547,537,528,519,509,500,491,481,467,445,436,456,419,411,402,418,380,376,389,359,374,346,347,348,339,341,340,350,406,377,361,388,358,410,376,392,377,350,358,374,363,351,391,364,351,379,370,400,378,369,363,795,852,850,855,919,934,1060,1171,1274,1303,1309,1280,1263,1256,1228,1213,1254,1158,1139,1118,1090,1070,1063,1042,1012,974,952,1005,938,889,880,864,825,817,804,802,805,807,797,806,812,827,822,830,808,831,806,813,810,813,810,825,831,839,833,833,814,827,833,829,831,821,825,844,824,515,517,525,531,530,570,660,711,777,798,859,844,834,794,803,759,762,750,739,725,712,711,696,673,669,629,618,628,594,593,587,559,553,544,528,528,524,533,536,516,513,515,557,553,531,531,534,537,565,560,584,573,586,549,577,547,564,592,608,585,554,570,605,625,556,179,180,181,181,182,214,242,236,261,286,299,295,290,285,281,276,271,266,262,257,252,247,243,238,233,228,224,219,214,210,205,200,195,191,186,182,183,183,171,172,172,172,174,174,182,186,174,177,177,174,174,173,174,177,178,174,177,173,174,175,175,178,175,181,177,407,405,406,408,409,439,497,555,617,661,669,659,648,638,627,620,606,595,584,578,563,553,542,531,521,510,499,489,478,468,457,446,439,425,415,410,411,412,404,410,407,416,414,415,417,410,414,414,432,414,419,422,423,416,434,430,420,419,403,422,416,420,422,423,416,420,403,404,424,407,451,495,552,610,656,665,654,673,615,623,604,602,591,580,554,544,534,538,527,541,506,496,485,475,451,454,463,433,422,412,408,409,410,399,400,396,401,403,416,403,404,417,408,401,406,401,404,404,400,407,409,407,406,402,403,410,418,419,419,412,346,347,348,348,350,375,423,473,523,567,578,568,559,548,539,530,522,516,504,494,485,476,467,457,447,437,430,419,413,401,393,385,376,365,356,351,352,352,346,342,345,346,346,343,348,346,346,348,345,347,350,354,354,351,361,351,349,349,350,356,349,355,349,350,350,609,606,608,609,628,683,771,845,947,988,994,971,960,953,936,916,897,882,873,854,831,816,815,800,776,742,726,729,723,680,677,666,633,630,616,613,615,617,603,618,614,631,690,662,632,675,626,709,654,686,656,633,654,683,655,637,678,651,644,666,654,694,654,654,637,0,0,0,0,0,0,0,0,0,0,0,0,0,0,0,0,0,0,0,0,0,0,0,0,0,0,0,0,0,0,0,0,0,0,0,0,0,0,0,0,0,0,0,0,0,0,0,0,0,0,0,0,0,0,0,0,0,0,0,0,0,0,0,0,0,811,813,816,820,856,955,1051,1207,1334,1293,1293,1294,1316,1259,1259,1192,1171,1168,1153,1184,1090,1070,1050,1051,1053,1003,990,949,928,1008,888,881,860,840,826,823,910,827,847,850,847,858,860,855,858,871,845,859,851,851,856,866,866,861,864,862,854,853,868,869,848,855,856,862,854,711,713,715,717,738,812,908,1020,1109,1158,1159,1133,1115,1103,1080,1052,1047,1027,1008,993,980,924,908,918,901,882,866,846,803,810,792,767,758,713,725,715,723,699,713,706,710,714,715,722,723,730,723,729,726,716,714,715,714,720,723,718,722,716,717,716,714,721,714,726,723,1436,1428,1444,1551,1751,2007,2184,2403,2399,2452,2427,2427,2331,2282,2254,2191,2157,2134,2097,2005,1997,1927,1880,1853,1812,1774,1723,1681,1624,1585,1564,1510,1481,1441,1416,1458,1467,1472,1520,1524,1528,1533,1537,1520,1539,1554,1532,1535,1542,1545,1623,1617,1565,1547,1565,1593,1587,1651,1649,1550,1588,1667,1671,1640,1578,802,805,807,811,848,942,1057,1191,1278,1323,1321,1292,1271,1254,1233,1198,1194,1170,1193,1124,1110,1082,1061,1041,1020,1107,978,956,938,914,893,865,855,831,818,808,820,819,810,804,818,838,823,827,820,845,829,836,832,823,837,862,882,867,855,846,816,840,825,815,815,839,847,848,817,432,433,435,436,438,473,535,597,660,707,715,704,692,681,670,658,647,635,624,613,601,590,579,567,556,545,533,559,511,499,488,477,465,454,443,438,440,441,435,444,441,454,477,470,458,484,449,486,468,481,463,455,465,475,465,458,472,465,463,472,461,475,462,464,455,135,136,136,137,137,140,158,176,194,213,225,221,218,214,211,207,204,200,197,193,190,186,183,179,176,172,169,165,161,158,154,151,147,144,140,137,138,138,123,123,123,123,124,124,124,124,125,125,125,125,125,126,126,126,126,127,127,127,127,128,128,128,128,129,129,115,116,116,116,117,119,135,151,167,183,195,192,189,186,182,179,176,173,170,167,164,161,157,154,151,148,145,142,139,136,132,129,126,123,120,117,118,118,104,104,104,104,105,105,104,105,105,104,105,104,106,106,105,106,106,106,106,108,106,110,108,111,111,112,112,1402,1431,1428,1559,1796,2048,2362,2409,2442,2484,2518,2412,2397,2340,2332,2249,2248,2114,2105,2032,1978,2010,1934,1860,1808,1792,1731,1707,1637,1597,1564,1542,1468,1461,1448,1469,1458,1485,1556,1565,1539,1555,1548,1594,1563,1580,1590,1652,1572,1606,1594,1606,1586,1646,1619,1578,1574,1571,1591,1608,1608,1632,1611,1623,1590,819,880,874,880,949,967,1098,1212,1313,1342,1347,1318,1300,1293,1264,1248,1213,1192,1172,1151,1122,1101,1094,1072,1042,1003,981,1033,965,915,906,889,850,842,829,827,829,832,825,823,822,841,830,838,830,843,838,833,833,836,831,832,828,824,831,837,836,839,828,828,835,846,841,846,833,1081,1082,1085,1090,1204,1369,1520,1676,1713,1868,1704,1694,1649,1618,1595,1567,1569,1533,1523,1476,1446,1394,1424,1349,1330,1348,1281,1317,1294,1212,1150,1143,1096,1097,1104,1099,1073,1072,1099,1087,1085,1098,1207,1182,1135,1161,1133,1228,1187,1182,1183,1130,1144,1176,1184,1131,1199,1170,1147,1200,1168,1222,1212,1237,1176,345,346,347,348,349,372,421,471,520,565,575,565,556,547,538,529,520,510,501,492,483,474,464,455,446,437,428,418,409,400,391,382,373,364,354,350,351,352,339,342,338,348,346,354,343,355,347,348,342,342,342,348,347,342,346,348,346,343,349,343,343,343,343,348,341,682,684,686,688,709,783,878,992,1081,1130,1131,1105,1087,1069,1051,1023,1018,1018,1001,961,950,925,907,889,886,868,836,836,802,781,763,758,728,725,696,685,694,696,692,692,709,717,708,728,715,738,728,715,753,724,746,745,745,752,713,712,724,733,724,710,722,729,710,730,726,789,845,793,795,828,915,1024,1151,1239,1286,1284,1257,1237,1222,1197,1167,1160,1138,1117,1100,1085,1027,1009,1017,998,977,958,937,892,897,877,849,838,792,804,793,802,779,778,792,789,802,799,792,801,802,794,797,792,795,794,793,791,797,799,799,802,797,793,799,799,831,829,835,822,571,574,576,578,586,642,726,780,892,935,941,904,911,896,873,864,852,836,815,797,775,762,762,747,732,693,678,687,678,635,643,628,623,598,585,581,576,584,571,578,578,573,575,570,580,579,580,575,575,575,580,577,582,576,583,587,575,575,578,580,580,584,573,578,575,339,340,341,342,343,352,412,460,460,510,563,554,545,518,527,510,509,500,491,466,458,449,456,447,419,429,420,411,402,380,384,375,366,358,349,344,345,346,334,334,335,337,335,335,338,337,337,334,335,334,337,341,341,339,335,337,339,339,341,339,337,341,335,337,339,710,770,764,767,810,823,935,1033,1138,1170,1200,1151,1136,1131,1105,1091,1059,1040,1023,1005,978,960,955,936,909,872,853,908,842,795,789,775,738,731,718,716,718,721,712,720,717,705,731,726,720,721,718,737,746,746,755,738,747,728,770,740,738,760,818,770,753,740,775,769,761,402,403,405,406,407,439,497,556,614,662,670,659,648,638,627,616,606,595,584,573,563,552,541,530,520,509,498,487,476,466,455,444,434,423,413,408,409,410,400,408,411,422,418,423,407,424,402,439,415,432,414,415,434,453,427,419,426,420,423,422,423,431,404,412,404,555,557,558,560,599,623,706,789,870,914,919,904,889,875,860,845,830,816,801,786,772,757,742,727,713,698,683,669,654,639,625,610,595,580,567,563,565,566,561,565,567,579,575,578,571,578,570,569,575,570,583,602,596,587,579,582,583,595,599,588,582,595,576,583,580,579,594,582,575,593,648,688,816,897,972,977,893,917,864,878,825,824,812,828,813,798,783,791,753,729,701,699,693,681,663,649,597,610,604,591,552,604,590,565,572,583,596,580,588,577,598,575,586,580,572,576,583,585,587,585,583,578,576,590,584,573,576,571,583,575,820,823,828,832,882,943,1056,1173,1216,1256,1257,1306,1220,1202,1184,1182,1147,1159,1140,1120,1115,1082,1077,1083,1037,1021,986,967,948,928,927,891,871,852,836,833,837,869,831,838,848,871,856,855,848,871,844,876,862,874,906,897,924,922,867,862,878,875,871,864,879,893,862,868,861,987,1055,1044,1069,1156,1240,1389,1501,1596,1643,1637,1580,1588,1553,1520,1500,1461,1435,1411,1446,1346,1327,1315,1289,1255,1212,1227,1232,1153,1095,1087,1072,1041,1018,1000,1004,1007,1010,1009,1014,1001,1028,1020,1029,1027,1040,1031,1019,1017,1035,1027,1019,1017,1020,1027,1029,1026,1027,1014,1022,1023,1039,1037,1039,1019,341,342,343,344,345,362,428,479,529,574,584,574,565,556,547,537,528,519,509,500,491,481,467,445,436,456,419,411,402,418,380,376,389,359,374,346,347,348,339,341,340,350,406,377,361,388,358,410,376,392,377,350,358,374,363,351,391,364,351,379,370,400,378,369,363,856,858,854,849,913,1013,1153,1273,1313,1370,1366,1349,1300,1302,1286,1264,1265,1216,1194,1166,1155,1135,1084,1087,1070,1048,1024,988,990,969,947,913,897,877,871,851,888,879,864,871,876,894,998,951,900,950,901,1029,934,957,947,898,927,970,931,906,981,920,907,955,943,1011,946,940,917,908,887,918,910,952,1079,1205,1333,1396,1426,1441,1427,1382,1357,1336,1302,1293,1268,1259,1212,1209,1187,1149,1142,1133,1102,1064,1061,1035,1019,992,979,957,938,934,915,926,919,924,911,919,919,922,943,924,932,934,945,961,954,950,955,953,967,948,954,951,958,961,976,962,959,961,982,976,501,493,501,503,508,545,615,675,741,752,760,751,743,734,745,718,719,697,686,672,664,653,625,644,637,617,596,580,568,557,546,535,543,513,502,498,512,501,498,504,506,518,531,530,513,541,507,545,523,534,521,517,530,541,527,518,530,521,524,530,521,532,514,518,511,683,692,687,768,711,746,883,948,1020,1107,1107,1101,1073,1056,1038,1021,962,986,969,961,934,879,863,882,865,847,831,813,763,778,761,744,727,709,667,664,666,697,694,694,661,661,689,677,672,672,678,682,733,680,698,706,735,697,691,698,693,729,754,697,699,698,746,703,682,850,925,855,944,904,1036,1155,1303,1341,1375,1408,1361,1328,1307,1277,1264,1298,1213,1243,1274,1187,1135,1148,1082,1071,1051,1027,1028,1032,995,943,914,915,878,865,862,878,890,897,893,881,890,873,888,883,886,906,959,892,905,911,907,900,930,931,900,891,888,901,913,897,911,915,912,904,610,619,613,693,625,707,796,903,970,1011,989,985,958,943,919,912,919,873,857,925,831,820,824,789,770,758,739,750,730,747,681,660,650,632,638,634,636,638,626,628,630,644,631,634,629,645,638,630,639,626,629,636,631,636,632,638,633,642,639,640,633,645,630,641,636,566,553,555,556,581,641,715,770,841,881,885,872,858,845,832,819,835,821,806,775,778,763,718,721,720,701,663,649,644,631,617,595,599,575,563,559,574,577,568,578,569,580,584,582,577,593,570,580,576,575,572,584,584,583,580,579,582,577,591,593,575,585,572,582,577,867,860,863,868,926,1030,1170,1284,1348,1378,1374,1353,1332,1311,1290,1374,1258,1237,1215,1194,1172,1151,1113,1168,1129,1114,1027,1014,1015,971,949,927,943,885,873,870,920,875,888,873,875,877,886,911,902,894,892,909,923,901,908,899,900,925,931,902,912,919,916,930,916,915,934,967,931,779,745,740,822,770,812,957,1029,1103,1187,1186,1178,1150,1132,1113,1095,1035,1058,1039,1031,1002,946,929,947,931,909,892,924,872,836,818,799,781,762,720,717,719,750,721,779,724,728,735,725,730,733,745,747,760,733,740,736,758,743,747,755,745,752,785,733,766,762,779,749,748,0,0,0,0,0,0,0,0,0,0,0,0,0,0,0,0,0,0,0,0,0,0,0,0,0,0,0,0,0,0,0,0,0,0,0,0,0,0,0,0,0,0,0,0,0,0,0,0,0,0,0,0,0,0,0,0,0,0,0,0,0,0,0,0,0,1408,1383,1429,1563,1621,1855,1997,2142,2230,2220,2203,2187,2124,2099,2088,2009,2102,1971,1983,1927,1857,1836,1815,1752,1718,1697,1670,1614,1634,1615,1522,1539,1459,1438,1414,1445,1408,1436,1484,1507,1521,1521,1526,1512,1522,1554,1512,1514,1541,1498,1520,1517,1539,1550,1700,1650,1562,1520,1525,1516,1509,1504,1518,1574,1499,1010,1013,1046,1053,1102,1271,1421,1465,1596,1718,1647,1585,1535,1541,1462,1488,1417,1436,1396,1373,1350,1327,1304,1259,1259,1214,1213,1203,1229,1124,1121,1124,1261,1086,1068,1054,1044,1076,1081,1120,1082,1084,1111,1084,1100,1105,1104,1104,1118,1106,1124,1108,1111,1119,1122,1120,1119,1121,1156,1119,1142,1149,1168,1127,1122,1498,1501,1538,1725,1795,2015,2198,2303,2389,2390,2365,2336,2319,2258,2229,2207,2156,2136,2088,2051,1983,1956,1959,1913,1843,1806,1802,1735,1733,1719,1717,1574,1550,1575,1512,1575,1527,1540,1648,1652,1610,1605,1654,1634,1646,1652,1650,1657,1710,1662,1670,1683,1681,1688,1667,1694,1704,1706,1741,1700,1688,1693,1750,1683,1692,377,385,379,442,381,407,457,517,557,600,610,612,591,582,573,563,554,545,535,536,517,507,526,489,479,470,461,452,467,433,424,414,405,396,386,382,383,384,376,380,379,385,387,385,392,385,379,388,383,380,386,392,386,386,408,394,386,385,388,383,385,388,384,388,381,673,682,677,758,699,769,868,977,1050,1089,1090,1143,1056,1039,1022,1005,988,971,954,947,920,903,913,869,852,886,897,801,827,840,750,733,716,699,762,683,684,686,687,706,701,712,706,709,708,723,706,717,701,700,701,714,717,722,721,722,706,701,723,720,712,715,705,713,705,747,756,777,834,784,830,980,1055,1128,1212,1211,1201,1173,1154,1135,1116,1056,1078,1059,1050,1021,964,975,964,947,925,907,888,836,849,830,811,792,773,732,729,730,762,783,733,737,747,735,770,741,770,762,748,775,744,747,748,755,760,754,745,753,758,748,745,747,756,743,760,748,1253,1227,1264,1270,1347,1553,1675,1743,1854,2001,1861,1883,1859,1835,1731,1825,1680,1654,1628,1603,1577,1552,1539,1500,1475,1541,1423,1475,1434,1347,1321,1295,1409,1283,1325,1239,1241,1244,1304,1306,1304,1317,1337,1312,1343,1346,1329,1323,1335,1341,1409,1418,1424,1403,1460,1412,1364,1353,1341,1336,1344,1332,1342,1380,1330,928,857,868,937,982,1081,1157,1389,1357,1392,1388,1367,1418,1328,1293,1316,1288,1266,1278,1231,1239,1215,1213,1104,1104,1135,1027,1089,999,983,957,942,921,978,958,879,889,944,922,936,932,1021,959,938,924,938,942,992,1014,965,1000,969,966,938,982,969,953,975,1050,998,974,953,1004,1008,966,1497,1482,1472,1778,1867,2150,2401,2552,2598,2572,2620,2478,2526,2416,2338,2303,2247,2207,2158,2129,2066,2016,1975,1914,1871,1847,1794,1732,1680,1633,1580,1526,1501,1489,1529,1478,1514,1497,1587,1590,1627,1902,1651,1585,1641,1742,1662,1605,1705,1688,1627,1631,1709,1696,1680,1587,1626,1618,1663,1664,1602,1649,1608,1612,1619,998,997,993,1093,1076,1201,1382,1520,1567,1597,1589,1578,1555,1514,1489,1464,1466,1414,1389,1391,1339,1391,1339,1263,1239,1213,1198,1163,1156,1131,1088,1108,1038,1016,1022,1058,1059,1023,1078,1078,1053,1062,1058,1080,1070,1085,1087,1158,1078,1119,1115,1120,1088,1168,1124,1076,1076,1068,1105,1136,1118,1152,1135,1136,1110,1377,1403,1431,1564,1601,1815,2003,2112,2280,2206,2185,2159,2145,2082,2060,2041,1993,2011,1963,1896,1831,1807,1813,1791,1718,1668,1667,1603,1604,1632,1513,1470,1428,1431,1386,1482,1404,1414,1499,1512,1459,1475,1501,1496,1494,1516,1499,1512,1556,1501,1518,1529,1533,1536,1509,1537,1548,1545,1588,1536,1524,1533,1583,1521,1522,1486,1461,1518,1666,1737,1987,2127,2268,2354,2342,2322,2304,2239,2213,2200,2119,2278,2076,2086,2029,1957,1933,1910,1846,1810,1787,1758,1700,1832,1696,1602,1669,1537,1517,1493,1524,1487,1515,1613,1604,1610,1656,1617,1639,1623,1644,1658,1703,1633,1652,1654,1654,1654,1656,1679,1649,1637,1644,1656,1667,1651,1664,1659,1673,1656,711,704,706,708,742,817,930,1017,1086,1121,1122,1105,1088,1071,1054,1169,1151,1014,997,979,962,946,911,954,936,925,841,833,816,798,781,763,783,728,717,712,762,716,717,732,730,740,754,739,740,751,730,748,740,764,735,749,760,781,810,798,756,759,754,740,739,740,753,745,731,677,686,681,761,700,794,876,1013,1082,1121,1097,1090,1063,1046,1020,1011,1017,969,951,953,922,909,912,875,854,840,820,828,807,854,755,732,723,700,706,703,704,706,713,691,700,709,703,712,715,724,712,710,720,708,715,713,714,717,706,703,713,712,716,699,707,717,702,715,709,842,818,849,844,889,984,1098,1363,1284,1316,1330,1352,1276,1254,1234,1214,1195,1204,1207,1119,1117,1098,1061,1056,1049,1020,983,982,978,943,918,906,887,868,864,845,877,849,854,868,853,868,874,878,869,894,876,874,868,867,867,864,866,873,879,873,874,864,866,871,871,892,870,888,875,1055,1071,1051,1128,1151,1286,1479,1616,1698,1723,1680,1668,1735,1640,1574,1548,1577,1544,1468,1489,1451,1440,1411,1398,1348,1282,1288,1229,1220,1218,1149,1167,1153,1074,1091,1117,1118,1112,1111,1126,1134,1147,1157,1137,1136,1172,1135,1143,1145,1124,1136,1144,1161,1162,1313,1259,1168,1151,1151,1141,1129,1129,1144,1164,1127,678,660,684,675,695,791,852,935,1013,1050,1070,1037,1021,1005,990,974,959,943,927,895,898,883,875,850,902,845,789,792,794,761,741,731,716,694,701,679,689,702,683,685,689,695,682,691,691,698,697,687,695,687,692,689,693,695,694,695,691,695,693,697,691,707,693,701,697,1273,1275,1256,1417,1440,1596,1801,1895,2014,1998,2018,1995,1896,1888,1885,1893,1837,1792,1754,1737,1693,1662,1658,1590,1568,1536,1539,1456,1501,1469,1397,1339,1296,1302,1253,1287,1270,1307,1340,1349,1350,1364,1379,1404,1367,1392,1358,1398,1387,1407,1364,1369,1391,1409,1387,1399,1398,1413,1390,1383,1378,1383,1388,1383,1357,751,720,731,751,772,884,969,1154,1156,1193,1192,1174,1237,1140,1108,1089,1081,1062,1050,1059,1011,991,1025,941,945,956,872,913,849,836,812,800,782,812,792,741,751,780,777,767,761,761,798,827,781,790,787,823,797,829,818,822,799,823,799,797,808,789,804,861,831,850,831,821,829,1127,1103,1128,1138,1311,1387,1551,1824,1740,1742,1740,1775,1694,1674,1638,1620,1594,1539,1591,1498,1480,1462,1419,1407,1392,1356,1313,1289,1258,1252,1260,1201,1175,1155,1137,1134,1130,1139,1181,1189,1161,1176,1170,1214,1180,1197,1216,1277,1193,1250,1233,1246,1202,1260,1249,1195,1189,1189,1226,1264,1244,1267,1249,1253,1226,856,858,854,849,913,1013,1153,1273,1313,1370,1366,1349,1300,1302,1286,1264,1265,1216,1194,1166,1155,1135,1084,1087,1070,1048,1024,988,990,969,947,913,897,877,871,851,888,879,864,871,876,894,998,951,900,950,901,1029,934,957,947,898,927,970,931,906,981,920,907,955,943,1011,946,940,917,712,714,706,718,731,807,929,1038,1181,1152,1154,1136,1117,1099,1095,1076,1043,1083,1021,1015,983,951,946,927,908,890,859,841,833,815,796,788,748,750,716,723,714,727,720,729,732,746,752,753,753,749,729,753,738,725,738,745,745,743,769,753,731,728,740,739,726,739,738,743,728,1171,1175,1180,1300,1406,1493,1742,1879,1892,1984,1908,1877,1953,1872,1784,1829,1778,1730,1660,1629,1643,1563,1535,1555,1526,1442,1478,1380,1401,1369,1283,1306,1226,1202,1192,1190,1193,1197,1259,1249,1248,1258,1259,1264,1333,1337,1264,1294,1285,1268,1264,1314,1322,1342,1326,1328,1326,1336,1340,1313,1294,1296,1265,1267,1260,1168,1170,1164,1228,1306,1453,1649,1796,1860,1914,1837,1850,1838,1784,1728,1692,1695,1688,1662,1611,1580,1534,1521,1491,1454,1444,1388,1359,1388,1316,1269,1259,1212,1186,1176,1204,1165,1180,1210,1210,1220,1250,1223,1253,1227,1241,1220,1234,1243,1227,1228,1236,1236,1260,1292,1259,1226,1245,1237,1239,1226,1220,1241,1261,1226,905,887,861,883,973,1022,1172,1289,1387,1399,1444,1385,1362,1390,1308,1346,1274,1278,1229,1205,1174,1152,1138,1117,1093,1097,1107,1018,1003,974,977,936,914,918,878,875,871,880,874,868,879,876,881,871,876,888,883,907,927,893,967,969,921,892,902,936,934,997,993,896,932,1013,1014,991,925,889,891,855,860,934,1007,1140,1261,1429,1380,1406,1366,1343,1340,1302,1277,1257,1245,1203,1188,1206,1145,1137,1100,1078,1110,1080,1035,991,967,986,935,895,901,863,857,878,867,868,878,874,894,892,894,883,896,884,890,883,879,884,896,891,899,905,907,907,900,907,901,900,936,916,928,920,983,987,952,963,1049,1134,1289,1411,1609,1532,1531,1517,1516,1459,1434,1415,1385,1379,1329,1317,1333,1287,1244,1214,1195,1224,1188,1157,1100,1072,1084,1039,993,998,958,958,959,969,980,981,973,969,1029,1077,998,997,1004,1030,1003,1011,1001,1012,997,1007,1004,1016,1028,998,1004,1046,1022,1036,1040,1015,1012,1064,1036,1006,1059,1112,1293,1389,1601,1605,1674,1687,1645,1632,1577,1568,1547,1524,1512,1455,1443,1394,1339,1349,1349,1307,1275,1226,1219,1192,1158,1156,1111,1094,1062,1059,1065,1050,1052,1055,1075,1074,1090,1088,1077,1085,1106,1090,1097,1091,1107,1119,1098,1120,1156,1101,1097,1098,1090,1096,1098,1104,1107,1092,1100,1091,985,988,992,1120,1185,1197,1520,1580,1575,1605,1603,1578,1552,1583,1501,1475,1571,1463,1398,1372,1393,1318,1295,1333,1361,1218,1193,1167,1248,1116,1090,1161,1039,1014,1003,1000,1003,1006,1019,992,999,1004,1026,992,1001,1006,1006,1024,1029,1027,1023,1151,1028,1019,1150,1031,1028,1032,1035,1030,1035,1031,1052,1050,1055,816,786,764,773,825,889,1006,1123,1210,1239,1252,1231,1211,1311,1162,1201,1133,1140,1093,1072,1044,1024,1012,994,973,1009,993,906,893,866,873,834,815,795,781,777,773,781,772,766,763,771,787,807,794,790,791,807,812,793,798,782,785,812,816,791,810,799,787,817,804,809,812,836,805,1535,1503,1572,1607,1877,2082,2239,2297,2372,2396,2390,2384,2312,2250,2271,2151,2168,2171,2064,2034,2047,1981,1922,1923,1972,1809,1816,1744,1739,1672,1657,1602,1580,1576,1521,1544,1557,1547,1660,1672,1710,1965,1738,1680,1728,1826,1738,1702,1789,1771,1709,1715,1788,1776,1756,1672,1698,1696,1739,1743,1673,1727,1695,1688,1686,0,0,0,0,0,0,0,0,0,0,0,0,0,0,0,0,0,0,0,0,0,0,0,0,0,0,0,0,0,0,0,0,0,0,0,0,0,0,0,0,0,0,0,0,0,0,0,0,0,0,0,0,0,0,0,0,0,0,0,0,0,0,0,0,0,1564,1557,1610,1775,2157,2783,2946,3035,3235,3098,3070,3124,2977,2912,2858,2792,2751,2604,2635,2588,2405,2430,2372,2320,2322,2158,2031,1996,1978,1937,1817,1738,1665,1631,1627,1635,1614,1632,1812,1816,1824,1864,1848,1858,1826,1845,1834,1835,1865,1845,1880,1886,1863,1863,1872,1865,1851,1872,1871,1853,1874,1862,1863,1877,1846,303,304,305,305,306,322,365,407,450,491,505,497,489,481,473,465,457,449,441,433,425,417,409,401,393,385,376,368,360,352,344,336,328,320,312,307,308,309,296,299,299,296,304,307,326,309,301,310,309,305,304,304,307,322,309,311,311,303,315,312,305,316,307,357,309,1222,1121,1176,1156,1335,1453,1572,1812,1832,1801,1940,1773,1759,1745,1790,1642,1645,1629,1574,1543,1506,1480,1457,1536,1486,1373,1422,1317,1375,1251,1245,1230,1181,1225,1135,1164,1131,1171,1203,1208,1198,1229,1212,1203,1216,1228,1213,1221,1220,1222,1223,1211,1207,1214,1221,1228,1211,1216,1205,1215,1208,1223,1216,1216,1197,841,823,819,815,888,976,1072,1232,1282,1327,1342,1315,1310,1257,1238,1215,1225,1219,1168,1174,1115,1097,1078,1061,1051,1020,1065,979,956,927,930,910,880,837,844,844,828,834,843,841,854,888,864,844,863,878,856,855,856,861,861,860,868,867,863,854,863,858,874,876,859,876,855,859,864,783,753,731,740,789,849,962,1075,1163,1193,1207,1185,1166,1230,1118,1158,1091,1098,1052,1031,1003,984,973,955,935,972,956,870,858,831,839,800,782,762,748,744,739,748,754,749,772,787,801,800,812,753,777,794,760,751,762,761,756,756,786,774,753,753,749,756,758,764,771,784,756,1806,1817,1943,2118,2477,2755,2902,3005,3103,3033,2985,2922,2917,2823,2797,2761,2691,2672,2582,2536,2426,2425,2371,2267,2238,2205,2153,2128,2032,1953,1954,1854,1899,1820,1855,1818,1855,1885,2198,2191,2193,2233,2255,2248,2226,2226,2248,2291,2255,2282,2303,2309,2284,2291,2282,2278,2267,2248,2297,2330,2309,2336,2333,2291,2266,1195,1199,1205,1329,1441,1531,1782,1918,1931,2021,1945,1914,1988,1908,1819,1863,1811,1763,1692,1660,1674,1594,1565,1584,1555,1470,1506,1407,1427,1395,1309,1331,1250,1226,1216,1214,1218,1222,1274,1261,1291,1285,1289,1334,1279,1291,1302,1320,1330,1315,1313,1327,1315,1302,1294,1305,1289,1315,1282,1292,1305,1312,1298,1310,1337,892,889,867,938,946,1054,1195,1338,1450,1490,1507,1382,1396,1373,1392,1350,1274,1285,1262,1235,1236,1162,1169,1146,1152,1068,1105,1026,1015,1004,955,1019,954,922,898,883,913,908,909,913,924,952,931,922,925,932,931,929,999,970,947,976,1017,999,1008,945,934,948,957,936,917,939,945,927,913,567,568,570,572,580,634,719,803,885,927,937,922,907,892,877,862,847,873,817,802,784,769,758,740,728,713,698,680,668,653,638,623,608,590,579,575,577,578,559,571,570,592,582,572,584,583,570,576,572,575,575,570,570,577,578,573,580,572,571,580,576,598,591,596,586,386,387,388,389,390,417,473,529,646,632,644,633,623,613,602,592,582,700,614,603,541,581,569,558,499,489,479,468,502,490,479,427,417,407,396,391,393,394,389,394,386,395,396,395,411,410,392,394,395,404,400,391,392,400,396,394,396,396,389,395,388,396,396,397,385,96,96,96,96,97,97,108,119,130,141,151,149,147,144,142,140,138,136,134,131,129,127,125,123,121,118,116,114,112,110,108,105,103,101,99,97,97,97,79,81,79,80,83,82,82,81,80,81,81,82,79,80,80,82,80,80,82,80,80,82,80,82,80,81,80,947,950,953,1075,1133,1138,1449,1560,1507,1538,1537,1513,1489,1521,1440,1415,1513,1406,1342,1317,1339,1265,1244,1283,1313,1171,1146,1122,1204,1073,1079,1121,1000,975,994,961,964,966,976,990,992,1020,986,1003,994,1016,1005,1013,996,993,997,1006,1016,1016,1021,1023,1011,1009,1023,1016,1020,1032,1020,1030,1030,969,976,938,952,1036,1123,1272,1446,1568,1509,1516,1501,1514,1443,1419,1395,1371,1359,1315,1303,1318,1268,1226,1267,1181,1207,1176,1150,1084,1060,1073,1036,982,1013,987,944,948,954,1000,957,962,963,961,980,966,978,968,1001,996,977,969,981,980,991,993,989,980,984,982,988,994,986,988,1016,994,1086,1089,1092,1217,1312,1387,1628,1767,1760,1785,1780,1751,1813,1748,1664,1711,1682,1616,1547,1518,1534,1457,1431,1471,1444,1343,1399,1285,1325,1280,1194,1279,1140,1116,1106,1104,1107,1111,1136,1174,1137,1138,1167,1139,1157,1160,1159,1160,1174,1162,1181,1165,1167,1176,1180,1177,1176,1179,1213,1176,1199,1206,1227,1185,1180,624,626,628,630,644,707,801,896,983,1023,1031,1014,998,981,965,948,932,956,899,882,863,846,833,813,800,783,767,748,734,717,701,684,668,649,638,634,635,637,631,630,629,640,630,631,629,633,628,632,631,630,634,636,636,634,634,636,636,633,636,639,632,636,636,636,636,1104,1108,1111,1238,1264,1375,1661,1761,1764,1780,1787,1758,1730,1758,1673,1633,1718,1629,1562,1534,1537,1470,1491,1478,1509,1365,1337,1309,1406,1258,1207,1283,1158,1134,1115,1121,1149,1127,1170,1154,1152,1156,1170,1206,1192,1202,1183,1195,1215,1204,1210,1207,1205,1228,1237,1191,1205,1219,1223,1241,1218,1223,1244,1292,1227,450,447,449,450,452,493,552,601,680,728,721,726,714,702,696,664,673,661,649,618,626,614,602,590,561,562,550,539,532,520,493,481,484,473,461,443,444,445,447,450,446,448,444,442,447,456,448,583,449,442,448,450,460,441,453,452,445,455,439,444,448,449,440,449,447,1317,1350,1330,1491,1642,1590,2007,1977,2044,1994,2030,1971,1943,2001,1914,1873,1977,1866,1797,1767,1743,1700,1649,1705,1734,1589,1559,1558,1597,1490,1423,1496,1424,1348,1329,1335,1338,1341,1405,1412,1433,1455,1474,1471,1479,1450,1434,1467,1425,1417,1430,1438,1433,1427,1459,1451,1421,1422,1433,1426,1422,1433,1458,1464,1425,1366,1375,1405,1492,1626,1833,2031,2145,2206,2224,2211,2175,2220,2158,2068,2053,2017,1992,1948,1882,1897,1828,1781,1767,1732,1699,1660,1602,1598,1553,1491,1482,1421,1403,1394,1392,1397,1401,1465,1472,1480,1493,1547,1543,1499,1542,1496,1581,1543,1571,1514,1499,1531,1552,1527,1531,1570,1541,1521,1537,1522,1548,1551,1601,1535,712,714,706,718,731,807,929,1038,1181,1152,1154,1136,1117,1099,1095,1076,1043,1083,1021,1015,983,951,946,927,908,890,859,841,833,815,796,788,748,750,716,723,714,727,720,729,732,746,752,753,753,749,729,753,738,725,738,745,745,743,769,753,731,728,740,739,726,739,738,743,728,1289,1288,1312,1367,1534,1839,2072,2241,2323,2310,2283,2300,2216,2180,2113,2070,2028,2008,1962,1932,1856,1914,1771,1832,1687,1698,1648,1573,1522,1491,1443,1389,1349,1334,1307,1328,1329,1338,1397,1403,1372,1380,1419,1406,1399,1421,1404,1412,1455,1405,1415,1443,1436,1434,1421,1442,1440,1444,1470,1441,1424,1443,1482,1434,1415,853,855,857,859,950,1116,1322,1504,1596,1601,1606,1636,1543,1512,1480,1449,1417,1386,1354,1323,1291,1260,1228,1197,1165,1189,1150,1071,1039,1008,976,945,913,883,870,871,877,884,898,867,877,879,873,890,886,893,890,885,905,885,885,890,884,900,892,892,892,892,889,886,896,898,897,917,905,1032,1035,1057,1059,1183,1262,1429,1589,1646,1678,1692,1644,1641,1591,1739,1710,1530,1484,1621,1431,1405,1378,1351,1431,1317,1272,1358,1355,1192,1165,1129,1112,1085,1079,1050,1074,1050,1096,1084,1076,1067,1077,1176,1170,1119,1142,1124,1212,1156,1151,1172,1127,1123,1175,1165,1115,1184,1133,1130,1211,1164,1221,1192,1229,1168,1385,1370,1415,1500,1625,1887,2031,2185,2226,2247,2251,2194,2182,2157,2214,2141,2071,2006,2054,1910,1874,1835,1802,1838,1763,1695,1756,1666,1597,1551,1555,1482,1452,1411,1389,1396,1406,1416,1470,1443,1455,1453,1472,1480,1466,1473,1470,1484,1514,1507,1503,1511,1516,1532,1519,1525,1503,1532,1540,1540,1542,1528,1559,1571,1565,1160,1163,1143,1277,1377,1530,1759,1905,1972,2163,1997,1961,1959,1926,1853,1817,1784,1745,1712,1740,1636,1619,1567,1557,1520,1521,1451,1384,1373,1352,1302,1239,1204,1201,1155,1205,1160,1246,1236,1239,1239,1251,1252,1256,1245,1268,1238,1252,1244,1246,1246,1275,1261,1260,1254,1266,1259,1253,1262,1279,1250,1262,1239,1253,1244,1084,1118,1112,1132,1228,1398,1652,1781,1852,1987,1882,1880,1846,1853,1809,1714,1742,1646,1652,1577,1567,1508,1473,1497,1402,1393,1394,1349,1268,1295,1260,1188,1162,1104,1079,1080,1083,1114,1141,1123,1122,1126,1139,1175,1161,1168,1153,1164,1185,1173,1180,1175,1175,1196,1206,1161,1174,1188,1192,1208,1187,1192,1213,1262,1196,1214,1218,1268,1273,1433,1544,1739,1896,1943,1968,1977,1925,1920,1897,2004,2051,1823,1737,1902,1674,1643,1612,1581,1637,1540,1487,1522,1513,1393,1361,1340,1299,1269,1266,1234,1259,1236,1285,1267,1265,1272,1275,1277,1276,1287,1285,1287,1294,1291,1294,1298,1300,1300,1299,1312,1313,1311,1321,1319,1313,1326,1323,1322,1326,1321,1154,1202,1160,1249,1436,1574,1833,2006,2189,2084,2080,2101,2002,1962,1923,1884,1845,1805,1766,1727,1688,1725,1609,1570,1531,1546,1499,1413,1423,1400,1342,1256,1218,1186,1175,1238,1184,1192,1227,1259,1253,1262,1303,1271,1273,1317,1264,1294,1303,1297,1283,1269,1296,1314,1458,1401,1332,1295,1279,1281,1272,1287,1282,1322,1252,1416,1397,1424,1511,1635,1885,2112,2264,2307,2324,2327,2334,2272,2232,2248,2175,2104,2060,2084,1978,1941,1900,1854,1872,1793,1755,1759,1695,1625,1625,1564,1506,1478,1438,1416,1404,1415,1443,1510,1513,1471,1464,1511,1493,1505,1511,1509,1513,1566,1517,1526,1541,1537,1545,1518,1547,1558,1560,1591,1550,1539,1545,1601,1531,1536,1024,1027,1043,1050,1121,1251,1438,1554,1635,1666,1660,1652,1625,1580,1571,1508,1490,1475,1448,1438,1484,1351,1295,1299,1279,1263,1193,1195,1148,1157,1116,1104,1078,1042,1055,1040,1042,1031,1045,1040,1055,1078,1066,1066,1069,1083,1075,1113,1093,1085,1158,1195,1264,1137,1080,1069,1072,1085,1076,1059,1065,1082,1067,1089,1073,1721,1743,1731,1891,2160,2403,2714,2868,3009,2854,2837,2844,2767,2740,2681,2582,2531,2528,2506,2454,2372,2372,2273,2174,2123,2163,2066,1970,1919,1868,1843,1769,1767,1787,1690,1693,1702,1711,1917,1960,1926,1934,1942,1942,1955,1968,1952,1956,1992,1946,1960,1954,1975,1987,1987,2001,1988,1984,2017,1962,1978,1983,2006,1985,1962,0,0,0,0,0,0,0,0,0,0,0,0,0,0,0,0,0,0,0,0,0,0,0,0,0,0,0,0,0,0,0,0,0,0,0,0,0,0,0,0,0,0,0,0,0,0,0,0,0,0,0,0,0,0,0,0,0,0,0,0,0,0,0,0,0,1630,1604,1702,1789,2171,2584,2922,3057,3075,3223,3032,3037,2979,2910,2827,2727,2675,2640,2550,2529,2407,2443,2302,2275,2203,2148,2098,2020,1970,1850,1830,1770,1695,1659,1673,1676,1692,1664,1824,1809,1835,1863,1869,1868,1878,1901,1868,1884,1911,1900,1970,1975,1960,1939,1943,1938,1910,1943,1950,1941,1941,1958,1952,1955,1966,1150,1152,1151,1178,1291,1408,1593,1783,1833,1861,1871,1821,1791,1762,1906,1839,1709,1658,1758,1585,1555,1526,1496,1467,1437,1408,1393,1349,1319,1290,1260,1231,1202,1209,1163,1186,1189,1167,1197,1227,1218,1219,1242,1223,1233,1259,1230,1223,1249,1212,1235,1231,1245,1243,1291,1302,1267,1233,1236,1225,1219,1214,1234,1284,1208,1416,1409,1442,1581,1691,1851,2067,2168,2210,2231,2235,2232,2193,2142,2271,2235,2056,2003,2099,1895,1860,1850,1790,1875,1744,1719,1744,1699,1595,1545,1549,1472,1441,1469,1424,1425,1466,1449,1488,1518,1528,1517,1544,1525,1536,1571,1526,1535,1556,1507,1541,1522,1542,1550,1713,1663,1581,1531,1532,1532,1521,1522,1535,1594,1510,1410,1408,1462,1530,1683,1946,2137,2299,2331,2347,2349,2291,2276,2285,2268,2195,2125,2106,2102,2023,1984,1918,1871,1889,1807,1769,1796,1689,1638,1637,1594,1554,1490,1432,1427,1437,1427,1454,1499,1550,1513,1528,1554,1544,1531,1556,1541,1547,1555,1526,1537,1556,1557,1560,1571,1571,1565,1558,1586,1573,1574,1597,1605,1597,1586,574,575,577,578,621,627,698,768,838,884,892,956,900,887,874,828,815,802,789,776,763,751,738,725,712,699,687,674,661,680,635,622,610,628,617,581,582,584,572,599,592,595,579,584,584,593,591,616,607,605,615,591,595,590,619,603,598,608,677,628,614,592,613,598,600,877,879,881,885,980,1151,1362,1544,1635,1640,1644,1673,1580,1548,1516,1484,1451,1419,1387,1355,1323,1291,1259,1227,1195,1218,1179,1098,1066,1034,1002,970,938,907,895,896,902,909,902,898,904,921,907,914,904,908,914,908,905,906,905,912,907,904,908,915,912,912,908,917,914,924,921,927,917,1154,1157,1166,1217,1407,1700,2081,2195,2301,2328,2293,2255,2199,2161,2134,2076,2012,2007,1929,1879,1824,1780,1732,1690,1632,1596,1547,1488,1448,1384,1335,1289,1236,1207,1177,1187,1200,1206,1248,1265,1257,1287,1288,1284,1294,1299,1267,1295,1274,1260,1284,1284,1285,1282,1319,1298,1285,1274,1284,1271,1268,1289,1292,1297,1284,1328,1340,1310,1365,1572,1809,2089,2239,2361,2305,2300,2317,2231,2229,2151,2083,2043,2021,1957,1966,1872,1925,1786,1743,1698,1744,1661,1572,1541,1486,1441,1400,1360,1341,1318,1332,1342,1337,1388,1390,1394,1402,1412,1457,1404,1436,1434,1442,1453,1442,1430,1437,1427,1452,1417,1422,1433,1430,1414,1452,1434,1461,1432,1444,1445,1746,1747,1816,1955,2318,2456,2689,2849,2884,3082,2884,2827,2818,2733,2675,2598,2552,2526,2503,2488,2395,2340,2276,2187,2152,2152,2083,1999,1981,1985,1920,1807,1808,1752,1728,1767,1736,1800,2094,2016,2011,2033,2025,2057,2109,2098,2078,2160,2073,2072,2163,2117,2129,2211,2125,2131,2114,2142,2205,2257,2289,2307,2286,2114,2095,1610,1623,1733,1870,2241,2532,2839,3050,3175,2972,2953,2957,2878,2850,2789,2688,2636,2630,2616,2552,2454,2467,2369,2265,2217,2127,2074,2015,1958,1935,1793,1823,1728,1756,1659,1654,1672,1710,1919,1896,1938,1938,1924,1935,1999,2016,1947,1972,1987,1933,1935,2001,2009,2049,1993,1986,1989,2019,2015,2009,1971,1969,1920,1948,1968,1115,1163,1121,1202,1379,1508,1762,1938,2055,2018,2016,2038,1940,1902,1864,1826,1829,1750,1711,1673,1635,1674,1559,1521,1483,1499,1454,1369,1380,1358,1302,1217,1179,1188,1136,1198,1145,1152,1219,1210,1212,1222,1221,1230,1290,1298,1231,1253,1253,1229,1228,1275,1281,1302,1283,1285,1284,1297,1298,1272,1254,1259,1228,1233,1225,1194,1140,1181,1211,1318,1514,1800,1891,1994,2068,2000,1982,1925,1958,1906,1828,1782,1743,1760,1672,1654,1600,1569,1605,1499,1472,1493,1412,1350,1355,1315,1271,1230,1179,1157,1155,1174,1183,1205,1246,1208,1208,1233,1212,1229,1234,1231,1231,1248,1230,1246,1236,1241,1248,1249,1252,1254,1256,1280,1237,1260,1266,1287,1259,1253,856,858,860,862,954,1121,1327,1509,1601,1606,1611,1641,1548,1516,1485,1453,1422,1390,1358,1327,1295,1264,1232,1200,1169,1193,1154,1074,1043,1011,979,948,916,886,873,874,911,887,884,892,901,925,909,908,901,925,897,930,915,925,960,957,976,977,920,913,930,928,924,920,932,945,914,920,912,1285,1296,1263,1312,1537,1738,2000,2171,2451,2239,2235,2253,2149,2167,2117,2023,1984,1963,1900,1879,1816,1871,1733,1691,1647,1701,1612,1523,1482,1440,1396,1356,1316,1301,1274,1276,1300,1292,1333,1330,1337,1344,1351,1342,1371,1364,1357,1379,1406,1371,1433,1435,1434,1421,1367,1372,1368,1369,1372,1373,1373,1373,1361,1420,1369,1110,1140,1112,1144,1270,1467,1637,1769,1845,1872,1862,1832,1802,1772,1892,1821,1683,1688,1678,1645,1564,1534,1544,1496,1460,1415,1435,1351,1314,1296,1283,1263,1169,1138,1122,1127,1199,1174,1211,1182,1179,1218,1175,1218,1275,1306,1283,1207,1195,1180,1193,1207,1223,1226,1287,1226,1222,1234,1228,1235,1235,1206,1184,1196,1177,1633,1644,1660,1779,2024,2261,2494,2665,2694,2900,2695,2648,2643,2703,2514,2469,2424,2374,2343,2345,2237,2177,2142,2077,2036,2047,1981,1855,1864,1852,1786,1715,1691,1659,1626,1780,1642,1730,1841,1826,1827,1843,1854,1874,1872,1880,1862,1876,1907,1889,1970,1962,1977,1932,1922,1877,1891,1903,1894,1908,1897,1885,1909,1960,1903,993,1039,1037,1061,1122,1273,1500,1543,1638,1719,1645,1684,1527,1593,1720,1628,1493,1468,1513,1358,1334,1367,1344,1317,1281,1213,1228,1186,1255,1135,1140,1105,1190,1048,1055,1104,1010,1012,1067,1068,1073,1113,1091,1104,1097,1070,1089,1092,1113,1087,1105,1083,1092,1083,1100,1103,1095,1078,1084,1097,1093,1087,1081,1114,1077,1140,1143,1146,1175,1315,1538,1795,1933,2026,2048,2046,2067,1969,1931,1884,1854,1816,1778,1719,1681,1635,1689,1586,1541,1510,1508,1463,1464,1340,1373,1280,1242,1188,1173,1161,1162,1154,1161,1207,1202,1221,1222,1234,1269,1229,1243,1241,1245,1268,1244,1244,1257,1253,1259,1239,1235,1244,1251,1239,1248,1249,1264,1241,1253,1258,1289,1288,1312,1367,1534,1839,2072,2241,2323,2310,2283,2300,2216,2180,2113,2070,2028,2008,1962,1932,1856,1914,1771,1832,1687,1698,1648,1573,1522,1491,1443,1389,1349,1334,1307,1328,1329,1338,1397,1403,1372,1380,1419,1406,1399,1421,1404,1412,1455,1405,1415,1443,1436,1434,1421,1442,1440,1444,1470,1441,1424,1443,1482,1434,1415,853,819,848,830,893,1028,1151,1289,1301,1345,1343,1322,1404,1279,1341,1326,1261,1207,1167,1150,1128,1165,1142,1118,1075,1021,995,986,953,1004,914,892,886,921,834,866,832,871,848,843,843,846,841,873,871,873,862,866,883,867,862,859,862,884,892,869,877,874,869,885,875,871,877,917,878,1462,1392,1384,1454,1616,1782,1993,2200,2208,2171,2164,2119,2099,2131,2074,1993,1988,1912,1853,1839,1808,1825,1747,1765,1700,1636,1599,1564,1535,1500,1459,1428,1413,1447,1357,1394,1359,1366,1476,1460,1471,1474,1473,1465,1491,1486,1451,1457,1472,1465,1460,1476,1471,1466,1460,1474,1468,1468,1481,1483,1455,1470,1465,1468,1459,1181,1203,1250,1214,1319,1448,1733,1863,1835,1905,1903,1901,1852,1834,1857,1816,1741,1705,1710,1649,1655,1590,1559,1524,1487,1455,1464,1388,1394,1381,1305,1289,1232,1264,1216,1216,1222,1235,1269,1261,1276,1333,1303,1307,1294,1272,1281,1303,1295,1289,1283,1323,1380,1401,1315,1292,1292,1291,1288,1283,1279,1300,1281,1307,1272,869,902,896,925,929,1032,1226,1338,1385,1421,1418,1395,1440,1350,1418,1356,1360,1274,1237,1214,1192,1203,1193,1124,1163,1098,1094,1033,1011,1039,965,968,951,951,916,882,884,895,908,902,921,938,930,942,925,942,945,940,963,931,937,974,992,984,963,943,935,951,936,930,924,953,932,957,924,860,873,889,883,950,1016,1222,1330,1368,1470,1404,1397,1459,1337,1373,1289,1267,1263,1222,1230,1225,1222,1148,1126,1137,1068,1075,1048,999,1007,987,956,910,928,875,873,874,888,896,893,897,894,913,917,934,944,912,920,916,915,917,912,911,940,929,915,913,915,902,924,913,920,909,928,919,950,958,982,969,1088,1145,1363,1483,1521,1620,1551,1527,1602,1477,1559,1421,1403,1378,1353,1362,1357,1307,1254,1230,1279,1198,1246,1131,1106,1120,1089,1069,1007,1075,972,984,968,974,1055,993,996,1006,989,997,1009,1004,1020,1067,1013,1026,1104,1027,1030,1103,1039,1022,1017,1022,1090,1158,1174,1205,1203,1063,1065,1040,1048,1075,1036,1109,1239,1501,1621,1656,1689,1685,1654,1691,1618,1634,1600,1540,1506,1465,1440,1425,1421,1381,1328,1343,1272,1271,1223,1194,1197,1153,1119,1099,1118,1075,1052,1063,1048,1137,1099,1090,1175,1156,1149,1137,1115,1129,1164,1174,1145,1161,1152,1131,1133,1119,1151,1161,1152,1185,1192,1130,1120,1179,1108,1105,1186,1155,1182,1218,1313,1469,1666,1776,1897,1870,1863,1823,1809,1769,1872,1720,1720,1649,1594,1587,1561,1584,1510,1467,1475,1415,1384,1354,1331,1301,1265,1239,1225,1259,1168,1204,1169,1175,1244,1252,1222,1237,1234,1280,1243,1264,1274,1336,1253,1297,1283,1294,1265,1334,1295,1251,1249,1243,1275,1304,1295,1323,1300,1304,1272,772,851,799,857,812,898,1071,1172,1222,1261,1261,1241,1276,1201,1273,1212,1191,1135,1101,1081,1061,1075,1066,1001,1074,1071,979,921,901,959,861,918,904,854,788,784,786,841,823,817,823,832,828,827,838,835,829,838,841,833,837,860,867,863,876,856,835,847,855,836,835,853,837,841,829,1524,1537,1633,1709,1793,1983,2235,2360,2362,2381,2451,2346,2374,2326,2359,2253,2184,2120,2064,2097,2024,2017,2022,1876,1908,1851,1816,1788,1819,1712,1625,1640,1586,1604,1538,1558,1569,1529,1687,1686,1675,1770,1696,1716,1700,1743,1741,1790,1720,1770,1755,1764,1731,1782,1774,1709,1708,1709,1758,1799,1759,1794,1773,1777,1753,375,376,378,379,380,402,453,505,556,603,615,605,596,586,577,567,558,548,538,529,519,510,500,491,481,519,462,453,443,434,424,414,405,395,386,381,382,383,376,374,379,385,388,389,393,378,381,388,385,376,380,381,380,376,394,393,379,380,376,377,381,384,386,383,376,1463,1465,1499,1666,2024,2430,2823,3035,3026,3011,2984,2887,2822,2758,2789,2634,2607,2529,2515,2371,2324,2242,2221,2135,2048,1983,1919,1870,1790,1764,1675,1601,1544,1506,1518,1506,1524,1584,1618,1605,1628,1643,1657,1663,1671,1686,1658,1673,1693,1680,1704,1708,1680,1700,1729,1727,1698,1723,1736,1733,1731,1741,1735,1738,1753,0,0,0,0,0,0,0,0,0,0,0,0,0,0,0,0,0,0,0,0,0,0,0,0,0,0,0,0,0,0,0,0,0,0,0,0,0,0,0,0,0,0,0,0,0,0,0,0,0,0,0,0,0,0,0,0,0,0,0,0,0,0,0,0,0,1123,1167,1199,1188,1254,1401,1644,1754,1843,1822,1812,1831,1837,1740,1878,1718,1687,1669,1581,1552,1536,1527,1584,1436,1486,1523,1368,1321,1292,1291,1244,1210,1186,1208,1152,1172,1185,1134,1242,1231,1226,1313,1283,1281,1267,1250,1271,1306,1279,1313,1311,1312,1250,1260,1282,1290,1289,1268,1313,1363,1303,1289,1319,1276,1279,835,838,862,857,878,974,1172,1259,1320,1384,1364,1393,1342,1299,1368,1311,1260,1211,1172,1168,1146,1145,1111,1068,1085,1022,1023,1011,960,969,929,902,885,904,851,834,850,830,853,851,863,885,886,886,878,863,871,889,882,876,891,911,932,912,902,879,868,882,875,873,866,886,875,892,862,740,777,766,823,776,858,1027,1124,1175,1215,1215,1196,1231,1157,1229,1169,1149,1094,1060,1040,1021,1035,1027,963,1036,1034,943,885,865,924,826,884,824,821,754,751,753,807,799,771,781,793,785,792,797,807,793,792,805,794,821,816,820,807,786,785,797,794,798,779,790,799,785,798,793,1696,1707,1871,1953,2368,2803,3195,3263,3371,3231,3238,3163,3146,3077,2997,2955,2890,2799,2807,2672,2608,2520,2468,2381,2312,2242,2235,2119,2034,1979,1919,1834,1778,1741,1732,1745,1764,1826,2046,2039,2052,2055,2055,2041,2069,2083,2056,2063,2067,2071,2157,2152,2100,2077,2106,2125,2121,2187,2186,2092,2126,2211,2207,2171,2117,1485,1417,1412,1485,1652,1823,2033,2238,2246,2209,2200,2155,2135,2166,2108,2027,2021,1945,1885,1871,1839,1856,1776,1794,1729,1664,1626,1591,1561,1526,1484,1452,1437,1472,1382,1418,1384,1391,1480,1472,1479,1505,1475,1483,1483,1493,1506,1568,1501,1509,1580,1580,1598,1552,1535,1510,1497,1514,1504,1502,1496,1514,1507,1524,1504,580,613,628,611,665,720,831,897,952,1027,1001,977,1004,953,962,921,896,926,871,863,839,831,819,790,744,797,766,698,712,728,674,664,646,633,614,616,590,616,608,613,617,637,624,616,622,640,617,626,631,644,671,671,678,664,621,621,631,639,631,623,632,639,630,631,628,738,738,742,745,762,854,964,1081,1171,1201,1208,1192,1173,1153,1122,1115,1092,1065,1057,1037,1015,999,979,947,941,911,889,880,863,844,824,805,783,766,750,743,745,747,744,737,748,745,755,789,751,762,762,769,787,769,770,771,766,772,759,762,755,763,753,764,768,774,768,777,777,266,267,268,269,270,283,320,358,396,433,447,440,432,425,418,411,404,397,389,382,375,368,361,354,346,339,332,325,318,311,304,296,289,282,275,270,271,272,258,259,259,264,280,282,270,291,279,284,288,284,277,268,269,280,270,266,280,277,265,273,272,282,274,277,269,287,288,289,289,290,303,342,380,418,457,471,463,456,449,441,434,427,420,412,405,398,390,383,376,369,361,354,347,339,332,325,318,310,303,296,291,292,293,279,278,278,282,299,295,288,303,293,302,299,300,293,282,286,294,288,284,295,291,282,291,289,299,292,294,288,1147,1116,1142,1171,1258,1405,1595,1756,1877,1804,1798,1759,1747,1708,1813,1661,1662,1592,1539,1533,1508,1533,1460,1455,1427,1368,1338,1309,1287,1259,1224,1200,1187,1220,1129,1164,1129,1135,1195,1174,1165,1182,1189,1216,1242,1238,1208,1234,1204,1191,1190,1234,1242,1234,1237,1259,1242,1264,1233,1218,1228,1219,1199,1202,1182,940,943,971,961,1085,1136,1340,1534,1498,1603,1529,1505,1646,1461,1543,1407,1383,1418,1396,1343,1353,1293,1237,1216,1262,1202,1168,1115,1090,1105,1077,1075,993,1050,958,973,957,963,970,985,991,1012,1008,997,992,1009,996,992,993,993,990,1014,1011,1024,1066,1058,1012,1020,1020,1012,999,1023,1043,1039,1030,1286,1306,1291,1348,1517,1646,1857,2041,2078,2043,2037,1994,1977,2011,1976,1877,1873,1799,1741,1730,1701,1720,1643,1664,1601,1538,1503,1470,1460,1410,1370,1342,1327,1361,1271,1307,1273,1280,1346,1349,1395,1670,1398,1341,1386,1487,1426,1357,1461,1428,1379,1381,1461,1444,1435,1348,1374,1371,1414,1415,1357,1406,1367,1376,1387,795,795,800,803,830,931,1052,1179,1266,1295,1300,1283,1262,1242,1208,1200,1176,1147,1137,1116,1092,1075,1054,1020,1012,981,958,947,928,908,887,866,842,824,808,801,803,805,809,802,806,813,867,850,833,860,835,886,850,843,845,816,822,839,836,822,859,828,818,845,833,869,846,848,838,1166,1248,1235,1198,1337,1440,1706,1791,1885,1880,1920,1840,1968,1833,1827,1828,1693,1677,1629,1667,1574,1560,1529,1494,1487,1426,1479,1397,1336,1331,1278,1262,1206,1237,1207,1192,1196,1186,1245,1249,1249,1264,1264,1264,1253,1277,1249,1261,1258,1260,1277,1307,1295,1279,1265,1276,1268,1266,1274,1281,1256,1272,1250,1265,1256,408,409,411,412,413,443,488,559,636,665,693,664,638,643,617,622,611,617,616,579,555,558,574,536,571,543,532,522,483,461,461,499,440,419,419,414,415,416,400,406,411,430,408,417,407,419,407,411,411,409,404,410,414,418,412,415,411,411,417,414,409,418,403,412,407,1433,1506,1527,1509,1681,1793,2052,2131,2221,2212,2248,2227,2229,2182,2171,2127,2029,2028,1957,1949,1893,1874,1869,1810,1785,1731,1747,1714,1603,1612,1554,1534,1474,1507,1480,1462,1469,1459,1577,1568,1563,1591,1582,1578,1657,1663,1579,1629,1611,1598,1589,1635,1635,1659,1649,1656,1642,1652,1652,1627,1606,1610,1585,1583,1565,1492,1495,1611,1648,1883,2113,2316,2467,2508,2492,2463,2406,2405,2391,2338,2269,2252,2178,2115,2096,2074,2072,1989,1989,1933,1864,1817,1783,1766,1709,1663,1628,1542,1513,1559,1527,1539,1550,1628,1647,1662,1677,1667,1670,1663,1694,1659,1660,1704,1646,1664,1666,1678,1700,1854,1795,1701,1672,1672,1667,1657,1650,1663,1736,1650,853,819,848,830,893,1028,1151,1289,1301,1345,1343,1322,1404,1279,1341,1326,1261,1207,1167,1150,1128,1165,1142,1118,1075,1021,995,986,953,1004,914,892,886,921,834,866,832,871,848,843,843,846,841,873,871,873,862,866,883,867,862,859,862,884,892,869,877,874,869,885,875,871,877,917,878,563,558,584,561,570,624,703,790,866,1057,958,905,890,895,861,859,831,816,802,787,772,758,743,728,714,699,684,665,655,640,643,611,593,599,568,565,566,564,563,570,563,576,575,584,570,587,572,578,569,569,569,580,579,577,577,578,576,571,586,586,573,579,571,578,571,828,884,833,837,932,989,1165,1258,1342,1378,1374,1441,1329,1347,1284,1261,1239,1216,1194,1171,1149,1126,1104,1081,1059,1036,1058,991,969,946,923,901,878,857,889,841,844,854,881,848,844,900,853,861,843,858,860,881,875,863,869,860,864,864,894,860,858,867,867,868,868,859,869,886,856,408,403,404,405,406,431,501,534,589,630,640,630,621,617,602,592,594,586,564,554,545,535,526,516,507,497,503,509,469,459,450,440,431,421,412,407,408,409,408,401,415,402,407,416,404,408,414,412,420,414,416,418,418,424,417,415,404,422,409,417,416,409,407,416,437,391,392,393,394,396,425,481,537,593,640,649,638,628,618,607,597,587,576,566,556,545,535,525,515,504,494,483,473,463,453,442,432,422,411,401,397,398,398,384,389,394,401,399,406,388,395,389,418,394,393,397,396,415,432,410,402,409,394,402,406,410,416,392,400,392,590,631,655,611,606,669,775,865,950,1013,1024,956,958,944,934,918,902,886,870,854,838,818,791,791,852,787,743,727,712,696,662,664,666,678,642,615,616,618,605,607,618,633,621,624,616,628,616,640,622,618,634,637,656,666,644,633,634,639,636,630,640,657,632,641,628,366,365,369,370,371,396,448,500,552,598,608,598,608,596,565,560,550,540,531,521,511,502,492,482,473,463,454,440,434,425,415,405,396,383,375,372,373,374,365,369,366,371,368,372,369,371,369,369,370,364,368,366,370,373,369,370,369,369,371,370,368,377,365,371,366,274,275,276,277,277,292,331,370,409,447,459,452,444,437,430,422,415,408,400,393,386,378,371,363,356,349,340,334,327,319,312,305,297,290,283,278,279,280,266,270,269,276,272,280,273,282,280,272,285,272,272,272,272,279,273,272,273,274,271,271,270,274,270,278,270,675,677,680,682,702,775,879,982,1071,1111,1113,1095,1077,1059,1041,1024,1006,988,970,952,934,917,899,881,863,845,828,810,792,774,756,739,721,703,689,686,688,689,692,692,690,691,691,692,694,693,695,690,695,690,695,692,694,697,699,698,692,694,695,701,695,710,697,702,700,443,444,446,447,449,485,549,612,674,722,730,718,707,695,684,672,661,652,640,626,615,603,592,580,569,557,548,534,523,511,500,488,477,467,454,450,451,452,450,438,448,447,445,470,445,464,464,448,469,453,454,455,455,470,458,454,452,463,454,457,458,460,455,468,465,430,431,433,433,436,467,510,589,623,669,678,688,657,647,636,626,615,605,615,606,574,563,553,564,532,522,511,501,490,495,489,472,462,461,457,436,437,438,438,447,435,446,446,447,441,450,440,439,444,441,439,442,444,444,445,446,444,444,448,450,440,455,441,449,442,1109,1115,1139,1132,1262,1463,1571,1671,1743,1852,1819,1778,1727,1762,1715,1694,1611,1572,1574,1515,1549,1459,1431,1390,1376,1401,1320,1306,1264,1236,1256,1215,1162,1176,1117,1155,1126,1120,1179,1181,1135,1131,1176,1160,1165,1173,1168,1188,1226,1175,1184,1197,1199,1202,1177,1207,1210,1216,1249,1212,1195,1202,1254,1188,1191,1091,1093,1113,1104,1176,1302,1559,1670,1751,1743,1795,1794,1738,1709,1681,1603,1645,1594,1544,1543,1520,1436,1443,1422,1398,1393,1317,1307,1279,1260,1223,1193,1227,1113,1117,1123,1097,1094,1152,1153,1164,1175,1166,1190,1172,1191,1161,1189,1199,1182,1158,1175,1192,1200,1185,1196,1193,1185,1199,1190,1173,1164,1215,1181,1151,1244,1207,1248,1315,1396,1621,1779,1903,1921,2011,1998,1932,1876,1904,1858,1835,1839,1721,1690,1697,1704,1597,1606,1577,1504,1555,1442,1411,1380,1384,1391,1312,1289,1269,1223,1251,1254,1228,1306,1303,1307,1372,1363,1344,1342,1340,1335,1364,1384,1355,1373,1373,1387,1374,1365,1348,1327,1338,1325,1326,1319,1341,1340,1351,1297,0,0,0,0,0,0,0,0,0,0,0,0,0,0,0,0,0,0,0,0,0,0,0,0,0,0,0,0,0,0,0,0,0,0,0,0,0,0,0,0,0,0,0,0,0,0,0,0,0,0,0,0,0,0,0,0,0,0,0,0,0,0,0,0,0,380,382,383,384,385,413,463,522,571,622,626,621,611,597,591,581,571,561,551,541,531,521,511,501,491,481,471,461,451,441,431,421,408,401,391,386,387,388,379,381,394,435,394,378,391,408,396,380,426,414,384,395,424,422,427,384,389,396,420,394,378,392,393,381,381,454,455,457,458,461,500,567,634,700,748,755,743,731,719,706,694,682,673,693,646,634,622,610,598,586,574,563,549,537,525,513,501,489,479,465,461,462,463,454,447,446,449,480,471,462,473,464,488,469,458,475,452,458,469,467,458,473,455,452,470,469,483,475,484,471,1254,1257,1265,1313,1406,1546,1725,1854,1980,1976,2024,1995,1917,1896,1858,1900,1805,1782,1731,1727,1684,1649,1620,1602,1551,1521,1502,1472,1442,1413,1384,1350,1365,1303,1282,1298,1274,1277,1327,1322,1336,1360,1342,1352,1343,1369,1355,1359,1355,1342,1358,1382,1403,1389,1376,1372,1340,1365,1350,1340,1338,1375,1374,1382,1346,852,946,857,863,962,1022,1180,1299,1382,1416,1412,1433,1359,1339,1319,1296,1273,1256,1227,1204,1194,1157,1141,1111,1088,1065,1086,1037,996,973,949,926,903,881,897,893,868,879,885,888,890,896,904,908,902,898,899,901,914,919,993,991,1006,940,898,919,920,927,912,904,922,891,906,908,894,1522,1518,1567,1605,1725,1967,2202,2343,2354,2374,2363,2331,2252,2221,2185,2232,2114,2115,2100,2021,1962,1985,1903,1891,1888,1844,1767,1721,1685,1674,1604,1546,1513,1496,1480,1521,1527,1512,1644,1617,1609,1627,1620,1659,1688,1686,1663,1746,1655,1652,1657,1708,1705,1715,1724,1718,1695,1718,1700,1690,1681,1670,1655,1660,1633,705,762,723,700,722,800,902,1011,1094,1284,1180,1123,1105,1106,1068,1129,1031,1013,995,976,958,940,921,904,886,867,849,831,813,795,805,758,737,739,708,705,706,708,705,701,695,706,712,739,706,714,726,721,710,714,705,715,713,701,717,720,717,717,710,715,726,746,740,749,736,1146,1086,1141,1180,1233,1373,1577,1709,1730,1824,1841,1750,1697,1760,1682,1666,1673,1594,1529,1539,1549,1444,1488,1453,1360,1411,1335,1276,1248,1271,1262,1185,1168,1147,1101,1126,1149,1104,1162,1169,1170,1181,1187,1176,1191,1192,1184,1189,1188,1179,1191,1187,1193,1206,1207,1210,1210,1199,1197,1184,1195,1203,1205,1208,1200,1187,1193,1219,1222,1368,1601,1703,1800,1869,1976,1941,1898,1845,1877,1828,1806,1721,1679,1680,1619,1650,1559,1529,1486,1564,1492,1410,1394,1350,1320,1338,1294,1241,1306,1196,1234,1205,1200,1284,1261,1306,1562,1313,1249,1304,1395,1330,1282,1369,1337,1294,1292,1372,1349,1345,1264,1281,1284,1326,1333,1264,1317,1282,1288,1296,604,606,608,610,623,682,772,861,946,991,992,979,961,945,929,914,898,882,868,851,835,819,804,788,772,756,742,726,709,695,678,662,646,631,618,613,615,624,605,614,614,626,623,617,617,623,615,629,624,629,632,633,649,660,633,626,631,621,629,624,631,633,622,632,623,462,432,436,438,440,501,537,600,662,710,718,753,685,675,668,661,649,638,629,608,604,585,610,570,558,583,535,521,513,495,522,478,467,453,441,440,438,443,441,438,445,449,445,444,444,454,447,452,444,448,452,468,469,462,454,455,446,454,448,452,447,456,445,454,446,743,799,747,750,849,876,1059,1120,1207,1244,1243,1313,1202,1246,1161,1140,1119,1099,1078,1058,1037,1017,996,976,955,935,977,894,873,853,832,812,791,771,819,755,757,768,771,761,774,781,776,770,767,772,776,797,789,778,776,767,782,776,781,783,783,807,781,786,785,778,778,777,772,787,820,780,794,789,876,988,1108,1191,1421,1272,1214,1194,1275,1204,1214,1114,1096,1087,1055,1035,1048,996,999,957,937,918,898,889,859,867,819,796,831,766,782,764,767,770,767,774,769,775,774,797,793,785,804,821,784,786,799,805,823,789,797,785,787,795,800,787,797,785,840,791,615,618,623,633,636,700,794,886,937,980,1021,1006,985,968,970,934,923,907,887,943,855,845,822,818,830,778,762,747,762,708,691,675,658,643,629,625,626,644,611,623,623,645,634,626,636,633,623,626,626,630,628,624,625,633,633,630,633,629,626,636,632,653,648,654,642,988,998,990,1041,1062,1233,1392,1528,1513,1650,1644,1545,1495,1564,1487,1511,1487,1372,1347,1361,1376,1274,1323,1318,1200,1245,1151,1176,1101,1142,1116,1050,1000,1042,968,1011,997,970,997,1005,1009,1045,1024,1022,1012,1021,1014,1012,1020,1020,1066,1081,1073,1036,1029,1039,1044,1042,1042,1030,1036,1074,1050,1061,1057,760,791,762,747,798,885,990,1094,1180,1226,1203,1212,1169,1151,1159,1171,1097,1078,1048,1033,1024,990,976,1017,977,929,932,885,867,874,852,840,793,804,759,756,785,760,761,772,776,795,797,797,789,821,787,816,800,810,823,792,822,868,805,794,812,806,800,802,812,818,794,801,792,1027,1084,1033,1050,1199,1267,1507,1587,1664,1694,1685,1769,1646,1689,1575,1548,1520,1486,1465,1438,1410,1383,1355,1328,1301,1273,1307,1218,1191,1163,1136,1109,1108,1057,1107,1071,1046,1051,1059,1088,1087,1089,1107,1083,1093,1121,1085,1097,1115,1101,1099,1093,1119,1130,1276,1223,1138,1106,1100,1092,1088,1087,1095,1137,1070,563,558,584,561,570,624,703,790,866,1057,958,905,890,895,861,859,831,816,802,787,772,758,743,728,714,699,684,665,655,640,643,611,593,599,568,565,566,564,563,570,563,576,575,584,570,587,572,578,569,569,569,580,579,577,577,578,576,571,586,586,573,579,571,578,571,244,241,267,246,243,258,287,327,361,395,408,401,395,388,382,369,369,362,356,344,337,336,330,323,317,310,304,297,291,284,278,271,261,258,252,244,248,249,235,240,234,245,239,246,235,242,236,234,239,235,233,239,239,240,239,245,240,242,246,246,239,253,235,242,238,644,646,648,650,669,743,846,950,1040,1081,1082,1064,1046,1028,1011,993,975,957,939,921,904,886,868,850,832,814,793,779,761,743,725,707,689,672,658,654,657,659,662,668,661,668,676,666,668,675,660,668,666,666,663,671,670,671,669,669,670,666,674,682,669,677,663,669,669,389,390,393,394,393,420,469,520,590,605,645,582,574,588,557,549,561,568,551,527,543,533,526,506,506,465,457,463,458,452,433,423,414,419,403,390,391,392,387,389,385,386,408,406,426,422,399,412,409,407,409,393,396,411,404,397,409,397,393,402,397,415,406,412,394,68,68,68,68,69,69,78,87,96,105,112,110,109,107,105,103,102,100,98,96,95,93,91,90,88,86,84,83,81,79,77,76,74,72,70,69,69,69,46,44,46,46,44,47,46,48,48,46,49,46,47,46,46,48,47,47,46,47,46,46,47,47,47,49,47,405,406,407,409,410,440,498,556,614,674,671,661,650,639,639,642,607,596,586,585,565,554,543,533,522,511,509,490,479,469,458,448,437,426,416,418,419,413,406,404,403,415,406,407,404,410,403,408,407,406,410,408,410,410,408,411,412,410,412,409,409,412,411,412,412,386,397,398,390,391,428,475,521,585,663,641,630,603,553,604,618,580,569,563,553,575,550,522,508,498,511,464,467,458,447,444,427,423,426,397,402,393,413,393,389,394,399,394,393,395,396,395,394,395,394,399,404,408,402,399,396,395,401,399,397,394,404,396,400,399,213,214,213,216,216,225,255,285,315,345,359,353,347,342,336,330,324,319,311,305,301,296,288,284,278,273,267,261,255,250,244,238,232,227,221,217,217,218,207,207,207,216,213,207,209,211,210,209,220,224,308,297,311,233,207,208,216,212,211,205,211,208,207,208,210,459,461,462,464,466,506,574,641,709,757,764,751,739,727,715,702,690,678,666,654,641,629,617,605,592,580,568,556,544,531,519,507,495,482,471,466,468,469,469,468,465,468,470,467,469,469,468,467,465,468,470,471,473,473,472,471,471,469,473,484,472,480,470,471,475,120,120,121,121,121,124,139,154,169,184,195,192,189,186,183,180,177,174,172,169,166,163,160,157,154,151,148,145,142,139,136,133,130,127,124,122,122,122,109,108,109,110,109,111,110,111,111,110,112,109,110,110,109,110,111,110,110,110,110,110,109,111,111,112,111,679,699,683,703,703,757,876,974,1060,1100,1128,1065,1070,1067,1036,1029,980,1011,946,948,934,941,924,916,860,827,825,815,778,781,758,759,723,724,692,689,689,691,679,678,690,715,682,702,684,693,685,684,701,687,678,691,687,702,692,698,690,693,698,694,694,702,683,709,693,819,812,826,818,824,957,1023,1164,1319,1326,1313,1294,1291,1248,1195,1175,1200,1179,1115,1141,1123,1097,1046,1048,994,977,954,976,941,894,883,853,845,850,800,796,811,839,801,805,808,825,810,833,810,828,843,816,828,814,816,820,814,818,818,821,820,823,814,818,823,836,830,841,827,1402,1391,1435,1468,1596,1825,2040,2225,2250,2260,2194,2182,2159,2089,2106,2120,2107,2011,1922,1914,1843,1831,1899,1821,1703,1718,1672,1636,1635,1563,1511,1496,1451,1450,1434,1415,1442,1435,1531,1532,1520,1545,1578,1573,1555,1554,1567,1611,1566,1605,1614,1593,1545,1574,1568,1582,1586,1557,1609,1669,1634,1639,1646,1587,1583,911,905,920,963,974,1092,1211,1370,1419,1493,1473,1450,1440,1389,1358,1366,1342,1318,1294,1271,1288,1227,1234,1167,1165,1120,1094,1097,1088,1039,1010,994,965,943,906,908,905,932,948,904,913,912,920,935,915,929,919,930,946,947,936,945,951,962,955,962,935,954,953,958,968,960,963,984,978,300,301,302,302,335,320,362,404,446,487,498,490,482,474,466,458,450,443,435,427,419,411,403,395,387,380,372,364,356,348,340,332,324,317,309,304,337,306,308,300,301,302,308,307,309,302,309,308,307,304,315,309,311,303,302,311,305,314,301,302,309,307,304,302,297,0,0,0,0,0,0,0,0,0,0,0,0,0,0,0,0,0,0,0,0,0,0,0,0,0,0,0,0,0,0,0,0,0,0,0,0,0,0,0,0,0,0,0,0,0,0,0,0,0,0,0,0,0,0,0,0,0,0,0,0,0,0,0,0,0,131,131,132,132,133,136,154,172,191,209,221,217,214,210,207,203,200,196,193,189,186,182,178,175,201,168,164,161,157,154,150,172,168,139,136,133,133,134,129,131,127,127,131,132,132,135,129,134,133,144,146,144,134,152,136,125,127,132,144,150,152,163,154,148,142,1277,1255,1290,1348,1533,1793,2037,2157,2285,2277,2273,2174,2169,2131,2051,2045,2003,1951,1937,1878,1854,1812,1757,1711,1670,1628,1583,1545,1503,1461,1420,1378,1353,1309,1304,1319,1283,1330,1341,1380,1382,1373,1458,1405,1403,1456,1394,1456,1441,1436,1426,1387,1418,1443,1587,1526,1484,1419,1397,1418,1403,1435,1424,1464,1379,669,671,673,674,697,774,882,990,1080,1120,1121,1102,1084,1065,1047,1028,1010,991,973,954,936,918,899,881,862,844,821,807,788,770,751,733,715,696,682,679,681,684,672,679,677,689,676,676,683,685,684,685,679,682,679,684,686,687,690,698,686,684,687,686,693,695,689,689,687,1207,1235,1178,1235,1361,1550,1633,1862,1854,1922,1926,1882,1831,1801,1814,1694,1758,1724,1647,1651,1633,1486,1516,1512,1557,1413,1432,1364,1412,1302,1285,1288,1216,1263,1203,1263,1223,1200,1243,1241,1268,1283,1258,1282,1252,1272,1256,1290,1288,1272,1274,1283,1292,1313,1291,1289,1279,1283,1294,1296,1295,1292,1273,1305,1299,423,383,395,385,386,414,469,524,579,626,635,625,615,605,594,584,648,652,554,544,534,523,513,502,493,483,473,463,453,442,432,422,412,402,392,387,388,389,376,376,380,388,389,403,396,400,386,394,377,381,393,380,378,384,378,387,376,379,380,378,381,378,397,389,376,790,811,795,834,848,941,1067,1171,1224,1317,1328,1264,1257,1261,1181,1192,1171,1191,1130,1109,1095,1068,1115,1051,1086,976,953,959,936,907,881,868,842,821,784,786,782,825,808,806,814,822,818,830,829,841,835,825,843,825,830,832,831,841,836,825,837,837,837,835,835,845,824,836,829,897,945,904,899,916,1064,1143,1296,1448,1453,1438,1417,1477,1366,1312,1290,1312,1289,1332,1247,1227,1380,1257,1146,1090,1071,1046,1066,1029,980,967,935,925,929,1000,875,890,919,915,917,917,934,947,935,938,955,939,950,955,965,1035,1037,1046,982,938,940,962,953,939,932,951,942,946,940,935,421,422,424,425,427,459,519,579,639,687,695,684,673,662,651,640,629,618,607,596,585,574,563,552,541,530,554,508,497,486,475,464,454,443,432,427,429,430,416,418,411,417,422,447,418,423,438,429,418,424,417,422,424,414,425,425,424,422,420,423,431,437,433,439,430,324,325,326,327,328,347,393,440,484,527,538,529,521,448,486,495,487,478,470,461,464,446,435,427,418,410,388,393,384,376,367,359,350,316,333,329,330,331,314,315,322,334,324,324,320,331,319,332,323,319,333,335,348,349,337,327,325,334,330,322,328,343,326,333,320,560,561,563,564,576,656,727,818,903,946,949,933,917,902,886,870,854,838,823,807,791,775,759,743,728,712,692,680,664,648,633,617,601,585,572,568,570,573,571,573,571,570,570,573,577,578,576,573,576,575,577,573,578,578,579,580,576,577,579,582,576,591,578,584,582,480,465,452,443,445,521,546,610,675,762,730,757,744,695,721,672,733,736,683,625,613,602,590,609,566,555,543,570,520,508,496,485,498,461,467,486,447,448,452,458,455,464,465,468,469,464,454,467,461,456,462,471,465,469,488,477,463,458,470,462,461,470,460,468,457,423,425,426,427,429,464,526,587,649,697,743,694,682,671,660,649,637,626,615,603,592,581,570,558,547,536,524,513,502,491,479,468,457,445,434,430,431,432,418,415,420,425,430,422,424,435,430,444,430,431,438,430,424,430,437,446,429,430,430,437,429,434,429,429,426,687,653,663,665,675,752,828,984,1002,1120,1071,1103,1114,1036,981,996,1015,988,971,927,916,910,911,891,877,816,796,830,764,785,767,752,706,716,696,653,649,675,670,672,670,677,744,717,715,723,693,762,725,730,718,690,699,718,703,695,736,703,691,721,709,747,725,735,706,689,691,693,693,712,773,832,917,997,1079,1062,1047,1016,1001,986,1031,987,973,956,961,924,908,892,877,861,845,829,821,797,782,766,768,734,717,703,701,701,703,706,693,701,699,693,715,699,705,705,715,731,712,703,712,707,726,718,713,706,710,710,716,720,714,713,743,720,855,846,848,879,897,1023,1133,1270,1356,1401,1397,1365,1342,1329,1306,1267,1251,1261,1215,1192,1193,1146,1147,1094,1078,1055,1028,1009,979,963,941,918,895,872,852,856,859,862,855,858,855,871,864,876,858,860,873,866,858,862,859,870,863,858,871,873,866,863,862,876,873,884,879,883,871,244,241,267,246,243,258,287,327,361,395,408,401,395,388,382,369,369,362,356,344,337,336,330,323,317,310,304,297,291,284,278,271,261,258,252,244,248,249,235,240,234,245,239,246,235,242,236,234,239,235,233,239,239,240,239,245,240,242,246,246,239,253,235,242,238,339,330,326,323,328,347,390,434,477,518,528,520,512,504,496,488,510,487,487,474,461,434,456,447,439,429,398,400,406,374,366,357,349,341,333,329,330,336,318,317,318,319,328,322,323,319,323,324,322,324,323,335,343,338,362,355,334,339,328,323,334,324,333,326,323,785,778,792,787,821,915,1039,1166,1357,1281,1274,1258,1237,1213,1203,1184,1180,1134,1145,1096,1068,1047,1055,1013,985,987,947,929,909,900,864,844,826,803,790,842,787,805,795,779,783,782,794,793,792,801,792,793,799,802,802,806,807,815,815,813,809,814,809,810,818,822,827,827,827,547,540,547,543,550,601,677,786,809,901,915,853,864,847,818,823,781,784,773,757,770,718,718,712,701,672,690,647,654,627,609,620,596,564,562,563,548,549,547,557,552,571,557,569,553,562,555,556,557,554,553,564,563,569,567,571,568,567,576,570,568,586,565,578,570,214,223,223,224,225,224,254,295,313,357,370,364,358,352,347,341,323,329,323,317,311,306,300,294,288,282,276,270,264,249,253,247,241,235,229,225,226,226,212,213,211,212,233,226,241,234,219,236,225,224,227,216,218,230,226,219,231,218,217,227,223,236,228,234,220,416,384,385,386,387,414,469,523,628,625,634,624,614,604,594,584,574,564,554,544,534,524,514,507,493,487,473,463,453,446,433,423,413,403,393,388,389,390,384,391,385,393,393,394,392,407,385,395,389,387,389,396,397,393,395,394,389,389,402,392,385,387,387,394,387,363,376,377,378,379,414,488,512,565,610,620,611,584,573,548,572,545,552,526,533,523,522,503,517,483,459,463,454,443,404,424,386,405,394,385,380,381,382,393,365,366,366,365,369,368,370,366,372,369,365,368,369,368,366,374,371,370,369,370,372,369,376,374,377,377,383,382,385,386,387,399,452,525,558,642,634,628,614,603,593,583,555,563,553,525,532,506,512,500,492,482,471,461,451,427,434,421,411,402,390,386,389,388,376,379,378,387,450,422,401,437,407,453,419,440,420,392,399,425,404,389,434,409,392,420,414,446,423,410,407,600,592,606,600,607,665,751,841,918,960,959,948,933,914,910,897,899,857,875,831,808,793,807,770,748,756,721,709,694,691,661,646,633,615,602,604,598,615,601,598,603,618,615,607,610,606,609,619,623,619,651,664,660,642,629,624,608,616,608,610,602,616,615,624,609,107,107,107,108,108,110,123,136,149,163,173,170,168,165,163,160,157,155,152,150,147,144,142,139,137,134,131,129,126,124,121,118,116,113,111,108,109,109,96,95,92,94,92,103,93,95,95,98,96,101,103,93,100,101,118,94,94,104,98,103,95,92,103,95,93,889,856,861,867,934,999,1154,1228,1328,1389,1413,1364,1341,1345,1262,1264,1220,1215,1211,1172,1207,1114,1124,1086,1112,1073,1022,1015,994,972,949,928,906,900,891,869,870,879,901,878,878,886,874,884,881,884,898,953,888,902,913,911,901,917,931,901,893,897,906,916,899,905,913,920,907,678,691,693,695,686,790,888,1010,1038,1117,1075,1104,1082,1065,1049,1030,988,986,950,960,943,935,879,897,875,873,859,839,796,787,787,768,750,717,703,700,701,703,698,700,706,722,714,720,718,735,721,716,732,722,739,747,738,746,716,712,725,728,726,717,724,729,716,726,717,1379,1408,1404,1513,1738,2027,2278,2312,2442,2539,2347,2331,2274,2228,2189,2147,2087,2075,2009,1986,1932,1894,1875,1828,1779,1736,1730,1642,1611,1526,1534,1491,1437,1417,1429,1407,1430,1432,1489,1516,1521,1490,1531,1516,1527,1557,1535,1536,1543,1543,1545,1571,1562,1591,1540,1551,1550,1544,1548,1559,1549,1555,1558,1606,1548,822,783,786,789,896,919,1034,1179,1242,1281,1271,1262,1238,1218,1197,1177,1163,1126,1118,1095,1125,1061,1034,1019,996,993,983,948,904,891,908,886,844,809,831,793,795,800,794,806,812,829,822,823,817,832,807,821,812,807,810,824,820,825,848,845,816,818,824,814,806,809,820,821,806,487,467,469,470,474,499,625,649,697,763,825,759,780,769,754,710,680,685,706,644,648,620,624,612,639,614,575,563,550,525,563,550,501,489,477,473,510,476,478,480,479,499,521,507,493,525,503,517,526,533,616,625,640,554,498,485,527,498,488,503,506,517,510,503,503,159,159,159,160,160,165,186,208,229,250,264,260,255,251,247,243,239,235,231,226,222,218,214,210,206,201,197,193,189,185,181,177,172,168,164,161,161,162,150,149,150,154,152,151,157,154,150,154,156,151,156,155,152,151,166,157,152,151,150,151,151,155,154,155,152,0,0,0,0,0,0,0,0,0,0,0,0,0,0,0,0,0,0,0,0,0,0,0,0,0,0,0,0,0,0,0,0,0,0,0,0,0,0,0,0,0,0,0,0,0,0,0,0,0,0,0,0,0,0,0,0,0,0,0,0,0,0,0,0,0,1418,1412,1454,1539,1761,2022,2293,2404,2479,2499,2404,2391,2310,2319,2290,2241,2194,2129,2114,2057,2012,1945,1900,1863,1833,1868,1727,1685,1614,1608,1542,1544,1491,1441,1433,1475,1454,1482,1520,1527,1560,1585,1600,1582,1563,1574,1556,1564,1549,1541,1551,1563,1563,1572,1594,1585,1542,1552,1562,1563,1564,1567,1593,1600,1560,809,802,817,813,850,948,1076,1207,1396,1320,1312,1295,1274,1249,1239,1219,1215,1168,1178,1129,1100,1079,1086,1043,1015,1016,976,957,936,927,891,869,851,827,814,867,812,830,825,820,830,848,835,838,831,838,839,841,851,831,845,874,893,876,870,851,829,856,838,833,827,861,845,862,836,1141,1099,1087,1060,1189,1369,1429,1567,1682,1696,1703,1681,1692,1664,1585,1575,1510,1473,1532,1430,1403,1391,1340,1323,1325,1283,1243,1237,1231,1255,1128,1106,1094,1108,1072,1069,1109,1089,1097,1092,1119,1131,1152,1146,1158,1105,1123,1142,1107,1099,1112,1111,1104,1106,1135,1124,1103,1104,1101,1106,1113,1118,1123,1135,1108,323,324,325,326,327,347,393,440,486,529,539,531,522,513,505,496,488,479,470,462,453,445,436,427,419,410,402,393,384,376,367,359,350,341,333,328,329,330,331,324,318,325,312,314,315,320,319,358,314,312,315,316,342,312,325,315,318,322,319,314,324,323,312,322,318,713,674,664,667,685,761,856,1028,1045,1087,1146,1074,1054,1036,1019,1002,991,957,952,932,914,903,898,868,845,845,810,804,789,758,753,733,720,688,686,670,672,674,679,684,679,689,690,699,686,702,687,692,683,690,680,705,698,697,691,705,695,694,701,714,694,706,680,697,687,756,769,771,773,774,892,1004,1140,1169,1245,1202,1228,1204,1184,1166,1145,1101,1097,1059,1068,1048,1038,980,996,972,968,952,930,885,874,871,850,831,796,781,778,780,782,791,779,795,810,809,815,808,791,801,831,807,799,802,786,800,794,800,802,801,824,799,808,805,797,800,807,792,596,553,568,562,596,615,693,775,847,891,891,881,867,850,847,835,838,798,817,774,753,739,754,718,698,706,673,662,648,647,618,604,593,576,564,565,559,575,555,564,564,582,646,622,588,634,590,666,614,645,616,582,606,644,608,585,637,605,586,619,614,651,610,602,593,286,313,314,315,316,321,378,421,465,507,519,510,484,476,468,478,452,439,437,445,436,413,420,412,404,381,387,379,371,328,354,346,338,330,307,317,318,315,316,310,302,303,320,331,316,325,323,333,324,340,341,341,328,339,332,323,337,328,339,368,339,349,349,357,346,700,692,707,701,724,805,914,1028,1244,1147,1142,1128,1109,1087,1079,1062,1061,1016,1029,982,956,938,947,907,882,885,848,831,813,807,773,754,738,717,704,756,701,719,705,710,700,710,703,730,705,716,723,805,708,709,702,710,728,694,713,713,709,717,702,703,718,717,703,716,706,381,382,383,384,385,413,469,524,579,626,635,625,614,604,594,584,574,564,553,543,533,523,513,503,492,482,472,462,452,442,431,421,411,401,391,386,387,389,376,379,383,389,399,395,396,396,386,396,395,401,402,412,406,409,391,388,400,391,393,395,396,397,387,389,389,606,581,582,583,594,687,739,826,947,942,956,941,926,892,895,880,856,849,826,818,803,788,785,757,737,722,711,693,681,665,650,635,619,604,591,587,589,590,571,575,576,590,578,588,576,578,593,580,576,578,577,582,577,576,582,585,582,580,578,583,587,596,593,600,591,557,559,551,562,569,621,693,782,861,907,865,862,883,869,845,803,826,766,765,783,769,745,712,717,711,697,651,685,616,656,625,625,588,582,569,565,567,568,548,555,560,580,559,556,555,557,556,554,555,557,556,559,557,560,562,564,563,562,561,564,565,587,584,588,583,867,850,849,853,888,998,1057,1167,1271,1284,1358,1275,1256,1220,1251,1250,1193,1204,1193,1146,1149,1129,1096,1073,1048,1058,1013,991,974,954,937,898,895,873,889,877,858,861,858,850,864,888,854,892,859,878,863,873,888,867,868,868,873,892,900,868,864,879,874,884,868,863,868,893,868,984,977,1019,997,1060,1188,1348,1496,1592,1599,1577,1557,1530,1510,1518,1471,1454,1411,1409,1364,1331,1305,1307,1253,1242,1238,1180,1157,1156,1118,1078,1052,1029,1003,991,1038,990,1008,1027,1013,1016,1020,1024,1020,1029,1017,1030,1022,1024,1020,1037,1035,1035,1028,1023,1030,1031,1038,1024,1036,1036,1038,1026,1020,1026,339,330,326,323,328,347,390,434,477,518,528,520,512,504,496,488,510,487,487,474,461,434,456,447,439,429,398,400,406,374,366,357,349,341,333,329,330,336,318,317,318,319,328,322,323,319,323,324,322,324,323,335,343,338,362,355,334,339,328,323,334,324,333,326,323,1179,1187,1212,1242,1359,1591,1864,2015,2054,2136,2071,2032,2037,2016,1956,1918,1870,1840,1889,1827,1686,1654,1646,1606,1553,1514,1475,1422,1397,1358,1337,1251,1251,1212,1211,1217,1232,1213,1268,1265,1272,1317,1288,1289,1285,1269,1295,1299,1334,1298,1318,1318,1335,1314,1321,1302,1298,1282,1284,1290,1291,1285,1284,1294,1272,748,750,751,753,809,947,1121,1291,1364,1421,1386,1359,1358,1330,1294,1275,1247,1220,1192,1222,1114,1109,1082,1054,1026,999,971,943,916,888,860,815,788,778,763,762,768,773,767,760,777,769,782,816,774,783,791,792,808,791,793,799,795,799,786,789,782,799,782,792,797,799,793,798,815,1101,1201,1153,1135,1247,1455,1679,1820,1899,1919,1893,1864,1836,1807,1778,1784,1720,1692,1663,1674,1575,1549,1548,1507,1453,1416,1380,1344,1308,1272,1236,1182,1178,1133,1120,1151,1142,1123,1168,1169,1180,1188,1182,1212,1185,1202,1181,1204,1204,1195,1179,1193,1210,1213,1203,1216,1211,1207,1214,1203,1190,1182,1213,1211,1179,1358,1366,1378,1491,1632,1918,2139,2306,2375,2479,2338,2365,2368,2254,2192,2148,2136,2128,2076,2083,1918,1899,1855,1852,1769,1748,1676,1655,1692,1554,1566,1451,1406,1397,1384,1386,1417,1437,1476,1484,1486,1517,1474,1522,1488,1513,1502,1516,1525,1506,1499,1498,1526,1528,1521,1534,1542,1520,1535,1521,1516,1521,1535,1605,1557,1562,1478,1482,1617,1760,2015,2249,2399,2491,2478,2491,2481,2386,2404,2352,2269,2231,2182,2108,2067,2114,1978,1997,1916,1914,1853,1805,1765,1676,1635,1590,1549,1510,1482,1528,1526,1539,1554,1646,1651,1626,1633,1636,1657,1639,1654,1660,1732,1654,1702,1692,1700,1670,1740,1703,1654,1657,1649,1679,1710,1685,1719,1708,1711,1682,1432,1423,1479,1500,1628,1894,2127,2314,2360,2396,2417,2349,2294,2249,2228,2137,2160,2051,2038,1974,1986,1912,1844,1852,1791,1761,1759,1715,1595,1579,1538,1495,1456,1429,1394,1400,1470,1501,1520,1496,1494,1503,1536,1559,1537,1549,1533,1541,1579,1566,1610,1589,1606,1595,1612,1548,1565,1595,1609,1611,1578,1586,1621,1681,1582,1283,1310,1323,1355,1502,1751,1985,2156,2192,2232,2176,2142,2109,2134,2080,2046,2032,1979,1950,1875,1811,1780,1774,1745,1670,1651,1610,1548,1507,1493,1451,1368,1354,1317,1304,1329,1328,1331,1369,1425,1376,1401,1419,1411,1397,1421,1398,1419,1411,1388,1406,1413,1428,1427,1426,1426,1418,1411,1438,1417,1426,1437,1442,1445,1430,1048,1051,1054,1075,1183,1384,1622,1798,1932,1908,1865,1830,1821,1785,1742,1714,1679,1705,1608,1629,1515,1501,1466,1431,1395,1412,1324,1289,1253,1218,1182,1130,1095,1081,1067,1067,1074,1080,1131,1112,1106,1192,1181,1158,1137,1126,1141,1176,1164,1152,1164,1145,1126,1131,1130,1157,1164,1144,1169,1190,1139,1134,1170,1123,1121,1365,1369,1386,1462,1630,1914,2140,2319,2358,2464,2335,2362,2284,2242,2192,2157,2135,2128,2076,2082,1920,1910,1866,1851,1769,1726,1684,1633,1652,1555,1544,1452,1423,1400,1394,1386,1396,1404,1449,1457,1467,1493,1476,1483,1470,1483,1466,1466,1481,1473,1504,1519,1506,1489,1486,1497,1494,1505,1504,1482,1505,1505,1490,1491,1487,1414,1374,1391,1477,1602,1689,1899,1949,2036,2031,2021,1998,1964,1959,1919,1889,1861,1820,1875,1820,1781,1706,1691,1648,1620,1658,1562,1579,1505,1485,1461,1430,1443,1400,1371,1365,1392,1396,1432,1484,1440,1458,1470,1461,1458,1470,1464,1464,1478,1455,1465,1473,1474,1482,1490,1496,1488,1486,1525,1473,1489,1506,1512,1502,1486,1557,1563,1603,1751,1966,2266,2665,2605,2652,2801,2663,2584,2561,2545,2458,2419,2537,2324,2429,2284,2161,2179,2087,2040,2020,2037,2097,1890,1884,1755,1745,1682,1684,1594,1619,1583,1591,1599,1771,1771,1780,1833,1822,1840,1822,1805,1799,1834,1818,1816,1804,1836,1863,1865,1835,1817,1803,1807,1796,1793,1786,1816,1803,1822,1771,624,622,623,634,642,690,768,845,928,965,973,961,963,922,908,894,881,872,853,839,825,816,813,783,774,755,838,727,713,703,685,671,657,643,636,632,630,631,609,608,610,613,616,609,613,614,615,619,622,622,623,636,623,624,636,626,628,630,631,631,631,631,636,636,638,1885,1922,1966,2174,2449,2759,2990,3058,3096,3193,3090,3050,3072,2951,2858,2812,2777,2703,2904,2647,2616,2529,2431,2377,2352,2362,2286,2198,2187,2050,2034,2039,1974,1884,1911,1915,1924,1893,2232,2248,2289,2315,2301,2320,2338,2366,2360,2364,2402,2398,2435,2416,2432,2454,2506,2504,2492,2520,2552,2545,2560,2580,2576,2592,2624,1318,1297,1308,1350,1461,1629,1867,1951,2019,2035,2024,1993,1998,1950,1900,1904,1872,1825,1776,1745,1760,1683,1682,1622,1707,1560,1529,1498,1502,1436,1431,1385,1346,1323,1313,1311,1347,1343,1364,1351,1355,1357,1368,1394,1387,1381,1381,1399,1410,1392,1401,1390,1390,1418,1429,1402,1410,1417,1417,1434,1422,1419,1442,1481,1451,1294,1302,1308,1371,1539,1810,2034,2204,2259,2367,2241,2270,2193,2161,2102,2059,2049,2043,1992,2001,1837,1819,1777,1775,1694,1653,1604,1563,1583,1486,1478,1386,1341,1333,1319,1321,1330,1330,1419,1415,1412,1443,1471,1461,1442,1440,1457,1491,1463,1501,1517,1516,1470,1457,1473,1475,1480,1460,1503,1542,1491,1488,1501,1474,1470,1333,1336,1351,1424,1588,1940,2093,2273,2313,2420,2357,2384,2243,2200,2150,2115,2150,2088,2036,2055,1881,1871,1829,1866,1733,1740,1648,1614,1665,1521,1512,1419,1389,1367,1361,1363,1363,1370,1453,1449,1435,1459,1458,1450,1466,1472,1459,1450,1457,1467,1476,1456,1461,1461,1463,1472,1459,1473,1448,1460,1459,1475,1464,1459,1444,0,0,0,0,0,0,0,0,0,0,0,0,0,0,0,0,0,0,0,0,0,0,0,0,0,0,0,0,0,0,0,0,0,0,0,0,0,0,0,0,0,0,0,0,0,0,0,0,0,0,0,0,0,0,0,0,0,0,0,0,0,0,0,0,0,772,774,776,778,837,1119,1159,1331,1403,1460,1424,1397,1395,1366,1330,1310,1282,1254,1225,1255,1146,1141,1112,1084,1056,1028,999,971,943,915,887,841,813,802,787,787,792,798,801,808,800,836,824,813,821,833,813,835,839,831,821,816,810,821,816,824,815,813,809,809,806,815,809,815,793,1474,1464,1545,1709,1969,2376,2589,2730,2785,2789,2742,2706,2634,2600,2537,2482,2449,2368,2312,2255,2223,2149,2088,2064,1989,1917,1876,1804,1742,1686,1629,1584,1528,1523,1497,1507,1527,1542,1633,1648,1616,1632,1631,1675,1639,1669,1687,1756,1663,1698,1674,1687,1672,1724,1696,1664,1675,1657,1673,1709,1685,1712,1694,1709,1674,1190,1193,1196,1240,1374,1608,1895,2033,2091,2134,2088,2066,2052,1996,1949,1918,1879,1837,1942,1832,1698,1744,1642,1605,1566,1527,1488,1461,1407,1370,1345,1275,1272,1223,1210,1211,1229,1225,1267,1260,1280,1311,1280,1292,1280,1310,1297,1294,1300,1280,1297,1320,1342,1329,1312,1307,1277,1305,1285,1279,1276,1311,1294,1315,1280,1807,1814,1917,2070,2344,2607,2802,3025,3026,3053,3014,2878,2939,2880,2808,2814,2620,2617,2676,2615,2521,2443,2326,2347,2216,2226,2156,2102,2078,2002,1955,1896,1911,1795,1806,1802,1858,1803,2118,2106,2125,2152,2186,2160,2176,2194,2164,2180,2207,2200,2295,2295,2280,2243,2375,2324,2236,2253,2246,2232,2251,2236,2249,2238,2251,1635,1645,1697,1860,2093,2396,2790,2729,2773,2919,2779,2698,2674,2655,2568,2526,2670,2427,2529,2383,2357,2275,2181,2132,2110,2146,2182,1974,1969,1836,1824,1761,1763,1673,1698,1662,1671,1679,1892,1927,1894,1909,1904,1915,1915,1933,1920,1932,1977,1923,1915,1923,1941,1953,1940,1964,1966,1945,1968,1932,1949,1956,2016,1941,1918,1010,1012,1015,1031,1130,1321,1551,1729,1865,1842,1800,1767,1758,1724,1682,1655,1621,1654,1552,1575,1462,1450,1415,1418,1395,1366,1278,1244,1210,1175,1141,1089,1056,1042,1028,1028,1034,1041,1047,1065,1054,1081,1077,1070,1082,1099,1062,1085,1068,1061,1083,1082,1081,1082,1115,1090,1083,1072,1085,1068,1066,1084,1085,1092,1084,1486,1477,1508,1594,1749,2028,2246,2403,2476,2481,2529,2449,2398,2364,2336,2240,2260,2158,2106,2078,2047,1995,1952,1932,1875,1838,1834,1789,1682,1641,1613,1563,1512,1505,1471,1482,1546,1533,1620,1612,1601,1706,1642,1636,1696,1710,1628,1659,1647,1646,1644,1674,1673,1700,1687,1665,1685,1689,1695,1674,1651,1655,1637,1631,1610,751,753,754,756,812,952,1127,1296,1369,1426,1391,1364,1363,1335,1299,1279,1252,1224,1196,1226,1118,1113,1124,1058,1030,1002,974,947,919,891,864,818,791,780,765,765,770,776,790,782,785,786,787,784,787,795,792,794,781,793,791,802,799,798,792,799,791,793,792,814,799,801,786,792,792,1146,1149,1150,1188,1315,1539,1888,1964,2023,2067,2022,1982,1972,1934,1888,1857,1819,1779,1900,1782,1643,1673,1588,1552,1514,1476,1438,1400,1360,1324,1286,1230,1228,1179,1165,1167,1173,1180,1211,1264,1214,1235,1238,1231,1234,1256,1239,1245,1256,1229,1250,1242,1253,1253,1259,1261,1260,1256,1294,1237,1257,1267,1282,1264,1257,1004,997,1006,1057,1141,1285,1500,1725,1789,1857,1753,1721,1714,1681,1641,1616,1584,1582,1518,1543,1457,1463,1388,1356,1323,1337,1258,1268,1193,1160,1127,1077,1077,1033,1018,1018,1024,1030,1030,1042,1053,1069,1066,1060,1055,1069,1047,1054,1055,1053,1047,1066,1067,1083,1123,1113,1065,1066,1069,1055,1047,1046,1065,1062,1051,1639,1638,1798,1875,2075,2343,2589,2776,2782,2813,2865,2685,2711,2656,2590,2599,2442,2408,2506,2448,2324,2375,2221,2161,2064,2043,2011,1961,1940,1839,1823,1795,1751,1661,1707,1668,1696,1669,1872,1882,1853,1872,1870,1919,1879,1910,1927,2001,1905,1941,1914,1930,1912,1961,1938,1908,1920,1903,1915,1949,1930,1957,1937,1952,1916,945,997,950,959,1041,1264,1420,1598,1714,1724,1683,1647,1641,1610,1613,1629,1514,1483,1451,1476,1365,1355,1384,1292,1260,1228,1253,1165,1133,1101,1070,1020,1039,976,962,962,968,1024,997,986,977,985,1019,1046,1020,1022,1019,1049,1040,1040,1046,1030,1021,1059,1057,1019,1046,1034,1032,1084,1050,1067,1066,1103,1058,1019,1037,1091,1057,1158,1318,1572,1749,1905,1848,1806,1773,1788,1753,1702,1684,1650,1594,1581,1603,1571,1477,1475,1408,1368,1333,1287,1270,1236,1201,1167,1099,1074,1061,1053,1053,1111,1065,1090,1105,1062,1057,1107,1082,1090,1093,1087,1087,1126,1097,1113,1116,1119,1120,1106,1119,1123,1133,1174,1106,1107,1120,1177,1119,1092,1179,1187,1212,1242,1359,1591,1864,2015,2054,2136,2071,2032,2037,2016,1956,1918,1870,1840,1889,1827,1686,1654,1646,1606,1553,1514,1475,1422,1397,1358,1337,1251,1251,1212,1211,1217,1232,1213,1268,1265,1272,1317,1288,1289,1285,1269,1295,1299,1334,1298,1318,1318,1335,1314,1321,1302,1298,1282,1284,1290,1291,1285,1284,1294,1272,762,764,779,782,816,871,1029,1144,1231,1270,1273,1249,1229,1227,1170,1168,1130,1110,1107,1087,1066,1046,1029,990,1000,965,930,930,889,870,850,843,810,803,777,773,775,794,781,779,787,800,793,799,802,814,801,799,813,802,833,828,831,818,794,791,802,802,806,790,798,808,794,807,801,247,248,249,250,250,261,296,331,365,400,414,407,401,394,388,381,374,368,361,355,348,341,335,328,322,315,308,302,295,289,282,275,269,262,256,251,252,253,233,233,239,249,234,239,233,239,241,234,236,234,234,236,235,240,238,236,234,241,235,239,238,238,236,240,240,543,544,546,606,554,601,672,744,815,874,927,866,837,824,811,798,786,773,773,760,747,721,708,695,701,722,656,643,630,617,604,591,578,565,554,566,552,553,537,540,550,568,545,552,540,549,545,541,547,548,541,550,550,555,553,560,553,556,557,559,559,575,562,570,565,925,959,941,980,972,1078,1210,1344,1467,1497,1493,1438,1397,1407,1356,1379,1347,1285,1276,1254,1263,1196,1179,1157,1166,1162,1122,1062,1076,1018,1019,976,982,930,972,940,920,976,951,947,957,1003,976,984,971,951,973,981,991,967,993,994,1017,999,1012,985,969,968,965,968,966,970,960,1005,955,1161,1163,1162,1210,1308,1369,1541,1669,1834,1891,1902,1744,1702,1732,1728,1666,1716,1565,1551,1523,1595,1531,1504,1449,1455,1443,1357,1292,1265,1303,1231,1183,1243,1134,1150,1201,1124,1158,1196,1200,1210,1207,1196,1216,1214,1223,1216,1212,1248,1210,1216,1206,1228,1234,1237,1248,1250,1223,1235,1233,1223,1221,1219,1245,1205,1065,1076,1055,1170,1175,1292,1514,1612,1663,1716,1748,1691,1658,1615,1616,1564,1522,1517,1529,1469,1463,1411,1378,1349,1366,1335,1266,1240,1202,1198,1173,1146,1099,1099,1066,1087,1088,1096,1096,1114,1111,1128,1210,1151,1136,1196,1133,1205,1164,1187,1160,1136,1168,1190,1323,1253,1206,1168,1142,1160,1147,1180,1170,1173,1133,724,748,728,790,758,834,937,1041,1123,1208,1223,1158,1125,1107,1089,1071,1053,1035,1031,1013,1022,964,946,928,945,944,875,857,839,821,803,785,768,750,737,753,736,738,747,748,747,747,749,755,753,758,754,749,754,753,755,753,760,764,764,764,752,759,760,766,760,776,764,774,768,610,612,614,616,628,691,783,875,961,1005,1009,993,977,960,944,928,912,896,880,864,847,831,815,799,783,767,750,734,718,702,686,670,654,637,624,620,621,623,629,626,628,647,629,624,690,693,632,654,699,663,619,692,732,740,751,699,692,708,715,672,649,653,647,624,618,978,975,971,976,1036,1139,1289,1427,1475,1495,1492,1511,1485,1429,1438,1377,1367,1346,1345,1316,1292,1274,1244,1219,1200,1170,1167,1132,1127,1074,1041,1034,1035,978,990,979,973,994,980,967,983,1003,990,976,974,989,988,1042,1081,1001,1084,1080,1034,999,1034,1049,1031,1105,1093,1003,1034,1111,1122,1100,1023,926,931,934,940,1001,1076,1216,1388,1470,1509,1486,1443,1444,1439,1387,1364,1310,1331,1263,1241,1220,1230,1205,1182,1159,1108,1124,1088,1075,1060,1007,1016,984,962,946,958,944,951,988,963,974,971,976,971,1022,1019,980,1014,1001,970,976,1031,1035,1038,1026,1037,1026,1044,1029,1023,1012,991,969,969,969,1179,1142,1146,1179,1266,1415,1599,1881,1846,1874,1886,1802,1773,1744,1768,1686,1657,1679,1653,1570,1541,1559,1483,1503,1469,1396,1413,1398,1366,1280,1290,1222,1287,1211,1158,1156,1159,1162,1214,1198,1198,1202,1214,1251,1235,1246,1228,1236,1259,1241,1250,1248,1254,1265,1280,1237,1250,1266,1261,1275,1252,1253,1280,1340,1265,1065,1075,1066,1081,1179,1330,1554,1624,1649,1762,1699,1683,1645,1618,1565,1565,1512,1486,1460,1458,1407,1425,1377,1351,1354,1297,1284,1243,1197,1191,1176,1127,1091,1100,1109,1080,1088,1096,1100,1110,1103,1116,1134,1103,1115,1149,1126,1115,1143,1131,1223,1208,1231,1176,1284,1231,1164,1144,1122,1124,1136,1110,1126,1146,1108,1466,1430,1455,1534,1675,1884,2083,2350,2308,2328,2389,2241,2320,2168,2176,2095,2059,2042,2039,2006,1913,1923,1841,1876,1822,1731,1708,1712,1677,1586,1587,1513,1577,1497,1449,1447,1451,1455,1534,1525,1524,1536,1531,1567,1534,1539,1563,1631,1545,1560,1559,1567,1572,1570,1590,1582,1568,1573,1565,1577,1583,1580,1575,1591,1581,927,952,933,1007,1001,1110,1248,1455,1542,1506,1615,1472,1433,1410,1388,1365,1342,1338,1309,1345,1290,1278,1205,1222,1223,1238,1114,1090,1067,1085,1022,1048,976,955,943,1004,943,946,969,967,973,1023,980,998,970,980,980,970,1007,986,1030,1039,1027,1005,985,996,988,993,996,985,992,996,977,1011,982,913,901,905,907,983,1049,1188,1327,1374,1394,1392,1403,1390,1334,1345,1287,1276,1257,1238,1231,1208,1180,1166,1144,1122,1086,1084,1048,1038,1029,973,957,952,906,915,913,929,918,917,921,919,930,943,922,931,946,935,934,945,957,1021,1029,1036,988,994,983,958,959,939,937,951,928,944,936,930,946,942,938,949,1052,1097,1243,1452,1500,1449,1446,1466,1442,1386,1395,1398,1325,1304,1284,1276,1252,1235,1290,1181,1163,1133,1131,1096,1092,1061,1015,1000,985,945,957,1013,975,960,969,953,954,960,980,999,976,980,981,1004,1007,983,999,981,982,1008,1015,985,1001,1004,994,1021,1009,1011,1028,1050,1028,901,903,905,913,966,1132,1363,1525,1641,1709,1689,1636,1604,1573,1537,1509,1638,1464,1413,1381,1367,1335,1286,1254,1252,1206,1159,1162,1095,1063,1004,999,942,937,916,933,921,927,931,929,946,947,958,994,953,968,966,966,993,967,967,974,971,980,955,959,961,973,957,959,968,980,962,974,976,0,0,0,0,0,0,0,0,0,0,0,0,0,0,0,0,0,0,0,0,0,0,0,0,0,0,0,0,0,0,0,0,0,0,0,0,0,0,0,0,0,0,0,0,0,0,0,0,0,0,0,0,0,0,0,0,0,0,0,0,0,0,0,0,0,1742,1761,1925,2154,2448,2790,2901,3098,3072,3019,3078,2959,2957,2838,2777,2742,2659,2666,2570,2555,2616,2514,2413,2388,2364,2290,2205,2149,2116,2018,2037,1887,1836,1826,1838,1811,1832,1853,2144,2229,2182,2180,2210,2182,2207,2241,2205,2200,2244,2177,2222,2203,2226,2230,2401,2359,2272,2225,2260,2198,2213,2217,2254,2285,2201,773,773,778,781,812,902,1046,1161,1247,1286,1267,1247,1244,1207,1203,1166,1146,1126,1121,1085,1065,1065,1022,1040,984,964,943,956,934,883,862,842,838,813,788,785,787,789,799,802,791,890,831,809,817,830,813,812,816,829,824,814,806,816,812,814,817,809,806,817,806,815,815,810,791,1388,1356,1457,1442,1592,1809,1933,2295,2186,2182,2207,2168,2158,2030,2045,1993,1995,1877,1999,1886,1915,1891,1800,1729,1681,1686,1573,1580,1599,1500,1473,1481,1446,1371,1403,1425,1396,1379,1464,1470,1421,1430,1460,1452,1455,1467,1461,1470,1517,1465,1478,1488,1489,1494,1466,1496,1509,1507,1541,1493,1486,1494,1544,1478,1482,1257,1221,1226,1271,1372,1536,1731,2009,1972,1998,2007,1922,2009,1860,1882,1798,1767,1787,1758,1674,1643,1658,1581,1598,1563,1488,1502,1486,1451,1364,1371,1302,1366,1290,1237,1235,1238,1241,1303,1309,1313,1329,1330,1357,1327,1352,1319,1359,1355,1369,1321,1332,1358,1369,1349,1363,1365,1367,1356,1349,1340,1344,1359,1356,1321,572,604,604,616,586,641,725,809,890,936,914,926,927,896,905,866,851,837,822,807,792,777,762,747,753,718,702,688,673,658,643,628,613,598,585,581,582,584,575,576,578,588,591,585,590,584,585,588,596,595,664,657,667,602,592,590,598,599,593,584,600,590,587,591,591,992,1065,1028,1097,1075,1224,1378,1509,1538,1611,1704,1595,1555,1530,1461,1483,1458,1430,1418,1393,1443,1312,1306,1281,1272,1283,1241,1153,1157,1104,1091,1082,1085,1036,1051,1069,1024,1058,1089,1068,1088,1092,1083,1073,1150,1150,1084,1118,1103,1075,1075,1137,1144,1173,1142,1136,1131,1153,1156,1149,1112,1101,1075,1084,1096,250,251,252,252,253,265,300,335,371,406,419,412,406,399,392,386,379,372,366,359,352,345,339,332,325,319,312,305,299,292,285,278,272,265,258,254,255,255,248,246,243,278,255,251,240,246,250,258,259,255,263,250,250,251,268,251,246,256,245,250,248,240,258,248,241,729,730,734,736,762,844,981,1096,1184,1196,1199,1180,1161,1142,1146,1103,1084,1065,1046,1026,1007,1009,966,1000,930,911,892,935,912,834,815,796,793,758,744,740,742,744,744,740,751,782,754,758,749,768,764,755,774,762,831,832,852,795,766,759,756,778,759,749,755,775,759,776,755,500,501,502,504,509,527,571,615,658,690,700,732,723,675,705,659,651,643,634,626,618,610,601,593,585,577,569,560,552,544,536,527,519,511,532,507,501,509,500,491,493,495,495,504,503,508,506,502,508,498,494,494,495,503,499,498,499,495,496,495,495,501,494,506,500,1296,1301,1281,1278,1354,1547,1711,2034,1974,2089,1961,1927,1976,1835,1815,1907,1774,1696,1808,1677,1711,1761,1603,1569,1524,1492,1422,1433,1427,1331,1336,1320,1313,1238,1295,1238,1261,1324,1287,1297,1304,1320,1325,1307,1309,1345,1305,1310,1325,1298,1320,1315,1330,1335,1488,1436,1340,1317,1320,1311,1304,1298,1314,1351,1300,173,174,174,175,175,179,199,219,238,258,271,267,263,259,255,251,248,244,240,236,232,228,225,221,217,213,209,205,202,198,194,190,186,183,179,176,176,176,162,159,162,164,159,169,164,172,171,165,172,162,165,163,163,166,163,163,163,165,163,161,162,164,162,167,164,533,535,536,538,542,591,646,815,786,847,853,839,826,812,822,785,772,758,767,753,739,725,711,697,664,670,656,642,628,614,600,641,572,558,529,541,542,528,537,538,542,555,550,550,555,565,553,550,562,557,575,573,575,572,548,546,557,560,560,548,555,561,549,557,553,762,764,779,782,816,871,1029,1144,1231,1270,1273,1249,1229,1227,1170,1168,1130,1110,1107,1087,1066,1046,1029,990,1000,965,930,930,889,870,850,843,810,803,777,773,775,794,781,779,787,800,793,799,802,814,801,799,813,802,833,828,831,818,794,791,802,802,806,790,798,808,794,807,801,1195,1150,1209,1172,1275,1464,1733,1818,1893,1936,1893,1872,1816,1872,1863,1760,1729,1666,1732,1594,1623,1479,1561,1452,1446,1434,1401,1343,1312,1345,1264,1310,1214,1219,1203,1164,1161,1190,1208,1251,1214,1223,1241,1223,1230,1236,1238,1236,1244,1230,1245,1237,1241,1243,1251,1256,1253,1252,1281,1235,1257,1267,1285,1267,1256,1409,1411,1441,1578,1882,2335,2530,2662,2682,2658,2630,2622,2636,2537,2578,2465,2455,2357,2346,2271,2210,2131,2161,2128,1965,1904,1842,1781,1720,1658,1597,1536,1485,1450,1438,1448,1464,1480,1547,1537,1540,1548,1542,1565,1548,1545,1573,1636,1551,1568,1573,1577,1580,1586,1602,1591,1575,1580,1574,1593,1587,1587,1591,1597,1591,1447,1490,1502,1533,1719,1937,2114,2237,2307,2364,2322,2252,2211,2184,2177,2118,2085,2070,1980,1955,1942,1904,1831,1803,1830,1753,1709,1704,1653,1578,1595,1519,1565,1526,1515,1469,1495,1459,1528,1572,1536,1542,1572,1556,1558,1570,1568,1571,1586,1563,1571,1580,1583,1589,1596,1597,1602,1596,1608,1597,1613,1627,1641,1623,1623,1123,1144,1156,1145,1249,1399,1553,1687,1765,1878,1813,1786,1703,1699,1729,1635,1653,1585,1534,1506,1510,1520,1422,1394,1433,1386,1332,1351,1305,1225,1293,1169,1185,1167,1137,1120,1151,1114,1179,1167,1166,1170,1199,1248,1183,1207,1210,1218,1239,1221,1219,1222,1213,1230,1199,1207,1219,1214,1208,1251,1212,1236,1220,1222,1225,960,921,924,938,1053,1101,1245,1399,1455,1549,1502,1477,1446,1458,1447,1385,1382,1327,1303,1337,1261,1224,1208,1184,1187,1135,1114,1115,1058,1047,1018,993,980,991,939,937,958,936,948,942,937,944,1003,1008,980,990,976,1034,1003,983,1001,970,973,1015,1012,974,1020,983,978,1031,1003,1036,1021,1059,1011,1167,1128,1128,1171,1324,1399,1578,1750,1787,1875,1823,1793,1756,1754,1713,1674,1685,1612,1583,1606,1526,1488,1488,1438,1435,1379,1353,1348,1283,1270,1236,1207,1199,1198,1148,1143,1168,1153,1167,1167,1182,1204,1175,1198,1175,1185,1177,1190,1206,1196,1187,1204,1203,1218,1204,1212,1196,1210,1216,1210,1212,1215,1195,1226,1221,1270,1312,1337,1323,1494,1667,1834,1960,2032,2142,2071,2010,1952,1947,1961,1872,1886,1815,1760,1726,1727,1719,1630,1600,1633,1556,1501,1573,1488,1403,1445,1339,1354,1345,1309,1289,1323,1288,1356,1356,1363,1366,1388,1432,1381,1413,1404,1418,1429,1417,1403,1413,1403,1430,1386,1389,1410,1402,1390,1417,1409,1430,1399,1413,1413,1491,1484,1498,1606,1755,2007,2217,2352,2383,2360,2337,2335,2277,2260,2340,2198,2140,2101,2096,2031,2023,1895,1928,1852,1837,1815,1779,1727,1660,1637,1616,1566,1537,1502,1490,1500,1495,1504,1595,1585,1557,1568,1588,1580,1580,1593,1601,1606,1637,1604,1629,1620,1628,1627,1600,1637,1647,1643,1660,1649,1635,1623,1679,1616,1624,1007,1077,1100,1012,1121,1252,1436,1524,1605,1722,1660,1604,1554,1553,1558,1494,1515,1449,1401,1375,1483,1369,1299,1273,1316,1242,1197,1288,1197,1120,1222,1069,1088,1070,1060,1022,1052,1047,1055,1062,1065,1085,1083,1089,1088,1087,1068,1088,1075,1062,1076,1085,1082,1080,1111,1096,1074,1069,1083,1081,1072,1100,1101,1108,1090,1764,1714,1763,1880,2146,2359,2510,2654,2704,2826,2691,2611,2598,2647,2527,2442,2440,2433,2478,2363,2314,2191,2177,2189,2150,2121,1985,2028,1891,1862,1851,1794,1805,1743,1715,1719,1776,1763,2052,1980,1981,1994,1987,2019,2053,2047,2034,2117,2039,2027,2098,2081,2088,2148,2086,2086,2071,2104,2134,2188,2213,2222,2193,2055,2041,807,813,815,819,854,967,1078,1192,1281,1324,1317,1297,1276,1255,1261,1247,1219,1198,1176,1155,1185,1119,1091,1047,1026,1025,985,994,943,923,921,900,879,858,844,823,825,827,838,836,840,836,831,831,846,845,833,835,841,837,839,844,847,839,840,837,844,844,844,845,846,847,844,841,850,1345,1347,1363,1463,1736,2118,2390,2561,2630,2629,2618,2625,2483,2429,2396,2322,2323,2226,2180,2107,2054,2000,1946,1893,1839,1785,1737,1678,1625,1571,1517,1464,1415,1383,1381,1380,1393,1422,1490,1478,1493,1496,1481,1482,1559,1559,1491,1525,1514,1484,1484,1541,1550,1571,1554,1567,1543,1566,1571,1548,1520,1522,1488,1496,1499,576,578,579,581,591,670,732,818,900,949,949,934,919,904,916,900,885,946,854,838,823,807,791,753,738,722,707,736,677,662,667,651,636,620,607,584,586,588,591,587,594,599,610,605,596,608,594,608,602,600,603,603,606,619,616,617,603,609,606,616,614,615,617,625,616,1357,1399,1441,1477,1650,1843,1972,2147,2200,2319,2206,2169,2079,2067,2148,2016,2108,1982,1873,1839,1930,1804,1736,1700,1760,1652,1598,1652,1559,1622,1506,1428,1508,1460,1394,1377,1448,1452,1473,1493,1449,1444,1490,1463,1479,1487,1481,1483,1532,1491,1494,1524,1512,1519,1499,1520,1527,1524,1549,1502,1510,1518,1559,1497,1497,1059,1140,1144,1071,1222,1372,1527,1614,1693,1791,1744,1687,1635,1689,1636,1571,1590,1523,1474,1447,1530,1438,1366,1339,1380,1356,1258,1316,1270,1177,1226,1123,1140,1123,1113,1075,1105,1101,1145,1154,1128,1138,1133,1165,1145,1161,1172,1234,1152,1196,1188,1193,1162,1241,1197,1151,1149,1143,1176,1205,1192,1222,1206,1204,1175,974,1044,1047,977,1082,1209,1389,1477,1559,1677,1615,1560,1510,1509,1515,1451,1473,1408,1360,1335,1444,1330,1260,1235,1278,1205,1160,1215,1162,1085,1149,1035,1055,1037,1027,989,1019,1014,1027,1021,1030,1034,1039,1037,1042,1037,1026,1044,1047,1051,1057,1047,1047,1057,1051,1050,1042,1049,1037,1053,1042,1040,1040,1044,1063,1577,1593,1624,1823,2093,2563,2758,2919,3029,3003,2966,2958,2813,2754,2728,2636,2619,2518,2491,2457,2342,2283,2224,2241,2107,2048,2066,1930,1882,1812,1774,1786,1649,1707,1609,1618,1642,1663,1843,1827,1847,1851,1858,1912,1919,1935,1871,1904,1912,1876,1877,1927,1931,1953,1923,1900,1922,1941,1937,1920,1904,1911,1876,1882,1888,1434,1436,1469,1610,1920,2374,2568,2700,2719,2695,2666,2657,2671,2571,2611,2498,2487,2389,2377,2302,2240,2161,2190,2156,1993,1931,1869,1807,1746,1684,1622,1561,1509,1474,1463,1473,1489,1504,1579,1574,1585,1588,1583,1577,1594,1605,1589,1591,1598,1601,1674,1685,1641,1610,1621,1637,1646,1716,1706,1604,1644,1729,1729,1702,1640,0,0,0,0,0,0,0,0,0,0,0,0,0,0,0,0,0,0,0,0,0,0,0,0,0,0,0,0,0,0,0,0,0,0,0,0,0,0,0,0,0,0,0,0,0,0,0,0,0,0,0,0,0,0,0,0,0,0,0,0,0,0,0,0,0,1152,1130,1133,1182,1238,1419,1612,1771,1879,1810,1800,1834,1780,1800,1791,1674,1627,1633,1604,1638,1545,1483,1486,1457,1413,1384,1369,1311,1282,1280,1238,1269,1167,1158,1174,1189,1133,1162,1193,1192,1199,1195,1204,1212,1235,1233,1206,1235,1239,1241,1253,1256,1256,1271,1237,1233,1223,1227,1218,1236,1228,1230,1220,1249,1246,665,667,669,692,690,814,863,964,1091,1099,1133,1115,1098,1105,1074,1068,1049,999,981,963,945,956,909,868,850,833,815,798,780,808,780,771,729,725,720,675,677,706,683,693,701,715,702,708,698,713,692,706,695,692,694,706,707,707,707,705,701,703,713,703,699,695,692,706,694,722,724,726,728,752,854,938,1046,1137,1182,1178,1159,1141,1122,1130,1111,1092,1073,1054,1035,1016,997,978,936,917,918,880,892,843,824,826,806,787,768,755,733,734,736,748,743,748,746,748,743,747,753,751,752,744,751,754,767,759,760,755,760,755,753,752,770,759,761,747,752,755,1452,1446,1453,1552,1693,1986,2200,2285,2317,2295,2274,2273,2260,2201,2260,2141,2163,2047,2058,1978,1972,1844,1879,1805,1790,1770,1735,1684,1618,1597,1643,1527,1614,1463,1451,1461,1486,1464,1549,1600,1554,1573,1586,1574,1582,1593,1579,1588,1595,1573,1594,1593,1597,1601,1613,1611,1601,1596,1640,1586,1600,1616,1632,1617,1601,1152,1114,1120,1154,1323,1383,1567,1727,1764,1858,1806,1776,1740,1739,1692,1653,1702,1592,1564,1592,1512,1470,1470,1421,1418,1428,1340,1333,1271,1301,1221,1195,1189,1187,1134,1132,1154,1168,1174,1162,1162,1173,1269,1249,1211,1234,1208,1303,1252,1243,1252,1199,1206,1252,1248,1205,1271,1236,1216,1275,1248,1296,1283,1304,1261,1324,1384,1347,1469,1753,2199,2397,2532,2554,2532,2506,2501,2518,2419,2462,2351,2343,2247,2257,2165,2105,2028,2060,2036,1867,1807,1748,1688,1629,1569,1510,1467,1399,1364,1352,1362,1377,1393,1471,1482,1455,1468,1463,1497,1473,1496,1513,1568,1487,1521,1503,1513,1494,1550,1520,1488,1496,1476,1493,1532,1502,1529,1519,1522,1489,1210,1187,1193,1250,1316,1509,1709,1866,1972,1901,1890,1923,1867,1885,1875,1757,1709,1713,1682,1714,1620,1557,1558,1527,1482,1451,1435,1376,1346,1342,1299,1327,1225,1216,1233,1248,1191,1221,1252,1256,1252,1269,1283,1261,1256,1288,1259,1288,1264,1300,1287,1295,1280,1305,1298,1322,1294,1292,1294,1314,1321,1297,1309,1304,1327,1482,1527,1515,1580,1735,1993,2189,2336,2353,2334,2316,2324,2254,2249,2241,2206,2115,2075,2038,2000,1986,1907,1902,1851,1812,1795,1739,1688,1662,1626,1600,1552,1530,1512,1539,1585,1536,1496,1595,1605,1631,1651,1677,1658,1643,1654,1636,1646,1628,1620,1634,1643,1643,1652,1675,1666,1627,1635,1646,1644,1647,1659,1685,1693,1652,731,762,735,737,813,908,1027,1145,1208,1190,1191,1228,1208,1134,1152,1145,1153,1197,1102,1054,1133,975,1024,947,957,947,927,871,853,834,863,828,779,794,798,741,794,767,767,761,774,794,785,777,778,783,785,790,792,783,789,817,839,822,810,795,778,797,784,778,774,800,785,805,777,1607,1613,1668,1836,2183,2358,2530,2679,2728,2662,2670,2645,2618,2621,2579,2504,2446,2402,2376,2319,2299,2217,2207,2152,2103,2105,2055,1955,1927,1862,1797,1735,1684,1649,1638,1649,1665,1731,1805,1817,1822,1843,1877,1885,1855,1874,1876,1894,1916,1915,1912,1947,1941,1960,1954,1963,1977,1989,1996,1994,2014,2019,2027,2042,2057,1364,1367,1382,1479,1730,2125,2456,2704,2709,2708,2670,2613,2640,2501,2445,2389,2333,2276,2298,2164,2108,2052,2070,1939,1883,1827,1771,1715,1659,1602,1546,1490,1439,1402,1400,1396,1409,1423,1484,1490,1505,1539,1513,1543,1511,1522,1507,1517,1532,1506,1511,1520,1517,1542,1532,1541,1513,1524,1532,1519,1516,1502,1521,1551,1504,1195,1150,1209,1172,1275,1464,1733,1818,1893,1936,1893,1872,1816,1872,1863,1760,1729,1666,1732,1594,1623,1479,1561,1452,1446,1434,1401,1343,1312,1345,1264,1310,1214,1219,1203,1164,1161,1190,1208,1251,1214,1223,1241,1223,1230,1236,1238,1236,1244,1230,1245,1237,1241,1243,1251,1256,1253,1252,1281,1235,1257,1267,1285,1267,1256,258,259,260,261,261,274,310,346,383,419,432,425,418,411,404,397,390,383,377,370,363,356,349,342,335,328,321,315,308,301,294,287,280,273,266,262,263,263,253,258,250,255,272,263,268,274,258,270,264,268,264,256,258,266,265,257,268,258,256,264,259,270,264,268,257,653,655,657,659,676,745,844,943,1031,1073,1076,1058,1041,1024,1007,990,972,955,938,921,904,886,886,852,835,818,801,783,766,749,732,715,697,680,666,663,665,666,656,663,660,675,660,666,667,670,672,672,662,666,661,667,668,668,672,680,669,666,669,667,677,678,669,671,668,711,675,677,679,698,769,908,1031,1091,1169,1157,1119,1101,1114,1093,1064,1015,1016,963,945,998,910,893,875,858,885,823,805,788,817,797,735,768,700,696,683,685,686,687,699,700,715,713,706,705,726,708,720,717,728,745,717,739,777,715,705,720,713,713,712,715,720,708,716,709,494,431,497,492,496,470,533,633,657,705,749,701,690,715,667,656,645,633,622,649,599,588,577,565,554,543,531,520,508,497,486,474,463,452,441,436,437,439,434,435,438,439,441,444,438,445,439,442,438,442,439,461,447,448,444,454,448,448,448,452,447,449,433,444,439,758,761,773,792,799,884,1007,1174,1209,1248,1258,1227,1206,1184,1167,1217,1143,1108,1100,1067,1065,1028,1004,1004,1033,964,945,925,889,883,892,841,808,788,776,782,775,778,762,767,776,799,784,770,775,782,776,783,772,776,777,782,777,779,791,791,794,789,784,787,787,817,817,820,820,750,738,755,757,787,873,1021,1097,1196,1227,1228,1220,1197,1209,1188,1128,1121,1101,1074,1087,1059,1012,1017,982,929,943,934,895,875,862,808,824,787,798,774,770,753,755,778,776,745,744,791,772,767,766,768,770,816,785,804,794,795,791,794,797,790,808,846,798,787,789,844,806,777,562,578,566,567,577,647,734,825,903,946,956,935,920,910,889,876,864,844,834,815,798,787,770,753,742,722,707,692,677,684,648,632,617,600,589,583,585,588,586,586,592,585,590,599,623,610,588,603,607,607,601,598,602,615,603,605,601,595,596,595,598,600,596,622,607,503,504,506,507,512,558,632,707,781,828,834,821,807,794,807,767,754,741,727,714,701,687,674,661,647,634,620,607,594,580,567,554,540,527,523,510,512,513,501,500,511,526,514,521,500,516,503,506,509,510,507,513,521,531,523,525,510,515,517,521,526,523,522,531,521,429,432,431,433,435,470,535,596,658,701,707,702,687,676,668,654,646,635,620,612,598,586,575,567,556,545,529,519,508,500,486,477,463,452,441,437,440,439,437,437,434,437,435,441,437,438,439,437,439,432,435,434,437,439,440,438,437,437,438,444,435,446,437,442,440,1077,1043,1091,1130,1174,1292,1437,1555,1662,1685,1655,1629,1625,1654,1572,1572,1523,1496,1472,1442,1396,1370,1344,1334,1291,1265,1260,1260,1201,1161,1168,1148,1123,1122,1079,1058,1060,1064,1101,1074,1087,1083,1128,1120,1097,1097,1100,1112,1164,1143,1143,1143,1154,1136,1165,1136,1126,1160,1174,1149,1136,1135,1166,1189,1157,442,444,471,446,448,482,543,605,667,715,724,713,702,691,679,668,657,645,686,623,611,600,637,578,566,555,544,532,521,551,499,487,476,502,454,449,450,451,445,455,455,462,461,462,456,465,452,472,456,455,463,463,477,487,472,465,467,461,473,470,469,475,462,469,462,1391,1392,1401,1481,1666,1898,2161,2335,2377,2419,2368,2327,2288,2246,2241,2137,2122,2084,2081,2036,1934,1931,1909,1812,1816,1765,1747,1710,1660,1569,1532,1490,1444,1414,1421,1408,1421,1426,1519,1502,1494,1512,1509,1542,1514,1519,1544,1603,1525,1552,1562,1558,1542,1556,1558,1534,1520,1541,1540,1555,1562,1573,1560,1562,1531,728,730,758,735,760,840,952,1063,1153,1194,1195,1176,1157,1138,1231,1100,1081,1062,1152,1024,1004,985,1013,947,928,909,890,871,852,873,814,795,775,793,743,739,741,743,748,749,747,761,762,754,760,766,759,766,771,776,853,850,858,799,768,762,771,771,762,770,774,763,763,768,764,732,664,736,734,762,757,858,958,1045,1086,1088,1071,1053,1036,1019,1001,984,967,949,932,915,897,880,863,846,828,811,794,776,759,742,724,743,721,676,672,674,676,677,676,680,692,694,693,705,684,684,694,698,682,691,695,690,686,726,716,689,691,684,686,687,699,708,698,689,431,367,433,427,429,396,448,500,553,598,608,598,589,579,569,560,550,540,531,521,511,502,492,482,473,463,454,444,434,425,415,405,396,386,376,372,373,374,356,364,362,379,370,369,365,372,364,366,369,368,363,360,361,364,363,363,368,365,361,366,361,374,364,366,362,396,397,399,400,401,433,495,553,611,658,660,656,642,631,624,613,603,592,578,571,557,549,534,528,517,507,491,482,475,464,453,443,429,419,408,404,407,406,409,399,400,404,409,406,409,402,408,409,409,404,415,410,410,402,402,414,407,415,400,401,411,408,404,401,396,1211,1222,1261,1291,1429,1632,1928,2177,2129,2173,2162,2084,2102,2042,2002,1961,1931,1881,1816,1798,1729,1721,1696,1641,1601,1576,1492,1545,1440,1441,1360,1320,1392,1225,1294,1241,1248,1230,1291,1341,1299,1314,1326,1315,1313,1329,1322,1322,1336,1314,1323,1326,1330,1337,1341,1350,1342,1340,1375,1328,1344,1366,1371,1355,1342,677,679,681,683,703,776,880,983,1071,1113,1114,1096,1079,1061,1043,1025,1007,990,972,954,936,918,917,883,865,847,829,812,794,776,758,740,723,705,691,687,689,691,670,675,685,693,690,698,679,697,680,712,691,690,693,695,709,725,707,700,708,698,708,712,708,715,693,701,698,1304,1300,1287,1351,1498,1685,1808,1964,2047,2148,2020,2058,1972,1941,1916,1939,1895,1829,1762,1782,1759,1665,1633,1586,1568,1536,1503,1494,1494,1406,1399,1362,1311,1345,1338,1344,1332,1299,1397,1349,1349,1380,1343,1372,1345,1369,1371,1380,1369,1371,1382,1363,1401,1384,1419,1372,1386,1380,1363,1379,1384,1369,1382,1390,1369,0,0,0,0,0,0,0,0,0,0,0,0,0,0,0,0,0,0,0,0,0,0,0,0,0,0,0,0,0,0,0,0,0,0,0,0,0,0,0,0,0,0,0,0,0,0,0,0,0,0,0,0,0,0,0,0,0,0,0,0,0,0,0,0,0,694,692,707,768,800,793,956,1012,1101,1141,1239,1183,1107,1133,1070,1052,1027,1016,1046,990,961,936,969,900,887,878,845,832,814,791,844,767,736,758,705,705,707,709,718,713,723,741,728,729,723,730,730,733,741,724,737,766,786,768,761,741,721,748,729,723,718,752,736,751,724,520,521,549,525,529,574,649,723,798,845,853,839,826,812,799,786,772,759,856,732,719,705,740,678,665,652,638,625,612,639,585,571,558,582,532,528,529,530,531,542,538,542,557,541,549,547,542,540,544,549,541,555,555,565,610,601,555,557,554,542,541,539,563,553,542,464,466,467,469,471,510,577,644,710,758,766,753,741,729,744,705,693,681,669,657,645,632,620,608,596,584,572,560,548,536,524,511,499,487,485,471,473,474,458,464,472,481,475,485,465,481,465,494,472,467,475,478,491,504,487,479,486,473,487,488,483,490,469,478,471,687,686,692,694,715,791,862,1010,1069,1126,1128,1122,1091,1085,1067,1014,1031,1013,987,976,917,930,913,904,846,868,838,822,799,795,735,732,723,717,703,699,690,691,700,707,700,707,714,702,706,710,698,703,702,702,700,709,708,708,705,706,707,703,712,718,706,713,700,706,707,584,586,588,589,600,658,746,833,917,961,965,950,934,919,903,888,873,857,842,826,868,795,797,765,749,734,718,703,687,672,657,641,626,610,597,593,594,596,591,594,598,594,600,611,608,600,605,600,606,600,603,601,608,618,613,621,608,608,610,608,608,606,609,611,601,59,59,59,59,59,60,68,76,84,92,99,98,96,95,93,91,90,88,87,85,83,82,80,79,77,75,74,72,71,69,67,66,64,63,61,60,60,60,35,35,34,34,34,37,35,35,35,36,35,36,36,35,36,36,42,35,35,37,35,36,35,34,36,35,35,631,648,625,627,651,712,840,894,979,1022,1025,1009,992,1014,986,982,928,912,896,877,861,845,832,816,795,785,769,753,730,713,697,689,664,648,654,630,632,634,631,637,633,645,645,641,649,659,631,647,639,636,645,652,648,645,668,652,638,637,651,644,632,641,642,649,639,603,617,575,608,620,640,724,809,933,935,941,917,911,888,881,866,889,836,821,842,791,776,761,747,764,717,702,718,672,657,671,655,649,597,584,580,581,628,603,595,596,593,601,599,603,601,606,601,600,602,611,607,613,607,603,613,600,608,608,605,607,609,605,602,599,850,865,838,842,876,947,1015,1141,1196,1238,1241,1223,1235,1189,1227,1155,1139,1152,1134,1114,1096,1078,1039,1046,1024,1011,994,1007,951,933,943,935,879,861,866,844,864,848,858,860,856,870,869,871,863,881,855,863,862,860,861,881,873,871,870,876,873,873,890,891,867,877,866,871,868,868,864,873,877,923,1026,1161,1296,1381,1407,1413,1391,1368,1336,1323,1292,1278,1247,1233,1211,1184,1166,1160,1183,1099,1072,1054,1031,1009,986,964,941,913,897,884,881,883,885,888,890,900,899,911,950,902,919,921,920,947,919,921,927,922,930,912,915,913,924,908,917,920,931,920,929,934,258,259,260,261,261,274,310,346,383,419,432,425,418,411,404,397,390,383,377,370,363,356,349,342,335,328,321,315,308,301,294,287,280,273,266,262,263,263,253,258,250,255,272,263,268,274,258,270,264,268,264,256,258,266,265,257,268,258,256,264,259,270,264,268,257,553,554,575,590,586,619,701,784,857,909,914,951,935,898,856,841,826,812,797,783,768,753,739,765,733,695,680,681,672,657,622,627,593,585,584,580,559,564,570,576,593,572,575,595,576,578,579,607,610,601,603,600,598,593,592,592,577,594,608,593,594,586,585,588,610,1063,1076,1092,1144,1227,1336,1518,1658,1740,1731,1743,1790,1740,1681,1635,1612,1574,1549,1493,1491,1466,1432,1406,1470,1368,1321,1292,1279,1252,1227,1179,1218,1160,1103,1108,1101,1086,1092,1137,1139,1095,1090,1133,1116,1123,1130,1127,1145,1184,1131,1142,1154,1156,1157,1133,1162,1168,1173,1206,1168,1150,1157,1208,1141,1145,942,910,907,939,941,1082,1223,1357,1451,1490,1519,1500,1415,1423,1418,1351,1341,1328,1345,1273,1254,1216,1183,1184,1134,1136,1114,1140,1052,1013,1036,983,987,961,918,929,917,967,957,938,945,944,976,1019,961,982,989,1008,1014,1029,1023,1029,990,1009,1000,986,997,996,1007,1067,1027,1042,1029,1023,1034,601,602,604,606,618,679,769,859,943,986,1030,975,1009,988,927,911,896,880,864,848,832,817,801,785,797,753,738,793,706,712,675,692,643,679,639,610,611,613,617,608,607,608,629,632,621,625,625,633,639,644,655,653,649,644,653,637,647,657,667,676,659,668,684,694,670,590,592,595,596,606,684,808,840,923,1082,1013,976,942,986,911,895,880,920,894,833,818,802,819,772,756,755,740,710,696,692,719,648,658,617,630,600,601,605,617,603,602,654,615,622,603,614,618,623,637,626,630,619,610,626,647,619,614,623,622,628,623,614,630,641,613,690,688,689,696,718,791,885,989,1083,1174,1191,1109,1091,1078,1060,1037,1019,1001,1047,965,947,934,944,893,871,876,840,839,808,786,768,749,754,714,726,699,769,704,721,729,715,735,728,731,733,758,724,724,730,736,732,728,728,731,732,732,729,736,731,735,721,738,729,732,718,774,769,779,774,808,900,1020,1147,1221,1270,1264,1258,1242,1164,1182,1173,1155,1150,1097,1081,1071,1068,1047,1010,981,965,942,956,894,887,861,829,820,826,789,781,783,795,791,784,787,787,787,784,792,789,793,789,789,790,797,799,800,798,795,797,798,799,799,808,802,808,797,794,801,878,890,908,932,980,1053,1193,1331,1420,1417,1441,1490,1444,1390,1349,1332,1299,1279,1233,1232,1213,1184,1164,1184,1137,1095,1072,1064,1042,1023,980,979,931,919,919,912,895,901,916,907,915,916,913,912,924,931,917,919,916,919,923,929,932,930,931,928,924,930,943,936,927,938,923,921,927,504,506,507,509,514,558,631,704,777,824,830,817,855,791,778,765,751,738,725,712,699,686,673,660,647,633,620,646,594,581,568,609,542,581,516,512,513,515,513,509,513,518,519,518,522,518,519,527,521,523,527,540,544,537,545,533,529,541,532,525,538,531,531,537,527,1297,1238,1246,1300,1486,1544,1815,1964,2028,2046,1981,1987,1911,1903,1853,1818,1769,1751,1707,1695,1658,1643,1596,1612,1539,1496,1480,1466,1443,1381,1349,1333,1289,1287,1365,1283,1254,1306,1314,1346,1342,1341,1359,1344,1355,1380,1350,1343,1365,1332,1351,1350,1368,1373,1428,1441,1394,1351,1356,1343,1338,1334,1353,1399,1326,316,317,318,319,320,364,408,453,497,539,585,548,534,525,522,509,500,497,452,479,467,459,453,442,436,426,419,409,401,393,384,349,341,359,325,321,321,322,314,319,318,319,317,314,323,319,323,320,316,319,315,320,318,322,324,330,317,316,318,323,327,326,319,317,317,1629,1650,1700,1861,2100,2369,2574,2667,2716,2764,2752,2655,2588,2540,2508,2440,2411,2364,2381,2267,2218,2232,2311,2076,2031,2000,2011,1893,1868,1818,1745,1721,1691,1687,1662,1650,1650,1686,1813,1850,1818,1857,1872,1841,1850,1885,1836,1865,1847,1870,1857,1879,1874,1888,1979,1942,1889,1872,1881,1857,1868,1876,1897,1880,1893,393,394,395,396,398,441,500,558,617,664,653,663,656,641,631,620,613,599,588,577,566,556,545,534,523,513,502,491,480,470,459,434,424,414,403,399,403,401,396,402,400,408,409,408,414,408,400,411,404,402,408,414,408,409,431,418,408,410,411,403,410,410,404,411,402,885,857,859,865,911,1012,1146,1276,1359,1459,1400,1386,1368,1340,1304,1342,1260,1251,1215,1276,1184,1202,1139,1116,1122,1065,1037,1149,1029,970,949,1005,905,912,878,867,869,881,896,882,877,884,899,925,888,902,901,940,894,893,892,897,898,894,905,904,896,902,891,906,904,904,897,909,897,567,569,549,583,567,630,721,788,868,922,927,920,911,874,868,861,830,831,816,801,786,771,757,742,717,706,710,711,658,638,637,602,619,612,577,565,577,579,576,571,568,577,590,603,608,595,583,603,605,596,600,579,587,617,618,587,593,596,578,600,588,598,600,615,586,472,473,475,476,480,521,590,660,729,777,784,771,810,746,734,721,709,696,683,671,658,646,633,621,608,596,583,609,558,545,533,574,508,548,483,479,480,482,472,475,478,502,476,487,475,485,476,473,481,479,470,476,477,483,478,486,481,483,481,483,479,495,473,486,479,1720,1696,1794,2011,2316,2553,2724,2825,2936,2902,2892,2887,2832,2718,2667,2611,2560,2496,2452,2401,2358,2303,2231,2217,2188,2078,2027,1982,1974,1890,1867,1795,1730,1720,1756,1754,1798,1735,1991,1998,1952,1962,1996,1984,1991,2003,1999,2009,2057,2008,2019,2031,2032,2037,2017,2047,2057,2057,2092,2045,2042,2048,2101,2037,2044,1088,1100,1116,1172,1259,1373,1559,1697,1778,1769,1781,1827,1776,1717,1670,1647,1608,1582,1525,1523,1498,1463,1437,1499,1397,1349,1320,1306,1278,1253,1204,1243,1184,1128,1132,1126,1110,1117,1144,1149,1145,1198,1145,1184,1152,1182,1174,1175,1193,1160,1177,1165,1167,1185,1179,1177,1176,1173,1183,1170,1179,1182,1181,1216,1192,825,820,812,864,896,943,1066,1266,1305,1396,1297,1277,1293,1268,1217,1264,1176,1189,1165,1179,1124,1103,1056,1083,1015,995,999,982,961,911,894,899,875,855,843,840,871,812,840,843,832,843,839,862,840,855,855,991,845,841,837,846,858,825,847,850,841,854,830,836,850,848,835,847,837,515,517,518,520,526,573,649,726,801,847,853,840,826,813,799,785,772,758,744,731,717,703,690,676,663,649,635,622,649,632,581,567,554,540,527,523,525,526,519,511,524,553,533,525,532,534,531,539,540,531,541,564,571,560,583,546,527,541,533,532,524,547,539,554,534,0,0,0,0,0,0,0,0,0,0,0,0,0,0,0,0,0,0,0,0,0,0,0,0,0,0,0,0,0,0,0,0,0,0,0,0,0,0,0,0,0,0,0,0,0,0,0,0,0,0,0,0,0,0,0,0,0,0,0,0,0,0,0,0,0,393,394,396,397,398,453,510,567,623,670,774,762,659,648,643,627,617,611,565,589,575,565,557,544,536,523,514,502,492,482,471,434,424,440,404,399,400,401,415,396,394,397,394,401,399,401,400,396,401,395,395,396,396,397,401,402,399,399,400,402,396,409,397,404,401,839,851,870,890,931,997,1128,1260,1351,1350,1375,1425,1381,1328,1288,1272,1240,1222,1176,1177,1159,1131,1112,1134,1088,1047,1025,1019,998,980,938,938,892,880,880,873,856,861,866,881,882,885,898,897,897,900,882,894,888,890,885,896,905,915,904,913,896,902,908,893,889,883,894,901,881,718,677,675,682,701,773,870,972,1060,1157,1239,1091,1069,1061,1039,1079,1003,981,1050,1004,932,919,984,875,858,877,823,842,792,821,756,734,743,700,711,685,688,693,684,679,685,701,686,699,685,695,706,691,693,686,686,693,686,687,690,695,693,698,690,691,695,706,699,709,700,978,990,1006,1048,1118,1213,1380,1522,1606,1600,1614,1664,1615,1580,1514,1514,1477,1434,1379,1399,1357,1324,1301,1317,1266,1221,1195,1183,1158,1135,1089,1147,1090,1017,1022,1015,999,1005,1031,1032,1020,1021,1073,1129,1047,1052,1058,1080,1055,1060,1049,1052,1050,1063,1067,1059,1076,1057,1046,1088,1066,1076,1088,1057,1052,573,574,576,578,588,644,730,816,899,943,948,932,917,902,887,872,857,841,826,811,796,781,766,750,735,720,705,690,715,697,644,629,614,599,585,581,583,585,585,584,582,594,637,625,625,617,601,645,629,618,621,595,599,634,617,603,626,603,592,621,611,637,621,636,608,956,912,889,911,946,1115,1208,1419,1419,1455,1451,1460,1460,1361,1406,1337,1293,1291,1268,1245,1222,1199,1177,1154,1114,1108,1085,1148,1024,1001,1009,956,961,975,900,897,891,940,905,897,913,915,902,921,912,914,916,923,940,927,923,928,928,939,929,932,920,932,932,931,936,930,928,953,952,141,141,142,142,143,146,164,182,201,219,232,229,225,222,218,214,211,207,204,200,196,193,189,186,182,178,175,171,168,164,160,157,153,150,146,143,143,144,129,127,128,129,129,129,129,131,128,132,132,131,131,132,131,129,131,132,133,133,132,131,133,133,132,132,132,1195,1219,1157,1202,1263,1495,1550,1763,1760,1791,1841,1824,1785,1684,1778,1652,1605,1628,1600,1547,1520,1519,1491,1476,1420,1410,1382,1440,1313,1286,1288,1217,1230,1244,1208,1166,1162,1212,1226,1223,1269,1535,1275,1208,1258,1353,1294,1229,1328,1303,1252,1260,1340,1315,1306,1216,1252,1244,1294,1296,1235,1275,1238,1242,1261,1263,1276,1297,1372,1528,1640,1855,1970,2048,2042,2049,2081,2028,1984,1921,1909,1871,1820,1760,1767,1716,1678,1654,1662,1605,1554,1515,1539,1470,1466,1387,1433,1396,1304,1309,1355,1289,1295,1375,1372,1359,1390,1380,1374,1388,1398,1383,1372,1380,1394,1398,1379,1384,1387,1384,1396,1379,1392,1378,1382,1378,1397,1388,1383,1365,553,554,575,590,586,619,701,784,857,909,914,951,935,898,856,841,826,812,797,783,768,753,739,765,733,695,680,681,672,657,622,627,593,585,584,580,559,564,570,576,593,572,575,595,576,578,579,607,610,601,603,600,598,593,592,592,577,594,608,593,594,586,585,588,610,720,712,715,707,741,817,926,1035,1123,1165,1152,1149,1130,1112,1108,1075,1055,1051,1019,1000,981,963,944,913,894,876,869,851,843,824,795,776,757,729,725,711,723,725,721,724,733,776,732,721,740,753,741,733,781,759,728,747,778,787,787,746,740,753,775,741,735,759,736,735,726,1167,1173,1178,1221,1325,1489,1685,1876,1889,1912,1980,1875,1898,1813,1777,1804,1716,1689,1658,1627,1596,1565,1531,1503,1571,1438,1407,1378,1345,1367,1285,1252,1224,1203,1243,1188,1190,1245,1230,1235,1246,1262,1274,1253,1251,1281,1245,1258,1251,1243,1243,1259,1269,1283,1442,1378,1279,1266,1264,1251,1245,1243,1264,1268,1248,1148,1158,1163,1221,1292,1481,1657,1844,1797,1866,1863,1831,1780,1759,1730,1737,1680,1689,1667,1594,1564,1535,1525,1446,1492,1418,1384,1357,1325,1330,1286,1268,1209,1187,1190,1172,1165,1171,1241,1241,1233,1259,1289,1282,1262,1259,1276,1307,1279,1317,1315,1309,1256,1260,1285,1295,1296,1273,1315,1360,1309,1302,1319,1288,1288,869,857,866,899,918,1050,1184,1374,1409,1435,1407,1417,1367,1338,1315,1293,1270,1273,1226,1195,1210,1221,1136,1106,1091,1114,1083,1079,1022,999,957,934,912,890,897,912,869,872,891,889,891,898,884,891,913,946,900,917,911,892,891,911,947,948,946,905,912,917,934,935,915,916,901,908,899,926,867,937,859,905,1056,1196,1304,1349,1453,1418,1473,1344,1311,1342,1277,1290,1284,1211,1186,1217,1142,1120,1100,1078,1054,1081,1052,1034,1009,946,921,901,878,865,964,859,893,875,881,892,916,901,901,892,915,888,920,907,917,948,939,967,962,909,906,922,919,916,906,922,937,906,912,904,984,966,961,962,1021,1193,1357,1463,1511,1603,1579,1578,1487,1459,1438,1435,1450,1417,1340,1315,1338,1262,1242,1217,1193,1168,1190,1143,1142,1114,1046,1037,993,971,977,999,971,985,986,975,973,978,1038,1045,1015,1023,1011,1067,1043,1022,1043,1014,1015,1053,1053,1011,1054,1028,1024,1072,1042,1075,1069,1107,1050,1000,1034,1037,1054,1130,1260,1473,1649,1611,1700,1673,1645,1589,1551,1572,1564,1509,1523,1468,1434,1404,1420,1319,1322,1267,1251,1282,1254,1208,1192,1156,1081,1102,1058,1023,1039,1042,1052,1038,1032,1043,1049,1054,1043,1050,1066,1054,1060,1063,1066,1147,1137,1091,1069,1091,1116,1105,1175,1170,1080,1107,1191,1196,1160,1095,981,987,990,1003,1071,1194,1354,1578,1572,1602,1660,1575,1695,1524,1499,1612,1444,1422,1396,1370,1345,1319,1291,1268,1242,1214,1188,1165,1137,1114,1089,1060,1037,1015,1055,999,999,1100,1042,1028,1039,1060,1044,1050,1043,1051,1050,1058,1061,1039,1054,1084,1105,1083,1083,1066,1040,1067,1047,1044,1037,1075,1058,1074,1046,764,760,769,809,802,910,1030,1226,1196,1276,1250,1257,1260,1189,1169,1149,1129,1135,1090,1061,1074,1093,1011,983,971,991,968,932,912,892,852,832,812,793,779,794,771,773,777,791,792,794,806,806,805,807,793,801,797,791,795,806,813,821,812,822,804,810,818,802,798,792,806,812,791,1493,1511,1597,1645,1788,1968,2227,2336,2319,2422,2413,2336,2253,2303,2202,2178,2162,2158,2092,2034,2002,2007,1937,1868,1860,1859,1824,1790,1714,1705,1662,1622,1569,1536,1537,1554,1540,1529,1642,1643,1646,1651,1664,1672,1692,1679,1673,1673,1692,1690,1725,1711,1740,1753,1688,1700,1696,1715,1704,1696,1704,1681,1694,1732,1678,209,210,211,211,212,217,244,270,297,323,340,335,330,325,319,314,309,304,299,294,289,283,278,273,268,263,258,253,247,242,237,232,227,222,217,212,213,213,202,204,203,207,207,205,205,212,201,208,205,203,204,208,208,205,207,207,204,204,209,205,203,204,203,205,203,1574,1584,1644,1820,2376,2892,3038,3136,3154,3163,3137,3056,2993,2884,2921,2820,2805,2745,2658,2506,2510,2471,2444,2277,2253,2168,2037,1966,1899,1894,1779,1713,1752,1699,1654,1718,1716,1746,1904,1899,1918,1989,1924,1966,1918,1942,1927,1949,1969,1942,1932,1935,1943,1965,1978,1965,1947,1956,1961,1954,1938,1917,1966,1979,1919,222,223,224,224,225,233,264,295,326,356,372,366,360,354,348,342,336,331,325,319,313,307,301,295,289,283,277,271,266,260,254,248,242,236,230,226,226,227,213,210,213,216,217,222,211,218,216,211,215,216,215,216,218,226,223,222,212,220,217,222,223,219,222,226,222,1114,1111,1156,1239,1289,1389,1616,1757,1749,1836,1802,1774,1719,1842,1685,1670,1628,1685,1626,1544,1515,1600,1455,1428,1496,1414,1377,1389,1303,1284,1269,1196,1169,1230,1133,1181,1128,1141,1195,1199,1250,1505,1250,1187,1236,1335,1276,1210,1313,1279,1228,1235,1312,1296,1279,1197,1215,1226,1261,1269,1199,1253,1219,1223,1231,805,812,821,810,868,962,1130,1267,1268,1363,1336,1317,1269,1254,1249,1243,1191,1226,1179,1147,1125,1133,1079,1060,1040,1057,1034,1006,972,962,920,887,866,845,832,842,824,837,829,838,832,846,838,835,848,860,835,835,837,844,839,836,837,841,846,843,845,840,840,843,841,870,867,877,861,731,727,736,775,766,870,986,1179,1149,1229,1204,1212,1215,1145,1126,1106,1087,1093,1049,1021,1034,1054,972,944,933,954,932,896,877,857,818,798,779,760,746,761,738,740,758,748,748,756,755,767,754,764,755,752,758,749,758,754,760,770,767,762,753,764,762,764,762,774,763,774,763,1802,1838,1930,2194,2413,2716,2915,3008,3054,3041,3156,2929,2880,2873,2765,2740,2685,2690,2588,2503,2508,2420,2412,2283,2264,2205,2212,2218,2020,1987,1942,1902,1878,1950,1892,1842,1853,1860,2169,2187,2192,2210,2240,2268,2233,2262,2255,2272,2293,2294,2314,2353,2320,2346,2330,2363,2394,2383,2419,2384,2399,2445,2432,2425,2392,1192,1198,1203,1250,1358,1528,1726,1915,1928,1950,2018,1911,1934,1848,1812,1838,1750,1722,1690,1659,1627,1595,1561,1532,1599,1466,1434,1406,1371,1393,1311,1277,1249,1227,1268,1213,1214,1269,1267,1259,1268,1272,1262,1280,1274,1283,1279,1277,1299,1282,1282,1285,1285,1302,1294,1299,1285,1294,1292,1291,1298,1300,1292,1322,1307,834,781,804,808,896,938,1063,1256,1329,1387,1338,1299,1277,1236,1200,1210,1210,1134,1180,1186,1082,1108,1036,1041,1020,1003,981,974,913,892,897,876,831,831,794,793,825,827,798,802,810,823,812,820,810,829,804,817,810,804,807,815,818,822,822,822,808,810,821,813,808,806,808,828,812,563,567,569,568,579,632,716,800,882,924,931,920,901,890,875,857,842,830,815,800,786,771,753,741,726,708,693,681,663,651,636,619,606,591,578,574,573,577,572,571,570,578,623,613,614,606,590,632,616,606,607,583,587,622,603,591,614,591,580,608,600,625,608,624,596,305,306,307,308,309,326,369,413,456,498,511,503,495,487,478,470,462,454,446,437,429,421,413,405,397,388,380,372,364,356,347,339,331,323,315,310,311,312,304,302,302,302,304,301,303,302,303,303,303,302,307,304,305,310,308,307,304,304,305,307,310,309,305,305,308,0,0,0,0,0,0,0,0,0,0,0,0,0,0,0,0,0,0,0,0,0,0,0,0,0,0,0,0,0,0,0,0,0,0,0,0,0,0,0,0,0,0,0,0,0,0,0,0,0,0,0,0,0,0,0,0,0,0,0,0,0,0,0,0,0,943,948,951,960,1020,1135,1285,1509,1504,1535,1595,1511,1632,1462,1438,1552,1385,1364,1340,1316,1291,1267,1239,1218,1193,1166,1142,1120,1093,1071,1047,1051,998,976,1016,960,960,1060,980,978,983,999,988,1000,982,990,1009,991,988,984,985,998,986,986,997,996,990,996,986,1003,998,1007,1005,1012,1000,973,965,968,947,1003,1173,1339,1451,1488,1585,1617,1561,1465,1433,1417,1439,1449,1402,1321,1297,1329,1248,1224,1200,1180,1152,1178,1131,1174,1099,1031,1046,983,961,980,988,957,978,965,958,973,974,965,983,971,977,980,985,1004,990,988,991,992,1004,994,998,983,998,997,997,1004,999,997,1024,1021,1082,1088,1091,1122,1213,1362,1548,1767,1757,1782,1836,1749,1796,1691,1657,1707,1600,1574,1545,1516,1487,1458,1426,1400,1371,1339,1310,1284,1252,1276,1196,1165,1138,1117,1157,1102,1103,1174,1145,1141,1149,1189,1167,1175,1172,1151,1159,1175,1161,1166,1164,1166,1173,1183,1176,1173,1175,1174,1172,1169,1165,1176,1169,1188,1158,620,624,626,626,642,704,798,892,979,1020,1025,1012,992,979,963,943,926,913,897,880,864,848,828,815,798,779,762,749,730,716,699,680,666,650,636,632,631,635,626,628,632,642,647,657,653,674,659,652,669,657,652,652,648,678,649,640,657,656,647,651,653,657,647,655,646,1092,1106,1120,1147,1259,1372,1552,1763,1763,1789,1828,1786,1816,1700,1671,1782,1611,1588,1557,1570,1500,1504,1445,1407,1391,1361,1325,1300,1277,1242,1214,1175,1182,1175,1163,1119,1120,1221,1164,1204,1156,1166,1184,1166,1176,1192,1181,1181,1212,1179,1183,1193,1195,1199,1183,1207,1207,1197,1220,1166,1196,1204,1225,1184,1183,448,450,451,453,455,518,581,644,683,731,723,729,718,700,688,683,651,639,671,636,648,612,626,614,577,565,580,568,530,505,494,495,483,471,489,455,452,454,444,446,442,457,444,452,447,453,450,454,450,449,452,450,454,452,454,457,457,455,456,450,460,461,456,458,458,1306,1320,1390,1375,1465,1587,1770,1979,1978,2033,2120,2060,2084,1940,1912,2021,1878,1824,1792,1803,1731,1681,1673,1634,1617,1584,1547,1520,1495,1460,1413,1389,1400,1389,1389,1333,1334,1446,1422,1425,1382,1376,1426,1405,1417,1421,1419,1424,1480,1429,1436,1452,1451,1456,1430,1457,1468,1471,1504,1459,1448,1455,1510,1436,1440,1394,1373,1389,1456,1602,1805,2013,2220,2203,2221,2266,2173,2212,2094,2061,2103,1991,1958,1914,1911,1851,1809,1783,1768,1700,1663,1633,1593,1562,1578,1493,1454,1419,1398,1439,1391,1393,1483,1482,1468,1470,1489,1497,1526,1513,1534,1509,1520,1549,1542,1590,1594,1597,1590,1563,1514,1533,1554,1550,1566,1543,1552,1572,1624,1554,720,712,715,707,741,817,926,1035,1123,1165,1152,1149,1130,1112,1108,1075,1055,1051,1019,1000,981,963,944,913,894,876,869,851,843,824,795,776,757,729,725,711,723,725,721,724,733,776,732,721,740,753,741,733,781,759,728,747,778,787,787,746,740,753,775,741,735,759,736,735,726,486,488,483,484,488,530,601,671,742,789,806,794,753,768,716,732,729,707,694,681,668,656,652,639,618,605,592,579,567,554,541,536,516,503,491,499,495,490,494,486,490,490,494,500,494,498,494,491,495,493,498,494,494,507,500,496,490,502,492,504,494,493,491,498,504,318,319,320,321,322,341,386,432,502,529,537,529,521,513,505,498,499,492,484,457,446,437,429,423,412,404,395,387,378,370,361,353,344,336,327,323,324,325,311,308,312,316,310,325,316,330,327,317,331,314,318,315,315,322,317,316,316,319,316,314,315,319,316,325,317,271,272,273,274,274,288,325,362,435,463,494,472,491,460,461,457,440,434,427,442,414,407,364,357,350,343,336,329,322,315,308,301,294,287,280,275,276,277,266,272,270,274,276,280,273,274,270,272,272,270,270,282,276,279,280,280,279,280,288,279,278,282,271,276,273,533,529,578,532,545,595,674,765,831,912,882,868,854,839,825,802,797,783,760,755,741,727,752,699,711,671,649,665,622,608,594,580,573,581,546,583,543,538,549,556,548,549,563,563,565,571,556,578,567,569,562,556,554,561,562,564,559,556,550,555,550,559,557,556,545,818,821,823,837,867,963,1090,1249,1396,1321,1318,1298,1279,1260,1319,1222,1209,1187,1166,1211,1123,1162,1081,1108,1038,1017,996,1026,1007,975,910,992,868,867,834,830,866,835,850,840,844,847,882,879,891,884,874,901,876,863,877,852,854,870,868,861,881,854,851,873,874,896,884,889,881,762,804,777,801,826,937,1015,1158,1229,1255,1262,1253,1225,1206,1134,1170,1135,1123,1118,1089,1077,1054,1060,1033,1007,1014,962,930,902,893,860,851,815,812,777,795,790,782,793,800,794,830,817,807,816,828,806,830,835,824,818,810,805,816,810,816,812,808,807,800,801,809,805,808,787,438,439,441,452,444,481,545,609,666,702,709,700,690,681,671,662,659,647,635,624,612,605,589,577,565,554,542,542,519,507,495,484,472,460,449,445,446,447,452,440,441,444,448,449,452,449,454,450,450,448,456,454,456,452,449,458,450,460,450,448,455,453,448,446,440,345,361,348,349,350,373,422,472,498,536,543,535,528,520,512,505,497,489,481,474,466,488,466,457,459,450,447,420,411,402,392,383,384,365,355,351,352,353,342,345,345,349,402,380,365,385,370,402,372,371,377,355,360,383,365,350,388,357,353,378,373,399,378,370,366,544,530,538,533,547,596,674,741,844,874,880,866,866,838,824,800,796,782,769,755,741,727,713,699,685,671,657,643,629,616,602,588,574,560,547,584,544,546,533,538,544,568,552,553,538,549,540,540,544,547,540,540,544,554,550,549,545,549,542,554,550,559,550,555,549,731,733,765,737,737,887,999,1076,1176,1265,1274,1264,1240,1092,1198,1188,1149,1121,1082,1099,1063,1066,964,953,1002,915,919,859,817,847,836,820,737,745,772,718,766,765,758,753,748,747,782,806,763,772,770,798,782,802,790,797,782,794,778,777,789,771,776,817,794,809,794,793,799,1044,1048,1064,1071,1127,1242,1422,1584,1765,1706,1654,1620,1595,1610,1553,1579,1550,1477,1465,1440,1387,1389,1416,1337,1296,1285,1324,1217,1191,1165,1138,1112,1099,1072,1064,1051,1053,1053,1052,1040,1045,1054,1074,1042,1047,1050,1052,1075,1076,1072,1069,1200,1081,1065,1206,1083,1080,1081,1089,1084,1085,1083,1095,1100,1100,1136,1135,1159,1207,1283,1458,1722,1920,2035,2013,1961,1977,1894,1854,1843,1837,1861,1769,1783,1675,1614,1580,1580,1561,1514,1467,1410,1402,1344,1322,1282,1246,1202,1178,1151,1153,1185,1190,1200,1196,1214,1246,1214,1225,1212,1244,1227,1227,1230,1212,1230,1256,1275,1264,1248,1242,1211,1241,1221,1212,1210,1243,1241,1249,1212,1137,1175,1144,1220,1267,1423,1610,1944,1853,1847,1868,1807,1777,1748,1719,1774,1689,1634,1599,1572,1543,1513,1481,1458,1426,1396,1367,1475,1308,1279,1390,1220,1191,1233,1156,1276,1157,1160,1210,1244,1213,1223,1236,1227,1227,1241,1237,1231,1257,1228,1230,1243,1242,1248,1244,1266,1257,1251,1271,1239,1259,1284,1290,1260,1249,641,689,684,657,663,729,826,994,1043,1033,1136,1020,1005,1056,976,961,953,998,919,903,886,873,852,896,819,802,786,817,752,780,718,701,685,716,654,651,693,654,661,664,666,680,667,667,695,670,668,693,690,676,672,676,667,672,677,683,671,670,669,669,669,668,672,677,667,470,465,473,468,478,518,586,645,723,771,778,765,753,741,728,707,704,691,670,666,654,642,629,617,597,592,572,567,548,536,523,511,506,493,481,518,478,473,472,481,475,486,483,488,481,498,480,487,479,478,483,488,490,487,487,485,484,479,493,487,480,483,481,488,483,511,504,505,507,512,558,633,718,796,827,834,820,820,793,780,777,753,740,727,713,700,687,673,660,647,633,620,607,593,580,567,553,540,527,514,551,555,513,522,516,533,614,540,515,538,563,541,529,533,532,537,534,542,538,548,527,529,525,537,549,524,540,527,532,538,1000,955,990,990,1061,1313,1467,1683,1763,1761,1743,1711,1716,1683,1614,1617,1636,1579,1528,1500,1408,1407,1350,1342,1306,1273,1239,1265,1144,1136,1105,1071,1038,982,987,1019,1008,974,997,985,1011,993,1003,989,996,1008,1003,1080,1147,1016,1097,1104,1062,1016,1029,1074,1052,1120,1123,1021,1058,1139,1136,1123,1053,342,343,344,345,346,369,418,467,541,569,576,568,559,551,543,534,535,527,519,491,479,470,461,455,443,434,425,416,406,397,388,379,370,361,352,347,348,349,341,340,339,339,342,339,342,339,342,339,338,340,342,343,343,343,347,346,343,349,345,342,349,343,343,346,343,1615,1546,1660,1702,1853,2043,2310,2384,2426,2418,2446,2430,2361,2350,2272,2259,2150,2141,2146,2140,1998,2064,1937,1957,1893,1914,1854,1846,1770,1688,1651,1647,1616,1559,1588,1594,1540,1574,1698,1709,1659,1671,1701,1686,1697,1706,1702,1710,1755,1705,1710,1728,1728,1733,1710,1744,1743,1742,1779,1731,1727,1735,1780,1708,1709,680,630,632,634,649,714,808,904,991,1033,1036,1019,1003,1034,970,953,936,920,903,887,870,854,837,820,804,787,771,754,738,721,705,688,698,655,642,680,639,641,645,645,641,654,656,646,653,653,652,655,664,672,754,751,761,684,655,659,669,675,659,656,677,652,655,657,653,1043,1046,1022,1080,1110,1284,1410,1593,1661,1701,1683,1666,1639,1572,1584,1587,1560,1466,1473,1449,1422,1360,1331,1341,1311,1254,1259,1232,1175,1178,1247,1124,1097,1111,1062,1154,1062,1065,1093,1104,1092,1118,1091,1111,1087,1113,1124,1203,1084,1105,1111,1104,1144,1092,1114,1115,1121,1106,1091,1104,1122,1112,1108,1107,1096,1122,1127,1143,1159,1229,1358,1554,1713,1896,1831,1777,1740,1714,1727,1668,1691,1660,1586,1571,1545,1489,1489,1572,1434,1391,1377,1472,1306,1277,1249,1221,1192,1248,1150,1214,1130,1133,1132,1159,1177,1175,1177,1164,1170,1174,1180,1179,1212,1203,1198,1219,1192,1195,1192,1225,1205,1196,1220,1294,1242,1229,1203,1242,1228,1238,0,0,0,0,0,0,0,0,0,0,0,0,0,0,0,0,0,0,0,0,0,0,0,0,0,0,0,0,0,0,0,0,0,0,0,0,0,0,0,0,0,0,0,0,0,0,0,0,0,0,0,0,0,0,0,0,0,0,0,0,0,0,0,0,0,721,708,710,737,748,833,942,1029,1154,1122,1163,1146,1129,1112,1035,1079,1068,1050,1031,1002,993,979,937,935,900,898,880,890,814,824,772,771,763,768,735,731,752,735,728,739,739,738,746,759,751,749,743,749,746,740,746,747,760,772,763,767,752,748,763,755,751,749,752,760,743,249,250,251,252,252,264,299,335,394,414,449,418,412,406,423,394,397,391,386,360,351,344,337,333,324,317,311,304,297,291,284,277,271,264,257,253,254,254,241,239,245,254,246,243,248,254,246,245,247,246,253,255,258,254,250,248,246,258,253,246,249,261,253,255,250,636,633,675,640,646,725,845,919,982,1015,1017,1001,1093,968,956,963,925,910,892,901,885,877,848,832,876,858,774,762,748,786,752,714,669,662,700,635,637,639,649,642,666,759,677,649,671,700,677,667,683,670,697,705,724,697,701,671,660,670,671,672,653,680,668,677,669,165,166,166,167,167,173,196,219,242,265,278,274,270,265,261,256,252,247,243,238,234,222,225,220,216,212,207,203,198,194,189,185,180,176,171,168,168,169,157,158,157,161,224,194,178,187,175,223,182,174,196,165,167,185,177,164,207,165,163,195,185,220,197,188,178,885,888,890,897,944,1054,1193,1326,1444,1445,1590,1418,1395,1372,1349,1464,1333,1280,1254,1234,1211,1246,1163,1142,1117,1097,1074,1051,1028,1005,1055,959,936,1005,901,1038,901,903,925,965,929,931,946,939,932,946,945,954,963,932,942,944,952,961,960,967,948,958,966,954,967,969,983,960,960,378,379,380,380,381,395,427,460,457,483,496,490,485,480,475,469,464,459,484,478,472,458,459,453,447,470,435,428,422,416,410,404,397,391,385,382,382,383,383,361,365,369,362,379,370,384,380,371,384,366,370,369,368,374,371,371,370,373,369,366,368,371,369,377,371,532,534,535,537,541,590,667,745,839,881,851,838,856,843,800,816,812,799,786,754,738,724,685,663,682,668,654,633,627,613,599,585,571,551,525,521,542,537,527,540,539,553,611,583,554,599,550,633,577,611,579,553,576,602,576,556,600,572,560,585,575,613,575,570,557,486,488,483,484,488,530,601,671,742,789,806,794,753,768,716,732,729,707,694,681,668,656,652,639,618,605,592,579,567,554,541,536,516,503,491,499,495,490,494,486,490,490,494,500,494,498,494,491,495,493,498,494,494,507,500,496,490,502,492,504,494,493,491,498,504,518,523,522,523,508,553,653,730,805,853,857,844,831,786,773,760,775,734,742,729,693,707,693,694,666,653,638,625,611,597,583,549,556,526,510,526,549,538,526,519,523,524,529,527,527,527,533,530,531,531,536,533,537,532,530,538,531,539,534,532,537,537,534,533,529,858,860,863,889,921,1056,1259,1308,1513,1425,1532,1397,1374,1351,1328,1304,1353,1258,1235,1211,1242,1188,1141,1200,1095,1109,1048,1025,1002,1012,1031,932,959,887,874,871,874,918,881,898,886,920,884,905,893,916,902,909,899,896,905,904,914,916,917,922,914,908,923,913,920,927,916,925,924,578,587,582,598,592,653,725,752,801,845,856,847,838,829,819,810,801,792,782,773,764,755,745,736,720,717,703,690,690,681,648,638,619,611,591,596,588,636,595,587,594,603,598,624,605,628,622,605,636,608,607,610,608,624,606,603,615,615,610,606,608,619,603,621,603,242,243,244,244,245,256,289,323,357,390,404,397,391,385,378,372,365,359,352,346,340,333,327,320,314,308,301,295,288,282,276,269,263,256,250,246,246,247,235,240,231,234,242,241,255,251,236,241,241,248,246,236,239,243,241,240,242,240,235,240,235,242,243,242,233,288,289,290,291,292,307,347,388,428,467,479,472,458,457,449,441,428,426,413,411,403,396,388,381,368,361,358,350,343,335,323,320,313,305,297,293,294,294,309,272,273,273,316,300,286,277,277,284,337,303,318,316,334,299,322,293,299,340,354,317,287,296,343,334,286,183,183,184,184,185,191,216,240,265,290,304,299,294,290,285,280,275,270,266,261,256,251,246,242,237,232,227,222,218,213,208,203,199,194,189,186,186,187,174,179,175,178,179,179,179,185,175,180,175,175,178,182,182,181,181,179,177,175,185,186,175,178,177,179,178,263,264,265,266,266,280,317,354,392,429,441,434,427,420,413,406,399,392,385,378,371,363,356,349,342,335,328,321,314,307,300,293,286,279,272,267,268,269,259,256,258,258,258,257,261,259,258,261,257,259,263,264,264,263,270,264,261,262,262,266,262,265,262,262,263,713,707,709,730,736,826,936,1044,1132,1172,1189,1153,1123,1104,1097,1081,1062,1030,1022,1003,985,966,947,928,910,893,872,853,826,842,797,770,759,742,729,724,718,727,736,729,738,736,743,748,746,746,740,745,753,753,754,749,749,763,749,752,739,754,738,751,745,740,740,749,762,268,251,270,271,272,284,321,357,394,430,413,436,429,422,415,408,401,394,387,381,374,367,360,353,346,339,332,304,318,311,304,298,291,284,277,254,255,256,270,270,258,259,273,278,276,287,269,287,273,307,305,304,276,334,284,263,271,271,302,330,331,353,332,319,301,797,680,700,733,701,805,879,1034,1036,1078,1120,1199,1067,1030,1113,1023,1005,962,981,929,933,930,918,878,876,887,811,845,854,801,743,785,723,705,691,717,719,691,692,697,701,732,702,715,700,705,698,697,707,702,700,713,710,720,707,716,712,713,716,706,708,722,694,712,703,878,881,889,895,940,1035,1169,1274,1385,1390,1420,1402,1374,1331,1329,1279,1284,1208,1211,1272,1197,1180,1124,1129,1108,1086,1068,1029,1019,975,974,954,911,908,896,875,902,923,912,896,902,916,911,920,906,920,912,909,915,905,917,929,940,940,938,921,905,930,917,916,913,936,922,939,919,1198,1203,1193,1266,1418,1677,1911,2024,2086,2085,2086,2093,2011,1953,1935,1895,1860,1874,1784,1744,1708,1671,1638,1595,1584,1517,1482,1502,1411,1367,1370,1279,1239,1232,1223,1224,1232,1238,1290,1297,1251,1246,1295,1279,1284,1298,1302,1296,1345,1299,1299,1314,1313,1318,1291,1332,1357,1329,1357,1337,1309,1317,1360,1291,1295,1046,973,984,996,1060,1332,1331,1514,1551,1682,1581,1553,1527,1477,1480,1455,1426,1426,1376,1357,1326,1306,1275,1249,1267,1200,1180,1165,1123,1104,1074,1050,1004,1001,1077,972,981,1053,999,1009,1020,1037,1043,1026,1020,1040,1016,1029,1019,1013,1014,1029,1030,1045,1176,1126,1044,1035,1035,1023,1015,1013,1031,1029,1014,348,349,351,351,352,375,421,470,573,563,573,568,555,550,588,531,522,513,504,495,486,473,467,458,449,440,431,461,412,403,392,385,373,367,359,353,354,355,341,350,350,357,355,356,350,360,346,366,349,348,355,356,369,379,364,357,358,351,364,361,360,365,351,358,351,300,301,302,303,304,346,363,438,448,521,500,488,484,476,468,460,452,444,469,428,420,413,405,397,389,409,373,365,357,349,341,333,326,317,310,305,306,307,296,299,296,297,307,303,314,320,303,308,307,304,304,299,301,307,309,300,308,300,300,304,302,309,304,309,304,279,280,281,282,283,298,316,378,417,456,468,433,453,446,438,406,423,416,384,401,370,386,378,371,341,356,348,344,313,326,318,311,303,296,288,284,285,285,273,277,273,292,302,291,287,281,281,279,297,300,296,315,314,288,286,296,301,286,269,319,285,286,285,305,284,1431,1436,1440,1550,1747,2017,2322,2391,2515,2487,2435,2389,2348,2286,2313,2229,2175,2183,2102,2043,2015,1959,1916,1989,1889,1823,1743,1743,1689,1612,1608,1514,1472,1466,1459,1462,1471,1478,1558,1558,1606,1855,1604,1534,1602,1694,1617,1564,1666,1636,1585,1597,1677,1647,1635,1547,1580,1579,1621,1623,1563,1604,1579,1573,1593,882,885,887,915,951,1090,1298,1348,1552,1464,1564,1435,1411,1387,1363,1339,1388,1292,1268,1244,1274,1220,1172,1248,1125,1137,1077,1053,1029,1039,981,957,984,911,899,896,899,943,906,913,919,943,934,935,917,945,919,925,922,924,917,930,923,944,944,939,928,929,922,943,931,946,922,938,927,1171,1205,1224,1265,1298,1626,1698,1811,1884,1910,1864,1839,1846,1876,1761,1748,1732,1710,1636,1562,1591,1552,1531,1472,1471,1468,1469,1441,1350,1326,1267,1241,1235,1217,1175,1188,1207,1207,1268,1266,1251,1304,1312,1306,1281,1295,1300,1344,1300,1344,1355,1321,1277,1309,1305,1317,1317,1290,1336,1398,1363,1368,1382,1319,1311,512,554,515,517,523,569,644,720,796,843,848,835,821,807,794,781,766,753,740,726,713,699,686,671,659,646,631,618,604,591,577,564,550,537,524,520,521,522,521,522,511,539,527,522,533,542,521,521,524,539,533,521,521,526,527,527,525,526,516,519,517,522,529,521,508,862,852,860,896,911,1023,1140,1405,1357,1450,1390,1369,1345,1298,1301,1282,1256,1259,1212,1196,1168,1185,1142,1100,1121,1076,1040,1028,989,972,945,935,905,879,875,846,877,930,879,894,873,885,902,878,885,908,881,908,892,915,899,907,900,909,914,916,913,906,909,911,917,922,921,913,940,956,959,967,979,1036,1145,1293,1405,1514,1516,1544,1524,1494,1449,1445,1393,1396,1318,1319,1377,1300,1282,1223,1227,1203,1179,1160,1119,1106,1060,1057,1035,991,987,975,954,981,1003,976,981,986,1001,1004,1011,1001,1016,988,1016,1000,989,998,997,1001,1013,1006,1004,1001,994,1003,1000,998,999,994,1024,997,634,636,638,658,655,744,814,910,995,1038,1069,1026,1007,993,974,960,1002,925,908,892,930,884,842,826,809,830,776,760,745,761,710,694,677,661,647,644,645,688,640,642,648,674,647,661,645,651,645,638,656,651,680,691,687,663,651,662,657,662,664,652,654,667,641,654,653,0,0,0,0,0,0,0,0,0,0,0,0,0,0,0,0,0,0,0,0,0,0,0,0,0,0,0,0,0,0,0,0,0,0,0,0,0,0,0,0,0,0,0,0,0,0,0,0,0,0,0,0,0,0,0,0,0,0,0,0,0,0,0,0,0,773,775,777,799,821,941,1128,1170,1366,1292,1396,1269,1247,1226,1205,1183,1218,1141,1140,1098,1131,1079,1035,1013,992,1008,949,928,907,920,864,843,872,801,788,785,788,832,785,795,800,817,877,854,816,860,815,907,846,878,852,818,847,885,846,824,882,841,828,863,855,898,850,840,830,570,612,573,575,585,640,725,811,894,939,942,928,912,896,882,868,851,836,822,807,792,776,761,746,732,717,701,686,670,656,641,626,610,595,751,578,580,581,579,582,588,614,591,596,579,592,585,578,588,593,583,592,596,607,600,610,592,602,600,603,610,624,616,628,616,646,659,683,670,669,766,845,932,1021,1056,1094,1042,1031,1014,997,980,963,946,928,920,937,900,863,858,830,845,792,775,765,783,733,716,700,684,659,655,657,702,670,674,666,762,705,690,697,697,685,687,690,700,695,695,678,699,689,687,689,678,678,685,683,679,685,677,663,747,764,742,730,781,852,994,1109,1197,1256,1255,1208,1189,1127,1139,1124,1100,1022,1076,1051,1016,1013,986,983,916,929,911,890,870,867,837,806,746,790,783,713,784,761,756,753,747,754,753,755,768,766,772,763,762,756,751,760,761,763,779,766,772,784,772,770,791,774,762,766,766,907,912,907,988,956,1059,1144,1253,1400,1388,1403,1383,1346,1332,1296,1316,1287,1298,1240,1252,1238,1209,1167,1138,1124,1191,1077,1098,1036,1049,985,981,960,949,918,901,920,959,945,925,932,944,943,945,955,946,944,954,963,975,968,974,977,947,952,946,946,952,952,962,950,950,957,950,953,1052,1060,1063,1100,1167,1331,1672,1636,1812,1741,1835,1703,1675,1646,1618,1590,1688,1558,1520,1471,1502,1444,1393,1365,1337,1339,1280,1245,1224,1229,1167,1139,1161,1088,1075,1073,1077,1115,1127,1133,1122,1207,1174,1173,1159,1149,1158,1188,1161,1181,1176,1175,1137,1152,1156,1173,1174,1144,1170,1200,1166,1157,1175,1151,1147,518,523,522,523,508,553,653,730,805,853,857,844,831,786,773,760,775,734,742,729,693,707,693,694,666,653,638,625,611,597,583,549,556,526,510,526,549,538,526,519,523,524,529,527,527,527,533,530,531,531,536,533,537,532,530,538,531,539,534,532,537,537,534,533,529,521,522,536,526,532,595,674,734,810,876,881,868,835,821,844,812,780,788,776,755,725,732,720,699,670,671,642,628,614,601,592,573,572,563,545,541,529,544,531,530,534,531,538,537,560,542,542,549,560,542,544,546,557,565,547,554,547,546,556,552,547,557,547,598,552,245,246,246,247,248,259,293,327,362,396,410,403,397,390,384,377,371,364,358,351,344,338,331,325,318,312,305,299,292,286,279,273,266,260,253,249,249,250,238,243,240,245,245,253,246,256,254,243,257,246,246,245,243,250,242,243,246,248,243,243,241,247,242,248,241,507,509,510,512,517,562,636,761,841,864,875,866,880,868,860,803,873,822,803,746,752,703,729,685,650,637,696,611,597,584,571,558,545,531,519,515,516,518,522,516,513,517,515,523,517,524,517,518,521,513,516,518,519,522,524,523,519,519,524,526,517,531,518,527,522,705,707,709,711,758,811,915,1025,1112,1189,1155,1162,1108,1121,1081,1054,1045,1036,1046,981,991,991,926,908,918,898,854,843,817,806,796,769,745,733,727,716,716,763,729,725,736,728,731,741,747,747,738,739,760,737,736,739,752,763,758,767,751,749,755,753,743,739,746,747,728,1036,1079,1047,1065,1137,1286,1441,1574,1652,1682,1676,1649,1622,1596,1580,1557,1516,1491,1504,1436,1448,1407,1370,1329,1354,1327,1255,1234,1245,1188,1143,1115,1100,1090,1065,1056,1056,1062,1074,1068,1083,1108,1089,1095,1084,1110,1093,1099,1098,1085,1101,1124,1149,1131,1116,1113,1083,1106,1091,1084,1082,1113,1098,1115,1083,984,986,1011,1007,1080,1269,1453,1519,1606,1638,1628,1597,1566,1545,1516,1479,1524,1441,1413,1390,1395,1355,1301,1286,1293,1226,1195,1182,1172,1131,1139,1092,1081,1054,1053,1004,1006,1006,1052,1016,1017,1016,1026,1028,1036,1036,1035,1037,1052,1059,1105,1044,1063,1106,1070,1067,1060,1077,1118,1139,1153,1169,1159,1107,1110,659,661,664,666,684,755,855,956,1043,1085,1102,1070,1052,1035,1016,1000,1051,965,948,931,913,896,878,861,844,826,809,791,774,757,791,722,703,736,673,750,671,673,693,683,677,699,683,685,739,739,695,723,706,687,687,722,741,752,755,749,744,758,748,730,726,707,691,695,694,403,404,405,407,408,439,498,556,615,663,672,661,650,639,628,618,607,596,585,575,564,553,542,532,521,510,499,489,478,467,456,446,435,424,413,409,410,411,388,394,400,425,393,396,388,393,391,386,392,392,386,393,392,393,393,399,395,397,396,399,395,407,393,397,396,706,709,711,713,736,811,917,1023,1110,1151,1152,1135,1116,1098,1080,1062,1043,1025,1007,979,1040,964,934,916,981,920,853,843,833,817,796,771,752,734,721,716,719,765,714,729,731,739,737,740,733,748,732,752,730,729,731,744,749,762,753,752,740,731,752,754,747,751,733,740,732,953,986,926,986,986,1142,1246,1477,1551,1560,1559,1544,1534,1570,1444,1437,1421,1405,1379,1354,1329,1299,1281,1256,1205,1194,1135,1114,1119,1060,1097,1035,995,990,973,958,980,1012,989,965,975,975,991,1008,983,985,990,1003,1034,1015,1024,1029,1036,1024,1023,1017,1016,1043,1044,1045,1023,1023,1047,1077,1040,897,900,903,910,958,1064,1203,1336,1421,1457,1454,1493,1408,1499,1362,1339,1316,1293,1270,1247,1254,1202,1179,1156,1133,1110,1087,1064,1082,1018,995,972,949,967,914,910,913,915,932,943,940,1026,999,968,960,946,952,986,961,965,976,958,936,943,953,963,950,944,962,960,959,952,971,947,942,1070,1083,1068,1085,1175,1378,1592,1723,1847,1943,1886,1843,1782,1804,1758,1685,1721,1642,1641,1577,1523,1511,1510,1461,1391,1359,1361,1336,1262,1271,1207,1169,1229,1134,1076,1081,1085,1093,1115,1153,1119,1123,1158,1145,1129,1145,1141,1157,1162,1137,1144,1151,1162,1169,1172,1176,1159,1165,1177,1180,1188,1193,1207,1198,1187,1183,1187,1192,1233,1330,1567,1683,1817,1892,1920,1909,1939,1848,1906,1853,1756,1726,1695,1665,1634,1633,1573,1543,1512,1482,1451,1421,1390,1400,1329,1299,1268,1239,1304,1204,1201,1205,1208,1242,1257,1257,1272,1288,1267,1265,1300,1266,1271,1274,1258,1271,1280,1297,1299,1367,1375,1304,1288,1289,1280,1272,1276,1295,1315,1276,863,865,910,874,952,1024,1161,1291,1439,1412,1422,1448,1362,1340,1317,1295,1320,1250,1228,1205,1183,1161,1138,1116,1093,1071,1048,1078,1018,1008,975,936,955,933,879,876,923,923,901,902,913,915,905,917,906,911,908,915,932,924,920,922,923,932,925,927,913,927,924,927,930,925,922,945,944,641,643,645,647,663,728,822,920,1006,1048,1052,1035,1009,1002,985,959,952,945,919,893,955,869,844,827,839,842,778,768,745,735,726,702,679,668,655,651,651,698,651,663,653,670,670,671,666,683,664,668,669,670,662,663,663,672,679,670,675,671,670,674,668,699,674,682,676,674,676,678,680,700,771,874,976,1063,1104,1107,1089,1072,1054,1036,1019,1001,984,966,948,1000,924,895,878,963,882,868,807,798,782,754,737,719,701,688,728,686,731,692,702,695,716,710,709,707,729,705,718,707,700,715,713,715,717,722,716,726,715,721,707,710,721,718,724,723,873,875,916,929,963,1154,1366,1521,1637,1688,1664,1633,1573,1569,1537,1505,1447,1442,1376,1378,1346,1282,1305,1242,1227,1209,1171,1095,1092,1094,1047,997,939,935,913,944,918,899,930,936,943,968,962,962,945,973,947,950,954,963,946,974,961,982,977,982,967,965,953,978,974,993,971,996,976,269,270,271,271,272,286,323,361,399,437,450,443,435,428,421,414,407,399,392,385,378,371,364,356,349,342,335,328,321,313,306,299,292,285,278,273,274,275,265,268,269,277,274,269,271,271,269,273,278,281,355,342,358,294,271,270,274,269,268,266,270,270,268,272,270,1681,1641,1784,1931,2089,2355,2603,2655,2682,2729,2651,2608,2596,2565,2557,2449,2497,2432,2371,2262,2218,2157,2123,2147,2140,2035,1996,1935,1971,1833,1836,1792,1830,1770,1727,1741,1734,1703,1933,2010,2017,1960,1976,1995,1994,2033,1985,2006,2021,2008,1996,2079,2076,2071,2131,2150,2088,2123,2136,2129,2127,2129,2146,2139,2146,532,533,533,537,544,593,672,750,828,874,881,867,852,838,824,810,796,779,784,754,755,726,712,695,698,670,656,641,670,613,599,597,571,557,542,540,553,543,529,530,531,533,534,534,539,537,541,540,540,540,542,544,545,544,546,549,547,549,546,549,553,553,553,552,552,1095,1078,1144,1148,1271,1423,1619,1695,1833,1847,1777,1832,1757,1728,1720,1720,1692,1594,1602,1591,1543,1489,1491,1459,1442,1341,1360,1307,1308,1250,1228,1177,1164,1179,1194,1175,1154,1140,1190,1183,1174,1189,1180,1216,1185,1197,1216,1274,1197,1228,1227,1229,1211,1234,1237,1202,1193,1206,1220,1234,1230,1245,1236,1241,1215,975,978,981,994,1054,1174,1329,1467,1549,1583,1578,1614,1528,1652,1594,1453,1428,1403,1378,1353,1358,1303,1278,1253,1228,1203,1178,1153,1169,1103,1078,1053,1028,1201,992,989,992,995,1028,1042,1034,1045,1063,1073,1100,1106,1039,1091,1067,1078,1047,1087,1107,1134,1105,1122,1110,1126,1108,1083,1073,1069,1062,1066,1040,365,366,367,368,369,393,445,496,569,592,602,593,583,574,564,555,545,536,526,517,507,498,488,494,470,460,451,441,432,422,413,403,394,384,375,370,371,372,355,357,356,366,360,371,358,361,369,363,358,361,358,363,361,358,363,365,364,361,362,363,369,376,372,378,370,951,969,934,972,1019,1130,1302,1389,1504,1538,1513,1476,1516,1429,1417,1420,1416,1333,1351,1286,1288,1288,1267,1210,1199,1218,1106,1137,1065,1071,1072,1029,1003,1021,975,957,959,931,962,970,976,996,998,1000,990,1022,991,1019,1004,1015,1026,997,1026,1070,1008,1000,1019,1014,1005,1008,1020,1031,1003,1008,1000,0,0,0,0,0,0,0,0,0,0,0,0,0,0,0,0,0,0,0,0,0,0,0,0,0,0,0,0,0,0,0,0,0,0,0,0,0,0,0,0,0,0,0,0,0,0,0,0,0,0,0,0,0,0,0,0,0,0,0,0,0,0,0,0,0,488,490,489,493,497,540,612,684,756,803,811,798,785,772,759,746,733,717,707,694,681,668,655,640,629,616,603,590,620,564,551,538,525,512,498,496,497,498,501,487,492,493,495,506,501,511,504,506,509,501,498,493,494,501,500,495,499,496,494,495,494,502,495,504,500,314,315,316,317,318,337,382,427,472,514,525,517,508,500,492,483,475,466,458,449,441,433,424,416,407,399,391,382,374,365,357,349,340,332,323,319,320,321,300,300,308,319,303,307,301,305,304,302,304,303,302,304,304,307,305,308,305,305,305,305,308,307,307,309,308,1008,947,984,999,1063,1185,1350,1474,1637,1592,1569,1675,1514,1530,1486,1491,1532,1410,1385,1368,1334,1283,1290,1263,1292,1184,1207,1157,1162,1107,1135,1041,1031,1058,1033,1071,993,978,1034,1029,1032,1026,1052,1087,1039,1060,1062,1077,1073,1076,1062,1073,1061,1082,1050,1053,1063,1061,1047,1085,1070,1081,1063,1068,1085,441,443,444,445,447,479,538,598,658,705,714,703,692,681,670,659,648,638,627,616,605,594,583,572,561,550,539,528,517,506,496,485,474,463,452,448,449,450,473,429,430,430,450,450,448,435,437,448,486,452,472,472,479,470,453,450,462,494,506,487,453,454,504,463,453,459,460,462,463,465,501,566,632,697,749,758,746,734,722,710,698,686,674,662,650,638,618,614,602,590,578,566,554,542,530,518,499,494,482,470,466,467,468,460,463,464,472,470,465,470,471,464,467,467,468,469,477,480,477,471,467,472,473,477,470,469,478,467,472,470,521,522,536,526,532,595,674,734,810,876,881,868,835,821,844,812,780,788,776,755,725,732,720,699,670,671,642,628,614,601,592,573,572,563,545,541,529,544,531,530,534,531,538,537,560,542,542,549,560,542,544,546,557,565,547,554,547,546,556,552,547,557,547,598,552,243,244,245,245,246,257,291,325,360,394,407,400,398,387,381,374,368,361,355,348,342,339,329,322,316,309,303,296,290,284,277,271,264,258,251,247,248,248,233,236,235,239,288,268,256,259,250,288,257,251,265,249,246,263,253,242,274,243,242,268,259,286,265,256,253,593,595,597,633,610,670,759,848,954,1004,980,964,949,933,917,902,886,870,855,839,823,808,792,776,761,761,729,714,713,682,667,651,635,620,606,602,604,606,596,609,602,634,596,624,606,628,616,622,618,606,621,610,622,621,618,617,625,619,629,614,617,626,619,631,632,613,645,617,618,631,705,822,972,1008,1036,1007,1050,1028,1024,994,1026,985,912,915,899,918,831,815,799,783,767,751,807,719,703,698,671,707,660,626,663,624,625,637,634,640,629,628,628,639,641,628,649,662,636,639,642,647,638,642,640,637,641,637,629,642,634,637,639,646,425,426,427,429,453,465,526,588,649,715,741,693,682,708,660,649,637,626,615,604,592,581,609,559,587,576,525,514,503,492,533,469,458,469,436,431,455,434,433,433,433,433,438,432,431,432,431,435,433,433,434,441,437,437,441,434,435,437,433,445,435,435,438,439,434,766,758,774,774,795,925,997,1114,1201,1256,1255,1237,1215,1184,1179,1150,1121,1105,1090,1061,1042,1026,1002,980,963,943,941,902,884,879,861,825,805,795,775,791,775,770,770,785,767,785,785,794,781,785,790,781,776,783,777,779,778,775,783,786,783,779,777,783,783,800,793,799,785,744,755,749,761,790,870,984,1094,1193,1238,1229,1207,1185,1165,1146,1126,1114,1109,1076,1038,1036,1006,979,952,951,928,917,898,896,840,823,821,811,762,759,783,767,769,777,762,772,770,775,782,781,782,776,776,787,789,789,785,786,799,787,789,775,792,775,786,783,778,778,786,801,573,575,575,575,587,642,727,817,895,979,942,927,914,897,886,867,852,837,824,810,792,781,761,747,756,720,696,686,674,656,655,627,632,595,584,579,583,583,577,588,587,598,605,601,598,608,585,601,588,590,592,606,602,609,629,624,596,598,606,596,587,590,601,600,586,443,444,446,447,449,497,551,630,681,729,737,725,713,701,690,743,666,654,642,631,619,607,595,583,572,560,548,536,524,513,511,489,477,465,454,450,451,452,441,446,442,449,553,504,480,504,473,565,496,503,507,458,469,496,480,463,529,473,462,508,490,550,511,516,484,426,427,428,432,434,467,528,585,650,709,701,694,683,668,657,646,635,624,613,605,594,583,569,558,550,536,527,516,505,494,541,472,458,447,436,434,433,434,424,427,438,445,440,448,429,445,430,460,438,437,439,441,454,469,449,442,450,439,447,450,447,454,432,439,434,1038,1042,1039,1066,1119,1255,1399,1568,1625,1661,1670,1625,1597,1589,1543,1571,1512,1466,1442,1515,1406,1363,1366,1350,1285,1254,1253,1229,1203,1162,1188,1153,1106,1067,1055,1053,1055,1058,1073,1070,1089,1090,1100,1137,1096,1112,1110,1111,1137,1112,1113,1121,1119,1127,1103,1105,1108,1120,1106,1110,1116,1130,1111,1122,1126,531,533,535,562,542,588,664,739,815,862,870,856,842,829,815,802,788,806,761,747,734,720,706,693,729,665,652,638,666,611,597,623,608,556,544,565,541,542,561,548,550,557,562,561,562,557,561,565,563,560,568,565,565,554,556,570,564,572,555,555,568,564,560,557,552,1336,1323,1336,1539,1592,1854,2025,2175,2263,2303,2251,2263,2246,2160,2098,2081,2031,2001,1938,1944,1946,1843,1781,1781,1743,1713,1624,1637,1552,1539,1473,1428,1386,1364,1343,1346,1379,1357,1409,1414,1426,1448,1435,1441,1428,1433,1422,1421,1438,1430,1460,1473,1470,1458,1438,1450,1449,1457,1456,1435,1459,1458,1427,1442,1441,817,820,822,842,865,959,1086,1212,1300,1364,1337,1316,1295,1273,1252,1256,1209,1260,1166,1165,1124,1102,1144,1060,1056,1017,996,974,970,932,910,926,883,845,833,845,832,834,840,832,830,833,843,871,859,855,852,869,873,859,861,854,854,884,884,858,870,867,863,885,873,875,881,921,883,657,659,662,664,682,792,851,950,1088,1096,1080,1063,1046,1029,1011,994,977,960,943,925,908,932,874,896,839,822,805,788,771,753,782,752,702,685,671,667,669,671,676,667,659,666,715,756,685,687,702,714,690,724,717,721,687,693,712,709,726,697,715,784,741,752,754,724,730,361,362,364,365,366,390,442,493,545,608,600,590,581,571,562,552,543,533,524,514,505,495,486,476,467,457,448,438,428,419,422,400,390,381,371,367,368,369,364,358,361,362,361,357,362,362,363,360,360,361,365,365,365,366,368,364,364,368,366,372,368,372,366,365,369,437,396,439,399,400,431,488,546,603,662,655,648,638,627,613,606,595,585,587,564,553,543,532,519,511,501,490,479,469,458,506,437,427,416,406,401,402,401,391,395,394,406,394,396,393,400,396,392,395,392,393,396,395,397,397,400,395,400,401,404,395,407,396,403,399,1159,1159,1140,1327,1336,1566,1779,1994,2055,2115,2073,2034,1995,2002,1937,1879,1859,1768,1782,1725,1686,1647,1609,1570,1531,1523,1454,1450,1425,1322,1299,1372,1197,1192,1197,1187,1200,1207,1221,1231,1238,1258,1317,1295,1258,1309,1264,1350,1290,1320,1296,1266,1296,1343,1297,1274,1328,1294,1282,1315,1311,1353,1306,1299,1289,618,619,621,658,637,700,793,887,994,1043,1019,1002,986,970,954,937,921,905,889,872,856,840,823,807,791,790,758,742,741,710,693,677,661,644,631,627,629,630,617,626,621,630,619,632,624,639,633,637,637,630,641,636,640,644,644,641,649,645,642,639,647,651,651,652,652,1282,1327,1279,1334,1528,1787,1824,2079,2024,2183,2103,2001,2096,2007,1996,1965,1901,1803,1774,1826,1730,1779,1670,1714,1630,1574,1527,1543,1463,1498,1417,1383,1325,1309,1298,1284,1287,1308,1351,1350,1358,1410,1369,1390,1365,1367,1368,1364,1396,1364,1376,1382,1372,1387,1384,1391,1364,1364,1374,1376,1368,1374,1371,1406,1366,147,148,148,149,149,153,173,193,214,234,247,243,239,236,232,228,224,220,216,212,208,204,200,196,192,188,184,180,177,173,169,165,161,157,153,150,150,151,141,138,140,141,141,140,141,140,139,142,142,140,141,141,140,138,139,141,141,142,139,139,142,140,140,139,139,712,741,743,718,743,822,972,1086,1175,1215,1248,1152,1166,1224,1096,1117,1139,1114,1059,1039,984,1000,991,988,942,923,903,976,864,845,848,828,787,747,726,723,725,754,737,749,746,749,774,744,756,775,754,753,759,746,755,759,775,774,928,874,783,768,760,753,748,746,768,779,747,609,611,613,640,626,684,773,862,947,991,997,981,966,950,934,919,903,918,871,856,840,824,809,793,876,761,746,730,756,699,683,706,690,636,622,644,620,621,628,638,630,640,641,647,641,654,638,645,633,634,639,646,647,641,649,645,637,633,648,644,634,639,638,647,636,405,406,407,408,410,450,497,568,612,659,668,657,647,636,626,723,605,594,584,573,562,552,541,531,558,510,499,489,478,468,468,447,436,456,415,411,442,413,415,418,415,419,422,422,420,422,419,416,422,418,414,419,420,425,422,419,425,418,422,422,419,427,415,422,422,682,692,686,696,718,768,885,965,1091,1137,1099,1086,1065,1048,1030,985,1003,994,976,970,952,904,905,873,880,852,844,826,804,770,740,738,712,694,680,700,708,686,680,686,693,706,709,714,694,718,692,732,708,717,707,705,722,739,718,710,723,713,716,722,718,728,705,712,706,524,526,528,548,535,585,662,740,839,891,869,855,841,827,814,800,786,772,758,744,730,716,702,688,675,676,647,633,634,605,591,577,563,549,537,533,534,535,527,519,534,545,527,538,527,545,527,536,537,526,530,531,532,534,534,534,530,530,534,533,531,530,526,540,533,0,0,0,0,0,0,0,0,0,0,0,0,0,0,0,0,0,0,0,0,0,0,0,0,0,0,0,0,0,0,0,0,0,0,0,0,0,0,0,0,0,0,0,0,0,0,0,0,0,0,0,0,0,0,0,0,0,0,0,0,0,0,0,0,0,561,598,564,558,567,674,718,813,870,924,929,914,899,884,869,907,839,863,812,797,783,765,754,728,710,711,697,676,661,646,642,616,602,579,574,580,563,583,565,568,568,575,578,579,606,608,576,584,583,585,582,572,575,592,588,577,583,575,571,577,576,586,579,590,575,581,583,584,586,596,653,739,825,907,952,990,941,958,1024,895,880,895,850,835,819,864,789,774,785,744,728,713,791,683,668,675,660,622,587,594,590,591,593,577,577,587,610,579,586,578,584,584,578,582,583,579,586,584,588,587,595,591,591,591,594,594,621,610,617,611,774,787,778,772,790,856,963,1060,1088,1141,1173,1158,1113,1131,1082,1119,1081,1095,1079,1063,1018,999,986,958,939,938,922,899,883,866,860,833,817,792,787,794,777,797,790,783,787,786,789,784,790,795,794,794,785,793,797,806,801,801,799,806,798,799,795,813,804,807,792,795,798,808,810,813,834,847,944,1069,1183,1304,1348,1319,1298,1277,1256,1235,1214,1193,1172,1151,1122,1109,1088,1067,1047,1026,1020,984,963,1014,921,896,879,858,831,823,820,816,825,840,841,861,836,846,866,840,841,848,873,871,867,871,870,869,868,868,863,841,870,878,874,869,858,859,864,899,243,244,245,245,246,257,291,325,360,394,407,400,398,387,381,374,368,361,355,348,342,339,329,322,316,309,303,296,290,284,277,271,264,258,251,247,248,248,233,236,235,239,288,268,256,259,250,288,257,251,265,249,246,263,253,242,274,243,242,268,259,286,265,256,253,447,442,431,451,447,483,557,612,676,724,744,720,708,697,685,673,661,650,638,626,615,603,591,580,568,556,545,533,521,510,498,486,462,470,452,454,448,450,432,437,439,450,437,438,437,438,445,437,437,435,439,440,435,438,440,441,439,440,439,444,442,450,448,453,447,325,326,327,328,329,394,396,442,488,532,542,534,525,516,508,499,490,482,473,464,456,447,438,430,421,412,404,395,387,378,369,361,352,343,335,330,331,332,318,318,318,319,323,326,323,324,326,326,324,324,325,326,325,326,328,328,328,327,328,332,331,347,346,349,346,232,233,233,234,235,244,276,307,375,423,410,432,428,424,393,419,382,376,371,365,359,354,312,306,300,294,288,282,276,270,264,258,252,246,240,236,236,237,233,220,219,220,240,242,227,228,231,234,247,240,253,250,257,236,247,238,248,258,258,262,236,245,265,277,240,494,496,497,499,504,548,612,683,765,847,856,805,854,816,766,753,740,727,714,701,688,680,662,649,636,621,621,589,583,570,557,544,525,526,521,502,503,498,506,488,496,500,492,510,500,508,506,501,519,500,499,501,499,513,504,507,500,503,502,502,507,507,504,527,513,818,781,784,786,844,981,1030,1183,1237,1405,1377,1331,1219,1200,1182,1244,1224,1132,1139,1154,1139,1106,1030,1035,990,993,949,929,909,888,889,848,827,854,794,791,793,795,804,805,815,814,825,863,817,832,833,833,860,832,833,838,835,841,823,827,824,836,818,828,830,840,829,838,843,733,746,748,770,768,857,962,1090,1180,1203,1173,1165,1164,1140,1142,1115,1101,1083,1041,1053,1023,1009,977,940,947,935,908,890,857,854,851,819,771,780,743,734,757,739,758,753,752,753,766,768,771,781,761,797,767,769,774,763,763,777,772,768,760,776,755,774,760,763,761,766,767,399,400,401,402,404,435,493,551,609,639,645,636,628,619,611,611,601,590,579,569,560,551,537,526,515,505,494,484,473,462,452,441,430,430,409,405,406,407,399,395,401,407,401,400,401,404,403,402,403,401,408,416,422,414,407,403,402,410,407,403,401,412,404,409,404,375,376,377,399,380,436,473,493,540,582,597,585,576,586,590,583,536,528,519,510,501,492,483,475,466,452,442,466,445,446,425,415,405,421,385,381,396,383,370,374,381,394,381,386,374,391,374,380,378,373,377,385,384,384,383,381,380,379,389,388,378,380,377,381,379,505,497,498,500,505,548,620,691,762,808,829,803,790,777,763,752,739,725,725,700,687,674,661,648,636,620,610,589,583,571,558,545,533,520,507,502,505,506,494,493,498,494,501,499,522,504,504,513,522,506,507,509,519,529,509,516,510,509,519,515,510,519,510,560,514,713,729,715,733,705,786,929,1020,1146,1145,1162,1177,1147,1166,1037,1133,1043,1069,1029,984,991,957,931,917,885,884,857,854,826,822,774,755,726,755,692,714,702,711,708,713,733,747,767,764,776,718,735,760,720,712,723,723,721,716,746,732,709,709,713,714,712,720,730,746,712,1007,995,987,1013,1077,1201,1422,1497,1578,1626,1616,1590,1568,1541,1517,1508,1495,1472,1401,1375,1334,1340,1299,1274,1263,1210,1198,1186,1161,1136,1096,1084,1054,1023,1010,1020,1010,1013,1028,1013,1027,1030,1023,1046,1031,1037,1039,1049,1066,1053,1050,1055,1053,1067,1051,1057,1051,1059,1061,1070,1061,1057,1059,1080,1077,1140,1142,1176,1178,1313,1533,1755,1883,2015,1980,1900,1968,1882,1869,1804,1785,1760,1730,1750,1662,1668,1623,1555,1543,1529,1490,1447,1433,1391,1329,1319,1249,1212,1176,1179,1185,1194,1177,1222,1222,1216,1218,1249,1274,1235,1250,1249,1290,1261,1277,1258,1267,1259,1275,1251,1256,1271,1257,1252,1288,1273,1288,1273,1273,1279,1101,1101,1104,1203,1221,1360,1544,1683,1808,1785,1787,1796,1719,1753,1717,1683,1634,1656,1548,1601,1492,1463,1488,1407,1378,1350,1325,1377,1312,1236,1208,1180,1173,1130,1221,1117,1138,1181,1157,1156,1160,1167,1169,1169,1179,1175,1179,1184,1177,1184,1211,1184,1187,1183,1195,1199,1198,1203,1204,1199,1218,1205,1200,1211,1204,602,603,605,632,619,735,770,860,944,971,971,1023,944,930,917,970,932,880,864,883,835,821,801,836,770,810,738,723,707,691,725,659,685,663,615,611,612,615,621,622,626,641,637,642,639,655,644,639,655,644,660,666,672,664,641,634,646,652,646,634,639,652,634,648,632,431,432,433,435,437,471,525,586,658,706,716,702,691,680,668,657,646,634,623,612,600,581,578,566,555,542,532,513,510,498,487,475,457,460,442,437,438,433,434,438,435,435,446,445,455,472,446,454,445,449,446,447,445,454,455,449,449,440,438,448,444,450,441,454,441,472,465,466,467,471,511,579,647,715,763,782,757,745,733,734,708,696,696,683,659,647,634,622,665,597,585,573,604,548,536,523,511,499,486,474,470,472,473,460,469,472,480,479,485,470,490,467,492,473,472,475,480,491,501,487,480,481,475,491,488,479,483,470,479,472,979,999,958,998,1039,1322,1515,1666,1733,1774,1787,1764,1682,1686,1652,1619,1604,1570,1560,1507,1450,1416,1382,1348,1336,1251,1247,1213,1179,1119,1085,1078,1045,1028,994,995,976,1021,1026,1008,1012,1012,1028,1053,1027,1039,1039,1057,1069,1075,1075,1078,1065,1083,1065,1058,1058,1068,1082,1106,1082,1089,1088,1115,1095,349,350,351,352,354,422,427,477,527,572,582,573,563,554,545,535,526,517,508,498,489,480,470,461,452,443,433,424,415,405,396,387,378,368,359,355,356,356,343,348,346,358,462,406,369,416,373,472,401,430,409,362,374,401,381,363,430,387,363,408,392,453,409,392,380,1482,1513,1565,1627,1831,2061,2243,2304,2399,2383,2350,2301,2344,2316,2149,2151,2064,2088,2092,2015,1964,1966,1914,2057,1847,1826,1739,1744,1734,1681,1611,1553,1574,1506,1464,1489,1447,1478,1570,1558,1588,1602,1606,1640,1593,1611,1619,1627,1654,1619,1625,1659,1675,1669,1636,1619,1606,1627,1609,1613,1608,1640,1611,1641,1620,621,590,592,594,606,665,752,842,925,967,985,957,941,926,910,895,879,863,848,910,817,802,786,771,755,739,724,708,693,676,662,646,631,615,602,598,600,601,594,593,593,598,599,606,596,596,603,602,595,599,598,600,600,595,600,600,598,600,594,608,600,602,600,596,594,977,1032,983,1064,1097,1223,1345,1528,1604,1596,1601,1614,1539,1577,1488,1512,1466,1488,1386,1442,1370,1344,1372,1259,1266,1208,1214,1188,1179,1135,1081,1083,1051,1032,1022,992,1016,1058,1031,1073,1035,1037,1067,1040,1049,1057,1053,1068,1066,1052,1062,1053,1063,1061,1074,1074,1067,1072,1097,1057,1072,1077,1096,1075,1068,1085,1073,1066,1100,1177,1316,1554,1627,1706,1751,1739,1711,1687,1658,1632,1621,1605,1581,1508,1586,1437,1440,1398,1371,1358,1303,1427,1274,1247,1221,1179,1165,1133,1102,1089,1099,1089,1092,1135,1128,1118,1129,1227,1222,1172,1195,1175,1261,1206,1204,1222,1179,1175,1228,1216,1167,1236,1184,1181,1262,1215,1271,1243,1280,1219,153,154,154,155,155,159,179,178,192,205,220,217,213,210,204,201,198,196,193,190,188,185,183,180,177,169,166,186,182,178,174,170,166,162,159,155,156,156,142,148,147,148,149,149,147,148,144,151,144,146,147,149,152,156,152,149,148,146,151,149,148,149,144,150,146,681,669,670,673,692,851,884,964,1076,1101,1076,1044,1068,1046,999,1017,1012,994,955,948,942,927,872,878,869,854,834,812,798,780,746,745,727,752,695,677,693,691,693,685,697,708,701,699,693,694,701,707,713,699,707,741,761,740,733,713,698,714,701,702,692,715,706,717,700,256,257,258,259,260,316,309,345,381,417,429,422,416,409,402,395,388,381,374,368,361,354,347,340,333,326,319,338,306,299,292,285,278,271,265,260,261,262,253,255,254,258,263,271,263,279,271,266,278,270,265,261,261,270,261,259,266,266,258,261,259,268,262,266,256,678,664,661,672,693,738,863,935,1022,1085,1079,1068,1057,1051,998,981,964,944,928,989,896,882,861,865,827,810,793,786,777,764,725,708,716,679,688,676,658,678,669,669,668,672,725,707,709,706,687,740,722,702,709,684,691,712,697,692,714,689,679,710,700,723,712,725,693,0,0,0,0,0,0,0,0,0,0,0,0,0,0,0,0,0,0,0,0,0,0,0,0,0,0,0,0,0,0,0,0,0,0,0,0,0,0,0,0,0,0,0,0,0,0,0,0,0,0,0,0,0,0,0,0,0,0,0,0,0,0,0,0,0,845,848,851,937,899,996,1131,1260,1342,1381,1391,1353,1335,1377,1291,1269,1350,1254,1203,1279,1159,1137,1170,1093,1071,1050,1028,1006,1116,962,987,918,917,973,861,858,882,933,913,900,896,908,917,944,914,914,932,929,915,916,915,919,921,897,911,925,919,925,905,906,928,930,920,924,907,347,348,349,334,350,361,389,417,410,462,444,440,435,431,427,422,418,413,440,434,429,423,418,413,407,402,397,391,386,380,375,370,364,359,354,351,336,352,330,350,345,350,334,337,335,341,338,363,355,351,361,340,343,339,364,347,337,350,412,362,355,335,354,340,341,539,541,543,544,549,647,677,756,834,873,888,874,860,846,832,818,804,790,775,761,747,733,719,687,691,677,663,633,635,621,607,593,579,565,551,547,549,550,541,542,541,553,544,545,542,547,541,546,545,544,549,546,549,548,546,547,548,547,548,550,545,549,547,547,546,447,442,431,451,447,483,557,612,676,724,744,720,708,697,685,673,661,650,638,626,615,603,591,580,568,556,545,533,521,510,498,486,462,470,452,454,448,450,432,437,439,450,437,438,437,438,445,437,437,435,439,440,435,438,440,441,439,440,439,444,442,450,448,453,447,482,483,485,486,480,572,603,724,745,851,829,838,768,824,748,735,723,756,743,684,668,654,688,616,734,608,595,650,636,553,607,566,534,525,526,489,491,522,498,509,507,514,523,513,517,513,504,519,506,510,511,519,522,536,567,555,521,517,517,510,513,514,525,522,507,1051,1000,1005,1025,1084,1271,1391,1594,1622,1731,1656,1654,1586,1612,1532,1504,1550,1502,1522,1435,1367,1376,1355,1280,1374,1237,1209,1215,1194,1124,1138,1110,1067,1046,1045,1013,1018,1051,1047,1042,1036,1049,1037,1073,1042,1050,1076,1127,1052,1072,1072,1075,1068,1074,1092,1067,1057,1062,1067,1078,1069,1074,1075,1087,1067,836,853,875,853,876,1003,1130,1246,1348,1392,1338,1348,1361,1313,1267,1247,1229,1194,1207,1214,1183,1173,1109,1062,1096,1042,1031,1005,988,981,930,929,883,851,885,878,860,855,867,869,859,868,867,885,867,883,882,1020,870,867,864,873,884,853,875,877,868,879,858,863,874,875,861,875,866,530,531,533,535,558,590,669,747,824,883,930,862,848,884,820,843,792,778,764,750,736,722,708,714,731,667,653,639,625,611,597,583,569,555,542,538,539,541,544,538,548,547,538,556,550,559,545,552,569,547,542,548,556,561,557,559,556,560,575,559,546,545,552,548,537,536,537,539,541,547,612,679,754,832,878,887,870,856,845,831,817,800,786,772,758,746,730,716,702,690,676,659,647,645,617,603,591,577,563,548,544,558,547,550,552,548,550,561,547,569,563,555,557,554,549,545,549,563,561,584,577,561,565,586,549,548,555,554,550,547,627,637,651,634,669,717,811,907,997,1029,1033,1028,1082,989,989,950,945,923,907,885,868,852,845,848,826,786,778,762,741,741,708,711,675,659,641,637,638,645,638,649,649,647,657,653,662,657,654,657,656,651,655,657,670,682,674,677,661,657,670,663,661,660,662,670,654,695,722,701,707,742,813,910,1017,1104,1156,1129,1113,1120,1090,1091,1064,1045,1017,999,995,980,952,893,903,907,870,851,846,826,799,782,763,719,701,715,710,708,708,724,690,693,695,723,722,713,724,713,739,720,703,720,698,702,714,715,706,721,699,698,715,713,730,721,732,721,811,814,819,822,849,997,1075,1266,1301,1417,1347,1351,1288,1320,1244,1223,1205,1232,1207,1175,1113,1132,1112,1041,1143,1010,988,999,983,919,938,916,878,859,856,824,828,860,840,850,847,861,875,873,861,873,856,868,886,896,886,898,893,875,868,876,884,893,881,869,874,888,864,866,864,434,435,436,438,527,473,535,597,658,719,835,704,692,732,670,659,647,636,625,613,602,591,580,707,608,546,535,523,512,501,489,478,467,456,445,440,441,443,435,438,439,455,475,469,453,488,460,479,476,485,517,504,510,496,462,448,484,464,453,467,468,486,472,464,462,1205,1206,1219,1229,1277,1434,1684,1752,1827,1895,1945,1830,1820,1835,1783,1742,1699,1745,1645,1594,1647,1524,1587,1482,1549,1413,1378,1386,1396,1304,1263,1317,1219,1212,1183,1180,1230,1223,1261,1269,1260,1349,1313,1311,1295,1289,1297,1326,1302,1321,1319,1318,1281,1296,1295,1311,1314,1284,1313,1337,1305,1297,1313,1289,1287,453,456,456,458,463,495,499,551,605,647,654,644,635,625,615,606,596,586,577,626,559,548,538,529,519,538,500,491,482,471,462,452,442,432,465,460,487,463,439,442,445,460,479,473,456,492,463,488,479,488,523,507,518,506,468,452,487,464,455,471,472,491,476,469,464,1542,1568,1627,1775,2025,2272,2496,2589,2640,2643,2616,2575,2619,2490,2450,2366,2343,2291,2247,2252,2154,2107,2064,2036,1985,1948,1878,1878,1818,1766,1701,1651,1618,1596,1587,1575,1621,1630,1792,1770,1741,1761,1762,1808,1832,1836,1803,1892,1808,1809,1803,1861,1850,1907,1866,1849,1834,1850,1849,1846,1827,1833,1812,1807,1767,515,517,519,520,526,573,608,674,741,785,790,778,768,753,741,729,717,705,693,681,669,657,645,633,621,610,597,585,576,560,548,536,524,512,531,523,525,501,490,490,491,492,493,494,495,498,498,500,501,502,502,504,504,506,507,509,510,511,513,513,515,516,516,517,518,848,806,788,791,820,915,1086,1158,1243,1294,1315,1275,1247,1247,1259,1185,1169,1182,1117,1110,1131,1056,1036,1009,1114,980,954,984,924,892,873,852,833,847,798,795,797,887,807,818,821,831,854,832,832,852,820,835,822,828,821,839,843,856,970,916,851,837,839,829,818,822,836,833,818,496,509,499,501,490,549,622,695,749,809,790,808,786,795,768,748,739,714,721,703,690,663,636,632,675,618,612,599,586,561,548,535,525,512,497,504,509,496,498,495,495,501,495,501,498,502,498,500,499,494,498,495,500,504,499,500,499,500,501,501,498,510,496,502,498,401,402,403,405,493,437,495,553,612,672,722,658,647,687,626,615,604,593,583,572,561,551,540,616,569,508,497,486,476,465,454,444,433,422,412,407,408,409,399,399,397,403,412,402,410,404,403,406,404,409,423,427,423,411,447,441,419,424,411,401,423,403,417,407,403,1593,1680,1798,1884,2074,2560,2581,2753,2752,2791,2790,2786,2636,2671,2552,2459,2397,2477,2354,2296,2288,2239,2339,2111,2174,2000,1985,1924,1879,1800,1785,1778,1705,1663,1665,1665,1675,1688,1845,1854,1838,1934,1857,1882,1863,1919,1914,1960,1884,1915,1892,1900,1893,1938,1916,1872,1887,1865,1891,1930,1894,1931,1903,1920,1891,1075,1024,1029,1052,1115,1307,1431,1634,1661,1769,1693,1691,1623,1648,1567,1539,1584,1535,1555,1467,1399,1407,1385,1309,1403,1266,1237,1243,1220,1150,1163,1135,1091,1071,1069,1037,1043,1076,1050,1049,1053,1053,1067,1052,1062,1067,1062,1067,1072,1073,1076,1090,1075,1082,1093,1081,1089,1088,1085,1082,1089,1092,1099,1098,1100,766,768,771,773,842,926,1013,1173,1220,1258,1257,1237,1243,1197,1244,1157,1137,1117,1096,1109,1089,1054,1058,996,982,976,964,915,895,875,855,885,802,832,769,816,823,782,787,786,790,801,789,794,800,806,799,830,800,792,804,804,807,804,802,805,797,814,804,798,800,818,805,813,805,444,446,447,449,451,488,607,617,682,730,738,727,715,703,691,679,668,656,644,632,675,609,597,585,676,561,550,538,526,514,503,491,479,467,456,451,453,454,438,439,441,446,446,449,442,446,444,457,447,447,448,449,456,461,456,454,457,452,454,455,460,462,453,456,453,276,276,277,278,279,292,326,360,394,428,439,433,426,420,413,407,400,394,387,381,374,368,361,355,348,342,335,329,322,316,309,303,296,290,283,279,280,281,269,278,271,286,273,282,273,291,273,281,276,270,279,278,282,280,280,278,278,276,287,279,273,278,274,280,279,531,534,534,536,544,589,604,668,734,778,782,771,759,747,736,724,712,700,689,806,666,653,642,630,618,635,595,584,572,559,549,536,524,512,543,539,619,542,525,524,530,537,534,541,537,545,541,536,546,537,534,540,539,548,536,533,542,539,540,546,539,547,532,542,537,803,775,780,783,802,942,1012,1196,1232,1397,1280,1332,1224,1257,1227,1162,1145,1174,1150,1120,1058,1078,1060,990,1094,962,940,954,939,875,896,906,838,820,817,785,789,821,806,806,855,1103,859,789,841,932,870,817,912,886,833,841,916,897,883,797,823,824,867,876,806,848,823,818,833,617,623,651,623,672,699,791,884,1047,1012,1021,1010,1060,1033,1015,935,924,907,891,875,859,838,827,846,829,774,765,745,729,744,697,696,664,644,631,627,672,630,637,634,639,652,642,647,642,654,645,639,646,639,649,649,656,659,654,653,639,660,651,646,649,669,656,667,654,966,915,919,932,979,1150,1256,1458,1488,1600,1526,1527,1461,1489,1410,1385,1433,1386,1433,1323,1257,1268,1249,1176,1272,1137,1111,1119,1100,1032,1048,1022,981,960,959,927,932,965,960,952,944,950,1008,1051,969,974,992,1012,983,1014,1005,1014,975,981,1004,1005,1013,983,1000,1070,1032,1037,1047,1014,1013,502,503,505,507,512,557,687,706,780,826,833,820,806,793,780,766,753,740,726,713,754,686,673,660,748,633,620,606,593,580,566,553,540,526,514,510,511,512,509,502,506,507,511,510,510,510,516,513,514,514,518,516,519,515,513,521,514,522,517,515,519,519,517,516,511,838,841,809,867,896,971,1097,1221,1338,1353,1317,1318,1297,1289,1255,1233,1212,1191,1170,1149,1148,1107,1110,1032,1108,1023,1062,981,960,970,946,896,861,841,842,882,853,840,850,851,847,854,851,862,852,856,864,921,850,853,852,856,861,848,859,860,853,860,848,864,860,861,861,859,854,0,0,0,0,0,0,0,0,0,0,0,0,0,0,0,0,0,0,0,0,0,0,0,0,0,0,0,0,0,0,0,0,0,0,0,0,0,0,0,0,0,0,0,0,0,0,0,0,0,0,0,0,0,0,0,0,0,0,0,0,0,0,0,0,0,1104,1108,1077,1156,1210,1282,1434,1568,1680,1707,1668,1700,1624,1612,1575,1580,1555,1501,1504,1479,1473,1428,1428,1321,1418,1335,1352,1275,1249,1255,1226,1173,1131,1097,1111,1152,1110,1113,1166,1174,1164,1187,1214,1211,1190,1188,1199,1227,1196,1218,1214,1207,1177,1188,1191,1215,1219,1182,1210,1243,1205,1198,1210,1190,1189,1250,1200,1206,1252,1334,1562,1722,1940,1940,2042,1962,1956,1884,1904,1819,1778,1827,1774,1812,1698,1626,1629,1617,1524,1611,1464,1439,1464,1413,1339,1347,1314,1267,1247,1246,1215,1216,1255,1274,1280,1322,1596,1328,1264,1312,1409,1349,1282,1383,1356,1305,1307,1389,1367,1364,1275,1302,1297,1342,1344,1285,1333,1294,1302,1314,482,483,485,486,480,572,603,724,745,851,829,838,768,824,748,735,723,756,743,684,668,654,688,616,734,608,595,650,636,553,607,566,534,525,526,489,491,522,498,509,507,514,523,513,517,513,504,519,506,510,511,519,522,536,567,555,521,517,517,510,513,514,525,522,507,770,778,773,776,808,887,989,1070,1150,1163,1170,1151,1135,1108,1092,1076,1070,1015,999,984,1014,965,938,957,932,916,880,871,946,853,837,865,805,796,779,767,780,782,781,782,776,791,798,783,792,804,793,793,798,808,882,885,888,838,832,823,808,813,794,795,809,789,802,794,789,329,329,330,331,331,347,378,409,439,469,475,469,463,457,451,446,440,434,428,422,416,410,405,399,393,387,381,375,369,364,358,352,346,340,334,332,332,333,318,319,319,319,322,323,325,343,326,331,324,327,327,334,328,341,335,326,326,323,320,332,326,327,322,327,324,374,375,376,377,379,403,452,502,551,594,605,596,611,623,568,559,550,540,531,522,513,504,494,485,476,486,457,448,457,430,421,411,402,393,384,380,380,381,376,374,377,373,379,383,400,384,376,384,389,389,387,381,385,400,384,388,381,383,377,379,380,383,380,388,387,736,736,738,743,796,849,961,1071,1152,1189,1190,1245,1197,1189,1122,1097,1115,1089,1071,1022,1003,985,1013,950,931,946,891,873,880,835,817,801,781,761,750,788,748,774,736,739,746,754,753,752,743,751,745,772,754,752,761,764,775,790,778,767,772,764,771,772,778,785,768,774,770,986,939,1001,952,1037,1124,1270,1403,1566,1514,1551,1599,1571,1481,1520,1390,1439,1394,1346,1295,1271,1298,1326,1200,1247,1186,1129,1164,1146,1058,1076,1010,986,1022,952,972,992,955,989,984,993,996,986,984,996,997,986,993,998,991,997,1015,1026,1009,1011,996,993,1005,996,989,993,1003,998,1004,999,890,922,908,915,994,1076,1188,1326,1425,1449,1444,1456,1442,1457,1392,1324,1353,1309,1242,1240,1225,1203,1178,1111,1149,1113,1069,1061,1045,1019,1017,974,951,924,906,923,917,906,946,943,934,1020,985,981,958,951,970,997,975,983,989,975,951,951,962,989,989,961,985,1017,969,957,988,955,955,555,557,559,560,592,622,701,781,858,901,906,927,913,908,849,835,856,946,792,778,764,750,736,721,707,727,679,665,672,636,622,608,594,580,567,585,565,566,568,569,567,567,582,580,608,611,579,591,583,588,583,580,579,595,591,586,586,576,571,584,579,588,579,593,575,619,630,628,633,643,695,764,828,889,916,914,902,890,873,867,855,844,832,820,809,797,785,774,762,750,739,741,760,704,692,676,719,657,642,637,636,637,638,640,636,637,642,644,638,652,641,642,645,646,639,651,649,646,644,676,663,644,645,640,644,646,654,653,646,644,787,816,791,796,856,916,1058,1157,1239,1269,1253,1221,1194,1188,1197,1166,1136,1118,1102,1090,1071,1050,1079,1017,994,982,952,932,939,893,873,856,834,814,803,835,802,827,818,801,813,835,820,822,812,822,823,829,827,818,838,874,900,873,860,830,810,844,823,815,809,841,824,848,816,775,753,780,767,807,892,990,1106,1204,1238,1242,1211,1188,1129,1115,1124,1099,1093,1085,1060,1049,1016,997,978,959,959,920,906,885,872,818,825,806,787,779,782,748,775,770,777,798,813,832,831,841,787,798,828,784,776,787,790,789,785,814,799,775,774,781,781,776,785,793,812,775,1265,1264,1299,1326,1430,1732,1765,1875,2039,2032,2040,1894,1866,1892,1810,1782,1819,1726,1789,1670,1642,1614,1586,1613,1558,1579,1590,1551,1451,1389,1361,1428,1332,1360,1280,1319,1373,1311,1357,1417,1363,1382,1389,1383,1386,1411,1388,1397,1410,1378,1391,1401,1409,1410,1410,1418,1411,1404,1434,1388,1406,1418,1436,1413,1406,1026,1011,1033,1067,1125,1257,1394,1598,1667,1674,1770,1678,1637,1610,1560,1550,1506,1480,1453,1446,1376,1350,1347,1453,1318,1245,1219,1230,1167,1173,1146,1124,1088,1096,1046,1068,1026,1048,1047,1038,1047,1042,1179,1053,1058,1058,1060,1065,1133,1154,1077,1081,1082,1076,1208,1113,1089,1085,1123,1095,1095,1089,1116,1106,1124,1493,1432,1498,1610,1679,1974,2241,2216,2304,2260,2306,2147,2145,2086,2143,2046,1985,2030,1920,1983,1942,1822,1860,1761,1817,1760,1770,1826,1669,1588,1566,1534,1471,1497,1511,1482,1451,1454,1540,1601,1547,1570,1581,1568,1577,1598,1572,1583,1594,1565,1579,1593,1594,1600,1623,1633,1600,1595,1621,1570,1590,1603,1636,1602,1590,758,761,763,765,869,881,994,1107,1192,1228,1228,1264,1263,1215,1210,1132,1147,1169,1132,1114,1036,1069,1054,978,959,973,920,901,903,863,895,824,805,786,819,784,820,774,767,770,787,801,785,798,777,797,779,807,790,781,789,791,802,816,800,795,802,791,800,802,799,807,785,795,790,726,762,730,732,831,878,962,1053,1120,1157,1153,1123,1098,1092,1076,1060,1045,1029,1005,1048,1016,967,994,937,920,904,914,873,868,841,826,790,822,780,740,769,771,779,749,760,763,782,882,830,781,833,785,913,818,846,831,782,814,856,816,790,864,808,792,840,828,894,829,818,801,798,794,796,808,836,935,1014,1109,1192,1201,1207,1244,1217,1144,1218,1123,1094,1090,1061,1109,1061,1011,1044,1033,961,944,967,921,952,878,861,868,846,825,802,802,813,838,804,807,823,805,804,810,815,813,816,817,823,818,809,813,818,825,818,827,844,848,822,825,828,827,828,830,822,996,983,1014,1000,1062,1279,1533,1709,1782,1727,1746,1754,1683,1652,1620,1589,1670,1550,1494,1573,1517,1422,1402,1412,1326,1336,1250,1182,1199,1120,1089,1059,1053,1000,983,1025,1024,1023,1052,1054,1043,1129,1104,1100,1083,1077,1088,1127,1084,1113,1116,1099,1058,1081,1083,1100,1106,1066,1099,1152,1111,1108,1120,1089,1087,178,179,179,179,180,183,202,221,240,258,272,268,264,261,257,253,250,246,242,239,235,231,228,224,220,217,213,209,205,202,198,194,191,187,183,180,181,181,167,170,167,171,171,173,167,172,167,173,169,170,169,169,173,177,171,171,172,170,172,172,171,173,166,169,166,1834,1909,1914,2089,2353,2525,2659,2803,2820,2798,2761,2686,2692,2641,2684,2611,2476,2476,2536,2458,2318,2287,2328,2274,2158,2119,2148,2074,2054,1959,1881,1896,1901,1869,1834,1854,1866,1868,2172,2183,2177,2199,2224,2226,2225,2256,2223,2238,2276,2229,2261,2232,2260,2290,2428,2356,2278,2267,2256,2274,2260,2241,2279,2320,2269,897,897,911,925,959,1090,1175,1303,1368,1398,1361,1342,1322,1333,1284,1281,1245,1226,1207,1203,1168,1146,1130,1129,1105,1095,1070,1048,1048,1007,975,997,935,952,910,930,921,934,928,929,927,950,950,943,950,962,943,951,961,969,1022,1027,1050,996,958,944,952,959,947,939,939,955,942,955,931,1371,1311,1361,1453,1543,1771,2043,2025,2117,2072,2052,2008,1969,1908,1918,1917,1857,1905,1761,1828,1790,1672,1713,1613,1676,1618,1635,1658,1540,1486,1442,1439,1349,1375,1388,1360,1355,1358,1421,1410,1407,1428,1504,1490,1460,1491,1457,1504,1529,1513,1551,1509,1519,1519,1524,1465,1510,1495,1490,1507,1490,1511,1525,1560,1505,1343,1342,1384,1423,1541,1863,1896,2003,2180,2155,2164,2013,1983,2006,1923,1893,1928,1833,1908,1773,1743,1713,1683,1708,1651,1670,1678,1638,1536,1472,1442,1507,1411,1439,1359,1399,1452,1391,1489,1501,1473,1488,1482,1516,1493,1516,1533,1590,1506,1541,1522,1532,1513,1570,1540,1506,1516,1497,1511,1551,1521,1549,1539,1542,1509,482,483,484,484,488,507,539,617,622,653,655,647,639,631,622,615,608,600,593,585,611,572,561,558,546,544,537,523,537,529,520,530,495,496,488,486,487,469,454,455,456,457,458,460,461,462,463,468,465,468,468,469,470,471,472,473,475,476,477,477,478,480,480,483,483,838,841,874,848,917,988,1116,1190,1323,1333,1333,1410,1347,1313,1250,1249,1258,1215,1165,1163,1142,1116,1093,1027,1091,1033,966,992,959,935,914,908,887,846,854,842,853,855,832,830,836,841,871,837,843,860,850,851,850,848,848,862,885,888,1047,969,894,879,863,858,864,858,869,866,859,375,372,373,377,375,397,426,456,486,540,516,511,505,499,494,488,482,477,471,465,460,454,448,442,437,431,425,420,439,408,403,440,391,390,380,376,377,401,366,372,372,373,371,368,377,373,378,376,370,373,369,374,373,377,379,385,371,371,374,379,381,381,376,373,373,853,853,871,864,906,1068,1108,1209,1279,1328,1293,1275,1256,1235,1220,1202,1184,1165,1147,1126,1111,1090,1074,1123,1038,1164,1062,1042,1000,945,929,951,890,919,866,863,865,867,870,871,874,885,873,883,878,891,896,875,896,877,886,882,883,891,885,889,883,893,882,889,886,901,885,894,885,327,328,328,329,330,342,365,388,411,433,438,434,429,425,420,416,412,407,403,398,429,389,385,381,376,372,367,363,358,354,350,384,341,336,332,330,330,331,317,315,307,305,311,343,314,315,317,322,318,327,333,314,331,333,349,314,316,341,317,331,319,311,338,315,312,1240,1179,1183,1289,1319,1500,1771,1879,1913,1808,1804,1764,1770,1822,1686,1690,1634,1687,1582,1653,1619,1503,1643,1451,1477,1424,1496,1525,1396,1317,1269,1279,1217,1274,1290,1191,1194,1196,1267,1273,1285,1302,1312,1297,1302,1303,1287,1297,1285,1276,1288,1295,1297,1298,1314,1305,1280,1279,1290,1282,1279,1288,1297,1305,1280,0,0,0,0,0,0,0,0,0,0,0,0,0,0,0,0,0,0,0,0,0,0,0,0,0,0,0,0,0,0,0,0,0,0,0,0,0,0,0,0,0,0,0,0,0,0,0,0,0,0,0,0,0,0,0,0,0,0,0,0,0,0,0,0,0,644,650,642,663,662,719,808,879,949,1004,973,960,947,935,922,909,887,883,870,857,844,831,818,806,793,780,759,754,725,728,715,728,689,680,667,663,665,654,655,653,662,677,674,667,662,666,666,676,679,670,674,710,728,712,702,677,670,683,675,670,662,685,671,687,667,770,778,773,776,808,887,989,1070,1150,1163,1170,1151,1135,1108,1092,1076,1070,1015,999,984,1014,965,938,957,932,916,880,871,946,853,837,865,805,796,779,767,780,782,781,782,776,791,798,783,792,804,793,793,798,808,882,885,888,838,832,823,808,813,794,795,809,789,802,794,789,774,788,797,793,815,918,1061,1228,1317,1346,1337,1335,1293,1273,1270,1220,1204,1181,1191,1167,1133,1087,1063,1063,1016,1015,969,959,921,898,889,852,841,822,776,803,789,793,792,801,802,824,815,806,808,822,806,820,821,831,862,859,879,866,821,816,825,820,824,815,824,830,817,825,817,540,542,544,545,552,590,668,747,824,885,876,880,848,852,838,806,809,795,780,766,752,738,723,709,695,680,666,652,637,623,609,595,580,566,541,548,550,551,559,542,537,548,539,550,572,576,561,547,542,538,542,542,546,540,578,541,553,547,548,557,577,553,540,549,542,776,808,810,783,851,919,1107,1201,1332,1399,1361,1380,1359,1337,1286,1263,1283,1241,1158,1136,1124,1088,1068,1040,1019,1006,977,948,944,915,936,873,873,808,791,829,857,795,837,828,828,833,830,839,833,837,833,832,833,827,833,837,838,839,848,838,838,839,840,846,837,851,837,847,840,1014,961,957,1041,1039,1184,1350,1535,1593,1719,1623,1588,1572,1586,1567,1556,1485,1474,1446,1380,1354,1324,1305,1277,1240,1212,1202,1156,1128,1101,1080,1046,1018,992,969,967,971,988,980,967,983,1003,990,976,974,989,988,1042,1081,1001,1084,1080,1034,999,1034,1049,1031,1105,1093,1003,1034,1111,1122,1100,1023,1244,1268,1317,1382,1415,1651,1826,2083,2118,2085,2074,2158,2004,1968,1933,1969,1864,1829,1793,1818,1787,1689,1708,1658,1642,1549,1566,1479,1443,1463,1374,1339,1362,1330,1314,1295,1267,1331,1336,1341,1345,1375,1334,1378,1349,1375,1364,1379,1391,1367,1380,1373,1386,1395,1383,1386,1379,1388,1397,1382,1392,1395,1386,1421,1422,1198,1213,1221,1240,1367,1543,1799,1881,1983,2031,2020,1986,1944,1943,1875,1850,1841,1757,1723,1702,1660,1652,1590,1562,1563,1488,1474,1440,1382,1370,1336,1303,1249,1246,1229,1215,1231,1242,1305,1288,1285,1288,1288,1299,1363,1359,1296,1326,1314,1292,1296,1342,1352,1368,1368,1371,1350,1365,1368,1345,1322,1330,1304,1309,1303,862,865,868,874,921,1041,1201,1351,1448,1489,1487,1461,1436,1408,1383,1358,1333,1307,1280,1255,1228,1204,1178,1152,1125,1101,1075,1049,1022,997,972,946,920,896,879,876,879,884,873,873,885,909,896,892,883,898,889,915,904,904,976,977,1011,965,923,907,912,919,911,904,916,932,907,923,905,606,608,609,611,623,699,812,924,1025,1075,1079,1060,1041,1021,1002,983,964,944,925,906,886,867,848,829,809,790,771,752,732,713,694,674,655,636,619,616,619,622,616,625,646,752,639,611,629,677,653,617,740,712,626,656,744,726,732,611,641,644,677,649,621,646,639,622,623,1024,962,965,1090,1039,1172,1362,1559,1591,1633,1621,1596,1569,1546,1579,1493,1509,1447,1407,1379,1354,1324,1296,1276,1240,1213,1185,1157,1129,1102,1083,1047,1028,993,977,967,971,991,988,993,980,1089,1016,1004,1000,1016,1014,1000,998,1013,1013,999,986,993,1003,1009,1000,997,988,996,999,1009,1020,1015,988,1244,1287,1240,1313,1347,1532,1725,1910,2012,2060,2093,2013,1965,1892,1872,1844,1777,1784,1761,1684,1711,1677,1630,1602,1559,1591,1534,1466,1415,1390,1308,1337,1259,1277,1289,1253,1306,1292,1334,1330,1315,1421,1356,1330,1344,1352,1345,1334,1340,1348,1364,1337,1334,1336,1338,1353,1335,1345,1323,1337,1336,1349,1345,1336,1313,1186,1213,1158,1192,1281,1532,1660,1812,1897,1934,1917,1886,1856,1904,1795,1765,1730,1697,1695,1632,1666,1618,1535,1503,1470,1438,1405,1373,1367,1308,1302,1243,1211,1186,1170,1228,1251,1177,1226,1267,1213,1228,1246,1234,1238,1262,1242,1246,1279,1239,1250,1262,1267,1271,1249,1272,1272,1264,1299,1238,1254,1267,1295,1250,1244,1298,1275,1280,1335,1508,1731,2065,2234,2291,2342,2304,2269,2201,2184,2189,2126,2056,1973,1977,1961,1871,1884,1801,1722,1708,1639,1626,1555,1535,1483,1461,1443,1343,1332,1306,1294,1329,1319,1343,1349,1350,1359,1364,1367,1372,1375,1387,1390,1398,1407,1406,1415,1464,1474,1436,1440,1456,1458,1460,1476,1479,1487,1482,1517,1513,1473,1502,1523,1549,1691,2010,2143,2283,2358,2386,2361,2323,2285,2270,2210,2172,2192,2090,2080,2011,2035,2028,1891,1886,1812,1772,1732,1693,1679,1613,1599,1534,1500,1476,1461,1519,1492,1547,1566,1590,1568,1602,1604,1586,1588,1635,1586,1617,1587,1623,1617,1626,1614,1631,1629,1649,1632,1616,1635,1627,1640,1626,1636,1634,1657,1066,1070,1073,1098,1237,1333,1531,1704,1773,1808,1871,1831,1740,1708,1740,1649,1617,1586,1613,1525,1545,1522,1433,1455,1401,1341,1310,1280,1292,1217,1188,1157,1127,1102,1085,1096,1086,1092,1128,1087,1096,1093,1100,1113,1105,1107,1105,1121,1142,1130,1131,1138,1138,1147,1135,1142,1129,1152,1158,1158,1153,1143,1166,1175,1173,948,897,893,970,959,1082,1246,1445,1489,1534,1523,1489,1475,1453,1473,1402,1419,1347,1320,1294,1270,1241,1224,1198,1162,1136,1144,1084,1057,1031,1012,979,953,927,905,902,906,916,921,922,965,1231,975,907,955,1050,988,930,1024,1000,947,952,1032,1013,1005,914,944,937,984,981,928,963,935,936,952,981,930,932,1055,1000,1130,1316,1512,1545,1657,1644,1552,1527,1506,1536,1451,1467,1406,1366,1339,1315,1285,1258,1230,1203,1176,1149,1121,1094,1067,1049,1014,995,960,944,941,945,958,945,965,953,975,955,971,965,988,973,978,967,963,975,974,982,985,989,992,988,980,992,982,989,1008,997,1005,1005,1108,1110,1113,1142,1260,1467,1788,2025,2083,2153,2087,2008,2040,1963,1959,1900,1971,1822,1803,1772,1674,1633,1592,1572,1479,1468,1427,1385,1366,1303,1375,1220,1197,1158,1101,1128,1111,1120,1160,1205,1168,1174,1190,1181,1179,1199,1189,1190,1210,1179,1187,1199,1196,1200,1200,1214,1208,1202,1223,1193,1210,1226,1242,1212,1207,564,566,568,570,579,620,702,785,865,925,915,919,886,889,874,842,844,829,814,800,785,770,755,740,725,710,695,680,665,650,635,621,606,591,566,573,575,576,591,580,580,582,590,584,590,582,590,590,586,584,599,590,594,586,586,594,586,593,582,585,593,592,586,582,579,1507,1510,1549,1732,2188,2614,2811,2823,2878,2877,2839,2781,2723,2665,2636,2632,2490,2510,2374,2316,2258,2199,2141,2083,2025,1967,1909,1850,1886,1734,1676,1608,1642,1536,1547,1630,1559,1572,1686,1744,1716,1750,1765,1763,1773,1743,1740,1771,1744,1704,1729,1732,1738,1734,1769,1762,1734,1725,1751,1716,1734,1755,1779,1771,1736,819,846,789,792,827,1004,1137,1220,1334,1364,1352,1334,1312,1313,1269,1247,1220,1197,1173,1149,1163,1101,1092,1054,1030,1006,983,959,935,909,900,876,852,828,800,826,801,804,809,813,817,830,837,820,827,825,822,825,843,847,869,890,874,860,825,824,838,837,831,816,840,827,822,825,827,1418,1461,1386,1517,1693,1878,2090,2135,2285,2382,2271,2214,2300,2098,2106,2050,2066,2046,2052,1950,1912,1879,1810,1739,1790,1718,1649,1694,1626,1520,1525,1486,1425,1401,1416,1481,1397,1396,1509,1506,1498,1588,1555,1556,1540,1532,1547,1591,1548,1587,1594,1580,1524,1559,1550,1562,1564,1535,1587,1649,1614,1614,1624,1562,1562,1264,1291,1238,1284,1387,1656,1792,1940,2022,2057,2038,2005,1973,2018,1908,1876,1839,1804,1800,1736,1767,1767,1632,1598,1564,1529,1495,1460,1453,1392,1383,1323,1290,1265,1249,1307,1333,1257,1305,1307,1322,1349,1328,1342,1323,1321,1318,1318,1342,1326,1353,1369,1358,1343,1334,1342,1340,1351,1349,1330,1351,1350,1318,1343,1337,568,569,571,572,581,649,753,904,955,1006,1059,993,975,957,939,921,903,885,867,849,831,813,795,777,759,741,723,705,687,669,683,633,615,597,580,577,579,582,582,575,568,578,582,610,577,585,596,588,578,584,572,582,583,569,582,586,584,582,577,578,588,594,588,595,584,1146,1135,1188,1161,1281,1423,1664,1764,1901,1933,1924,1892,1859,1803,1749,1761,1708,1696,1662,1614,1608,1547,1557,1522,1466,1405,1385,1370,1336,1288,1272,1239,1278,1182,1189,1195,1168,1173,1225,1228,1272,1527,1280,1214,1268,1359,1296,1246,1335,1303,1260,1258,1337,1315,1311,1227,1245,1249,1290,1299,1229,1282,1249,1254,1261,295,296,297,298,299,313,355,396,438,478,494,487,479,471,463,455,447,439,431,423,415,407,400,392,384,376,368,360,352,344,336,328,321,313,305,300,301,301,291,291,291,291,296,296,295,299,296,305,295,295,297,297,296,299,301,301,299,299,296,299,301,309,310,312,308,776,802,745,747,777,945,1012,1148,1245,1294,1284,1267,1246,1306,1205,1184,1159,1136,1113,1090,1136,1045,1022,1000,977,954,931,909,886,861,839,818,795,773,756,812,756,760,761,753,768,801,781,769,781,784,774,782,784,777,787,810,820,809,825,790,777,790,784,781,774,801,785,801,782,615,609,619,621,635,698,791,884,969,1054,1016,1015,978,967,951,935,919,916,886,905,854,837,821,837,788,772,756,740,753,707,691,685,650,634,638,625,618,638,621,624,630,642,653,655,663,630,632,651,633,628,645,634,632,628,659,646,624,624,625,629,629,636,640,644,626,1259,1338,1243,1427,1460,1613,1970,1919,2031,2181,2026,2125,2053,1904,2055,1925,1846,1941,1942,1742,1697,1713,1613,1579,1686,1534,1549,1519,1483,1380,1361,1326,1293,1268,1256,1354,1235,1307,1310,1343,1294,1304,1326,1310,1320,1335,1323,1325,1361,1325,1330,1343,1344,1349,1328,1355,1357,1350,1374,1318,1344,1353,1379,1329,1327,737,739,741,794,856,831,938,1044,1132,1188,1175,1174,1138,1137,1164,1083,1081,1063,1044,1091,1061,988,970,951,933,914,896,933,913,894,821,803,784,765,740,748,750,752,747,763,743,761,763,769,760,767,764,755,753,763,756,755,755,753,760,763,760,756,754,759,759,776,769,777,759,0,0,0,0,0,0,0,0,0,0,0,0,0,0,0,0,0,0,0,0,0,0,0,0,0,0,0,0,0,0,0,0,0,0,0,0,0,0,0,0,0,0,0,0,0,0,0,0,0,0,0,0,0,0,0,0,0,0,0,0,0,0,0,0,0,774,788,797,793,815,918,1061,1228,1317,1346,1337,1335,1293,1273,1270,1220,1204,1181,1191,1167,1133,1087,1063,1063,1016,1015,969,959,921,898,889,852,841,822,776,803,789,793,792,801,802,824,815,806,808,822,806,820,821,831,862,859,879,866,821,816,825,820,824,815,824,830,817,825,817,0,0,0,0,0,0,0,0,0,0,0,0,0,0,0,0,0,0,0,0,0,0,0,0,0,0,0,0,0,0,0,0,0,0,0,0,0,0,0,0,0,0,0,0,0,0,0,0,0,0,0,0,0,0,0,0,0,0,0,0,0,0,0,0,0,570,572,574,575,586,651,739,830,917,960,963,947,1008,915,903,887,867,851,836,820,804,788,772,756,740,724,711,692,676,660,699,628,612,596,583,579,581,583,583,583,587,599,586,591,591,598,591,590,591,583,596,594,601,600,593,592,588,601,595,591,591,613,595,601,593,469,464,470,471,469,506,621,633,689,730,757,761,721,737,702,722,682,671,661,637,654,628,615,605,624,603,581,559,544,532,511,510,491,485,498,474,475,494,476,491,471,478,487,484,491,496,478,481,484,490,481,478,481,485,485,484,485,481,483,484,477,487,481,492,476,232,233,234,235,235,252,285,319,352,385,398,392,385,379,373,418,375,354,385,351,326,320,314,308,301,334,328,283,277,271,265,258,252,246,257,236,237,237,219,222,225,232,220,219,220,223,225,219,222,220,222,222,219,222,222,222,220,224,220,224,220,225,222,224,223,579,570,582,574,585,638,755,807,903,932,939,922,907,908,878,863,891,832,832,803,788,773,757,792,729,717,699,687,669,701,639,635,619,597,581,576,581,580,598,584,580,585,586,606,646,644,594,621,605,590,593,633,640,649,638,653,639,655,644,626,616,605,591,590,580,550,541,553,566,575,629,723,778,889,939,877,957,942,892,905,865,837,828,802,808,778,760,763,757,733,741,700,662,648,633,590,616,590,575,573,569,572,586,575,564,564,569,576,570,573,564,575,573,573,567,584,575,578,572,571,578,575,582,565,570,580,576,571,567,565,312,313,314,316,317,336,381,426,471,514,524,514,505,499,491,482,474,466,455,449,440,432,424,415,407,397,390,382,373,365,356,348,338,331,323,317,318,320,314,309,312,310,318,322,311,316,318,315,316,311,317,317,316,325,320,317,312,323,316,327,319,317,315,322,325,385,387,388,389,390,422,475,531,587,634,643,632,622,612,606,595,581,571,560,550,540,530,519,509,499,488,481,468,457,447,440,427,416,406,396,391,392,393,393,380,387,385,386,406,384,400,401,388,403,393,393,395,395,407,397,394,391,403,393,400,400,399,395,406,407,240,241,242,242,243,253,286,318,364,383,396,390,384,377,371,365,359,353,347,340,334,328,322,316,300,303,297,291,285,279,273,266,260,254,248,244,244,245,233,234,231,233,233,234,234,247,239,238,234,236,238,242,238,251,239,234,235,238,233,243,236,236,235,236,235,827,821,823,827,864,940,1130,1183,1269,1306,1304,1306,1263,1243,1270,1237,1182,1180,1158,1120,1100,1102,1059,1060,1039,1019,1035,957,936,937,909,875,879,847,850,830,832,835,855,840,841,847,845,846,916,908,847,882,863,848,850,904,908,921,923,921,905,917,919,897,876,874,855,853,850,706,656,658,661,676,739,835,933,1014,1058,1027,1064,1028,1013,996,964,948,963,930,899,912,866,835,833,816,800,783,767,751,734,718,688,685,681,655,663,652,667,648,664,657,671,699,691,679,703,666,708,684,713,679,677,690,707,690,684,695,695,685,690,682,702,684,689,672,1363,1367,1383,1460,1733,2000,2213,2253,2328,2408,2355,2284,2293,2199,2153,2170,2168,2065,2037,1948,1917,1971,1850,1855,1755,1717,1677,1681,1609,1563,1541,1491,1432,1410,1421,1418,1428,1410,1496,1488,1519,1548,1532,1554,1528,1557,1540,1536,1565,1540,1543,1548,1551,1557,1536,1529,1533,1542,1540,1550,1540,1563,1533,1544,1556,746,748,754,753,782,865,980,1096,1184,1227,1223,1204,1188,1168,1149,1126,1156,1087,1067,1048,1028,1008,992,969,950,930,908,891,872,852,836,813,829,774,760,757,759,761,766,770,763,863,804,784,793,798,783,785,790,800,806,805,789,797,784,786,789,778,777,781,782,779,783,777,762,483,484,482,483,487,529,604,674,742,792,798,785,770,757,741,732,719,709,682,684,669,655,646,633,621,595,628,570,568,557,544,531,515,502,484,487,488,488,478,490,488,495,495,500,492,504,486,495,487,485,488,500,500,499,499,496,492,496,507,498,492,488,487,499,488,169,170,170,171,171,183,207,230,254,278,292,287,282,278,273,269,264,259,255,250,237,233,228,224,219,215,210,206,202,197,193,188,184,179,181,172,172,172,163,162,163,163,163,164,163,164,164,167,161,165,163,169,166,164,162,167,163,164,164,167,165,163,161,164,162,208,208,209,209,210,218,248,277,319,335,349,343,338,332,326,321,315,310,304,299,293,287,282,276,271,265,259,254,248,243,237,231,226,220,215,211,211,212,202,201,200,203,203,205,203,205,204,208,201,208,204,211,209,204,201,204,202,204,205,212,205,204,202,205,201,1202,1206,1185,1225,1466,1696,1862,2072,2149,2126,2172,2102,2086,2001,1934,1965,1925,1863,1790,1783,1740,1701,1636,1624,1554,1576,1507,1464,1424,1384,1366,1305,1266,1235,1223,1266,1269,1302,1334,1325,1320,1376,1379,1374,1358,1349,1366,1399,1375,1409,1411,1407,1351,1358,1375,1384,1386,1368,1413,1452,1398,1390,1414,1373,1375,595,596,598,600,613,682,774,869,957,1000,1002,985,1045,952,940,923,903,886,869,853,836,820,803,787,770,754,740,720,704,687,725,654,638,621,607,604,606,608,599,598,591,600,605,633,600,608,621,615,603,608,598,607,607,594,608,611,609,608,603,605,617,623,616,623,613,1178,1211,1233,1288,1366,1593,1753,1892,1910,1960,1977,1892,1939,1878,1876,1807,1827,1728,1755,1650,1635,1581,1591,1614,1512,1483,1462,1403,1398,1387,1369,1262,1312,1261,1228,1234,1183,1253,1273,1246,1254,1253,1256,1266,1266,1262,1266,1284,1303,1288,1295,1300,1297,1300,1292,1298,1297,1315,1323,1321,1312,1306,1327,1332,1337,239,239,240,241,242,279,316,353,404,427,399,393,386,380,374,367,361,355,348,342,336,329,323,316,310,304,297,291,285,278,272,266,259,253,246,242,243,244,248,233,227,230,250,256,242,247,253,270,254,289,281,286,251,262,272,257,269,258,284,328,289,295,293,282,284,652,654,656,658,676,710,844,943,1032,1074,1076,1059,1041,1024,1007,990,983,955,900,921,904,886,834,852,801,785,766,783,766,719,731,714,705,652,639,662,664,666,642,641,651,676,660,669,639,659,646,637,652,657,645,654,663,683,670,678,649,668,661,672,678,679,674,691,672,806,733,790,740,764,840,949,1062,1144,1186,1153,1188,1150,1133,1114,1080,1062,1074,1040,1006,1018,969,936,932,914,895,877,858,840,821,803,771,766,760,733,742,731,747,745,728,732,739,774,768,758,782,758,784,770,768,758,741,746,766,755,743,770,749,744,758,753,776,756,761,753,347,348,349,350,351,376,422,471,519,563,573,564,555,546,541,532,519,510,501,492,483,474,465,456,447,438,432,420,411,402,396,384,375,366,357,352,353,354,341,348,354,360,357,361,349,358,345,372,351,351,357,354,372,384,365,357,363,353,363,358,363,366,348,355,347,498,488,490,503,507,552,635,697,785,812,769,804,792,773,771,750,745,727,715,702,692,676,662,653,636,623,614,601,588,575,516,548,535,522,510,491,482,509,491,493,495,492,502,499,507,494,500,496,501,500,500,503,508,513,509,523,507,516,509,496,506,496,514,510,496,486,487,488,490,496,548,623,701,779,825,829,816,879,788,778,764,746,732,718,704,690,677,663,649,635,621,610,593,579,565,606,537,524,510,497,493,495,497,492,502,501,510,509,513,506,513,499,508,502,498,502,515,511,510,517,509,504,504,518,515,500,507,500,510,503,312,313,314,315,316,344,379,435,495,524,521,513,505,496,488,480,471,463,455,446,438,430,456,413,405,396,368,379,371,363,354,346,338,313,321,316,317,318,303,307,302,309,374,343,341,354,324,380,342,358,347,315,320,340,328,317,358,331,315,345,333,371,349,343,328,476,478,479,481,468,507,597,676,711,758,766,753,741,729,716,704,692,680,667,655,643,631,618,626,594,582,569,557,545,533,520,508,496,484,472,511,469,470,471,461,462,470,456,485,464,467,470,475,493,477,477,470,475,491,496,470,467,486,469,480,475,465,478,495,473,494,496,497,499,503,547,618,690,762,809,816,803,790,777,764,751,738,725,712,699,687,674,661,648,635,622,606,596,583,570,557,544,531,518,506,502,503,505,493,494,500,518,496,496,499,507,501,494,499,493,504,504,508,506,502,502,495,514,502,498,500,518,504,510,502,694,718,720,722,716,777,877,926,1001,1047,1049,1037,1023,1009,998,984,1041,954,969,913,940,926,957,897,907,890,856,838,840,823,798,772,748,742,739,725,727,740,715,718,718,735,722,743,723,739,748,726,735,726,726,728,723,728,728,731,729,733,723,728,732,745,737,748,735,769,771,773,776,807,904,1016,1150,1245,1283,1280,1259,1313,1217,1200,1170,1154,1133,1112,1091,1070,1049,1053,1008,987,966,948,924,941,882,914,865,819,798,784,781,783,786,777,778,798,824,805,778,802,823,808,794,828,818,802,807,837,823,829,798,806,809,822,821,808,821,812,808,810,0,0,0,0,0,0,0,0,0,0,0,0,0,0,0,0,0,0,0,0,0,0,0,0,0,0,0,0,0,0,0,0,0,0,0,0,0,0,0,0,0,0,0,0,0,0,0,0,0,0,0,0,0,0,0,0,0,0,0,0,0,0,0,0,0 ]);
