n = 10;
D = [221,122,154,259,126,167,141,278,203,176 ];
q = 0;
prec = array2d(1..0,1..2,[]);
steps = 64;
l = 360;
r = 0;
which = [];
interval = array2d(1..0,1..2,[]);
T = array3d(1..11,1..11,0..64,[0,0,0,0,0,0,0,0,0,0,0,0,0,0,0,0,0,0,0,0,0,0,0,0,0,0,0,0,0,0,0,0,0,0,0,0,0,0,0,0,0,0,0,0,0,0,0,0,0,0,0,0,0,0,0,0,0,0,0,0,0,0,0,0,0,380,375,393,377,378,403,442,504,548,562,564,557,550,543,536,529,522,515,508,501,494,487,492,484,467,467,453,433,426,419,413,406,399,392,382,379,380,381,370,370,371,372,371,371,374,373,372,370,372,371,371,376,376,374,371,372,376,373,377,376,373,377,370,372,376,1184,1182,1205,1392,1325,1486,1663,1805,1871,1868,1848,1878,1856,1765,1787,1713,1733,1686,1709,1626,1602,1651,1569,1497,1662,1440,1477,1369,1420,1310,1382,1259,1253,1263,1240,1230,1198,1201,1251,1231,1242,1238,1244,1257,1252,1249,1253,1269,1291,1276,1282,1288,1287,1295,1282,1288,1280,1304,1310,1309,1303,1294,1314,1323,1329,562,547,553,567,576,636,717,790,862,884,854,887,833,889,875,861,820,800,794,780,802,758,751,717,694,708,687,674,648,647,632,602,607,594,573,559,571,560,556,553,555,553,557,556,562,562,562,562,562,564,565,568,565,569,569,567,572,569,568,565,572,579,582,582,580,535,536,538,539,546,596,665,734,803,842,842,863,817,830,793,780,768,755,743,730,718,705,693,680,668,655,643,630,618,606,593,581,568,556,544,542,543,545,532,531,524,533,538,567,533,540,554,546,534,541,530,539,540,526,539,542,541,539,534,537,547,553,547,554,542,1286,1200,1199,1233,1300,1441,1631,1776,1844,1856,1837,1860,1767,1753,1712,1702,1658,1676,1603,1588,1590,1594,1518,1475,1439,1405,1384,1458,1362,1420,1277,1319,1245,1191,1191,1176,1193,1196,1271,1279,1230,1242,1282,1271,1262,1274,1269,1276,1332,1281,1300,1311,1315,1295,1292,1304,1313,1328,1363,1298,1294,1310,1361,1312,1282,399,400,401,402,403,432,479,525,572,613,617,609,600,591,582,573,565,556,547,538,530,521,525,503,495,486,477,468,460,451,442,433,425,416,407,404,405,406,392,396,399,407,416,411,412,412,403,412,411,418,419,429,422,425,408,404,416,408,409,411,412,414,403,406,404,657,648,665,652,672,739,810,914,993,990,999,985,971,957,943,929,916,906,888,874,878,847,854,829,805,798,761,760,722,724,710,696,682,681,655,652,654,663,645,657,652,671,659,669,655,663,654,659,656,654,654,668,666,672,672,671,669,667,678,671,667,679,666,680,670,159,173,159,160,160,163,207,214,217,248,237,221,233,239,238,237,222,234,219,216,216,229,216,213,212,215,213,215,214,206,214,214,213,213,176,160,174,161,164,166,164,167,170,169,167,171,165,166,169,178,164,169,170,170,166,169,171,172,171,170,167,172,165,169,166,673,683,703,673,685,768,868,966,1061,1071,1064,1027,1042,1027,1004,989,981,959,944,910,914,899,877,879,854,829,789,796,782,757,752,737,704,693,693,676,697,674,675,675,678,690,691,683,687,685,685,692,699,702,776,776,783,714,690,694,699,694,686,691,699,689,685,695,690,0,0,0,0,0,0,0,0,0,0,0,0,0,0,0,0,0,0,0,0,0,0,0,0,0,0,0,0,0,0,0,0,0,0,0,0,0,0,0,0,0,0,0,0,0,0,0,0,0,0,0,0,0,0,0,0,0,0,0,0,0,0,0,0,0,289,290,290,291,292,306,345,387,409,460,472,465,458,448,430,435,416,422,416,394,386,379,385,378,370,350,356,348,328,320,327,319,312,305,297,293,294,294,279,286,285,287,288,288,286,287,281,297,282,284,287,288,299,305,299,289,291,282,292,289,291,294,285,292,284,0,0,0,0,0,0,0,0,0,0,0,0,0,0,0,0,0,0,0,0,0,0,0,0,0,0,0,0,0,0,0,0,0,0,0,0,0,0,0,0,0,0,0,0,0,0,0,0,0,0,0,0,0,0,0,0,0,0,0,0,0,0,0,0,0,1013,950,953,1074,1024,1142,1294,1488,1569,1547,1541,1516,1492,1467,1442,1421,1393,1372,1341,1319,1322,1273,1299,1247,1222,1172,1150,1122,1098,1073,1085,1024,1034,977,964,961,985,966,992,982,994,997,988,1012,999,1000,1003,1008,1022,1009,994,998,1013,1017,1013,1026,1024,1014,1014,1016,1011,1007,1029,1022,1000,580,611,613,596,606,678,754,842,936,981,983,998,945,955,921,894,891,901,860,859,839,797,811,781,759,721,750,720,705,678,651,651,621,624,622,600,580,603,582,595,586,617,583,606,590,609,598,607,600,592,607,598,609,607,606,605,614,608,618,605,607,616,609,618,622,532,534,535,537,544,600,685,770,853,898,902,887,867,857,842,827,812,797,782,767,752,737,722,707,692,677,662,647,633,670,603,588,569,558,544,541,543,544,559,546,537,541,561,568,557,567,565,595,563,600,605,592,564,599,577,567,580,568,601,657,639,657,644,605,603,943,946,947,982,1001,1117,1286,1418,1486,1533,1496,1490,1484,1441,1449,1504,1382,1362,1302,1313,1283,1261,1208,1240,1186,1150,1140,1089,1078,1053,1043,1004,980,1093,945,955,954,936,970,975,967,969,999,1028,983,996,990,1021,996,1007,989,997,984,1007,985,990,1003,980,985,1015,1003,1020,1007,1003,992,580,582,584,586,607,652,739,825,942,952,956,955,926,927,929,900,886,850,835,819,827,803,774,759,743,728,713,698,695,667,652,637,639,606,593,589,591,592,592,594,594,609,605,596,601,615,602,605,613,624,729,718,738,654,603,595,610,609,601,601,607,602,599,606,602,416,400,406,417,426,449,529,576,643,670,684,680,636,626,636,626,626,591,594,583,588,562,551,556,533,528,498,507,477,477,466,455,445,434,426,422,420,424,410,412,418,437,423,417,423,440,418,425,433,445,484,472,485,450,419,422,431,442,435,418,431,439,429,429,427,374,375,374,377,378,402,452,502,549,611,608,599,589,580,571,561,552,543,533,524,511,505,496,487,477,468,459,449,440,431,421,409,403,393,384,379,380,381,371,371,371,373,387,373,381,377,374,376,378,377,376,383,378,384,468,430,393,391,379,371,385,374,386,374,371,430,438,439,455,457,478,560,625,675,715,731,711,722,710,698,686,682,663,651,639,608,615,603,580,562,568,556,524,532,520,493,497,485,473,447,457,459,445,444,450,448,455,457,452,463,457,446,458,454,448,456,458,458,456,486,468,448,446,452,450,446,456,457,458,448,289,290,290,291,292,306,345,387,409,460,472,465,458,448,430,435,416,422,416,394,386,379,385,378,370,350,356,348,328,320,327,319,312,305,297,293,294,294,279,286,285,287,288,288,286,287,281,297,282,284,287,288,299,305,299,289,291,282,292,289,291,294,285,292,284,1112,1147,1184,1146,1234,1379,1664,1769,1788,1821,1810,1832,1783,1765,1772,1733,1658,1624,1630,1580,1595,1560,1560,1446,1482,1399,1459,1310,1315,1314,1280,1245,1207,1238,1177,1151,1183,1160,1193,1223,1214,1215,1238,1220,1229,1256,1227,1220,1245,1208,1231,1228,1242,1239,1295,1305,1264,1229,1233,1221,1215,1211,1230,1281,1205,884,899,911,881,925,1024,1235,1321,1426,1428,1534,1404,1465,1359,1414,1405,1293,1284,1243,1249,1203,1196,1173,1144,1145,1091,1107,1083,1022,1026,979,971,920,952,909,897,909,898,911,920,916,944,928,944,922,931,930,920,930,925,932,957,947,942,936,945,943,955,957,939,942,957,937,950,940,0,0,0,0,0,0,0,0,0,0,0,0,0,0,0,0,0,0,0,0,0,0,0,0,0,0,0,0,0,0,0,0,0,0,0,0,0,0,0,0,0,0,0,0,0,0,0,0,0,0,0,0,0,0,0,0,0,0,0,0,0,0,0,0,0,950,958,982,969,1088,1145,1363,1483,1521,1620,1551,1527,1602,1477,1559,1421,1403,1378,1353,1362,1357,1307,1254,1230,1279,1198,1246,1131,1106,1120,1089,1069,1007,1075,972,984,968,974,1055,993,996,1006,989,997,1009,1004,1020,1067,1013,1026,1104,1027,1030,1103,1039,1022,1017,1022,1090,1158,1174,1205,1203,1063,1065,1485,1417,1412,1485,1652,1823,2033,2238,2246,2209,2200,2155,2135,2166,2108,2027,2021,1945,1885,1871,1839,1856,1776,1794,1729,1664,1626,1591,1561,1526,1484,1452,1437,1472,1382,1418,1384,1391,1480,1472,1479,1505,1475,1483,1483,1493,1506,1568,1501,1509,1580,1580,1598,1552,1535,1510,1497,1514,1504,1502,1496,1514,1507,1524,1504,295,296,297,298,299,315,357,399,441,482,495,487,479,471,463,455,447,439,431,424,416,408,400,392,384,376,368,360,352,344,336,328,321,313,305,300,301,302,292,291,291,291,299,292,296,302,293,324,296,293,299,299,295,297,302,301,301,301,295,297,296,301,301,301,302,1480,1489,1564,1655,1743,1913,2197,2260,2350,2415,2337,2278,2357,2277,2242,2234,2096,2072,2046,2048,1949,1948,1890,1894,1860,1766,1851,1722,1654,1642,1583,1571,1539,1535,1501,1502,1543,1497,1590,1598,1589,1621,1597,1617,1589,1619,1625,1720,1591,1606,1620,1608,1662,1610,1623,1621,1640,1618,1602,1613,1637,1631,1621,1621,1608,959,959,965,977,1025,1153,1330,1442,1566,1549,1550,1514,1490,1480,1443,1430,1423,1370,1385,1392,1333,1292,1246,1237,1209,1174,1147,1132,1110,1085,1057,1036,1009,989,987,967,983,1003,1014,1017,1006,1092,1061,1058,1038,1037,1047,1082,1044,1073,1075,1060,1021,1040,1045,1061,1063,1027,1062,1111,1069,1065,1077,1052,1046,1226,1270,1288,1296,1340,1502,1811,1922,1917,1950,1939,1958,1903,1883,1892,1848,1787,1749,1737,1700,1664,1666,1624,1549,1551,1508,1512,1418,1421,1419,1383,1332,1352,1325,1229,1308,1281,1259,1311,1351,1312,1311,1328,1312,1322,1329,1327,1328,1349,1329,1341,1336,1342,1345,1351,1360,1346,1355,1380,1335,1356,1361,1374,1355,1349,1086,1086,1085,1124,1201,1338,1518,1656,1776,1756,1761,1716,1689,1676,1637,1620,1591,1555,1545,1512,1482,1445,1410,1377,1362,1324,1299,1291,1243,1223,1195,1184,1131,1121,1102,1095,1098,1119,1141,1135,1130,1134,1135,1139,1151,1144,1149,1151,1154,1145,1151,1154,1166,1172,1162,1176,1150,1167,1161,1152,1162,1182,1149,1158,1143,1112,1147,1184,1146,1234,1379,1664,1769,1788,1821,1810,1832,1783,1765,1772,1733,1658,1624,1630,1580,1595,1560,1560,1446,1482,1399,1459,1310,1315,1314,1280,1245,1207,1238,1177,1151,1183,1160,1193,1223,1214,1215,1238,1220,1229,1256,1227,1220,1245,1208,1231,1228,1242,1239,1295,1305,1264,1229,1233,1221,1215,1211,1230,1281,1205,618,598,609,602,666,685,829,867,956,991,1023,990,967,951,935,919,907,933,871,844,870,824,807,791,823,813,733,728,712,717,680,663,639,638,626,614,673,617,622,606,613,611,613,623,613,617,615,626,638,634,629,634,636,644,636,640,624,638,639,641,647,640,641,662,655,739,626,648,630,666,724,818,910,999,1042,1051,1042,995,971,1002,945,949,928,910,895,863,894,830,831,812,825,808,749,732,716,720,702,686,651,637,632,704,636,642,634,648,667,657,655,652,651,660,667,663,657,690,690,710,690,683,668,647,666,655,654,649,667,656,676,647,1021,1030,1027,1050,1121,1287,1462,1523,1657,1710,1661,1640,1647,1652,1611,1569,1542,1496,1537,1450,1410,1387,1296,1316,1328,1263,1259,1209,1213,1162,1130,1105,1108,1078,1043,1039,1042,1058,1066,1062,1073,1106,1093,1105,1099,1070,1083,1099,1098,1084,1081,1093,1097,1093,1090,1098,1091,1084,1084,1099,1088,1093,1095,1104,1084,0,0,0,0,0,0,0,0,0,0,0,0,0,0,0,0,0,0,0,0,0,0,0,0,0,0,0,0,0,0,0,0,0,0,0,0,0,0,0,0,0,0,0,0,0,0,0,0,0,0,0,0,0,0,0,0,0,0,0,0,0,0,0,0,0,1078,1038,1046,1085,1123,1308,1433,1627,1658,1709,1729,1693,1678,1622,1595,1534,1548,1526,1452,1462,1427,1371,1371,1343,1334,1261,1234,1232,1184,1152,1125,1103,1148,1071,1058,1067,1072,1045,1061,1088,1060,1084,1080,1082,1084,1104,1195,1129,1208,1100,1101,1136,1144,1089,1111,1139,1087,1112,1090,1093,1087,1093,1126,1128,1099,1097,1101,1123,1158,1236,1356,1634,1693,1812,1866,1801,1804,1721,1713,1770,1716,1606,1641,1595,1586,1484,1445,1353,1407,1407,1384,1363,1258,1261,1209,1217,1198,1177,1123,1143,1114,1146,1163,1138,1162,1166,1175,1185,1164,1168,1199,1165,1166,1184,1152,1173,1175,1190,1191,1350,1298,1206,1179,1182,1174,1161,1159,1175,1212,1156,793,817,798,800,858,915,1029,1142,1225,1265,1280,1266,1227,1207,1187,1168,1153,1164,1110,1091,1097,1053,1043,1045,994,1000,962,942,922,901,879,885,840,827,808,804,833,827,809,807,798,802,817,825,815,833,839,855,833,843,825,830,828,839,825,839,868,837,833,869,839,846,840,840,839,877,863,863,877,900,1066,1165,1282,1410,1409,1414,1393,1357,1288,1371,1278,1250,1248,1250,1237,1198,1163,1154,1099,1094,1102,1088,1015,1015,996,948,962,906,906,850,889,870,874,870,893,889,888,912,884,898,914,893,893,911,882,900,898,915,922,1077,1024,934,906,902,894,892,889,902,939,881,636,537,539,540,545,589,661,733,804,851,858,849,833,819,806,793,784,820,754,741,728,716,751,690,677,664,651,638,625,612,599,586,573,566,548,543,545,546,557,539,540,547,540,547,545,550,542,545,545,539,544,541,546,549,545,546,545,548,548,544,544,557,544,548,545,897,899,991,910,995,1090,1328,1364,1449,1485,1510,1470,1417,1386,1451,1345,1342,1315,1378,1267,1227,1278,1182,1263,1149,1134,1171,1065,1042,1019,1056,991,967,927,914,910,999,915,946,946,942,948,957,960,1001,989,953,977,976,971,1043,1076,1093,1043,991,1023,1014,1027,1004,984,991,953,963,962,948,618,598,609,602,666,685,829,867,956,991,1023,990,967,951,935,919,907,933,871,844,870,824,807,791,823,813,733,728,712,717,680,663,639,638,626,614,673,617,622,606,613,611,613,623,613,617,615,626,638,634,629,634,636,644,636,640,624,638,639,641,647,640,641,662,655,596,597,602,659,614,668,747,826,886,945,997,949,906,906,889,878,863,846,838,824,820,792,778,764,742,781,722,707,693,679,665,651,633,622,610,604,608,610,595,590,593,594,602,613,607,614,607,619,619,601,609,600,602,615,609,607,611,602,600,606,610,615,613,634,614,745,764,767,769,800,861,974,1079,1146,1170,1172,1197,1178,1125,1139,1094,1078,1062,1047,1043,1024,999,1033,966,952,927,929,889,890,874,831,812,810,773,777,774,758,778,790,772,786,813,805,789,784,790,791,815,855,800,812,804,794,804,795,808,781,793,779,791,790,782,790,798,802,1466,1430,1455,1534,1675,1884,2083,2350,2308,2328,2389,2241,2320,2168,2176,2095,2059,2042,2039,2006,1913,1923,1841,1876,1822,1731,1708,1712,1677,1586,1587,1513,1577,1497,1449,1447,1451,1455,1534,1525,1524,1536,1531,1567,1534,1539,1563,1631,1545,1560,1559,1567,1572,1570,1590,1582,1568,1573,1565,1577,1583,1580,1575,1591,1581,1065,1076,1055,1170,1175,1292,1514,1612,1663,1716,1748,1691,1658,1615,1616,1564,1522,1517,1529,1469,1463,1411,1378,1349,1366,1335,1266,1240,1202,1198,1173,1146,1099,1099,1066,1087,1088,1096,1096,1114,1111,1128,1210,1151,1136,1196,1133,1205,1164,1187,1160,1136,1168,1190,1323,1253,1206,1168,1142,1160,1147,1180,1170,1173,1133,0,0,0,0,0,0,0,0,0,0,0,0,0,0,0,0,0,0,0,0,0,0,0,0,0,0,0,0,0,0,0,0,0,0,0,0,0,0,0,0,0,0,0,0,0,0,0,0,0,0,0,0,0,0,0,0,0,0,0,0,0,0,0,0,0,1265,1229,1236,1285,1390,1559,1756,2032,1994,2020,2029,1943,2029,1880,1901,1816,1785,1804,1775,1690,1658,1673,1595,1612,1576,1500,1514,1497,1462,1374,1381,1311,1375,1299,1246,1244,1247,1251,1320,1312,1336,1330,1332,1368,1326,1333,1344,1357,1381,1357,1365,1369,1366,1358,1344,1353,1330,1360,1330,1349,1351,1363,1340,1351,1382,632,634,638,629,652,695,776,886,967,992,995,981,979,963,948,933,893,902,864,849,835,844,825,810,795,750,764,749,733,718,690,687,672,657,646,641,642,644,637,633,637,648,660,640,645,642,644,651,655,656,697,715,730,687,749,700,664,671,651,638,657,642,653,653,637,592,594,596,598,608,665,752,838,921,967,971,956,940,925,910,894,879,864,848,833,818,802,787,823,756,741,726,770,695,680,665,649,634,619,605,601,603,604,619,614,593,596,622,628,622,637,616,639,641,685,671,682,639,700,647,611,624,634,679,707,680,710,692,683,666,682,691,669,737,706,785,864,968,994,1071,1122,1068,1038,1025,1008,993,974,964,960,923,935,901,893,847,852,871,823,825,768,779,761,721,712,714,677,697,693,702,678,676,682,682,680,691,694,698,697,728,699,689,686,686,685,692,689,690,691,690,687,687,687,692,686,698,694,621,632,619,636,651,714,809,903,989,1033,1036,1020,1003,987,978,954,938,921,905,869,872,855,812,796,806,789,756,740,740,707,685,690,659,657,643,640,641,648,631,630,634,631,636,636,660,654,648,648,659,642,642,649,659,674,647,655,646,647,656,652,648,656,646,698,652,596,597,602,659,614,668,747,826,886,945,997,949,906,906,889,878,863,846,838,824,820,792,778,764,742,781,722,707,693,679,665,651,633,622,610,604,608,610,595,590,593,594,602,613,607,614,607,619,619,601,609,600,602,615,609,607,611,602,600,606,610,615,613,634,614,1083,1122,1099,1089,1263,1335,1519,1756,1709,1739,1745,1756,1692,1633,1658,1654,1582,1576,1510,1543,1514,1427,1428,1356,1347,1350,1344,1268,1296,1223,1206,1159,1168,1103,1182,1099,1129,1135,1167,1168,1145,1159,1152,1199,1158,1172,1202,1243,1174,1197,1192,1192,1184,1211,1210,1181,1181,1169,1184,1216,1187,1198,1200,1203,1187,853,854,851,876,917,984,1099,1241,1337,1349,1358,1343,1289,1269,1301,1226,1231,1198,1177,1163,1146,1124,1078,1087,1036,1026,1050,1028,961,942,936,884,893,855,876,873,841,860,897,893,870,883,868,888,878,891,902,935,888,942,934,942,912,966,950,886,889,884,931,961,940,962,945,948,927,269,270,271,272,273,285,323,361,398,436,450,443,436,428,421,414,407,400,393,385,378,371,364,357,350,343,335,328,321,314,307,300,292,285,278,273,274,275,264,264,265,265,264,265,268,266,266,264,266,265,265,268,269,268,264,266,266,268,269,265,266,269,265,266,268,912,915,958,927,974,1092,1301,1377,1495,1539,1485,1462,1499,1414,1391,1367,1343,1312,1288,1277,1253,1225,1201,1203,1154,1173,1166,1100,1059,1035,1022,1012,1003,946,950,942,1017,931,960,940,943,946,985,991,968,959,963,971,1014,996,997,988,999,992,1044,986,988,1013,1019,1009,989,989,1024,1068,1006,1233,1165,1224,1269,1314,1559,1674,1805,1937,1902,1894,1863,1923,1801,1841,1740,1709,1678,1647,1616,1649,1555,1520,1536,1462,1484,1477,1370,1339,1308,1274,1246,1216,1195,1180,1180,1184,1188,1199,1195,1210,1237,1241,1207,1205,1227,1205,1254,1243,1248,1265,1379,1287,1276,1363,1243,1249,1251,1256,1241,1256,1266,1252,1257,1256,0,0,0,0,0,0,0,0,0,0,0,0,0,0,0,0,0,0,0,0,0,0,0,0,0,0,0,0,0,0,0,0,0,0,0,0,0,0,0,0,0,0,0,0,0,0,0,0,0,0,0,0,0,0,0,0,0,0,0,0,0,0,0,0,0,1444,1406,1453,1538,1640,1924,2150,2164,2256,2250,2260,2224,2153,2199,2149,2048,2065,1975,1966,1917,1903,1881,1799,1802,1761,1723,1705,1650,1621,1549,1549,1497,1495,1426,1414,1422,1436,1463,1502,1502,1497,1517,1544,1560,1534,1548,1531,1557,1580,1554,1563,1551,1572,1581,1580,1555,1557,1577,1575,1587,1565,1563,1579,1608,1586,767,770,768,761,789,872,987,1095,1189,1211,1252,1211,1219,1172,1196,1127,1113,1094,1103,1055,1064,1011,992,1056,953,938,934,899,876,860,867,821,802,783,766,761,781,769,761,760,772,797,783,778,769,784,772,800,787,787,860,860,893,847,805,789,793,799,791,783,794,810,785,801,782,1164,1250,1184,1201,1336,1538,1671,1996,1860,1887,1873,1994,1820,1755,1778,1772,1695,1700,1650,1661,1615,1562,1586,1473,1476,1463,1400,1350,1386,1328,1293,1272,1252,1204,1233,1195,1213,1315,1248,1280,1274,1283,1327,1294,1299,1338,1285,1317,1326,1319,1305,1291,1318,1337,1480,1422,1355,1317,1299,1304,1294,1310,1304,1346,1274,881,883,882,892,937,1047,1190,1312,1402,1420,1421,1415,1393,1370,1374,1321,1304,1282,1259,1237,1215,1194,1172,1140,1114,1104,1068,1043,1023,1040,989,972,949,910,912,890,896,898,894,908,911,929,919,908,917,927,915,927,921,934,950,951,970,965,931,932,929,922,931,922,935,942,923,931,922,1083,1122,1099,1089,1263,1335,1519,1756,1709,1739,1745,1756,1692,1633,1658,1654,1582,1576,1510,1543,1514,1427,1428,1356,1347,1350,1344,1268,1296,1223,1206,1159,1168,1103,1182,1099,1129,1135,1167,1168,1145,1159,1152,1199,1158,1172,1202,1243,1174,1197,1192,1192,1184,1211,1210,1181,1181,1169,1184,1216,1187,1198,1200,1203,1187,484,486,490,489,495,559,596,661,720,763,769,758,747,736,725,714,702,688,680,668,657,645,625,623,611,600,588,575,565,554,538,527,516,508,497,491,492,494,475,473,484,502,476,487,477,485,477,476,483,479,475,479,479,485,481,487,480,484,485,481,480,488,475,484,483,772,774,827,795,810,887,1007,1148,1186,1235,1231,1266,1246,1227,1156,1134,1123,1099,1083,1061,1065,1032,1027,1007,971,968,949,917,890,891,850,834,814,796,784,781,784,786,791,789,797,792,853,835,833,824,805,858,836,831,843,812,818,848,824,815,837,816,804,838,822,851,827,835,836,1579,1629,1696,1762,1909,2126,2322,2461,2480,2655,2627,2487,2487,2412,2320,2279,2247,2286,2168,2126,2156,2082,2097,2015,2022,1957,1922,1866,1775,1849,1695,1660,1630,1611,1635,1635,1605,1693,1804,1744,1772,1807,1787,1827,1790,1803,1807,1813,1832,1794,1796,1836,1859,1858,1831,1804,1802,1813,1800,1794,1789,1820,1797,1835,1792,940,983,921,984,982,1085,1214,1394,1532,1454,1450,1578,1391,1392,1372,1353,1334,1314,1295,1242,1271,1251,1176,1154,1206,1201,1090,1098,1074,1078,1005,983,962,965,984,946,931,985,984,986,975,1060,1028,1027,1008,1001,1015,1050,1011,1042,1043,1030,989,1008,1012,1030,1031,997,1031,1078,1038,1031,1045,1015,1013,692,694,695,697,711,767,846,924,1168,1109,1038,1024,1010,995,981,904,953,939,862,980,897,899,869,855,841,827,813,798,784,770,756,742,728,714,703,700,656,703,708,691,690,689,686,693,697,698,694,693,694,692,695,692,697,695,700,700,694,695,699,701,694,710,698,702,701,1574,1566,1673,1722,1881,2112,2274,2434,2449,2587,2522,2476,2480,2398,2310,2255,2236,2179,2160,2087,2186,2073,2047,1980,1929,1951,1915,1860,1756,1748,1702,1640,1599,1592,1582,1596,1599,1672,1755,1754,1747,1777,1804,1800,1784,1784,1794,1831,1794,1832,1849,1831,1787,1813,1805,1815,1820,1794,1849,1881,1870,1880,1884,1826,1822,0,0,0,0,0,0,0,0,0,0,0,0,0,0,0,0,0,0,0,0,0,0,0,0,0,0,0,0,0,0,0,0,0,0,0,0,0,0,0,0,0,0,0,0,0,0,0,0,0,0,0,0,0,0,0,0,0,0,0,0,0,0,0,0,0,1033,1048,1086,1090,1150,1243,1445,1578,1601,1662,1652,1632,1589,1563,1538,1527,1499,1496,1452,1433,1424,1369,1352,1342,1294,1290,1254,1215,1192,1176,1147,1106,1076,1076,1043,1041,1051,1062,1061,1076,1073,1090,1142,1103,1098,1135,1085,1128,1103,1131,1096,1099,1121,1147,1290,1218,1145,1129,1107,1108,1099,1119,1119,1110,1089,502,521,504,523,508,545,604,667,743,772,777,765,749,743,731,720,708,697,686,674,660,652,640,629,617,606,597,587,576,567,554,543,533,540,511,508,509,528,507,506,510,518,516,515,510,508,516,522,538,524,544,548,552,539,531,525,515,519,514,521,511,519,521,523,515,1085,1080,1069,1093,1192,1301,1483,1629,1666,1705,1715,1689,1632,1614,1589,1566,1555,1505,1513,1488,1445,1399,1395,1390,1341,1312,1293,1245,1222,1192,1166,1159,1116,1092,1080,1072,1102,1105,1107,1093,1096,1097,1095,1128,1129,1126,1114,1126,1142,1122,1127,1121,1122,1146,1156,1128,1131,1142,1142,1152,1143,1135,1158,1197,1164,484,486,490,489,495,559,596,661,720,763,769,758,747,736,725,714,702,688,680,668,657,645,625,623,611,600,588,575,565,554,538,527,516,508,497,491,492,494,475,473,484,502,476,487,477,485,477,476,483,479,475,479,479,485,481,487,480,484,485,481,480,488,475,484,483,595,588,589,591,601,687,790,863,912,967,933,921,909,935,884,897,869,853,838,836,846,791,777,761,746,746,717,731,699,690,668,652,653,637,619,615,621,607,608,614,618,639,626,623,623,645,616,631,632,644,672,668,680,668,625,624,636,641,636,626,634,645,629,630,625,344,345,346,347,348,370,418,466,514,559,570,561,552,543,534,525,516,507,498,516,480,471,462,453,444,459,426,417,408,399,390,381,372,363,354,349,389,370,362,347,347,348,346,350,350,350,350,348,351,346,348,348,347,348,351,350,348,349,350,351,347,356,349,354,351,843,846,874,853,939,994,1126,1255,1342,1379,1378,1356,1334,1312,1290,1268,1246,1224,1257,1180,1158,1136,1114,1092,1070,1048,1026,1004,982,960,938,916,894,873,859,856,899,911,892,898,875,877,888,889,946,901,884,925,908,885,877,888,897,900,901,900,904,927,959,905,897,897,891,889,879,775,775,748,764,815,885,997,1126,1220,1289,1192,1267,1218,1162,1188,1139,1106,1071,1092,1077,1042,1038,1012,996,960,945,911,899,871,861,844,829,803,797,769,780,770,772,771,785,772,787,790,793,782,797,783,785,778,779,776,790,789,785,785,786,786,779,795,797,782,790,778,789,782,610,612,614,616,652,691,784,873,960,999,1001,985,970,954,938,922,911,895,875,862,844,828,812,797,781,765,749,734,718,702,686,671,655,639,623,620,621,623,621,622,624,621,617,619,632,629,617,622,628,623,621,633,626,625,628,623,625,626,624,619,629,623,626,624,630,643,645,673,649,706,731,829,927,1014,1057,1062,1045,1028,1011,994,977,960,943,982,909,892,875,858,841,824,807,790,773,756,739,722,705,688,671,657,653,696,738,686,676,690,677,694,705,690,695,691,690,706,706,700,702,709,732,710,716,684,712,693,707,714,701,706,724,730,916,893,890,941,927,1091,1217,1338,1378,1503,1413,1409,1372,1370,1345,1309,1304,1265,1286,1240,1297,1154,1161,1140,1119,1128,1115,1049,1056,1062,1011,989,944,912,899,898,945,964,947,932,936,937,942,936,944,937,946,940,940,938,954,950,953,945,940,948,945,953,944,953,952,957,943,938,942,0,0,0,0,0,0,0,0,0,0,0,0,0,0,0,0,0,0,0,0,0,0,0,0,0,0,0,0,0,0,0,0,0,0,0,0,0,0,0,0,0,0,0,0,0,0,0,0,0,0,0,0,0,0,0,0,0,0,0,0,0,0,0,0,0,678,683,682,687,702,800,907,997,1062,1135,1105,1089,1072,1083,1037,1020,1002,985,968,947,955,915,898,881,861,862,826,841,809,799,774,756,751,727,719,730,706,722,716,712,708,720,747,755,756,762,732,764,758,755,752,723,733,772,774,731,749,745,723,751,739,756,753,766,736,201,202,202,203,203,210,236,262,288,314,329,324,319,314,309,304,299,294,289,284,279,273,268,263,258,253,248,243,238,233,228,223,218,213,208,204,205,205,189,189,188,188,197,190,193,190,192,192,190,192,192,194,192,195,224,219,202,203,196,190,201,190,198,192,190,595,588,589,591,601,687,790,863,912,967,933,921,909,935,884,897,869,853,838,836,846,791,777,761,746,746,717,731,699,690,668,652,653,637,619,615,621,607,608,614,618,639,626,623,623,645,616,631,632,644,672,668,680,668,625,624,636,641,636,626,634,645,629,630,625,188,189,189,190,190,197,273,273,300,318,293,292,291,319,296,291,337,280,275,285,284,260,244,250,245,240,235,230,225,264,215,210,205,200,195,191,192,192,186,182,185,186,186,185,186,187,185,188,188,187,187,188,187,186,187,189,189,190,188,187,189,189,189,189,189,392,393,395,396,397,426,482,537,593,640,649,638,628,618,608,597,587,577,567,581,546,559,561,515,505,495,506,474,464,454,443,433,441,413,402,398,399,418,400,402,401,402,406,404,407,423,408,408,406,407,402,407,406,415,412,408,408,402,402,406,406,410,400,407,406,1296,1200,1282,1250,1566,1516,1710,2032,1915,2001,2031,1897,1866,1835,1805,1774,1743,1857,1756,1760,1620,1614,1644,1594,1572,1466,1452,1404,1396,1343,1312,1306,1269,1285,1286,1250,1218,1239,1268,1311,1304,1300,1313,1302,1315,1342,1309,1304,1330,1287,1318,1306,1325,1325,1435,1444,1358,1313,1320,1304,1298,1297,1315,1372,1290,417,418,420,421,423,455,515,575,635,683,691,680,669,658,647,636,625,614,603,592,581,570,559,548,537,526,515,534,546,483,472,461,450,439,428,423,425,426,411,415,418,431,416,423,418,432,430,417,429,422,424,422,419,426,422,423,424,429,420,424,424,439,437,440,433,633,635,648,649,657,728,875,891,1011,1005,1078,991,1029,962,986,977,920,906,892,906,852,838,824,850,795,781,781,766,780,729,714,696,684,660,655,643,645,656,648,655,652,667,652,656,659,662,662,666,656,657,655,660,662,662,666,674,663,660,663,661,671,672,664,666,663,1178,1303,1201,1256,1326,1505,1660,2001,1902,1914,1901,1871,1841,1810,1780,1749,1719,1687,1748,1651,1611,1605,1569,1547,1561,1458,1476,1384,1391,1323,1306,1395,1250,1211,1264,1196,1322,1220,1279,1252,1265,1282,1309,1300,1276,1274,1277,1290,1338,1322,1320,1305,1322,1315,1345,1309,1306,1333,1334,1329,1315,1315,1343,1366,1335,360,361,362,363,364,385,426,467,508,547,554,557,539,531,523,515,508,500,492,484,492,469,477,453,446,438,430,422,420,412,403,395,386,376,368,365,366,367,348,348,357,371,350,351,348,356,360,353,353,351,353,358,356,358,357,360,360,366,361,366,364,389,386,389,394,664,664,678,670,685,754,871,956,1039,1081,1086,1065,1034,1042,1014,1001,990,973,945,969,911,917,921,869,843,826,833,781,764,757,740,708,737,696,681,672,673,671,666,664,678,695,683,684,675,686,676,702,684,678,694,705,712,708,712,694,693,700,695,689,695,717,691,703,686,0,0,0,0,0,0,0,0,0,0,0,0,0,0,0,0,0,0,0,0,0,0,0,0,0,0,0,0,0,0,0,0,0,0,0,0,0,0,0,0,0,0,0,0,0,0,0,0,0,0,0,0,0,0,0,0,0,0,0,0,0,0,0,0,0,685,701,704,692,713,811,911,1018,1083,1132,1147,1107,1097,1079,1074,1035,1038,1019,981,1013,965,954,951,910,880,873,862,820,790,800,782,742,746,713,718,715,717,731,729,735,730,814,771,759,741,737,752,774,756,758,766,751,731,732,744,764,756,739,758,768,747,735,762,736,732,188,189,189,190,190,197,273,273,300,318,293,292,291,319,296,291,337,280,275,285,284,260,244,250,245,240,235,230,225,264,215,210,205,200,195,191,192,192,186,182,185,186,186,185,186,187,185,188,188,187,187,188,187,186,187,189,189,190,188,187,189,189,189,189,189,647,649,651,653,668,759,874,904,1025,1104,1032,1019,1005,991,1003,987,971,954,937,907,911,874,856,852,822,860,790,789,757,736,720,707,690,674,660,656,658,660,644,653,663,677,663,674,656,679,655,677,664,654,661,667,675,684,674,668,668,661,676,672,664,669,655,668,659,472,455,457,458,445,498,563,628,694,742,750,738,726,688,677,691,654,643,655,643,609,619,607,596,584,572,560,529,536,524,495,501,489,461,450,461,462,448,446,448,452,458,457,471,460,476,472,457,479,461,457,463,461,473,458,458,467,467,463,462,461,471,454,469,457,1030,1034,1037,1056,1128,1259,1427,1645,1679,1679,1672,1645,1619,1592,1565,1539,1512,1485,1458,1432,1405,1378,1352,1325,1403,1319,1291,1218,1191,1165,1138,1137,1084,1062,1099,1086,1049,1052,1092,1076,1075,1091,1081,1087,1138,1134,1093,1122,1105,1089,1092,1124,1166,1197,1151,1156,1151,1164,1147,1130,1130,1113,1091,1097,1088,925,912,919,879,998,1108,1242,1376,1453,1495,1532,1467,1443,1367,1437,1351,1367,1322,1280,1285,1245,1180,1215,1187,1154,1137,1084,1087,1076,1047,1022,977,970,973,945,934,920,923,957,938,945,944,976,1019,961,982,989,1008,1014,1029,1023,1029,990,1009,1000,986,997,996,1007,1067,1027,1042,1029,1023,1034,559,561,562,564,572,626,709,792,873,919,924,909,895,880,865,881,836,821,806,791,777,762,747,732,718,703,688,673,658,644,629,614,599,585,571,567,569,570,563,568,573,594,582,577,577,600,571,586,586,598,626,619,634,621,578,580,590,595,590,578,588,599,582,584,579,830,833,836,840,882,978,1109,1237,1357,1362,1360,1339,1317,1295,1273,1251,1230,1208,1186,1164,1143,1121,1099,1077,1055,1082,1059,990,968,947,925,929,881,860,883,884,845,848,866,863,867,866,879,888,902,913,884,889,884,888,884,882,881,906,897,888,882,884,870,891,882,888,877,897,888,919,941,936,945,989,1171,1302,1397,1543,1554,1540,1504,1465,1443,1436,1398,1375,1371,1361,1306,1297,1309,1209,1216,1259,1172,1149,1127,1121,1126,1019,995,971,960,936,933,946,938,951,954,957,984,968,967,961,983,965,971,960,969,957,973,965,974,978,980,974,969,966,980,974,1006,984,999,988,198,198,199,200,200,206,232,257,283,309,323,318,314,309,304,299,294,289,284,279,274,269,264,259,254,249,244,239,234,229,224,219,214,209,204,201,201,202,187,188,188,192,192,190,192,195,188,190,192,201,190,193,194,194,189,190,194,196,195,192,193,195,189,192,190,742,743,746,746,774,879,997,1073,1157,1301,1204,1185,1166,1142,1123,1109,1084,1072,1053,1034,1014,996,977,953,940,918,902,883,861,844,826,807,785,816,756,753,752,757,751,761,763,774,794,775,772,793,762,776,763,767,764,783,784,797,913,859,792,779,782,770,761,764,779,776,761,0,0,0,0,0,0,0,0,0,0,0,0,0,0,0,0,0,0,0,0,0,0,0,0,0,0,0,0,0,0,0,0,0,0,0,0,0,0,0,0,0,0,0,0,0,0,0,0,0,0,0,0,0,0,0,0,0,0,0,0,0,0,0,0,0,647,649,651,653,668,759,874,904,1025,1104,1032,1019,1005,991,1003,987,971,954,937,907,911,874,856,852,822,860,790,789,757,736,720,707,690,674,660,656,658,660,644,653,663,677,663,674,656,679,655,677,664,654,661,667,675,684,674,668,668,661,676,672,664,669,655,668,659,0,0,0,0,0,0,0,0,0,0,0,0,0,0,0,0,0,0,0,0,0,0,0,0,0,0,0,0,0,0,0,0,0,0,0,0,0,0,0,0,0,0,0,0,0,0,0,0,0,0,0,0,0,0,0,0,0,0,0,0,0,0,0,0,0,380,375,393,377,378,403,442,504,548,562,564,557,550,543,536,529,522,515,508,501,494,487,492,484,467,467,453,433,426,419,413,406,399,392,382,379,380,381,370,370,371,372,371,371,374,373,372,370,372,371,371,376,376,374,371,372,376,373,377,376,373,377,370,372,376,1184,1182,1205,1392,1325,1486,1663,1805,1871,1868,1848,1878,1856,1765,1787,1713,1733,1686,1709,1626,1602,1651,1569,1497,1662,1440,1477,1369,1420,1310,1382,1259,1253,1263,1240,1230,1198,1201,1251,1231,1242,1238,1244,1257,1252,1249,1253,1269,1291,1276,1282,1288,1287,1295,1282,1288,1280,1304,1310,1309,1303,1294,1314,1323,1329,562,547,553,567,576,636,717,790,862,884,854,887,833,889,875,861,820,800,794,780,802,758,751,717,694,708,687,674,648,647,632,602,607,594,573,559,571,560,556,553,555,553,557,556,562,562,562,562,562,564,565,568,565,569,569,567,572,569,568,565,572,579,582,582,580,535,536,538,539,546,596,665,734,803,842,842,863,817,830,793,780,768,755,743,730,718,705,693,680,668,655,643,630,618,606,593,581,568,556,544,542,543,545,532,531,524,533,538,567,533,540,554,546,534,541,530,539,540,526,539,542,541,539,534,537,547,553,547,554,542,1286,1200,1199,1233,1300,1441,1631,1776,1844,1856,1837,1860,1767,1753,1712,1702,1658,1676,1603,1588,1590,1594,1518,1475,1439,1405,1384,1458,1362,1420,1277,1319,1245,1191,1191,1176,1193,1196,1271,1279,1230,1242,1282,1271,1262,1274,1269,1276,1332,1281,1300,1311,1315,1295,1292,1304,1313,1328,1363,1298,1294,1310,1361,1312,1282,399,400,401,402,403,432,479,525,572,613,617,609,600,591,582,573,565,556,547,538,530,521,525,503,495,486,477,468,460,451,442,433,425,416,407,404,405,406,392,396,399,407,416,411,412,412,403,412,411,418,419,429,422,425,408,404,416,408,409,411,412,414,403,406,404,657,648,665,652,672,739,810,914,993,990,999,985,971,957,943,929,916,906,888,874,878,847,854,829,805,798,761,760,722,724,710,696,682,681,655,652,654,663,645,657,652,671,659,669,655,663,654,659,656,654,654,668,666,672,672,671,669,667,678,671,667,679,666,680,670,159,173,159,160,160,163,207,214,217,248,237,221,233,239,238,237,222,234,219,216,216,229,216,213,212,215,213,215,214,206,214,214,213,213,176,160,174,161,164,166,164,167,170,169,167,171,165,166,169,178,164,169,170,170,166,169,171,172,171,170,167,172,165,169,166,673,683,703,673,685,768,868,966,1061,1071,1064,1027,1042,1027,1004,989,981,959,944,910,914,899,877,879,854,829,789,796,782,757,752,737,704,693,693,676,697,674,675,675,678,690,691,683,687,685,685,692,699,702,776,776,783,714,690,694,699,694,686,691,699,689,685,695,690,0,0,0,0,0,0,0,0,0,0,0,0,0,0,0,0,0,0,0,0,0,0,0,0,0,0,0,0,0,0,0,0,0,0,0,0,0,0,0,0,0,0,0,0,0,0,0,0,0,0,0,0,0,0,0,0,0,0,0,0,0,0,0,0,0 ]);
