n = 10;
D = [251,200,216,253,143,280,96,190,204,186 ];
q = 0;
prec = array2d(1..0,1..2,[]);
steps = 64;
l = 360;
r = 0;
which = [];
interval = array2d(1..0,1..2,[]);
T = array3d(1..11,1..11,0..64,[0,0,0,0,0,0,0,0,0,0,0,0,0,0,0,0,0,0,0,0,0,0,0,0,0,0,0,0,0,0,0,0,0,0,0,0,0,0,0,0,0,0,0,0,0,0,0,0,0,0,0,0,0,0,0,0,0,0,0,0,0,0,0,0,0,798,797,782,796,837,1063,1512,1730,1845,1922,1880,1870,1831,1813,1788,1773,1727,1706,1710,1620,1605,1599,1528,1538,1471,1437,1410,1318,1125,986,884,853,869,828,808,807,790,787,757,751,754,766,762,759,760,764,759,765,767,769,772,772,772,775,761,761,766,769,759,756,764,763,759,764,757,748,740,741,749,782,1089,1419,1645,1750,1832,1814,1793,1763,1713,1697,1590,1595,1617,1568,1478,1509,1499,1428,1439,1415,1384,1357,1330,1206,1018,876,841,835,784,762,761,766,748,717,712,717,718,717,724,727,718,721,732,732,723,726,732,728,727,732,728,733,737,727,730,733,728,733,729,728,800,795,794,818,834,1417,1759,1947,2113,2119,2123,2082,2047,2008,1964,1957,1906,1904,1879,1792,1789,1724,1678,1641,1644,1588,1518,1502,1446,1308,1048,868,855,821,832,825,819,818,813,809,819,820,812,822,817,816,820,829,849,832,832,840,837,836,834,837,832,839,836,839,851,854,845,851,849,294,300,301,301,308,398,530,596,654,715,746,723,724,712,685,689,677,665,653,642,619,618,605,593,582,569,557,546,534,526,512,499,431,419,322,342,344,320,262,257,259,268,265,264,264,268,263,267,269,270,283,290,291,298,261,265,269,270,263,261,267,267,264,266,262,268,274,276,276,282,429,484,541,596,652,684,661,663,652,628,631,620,609,598,587,565,566,556,545,534,523,512,501,490,481,470,459,448,413,286,302,302,284,260,256,257,266,263,262,262,266,261,265,267,268,281,288,289,307,260,263,267,268,261,259,265,265,263,264,260,775,780,785,789,807,1068,1498,1672,1822,1900,1875,1862,1822,1789,1753,1676,1660,1677,1650,1546,1589,1566,1484,1491,1475,1444,1408,1307,1140,1123,858,842,818,818,800,796,789,792,768,767,767,778,771,773,771,777,771,776,776,777,779,780,776,777,778,774,775,779,779,780,778,779,779,779,775,187,188,188,188,227,295,332,368,404,442,459,452,445,438,430,424,417,410,403,396,388,381,374,368,361,354,346,339,332,325,318,310,304,297,290,260,260,260,128,129,129,129,129,131,129,131,129,143,130,130,130,131,131,131,133,131,129,133,130,132,129,130,130,130,129,604,603,590,591,610,723,1139,1269,1344,1462,1429,1422,1414,1386,1345,1329,1302,1278,1281,1239,1210,1208,1167,1162,1122,1121,1068,1054,877,855,791,750,680,619,602,600,597,583,553,547,550,562,558,555,556,560,555,561,563,565,568,568,568,571,557,557,562,565,555,552,560,559,555,560,553,444,453,455,449,456,525,850,952,1046,1108,1119,1092,1086,1051,1017,1014,1008,993,964,948,950,909,908,890,859,855,820,804,784,543,670,518,481,461,480,454,469,439,432,433,428,442,438,437,444,445,439,439,441,447,463,438,441,447,443,445,443,441,441,439,442,442,442,440,432,0,0,0,0,0,0,0,0,0,0,0,0,0,0,0,0,0,0,0,0,0,0,0,0,0,0,0,0,0,0,0,0,0,0,0,0,0,0,0,0,0,0,0,0,0,0,0,0,0,0,0,0,0,0,0,0,0,0,0,0,0,0,0,0,0,847,862,834,838,897,1167,1504,1811,1973,2022,2014,1982,1949,1917,1884,1864,1830,1786,1755,1729,1693,1660,1651,1606,1599,1460,1396,1134,1068,1059,915,893,877,871,844,841,839,850,784,782,785,792,791,796,794,795,790,803,789,789,795,799,815,820,820,800,797,802,801,795,801,804,802,804,803,0,0,0,0,0,0,0,0,0,0,0,0,0,0,0,0,0,0,0,0,0,0,0,0,0,0,0,0,0,0,0,0,0,0,0,0,0,0,0,0,0,0,0,0,0,0,0,0,0,0,0,0,0,0,0,0,0,0,0,0,0,0,0,0,0,1468,1486,1477,1547,1950,2481,3020,3290,3414,3417,3410,3325,3271,3207,3153,3141,3056,3003,2947,2677,2317,2291,2220,1860,1841,1752,1777,1663,1625,1605,1567,1526,1495,1470,1452,1457,1460,1481,1422,1423,1430,1438,1441,1435,1435,1442,1445,1448,1439,1443,1447,1451,1462,1470,1478,1455,1447,1450,1453,1447,1454,1453,1448,1450,1449,648,650,651,653,668,1138,1283,1423,1538,1549,1636,1551,1500,1506,1490,1457,1402,1441,1381,1356,1331,1306,1255,1231,1232,1182,1158,1155,1131,1053,1028,933,738,658,660,727,658,690,652,653,664,664,655,667,660,668,676,662,672,665,669,668,666,688,667,669,669,669,665,671,667,670,660,665,664,684,691,699,685,724,911,1268,1491,1529,1597,1576,1576,1548,1503,1502,1481,1450,1455,1431,1407,1376,1341,1317,1293,1270,1244,1136,1073,967,945,824,799,720,705,731,693,695,660,601,593,594,595,596,596,597,601,598,594,596,594,598,598,600,604,612,598,595,598,596,595,596,597,597,599,598,698,700,709,705,739,957,1314,1531,1570,1639,1618,1618,1590,1546,1545,1528,1494,1499,1489,1450,1420,1384,1360,1336,1312,1271,1163,1098,1015,993,780,763,748,732,740,720,722,699,637,631,633,634,635,634,636,638,635,633,635,632,637,637,639,643,651,637,634,637,635,634,635,636,636,638,637,1536,1520,1518,1640,1773,2574,3143,3388,3523,3513,3525,3421,3394,3307,3263,3217,3113,3128,2905,2758,2448,2409,2183,1865,1867,1805,1843,1696,1681,1695,1614,1577,1572,1525,1508,1512,1498,1538,1478,1486,1491,1490,1491,1497,1492,1500,1492,1504,1492,1491,1499,1504,1512,1522,1523,1500,1499,1501,1498,1498,1500,1503,1495,1497,1496,934,940,889,906,979,1122,1712,1941,2136,2154,2172,2104,2091,2024,1990,2006,1951,1924,1878,1851,1807,1764,1765,1723,1717,1584,1224,1164,1146,1120,983,970,961,928,900,920,871,898,834,837,842,845,843,848,843,851,843,855,843,842,850,855,863,873,874,851,850,852,849,849,851,854,849,851,850,244,244,245,246,247,378,442,494,544,595,608,598,589,579,570,560,550,541,531,522,512,502,493,483,474,464,454,445,435,426,407,397,388,379,368,347,350,351,233,239,237,279,237,236,236,240,236,234,237,236,236,234,234,235,235,236,235,236,234,234,233,236,235,236,234,788,791,805,804,858,1232,1578,1719,1854,1898,1903,1862,1841,1806,1780,1708,1716,1646,1718,1630,1570,1568,1509,1516,1460,1459,1405,1340,1265,1184,918,960,823,810,811,799,800,804,797,789,801,804,802,813,806,815,811,816,812,814,811,815,815,804,816,814,811,813,811,811,813,814,814,816,812,847,862,834,838,897,1167,1504,1811,1973,2022,2014,1982,1949,1917,1884,1864,1830,1786,1755,1729,1693,1660,1651,1606,1599,1460,1396,1134,1068,1059,915,893,877,871,844,841,839,850,784,782,785,792,791,796,794,795,790,803,789,789,795,799,815,820,820,800,797,802,801,795,801,804,802,804,803,774,765,767,772,800,1172,1563,1743,1826,1867,1884,1842,1827,1793,1768,1736,1714,1672,1661,1616,1606,1551,1507,1526,1447,1418,1327,1298,1317,1170,1011,843,808,811,785,795,788,787,764,762,770,787,786,788,781,787,786,784,790,784,774,785,793,787,782,803,788,783,818,792,794,812,785,794,784,1478,1496,1505,1553,1863,2592,3306,3411,3514,3509,3524,3436,3365,3330,3245,3216,3181,3075,3073,2912,2552,2303,2079,2056,1820,1820,1757,1715,1713,1664,1588,1541,1522,1520,1518,1488,1500,1482,1453,1448,1465,1474,1469,1486,1456,1472,1472,1463,1474,1475,1467,1473,1480,1503,1487,1506,1470,1483,1478,1483,1488,1503,1488,1492,1487,0,0,0,0,0,0,0,0,0,0,0,0,0,0,0,0,0,0,0,0,0,0,0,0,0,0,0,0,0,0,0,0,0,0,0,0,0,0,0,0,0,0,0,0,0,0,0,0,0,0,0,0,0,0,0,0,0,0,0,0,0,0,0,0,0,1358,1364,1410,1540,2298,2965,3572,3737,3802,3729,3798,3665,3622,3525,3453,3406,3324,3279,3222,3096,3004,2676,2608,2392,2130,2028,1696,1646,1638,1593,1524,1460,1415,1420,1386,1412,1424,1451,1486,1482,1493,1518,1503,1523,1498,1496,1496,1509,1554,1537,1552,1556,1564,1590,1579,1565,1519,1534,1542,1526,1517,1524,1522,1593,1534,1037,1044,1066,1069,1128,1484,2241,2396,2484,2526,2505,2442,2461,2398,2368,2325,2289,2234,2196,2165,2128,2079,2027,2009,1948,1896,1634,1370,1362,1188,1152,1162,1084,1091,1072,1073,1027,1005,981,973,983,997,993,1008,981,997,997,988,999,1000,992,998,1005,1028,1012,1031,995,1008,1003,1008,1013,1028,1013,1017,1012,1012,1019,1027,1043,1098,1519,2179,2350,2424,2468,2462,2388,2415,2343,2313,2271,2240,2185,2168,2117,2090,2032,1981,1981,1903,1851,1800,1536,1368,1306,1126,1124,1059,1070,1050,1054,1039,1016,993,983,998,1004,1004,1016,993,1008,1007,999,1009,1012,1004,1010,1017,1040,1024,1043,1007,1020,1015,1020,1025,1040,1025,1029,1024,182,183,183,184,184,288,325,363,400,439,456,448,441,434,427,420,412,405,398,391,384,376,369,362,355,348,340,333,326,319,312,304,297,290,282,184,185,279,174,176,179,184,180,179,178,181,177,184,178,177,184,184,258,259,185,180,180,182,182,180,180,279,180,184,179,629,655,658,660,663,699,1269,1405,1544,1606,1569,1544,1552,1527,1543,1477,1450,1423,1372,1373,1321,1298,1274,1248,1225,1226,1193,1138,1123,877,858,837,691,673,655,652,653,647,626,615,625,632,632,642,621,637,634,623,634,637,629,633,640,665,648,665,628,642,638,645,651,665,652,656,652,1322,1342,1348,1384,1715,2082,2935,3043,3134,3167,3115,3076,3044,3003,2958,2902,2862,2799,2718,2723,2609,2429,2180,2048,1820,1825,1766,1550,1566,1494,1456,1411,1378,1364,1344,1338,1296,1278,1249,1244,1261,1270,1265,1282,1252,1268,1268,1259,1270,1271,1263,1269,1276,1299,1283,1302,1266,1279,1274,1279,1284,1299,1284,1288,1283,1199,1191,1206,1223,1323,1908,2573,2769,2863,2830,2838,2763,2744,2716,2657,2618,2598,2529,2486,2432,2406,2349,2313,2272,2114,1983,1760,1649,1438,1436,1301,1260,1206,1218,1220,1189,1213,1189,1166,1166,1173,1192,1183,1197,1181,1195,1189,1182,1187,1193,1192,1187,1201,1220,1201,1226,1188,1203,1201,1203,1204,1211,1187,1185,1181,774,765,767,772,800,1172,1563,1743,1826,1867,1884,1842,1827,1793,1768,1736,1714,1672,1661,1616,1606,1551,1507,1526,1447,1418,1327,1298,1317,1170,1011,843,808,811,785,795,788,787,764,762,770,787,786,788,781,787,786,784,790,784,774,785,793,787,782,803,788,783,818,792,794,812,785,794,784,945,947,950,959,1127,1728,2095,2298,2412,2433,2415,2381,2347,2305,2272,2208,2167,2139,2081,2036,2009,1952,1926,1875,1831,1790,1746,1664,1476,1281,1061,1033,999,978,961,961,923,917,918,920,918,922,928,936,928,944,936,937,943,938,945,945,945,948,939,946,952,943,938,949,954,947,944,943,941,632,633,636,638,667,1049,1257,1404,1508,1552,1554,1528,1519,1478,1454,1429,1404,1380,1354,1329,1304,1280,1255,1230,1206,1180,1155,1131,1106,1081,1056,924,832,655,644,641,643,644,641,640,646,640,654,657,671,656,647,680,679,669,669,662,664,705,664,666,662,664,659,666,665,670,663,708,704,1356,1371,1407,1459,2201,2923,3390,3668,3750,3776,3702,3630,3518,3476,3412,3321,3286,3181,3155,3039,2940,2580,2504,2412,2243,2064,1704,1643,1604,1550,1502,1457,1421,1396,1391,1369,1389,1388,1428,1413,1419,1430,1432,1433,1433,1439,1439,1439,1442,1439,1442,1437,1435,1443,1435,1435,1437,1442,1441,1458,1441,1461,1455,1463,1441,0,0,0,0,0,0,0,0,0,0,0,0,0,0,0,0,0,0,0,0,0,0,0,0,0,0,0,0,0,0,0,0,0,0,0,0,0,0,0,0,0,0,0,0,0,0,0,0,0,0,0,0,0,0,0,0,0,0,0,0,0,0,0,0,0,809,793,790,826,901,1206,1703,1914,2011,2083,2060,2029,1996,1965,1928,1895,1852,1797,1780,1735,1718,1681,1634,1615,1548,1513,1500,1475,1373,1102,904,864,856,834,807,825,784,764,767,760,761,761,765,770,770,772,766,767,775,769,770,769,773,772,778,776,772,770,776,775,774,775,775,779,772,769,768,765,800,856,1156,1640,1852,1976,2023,2002,1971,1948,1909,1873,1840,1810,1743,1730,1684,1670,1634,1588,1569,1502,1468,1457,1432,1375,1060,860,839,830,808,781,808,782,762,765,758,759,759,763,768,768,770,764,765,773,767,768,767,771,770,776,774,770,768,774,773,772,773,773,777,770,1418,1427,1476,1598,1978,3202,3508,3711,3786,3797,3741,3685,3643,3548,3511,3435,3337,3291,3238,2889,2666,2524,2177,2161,2059,2021,1788,1774,1676,1644,1567,1540,1488,1456,1456,1462,1473,1492,1543,1545,1543,1547,1553,1561,1553,1569,1561,1562,1568,1563,1570,1570,1570,1573,1564,1571,1577,1568,1563,1574,1579,1572,1569,1568,1566,1062,1065,1091,1103,1291,1959,2354,2559,2674,2696,2725,2632,2584,2539,2550,2497,2397,2352,2303,2304,2220,2223,2126,2079,2032,2031,1938,1677,1530,1431,1201,1140,1112,1092,1079,1080,1026,1032,1035,1043,1046,1050,1051,1060,1051,1069,1064,1065,1068,1059,1069,1073,1073,1072,1067,1074,1061,1068,1066,1077,1065,1074,1063,1071,1069,769,772,759,784,826,1054,1558,1700,1821,1904,1875,1886,1783,1753,1740,1694,1682,1680,1606,1594,1548,1549,1489,1460,1445,1401,1373,1355,1264,1113,1002,979,837,779,796,765,770,747,741,745,746,752,744,752,750,753,751,788,755,756,756,754,760,796,756,760,762,763,764,763,763,763,761,771,762,640,641,643,639,725,871,1354,1524,1644,1735,1683,1668,1668,1600,1576,1530,1538,1485,1454,1440,1381,1363,1332,1327,1272,1240,1210,1168,1149,1023,865,839,782,658,652,651,654,648,651,649,645,653,649,655,657,656,659,656,659,653,654,653,657,656,686,662,656,654,660,668,658,659,659,663,656,945,947,950,959,1127,1728,2095,2298,2412,2433,2415,2381,2347,2305,2272,2208,2167,2139,2081,2036,2009,1952,1926,1875,1831,1790,1746,1664,1476,1281,1061,1033,999,978,961,961,923,917,918,920,918,922,928,936,928,944,936,937,943,938,945,945,945,948,939,946,952,943,938,949,954,947,944,943,941,375,377,378,379,380,590,703,782,860,924,935,920,903,888,873,859,843,829,814,799,784,770,754,740,725,710,696,681,666,651,636,605,483,492,385,381,382,384,358,351,356,378,364,358,360,358,356,368,371,361,368,371,372,366,377,377,356,362,355,359,355,358,364,367,353,531,520,528,524,539,635,960,1107,1200,1265,1280,1315,1232,1234,1207,1221,1161,1149,1115,1086,1089,1023,1060,1020,1016,988,1005,932,928,802,576,706,621,576,563,538,527,543,495,494,495,498,497,495,496,496,496,498,498,499,528,520,523,503,500,496,497,499,496,495,497,496,495,498,495,1032,1035,1038,1055,1093,1709,2202,2358,2486,2500,2459,2443,2413,2297,2319,2298,2187,2210,2132,2137,2107,2062,1955,1916,1950,1893,1688,1590,1416,1274,1238,1140,1089,1067,1062,1031,1049,1029,1001,1001,1000,1012,1027,1027,1022,1019,1014,1038,1019,1029,1031,1028,1025,1033,1037,1037,1034,1028,1022,1031,1018,1034,1034,1030,1022,652,654,694,678,740,1138,1412,1592,1727,1777,1767,1736,1705,1682,1674,1648,1612,1548,1580,1545,1509,1422,1390,1404,1368,1297,1264,1226,1203,1191,1008,892,804,678,665,665,689,674,666,672,668,674,679,683,678,688,674,686,679,684,684,678,689,691,692,688,685,677,684,686,687,690,685,697,677,0,0,0,0,0,0,0,0,0,0,0,0,0,0,0,0,0,0,0,0,0,0,0,0,0,0,0,0,0,0,0,0,0,0,0,0,0,0,0,0,0,0,0,0,0,0,0,0,0,0,0,0,0,0,0,0,0,0,0,0,0,0,0,0,0,182,184,184,186,186,189,178,183,187,190,194,193,193,192,190,190,189,188,188,187,186,186,184,183,183,182,181,181,180,180,178,118,118,117,189,186,187,187,103,103,103,104,104,104,104,105,104,105,105,105,105,106,106,106,106,107,107,107,107,107,108,108,108,108,108,1039,1037,1044,1082,1140,1788,2223,2395,2484,2504,2495,2506,2407,2367,2327,2290,2251,2210,2172,2150,2091,2052,2020,1995,1933,1893,1667,1563,1360,1198,1170,1103,1112,1069,1055,1049,1052,1049,1034,1025,1028,1031,1054,1045,1048,1045,1044,1050,1040,1037,1051,1034,1040,1048,1050,1037,1048,1032,1030,1045,1042,1054,1050,1053,1042,480,482,484,485,487,622,917,1018,1117,1178,1186,1164,1144,1126,1107,1089,1070,1052,1033,1017,998,978,958,940,922,903,884,859,840,820,750,601,587,502,492,488,489,445,415,413,414,422,434,428,429,431,419,437,427,435,432,429,431,432,436,433,430,430,420,427,421,434,431,431,423,328,330,324,332,334,450,584,656,730,764,787,791,769,769,747,769,739,715,679,667,679,643,656,641,633,615,608,595,583,424,415,496,411,384,412,335,320,336,291,290,291,294,293,291,292,292,292,294,294,295,313,314,314,299,296,292,293,295,292,291,293,292,291,294,291,250,251,304,256,306,320,453,512,559,608,630,620,602,600,590,573,570,560,608,541,530,520,511,500,490,481,471,460,451,435,345,334,329,319,260,257,307,258,248,246,249,252,248,260,252,266,260,253,262,251,254,252,252,257,253,252,252,255,252,251,252,255,252,260,253,375,377,378,379,380,590,703,782,860,924,935,920,903,888,873,859,843,829,814,799,784,770,754,740,725,710,696,681,666,651,636,605,483,492,385,381,382,384,358,351,356,378,364,358,360,358,356,368,371,361,368,371,372,366,377,377,356,362,355,359,355,358,364,367,353,398,400,400,401,402,606,748,832,915,980,978,963,952,936,925,910,896,882,867,853,838,824,806,791,776,760,745,729,714,697,681,642,507,417,408,404,405,406,360,352,358,380,366,360,362,360,358,370,373,363,370,373,374,368,378,379,358,364,357,361,357,360,365,367,367,553,553,550,557,545,677,1000,1151,1248,1318,1315,1365,1285,1251,1259,1252,1210,1148,1163,1131,1088,1077,1112,1064,1028,1030,1048,980,951,827,621,743,645,578,569,548,551,576,497,495,497,500,499,497,498,498,498,500,500,501,519,520,522,505,501,498,499,501,498,497,499,498,496,498,498,1054,1062,1062,1058,1115,1710,2244,2408,2526,2514,2504,2494,2458,2358,2333,2311,2238,2264,2180,2183,2140,2112,2007,1967,1951,1878,1639,1616,1449,1294,1173,1156,1125,1087,1080,1071,1069,1051,1003,1002,1002,1014,1029,1029,1024,1021,1016,1040,1021,1031,1033,1030,1027,1035,1038,1039,1036,1030,1024,1033,1020,1036,1035,1030,1030,643,644,666,669,670,1163,1396,1574,1706,1755,1732,1716,1716,1682,1622,1591,1592,1567,1574,1483,1449,1461,1422,1366,1311,1280,1249,1224,1186,1155,988,849,747,678,683,673,677,667,657,642,642,642,642,642,642,642,642,642,642,642,642,642,642,642,642,642,642,642,642,642,642,642,642,642,642,40,40,40,40,40,42,45,50,55,58,63,62,62,61,60,58,58,57,56,55,55,54,52,51,51,50,49,48,48,46,45,44,44,43,42,40,42,42,2,1,2,2,2,2,2,2,2,2,2,2,2,2,2,2,1,2,2,2,2,2,2,2,1,2,2,0,0,0,0,0,0,0,0,0,0,0,0,0,0,0,0,0,0,0,0,0,0,0,0,0,0,0,0,0,0,0,0,0,0,0,0,0,0,0,0,0,0,0,0,0,0,0,0,0,0,0,0,0,0,0,0,0,0,0,0,0,0,0,0,0,1059,1060,1066,1073,1166,1830,2268,2438,2539,2562,2532,2493,2453,2414,2386,2340,2303,2267,2225,2180,2141,2106,2070,2024,1984,1943,1667,1563,1400,1189,1215,1147,1100,1084,1073,1089,1075,1071,1036,1026,1030,1033,1056,1047,1050,1047,1046,1052,1042,1039,1053,1036,1042,1050,1051,1039,1050,1034,1032,1047,1044,1056,1051,1053,1053,503,505,506,507,509,664,962,1068,1172,1233,1227,1214,1191,1173,1159,1141,1124,1104,1086,1068,1048,1030,1010,991,973,953,933,891,873,854,749,638,624,525,521,518,512,467,417,414,416,424,436,430,431,433,421,439,429,437,434,431,433,434,437,435,432,432,422,429,423,436,432,431,431,350,352,346,353,340,485,624,700,765,817,850,843,822,813,799,804,787,739,735,714,700,697,708,685,650,657,646,636,622,449,441,494,435,369,363,357,344,378,293,291,293,296,295,293,294,294,294,296,296,297,315,316,316,301,297,294,295,297,294,293,295,294,292,294,294,244,245,246,247,248,261,442,494,544,585,608,598,589,579,562,560,543,558,548,514,512,495,487,483,474,464,454,458,435,426,390,271,264,258,256,248,248,249,227,223,223,223,223,223,223,223,223,223,223,223,223,223,223,223,223,223,223,223,223,223,223,223,223,223,223,398,400,400,401,402,606,748,832,915,980,978,963,952,936,925,910,896,882,867,853,838,824,806,791,776,760,745,729,714,697,681,642,507,417,408,404,405,406,360,352,358,380,366,360,362,360,358,370,373,363,370,373,374,368,378,379,358,364,357,361,357,360,365,367,367,665,667,658,671,663,1162,1281,1449,1545,1635,1632,1580,1563,1528,1503,1500,1450,1436,1425,1405,1372,1347,1299,1277,1249,1243,1184,1173,1148,1015,959,724,707,688,668,664,676,679,641,647,650,660,682,684,665,701,669,711,681,677,680,663,687,752,675,662,693,666,682,690,675,694,673,681,664,1435,1452,1477,1552,1913,2980,3168,3313,3376,3394,3420,3308,3285,3226,3182,3115,3055,3029,2968,2912,2552,2382,2352,2156,1796,1724,1684,1648,1647,1632,1540,1552,1494,1488,1467,1451,1413,1428,1381,1395,1401,1404,1412,1419,1414,1447,1399,1433,1410,1419,1410,1411,1431,1437,1417,1415,1417,1411,1432,1417,1407,1411,1400,1409,1394,276,277,278,279,392,446,505,562,621,675,687,676,666,655,644,633,622,612,601,590,579,568,558,546,535,524,513,502,492,481,470,459,448,417,400,393,394,394,274,274,276,276,274,274,276,276,276,274,276,274,276,279,315,277,274,276,277,278,325,278,276,319,276,276,278,1420,1433,1453,1674,2165,3065,3321,3446,3509,3523,3510,3466,3415,3362,3290,3194,3163,3107,3018,2966,2926,2853,2618,2392,2076,1770,1712,1654,1612,1600,1560,1501,1499,1475,1440,1446,1448,1451,1428,1437,1436,1455,1440,1457,1444,1471,1457,1471,1449,1447,1465,1467,1471,1498,1473,1464,1475,1471,1477,1469,1471,1483,1459,1477,1465,962,958,941,956,984,1775,1935,2134,2213,2302,2293,2214,2194,2142,2106,2085,2035,2019,1997,1963,1923,1856,1798,1794,1753,1742,1634,1547,1374,1349,1022,1043,1012,971,953,949,918,934,899,910,918,926,934,933,918,964,917,953,925,926,931,926,954,962,941,932,941,924,948,939,932,936,925,934,919,937,932,915,930,947,1717,1873,2072,2152,2244,2235,2156,2137,2086,2051,2030,1981,1967,1946,1914,1875,1808,1753,1749,1708,1698,1653,1572,1391,1305,995,1000,986,945,927,924,916,933,897,908,916,924,932,931,916,962,915,951,923,924,929,924,953,974,939,930,939,922,946,937,933,948,925,933,924,0,0,0,0,0,0,0,0,0,0,0,0,0,0,0,0,0,0,0,0,0,0,0,0,0,0,0,0,0,0,0,0,0,0,0,0,0,0,0,0,0,0,0,0,0,0,0,0,0,0,0,0,0,0,0,0,0,0,0,0,0,0,0,0,0,617,617,620,622,624,1062,1192,1321,1451,1509,1524,1484,1461,1436,1413,1388,1364,1341,1322,1299,1270,1246,1224,1200,1176,1152,1128,1097,1069,1033,857,837,665,644,629,624,627,595,554,563,559,566,572,578,580,611,560,592,569,580,571,570,591,599,577,574,575,570,591,578,567,574,564,574,559,1249,1247,1249,1281,1539,2526,2701,2871,2949,2967,2977,2899,2865,2805,2756,2728,2660,2641,2607,2564,2485,2454,2316,2110,2058,1949,1589,1436,1577,1440,1356,1343,1302,1286,1268,1257,1209,1224,1177,1191,1197,1200,1208,1215,1210,1243,1195,1229,1206,1215,1206,1207,1227,1233,1213,1211,1213,1207,1228,1213,1203,1207,1196,1205,1190,1076,1079,1086,1118,1196,2041,2314,2455,2551,2612,2582,2572,2530,2477,2403,2371,2346,2281,2233,2206,2179,2141,2094,2075,2015,1966,1727,1584,1500,1404,1176,1172,1124,1104,1089,1084,1068,1075,1055,1056,1064,1072,1071,1077,1074,1121,1067,1110,1081,1064,1076,1087,1112,1153,1103,1089,1088,1084,1116,1099,1084,1087,1063,1069,1055,665,667,658,671,663,1162,1281,1449,1545,1635,1632,1580,1563,1528,1503,1500,1450,1436,1425,1405,1372,1347,1299,1277,1249,1243,1184,1173,1148,1015,959,724,707,688,668,664,676,679,641,647,650,660,682,684,665,701,669,711,681,677,680,663,687,752,675,662,693,666,682,690,675,694,673,681,664,274,278,291,292,293,305,456,540,589,646,670,660,649,640,629,620,612,599,600,592,572,562,547,538,527,522,506,500,481,453,373,364,329,306,299,295,294,299,189,178,180,181,186,188,184,182,180,184,186,186,186,188,189,186,186,186,186,186,186,186,186,186,186,186,186,882,888,874,904,936,1166,1755,1956,2103,2097,2109,2074,2042,2051,2016,1926,1948,1910,1869,1791,1777,1772,1735,1670,1620,1587,1410,1258,1273,1259,984,934,912,920,913,910,890,900,830,832,829,834,844,841,839,841,836,839,841,841,839,839,841,840,838,838,838,838,838,838,838,838,838,838,838,705,696,705,706,754,921,1336,1517,1651,1714,1725,1692,1664,1641,1609,1585,1555,1530,1502,1477,1441,1429,1397,1380,1338,1323,1291,1252,1206,1018,850,768,753,732,715,719,730,713,661,661,666,666,667,673,677,672,666,673,680,670,672,677,677,673,678,678,678,678,678,678,678,678,678,678,678,969,972,976,1010,1104,1697,2140,2391,2483,2530,2516,2469,2424,2378,2345,2319,2272,2231,2184,2171,2084,2032,1993,1944,1926,1856,1807,1771,1491,1165,1091,1061,1036,1014,1004,1003,993,1013,928,935,934,936,949,942,945,944,946,956,954,951,954,955,955,949,951,944,944,944,944,944,944,944,944,944,944,427,428,429,431,434,583,810,876,949,1012,1026,1010,996,980,964,949,934,918,902,924,871,855,840,824,808,793,778,762,747,694,679,538,456,446,436,433,434,428,357,355,357,359,362,364,363,363,361,364,366,366,364,364,366,365,363,363,363,363,363,363,363,363,363,363,363,433,435,436,437,444,598,795,890,990,1058,1076,1058,1041,1023,1006,990,976,962,940,921,904,885,871,853,834,818,801,783,766,748,730,494,482,469,444,440,441,441,369,366,369,369,377,371,374,371,373,375,376,377,374,376,378,377,375,375,375,375,375,375,375,375,375,375,375,734,738,740,743,783,1250,1415,1582,1723,1776,1794,1762,1736,1712,1675,1649,1622,1592,1563,1536,1506,1478,1453,1425,1393,1364,1334,1306,1277,1126,832,795,779,775,748,770,747,772,717,713,722,729,726,725,726,728,727,727,728,727,727,727,727,728,726,726,726,726,726,726,726,726,726,726,726,0,0,0,0,0,0,0,0,0,0,0,0,0,0,0,0,0,0,0,0,0,0,0,0,0,0,0,0,0,0,0,0,0,0,0,0,0,0,0,0,0,0,0,0,0,0,0,0,0,0,0,0,0,0,0,0,0,0,0,0,0,0,0,0,0,696,696,712,704,708,757,1354,1502,1637,1684,1711,1658,1633,1606,1578,1546,1520,1501,1473,1446,1453,1392,1368,1354,1333,1295,1272,1089,1067,966,916,772,745,734,708,703,706,696,626,628,625,630,640,637,635,637,632,635,637,637,635,635,637,636,634,634,634,634,634,634,634,634,634,634,634,620,630,632,619,654,813,1186,1340,1482,1519,1534,1490,1458,1437,1411,1402,1376,1360,1314,1304,1281,1258,1233,1207,1172,1148,1135,1096,1024,948,789,758,660,644,639,630,632,612,548,539,543,552,553,559,554,552,561,562,558,560,552,558,566,554,559,561,561,561,561,561,561,561,561,561,561,274,278,291,292,293,305,456,540,589,646,670,660,649,640,629,620,612,599,600,592,572,562,547,538,527,522,506,500,481,453,373,364,329,306,299,295,294,299,189,178,180,181,186,188,184,182,180,184,186,186,186,188,189,186,186,186,186,186,186,186,186,186,186,186,186,699,701,732,742,786,1019,1391,1584,1665,1670,1677,1656,1630,1608,1583,1573,1548,1551,1530,1490,1454,1445,1418,1397,1349,1322,1293,1134,950,996,924,775,735,775,713,745,759,721,650,655,656,660,662,662,665,663,658,673,657,658,666,667,682,688,688,668,670,666,676,668,673,675,668,686,668,203,204,204,204,205,322,366,409,451,494,510,501,493,595,586,469,460,452,444,436,428,526,411,404,396,387,379,468,363,355,438,338,331,322,209,206,207,207,204,203,203,205,211,206,208,204,206,206,200,210,292,206,209,206,208,204,208,292,293,207,205,202,204,297,204,1342,1342,1381,1447,1821,2332,2954,3124,3136,3121,3087,3086,3012,2956,2923,2880,2811,2814,2795,2677,2317,2255,2191,2173,1919,1770,1616,1533,1515,1514,1452,1408,1389,1418,1356,1388,1383,1352,1289,1295,1298,1307,1310,1305,1301,1311,1317,1314,1305,1308,1319,1316,1334,1342,1345,1325,1321,1314,1329,1317,1327,1328,1315,1327,1314,851,852,854,857,873,1406,1698,1806,1911,1952,1920,1916,1889,1837,1840,1871,1784,1754,1726,1697,1670,1640,1613,1584,1556,1526,1498,1536,1358,998,978,939,895,892,864,861,865,854,848,854,860,869,861,870,867,872,861,868,865,856,868,868,875,894,875,873,860,857,872,865,861,854,862,902,861,536,539,540,573,574,680,995,1123,1187,1228,1241,1223,1208,1192,1153,1174,1156,1138,1120,1109,1083,1065,1053,1037,1017,994,981,938,927,819,647,616,558,602,546,556,557,535,466,466,465,464,466,463,467,469,466,465,463,464,468,466,469,471,480,467,464,463,469,478,466,467,465,466,466,551,552,567,591,602,728,1040,1166,1228,1269,1283,1265,1250,1234,1196,1220,1200,1183,1165,1175,1126,1108,1096,1080,1051,1033,1012,970,950,804,695,657,578,617,556,584,584,571,504,503,504,503,505,501,506,506,503,503,502,503,506,505,508,510,519,506,503,502,508,517,505,506,504,505,505,1383,1397,1400,1481,1684,2359,3031,3221,3247,3229,3157,3151,3096,3062,3017,2976,2909,2904,2853,2680,2448,2386,2089,2063,1883,1682,1660,1669,1566,1584,1533,1455,1429,1461,1406,1439,1439,1404,1342,1353,1360,1364,1358,1362,1363,1364,1362,1371,1361,1360,1367,1371,1382,1390,1390,1370,1372,1364,1374,1369,1376,1374,1365,1374,1361,788,794,823,834,885,1016,1550,1798,1844,1847,1853,1823,1800,1777,1749,1737,1708,1719,1678,1651,1629,1591,1563,1538,1494,1463,1224,1131,899,1088,892,844,833,860,796,838,799,766,702,709,711,715,713,714,714,715,713,722,712,711,718,722,733,741,741,721,723,715,725,720,727,725,716,728,715,0,0,0,0,0,0,0,0,0,0,0,0,0,0,0,0,0,0,0,0,0,0,0,0,0,0,0,0,0,0,0,0,0,0,0,0,0,0,0,0,0,0,0,0,0,0,0,0,0,0,0,0,0,0,0,0,0,0,0,0,0,0,0,0,0,681,683,684,696,730,942,1297,1404,1503,1536,1557,1537,1508,1500,1464,1417,1419,1398,1378,1380,1372,1342,1330,1300,1277,1255,1235,1181,1150,830,921,781,708,736,688,697,705,693,663,662,672,673,672,683,676,683,681,689,680,684,679,682,684,679,684,683,686,687,677,677,682,686,678,688,679,699,701,732,742,786,1019,1391,1584,1665,1670,1677,1656,1630,1608,1583,1573,1548,1551,1530,1490,1454,1445,1418,1397,1349,1322,1293,1134,950,996,924,775,735,775,713,745,759,721,650,655,656,660,662,662,665,663,658,673,657,658,666,667,682,688,688,668,670,666,676,668,673,675,668,686,668,430,431,432,433,436,501,794,886,974,1048,1066,1048,1032,1016,999,982,966,948,931,914,897,880,864,847,831,812,795,778,762,745,518,505,494,451,441,437,438,440,381,381,381,381,381,381,381,381,381,381,381,381,381,381,381,381,381,381,381,381,381,381,381,381,381,381,381,648,650,641,643,680,919,1280,1409,1493,1573,1584,1558,1534,1515,1458,1463,1428,1409,1360,1375,1332,1316,1288,1270,1228,1229,1180,1149,1146,926,854,686,681,664,654,652,653,656,608,608,608,608,608,608,608,608,608,608,608,608,608,608,608,608,608,608,608,608,608,608,608,608,608,608,608,1087,1094,1094,1124,1159,1957,2348,2503,2585,2563,2559,2518,2521,2483,2405,2372,2308,2313,2284,2187,2187,2158,2065,2024,2038,1756,1608,1578,1379,1273,1226,1190,1146,1090,1082,1108,1073,1090,1025,1025,1025,1025,1025,1025,1025,1025,1025,1025,1025,1025,1025,1025,1025,1025,1025,1025,1025,1025,1025,1025,1025,1025,1025,1025,1025,502,503,506,526,552,864,1010,1157,1304,1405,1414,1388,1375,1336,1311,1285,1287,1258,1275,1201,1215,1130,1156,1126,1053,1066,1010,966,950,924,918,771,742,552,532,520,516,520,513,515,514,520,522,527,520,525,518,524,524,527,525,518,525,530,526,525,525,520,522,524,522,529,523,544,517,187,187,188,188,190,251,328,367,405,447,470,463,455,448,439,433,426,418,412,404,398,390,379,371,364,357,350,343,336,327,320,269,306,256,210,191,191,192,116,116,116,116,116,116,116,116,116,116,116,116,116,116,116,116,116,116,116,116,116,116,116,116,116,116,116,161,162,162,162,164,250,284,318,350,384,408,401,394,388,381,375,369,362,356,349,343,336,330,323,316,310,304,297,291,284,278,271,265,259,168,165,165,166,114,114,114,114,114,114,114,114,114,114,114,114,114,114,114,114,114,114,114,114,114,114,114,114,114,114,114,1088,1091,1097,1108,1203,1957,2321,2487,2590,2636,2620,2582,2532,2500,2459,2414,2365,2323,2281,2242,2206,2166,2114,2073,2030,1932,1684,1447,1308,1275,1252,1159,1142,1125,1128,1134,1132,1105,1063,1063,1063,1063,1063,1063,1063,1063,1063,1063,1063,1063,1063,1063,1063,1063,1063,1063,1063,1063,1063,1063,1063,1063,1063,1063,1063,535,537,538,539,543,803,1007,1122,1231,1299,1314,1292,1272,1252,1238,1217,1190,1170,1154,1133,1107,1087,1066,1045,1024,1004,986,962,942,921,828,642,604,559,548,544,545,501,439,439,439,439,439,439,439,439,439,439,439,439,439,439,439,439,439,439,439,439,439,439,439,439,439,439,439,444,447,444,445,452,573,829,918,1010,1080,1097,1081,1062,1046,1027,1011,984,977,959,943,925,912,896,883,857,839,822,805,768,726,730,608,581,461,451,448,449,452,405,405,405,405,405,405,405,405,405,405,405,405,405,405,405,405,405,405,405,405,405,405,405,405,405,405,405,0,0,0,0,0,0,0,0,0,0,0,0,0,0,0,0,0,0,0,0,0,0,0,0,0,0,0,0,0,0,0,0,0,0,0,0,0,0,0,0,0,0,0,0,0,0,0,0,0,0,0,0,0,0,0,0,0,0,0,0,0,0,0,0,0,430,431,432,433,436,501,794,886,974,1048,1066,1048,1032,1016,999,982,966,948,931,914,897,880,864,847,831,812,795,778,762,745,518,505,494,451,441,437,438,440,381,381,381,381,381,381,381,381,381,381,381,381,381,381,381,381,381,381,381,381,381,381,381,381,381,381,381,0,0,0,0,0,0,0,0,0,0,0,0,0,0,0,0,0,0,0,0,0,0,0,0,0,0,0,0,0,0,0,0,0,0,0,0,0,0,0,0,0,0,0,0,0,0,0,0,0,0,0,0,0,0,0,0,0,0,0,0,0,0,0,0,0,798,797,782,796,837,1063,1512,1730,1845,1922,1880,1870,1831,1813,1788,1773,1727,1706,1710,1620,1605,1599,1528,1538,1471,1437,1410,1318,1125,986,884,853,869,828,808,807,790,787,757,751,754,766,762,759,760,764,759,765,767,769,772,772,772,775,761,761,766,769,759,756,764,763,759,764,757,748,740,741,749,782,1089,1419,1645,1750,1832,1814,1793,1763,1713,1697,1590,1595,1617,1568,1478,1509,1499,1428,1439,1415,1384,1357,1330,1206,1018,876,841,835,784,762,761,766,748,717,712,717,718,717,724,727,718,721,732,732,723,726,732,728,727,732,728,733,737,727,730,733,728,733,729,728,800,795,794,818,834,1417,1759,1947,2113,2119,2123,2082,2047,2008,1964,1957,1906,1904,1879,1792,1789,1724,1678,1641,1644,1588,1518,1502,1446,1308,1048,868,855,821,832,825,819,818,813,809,819,820,812,822,817,816,820,829,849,832,832,840,837,836,834,837,832,839,836,839,851,854,845,851,849,294,300,301,301,308,398,530,596,654,715,746,723,724,712,685,689,677,665,653,642,619,618,605,593,582,569,557,546,534,526,512,499,431,419,322,342,344,320,262,257,259,268,265,264,264,268,263,267,269,270,283,290,291,298,261,265,269,270,263,261,267,267,264,266,262,268,274,276,276,282,429,484,541,596,652,684,661,663,652,628,631,620,609,598,587,565,566,556,545,534,523,512,501,490,481,470,459,448,413,286,302,302,284,260,256,257,266,263,262,262,266,261,265,267,268,281,288,289,307,260,263,267,268,261,259,265,265,263,264,260,775,780,785,789,807,1068,1498,1672,1822,1900,1875,1862,1822,1789,1753,1676,1660,1677,1650,1546,1589,1566,1484,1491,1475,1444,1408,1307,1140,1123,858,842,818,818,800,796,789,792,768,767,767,778,771,773,771,777,771,776,776,777,779,780,776,777,778,774,775,779,779,780,778,779,779,779,775,187,188,188,188,227,295,332,368,404,442,459,452,445,438,430,424,417,410,403,396,388,381,374,368,361,354,346,339,332,325,318,310,304,297,290,260,260,260,128,129,129,129,129,131,129,131,129,143,130,130,130,131,131,131,133,131,129,133,130,132,129,130,130,130,129,604,603,590,591,610,723,1139,1269,1344,1462,1429,1422,1414,1386,1345,1329,1302,1278,1281,1239,1210,1208,1167,1162,1122,1121,1068,1054,877,855,791,750,680,619,602,600,597,583,553,547,550,562,558,555,556,560,555,561,563,565,568,568,568,571,557,557,562,565,555,552,560,559,555,560,553,444,453,455,449,456,525,850,952,1046,1108,1119,1092,1086,1051,1017,1014,1008,993,964,948,950,909,908,890,859,855,820,804,784,543,670,518,481,461,480,454,469,439,432,433,428,442,438,437,444,445,439,439,441,447,463,438,441,447,443,445,443,441,441,439,442,442,442,440,432,0,0,0,0,0,0,0,0,0,0,0,0,0,0,0,0,0,0,0,0,0,0,0,0,0,0,0,0,0,0,0,0,0,0,0,0,0,0,0,0,0,0,0,0,0,0,0,0,0,0,0,0,0,0,0,0,0,0,0,0,0,0,0,0,0 ]);
