n = 20;
D = [260,221,280,277,80,106,237,255,215,219,136,100,82,131,254,136,155,74,139,66 ];
q = 0;
prec = array2d(1..0,1..2,[]);
steps = 64;
l = 360;
r = 0;
which = [];
interval = array2d(1..0,1..2,[]);
T = array3d(1..21,1..21,0..64,[0,0,0,0,0,0,0,0,0,0,0,0,0,0,0,0,0,0,0,0,0,0,0,0,0,0,0,0,0,0,0,0,0,0,0,0,0,0,0,0,0,0,0,0,0,0,0,0,0,0,0,0,0,0,0,0,0,0,0,0,0,0,0,0,0,522,530,533,525,529,648,999,1098,1209,1287,1303,1290,1249,1238,1218,1198,1196,1146,1137,1116,1083,1072,1063,1031,1009,1005,961,848,702,829,675,657,665,578,564,528,542,564,472,478,480,501,484,483,485,501,483,480,484,482,485,487,485,483,480,483,483,485,482,483,481,482,480,480,480,446,447,449,451,456,555,830,926,1019,1088,1087,1078,1060,1044,1028,1009,993,980,958,933,924,907,889,872,855,837,820,804,786,769,657,610,561,467,456,452,455,455,427,427,429,429,430,430,433,434,434,433,434,435,436,437,436,439,437,437,439,440,439,439,441,443,440,440,440,84,84,92,92,96,130,147,164,181,198,210,206,204,200,196,193,190,187,183,181,177,174,170,168,164,160,158,154,151,147,145,141,138,135,132,96,96,129,58,58,59,61,58,58,60,62,59,58,59,58,61,60,60,59,58,59,59,63,62,58,61,63,61,61,61,268,268,269,272,273,288,489,570,602,672,667,674,644,658,630,626,622,622,585,572,561,550,541,530,519,508,496,489,474,466,456,445,290,283,276,273,273,283,287,259,254,256,273,280,271,271,278,280,290,279,283,286,288,284,268,284,292,293,287,286,272,274,288,267,269,245,246,247,294,295,394,447,526,553,620,616,626,596,609,582,580,578,576,542,528,518,507,498,488,478,468,458,452,435,429,418,409,399,390,304,296,297,302,242,237,240,242,242,242,242,243,240,245,244,243,242,244,243,240,242,245,246,247,242,241,246,245,243,243,242,761,764,766,758,789,1078,1511,1662,1806,1836,1847,1827,1782,1743,1714,1707,1655,1626,1618,1584,1567,1510,1486,1456,1446,1398,1367,1354,1283,1011,989,872,864,780,776,773,773,772,733,737,736,745,754,745,754,747,745,749,748,750,750,756,753,756,777,768,762,758,756,747,753,753,776,782,767,539,540,543,544,549,712,990,1058,1134,1191,1199,1216,1170,1168,1141,1184,1113,1099,1084,1070,1057,1047,1028,1015,1027,989,972,954,936,780,696,644,628,560,560,548,548,538,462,461,465,469,467,468,471,473,471,471,472,472,476,481,479,475,475,477,478,480,480,479,480,481,479,479,479,544,547,547,550,565,848,1053,1172,1280,1331,1338,1314,1314,1272,1236,1165,1210,1127,1183,1143,1124,1104,1071,1056,1040,1009,997,976,956,889,890,806,680,560,552,541,552,556,538,531,538,538,537,538,538,538,538,538,538,538,538,538,538,538,538,538,538,538,538,538,538,538,538,538,538,892,894,900,914,984,1690,1967,2199,2326,2374,2368,2305,2263,2220,2176,2150,2091,2049,2023,1981,1927,1896,1836,1812,1766,1713,1664,1624,1540,1361,1009,1051,953,924,908,916,911,906,903,903,903,903,903,903,903,903,903,903,903,903,903,903,903,903,903,903,903,903,903,903,903,903,903,903,903,841,843,847,849,871,1275,1635,1823,1956,2022,2013,1977,1945,1915,1895,1852,1821,1790,1759,1728,1699,1664,1641,1600,1569,1536,1510,1486,1365,1161,937,916,883,865,855,850,855,841,782,774,782,788,791,788,792,786,796,802,790,786,804,803,818,795,788,807,790,811,788,785,806,807,805,805,805,117,117,118,118,175,178,200,219,242,265,279,281,278,272,268,258,260,255,251,247,235,231,233,229,218,213,215,212,200,196,192,194,189,185,181,175,177,178,77,77,79,81,78,78,80,82,79,78,79,78,81,80,80,79,79,79,78,83,82,77,80,83,81,81,81,1007,983,1012,1022,1147,1695,2226,2420,2537,2559,2538,2458,2448,2429,2395,2337,2296,2278,2200,2154,2081,2055,2009,1979,1922,1875,1831,1753,1397,1248,1100,1076,1044,1028,997,1021,1027,1043,994,999,1008,1005,1022,1021,1032,1028,1016,1033,1013,1014,1014,1022,1029,1028,1025,1027,1017,1020,1015,1025,1029,1029,1038,1031,1028,1009,1027,1025,1047,1070,1611,2081,2272,2391,2442,2397,2384,2344,2295,2278,2223,2190,2164,2179,2060,2040,1993,1985,1880,1909,1825,1582,1356,1256,1157,1133,1084,1059,1050,1043,1030,1042,1036,985,985,986,986,986,988,989,990,990,990,991,991,991,992,991,992,992,992,995,995,994,994,995,996,995,995,995,592,594,610,597,620,812,1163,1290,1406,1456,1458,1435,1419,1386,1367,1340,1318,1295,1269,1248,1225,1200,1177,1155,1143,1109,1086,1063,1038,1016,902,738,632,619,608,604,612,607,581,581,585,582,589,589,596,599,594,601,594,595,593,596,593,602,600,596,600,595,593,598,599,603,596,596,596,1022,1024,1032,1084,1163,1953,2334,2569,2686,2726,2718,2663,2590,2541,2492,2462,2392,2343,2314,2265,2202,2167,2098,2065,2013,1953,1916,1851,1541,1383,1146,1136,1084,1056,1039,1052,1057,1054,1075,1075,1075,1075,1075,1075,1075,1075,1075,1075,1075,1075,1075,1075,1075,1075,1075,1075,1075,1075,1075,1075,1075,1075,1075,1075,1075,718,720,722,716,729,963,1383,1550,1679,1750,1750,1734,1707,1687,1661,1636,1598,1560,1549,1519,1465,1458,1434,1406,1367,1342,1297,1247,1101,1075,896,799,820,753,743,720,742,744,666,671,677,695,689,689,679,689,678,678,683,683,685,687,688,693,687,689,684,689,684,694,689,690,688,688,688,298,308,315,316,322,338,546,608,666,729,730,727,718,706,695,681,671,660,648,627,625,614,600,589,578,565,553,543,517,512,481,418,407,341,332,311,313,304,256,256,257,257,258,259,260,261,261,261,262,262,262,263,262,263,263,263,266,266,265,265,266,267,266,266,266,393,395,396,397,400,609,734,825,902,962,972,955,964,925,905,828,880,802,865,847,817,802,787,777,756,741,726,710,696,681,664,639,525,597,403,370,398,409,390,383,390,390,388,390,390,390,390,390,390,390,390,390,390,390,390,390,390,390,390,390,390,390,390,390,390,643,649,655,648,659,762,1223,1362,1503,1578,1568,1554,1506,1492,1468,1444,1444,1395,1369,1358,1329,1287,1278,1257,1214,1228,1173,1150,1004,1030,942,785,746,692,671,651,660,655,586,586,590,606,599,593,600,613,601,597,616,608,616,616,616,616,594,594,606,605,600,598,600,601,599,599,599,0,0,0,0,0,0,0,0,0,0,0,0,0,0,0,0,0,0,0,0,0,0,0,0,0,0,0,0,0,0,0,0,0,0,0,0,0,0,0,0,0,0,0,0,0,0,0,0,0,0,0,0,0,0,0,0,0,0,0,0,0,0,0,0,0,540,541,550,544,541,889,1045,1151,1256,1286,1268,1244,1237,1244,1195,1197,1168,1149,1136,1125,1095,1091,1053,1040,1028,1004,972,965,944,901,846,745,669,563,610,550,544,548,533,522,522,533,546,537,530,526,528,543,546,536,544,546,538,534,536,544,539,550,541,542,538,536,544,538,533,0,0,0,0,0,0,0,0,0,0,0,0,0,0,0,0,0,0,0,0,0,0,0,0,0,0,0,0,0,0,0,0,0,0,0,0,0,0,0,0,0,0,0,0,0,0,0,0,0,0,0,0,0,0,0,0,0,0,0,0,0,0,0,0,0,738,741,744,744,756,1259,1475,1645,1740,1754,1743,1710,1683,1651,1636,1627,1587,1564,1554,1521,1494,1467,1439,1407,1384,1358,1316,1231,1199,1053,953,806,804,778,779,756,761,738,695,699,701,700,710,707,717,710,710,717,715,713,714,715,716,726,730,713,717,709,706,716,714,719,712,716,708,480,480,496,483,485,777,913,1005,1100,1134,1130,1108,1093,1108,1066,1066,1034,1022,1018,998,982,968,948,919,913,891,876,859,839,793,747,716,566,507,555,494,487,500,486,477,478,495,500,490,483,479,482,507,497,489,494,497,489,490,488,504,490,503,495,496,492,488,499,494,489,393,395,396,397,399,605,741,819,895,922,923,904,891,877,871,876,846,838,838,821,808,793,778,754,748,733,719,703,695,678,668,653,485,534,412,407,400,412,381,383,382,385,393,389,396,392,391,393,397,394,395,391,390,403,410,391,396,390,387,390,389,393,391,392,390,439,441,443,443,447,688,843,936,1017,1041,1044,1024,1008,992,984,984,955,945,939,920,908,888,873,847,839,820,805,788,778,760,754,729,558,607,460,456,460,460,413,416,414,415,425,421,429,425,421,434,428,424,424,422,422,440,438,425,427,419,417,426,421,432,425,429,421,963,967,961,974,1062,1711,2019,2210,2263,2299,2276,2236,2175,2140,2137,2095,2044,2036,2014,1972,1938,1887,1853,1823,1798,1739,1701,1522,1308,1203,1058,1056,1020,997,995,975,968,977,942,934,948,955,951,959,952,962,949,954,970,961,969,978,975,968,996,963,960,957,960,962,966,964,962,960,959,270,315,271,272,272,427,462,495,530,562,570,562,556,549,543,536,530,523,517,510,504,514,508,483,477,471,464,458,451,445,438,432,405,417,274,272,273,273,236,236,236,237,239,239,241,237,238,241,237,239,239,244,244,239,241,241,243,272,243,237,248,238,238,244,237,913,915,920,923,960,1609,1949,2094,2179,2192,2165,2127,2092,2058,2032,2016,1966,1944,1918,1881,1849,1813,1778,1742,1706,1676,1637,1508,1353,1176,1006,1094,956,948,954,936,922,934,900,904,904,916,914,919,912,916,913,911,920,916,927,930,929,918,937,918,916,912,913,914,913,920,918,919,918,952,954,969,981,1016,1612,1960,2097,2218,2207,2210,2161,2168,2146,2066,2035,2016,2008,1915,1908,1910,1853,1838,1808,1767,1673,1565,1509,1149,1265,1061,1026,1008,994,977,982,961,947,903,902,913,927,923,931,923,929,924,932,931,937,932,935,935,956,940,942,935,938,935,936,944,943,937,950,936,456,458,463,460,465,737,812,886,960,1022,1002,1008,999,986,973,957,919,930,916,902,889,874,860,847,832,819,805,790,774,759,750,707,694,472,464,462,459,464,441,435,436,438,446,447,441,448,441,448,447,448,446,451,456,527,459,461,452,457,456,457,455,461,453,466,453,500,500,524,510,576,723,943,1011,1169,1161,1155,1138,1122,1103,1115,1072,1095,1044,1046,1004,992,994,958,964,924,907,891,840,859,800,722,698,584,517,518,505,507,472,460,458,460,464,459,468,464,465,464,464,465,461,462,462,463,464,465,465,464,464,464,464,463,470,463,467,465,754,756,762,760,840,1260,1442,1586,1695,1740,1706,1700,1680,1665,1634,1609,1560,1558,1533,1512,1486,1459,1432,1407,1384,1358,1332,1274,1246,1202,1054,886,862,772,764,764,762,739,719,714,722,725,725,726,726,727,724,722,724,730,725,732,737,747,737,741,723,735,731,734,736,738,734,747,733,1116,1087,1091,1130,1228,2059,2305,2441,2522,2540,2510,2466,2448,2442,2367,2342,2323,2256,2230,2181,2202,2168,2073,2018,1996,1778,1667,1549,1365,1326,1224,1329,1124,1166,1146,1109,1104,1128,1096,1107,1119,1099,1117,1123,1118,1125,1118,1127,1116,1116,1140,1141,1141,1115,1138,1128,1125,1125,1117,1125,1121,1121,1114,1116,1115,846,848,852,854,882,1471,1783,1929,2012,2035,2009,1973,1941,1911,1887,1873,1826,1801,1783,1747,1718,1685,1652,1618,1586,1557,1522,1488,1222,1198,936,1048,888,880,886,868,855,867,833,837,837,848,847,840,845,849,846,844,853,849,860,863,861,851,870,851,849,845,846,847,846,853,851,852,851,880,883,888,891,912,1450,1729,1894,1992,2030,1993,1988,1958,1939,1905,1875,1821,1816,1786,1765,1743,1699,1668,1642,1610,1580,1550,1479,1293,1192,1033,991,915,917,896,894,891,843,824,821,831,836,838,835,841,835,842,833,832,839,837,844,848,859,847,850,834,846,843,850,850,851,846,859,845,232,232,233,234,235,370,414,457,500,543,555,547,538,530,522,513,505,498,489,481,558,464,456,448,440,432,423,415,406,399,391,382,374,366,350,348,344,344,220,224,224,227,227,228,224,228,224,233,225,225,228,228,235,285,235,231,231,228,234,233,233,234,229,233,229,533,536,536,538,538,859,1043,1146,1238,1261,1256,1264,1213,1194,1182,1180,1147,1134,1130,1110,1087,1066,1046,1017,1006,989,965,945,932,885,708,678,653,573,569,547,552,555,514,515,515,516,527,524,530,527,524,535,531,526,529,527,526,544,542,530,536,524,519,534,524,535,530,534,526,855,858,840,862,900,1489,1751,1901,2024,1994,2019,1917,1945,1914,1896,1878,1835,1773,1794,1755,1692,1692,1668,1621,1584,1569,1517,1433,1345,985,1094,944,912,904,897,845,871,844,802,810,817,810,820,818,831,820,820,828,826,822,822,825,827,837,839,823,828,817,814,824,822,827,824,828,820,177,177,178,178,214,278,308,362,387,399,411,406,422,416,388,408,376,387,382,378,373,368,363,358,354,349,339,313,308,302,296,290,284,278,270,215,215,215,157,159,158,165,164,165,162,174,159,166,169,170,162,165,167,168,165,165,168,168,165,165,165,168,162,163,162,540,541,550,544,541,889,1045,1151,1256,1286,1268,1244,1237,1244,1195,1197,1168,1149,1136,1125,1095,1091,1053,1040,1028,1004,972,965,944,901,846,745,669,563,610,550,544,548,533,522,522,533,546,537,530,526,528,543,546,536,544,546,538,534,536,544,539,550,541,542,538,536,544,538,533,413,415,417,418,420,496,748,835,923,1029,1029,1010,993,984,961,945,928,912,901,884,868,846,829,822,796,784,775,752,730,534,521,513,500,435,412,420,421,422,379,380,380,383,397,393,392,393,393,400,403,395,395,386,390,393,394,386,393,393,386,393,393,392,394,397,391,703,693,708,701,715,929,1314,1509,1651,1701,1718,1685,1654,1638,1592,1566,1532,1511,1463,1436,1435,1392,1358,1358,1324,1296,1208,1142,1094,866,923,790,737,757,723,704,715,678,647,639,644,648,645,651,647,654,652,656,653,663,662,663,653,648,650,650,654,651,645,646,650,651,650,646,646,0,0,0,0,0,0,0,0,0,0,0,0,0,0,0,0,0,0,0,0,0,0,0,0,0,0,0,0,0,0,0,0,0,0,0,0,0,0,0,0,0,0,0,0,0,0,0,0,0,0,0,0,0,0,0,0,0,0,0,0,0,0,0,0,0,414,415,416,417,422,477,757,844,963,1018,1026,1009,991,976,921,943,926,910,877,860,861,873,815,813,796,781,764,748,732,584,570,496,481,433,393,435,421,411,398,400,403,404,397,410,404,408,409,402,410,400,407,404,406,412,403,406,404,414,408,404,406,412,405,410,410,346,347,347,350,351,462,566,700,771,838,865,846,832,819,805,778,778,764,742,729,715,702,688,675,662,654,641,627,613,562,549,537,469,394,352,352,353,354,297,299,299,296,305,303,312,311,303,307,304,303,300,299,300,307,304,301,307,299,300,304,302,309,300,306,306,323,324,327,328,329,434,527,656,723,788,817,798,785,772,758,732,734,719,699,686,673,660,647,635,622,614,601,590,576,526,513,501,373,342,330,330,331,332,274,276,276,277,281,283,291,286,281,284,281,280,279,279,278,285,280,279,283,279,279,280,282,284,281,281,281,464,466,468,458,476,725,884,982,1058,1118,1147,1105,1110,1092,1050,1032,1014,1020,981,963,943,946,928,910,873,873,855,837,819,783,783,676,661,485,475,472,473,464,440,442,438,442,453,451,447,450,443,448,448,453,444,444,447,458,448,447,449,452,444,451,446,453,443,447,447,545,551,555,556,563,714,968,1163,1267,1335,1346,1333,1315,1310,1271,1244,1192,1174,1130,1136,1115,1094,1070,1049,1028,1011,989,967,894,612,701,687,605,627,580,558,590,531,500,492,497,501,498,504,500,507,505,509,506,516,515,516,506,501,503,503,507,504,498,499,503,504,503,499,499,321,321,322,323,325,372,569,635,700,764,796,784,770,759,747,733,718,710,696,683,673,659,647,634,622,610,597,583,573,560,546,534,368,360,351,326,348,349,287,286,288,288,288,289,289,289,289,290,290,290,291,291,291,292,291,292,292,292,292,292,293,293,292,293,293,1264,1271,1283,1357,1676,2391,2922,3087,3146,3210,3167,3107,3049,3001,2952,2894,2832,2792,2748,2676,2619,2576,2512,2293,2192,2082,1914,1760,1458,1422,1386,1357,1320,1306,1280,1277,1282,1299,1258,1259,1259,1262,1276,1272,1271,1272,1272,1296,1282,1274,1274,1265,1269,1272,1273,1265,1272,1272,1265,1272,1272,1271,1273,1276,1270,919,922,928,931,966,1259,1786,2052,2162,2221,2210,2186,2149,2139,2094,2031,2007,1982,1908,1890,1867,1803,1785,1748,1700,1678,1614,1570,1300,1104,1007,984,1002,954,950,932,928,907,875,867,873,877,874,880,873,883,880,884,882,892,887,892,882,877,879,879,883,880,874,875,878,880,878,874,874,441,459,444,462,477,581,814,916,1039,1114,1112,1114,1056,1078,985,1005,987,1000,936,918,947,934,869,898,849,858,839,802,715,631,616,594,577,488,421,463,487,430,417,420,424,433,421,430,424,433,430,422,430,420,427,424,426,433,423,425,424,436,427,423,426,436,425,430,430,893,895,897,901,945,1502,1880,2160,2249,2284,2321,2202,2162,2104,2111,2043,2029,2003,1983,1948,1906,1854,1815,1782,1740,1692,1657,1616,1393,1231,1001,968,917,912,898,904,912,930,874,877,876,882,901,899,885,898,888,901,904,897,902,905,909,908,898,908,905,907,902,902,903,919,901,913,913,757,759,762,764,772,930,1528,1654,1778,1878,1823,1768,1766,1717,1739,1687,1684,1625,1602,1609,1544,1519,1498,1506,1421,1290,1389,1239,1048,1113,913,915,879,776,801,768,772,799,752,758,752,767,765,765,764,772,764,781,767,771,765,764,768,775,766,770,775,771,767,763,766,788,767,768,768,253,254,255,256,256,395,446,497,548,598,630,619,610,601,590,580,570,560,550,541,531,520,511,501,490,481,471,460,451,441,430,421,411,402,391,327,347,358,220,219,221,221,221,222,222,222,222,223,223,223,224,224,224,225,224,225,225,225,225,225,226,226,225,226,226,965,967,988,983,1052,1665,2093,2370,2454,2487,2522,2398,2356,2342,2327,2273,2272,2210,2172,2126,2088,2028,1988,1946,1888,1821,1803,1766,1491,1368,1168,1060,1008,1003,988,984,991,999,968,971,948,952,987,962,971,982,969,978,1005,978,972,980,983,997,973,989,983,993,980,981,979,990,981,985,985,880,880,881,895,923,1310,1653,1907,2021,2078,2082,2084,2040,1976,1957,1918,1894,1859,1811,1783,1738,1741,1700,1648,1600,1594,1566,1433,1202,967,990,956,979,908,914,898,907,865,834,826,831,835,832,838,834,841,839,843,840,850,849,850,840,835,837,837,841,838,832,833,837,838,837,833,833,213,214,215,216,216,226,375,418,460,503,533,520,512,504,495,474,480,471,463,454,446,438,429,421,414,405,397,388,380,372,363,355,224,226,270,216,217,218,183,186,183,187,192,190,190,193,189,191,189,191,187,185,186,192,187,186,191,187,185,189,187,193,187,188,188,362,368,364,365,392,358,627,758,768,804,894,801,788,776,763,823,738,724,712,699,696,674,661,648,636,622,609,597,592,579,593,564,356,347,338,394,395,395,343,347,338,342,350,352,362,358,348,346,352,360,353,345,347,351,348,348,349,350,343,347,341,351,346,345,345,810,812,818,818,843,1226,1586,1777,1932,1959,1972,1944,1908,1875,1860,1806,1772,1747,1690,1660,1624,1605,1578,1543,1527,1489,1465,1290,1127,955,954,900,892,858,825,819,827,770,739,731,736,740,737,743,739,746,744,748,745,755,754,755,745,740,742,742,746,743,737,738,742,743,742,738,738,413,415,417,418,420,496,748,835,923,1029,1029,1010,993,984,961,945,928,912,901,884,868,846,829,822,796,784,775,752,730,534,521,513,500,435,412,420,421,422,379,380,380,383,397,393,392,393,393,400,403,395,395,386,390,393,394,386,393,393,386,393,393,392,394,397,391,64,64,64,64,98,99,112,126,139,152,163,160,158,154,152,150,147,145,142,139,136,134,132,129,127,123,121,118,116,114,111,108,105,103,100,98,98,98,48,47,45,44,48,46,47,47,47,46,50,49,47,50,49,49,44,48,49,49,51,46,46,46,48,45,44,471,471,498,473,477,518,903,994,1110,1160,1172,1189,1122,1114,1096,1082,1099,1045,1023,1044,977,1011,951,928,917,906,867,848,694,813,667,649,657,596,480,477,477,501,439,446,448,474,453,453,449,478,448,454,450,449,451,452,455,459,450,451,454,447,446,454,450,451,445,446,445,473,475,477,478,486,588,894,996,1096,1177,1162,1143,1126,1113,1110,1070,1052,1051,1035,1016,979,961,943,926,916,891,894,852,834,816,755,534,521,495,484,500,500,483,461,453,461,463,457,472,459,477,470,468,471,463,469,467,469,479,468,466,470,472,466,468,471,476,465,473,467,0,0,0,0,0,0,0,0,0,0,0,0,0,0,0,0,0,0,0,0,0,0,0,0,0,0,0,0,0,0,0,0,0,0,0,0,0,0,0,0,0,0,0,0,0,0,0,0,0,0,0,0,0,0,0,0,0,0,0,0,0,0,0,0,0,305,306,307,307,312,387,541,604,667,730,761,748,737,726,706,694,679,670,656,646,641,629,618,605,586,574,568,557,545,532,518,502,395,386,317,313,313,315,268,265,268,272,271,274,268,270,268,277,270,270,270,270,275,278,273,273,275,271,271,270,273,274,268,269,268,282,282,284,285,286,303,501,559,619,678,711,699,688,676,658,648,643,625,614,602,597,586,574,563,546,535,529,519,507,496,484,472,461,304,294,287,287,288,244,244,249,257,251,250,249,253,249,257,252,252,268,277,277,279,260,254,255,260,254,252,256,257,251,252,251,788,792,794,786,808,1345,1577,1751,1884,1926,1896,1887,1847,1805,1794,1767,1714,1700,1687,1642,1594,1571,1541,1509,1502,1450,1440,1404,1288,1058,1056,867,836,827,804,801,803,792,767,763,768,779,781,787,780,791,781,784,785,778,783,786,786,796,805,804,793,790,783,776,783,786,800,790,779,488,489,492,494,497,640,900,1018,1097,1160,1182,1167,1155,1142,1124,1104,1091,1071,1048,1030,1010,993,974,956,937,920,903,883,864,828,551,536,527,515,502,496,498,487,429,429,432,436,436,438,435,436,435,445,438,439,442,446,449,451,444,445,448,443,444,449,449,450,444,445,444,584,588,588,584,604,859,1165,1237,1411,1479,1435,1418,1389,1392,1388,1315,1348,1271,1325,1231,1224,1204,1095,1129,1138,1083,1070,1046,1038,879,882,869,768,628,598,595,589,603,586,578,583,582,585,584,585,585,585,584,588,587,585,588,587,587,582,586,587,587,589,584,584,584,586,583,582,903,905,951,921,1034,1717,1998,2222,2351,2396,2374,2331,2288,2245,2202,2158,2115,2072,2029,1981,1942,1899,1856,1813,1789,1735,1683,1567,1540,1361,1119,979,950,928,917,918,912,916,920,915,916,921,946,948,937,949,930,957,943,930,933,941,949,961,959,963,965,953,962,952,954,974,934,931,928,790,793,795,797,816,1145,1539,1717,1824,1894,1898,1867,1832,1802,1772,1742,1718,1688,1654,1624,1597,1566,1542,1522,1480,1454,1423,1400,1365,1161,968,892,832,819,804,799,804,791,749,742,750,755,760,758,756,749,761,776,756,753,770,768,799,771,758,775,761,773,752,756,775,776,770,771,770,60,91,91,91,91,92,104,115,127,139,148,146,144,141,139,138,135,133,130,128,126,123,121,118,116,114,111,110,108,105,103,100,98,96,93,91,92,92,44,45,47,48,47,48,44,45,44,52,45,45,47,45,50,55,49,47,49,45,46,48,49,50,44,45,44,1012,1016,1017,1024,1106,1723,2105,2314,2447,2512,2510,2458,2419,2379,2340,2299,2259,2220,2180,2140,2098,2061,2020,1981,1940,1893,1848,1681,1397,1238,1115,1108,1084,1046,1029,1025,1028,1040,961,967,983,988,991,991,1004,991,981,1012,979,981,980,987,999,1004,995,995,988,982,979,996,998,998,1004,997,996,1039,1051,1057,1077,1097,1790,2134,2330,2458,2509,2462,2434,2409,2357,2361,2268,2287,2241,2222,2147,2095,2048,2039,1921,1950,1856,1582,1343,1204,1240,1180,1172,1131,1077,1064,1058,1066,1076,1019,1011,1018,1020,1013,1030,1015,1034,1026,1025,1028,1019,1024,1022,1024,1032,1023,1021,1026,1027,1021,1023,1025,1029,1020,1028,1022,632,635,632,640,641,1037,1224,1363,1486,1566,1547,1513,1502,1475,1459,1425,1397,1390,1370,1348,1287,1282,1246,1221,1207,1172,1170,1134,1092,1064,964,846,737,668,646,643,645,634,615,607,617,616,616,631,622,643,629,636,631,623,626,626,626,642,631,625,631,627,620,627,629,636,621,643,625,1033,1035,1064,1070,1247,1914,2349,2560,2681,2752,2715,2665,2628,2592,2537,2466,2440,2366,2316,2290,2246,2166,2116,2066,2044,1988,1917,1815,1541,1372,1211,1112,1132,1080,1069,1052,1060,1064,1046,1053,1064,1075,1066,1072,1054,1065,1072,1091,1076,1073,1079,1087,1089,1093,1087,1083,1082,1077,1079,1100,1090,1089,1094,1094,1093,661,660,683,665,674,835,1287,1475,1544,1619,1630,1610,1592,1569,1530,1520,1479,1466,1440,1407,1359,1354,1346,1306,1269,1254,1203,1182,1093,1020,1014,834,719,707,671,669,670,692,633,639,645,662,658,659,643,652,643,652,649,650,651,652,658,669,657,657,655,651,648,665,658,659,653,654,653,325,341,328,348,344,437,609,677,745,813,808,794,781,771,778,744,733,736,723,713,682,669,655,642,641,617,627,592,580,565,568,478,466,357,356,345,346,347,290,282,289,291,285,300,286,304,297,296,299,290,295,293,295,303,294,292,297,298,292,294,296,300,291,299,293,433,436,436,439,444,691,846,877,1034,1114,1071,1060,1038,1048,1057,978,1020,946,1007,919,919,908,811,852,856,818,826,781,802,754,733,716,624,634,444,441,443,455,438,430,435,434,436,436,437,437,437,436,440,439,437,440,439,439,434,438,439,439,441,436,436,436,438,435,434,592,607,614,598,607,654,1150,1258,1384,1448,1435,1454,1392,1368,1350,1328,1335,1283,1260,1270,1233,1232,1166,1153,1162,1137,1079,1079,996,1014,938,665,649,637,603,601,609,608,553,554,558,573,568,563,564,576,566,571,582,575,589,586,605,601,564,562,577,567,564,569,569,570,564,565,564,64,64,64,64,98,99,112,126,139,152,163,160,158,154,152,150,147,145,142,139,136,134,132,129,127,123,121,118,116,114,111,108,105,103,100,98,98,98,48,47,45,44,48,46,47,47,47,46,50,49,47,50,49,49,44,48,49,49,51,46,46,46,48,45,44,296,296,297,315,299,443,488,627,678,707,721,712,702,693,692,680,668,657,675,633,621,626,613,592,594,521,512,504,495,486,485,366,480,419,304,333,300,331,282,284,286,295,286,290,285,290,289,289,287,287,289,290,290,290,290,290,290,290,290,290,290,290,290,290,289,362,397,413,417,439,507,680,800,871,893,946,933,870,865,852,836,864,811,840,824,772,796,742,727,754,738,685,709,694,680,550,604,406,406,371,402,369,370,365,361,371,366,370,376,368,363,365,371,380,371,378,376,376,401,374,369,369,369,369,369,369,369,369,369,369,409,410,412,414,424,466,741,825,909,989,1008,990,974,958,942,926,912,895,879,865,850,832,816,800,784,768,753,738,651,636,569,541,482,468,419,416,423,426,372,369,371,374,372,372,373,376,372,376,374,374,376,377,380,381,379,379,375,377,377,375,375,375,375,375,375,307,295,296,296,297,359,453,576,635,700,712,703,694,686,675,664,653,641,634,623,613,577,576,556,549,486,477,470,462,454,454,422,444,323,327,288,299,300,251,245,255,263,261,258,249,252,258,266,261,258,260,255,257,260,260,256,256,256,256,256,256,256,256,256,256,0,0,0,0,0,0,0,0,0,0,0,0,0,0,0,0,0,0,0,0,0,0,0,0,0,0,0,0,0,0,0,0,0,0,0,0,0,0,0,0,0,0,0,0,0,0,0,0,0,0,0,0,0,0,0,0,0,0,0,0,0,0,0,0,0,111,111,112,112,169,172,196,219,242,266,280,276,272,267,262,258,254,249,244,240,236,231,226,222,218,213,208,204,200,195,190,186,182,177,172,169,169,170,87,87,88,87,87,87,87,88,87,87,87,87,87,87,87,87,87,87,87,87,87,86,85,85,85,85,85,665,668,663,675,681,840,1253,1425,1529,1624,1602,1600,1562,1536,1503,1474,1483,1426,1408,1394,1356,1343,1306,1270,1264,1238,1219,1186,1151,929,863,762,705,702,677,680,676,665,633,631,631,636,645,638,642,646,636,641,641,641,643,645,649,650,648,645,661,643,650,643,642,642,642,642,642,324,326,308,309,352,407,566,612,705,740,764,754,750,743,722,705,721,710,649,637,672,632,619,607,629,583,570,590,577,512,439,424,418,323,315,311,312,362,295,302,297,304,314,312,304,310,302,311,308,302,303,308,306,312,310,309,309,309,309,309,309,309,309,309,309,631,622,620,636,669,779,1163,1339,1427,1513,1517,1505,1469,1440,1416,1406,1376,1358,1328,1317,1270,1256,1244,1207,1196,1156,1148,1102,1023,999,781,710,668,652,637,641,627,624,593,587,589,594,592,594,595,601,592,600,597,595,599,601,601,598,599,600,601,595,598,597,590,590,590,590,590,1098,1106,1124,1151,1273,2007,2301,2514,2620,2692,2673,2636,2598,2550,2488,2445,2397,2378,2311,2290,2243,2186,2136,2094,2033,1832,1650,1550,1393,1226,1214,1175,1187,1144,1131,1127,1093,1109,1081,1090,1097,1103,1106,1126,1108,1119,1120,1113,1110,1118,1105,1111,1129,1137,1121,1134,1129,1129,1129,1131,1128,1124,1127,1127,1116,683,686,687,689,710,994,1336,1470,1581,1642,1631,1610,1587,1564,1534,1516,1477,1472,1438,1410,1387,1360,1337,1321,1284,1258,1233,1207,1185,1005,836,840,804,706,710,693,696,692,630,635,634,643,651,652,640,642,643,646,641,637,642,651,669,671,650,647,647,647,647,647,647,647,647,647,647,336,336,324,324,337,401,504,636,697,770,780,771,760,751,738,726,714,701,693,682,670,634,632,610,601,538,529,520,511,502,494,453,459,366,370,316,366,336,270,264,275,285,281,278,269,272,278,286,281,278,280,275,277,280,281,276,276,276,276,276,276,276,276,276,276,739,740,742,745,764,1275,1605,1759,1930,1952,1951,1946,1880,1843,1808,1773,1740,1701,1692,1634,1594,1563,1544,1494,1471,1423,1388,1353,1317,1227,1043,910,853,776,766,750,753,758,760,747,751,757,747,780,758,778,766,800,768,753,757,754,757,774,762,763,759,759,757,756,759,781,756,785,762,819,842,824,834,861,980,1673,1741,1889,1957,1960,1923,1887,1852,1833,1830,1764,1765,1720,1744,1681,1646,1623,1570,1494,1464,1465,1276,1192,955,900,947,873,870,841,855,830,839,824,823,825,840,829,842,830,846,845,833,837,831,832,837,832,833,834,839,836,837,835,836,833,833,833,833,833,564,555,552,575,577,721,1024,1173,1259,1351,1358,1336,1314,1288,1268,1260,1232,1216,1189,1178,1136,1124,1113,1080,1070,1033,1029,986,908,876,772,712,597,583,569,573,559,554,526,519,522,525,524,529,528,531,524,528,526,524,526,533,531,526,532,531,530,528,529,530,529,529,529,529,529,811,812,813,835,852,1504,1856,1974,2138,2157,2154,2145,2077,2037,1998,1962,1987,1944,1903,1809,1818,1741,1712,1658,1617,1580,1543,1504,1466,1297,1036,908,900,856,826,840,834,833,836,832,839,837,834,861,839,838,839,882,865,849,850,855,855,872,852,854,847,854,852,857,863,869,846,882,859,551,574,576,618,605,732,1116,1222,1318,1369,1370,1349,1347,1321,1282,1282,1248,1229,1206,1185,1165,1145,1124,1136,1080,1059,1039,1017,996,887,836,709,605,611,562,580,596,563,545,550,558,565,556,563,551,559,552,553,555,555,550,563,561,566,563,567,567,567,567,567,567,567,567,567,567,210,211,212,212,248,324,375,416,460,501,520,513,505,496,488,480,472,464,456,447,439,432,423,415,406,386,391,382,374,366,358,347,340,331,308,249,249,250,187,188,187,188,188,189,190,189,189,190,188,190,189,192,192,191,191,191,192,196,192,188,193,193,193,193,193,525,527,529,516,533,708,974,1094,1211,1284,1286,1266,1250,1230,1212,1189,1172,1147,1128,1109,1089,1068,1048,1026,1012,984,964,942,853,835,815,633,590,558,547,536,533,541,478,476,482,490,482,482,484,490,482,486,485,485,485,485,490,492,490,488,485,488,485,483,483,483,483,483,483,490,503,504,506,528,551,907,1078,1157,1173,1244,1197,1143,1122,1107,1111,1101,1050,1066,1060,994,1015,981,940,962,943,907,902,868,761,702,679,533,540,494,522,492,482,465,461,463,466,470,470,473,464,473,473,479,470,478,476,487,469,469,493,493,493,493,493,493,493,493,493,493,296,296,297,315,299,443,488,627,678,707,721,712,702,693,692,680,668,657,675,633,621,626,613,592,594,521,512,504,495,486,485,366,480,419,304,333,300,331,282,284,286,295,286,290,285,290,289,289,287,287,289,290,290,290,290,290,290,290,290,290,290,290,290,290,289,244,244,245,279,247,363,483,514,547,597,612,636,624,612,553,562,584,543,534,524,514,516,524,501,508,505,486,445,464,426,434,295,396,369,251,281,248,282,240,239,239,252,240,241,240,244,240,243,243,240,244,241,244,244,242,244,245,244,244,240,243,245,243,243,243,380,395,446,384,386,537,706,792,872,943,951,975,961,923,892,878,862,898,834,819,846,798,816,760,762,742,756,698,682,696,581,418,497,502,464,412,460,399,384,390,391,411,406,404,404,408,392,394,392,389,389,387,388,388,388,390,390,389,386,390,388,395,390,393,386,356,356,358,360,360,419,633,703,775,855,874,859,849,834,820,806,794,779,765,752,738,727,711,698,684,672,657,643,628,579,566,462,451,436,365,361,362,363,326,325,327,327,326,325,328,328,328,328,328,328,329,328,328,328,328,328,328,328,328,328,328,328,328,328,328,242,243,233,244,258,279,439,490,518,564,583,588,577,541,561,550,541,531,522,512,504,476,487,480,472,469,451,468,432,422,411,236,360,355,280,258,276,260,236,227,229,232,232,234,231,237,236,234,235,237,239,240,240,240,240,237,237,240,240,240,241,244,240,237,242,91,91,91,91,91,92,104,115,127,138,147,145,142,141,139,136,134,132,129,127,124,123,121,118,116,114,111,109,108,105,103,100,98,96,93,92,92,92,45,44,44,45,45,44,45,45,44,46,46,45,45,45,45,44,45,45,46,46,45,45,46,46,45,45,45,0,0,0,0,0,0,0,0,0,0,0,0,0,0,0,0,0,0,0,0,0,0,0,0,0,0,0,0,0,0,0,0,0,0,0,0,0,0,0,0,0,0,0,0,0,0,0,0,0,0,0,0,0,0,0,0,0,0,0,0,0,0,0,0,0,655,661,652,664,677,925,1233,1404,1506,1602,1587,1587,1561,1540,1496,1469,1448,1419,1394,1390,1363,1336,1297,1265,1258,1222,1207,1181,1154,929,848,798,712,704,674,673,675,672,632,634,634,643,648,640,643,641,638,640,642,643,643,644,647,647,647,647,647,645,647,644,645,647,647,647,647,379,364,382,389,392,462,665,706,747,785,810,802,790,784,776,769,760,752,745,738,729,723,712,705,699,690,672,679,662,613,511,502,389,419,395,368,392,390,340,346,341,349,353,356,349,355,346,355,354,347,348,353,351,356,355,356,360,355,356,358,357,363,348,348,348,577,584,579,588,616,668,1084,1195,1320,1413,1400,1387,1371,1359,1320,1299,1283,1261,1244,1219,1186,1167,1158,1127,1102,1078,1056,1043,999,980,772,736,662,645,596,586,586,581,547,546,549,547,552,551,552,557,555,561,555,555,553,554,554,554,554,554,554,554,554,554,554,554,554,554,554,1106,1104,1113,1133,1210,1985,2349,2536,2682,2715,2714,2674,2625,2596,2520,2506,2439,2388,2345,2329,2255,2219,2200,2150,2033,1832,1682,1550,1390,1252,1277,1185,1160,1152,1129,1126,1116,1124,1114,1121,1119,1124,1124,1128,1137,1151,1131,1149,1142,1130,1135,1139,1158,1165,1155,1159,1149,1166,1161,1145,1140,1136,1141,1140,1140,700,703,705,707,726,1068,1372,1500,1623,1677,1662,1642,1627,1600,1583,1549,1535,1497,1471,1446,1420,1394,1368,1342,1316,1292,1264,1238,1219,1005,898,860,740,724,714,711,715,699,675,679,678,688,690,696,685,687,687,690,687,682,687,696,714,700,695,694,693,695,692,692,697,697,688,688,688,288,277,261,280,280,305,328,551,580,633,651,656,644,606,625,613,603,592,582,571,561,532,542,534,525,527,501,519,320,491,304,267,309,285,277,281,288,283,255,246,249,252,252,264,251,282,261,254,267,260,259,260,260,278,263,259,256,264,260,259,263,266,265,282,265,788,796,799,812,898,1335,1779,1947,2057,2088,2079,2079,2010,1984,1930,1893,1856,1807,1782,1744,1706,1669,1630,1585,1555,1517,1479,1441,1397,1227,1074,864,840,812,810,808,813,817,794,796,798,794,810,821,826,813,803,844,803,800,800,799,810,818,808,805,807,801,800,807,805,834,856,856,856,827,843,817,849,863,1250,1628,1720,1909,1992,1987,1897,1891,1894,1825,1802,1746,1743,1760,1734,1681,1624,1601,1605,1494,1458,1465,1276,1120,1051,1003,936,886,891,875,842,842,868,826,826,829,847,832,845,831,844,847,832,839,834,832,836,832,834,834,841,838,839,834,837,836,874,841,852,838,510,516,519,521,522,674,944,1043,1152,1248,1239,1230,1214,1207,1170,1151,1139,1118,1105,1083,1052,1033,1030,1000,978,956,934,924,885,866,772,678,595,537,527,518,525,514,480,479,481,480,485,484,487,491,488,492,488,488,486,487,487,487,487,487,487,487,487,487,487,487,487,487,487,866,869,889,906,1005,1524,1996,2159,2265,2293,2281,2278,2207,2178,2125,2098,2107,1987,2019,1936,1930,1837,1798,1747,1718,1677,1638,1589,1500,1306,1006,942,913,904,900,884,888,893,879,882,879,881,885,902,881,887,894,926,900,892,899,899,900,916,900,893,901,896,900,911,897,915,903,903,903,568,584,593,574,584,789,1108,1282,1344,1412,1413,1390,1390,1371,1329,1308,1296,1263,1268,1220,1213,1180,1200,1158,1112,1093,1083,1034,1012,961,646,620,626,628,636,598,628,595,578,583,588,610,601,607,596,592,587,592,591,590,589,587,591,598,595,596,591,593,588,601,596,604,597,601,592,151,151,152,211,229,235,302,296,326,356,372,367,361,355,349,343,338,332,325,320,313,309,303,297,291,285,280,274,268,262,256,252,246,240,234,230,230,231,142,144,141,150,141,145,142,145,144,147,144,143,145,144,147,144,144,145,148,145,147,143,145,148,145,148,148,473,473,474,477,478,536,855,949,1051,1146,1162,1137,1120,1107,1089,1070,1052,1028,1015,997,979,967,950,933,913,893,870,856,836,818,798,528,515,504,492,480,481,491,432,432,436,443,436,435,439,442,438,438,439,439,438,436,436,436,436,436,436,436,436,436,436,436,436,436,436,504,503,522,506,517,608,927,1039,1145,1233,1220,1230,1212,1179,1158,1150,1106,1137,1083,1060,1076,1054,1032,991,996,980,954,910,878,791,796,702,624,540,540,527,528,500,498,498,501,511,511,514,514,509,510,511,524,509,519,521,532,513,502,501,513,509,504,505,507,506,507,507,506,244,244,245,279,247,363,483,514,547,597,612,636,624,612,553,562,584,543,534,524,514,516,524,501,508,505,486,445,464,426,434,295,396,369,251,281,248,282,240,239,239,252,240,241,240,244,240,243,243,240,244,241,244,244,242,244,245,244,244,240,243,245,243,243,243,648,658,654,662,686,1132,1281,1418,1544,1649,1591,1566,1540,1515,1490,1464,1429,1454,1428,1408,1348,1382,1290,1287,1246,1214,1184,1179,1134,910,721,704,687,671,677,691,696,701,659,659,659,660,655,660,659,659,657,659,659,660,657,659,665,664,659,657,660,659,659,659,660,660,657,659,657,866,869,871,875,906,1274,1782,1942,2038,2071,2062,2102,2077,1970,1936,1906,1872,1906,1808,1823,1795,1714,1683,1649,1645,1549,1454,1454,1357,1209,964,990,909,892,882,879,867,821,812,820,817,828,818,820,826,837,827,822,825,847,848,840,824,826,826,826,824,823,816,824,819,845,845,850,819,459,460,462,464,471,737,868,952,1049,1119,1115,1109,1091,1076,1055,1041,1022,1003,986,967,950,932,913,897,878,862,835,818,808,783,773,743,730,480,469,505,506,450,435,436,433,436,436,437,436,437,434,436,436,438,432,436,442,437,431,429,432,431,431,431,432,432,429,431,429,700,711,707,716,748,1142,1397,1545,1669,1743,1712,1684,1657,1630,1603,1575,1532,1560,1533,1513,1451,1447,1388,1378,1330,1308,1275,1269,1168,808,790,759,740,724,730,744,732,717,687,680,684,711,712,701,708,704,710,712,712,713,710,712,718,717,704,710,711,712,712,712,713,713,710,708,702,531,533,534,536,539,662,1018,1135,1246,1307,1310,1289,1268,1247,1230,1209,1188,1167,1150,1125,1105,1087,1063,1041,1021,999,979,958,937,889,685,671,642,555,552,541,552,519,508,501,500,516,526,513,521,519,541,523,516,523,536,520,537,521,513,544,512,528,525,524,538,527,525,526,520,510,512,512,513,516,743,976,1088,1197,1258,1262,1241,1222,1202,1184,1164,1143,1124,1107,1083,1063,1046,1022,1002,981,961,942,921,901,880,762,746,546,532,530,519,529,496,485,478,482,495,500,492,502,497,522,500,493,504,516,501,518,501,491,519,492,509,504,504,514,508,500,495,489,0,0,0,0,0,0,0,0,0,0,0,0,0,0,0,0,0,0,0,0,0,0,0,0,0,0,0,0,0,0,0,0,0,0,0,0,0,0,0,0,0,0,0,0,0,0,0,0,0,0,0,0,0,0,0,0,0,0,0,0,0,0,0,0,0,692,694,696,700,749,953,1407,1558,1660,1699,1695,1743,1719,1616,1589,1563,1535,1594,1480,1501,1503,1396,1371,1342,1361,1288,1261,1305,1148,1038,768,767,732,715,738,701,704,674,665,673,670,681,671,673,679,690,680,675,678,701,702,697,677,679,679,679,677,676,669,677,672,698,698,703,672,351,352,353,354,356,574,650,726,800,859,871,856,843,829,816,801,788,774,760,747,733,720,705,692,678,664,650,637,622,609,595,582,567,554,360,356,357,358,336,339,341,344,339,341,339,341,337,337,340,339,335,335,343,344,339,337,339,338,335,338,338,341,336,340,337,1421,1425,1438,1511,1774,2806,3302,3428,3520,3540,3490,3427,3371,3325,3256,3192,3145,3086,3022,2960,2902,2618,2258,2009,1958,1757,1781,1688,1636,1592,1568,1532,1492,1475,1451,1420,1414,1418,1384,1387,1398,1418,1400,1395,1409,1429,1408,1408,1417,1407,1443,1418,1450,1424,1427,1444,1420,1422,1447,1437,1442,1450,1435,1437,1435,1066,1069,1072,1085,1181,1760,2324,2463,2544,2572,2556,2576,2537,2435,2393,2348,2319,2285,2243,2200,2158,2104,2074,2036,1992,1950,1622,1651,1419,1182,1170,1165,1119,1094,1083,1082,1070,1024,1015,1008,1010,1010,1017,1016,1014,1016,1016,1020,1029,1027,1030,1029,1029,1031,1034,1031,1032,1039,1045,1053,1036,1035,1056,1075,1047,734,744,719,729,795,1198,1426,1621,1743,1773,1782,1755,1686,1693,1664,1642,1592,1618,1560,1538,1475,1507,1412,1407,1353,1363,1262,1201,1167,855,834,772,778,736,742,787,751,739,706,700,704,731,733,721,728,724,732,734,734,734,730,732,738,737,724,730,733,732,732,731,733,733,730,728,722,898,901,903,907,951,1584,2025,2192,2317,2352,2322,2282,2253,2212,2169,2128,2086,2045,2002,1961,1919,1868,1835,1794,1752,1711,1665,1627,1548,1315,1000,990,963,948,923,911,922,928,885,884,893,903,903,907,892,904,903,919,913,901,917,923,933,931,912,921,914,924,915,916,918,937,922,936,933,574,576,577,579,592,969,1087,1214,1310,1363,1366,1345,1324,1312,1284,1263,1250,1230,1202,1182,1160,1140,1119,1099,1086,1058,1038,1017,997,951,806,788,771,758,584,581,583,584,566,573,576,592,580,576,574,579,579,573,573,576,577,579,576,578,583,584,584,582,579,582,584,634,618,628,609,284,285,286,287,288,305,518,578,638,692,708,696,685,674,662,651,640,628,618,607,595,584,573,561,550,540,528,517,506,494,483,472,307,300,292,288,289,290,272,271,271,272,271,272,271,271,269,271,271,272,269,271,277,276,271,269,272,271,271,271,272,272,269,271,269,970,973,994,989,1058,1769,2240,2403,2524,2553,2536,2478,2450,2403,2361,2315,2271,2224,2203,2136,2100,2055,2000,1958,1912,1859,1815,1777,1512,1192,1080,1065,1056,1039,1009,1003,1005,1007,979,978,965,973,989,970,978,988,984,983,1006,982,986,994,993,1003,987,1002,992,1007,993,995,994,1010,1022,1006,1004,1024,1038,1048,1039,1105,1647,2186,2350,2430,2462,2453,2483,2420,2302,2277,2266,2220,2243,2127,2155,2130,2044,2005,1970,1964,1890,1695,1580,1460,1336,1147,1137,1087,1070,1077,1041,1047,1008,999,1007,1004,1015,1005,1007,1013,1024,1014,1009,1012,1035,1036,1031,1011,1013,1013,1013,1011,1010,1003,1011,1006,1032,1032,1037,1006,492,496,496,498,500,660,930,1043,1148,1211,1215,1196,1178,1158,1137,1118,1099,1082,1064,1044,1025,1003,986,967,946,930,910,889,870,849,681,667,610,560,506,503,504,483,470,464,465,466,473,470,472,473,488,472,471,471,499,480,487,476,473,497,473,492,474,474,483,474,469,470,464,531,523,534,540,544,723,1003,1122,1220,1276,1300,1261,1252,1232,1260,1180,1190,1140,1119,1099,1078,1058,1039,1070,1006,978,957,937,925,882,871,799,710,544,532,549,551,547,523,522,522,523,522,523,522,522,520,522,522,523,520,522,528,527,522,520,523,522,522,522,523,523,520,522,520,971,967,976,967,1037,1498,2064,2222,2302,2333,2321,2358,2318,2220,2162,2135,2089,2133,2024,2041,2010,1903,1907,1851,1861,1779,1603,1543,1448,1264,1064,1049,1017,996,1006,974,959,913,904,912,909,920,910,912,918,929,919,914,917,940,941,936,916,918,918,918,916,915,908,916,911,937,937,942,911,648,658,654,662,686,1132,1281,1418,1544,1649,1591,1566,1540,1515,1490,1464,1429,1454,1428,1408,1348,1382,1290,1287,1246,1214,1184,1179,1134,910,721,704,687,671,677,691,696,701,659,659,659,660,655,660,659,659,657,659,659,660,657,659,665,664,659,657,660,659,659,659,660,660,657,659,657,456,459,458,459,462,652,806,917,1051,1059,1062,1055,1043,1030,1005,992,986,966,960,940,934,922,907,894,829,815,801,787,772,757,677,523,586,477,467,464,463,465,422,420,421,420,426,433,428,434,427,434,433,429,433,429,432,430,434,431,433,429,429,428,429,429,429,429,429,174,174,175,175,262,268,294,321,346,373,388,384,378,372,369,363,358,354,347,343,337,333,328,322,318,313,307,301,297,292,287,283,277,272,266,262,249,249,147,147,147,147,147,147,147,147,147,147,147,147,147,147,147,147,147,147,147,147,147,147,147,147,147,147,147,570,571,574,573,579,751,1082,1206,1328,1377,1376,1355,1327,1312,1294,1272,1243,1227,1210,1184,1161,1142,1118,1092,1077,1057,1046,956,926,863,704,688,608,591,584,580,581,587,547,548,551,551,551,553,553,552,550,554,556,553,554,556,559,556,557,559,558,556,556,558,560,559,557,559,556,433,434,436,436,443,575,768,862,949,1011,1020,1004,997,978,961,949,937,925,913,899,870,865,842,823,794,780,767,754,740,726,654,480,500,458,438,443,444,436,380,375,386,392,380,386,381,387,381,384,385,382,384,382,386,386,386,386,384,385,386,382,383,383,383,383,383,227,227,228,228,229,347,404,447,490,532,546,537,529,520,513,505,496,488,480,472,464,456,447,439,432,423,415,406,398,390,382,374,366,352,282,278,278,279,221,224,222,222,224,222,225,226,222,224,220,223,224,227,228,227,228,224,223,222,228,230,223,225,224,227,225,290,275,276,276,277,385,498,553,604,658,668,658,648,672,624,614,638,596,583,576,595,555,573,535,524,514,501,494,483,471,460,451,442,338,281,276,277,278,263,267,269,271,270,272,267,271,266,273,268,268,271,271,278,278,277,273,275,269,276,276,276,276,270,275,271,796,800,794,805,838,1177,1607,1734,1893,1899,1933,1888,1868,1803,1774,1767,1714,1695,1686,1646,1614,1584,1554,1513,1497,1480,1436,1405,1162,955,877,937,826,808,858,802,811,798,780,772,774,786,785,787,784,787,788,786,792,792,791,792,796,797,795,793,796,788,795,797,795,795,795,795,795,0,0,0,0,0,0,0,0,0,0,0,0,0,0,0,0,0,0,0,0,0,0,0,0,0,0,0,0,0,0,0,0,0,0,0,0,0,0,0,0,0,0,0,0,0,0,0,0,0,0,0,0,0,0,0,0,0,0,0,0,0,0,0,0,0,748,749,752,754,787,1215,1462,1648,1774,1816,1820,1776,1762,1733,1687,1663,1634,1616,1594,1549,1527,1506,1488,1436,1407,1391,1363,1328,1291,1080,879,806,787,821,760,758,760,754,739,740,735,747,748,747,745,746,748,746,742,747,745,747,746,745,750,749,749,745,748,747,743,743,743,743,743,915,917,920,925,962,1426,1858,2027,2158,2224,2210,2185,2146,2109,2076,2038,2003,1968,1934,1897,1873,1828,1798,1756,1722,1673,1472,1277,1259,1029,1032,990,959,944,931,928,921,897,834,834,834,834,834,834,834,834,834,834,834,834,834,834,834,834,834,834,834,834,834,834,834,834,834,834,834,403,404,405,406,408,510,727,812,906,994,1002,985,970,953,937,921,906,890,873,858,851,825,810,794,777,762,746,729,714,698,681,627,523,461,427,408,410,411,372,372,372,372,372,372,372,372,372,372,372,372,372,372,372,372,372,372,372,372,372,372,372,372,372,372,372,460,462,463,464,471,561,824,924,1037,1080,1088,1070,1062,1042,1024,1016,1002,985,972,958,927,920,896,877,846,832,817,745,788,715,629,496,543,486,466,471,472,455,399,395,406,422,400,406,401,407,401,404,405,402,404,402,406,407,406,405,404,405,405,401,403,403,403,403,403,624,621,629,628,630,997,1295,1465,1612,1695,1658,1635,1603,1575,1543,1521,1485,1455,1425,1408,1357,1338,1305,1275,1245,1219,1189,1160,1124,1074,1020,710,665,649,638,633,652,634,605,599,605,606,603,610,611,609,609,613,645,609,611,639,636,618,638,614,614,614,614,614,614,614,614,614,614,949,920,920,954,990,1435,1885,2004,2110,2227,2170,2124,2107,2079,2069,2055,2011,1970,1920,1870,1884,1801,1794,1757,1696,1651,1514,1420,1255,1154,1014,1000,988,968,973,928,930,959,927,942,949,945,937,943,950,959,948,955,958,946,957,955,956,956,944,950,954,954,949,947,954,954,947,946,944,680,682,684,685,709,1062,1311,1482,1611,1648,1660,1620,1607,1581,1539,1516,1491,1475,1458,1413,1388,1375,1360,1310,1285,1270,1244,1213,1156,828,810,791,772,753,692,690,692,687,672,675,668,679,681,678,678,679,681,679,675,680,678,680,679,678,683,682,682,678,681,680,676,676,676,676,676,695,697,717,722,723,1198,1493,1682,1826,1903,1863,1837,1801,1771,1764,1710,1709,1660,1669,1638,1598,1518,1479,1440,1412,1377,1345,1308,1264,1129,1008,823,765,740,710,727,728,721,692,690,691,695,699,700,701,707,697,701,702,707,707,718,720,716,724,704,704,704,704,704,704,704,704,704,704,358,336,344,360,339,362,615,694,736,787,803,793,770,754,758,745,752,742,709,706,685,719,682,658,652,634,628,643,631,593,598,555,379,374,369,364,340,349,334,334,334,334,334,334,334,334,334,334,334,334,334,334,334,334,334,334,334,334,334,334,334,334,334,334,334,364,365,366,386,369,534,700,747,825,876,880,868,855,842,832,818,800,788,781,760,746,734,721,743,693,680,673,651,638,630,615,547,524,381,374,372,372,420,363,367,368,372,371,368,370,372,368,372,369,371,372,376,376,380,381,377,380,378,373,369,371,371,371,371,368,660,688,663,691,694,975,1328,1489,1555,1662,1655,1631,1596,1574,1559,1532,1493,1476,1454,1424,1394,1372,1344,1319,1293,1274,1254,1158,1125,1108,988,720,725,720,704,669,701,692,654,657,667,661,661,664,667,662,660,665,667,662,662,666,670,667,666,669,669,664,664,666,668,667,669,671,668,285,286,273,288,288,353,520,561,626,647,698,685,642,668,626,649,621,614,616,580,606,583,582,549,543,536,511,501,491,490,432,388,412,298,294,276,290,277,239,239,239,239,239,239,239,239,239,239,239,239,239,239,239,239,239,239,239,239,239,239,239,239,239,239,239,456,459,458,459,462,652,806,917,1051,1059,1062,1055,1043,1030,1005,992,986,966,960,940,934,922,907,894,829,815,801,787,772,757,677,523,586,477,467,464,463,465,422,420,421,420,426,433,428,434,427,434,433,429,433,429,432,430,434,431,433,429,429,428,429,429,429,429,429,452,453,454,455,470,721,852,952,1023,1105,1123,1112,1096,1070,1059,1033,1022,998,980,994,950,926,913,896,877,854,841,824,800,787,742,720,485,473,463,460,460,462,450,440,442,444,449,450,452,478,456,446,475,460,464,453,457,472,458,456,457,461,467,473,482,477,480,471,467,844,834,837,848,850,1282,1718,1863,1988,2053,1983,1983,1971,1957,1909,1843,1820,1791,1770,1752,1725,1684,1617,1591,1618,1515,1430,1364,1223,1204,1042,887,869,868,863,839,842,808,796,792,798,805,808,810,805,815,811,807,817,811,810,808,810,812,807,810,813,816,810,812,810,813,808,809,804,250,251,252,253,253,392,441,490,552,600,615,605,595,586,577,567,558,549,539,530,520,510,501,492,482,472,463,453,445,435,426,416,406,397,387,254,377,377,227,224,224,230,228,227,225,228,225,227,227,228,225,227,225,223,224,227,227,228,225,224,225,227,226,225,224,501,505,506,507,524,609,956,1068,1150,1231,1239,1230,1216,1186,1176,1140,1134,1107,1088,1062,1041,1022,1010,995,970,943,933,910,889,792,634,636,605,527,512,509,510,504,482,493,489,495,498,500,500,504,496,498,502,495,498,500,500,502,504,503,502,503,498,492,493,496,502,505,490,479,480,483,484,489,711,915,1017,1126,1193,1167,1165,1145,1159,1108,1088,1070,1050,1033,1013,994,975,945,933,980,899,883,866,846,826,804,630,617,553,490,487,488,473,436,436,438,435,442,447,442,464,447,444,462,445,446,444,446,448,445,450,449,452,447,448,446,447,459,460,455,456,463,460,462,466,672,873,971,1076,1145,1119,1118,1098,1113,1062,1044,1025,1007,989,971,952,934,905,892,940,861,845,829,809,786,769,562,551,519,468,465,466,449,413,413,415,417,422,426,425,442,427,421,439,426,426,425,429,428,423,425,429,433,426,428,428,428,424,425,420,518,520,534,524,532,832,935,1038,1140,1201,1203,1185,1167,1148,1130,1111,1066,1048,1030,1012,1020,976,982,940,945,912,908,890,850,861,822,753,519,507,542,538,539,541,489,485,490,524,502,545,527,487,495,502,495,497,492,493,502,524,504,496,496,492,490,493,493,493,494,500,487,683,685,676,686,708,961,1383,1512,1652,1685,1641,1641,1614,1603,1562,1536,1483,1458,1456,1429,1428,1377,1358,1284,1342,1271,1244,1205,1028,943,839,793,740,705,703,706,692,661,651,645,651,658,661,663,666,668,664,660,670,664,663,661,663,665,660,663,666,669,663,665,663,666,661,662,657,0,0,0,0,0,0,0,0,0,0,0,0,0,0,0,0,0,0,0,0,0,0,0,0,0,0,0,0,0,0,0,0,0,0,0,0,0,0,0,0,0,0,0,0,0,0,0,0,0,0,0,0,0,0,0,0,0,0,0,0,0,0,0,0,0,1303,1313,1319,1397,2056,2659,3059,3212,3264,3285,3261,3208,3171,3083,3046,2964,2912,2854,2802,2780,2678,2629,2417,2152,2032,1770,1711,1691,1527,1465,1412,1391,1389,1344,1328,1317,1322,1340,1320,1324,1326,1335,1337,1345,1357,1370,1366,1349,1345,1337,1360,1356,1366,1369,1365,1365,1368,1369,1362,1360,1360,1347,1341,1347,1334,1065,1065,1046,1080,1118,1801,2278,2410,2530,2557,2502,2495,2432,2407,2351,2318,2278,2239,2199,2158,2152,2078,2065,1965,2000,1915,1724,1660,1400,1387,1187,1120,1118,1068,1070,1081,1065,1037,1022,1021,1027,1034,1037,1039,1038,1044,1039,1035,1046,1040,1039,1037,1039,1041,1036,1039,1042,1045,1039,1041,1038,1042,1036,1037,1032,536,518,544,534,538,713,1000,1097,1225,1303,1305,1263,1287,1215,1243,1183,1160,1134,1113,1125,1104,1053,1064,1055,1015,1000,956,959,906,892,734,734,552,620,540,537,538,523,501,513,509,515,518,520,520,524,516,518,522,515,518,520,520,523,524,522,522,523,517,511,513,516,522,525,510,995,1016,1021,1043,1360,1817,2303,2510,2526,2638,2595,2573,2482,2501,2403,2323,2262,2313,2240,2145,2127,2108,2080,1978,2007,1878,1851,1753,1490,1130,1124,1132,1072,1058,1038,1032,1040,1043,1028,1032,1032,1052,1054,1046,1049,1048,1054,1068,1050,1053,1053,1068,1069,1074,1073,1066,1061,1060,1065,1063,1057,1056,1069,1061,1059,903,906,902,917,977,1588,1841,2015,2118,2161,2158,2124,2080,2061,2016,2008,1956,1918,1886,1844,1844,1779,1752,1711,1623,1661,1519,1316,1340,1187,1004,981,956,938,919,917,946,921,910,910,919,916,916,925,922,924,932,936,924,927,926,928,932,932,929,936,940,930,926,931,934,962,935,932,927,156,157,157,158,159,246,278,309,342,373,390,384,378,372,366,360,354,348,342,334,328,322,316,310,304,298,292,286,279,273,267,261,255,249,243,159,240,240,148,154,152,154,156,156,153,156,149,158,150,151,153,155,201,204,210,155,153,150,157,155,153,154,150,156,150,1085,1089,1110,1129,1515,2013,2519,2719,2731,2839,2792,2767,2672,2692,2588,2528,2442,2491,2426,2368,2295,2272,2242,2142,2172,2061,1996,1711,1445,1212,1216,1239,1144,1152,1135,1118,1115,1137,1117,1102,1103,1138,1123,1130,1132,1130,1131,1152,1131,1134,1142,1143,1156,1164,1154,1144,1156,1143,1144,1144,1149,1146,1148,1148,1146,1012,1016,1014,1025,1050,1630,2105,2254,2375,2441,2393,2367,2304,2300,2236,2217,2168,2135,2103,2070,2034,2015,1976,1911,1918,1831,1709,1492,1283,1257,1193,1086,1060,1030,1047,1045,1034,995,985,979,985,991,995,995,1000,1002,998,994,1004,995,997,995,997,999,994,997,1000,1003,997,999,997,1000,995,996,991,347,348,348,350,395,378,642,716,789,862,936,844,830,878,804,790,776,763,750,735,722,709,696,746,729,655,642,627,614,601,586,382,373,364,356,352,352,354,325,324,325,326,330,335,333,354,336,332,352,335,334,333,335,337,332,335,338,340,334,335,335,337,334,335,330,207,207,208,209,209,219,361,402,444,484,512,505,496,490,481,472,465,457,448,441,433,426,417,410,402,394,385,378,369,361,354,297,289,220,220,271,271,272,187,192,189,192,217,212,202,220,209,217,223,202,273,195,197,212,203,195,218,199,193,217,208,221,219,213,202,938,949,943,952,970,1522,1987,2146,2248,2307,2245,2235,2202,2208,2130,2093,2056,2025,1984,1972,1944,1882,1848,1792,1803,1742,1571,1453,1338,1269,1040,1014,989,958,979,963,946,900,890,884,890,897,900,902,905,907,903,899,909,903,902,900,902,904,899,902,905,908,902,904,902,905,900,901,896,452,453,454,455,470,721,852,952,1023,1105,1123,1112,1096,1070,1059,1033,1022,998,980,994,950,926,913,896,877,854,841,824,800,787,742,720,485,473,463,460,460,462,450,440,442,444,449,450,452,478,456,446,475,460,464,453,457,472,458,456,457,461,467,473,482,477,480,471,467,909,932,896,920,1060,1728,2012,2216,2335,2374,2355,2420,2270,2227,2223,2180,2179,2132,2088,2010,1927,1885,1842,1867,1756,1716,1670,1628,1585,1355,1326,971,961,921,906,904,952,916,950,948,947,958,946,966,946,962,978,970,963,958,972,963,973,970,970,966,962,972,959,965,981,968,966,968,968,794,791,799,803,857,1434,1622,1798,1895,1936,1915,1897,1866,1835,1794,1774,1752,1712,1683,1652,1630,1594,1563,1531,1500,1470,1438,1399,1366,1308,1013,926,841,819,831,821,807,787,800,788,807,794,835,838,800,803,803,831,829,819,827,837,838,819,812,815,796,821,798,820,813,810,802,809,808,1335,1391,1352,1436,1746,2814,3088,3260,3344,3380,3281,3295,3228,3160,3106,3080,3037,2986,2918,2838,2758,2705,2646,2522,2247,2071,1773,1690,1547,1495,1483,1428,1391,1372,1361,1350,1379,1344,1379,1377,1376,1390,1379,1400,1379,1395,1409,1403,1399,1395,1405,1400,1410,1406,1410,1406,1401,1412,1401,1406,1423,1410,1408,1407,1407,960,993,948,984,1063,1850,2141,2331,2448,2491,2475,2538,2376,2331,2340,2287,2284,2229,2192,2103,2030,1980,1935,1964,1873,1801,1758,1588,1553,1292,1301,1023,1019,985,958,969,992,956,975,1001,980,984,998,992,991,1000,1001,1024,1011,994,1000,1007,1016,1011,1020,1018,1010,1018,1020,1025,1038,1029,1027,1026,1024,1130,1122,1125,1157,1256,2087,2386,2519,2643,2663,2576,2630,2568,2530,2478,2462,2404,2368,2334,2268,2226,2184,2151,2006,1947,1801,1701,1441,1399,1246,1244,1192,1145,1160,1129,1120,1146,1118,1137,1131,1147,1137,1156,1171,1143,1134,1144,1171,1168,1166,1164,1170,1179,1171,1159,1164,1143,1164,1143,1164,1160,1154,1145,1152,1151,1153,1168,1159,1201,1248,2201,2504,2633,2671,2750,2641,2674,2632,2602,2577,2560,2499,2408,2428,2345,2315,2235,2203,2090,2030,1883,1698,1338,1338,1284,1292,1239,1169,1183,1171,1168,1188,1151,1169,1161,1179,1165,1187,1208,1172,1163,1184,1201,1197,1197,1205,1203,1215,1212,1190,1193,1173,1199,1175,1199,1194,1187,1179,1186,1185,1378,1393,1407,1443,1998,2851,3196,3348,3421,3402,3364,3331,3271,3212,3182,3110,3060,2995,2937,2866,2778,2418,2058,2382,2081,1721,1705,1686,1597,1507,1526,1520,1432,1412,1406,1416,1404,1416,1401,1416,1419,1437,1414,1426,1407,1428,1414,1405,1416,1407,1412,1424,1423,1423,1422,1429,1428,1437,1438,1424,1418,1468,1410,1419,1415,916,937,922,952,1025,1634,1857,2108,2200,2326,2221,2186,2197,2114,2125,2062,2009,1958,1956,1902,1866,1831,1780,1791,1735,1688,1653,1573,1213,1144,1007,992,975,942,946,930,925,910,924,922,932,942,933,945,929,933,930,952,950,942,938,944,967,953,951,951,938,947,950,947,949,953,941,974,948,1368,1433,1423,1549,2020,2919,3184,3407,3485,3469,3438,3447,3312,3309,3195,3144,3126,3062,2998,2906,2842,2748,2479,2166,1947,1668,1768,1655,1582,1539,1512,1523,1437,1421,1404,1383,1427,1406,1447,1457,1448,1451,1439,1463,1454,1467,1475,1493,1459,1489,1504,1501,1486,1508,1508,1467,1467,1470,1483,1503,1489,1506,1501,1501,1482,0,0,0,0,0,0,0,0,0,0,0,0,0,0,0,0,0,0,0,0,0,0,0,0,0,0,0,0,0,0,0,0,0,0,0,0,0,0,0,0,0,0,0,0,0,0,0,0,0,0,0,0,0,0,0,0,0,0,0,0,0,0,0,0,0,690,692,694,697,725,1169,1315,1507,1609,1704,1654,1629,1603,1578,1552,1527,1502,1477,1450,1465,1400,1375,1350,1324,1298,1273,1248,1252,1197,1172,1064,1003,890,713,703,700,720,704,709,712,716,727,726,727,722,727,717,725,721,715,719,731,729,729,727,727,724,719,724,725,716,733,720,727,724,930,970,932,962,1115,1809,2098,2325,2442,2456,2436,2499,2348,2304,2299,2236,2252,2205,2158,2079,1995,1970,1908,1934,1820,1796,1712,1640,1567,1339,1141,1018,988,957,943,941,990,952,988,988,982,989,982,1000,989,995,1002,1020,996,1007,1016,1012,1010,1031,1037,1004,997,1005,1021,1027,1016,1009,1014,1036,1005,588,589,592,593,600,991,1123,1287,1393,1456,1410,1420,1398,1375,1352,1329,1318,1284,1260,1237,1214,1191,1172,1146,1123,1100,1087,1084,1030,1017,985,883,704,746,600,596,600,600,588,592,598,617,596,603,590,597,593,585,594,592,586,607,597,598,598,610,605,609,620,605,605,623,593,604,600,1354,1380,1440,1608,1907,3013,3360,3527,3577,3556,3520,3483,3458,3390,3312,3268,3220,3171,3100,3039,2971,2925,2680,2716,2460,2100,1876,1744,1637,1572,1526,1456,1433,1396,1392,1402,1417,1436,1508,1514,1516,1543,1521,1537,1525,1533,1531,1518,1532,1530,1521,1542,1521,1528,1533,1540,1532,1539,1548,1534,1533,1570,1512,1521,1517,1429,1480,1479,1612,1799,3038,3308,3526,3597,3605,3546,3510,3428,3401,3306,3247,3237,3158,3088,3011,2936,2812,2514,2154,1794,1773,1762,1756,1628,1600,1568,1545,1507,1464,1449,1460,1471,1464,1454,1460,1472,1487,1466,1476,1462,1469,1463,1457,1467,1465,1459,1480,1465,1473,1471,1484,1479,1486,1491,1477,1480,1521,1463,1472,1468,630,619,604,636,637,779,1150,1276,1416,1514,1466,1474,1466,1398,1374,1380,1388,1305,1281,1258,1236,1245,1247,1217,1206,1172,1096,1074,935,919,924,825,697,624,627,609,611,612,615,613,618,630,623,632,624,615,629,627,630,627,626,627,625,627,627,630,624,628,621,627,620,629,625,632,615,794,787,816,808,870,1412,1567,1737,1831,1844,1909,1833,1790,1794,1755,1740,1713,1677,1740,1651,1614,1587,1600,1520,1518,1494,1434,1402,1372,1360,1107,854,849,836,803,803,835,807,831,832,832,838,824,824,844,851,830,844,842,840,850,850,853,844,853,870,850,858,872,854,854,842,827,847,824,1212,1235,1219,1258,1365,2421,2725,2846,2938,2949,2877,2913,2873,2829,2767,2747,2684,2586,2600,2516,2489,2438,2365,2253,2002,1959,1698,1541,1527,1345,1360,1289,1261,1232,1212,1179,1208,1172,1207,1205,1205,1217,1206,1227,1207,1223,1240,1232,1225,1221,1234,1226,1236,1233,1236,1232,1227,1237,1225,1232,1249,1236,1234,1233,1233,1209,1280,1255,1337,1697,2559,2821,3054,3145,3139,3103,3117,2998,2990,2895,2835,2822,2763,2704,2618,2559,2505,2490,2438,2233,2027,1952,1866,1649,1382,1366,1345,1284,1274,1249,1236,1279,1258,1299,1308,1299,1301,1289,1313,1303,1316,1332,1341,1314,1336,1358,1353,1332,1360,1360,1325,1311,1314,1327,1350,1338,1352,1348,1348,1329,751,740,756,759,785,1312,1485,1696,1782,1837,1771,1801,1760,1743,1669,1674,1653,1627,1597,1568,1548,1513,1480,1452,1413,1394,1364,1300,1298,1191,1004,943,772,776,769,763,740,744,739,741,741,739,745,743,752,750,754,748,742,741,748,745,753,745,753,802,750,794,785,744,800,742,746,749,739,909,932,896,920,1060,1728,2012,2216,2335,2374,2355,2420,2270,2227,2223,2180,2179,2132,2088,2010,1927,1885,1842,1867,1756,1716,1670,1628,1585,1355,1326,971,961,921,906,904,952,916,950,948,947,958,946,966,946,962,978,970,963,958,972,963,973,970,970,966,962,972,959,965,981,968,966,968,968,918,928,933,926,1074,1535,1910,2048,2140,2172,2165,2135,2103,2071,2039,2017,1986,1959,1923,1896,1862,1895,1749,1717,1690,1655,1622,1599,1332,1190,1008,1048,983,944,953,929,932,891,885,888,885,896,916,912,917,919,916,923,912,921,922,910,912,929,919,915,921,920,906,926,922,938,918,919,918,506,508,509,511,520,847,972,1078,1160,1239,1246,1227,1179,1161,1134,1144,1107,1089,1071,1064,1045,1026,1006,1009,969,968,916,898,880,783,767,775,677,651,523,513,515,516,517,515,517,517,524,528,524,529,524,585,528,521,528,524,523,594,528,527,519,588,518,589,522,523,519,527,579,1034,1045,1050,1062,1176,1960,2250,2374,2462,2481,2498,2432,2399,2371,2313,2268,2241,2189,2163,2118,2084,2148,2001,1964,1925,1803,1767,1693,1449,1279,1129,1099,1075,1074,1060,1048,1024,1015,1013,1018,1015,1021,1033,1025,1032,1036,1032,1035,1040,1041,1046,1037,1038,1050,1049,1039,1052,1049,1036,1048,1051,1071,1058,1060,1045,880,882,886,889,967,1403,1808,1989,2079,2115,2115,2077,2047,2002,1974,1930,1908,1875,1845,1810,1775,1806,1711,1683,1644,1614,1578,1535,1338,1301,1125,1021,924,911,894,893,896,849,840,853,857,850,869,865,870,873,866,875,865,872,875,864,868,881,874,866,877,877,860,880,876,893,874,875,872,686,698,701,695,732,1204,1407,1537,1638,1681,1701,1652,1624,1598,1572,1544,1518,1491,1465,1437,1411,1491,1357,1330,1304,1278,1250,1243,1197,1171,964,960,727,733,750,696,698,690,689,689,687,694,710,707,717,718,706,711,721,707,726,704,708,727,712,705,726,718,704,716,716,712,726,729,703,733,744,748,746,810,1308,1525,1662,1755,1800,1815,1766,1741,1743,1681,1652,1626,1594,1562,1537,1506,1585,1450,1419,1390,1362,1335,1324,1278,1164,1021,1000,775,771,759,744,745,732,732,736,736,739,746,738,745,748,745,748,751,752,753,756,753,758,761,757,762,760,754,757,763,793,769,775,760,1136,1128,1143,1160,1356,2056,2497,2713,2825,2885,2867,2817,2768,2707,2659,2609,2565,2513,2440,2424,2342,2325,2274,2224,2144,2109,1873,1729,1553,1276,1296,1211,1182,1183,1156,1154,1183,1166,1116,1121,1128,1126,1129,1135,1121,1121,1121,1121,1121,1121,1121,1121,1121,1121,1121,1121,1121,1121,1121,1121,1121,1121,1121,1121,1121,483,484,486,488,498,848,930,1038,1141,1192,1198,1179,1160,1141,1122,1123,1083,1064,1045,1026,1006,1069,968,976,930,910,891,872,853,834,816,793,533,504,494,497,492,469,465,467,465,470,528,499,501,504,482,500,498,500,500,478,482,501,488,482,504,492,478,502,493,538,500,504,489,1208,1212,1224,1248,1594,2408,2641,2794,2877,2905,2880,2830,2786,2745,2696,2650,2604,2558,2511,2462,2416,2438,2321,2284,2083,1778,1578,1397,1368,1354,1308,1329,1274,1237,1240,1227,1221,1208,1205,1202,1212,1218,1216,1236,1226,1231,1226,1226,1227,1224,1227,1224,1227,1229,1229,1230,1222,1231,1225,1227,1234,1238,1236,1233,1232,552,553,555,556,560,816,1036,1155,1276,1353,1363,1340,1318,1297,1275,1254,1232,1210,1188,1166,1144,1123,1101,1080,1058,1035,1014,953,869,849,829,706,690,574,604,560,561,563,514,490,493,501,507,510,508,508,508,508,508,508,508,508,508,508,508,508,508,508,508,508,508,508,508,508,508,0,0,0,0,0,0,0,0,0,0,0,0,0,0,0,0,0,0,0,0,0,0,0,0,0,0,0,0,0,0,0,0,0,0,0,0,0,0,0,0,0,0,0,0,0,0,0,0,0,0,0,0,0,0,0,0,0,0,0,0,0,0,0,0,0,894,901,903,915,963,1462,1782,1965,2092,2174,2175,2136,2110,2063,2034,1989,1967,1931,1896,1860,1829,1790,1762,1720,1687,1596,1620,1530,1387,1330,1000,994,944,924,911,908,872,868,859,863,864,870,861,867,869,881,874,876,873,869,880,873,881,883,882,883,888,881,879,882,885,900,883,882,881,337,338,339,340,341,462,607,676,747,815,840,823,810,796,783,770,757,744,730,723,704,694,678,664,651,638,625,612,598,555,497,485,474,464,346,342,343,344,303,306,305,310,309,311,304,304,304,304,304,304,304,304,304,304,304,304,304,304,304,304,304,304,304,304,304,1223,1239,1230,1266,1500,2150,2698,2876,3019,3051,3023,2984,2920,2861,2849,2762,2709,2656,2632,2568,2504,2485,2414,2371,2306,2167,1891,1768,1408,1374,1346,1307,1283,1280,1242,1248,1264,1274,1223,1226,1236,1227,1235,1246,1242,1242,1242,1242,1242,1242,1242,1242,1242,1242,1242,1242,1242,1242,1242,1242,1242,1242,1242,1242,1242,1141,1144,1156,1170,1367,2242,2476,2636,2721,2751,2730,2681,2640,2601,2555,2512,2468,2425,2380,2334,2290,2313,2200,2165,2120,1841,1845,1643,1296,1284,1240,1260,1206,1169,1172,1159,1154,1141,1140,1135,1144,1151,1151,1169,1159,1164,1159,1159,1160,1157,1160,1157,1160,1162,1162,1163,1155,1164,1158,1160,1167,1173,1169,1166,1165,463,469,465,487,474,603,876,949,1039,1122,1138,1117,1099,1081,1063,1053,1038,1010,999,982,956,942,921,945,894,874,856,870,852,759,663,654,496,484,472,469,471,492,407,411,412,419,420,424,413,413,413,413,413,413,413,413,413,413,413,413,413,413,413,413,413,413,413,413,413,398,384,466,398,469,657,730,811,891,906,954,939,925,910,896,882,866,818,837,823,921,794,780,764,750,735,721,706,692,676,706,648,512,499,503,400,498,386,392,392,390,464,392,394,392,396,392,394,393,392,396,395,398,396,395,396,398,395,398,466,395,399,399,399,399,828,839,843,845,907,1500,1740,1876,1975,2047,2033,1994,1945,1923,1873,1846,1819,1785,1749,1741,1687,1758,1617,1590,1558,1527,1491,1483,1377,1017,911,888,867,868,851,855,842,832,832,835,837,840,848,841,846,850,848,849,854,854,858,854,857,862,865,862,871,865,847,865,864,887,871,872,857,1146,1143,1150,1208,1400,2243,2485,2651,2738,2750,2711,2692,2600,2583,2561,2512,2481,2416,2396,2351,2258,2355,2216,2136,2130,2005,1672,1452,1275,1467,1256,1227,1192,1192,1149,1177,1130,1122,1122,1134,1125,1131,1144,1139,1142,1146,1143,1146,1149,1149,1156,1148,1149,1159,1159,1150,1160,1157,1144,1156,1159,1183,1170,1172,1157,493,494,496,497,542,736,918,1057,1123,1172,1207,1150,1142,1153,1105,1083,1074,1056,1039,1011,994,978,960,942,925,908,907,873,855,789,746,729,626,550,503,500,500,486,480,483,490,497,493,495,489,493,488,495,493,490,494,498,499,488,498,499,500,500,493,496,499,495,495,495,494,918,928,933,926,1074,1535,1910,2048,2140,2172,2165,2135,2103,2071,2039,2017,1986,1959,1923,1896,1862,1895,1749,1717,1690,1655,1622,1599,1332,1190,1008,1048,983,944,953,929,932,891,885,888,885,896,916,912,917,919,916,923,912,921,922,910,912,929,919,915,921,920,906,926,922,938,918,919,918,215,216,208,208,208,256,379,423,467,514,531,523,514,505,484,488,480,471,452,454,446,438,429,421,412,404,394,386,378,369,361,276,269,263,256,209,210,252,208,189,186,186,199,197,198,194,192,201,204,200,200,202,200,203,204,196,201,204,203,203,203,204,203,205,205,412,413,415,417,450,490,760,844,929,1034,1069,1053,998,992,967,954,946,950,909,898,908,854,840,810,814,792,800,756,730,734,700,670,662,587,449,419,489,476,395,401,401,426,406,405,405,433,404,402,405,404,404,407,405,404,401,404,405,402,400,406,401,401,401,401,401,426,427,429,429,460,596,801,890,979,1039,1046,1044,1030,997,980,963,956,931,915,910,890,865,849,832,816,800,783,766,750,734,718,635,600,510,436,461,433,434,417,408,414,415,410,435,415,432,427,416,427,418,422,422,419,429,419,419,421,427,420,420,422,426,421,428,423,151,152,152,152,152,157,267,297,328,360,376,370,364,358,352,346,342,336,330,324,318,312,306,300,294,288,282,276,270,264,258,168,164,160,156,153,153,154,160,142,141,142,152,151,151,147,145,155,168,172,172,175,163,166,166,148,152,172,170,174,173,172,172,172,165,246,246,248,248,249,331,440,491,541,592,618,608,595,590,574,570,555,546,536,526,518,510,498,488,478,468,457,448,439,428,418,410,399,333,324,250,251,250,224,220,221,224,224,226,224,225,224,225,225,225,223,225,225,223,224,226,226,226,225,222,224,224,224,224,224,224,224,225,226,227,239,400,446,493,540,568,559,546,540,526,522,508,500,490,482,474,469,454,446,436,428,418,410,400,392,382,374,364,237,231,228,228,228,200,199,202,209,204,202,205,208,205,205,207,207,221,233,250,252,211,207,206,215,208,204,207,207,207,207,207,741,744,740,737,760,1309,1510,1633,1767,1787,1808,1768,1746,1696,1666,1662,1619,1590,1557,1562,1533,1474,1445,1417,1386,1360,1329,1318,1240,977,954,930,784,765,755,752,754,743,723,718,721,731,734,751,736,759,753,732,756,733,736,741,736,746,759,761,744,745,737,728,734,736,756,745,735,430,432,434,436,470,599,783,871,961,1017,1041,1031,1017,1010,993,976,961,945,931,915,896,882,865,847,830,814,798,782,764,740,678,598,506,452,441,438,444,440,385,384,385,388,389,390,391,391,391,393,393,394,395,401,399,396,395,398,399,398,398,401,400,400,400,400,400,653,655,656,652,687,891,1295,1440,1525,1594,1595,1567,1556,1523,1482,1468,1454,1403,1394,1357,1330,1318,1277,1253,1230,1203,1178,1163,1038,915,899,878,687,695,652,648,664,644,638,629,637,635,636,659,645,664,658,649,666,645,646,648,643,655,650,645,649,649,641,646,647,653,644,658,648,935,938,940,953,1066,1702,2057,2286,2423,2470,2448,2403,2359,2314,2270,2226,2176,2138,2094,2044,2000,1960,1916,1922,1827,1792,1746,1550,1447,1376,1040,1039,982,960,952,953,945,949,956,949,952,957,996,993,971,995,970,977,976,969,977,979,988,1006,1001,1010,1000,996,999,995,997,990,1044,975,968,733,737,737,740,763,1073,1426,1552,1682,1744,1754,1726,1698,1681,1643,1618,1593,1566,1538,1512,1489,1458,1439,1412,1376,1350,1322,1296,1273,1067,1006,792,774,756,746,744,746,732,705,697,703,707,713,710,712,704,717,724,711,708,723,723,749,716,709,728,712,728,706,708,726,726,726,726,726,0,0,0,0,0,0,0,0,0,0,0,0,0,0,0,0,0,0,0,0,0,0,0,0,0,0,0,0,0,0,0,0,0,0,0,0,0,0,0,0,0,0,0,0,0,0,0,0,0,0,0,0,0,0,0,0,0,0,0,0,0,0,0,0,0,955,958,961,967,1039,1590,1936,2157,2294,2383,2368,2325,2289,2254,2225,2179,2142,2101,2070,2028,1999,1952,1915,1878,1844,1801,1761,1623,1397,1183,1100,1028,1007,1007,972,966,970,982,917,922,936,930,944,943,959,946,937,964,934,936,933,942,949,949,946,948,939,937,933,948,949,949,949,949,949,990,997,994,1018,1039,1602,2033,2217,2345,2414,2346,2338,2294,2252,2229,2172,2151,2118,2124,2041,2018,1951,1944,1854,1808,1823,1582,1421,1345,1135,1220,1072,1050,1033,1020,1027,1029,1019,975,966,971,972,966,999,971,1002,998,973,997,974,977,977,974,982,974,974,977,982,975,975,976,979,976,983,978,585,587,588,591,593,865,1143,1274,1359,1434,1438,1411,1404,1371,1332,1320,1309,1261,1245,1220,1196,1186,1149,1126,1106,1082,1059,1048,1004,984,867,790,697,608,584,580,590,577,571,562,570,568,569,592,578,598,596,584,590,578,579,581,576,592,582,578,582,582,574,579,580,586,577,598,581,1027,1029,1052,1044,1139,1774,2211,2401,2541,2614,2598,2566,2499,2484,2433,2393,2338,2318,2286,2215,2177,2137,2084,2047,2007,1963,1931,1719,1503,1267,1218,1124,1084,1083,1062,1046,1051,1064,1002,1008,1017,1017,1019,1024,1010,1020,1028,1036,1031,1028,1032,1042,1039,1038,1038,1036,1033,1032,1033,1052,1041,1041,1041,1041,1041,601,603,604,608,677,807,1162,1342,1401,1487,1489,1468,1460,1433,1395,1408,1382,1333,1310,1312,1264,1236,1225,1201,1173,1154,1138,1092,1069,954,908,824,697,644,650,641,657,635,589,594,598,614,611,611,599,607,599,600,604,605,604,607,608,614,608,610,606,606,602,617,609,609,609,609,609,278,279,294,295,301,432,508,564,622,678,689,694,682,658,646,635,634,614,603,602,591,570,559,549,537,527,516,506,487,476,465,454,444,433,286,303,306,307,246,237,242,243,238,256,242,259,255,244,256,245,248,248,245,253,245,245,248,253,246,246,247,250,247,254,249,542,544,546,549,549,775,1045,1152,1262,1329,1328,1325,1297,1221,1251,1229,1217,1183,1166,1154,1132,1102,1080,1059,1044,1017,995,972,952,937,910,744,557,574,563,530,522,563,523,515,523,531,520,542,526,549,540,526,543,529,531,530,529,540,530,528,531,538,528,528,530,534,529,540,535,534,546,537,540,580,626,981,1091,1202,1322,1329,1308,1258,1246,1232,1197,1192,1189,1151,1130,1140,1110,1056,1035,1050,1033,1014,968,940,964,907,783,625,573,572,542,561,552,509,509,511,525,521,515,520,531,522,519,537,530,542,541,572,568,515,515,528,522,518,521,520,520,520,520,520,215,216,208,208,208,256,379,423,467,514,531,523,514,505,484,488,480,471,452,454,446,438,429,421,412,404,394,386,378,369,361,276,269,263,256,209,210,252,208,189,186,186,199,197,198,194,192,201,204,200,200,202,200,203,204,196,201,204,203,203,203,204,203,205,205,1088,1087,1096,1111,1250,1782,2350,2515,2660,2705,2703,2652,2640,2567,2532,2479,2446,2389,2348,2303,2263,2210,2133,2087,2049,2002,1849,1654,1467,1332,1257,1172,1150,1117,1108,1104,1079,1077,1077,1081,1092,1086,1086,1098,1101,1091,1101,1102,1088,1095,1087,1116,1104,1096,1102,1100,1092,1113,1093,1096,1100,1107,1101,1092,1089,739,747,751,766,805,1181,1419,1576,1713,1800,1783,1748,1754,1703,1681,1656,1628,1594,1568,1530,1509,1476,1467,1421,1395,1372,1341,1318,1203,1013,824,953,798,771,760,757,760,776,733,733,736,755,730,756,742,754,747,751,747,745,750,747,749,800,760,753,751,755,753,752,752,757,757,757,756,959,956,964,980,1010,1798,2120,2308,2388,2450,2435,2400,2348,2340,2265,2224,2226,2129,2095,2044,2004,1960,1952,1904,1832,1852,1748,1576,1351,1252,1189,1061,1051,993,979,981,976,958,954,952,952,963,963,958,957,982,952,960,957,956,958,979,966,960,987,964,966,965,981,985,960,962,961,962,956,1060,1069,1067,1116,1248,1642,2202,2374,2514,2574,2565,2527,2509,2445,2404,2361,2320,2299,2237,2194,2157,2115,2080,2036,1995,1953,1745,1733,1401,1287,1216,1140,1118,1114,1092,1080,1037,1031,1040,1046,1044,1040,1039,1051,1054,1045,1052,1053,1041,1048,1041,1067,1060,1051,1053,1056,1049,1067,1047,1050,1052,1062,1057,1048,1045,861,879,866,876,940,1418,1894,2065,2184,2214,2198,2174,2131,2092,2062,2023,1977,1923,1904,1862,1825,1818,1748,1708,1670,1630,1594,1554,1309,1268,1034,1021,929,908,876,874,895,872,874,877,886,878,873,886,876,879,901,899,876,876,875,876,921,874,884,893,880,914,880,880,898,912,917,886,883,907,896,913,920,1004,1522,1985,2182,2289,2329,2312,2271,2232,2194,2166,2112,2072,2024,1990,1949,1897,1868,1838,1787,1740,1683,1649,1515,1296,1233,1001,974,977,920,923,921,899,892,885,884,886,891,893,892,889,895,891,897,897,900,902,913,910,905,929,910,913,909,915,914,914,916,913,916,910,931,935,938,1017,986,1776,2064,2241,2379,2409,2401,2325,2284,2242,2228,2186,2207,2191,2058,2032,1987,1928,1951,1850,1797,1777,1724,1661,1448,1221,1027,1011,1012,965,937,947,952,956,963,954,972,969,964,965,972,976,983,988,965,981,968,1006,976,988,988,1006,981,980,981,987,995,977,976,972,971,673,667,677,678,706,1111,1400,1568,1696,1774,1765,1737,1708,1677,1650,1619,1582,1536,1519,1491,1459,1427,1394,1362,1330,1298,1266,1234,1192,1170,951,858,800,699,684,676,687,685,673,675,678,671,682,687,678,685,687,701,685,685,678,684,709,694,682,706,691,712,684,681,682,707,705,687,684,1103,1089,1094,1134,1471,2137,2494,2617,2736,2789,2767,2720,2672,2620,2544,2499,2469,2393,2379,2323,2277,2195,2156,2129,2072,1970,1803,1750,1600,1361,1346,1197,1169,1135,1115,1099,1097,1079,1075,1073,1073,1084,1084,1079,1078,1103,1073,1081,1078,1077,1079,1100,1087,1081,1108,1085,1087,1086,1102,1106,1081,1083,1082,1083,1077,610,612,613,616,667,840,1135,1318,1448,1496,1500,1476,1449,1425,1401,1377,1354,1330,1306,1282,1258,1234,1211,1187,1164,1140,1116,1010,989,855,683,774,702,632,632,619,620,605,581,588,580,585,586,593,594,591,591,600,594,588,593,596,594,594,598,598,596,598,594,595,594,595,590,591,588,419,421,421,424,426,520,745,824,937,982,1003,987,973,957,943,927,913,897,883,867,853,837,823,807,793,777,763,747,733,717,703,532,520,439,429,426,427,428,403,403,412,418,406,409,410,414,414,410,413,408,409,409,408,413,413,413,412,412,412,412,414,444,429,461,443,1031,1040,1038,1114,1176,1704,2127,2306,2447,2514,2498,2464,2444,2383,2342,2302,2261,2241,2179,2140,2100,2060,2025,1984,1944,1902,1785,1770,1501,1325,1221,1110,1096,1079,1067,1052,1016,1023,997,1003,1008,1013,1017,1012,1012,1022,1009,1011,1011,1016,1017,1027,1017,1017,1022,1026,1023,1024,1019,1018,1020,1019,1019,1019,1019,0,0,0,0,0,0,0,0,0,0,0,0,0,0,0,0,0,0,0,0,0,0,0,0,0,0,0,0,0,0,0,0,0,0,0,0,0,0,0,0,0,0,0,0,0,0,0,0,0,0,0,0,0,0,0,0,0,0,0,0,0,0,0,0,0,1040,1041,1027,1068,1295,1974,2282,2438,2539,2617,2548,2515,2472,2428,2439,2334,2355,2317,2245,2162,2126,2083,2100,1995,1980,1903,1799,1685,1568,1485,1125,1108,1079,1048,1049,1041,1038,1052,1066,1064,1073,1068,1081,1083,1091,1084,1092,1091,1079,1079,1087,1102,1094,1081,1089,1100,1090,1084,1085,1093,1089,1087,1071,1074,1073,1036,1022,1043,1060,1314,1977,2329,2456,2573,2634,2616,2571,2522,2476,2401,2361,2331,2260,2246,2192,2151,2070,2033,1999,1954,1849,1771,1728,1501,1367,1277,1130,1101,1074,1047,1030,1030,1012,1008,1006,1006,1017,1017,1012,1011,1036,1006,1014,1011,1010,1012,1033,1020,1014,1041,1018,1020,1019,1035,1039,1014,1016,1015,1016,1010,168,168,168,254,254,261,294,325,357,388,408,402,396,390,384,376,370,364,358,352,346,340,334,327,321,315,309,303,297,291,284,278,272,266,260,255,256,256,160,160,158,167,158,161,160,163,160,162,161,160,162,160,162,162,161,162,164,163,163,160,162,164,162,163,164,619,628,633,645,676,945,1191,1325,1449,1511,1525,1503,1442,1440,1431,1399,1350,1326,1336,1313,1257,1272,1241,1217,1193,1142,1146,1095,1072,1076,952,707,656,657,651,644,650,648,617,609,608,605,613,617,618,620,617,623,629,632,641,624,637,647,639,640,632,635,660,641,640,633,633,633,633,904,882,884,908,1080,1667,1932,2185,2231,2276,2261,2219,2182,2146,2162,2067,2027,1987,1947,1906,1858,1825,1828,1749,1701,1671,1669,1612,1407,1369,1029,956,930,903,901,893,877,881,872,869,875,879,882,879,879,880,881,889,885,888,889,898,896,893,928,898,900,898,903,900,901,903,902,903,897,1161,1152,1156,1167,1537,2290,2600,2810,2865,2898,2817,2824,2709,2675,2713,2625,2588,2533,2487,2378,2328,2332,2312,2234,2157,1950,1831,1766,1619,1450,1287,1232,1202,1183,1169,1169,1140,1132,1128,1126,1126,1137,1137,1132,1131,1156,1126,1134,1131,1130,1132,1153,1140,1134,1161,1138,1140,1139,1155,1159,1134,1136,1135,1136,1130,722,733,737,744,791,969,1386,1538,1702,1734,1744,1707,1701,1666,1645,1617,1582,1568,1535,1499,1474,1444,1425,1391,1367,1344,1320,1292,1013,997,974,885,778,757,746,744,743,739,708,710,710,708,717,719,716,722,716,713,720,720,723,727,730,735,730,736,730,731,727,730,724,724,724,724,724,1088,1087,1096,1111,1250,1782,2350,2515,2660,2705,2703,2652,2640,2567,2532,2479,2446,2389,2348,2303,2263,2210,2133,2087,2049,2002,1849,1654,1467,1332,1257,1172,1150,1117,1108,1104,1079,1077,1077,1081,1092,1086,1086,1098,1101,1091,1101,1102,1088,1095,1087,1116,1104,1096,1102,1100,1092,1113,1093,1096,1100,1107,1101,1092,1089,1042,1042,1050,1058,1141,1948,2196,2401,2473,2492,2505,2470,2443,2392,2353,2313,2247,2213,2176,2138,2092,2047,2011,1968,1935,1896,1865,1640,1459,1420,1136,1145,1117,1100,1060,1050,1024,980,956,961,965,970,973,974,965,984,968,982,966,965,966,970,983,989,977,969,973,966,978,975,971,973,963,969,965,1107,1110,1115,1132,1196,2099,2305,2473,2595,2629,2575,2581,2536,2495,2457,2414,2373,2333,2288,2211,2209,2170,2126,2070,2005,1876,1863,1620,1260,1257,1217,1214,1184,1166,1130,1123,1043,1055,1029,1040,1048,1048,1047,1053,1044,1066,1047,1062,1064,1064,1067,1055,1063,1068,1059,1052,1054,1041,1054,1056,1050,1054,1043,1049,1045,817,819,822,823,857,1463,1629,1831,1969,1962,1968,1936,1904,1872,1888,1809,1779,1791,1758,1684,1665,1632,1603,1579,1551,1556,1538,1461,1228,1162,940,936,934,892,862,853,832,805,781,786,790,795,798,799,790,809,793,807,791,790,791,795,808,814,802,794,798,791,803,800,796,798,788,794,790,1024,1036,1044,1057,1237,1920,2186,2354,2451,2447,2491,2451,2409,2365,2341,2291,2266,2175,2164,2128,2083,2013,1976,1937,1903,1865,1834,1676,1416,1357,1117,1134,1111,1092,1056,1053,1023,970,945,953,965,970,973,967,961,983,968,982,966,965,966,970,983,989,977,969,973,966,978,975,969,973,962,968,964,823,820,828,832,872,1478,1654,1871,1958,2006,2007,1974,1946,1902,1881,1848,1816,1774,1742,1710,1677,1642,1615,1582,1552,1522,1494,1405,1133,1259,984,1064,893,880,844,842,825,782,758,763,767,772,775,776,767,786,770,784,768,767,768,772,785,791,779,771,775,768,780,777,773,775,765,771,767,800,798,807,814,899,1435,1606,1823,1910,1959,1960,1927,1900,1858,1836,1805,1773,1732,1701,1669,1637,1603,1576,1543,1514,1484,1457,1422,1180,1228,949,1030,876,857,822,819,802,759,735,740,744,749,752,753,744,763,747,761,745,744,745,749,762,768,756,748,752,745,757,754,750,752,742,748,744,560,561,564,566,567,953,1072,1189,1306,1367,1381,1358,1336,1314,1296,1274,1251,1230,1208,1185,1164,1142,1120,1098,1076,1056,1032,1010,988,966,945,923,600,585,574,569,572,568,538,537,542,545,544,547,543,542,546,550,545,548,552,552,556,564,556,555,556,557,558,616,561,560,574,611,572,932,935,938,944,976,1726,1921,2096,2226,2266,2217,2227,2189,2152,2115,2077,2041,2005,1966,1893,1896,1863,1825,1784,1750,1683,1576,1508,1171,1172,1024,1076,1008,988,953,946,896,908,882,893,901,901,900,906,897,919,900,915,918,918,924,908,916,921,912,905,907,894,907,909,903,907,896,902,898,904,907,911,914,938,1669,1873,2045,2151,2193,2193,2157,2121,2086,2059,2024,1989,1954,1918,1884,1856,1814,1779,1743,1708,1680,1639,1558,1198,1330,1167,1144,973,945,924,918,924,904,877,878,886,884,885,886,884,879,883,890,884,883,887,895,900,903,893,894,894,892,896,921,902,896,909,915,909,1460,1462,1476,1679,2225,3237,3498,3649,3673,3841,3781,3602,3537,3468,3400,3474,3271,3198,3131,3081,3001,2919,2559,2199,1839,1803,1752,1772,1686,1660,1600,1535,1512,1490,1484,1462,1454,1459,1498,1485,1487,1499,1535,1517,1529,1540,1531,1537,1550,1530,1557,1538,1563,1540,1550,1560,1566,1554,1567,1534,1558,1567,1556,1556,1552,1251,1252,1257,1339,1486,2607,2820,2983,3088,3078,3064,3042,2992,2941,2890,2843,2806,2737,2702,2629,2604,2562,2511,2442,2334,2044,1900,1735,1707,1560,1374,1324,1300,1279,1273,1273,1247,1245,1228,1239,1251,1252,1251,1248,1249,1259,1245,1258,1241,1246,1255,1269,1292,1272,1254,1248,1253,1257,1256,1252,1274,1247,1242,1242,1238,1052,1064,1072,1086,1182,1986,2255,2421,2516,2512,2555,2514,2470,2425,2398,2348,2324,2231,2220,2182,2136,2064,2028,1987,1834,1795,1707,1582,1402,1403,1146,1163,1138,1120,1084,1090,1045,989,965,973,987,992,993,987,981,1003,990,1004,988,987,988,992,1005,1011,999,991,995,988,997,995,989,993,982,988,984,936,938,940,997,1323,1941,2245,2418,2514,2676,2635,2457,2410,2364,2317,2411,2222,2175,2155,2082,2024,2030,1953,1894,1848,1852,1754,1707,1502,1459,1312,1021,983,962,956,956,975,968,1008,999,996,1009,1000,1027,1004,1008,1038,1036,1012,1026,1027,1031,1023,1024,1080,1025,1015,1023,1018,1027,1040,1081,1027,1070,1016,0,0,0,0,0,0,0,0,0,0,0,0,0,0,0,0,0,0,0,0,0,0,0,0,0,0,0,0,0,0,0,0,0,0,0,0,0,0,0,0,0,0,0,0,0,0,0,0,0,0,0,0,0,0,0,0,0,0,0,0,0,0,0,0,0,837,840,843,846,861,1524,1710,1879,1992,2036,2038,2005,1972,1939,1914,1881,1849,1815,1783,1750,1725,1686,1653,1621,1587,1561,1489,1444,1084,1365,1059,1052,900,877,856,850,856,840,809,808,814,816,816,818,814,811,817,821,817,817,823,829,832,835,825,827,827,828,829,854,833,829,842,848,841,1025,1028,1035,1094,1239,2152,2458,2626,2719,2892,2830,2652,2602,2581,2503,2595,2403,2354,2330,2307,2253,2218,2158,2054,2040,1998,1933,1872,1610,1431,1193,1110,1054,1053,1029,1062,1038,1050,1091,1093,1108,1128,1122,1090,1123,1133,1129,1099,1137,1129,1118,1120,1146,1143,1137,1093,1116,1113,1120,1121,1102,1133,1108,1119,1099,1263,1281,1277,1306,1400,2505,2713,2866,2984,3011,2964,2965,2877,2855,2806,2729,2688,2666,2624,2545,2518,2491,2453,2403,2156,2030,1846,1486,1462,1441,1362,1374,1366,1343,1293,1295,1230,1242,1216,1227,1235,1235,1234,1240,1231,1253,1234,1249,1252,1252,1258,1242,1250,1255,1246,1239,1241,1228,1241,1243,1237,1241,1230,1236,1232,784,786,789,791,828,1382,1551,1773,1862,1903,1907,1878,1850,1819,1789,1758,1728,1696,1667,1635,1604,1562,1542,1510,1482,1444,1428,1386,1218,1228,868,873,852,841,799,803,789,746,722,727,731,736,739,740,731,750,734,748,732,731,732,736,749,755,743,735,739,732,744,741,737,739,729,735,731,1028,1028,1035,1028,1094,1913,2116,2367,2424,2466,2437,2433,2392,2341,2308,2259,2232,2154,2141,2110,2077,2014,1961,1955,1918,1844,1660,1542,1182,1447,1140,1123,1116,1084,1033,1034,1036,979,955,960,964,969,972,973,964,983,967,981,965,964,965,969,982,988,976,968,972,965,977,974,970,972,962,968,964,1202,1215,1208,1271,1457,2372,2585,2738,2852,2901,2838,2841,2762,2724,2669,2643,2585,2565,2515,2434,2404,2360,2326,2275,2217,1961,1852,1595,1384,1369,1324,1286,1290,1264,1224,1211,1135,1147,1121,1132,1140,1140,1139,1145,1136,1158,1139,1154,1157,1157,1163,1147,1155,1160,1151,1144,1146,1133,1146,1148,1142,1146,1135,1141,1137,1042,1042,1050,1058,1141,1948,2196,2401,2473,2492,2505,2470,2443,2392,2353,2313,2247,2213,2176,2138,2092,2047,2011,1968,1935,1896,1865,1640,1459,1420,1136,1145,1117,1100,1060,1050,1024,980,956,961,965,970,973,974,965,984,968,982,966,965,966,970,983,989,977,969,973,966,978,975,971,973,963,969,965,556,558,560,559,577,850,1059,1190,1316,1365,1409,1346,1370,1308,1306,1285,1237,1220,1198,1171,1147,1132,1133,1106,1094,1051,1017,996,998,952,930,807,650,646,565,562,576,577,552,563,563,576,564,562,559,566,558,557,560,563,561,562,563,566,566,568,564,566,564,568,565,589,580,592,571,969,951,948,965,1068,1483,1996,2129,2256,2260,2270,2253,2195,2166,2119,2091,2064,2041,2007,1929,1900,1896,1868,1812,1751,1685,1625,1491,1383,1064,1077,1020,1024,972,958,957,938,930,909,911,911,922,926,926,930,929,921,927,928,937,925,923,924,929,927,929,932,928,925,927,923,928,920,928,916,364,364,367,368,370,495,670,746,821,885,895,880,868,854,840,826,812,798,784,770,756,742,728,714,700,685,672,658,643,629,614,513,503,490,373,370,371,372,340,345,343,353,356,354,355,358,351,355,349,352,352,349,352,364,360,350,352,351,349,354,354,350,352,368,351,606,611,612,608,649,734,1169,1312,1442,1489,1489,1466,1488,1418,1422,1390,1347,1329,1305,1269,1250,1227,1234,1203,1185,1134,1110,1086,1088,930,924,820,720,701,615,615,629,620,596,601,606,616,606,608,599,607,602,595,609,603,601,615,611,612,607,617,613,615,617,613,610,610,600,613,608,602,604,607,604,633,776,1146,1274,1396,1456,1456,1433,1411,1382,1358,1346,1317,1293,1274,1238,1221,1203,1188,1156,1123,1099,1087,1063,1051,1017,770,703,706,616,611,603,604,576,550,556,547,559,560,563,567,565,557,564,565,571,561,559,560,565,565,569,568,565,561,563,559,563,571,579,567,579,581,584,582,592,739,1102,1226,1348,1408,1409,1386,1365,1336,1312,1302,1274,1249,1230,1196,1179,1162,1148,1116,1084,1061,1050,1015,994,973,847,626,610,595,588,580,582,553,527,533,529,538,540,542,550,543,537,541,542,552,541,540,543,545,543,544,548,546,540,543,541,544,536,544,532,380,380,381,383,373,626,708,789,872,930,909,924,909,894,879,865,849,835,819,805,790,775,760,722,730,716,700,686,651,656,642,627,612,574,388,385,386,387,387,388,384,389,387,389,451,392,384,457,392,384,382,387,392,390,388,390,390,455,458,389,388,389,388,384,382,801,784,797,811,840,1182,1641,1747,1895,1938,1929,1902,1868,1819,1821,1748,1727,1720,1699,1653,1606,1596,1567,1538,1507,1477,1454,1332,1188,1187,1022,850,841,840,814,814,791,783,764,764,764,775,779,779,785,782,774,780,781,790,778,776,777,782,780,782,785,781,778,780,776,781,773,781,769,173,173,174,175,175,272,308,343,378,412,430,423,417,410,404,397,390,384,376,369,363,356,350,343,336,330,322,315,309,302,296,289,282,276,268,234,235,236,154,155,156,160,155,157,154,158,155,157,158,156,156,157,158,158,158,159,158,159,160,160,158,162,157,160,158,1407,1419,1426,1501,2171,2784,3322,3445,3519,3504,3465,3401,3385,3300,3258,3195,3125,3067,3006,2953,2890,2618,2392,2152,1792,1792,1716,1696,1652,1595,1542,1486,1466,1452,1456,1427,1437,1456,1430,1439,1441,1439,1456,1455,1471,1462,1478,1474,1466,1453,1473,1478,1481,1489,1483,1484,1485,1483,1480,1481,1479,1487,1473,1462,1459,1177,1158,1184,1214,1441,1949,2536,2646,2776,2793,2764,2752,2696,2621,2614,2567,2523,2467,2448,2373,2310,2281,2247,2215,2119,1974,1758,1660,1462,1322,1263,1224,1212,1195,1189,1185,1160,1159,1135,1140,1140,1151,1155,1155,1158,1158,1149,1155,1157,1166,1154,1152,1153,1158,1156,1158,1161,1157,1154,1156,1151,1157,1148,1156,1144,640,633,647,636,704,849,1196,1390,1473,1541,1560,1495,1557,1480,1449,1452,1374,1356,1332,1332,1305,1282,1293,1232,1237,1155,1131,1107,1083,1030,926,750,737,709,643,654,642,639,615,621,626,636,626,628,619,627,622,615,629,623,621,635,631,633,627,636,633,635,636,632,630,630,620,633,628,1081,1084,1088,1128,1557,2060,2486,2656,2712,2728,2716,2670,2622,2573,2529,2499,2452,2403,2359,2309,2250,2212,2162,2113,2061,2013,1968,1753,1480,1432,1221,1156,1144,1113,1096,1100,1112,1084,1083,1083,1087,1104,1107,1088,1116,1096,1117,1113,1101,1111,1116,1150,1164,1119,1130,1130,1120,1110,1106,1111,1119,1142,1122,1133,1105,793,796,798,806,909,1412,1590,1754,1855,1896,1898,1849,1820,1803,1774,1753,1716,1699,1658,1629,1600,1579,1615,1514,1476,1456,1428,1388,1366,1151,1118,1079,841,818,807,804,807,815,834,810,809,821,827,843,834,864,840,876,862,821,836,821,841,835,835,821,840,830,820,829,839,876,833,876,831,0,0,0,0,0,0,0,0,0,0,0,0,0,0,0,0,0,0,0,0,0,0,0,0,0,0,0,0,0,0,0,0,0,0,0,0,0,0,0,0,0,0,0,0,0,0,0,0,0,0,0,0,0,0,0,0,0,0,0,0,0,0,0,0,0,1153,1175,1170,1216,1744,2266,2697,2863,2913,2930,2910,2864,2812,2759,2713,2690,2631,2612,2534,2489,2439,2377,2326,2274,2200,2146,1959,1711,1572,1499,1306,1246,1239,1210,1182,1181,1189,1178,1177,1155,1157,1190,1170,1174,1206,1177,1181,1207,1182,1181,1204,1207,1248,1194,1216,1208,1200,1188,1185,1187,1190,1237,1194,1192,1191,1130,1114,1136,1162,1311,1866,2409,2502,2645,2650,2664,2613,2533,2507,2476,2446,2410,2367,2340,2263,2246,2197,2181,2121,2087,2023,1804,1549,1464,1255,1251,1212,1189,1178,1154,1149,1125,1117,1098,1098,1098,1109,1113,1111,1119,1116,1108,1114,1115,1121,1112,1110,1111,1116,1114,1116,1119,1115,1112,1114,1110,1115,1107,1115,1103,470,472,473,464,472,650,862,963,1063,1129,1136,1118,1100,1082,1094,1074,1028,1010,992,974,956,938,983,902,884,866,848,830,835,794,742,577,564,481,471,468,468,465,438,443,438,447,448,452,458,454,446,452,452,461,450,448,449,454,452,454,456,452,448,452,447,455,446,454,442,374,375,377,378,379,400,678,761,844,917,927,912,897,883,868,854,839,826,817,795,781,777,752,750,723,707,693,678,664,433,424,413,404,396,384,381,382,383,341,347,345,352,372,369,356,378,364,374,378,358,388,352,355,370,361,354,376,356,357,357,355,359,354,357,355,1065,1051,1066,1085,1136,1723,2290,2397,2521,2523,2532,2490,2456,2392,2373,2328,2294,2264,2226,2148,2115,2100,2064,2014,1982,1862,1766,1596,1474,1172,1180,1144,1126,1096,1082,1074,1030,1022,1003,1003,1003,1014,1018,1018,1024,1021,1013,1019,1020,1029,1017,1015,1016,1021,1019,1021,1024,1020,1017,1019,1015,1020,1012,1020,1008,556,558,560,559,577,850,1059,1190,1316,1365,1409,1346,1370,1308,1306,1285,1237,1220,1198,1171,1147,1132,1133,1106,1094,1051,1017,996,998,952,930,807,650,646,565,562,576,577,552,563,563,576,564,562,559,566,558,557,560,563,561,562,563,566,566,568,564,566,564,568,565,589,580,592,571,1041,1045,1050,1064,1204,1791,2356,2539,2665,2704,2672,2614,2570,2548,2495,2465,2409,2364,2312,2277,2229,2194,2144,2092,2042,2024,1910,1692,1450,1416,1262,1128,1097,1091,1098,1057,1068,1070,1078,1067,1069,1074,1081,1074,1089,1091,1088,1095,1090,1099,1107,1104,1100,1109,1114,1102,1102,1113,1108,1108,1111,1116,1107,1112,1108,780,782,784,793,836,1165,1567,1716,1843,1858,1860,1840,1798,1812,1783,1726,1724,1695,1662,1612,1574,1556,1574,1484,1492,1431,1448,1374,1267,1078,1054,1037,821,804,793,787,800,795,793,792,789,796,803,824,802,809,813,813,808,816,809,813,813,807,814,816,819,821,805,836,824,843,828,844,830,1076,1073,1082,1123,1331,2084,2393,2581,2680,2715,2692,2643,2656,2562,2515,2504,2404,2357,2310,2282,2217,2198,2162,2130,2043,2010,1837,1576,1430,1329,1188,1192,1130,1113,1097,1101,1079,1073,1074,1076,1074,1078,1084,1092,1084,1100,1092,1093,1099,1094,1101,1101,1101,1104,1095,1102,1108,1099,1094,1105,1110,1103,1100,1099,1097,1049,1053,1056,1083,1184,1651,2217,2397,2533,2563,2547,2487,2446,2427,2364,2347,2283,2242,2201,2167,2122,2085,2044,2004,1963,1922,1802,1742,1391,1364,1160,1120,1097,1078,1079,1064,1041,1048,1058,1059,1060,1067,1063,1070,1061,1075,1055,1063,1063,1065,1064,1091,1073,1071,1070,1071,1074,1067,1098,1099,1063,1071,1063,1068,1064,977,963,977,993,1043,1427,2027,2213,2308,2348,2347,2281,2244,2206,2194,2156,2118,2080,2041,1984,1966,1911,1889,1866,1800,1786,1747,1615,1255,1223,1168,1043,1004,1000,993,993,967,980,979,980,982,984,991,989,993,993,989,992,997,1000,998,999,993,1001,1000,997,998,1003,994,999,989,1006,999,1004,988,1015,1016,1025,1045,1101,1531,2148,2330,2427,2462,2457,2390,2383,2312,2280,2260,2219,2179,2138,2082,2060,2001,1979,1952,1885,1870,1828,1515,1155,1148,1117,1093,1063,1054,1024,1040,1009,1012,1018,1025,1019,1027,1028,1025,1027,1034,1036,1034,1040,1036,1039,1045,1042,1050,1047,1044,1042,1039,1046,1044,1035,1049,1038,1047,1034,1038,1060,1061,1104,1211,2039,2326,2516,2625,2676,2654,2612,2639,2534,2516,2440,2393,2336,2382,2251,2186,2150,2162,2058,2012,2030,1921,1644,1448,1201,1158,1156,1102,1087,1076,1066,1072,1064,1069,1078,1088,1091,1089,1094,1083,1099,1092,1091,1093,1095,1118,1122,1127,1108,1108,1110,1103,1119,1105,1092,1099,1109,1092,1099,1082,763,765,761,771,825,1151,1533,1719,1796,1870,1849,1820,1790,1782,1731,1701,1671,1642,1612,1582,1554,1524,1494,1504,1435,1405,1376,1346,1333,1227,1026,929,813,795,770,775,746,762,757,758,758,762,766,763,771,769,769,778,778,779,774,773,765,777,777,775,772,777,771,774,765,793,777,804,763,1222,1202,1230,1253,1585,2447,2706,2927,3024,3047,2991,2962,2925,2838,2809,2747,2669,2633,2589,2565,2452,2401,2375,2341,2043,2041,1768,1581,1596,1379,1336,1325,1279,1251,1233,1224,1200,1194,1195,1197,1195,1199,1205,1213,1205,1221,1213,1214,1220,1215,1222,1222,1222,1225,1216,1223,1229,1220,1215,1226,1231,1224,1221,1220,1218,563,564,567,568,575,773,1048,1171,1291,1374,1386,1379,1357,1320,1298,1275,1254,1231,1209,1198,1165,1143,1122,1099,1087,1056,1033,955,939,927,894,755,600,586,575,572,573,557,543,546,539,556,561,564,555,570,551,563,565,560,560,563,566,565,566,563,573,566,565,565,562,571,557,563,562,489,490,492,493,501,640,921,1021,1120,1172,1171,1153,1135,1118,1100,1082,1065,1047,1029,1011,994,1050,958,942,924,906,888,871,853,835,777,660,645,509,499,496,497,498,492,492,496,505,503,506,505,515,512,504,516,508,519,519,517,524,502,500,510,515,511,504,508,512,502,511,505,1019,1023,1027,1072,1146,1713,2145,2330,2462,2496,2480,2423,2384,2363,2303,2288,2224,2207,2143,2126,2065,2030,1992,1952,1912,1871,1852,1774,1422,1367,1119,1092,1067,1048,1048,1034,998,1005,1015,1016,1017,1028,1020,1027,1018,1032,1012,1020,1020,1022,1021,1048,1030,1028,1027,1028,1031,1024,1058,1056,1020,1028,1020,1025,1021,180,181,181,182,183,283,320,356,393,429,448,441,435,428,421,414,406,399,392,386,379,372,364,357,350,343,337,330,322,315,308,301,294,288,280,183,276,277,175,175,178,176,178,178,177,182,179,182,176,181,178,187,180,182,180,187,180,178,175,182,180,177,173,179,176,1135,1144,1168,1209,1454,2219,2494,2751,2811,2840,2811,2764,2791,2686,2679,2575,2541,2519,2497,2386,2340,2292,2287,2217,2150,2104,1993,1660,1595,1290,1257,1242,1184,1164,1165,1184,1157,1162,1176,1184,1198,1197,1194,1210,1204,1209,1213,1205,1207,1212,1221,1224,1220,1205,1208,1222,1207,1222,1210,1202,1220,1203,1194,1201,1184,1155,1134,1162,1179,1358,2279,2543,2770,2868,2896,2841,2815,2781,2695,2669,2609,2536,2500,2458,2437,2327,2278,2252,2223,2172,2069,1817,1713,1563,1465,1268,1257,1211,1176,1165,1149,1133,1127,1128,1130,1128,1132,1138,1146,1138,1154,1146,1147,1153,1148,1155,1155,1155,1158,1149,1156,1162,1153,1148,1159,1164,1157,1154,1153,1151,0,0,0,0,0,0,0,0,0,0,0,0,0,0,0,0,0,0,0,0,0,0,0,0,0,0,0,0,0,0,0,0,0,0,0,0,0,0,0,0,0,0,0,0,0,0,0,0,0,0,0,0,0,0,0,0,0,0,0,0,0,0,0,0,0,618,620,621,624,629,954,1182,1360,1468,1584,1483,1579,1472,1447,1423,1399,1340,1317,1352,1302,1246,1222,1230,1174,1180,1156,1104,1107,1057,1033,952,797,739,737,614,627,629,631,620,623,624,629,625,629,629,634,628,675,632,628,631,628,633,680,632,634,633,672,635,633,633,698,631,682,633,995,999,1025,1033,1173,1723,2192,2403,2519,2548,2578,2484,2440,2396,2412,2361,2264,2220,2173,2177,2094,2100,2004,1960,1915,1917,1827,1620,1407,1371,1180,1073,1045,1024,1007,1012,995,1001,1004,1013,1009,1015,1017,1012,1017,1019,1026,1026,1028,1026,1034,1036,1038,1038,1036,1042,1029,1028,1035,1037,1024,1037,1028,1037,1037,1265,1271,1286,1314,1678,2490,2853,3041,3148,3159,3116,3062,2968,2977,2957,2866,2808,2760,2645,2659,2554,2557,2499,2445,2236,2032,1896,1714,1663,1584,1414,1348,1308,1299,1287,1259,1253,1247,1248,1250,1248,1252,1258,1266,1258,1274,1266,1267,1273,1268,1275,1275,1275,1278,1269,1276,1282,1273,1268,1279,1284,1277,1274,1273,1271,710,712,715,720,770,876,1464,1592,1722,1809,1780,1801,1683,1656,1628,1629,1599,1601,1518,1515,1461,1434,1406,1378,1372,1343,1304,1287,1082,1038,960,956,796,735,742,721,735,722,722,719,721,727,718,725,723,727,730,745,728,729,734,731,737,750,735,737,735,736,738,736,737,737,735,745,736,1041,1045,1050,1064,1204,1791,2356,2539,2665,2704,2672,2614,2570,2548,2495,2465,2409,2364,2312,2277,2229,2194,2144,2092,2042,2024,1910,1692,1450,1416,1262,1128,1097,1091,1098,1057,1068,1070,1078,1067,1069,1074,1081,1074,1089,1091,1088,1095,1090,1099,1107,1104,1100,1109,1114,1102,1102,1113,1108,1108,1111,1116,1107,1112,1108,722,722,730,742,780,972,1495,1621,1693,1740,1762,1700,1679,1683,1665,1663,1628,1592,1536,1560,1468,1447,1423,1431,1393,1376,1248,1171,1129,964,968,840,832,743,735,732,768,736,728,727,726,730,737,731,734,738,738,742,738,739,739,736,738,735,741,738,736,738,738,737,736,742,733,727,727,226,227,227,220,220,363,405,451,495,538,542,544,536,528,519,511,502,494,486,477,469,448,452,444,434,426,417,397,388,392,386,378,369,240,235,229,230,223,212,213,214,216,214,216,213,215,213,213,214,215,214,215,216,216,214,217,216,217,217,217,217,217,214,215,215,920,923,931,948,1024,1380,2006,2112,2169,2204,2221,2161,2124,2130,2095,2086,2050,2010,1930,1963,1858,1825,1791,1789,1760,1676,1527,1372,1320,1183,1090,997,1025,945,936,949,940,906,893,891,892,898,904,907,905,898,912,908,906,903,909,914,912,896,906,911,911,915,896,899,915,908,898,897,889,661,661,669,686,712,898,1362,1465,1552,1593,1616,1568,1543,1557,1533,1533,1507,1479,1407,1447,1357,1334,1305,1317,1293,1266,1224,1156,1067,932,869,768,781,683,673,675,717,688,681,682,682,682,691,684,687,691,692,693,689,692,689,687,689,691,693,689,687,689,692,691,690,694,688,683,683,576,575,583,599,631,890,1181,1262,1340,1387,1414,1369,1345,1365,1344,1347,1324,1295,1230,1278,1184,1165,1138,1155,1132,1110,1100,1060,1009,883,814,637,681,597,587,588,614,589,573,574,575,581,577,590,580,584,587,582,589,577,584,586,592,572,580,591,592,591,574,576,581,587,581,580,572,622,622,629,647,722,879,1293,1384,1464,1508,1530,1485,1461,1478,1454,1456,1431,1396,1332,1378,1279,1260,1231,1246,1219,1197,1185,1142,1039,913,879,756,728,645,635,648,662,621,617,607,604,614,619,621,617,613,623,631,619,615,620,621,620,604,614,622,621,628,607,608,624,621,611,610,602,1148,1142,1160,1206,1461,2079,2536,2629,2725,2733,2707,2651,2608,2636,2564,2545,2522,2450,2381,2407,2278,2240,2207,2149,2046,1894,1658,1597,1553,1368,1243,1214,1241,1164,1155,1168,1181,1163,1121,1128,1142,1150,1147,1146,1144,1153,1148,1155,1160,1140,1147,1151,1159,1165,1153,1153,1148,1156,1157,1160,1152,1164,1149,1159,1152,442,429,431,432,452,552,801,890,976,1044,1035,1018,1003,1003,972,988,955,954,908,892,877,860,844,857,851,798,781,765,750,759,726,549,556,462,437,441,436,412,407,414,414,418,421,423,416,426,414,427,416,414,420,423,426,432,426,426,422,419,425,425,422,425,417,421,415,1096,1100,1109,1155,1383,1881,2430,2546,2614,2616,2622,2565,2524,2526,2485,2467,2430,2373,2290,2321,2204,2165,2126,2113,2077,1977,1642,1592,1386,1321,1192,1164,1192,1132,1116,1119,1136,1122,1091,1092,1103,1113,1107,1106,1104,1117,1105,1105,1115,1093,1103,1103,1107,1116,1108,1109,1103,1109,1109,1107,1108,1120,1108,1118,1111,793,796,800,801,951,1412,1526,1678,1755,1789,1786,1761,1736,1711,1686,1659,1634,1609,1583,1558,1532,1507,1482,1456,1431,1412,1313,1253,1279,1145,866,827,846,843,797,805,774,784,761,764,769,774,782,781,781,779,776,783,782,792,818,816,812,789,787,788,797,823,809,777,794,784,774,774,774,460,461,462,464,470,489,844,908,990,1064,1076,1057,1041,1003,1011,996,980,943,927,937,920,904,889,873,858,843,825,810,794,820,740,484,473,464,455,465,467,468,457,454,456,460,463,458,464,467,462,470,465,465,465,470,472,487,474,466,469,470,475,474,474,540,468,472,469,688,683,690,716,746,859,1326,1479,1567,1607,1606,1582,1563,1555,1531,1534,1508,1460,1410,1387,1365,1351,1340,1302,1270,1245,1171,1105,1020,894,913,811,799,706,693,695,708,655,650,647,652,652,655,655,654,653,653,654,653,653,653,655,655,656,654,655,655,655,653,655,654,655,652,653,653,624,625,629,630,718,1063,1231,1373,1478,1531,1530,1506,1480,1460,1455,1408,1383,1359,1335,1311,1286,1279,1238,1230,1189,1165,1141,1117,1095,1068,909,854,763,643,632,633,635,636,623,620,632,640,623,657,626,636,627,632,656,631,625,632,633,676,642,636,631,633,636,638,636,639,626,666,633,1268,1270,1309,1358,1577,2445,2801,2889,2964,2960,2968,2905,2887,2895,2800,2793,2745,2687,2588,2651,2528,2462,2249,2237,2051,1778,1644,1564,1558,1436,1408,1334,1386,1297,1288,1292,1326,1313,1293,1306,1302,1305,1297,1312,1313,1312,1321,1313,1309,1309,1315,1315,1317,1308,1307,1318,1316,1320,1311,1317,1313,1320,1305,1315,1308,1029,1032,1040,1077,1275,1725,2264,2378,2454,2461,2470,2415,2377,2381,2341,2327,2294,2238,2156,2193,2076,2039,2002,1993,1958,1913,1750,1536,1468,1308,1123,1097,1124,1075,1048,1051,1069,1055,1024,1025,1035,1046,1028,1039,1037,1050,1038,1038,1048,1026,1036,1036,1040,1049,1041,1042,1036,1042,1042,1040,1041,1053,1041,1051,1044,729,728,733,736,782,1277,1464,1639,1720,1711,1740,1717,1683,1656,1642,1592,1614,1585,1557,1529,1486,1490,1447,1425,1391,1358,1338,1301,1264,1145,1062,770,771,753,740,741,742,716,720,728,714,730,730,733,748,751,730,727,732,749,734,725,727,733,733,735,735,733,725,734,724,752,729,731,718,0,0,0,0,0,0,0,0,0,0,0,0,0,0,0,0,0,0,0,0,0,0,0,0,0,0,0,0,0,0,0,0,0,0,0,0,0,0,0,0,0,0,0,0,0,0,0,0,0,0,0,0,0,0,0,0,0,0,0,0,0,0,0,0,0,714,715,723,738,782,999,1502,1610,1678,1719,1746,1690,1662,1676,1648,1648,1620,1587,1515,1557,1460,1433,1401,1413,1388,1356,1282,1224,1139,1013,872,812,808,736,727,740,755,721,718,706,705,715,721,724,718,715,726,732,722,717,725,726,724,708,718,727,730,733,709,716,727,724,716,715,707,1019,1024,1048,1064,1187,1635,2248,2396,2446,2481,2428,2391,2365,2387,2348,2316,2259,2248,2164,2162,2084,2045,2005,1964,1970,1808,1533,1536,1373,1248,1156,1124,1143,1064,1025,1059,1046,1013,1004,1007,1002,1009,1018,1021,1015,1008,1023,1019,1017,1012,1019,1025,1023,1006,1015,1022,1019,1023,1004,1006,1023,1020,1010,1009,1001,149,149,130,131,131,177,199,263,291,318,339,334,328,323,317,313,308,301,296,291,284,280,275,270,264,259,253,248,242,200,197,191,187,183,178,132,132,132,100,102,101,102,103,104,102,103,102,102,101,101,101,103,103,104,103,103,103,103,105,103,103,104,101,102,102,722,722,730,742,780,972,1495,1621,1693,1740,1762,1700,1679,1683,1665,1663,1628,1592,1536,1560,1468,1447,1423,1431,1393,1376,1248,1171,1129,964,968,840,832,743,735,732,768,736,728,727,726,730,737,731,734,738,738,742,738,739,739,736,738,735,741,738,736,738,738,737,736,742,733,727,727,322,324,324,325,327,447,593,663,708,763,806,792,780,745,754,730,728,691,704,670,658,645,661,638,625,601,587,586,563,546,540,534,463,359,343,328,327,329,276,276,276,276,276,276,276,276,276,276,276,276,276,276,276,276,276,276,276,276,276,276,276,276,276,276,276,556,566,560,562,568,728,1038,1153,1280,1370,1387,1348,1337,1318,1289,1274,1253,1229,1208,1185,1166,1138,1115,1108,1086,1065,1011,975,928,833,778,656,595,605,579,575,572,566,482,482,482,482,482,482,482,482,482,482,482,482,482,482,482,482,482,482,482,482,482,482,482,482,482,482,482,214,215,216,216,216,287,381,422,464,507,524,517,508,500,493,484,476,468,460,452,444,436,428,420,411,404,396,387,380,319,313,306,300,293,286,281,282,282,185,185,185,185,185,185,185,185,185,185,185,185,185,185,185,185,185,185,185,185,185,185,185,185,185,185,185,322,322,320,308,315,354,571,633,711,751,786,773,752,738,747,724,722,667,696,645,652,640,620,632,615,602,583,582,564,538,544,475,364,361,329,316,317,328,275,275,275,275,275,275,275,275,275,275,275,275,275,275,275,275,275,275,275,275,275,275,275,275,275,275,275,199,199,199,201,202,305,348,388,428,468,496,489,480,473,465,458,449,442,434,426,418,411,402,395,387,380,371,364,356,348,340,332,324,316,289,203,203,204,125,125,125,125,125,125,125,125,125,125,125,125,125,125,125,125,125,125,125,125,125,125,125,125,125,125,125,176,176,179,179,192,218,311,347,384,420,446,441,432,426,418,412,403,398,389,383,374,369,360,354,346,340,331,326,319,311,304,297,290,282,196,192,193,193,102,102,102,102,102,102,102,102,102,102,102,102,102,102,102,102,102,102,102,102,102,102,102,102,102,102,102,530,520,533,534,536,809,992,1134,1207,1274,1281,1263,1264,1219,1220,1181,1161,1161,1120,1100,1098,1075,1036,1017,997,973,957,932,930,912,607,593,579,552,540,527,539,540,494,494,494,494,494,494,494,494,494,494,494,494,494,494,494,494,494,494,494,494,494,494,494,494,494,494,494,425,425,422,423,448,497,790,851,949,1035,1050,1038,1020,1014,986,967,965,908,893,909,882,864,846,832,812,802,782,762,748,702,685,504,496,457,455,444,430,429,335,335,335,335,335,335,335,335,335,335,335,335,335,335,335,335,335,335,335,335,335,335,335,335,335,335,335,441,440,443,445,458,508,825,914,1014,1064,1070,1070,1036,1036,1019,985,987,962,950,917,899,875,881,863,835,818,800,783,776,722,707,538,526,497,472,441,460,443,406,406,406,406,406,406,406,406,406,406,406,406,406,406,406,406,406,406,406,406,406,406,406,406,406,406,406,1194,1204,1186,1213,1501,2158,2716,2932,3012,3022,3010,2946,2905,2842,2810,2743,2706,2612,2593,2500,2483,2431,2349,2319,2192,1936,1897,1658,1372,1340,1322,1300,1255,1223,1205,1193,1209,1231,1164,1164,1164,1164,1164,1164,1164,1164,1164,1164,1164,1164,1164,1164,1164,1164,1164,1164,1164,1164,1164,1164,1164,1164,1164,1164,1164,807,807,811,809,848,1080,1586,1768,1868,1938,1955,1914,1880,1862,1825,1801,1775,1743,1710,1677,1649,1622,1586,1560,1531,1500,1473,1435,1300,1113,894,884,856,837,817,826,825,801,711,711,711,711,711,711,711,711,711,711,711,711,711,711,711,711,711,711,711,711,711,711,711,711,711,711,711,349,366,360,335,343,382,625,692,776,822,854,840,818,802,849,788,783,727,756,703,709,696,676,696,674,668,640,636,612,518,468,519,408,366,356,344,345,370,298,298,298,298,298,298,298,298,298,298,298,298,298,298,298,298,298,298,298,298,298,298,298,298,298,298,298,837,840,841,842,898,1337,1794,2029,2144,2176,2191,2140,2110,2071,2042,2003,1968,1918,1875,1849,1797,1764,1711,1676,1644,1598,1558,1526,1393,1221,1091,924,884,878,864,864,869,878,774,774,774,774,774,774,774,774,774,774,774,774,774,774,774,774,774,774,774,774,774,774,774,774,774,774,774,816,792,795,796,837,949,1603,1703,1828,1889,1891,1856,1812,1793,1781,1734,1730,1695,1648,1623,1592,1603,1560,1515,1494,1411,1420,1276,1143,1047,945,862,845,843,821,833,825,821,743,743,743,743,743,743,743,743,743,743,743,743,743,743,743,743,743,743,743,743,743,743,743,743,743,743,743,373,373,376,377,380,473,687,762,848,898,905,910,879,881,867,835,839,817,808,778,763,741,749,735,708,694,679,664,661,610,597,506,493,406,383,374,380,381,339,339,339,339,339,339,339,339,339,339,339,339,339,339,339,339,339,339,339,339,339,339,339,339,339,339,339,909,911,932,946,999,1580,2008,2242,2352,2379,2391,2337,2304,2264,2232,2191,2166,2117,2053,2029,1975,1932,1877,1839,1809,1772,1723,1674,1491,1329,1062,1022,974,950,939,956,944,949,859,859,859,859,859,859,859,859,859,859,859,859,859,859,859,859,859,859,859,859,859,859,859,859,859,859,859,744,756,750,753,765,963,1438,1606,1717,1769,1778,1763,1734,1732,1673,1682,1631,1589,1578,1556,1524,1500,1479,1434,1407,1387,1366,1303,1146,1006,950,850,792,794,769,766,777,758,669,669,669,669,669,669,669,669,669,669,669,669,669,669,669,669,669,669,669,669,669,669,669,669,669,669,669,0,0,0,0,0,0,0,0,0,0,0,0,0,0,0,0,0,0,0,0,0,0,0,0,0,0,0,0,0,0,0,0,0,0,0,0,0,0,0,0,0,0,0,0,0,0,0,0,0,0,0,0,0,0,0,0,0,0,0,0,0,0,0,0,0,330,332,332,304,337,518,596,666,726,790,816,804,787,772,765,752,739,727,712,700,688,675,662,650,637,624,612,600,585,573,565,547,397,389,339,336,318,337,291,291,291,291,291,291,291,291,291,291,291,291,291,291,291,291,291,291,291,291,291,291,291,291,291,291,291,680,679,683,685,709,762,1288,1412,1574,1638,1652,1621,1594,1569,1550,1518,1499,1468,1449,1412,1396,1381,1342,1334,1303,1272,1245,1142,1069,950,979,787,720,722,692,698,695,668,574,574,574,574,574,574,574,574,574,574,574,574,574,574,574,574,574,574,574,574,574,574,574,574,574,574,574,322,324,324,325,327,447,593,663,708,763,806,792,780,745,754,730,728,691,704,670,658,645,661,638,625,601,587,586,563,546,540,534,463,359,343,328,327,329,276,276,276,276,276,276,276,276,276,276,276,276,276,276,276,276,276,276,276,276,276,276,276,276,276,276,276,559,561,565,566,582,920,1117,1227,1329,1384,1394,1362,1341,1320,1292,1277,1257,1231,1234,1192,1165,1142,1120,1098,1076,1050,1034,1005,989,939,933,741,664,584,573,568,572,564,561,555,556,564,568,565,565,573,561,576,574,570,576,571,577,581,580,576,572,579,573,573,573,575,580,576,558,980,976,976,999,1053,1359,2050,2206,2327,2359,2344,2301,2247,2232,2179,2146,2120,2083,2020,2010,1988,1902,1928,1882,1802,1690,1669,1532,1403,1259,1195,1047,1057,1028,972,974,957,946,905,908,912,929,926,926,914,928,919,949,928,947,922,928,951,950,931,931,936,935,934,931,932,933,920,923,921,392,392,395,396,399,469,725,807,897,953,963,947,932,918,901,887,872,859,843,828,813,798,783,768,753,737,722,708,691,677,661,497,486,474,401,398,399,400,372,372,372,378,377,376,375,378,375,378,378,380,377,379,378,376,378,378,382,383,380,380,381,383,381,381,379,612,613,617,619,636,1017,1207,1354,1454,1508,1510,1481,1460,1436,1406,1391,1368,1333,1341,1291,1268,1241,1219,1193,1171,1138,1120,1095,1049,831,828,750,664,636,623,621,622,604,593,608,603,615,620,615,614,620,601,617,607,617,610,616,606,617,618,622,617,614,608,613,610,615,621,615,597,612,632,630,638,651,762,1204,1341,1467,1540,1523,1484,1464,1466,1426,1401,1377,1335,1328,1303,1300,1252,1250,1210,1174,1176,1137,1111,1060,1024,888,753,722,695,633,624,638,589,546,553,548,561,560,563,551,564,555,586,565,581,558,564,587,586,569,571,572,571,570,567,568,567,571,574,572,590,609,608,618,623,725,1161,1294,1419,1492,1476,1437,1418,1421,1382,1356,1334,1292,1286,1261,1258,1211,1210,1170,1135,1138,1100,1030,960,942,895,709,700,647,612,601,615,566,523,530,530,540,540,542,534,542,535,563,542,562,538,545,570,566,547,546,552,552,549,547,550,548,536,539,537,528,530,532,533,631,880,1022,1112,1340,1366,1300,1279,1258,1238,1218,1197,1176,1155,1135,1089,1070,1050,1052,1009,988,991,949,928,928,888,888,867,781,677,540,536,538,607,540,534,536,536,536,531,536,536,539,534,535,535,540,541,542,542,540,537,540,540,542,605,542,612,540,537,544,812,834,831,840,871,1038,1668,1828,1957,2011,2001,1943,1912,1906,1872,1809,1786,1750,1714,1689,1683,1634,1624,1590,1560,1521,1517,1332,1212,1160,926,921,863,862,835,840,810,799,760,761,765,782,779,779,775,781,772,802,781,800,775,781,804,803,784,784,789,788,787,784,785,786,773,776,774,161,162,162,244,244,253,284,314,345,376,394,388,382,376,370,364,358,352,346,340,334,328,322,316,310,304,298,292,286,280,274,268,262,256,250,246,247,247,148,148,148,148,149,149,150,150,150,151,151,152,152,152,153,153,154,154,155,155,155,156,156,156,156,156,157,1366,1365,1420,1463,2121,2946,3261,3370,3423,3433,3397,3333,3298,3214,3153,3094,3027,2977,2908,2849,2790,2702,2417,2165,2037,1677,1623,1609,1576,1513,1468,1440,1428,1409,1389,1375,1380,1397,1397,1395,1393,1403,1436,1416,1426,1419,1433,1431,1433,1445,1437,1431,1441,1446,1435,1449,1440,1433,1428,1439,1441,1435,1455,1433,1433,1192,1199,1208,1242,1469,1878,2554,2727,2836,2870,2834,2763,2718,2723,2669,2642,2577,2537,2491,2412,2392,2348,2325,2250,2207,2050,1724,1653,1463,1462,1335,1297,1268,1241,1206,1217,1182,1175,1131,1137,1141,1158,1155,1155,1147,1157,1147,1177,1157,1176,1151,1157,1180,1179,1160,1160,1165,1164,1163,1160,1160,1162,1148,1151,1149,643,626,653,644,647,1076,1263,1388,1485,1538,1550,1552,1531,1488,1435,1418,1395,1372,1366,1347,1329,1295,1243,1219,1195,1166,1169,1113,1047,931,926,680,663,649,649,637,639,623,612,628,623,635,643,635,634,640,621,637,627,637,630,636,626,638,638,641,637,634,627,632,630,635,641,635,617,1144,1168,1173,1220,1629,2047,2600,2799,2871,2957,2909,2847,2810,2716,2693,2626,2620,2588,2468,2449,2342,2364,2288,2272,2088,2042,2015,1745,1490,1296,1324,1270,1222,1213,1180,1181,1212,1176,1176,1181,1184,1200,1201,1194,1199,1198,1210,1208,1201,1203,1205,1220,1218,1224,1217,1220,1212,1213,1220,1219,1212,1220,1222,1217,1214,948,940,949,980,1152,1703,1956,2125,2297,2318,2338,2212,2178,2148,2101,2066,2020,1998,1963,1918,1891,1867,1929,1790,1747,1712,1636,1553,1389,1292,1032,1009,992,1007,959,956,963,1020,996,1003,1001,1011,1002,1009,1004,1016,1004,1032,1018,1024,1027,1024,1028,1062,1063,1026,1017,1018,1027,1034,1024,1012,1032,1034,1020,255,256,256,257,258,392,463,516,570,621,634,625,615,604,595,585,574,565,554,544,535,524,514,505,494,484,474,464,454,444,434,418,408,398,390,259,382,384,256,246,249,251,248,258,252,306,258,252,301,251,252,252,252,255,254,253,252,254,252,252,252,254,253,259,254,1216,1256,1254,1321,1815,2256,2812,3004,3076,3155,3104,3040,3038,2902,2892,2806,2800,2763,2640,2617,2509,2541,2483,2348,2242,1944,1900,1688,1452,1407,1406,1318,1316,1307,1256,1262,1280,1261,1270,1253,1254,1281,1268,1280,1283,1279,1281,1303,1282,1286,1294,1295,1307,1313,1305,1298,1307,1298,1299,1300,1303,1314,1304,1304,1301,1140,1166,1170,1199,1311,1707,2441,2577,2718,2761,2732,2626,2602,2588,2559,2494,2461,2394,2366,2312,2324,2248,2214,2171,2138,2011,1804,1567,1439,1374,1305,1239,1217,1213,1162,1166,1144,1133,1094,1095,1099,1116,1113,1111,1109,1115,1106,1136,1115,1131,1109,1115,1138,1137,1118,1118,1123,1122,1121,1118,1119,1120,1107,1110,1108,501,502,491,506,503,570,926,1030,1134,1237,1202,1218,1202,1180,1126,1107,1088,1102,1050,1032,1042,993,1002,955,936,949,898,879,832,815,742,591,583,527,499,509,497,478,434,440,439,449,448,452,442,453,444,474,452,471,447,453,476,475,456,456,460,458,457,456,456,459,446,449,447,0,0,0,0,0,0,0,0,0,0,0,0,0,0,0,0,0,0,0,0,0,0,0,0,0,0,0,0,0,0,0,0,0,0,0,0,0,0,0,0,0,0,0,0,0,0,0,0,0,0,0,0,0,0,0,0,0,0,0,0,0,0,0,0,0,1085,1097,1094,1119,1182,1599,2325,2470,2585,2621,2600,2528,2509,2472,2429,2398,2362,2300,2250,2227,2188,2125,2118,2067,2030,1862,1787,1658,1446,1377,1287,1170,1130,1138,1089,1094,1049,1038,999,1000,1004,1021,1018,1018,1014,1020,1011,1041,1020,1039,1014,1020,1043,1042,1023,1023,1028,1027,1026,1023,1024,1025,1012,1015,1013,559,561,565,566,582,920,1117,1227,1329,1384,1394,1362,1341,1320,1292,1277,1257,1231,1234,1192,1165,1142,1120,1098,1076,1050,1034,1005,989,939,933,741,664,584,573,568,572,564,561,555,556,564,568,565,565,573,561,576,574,570,576,571,577,581,580,576,572,579,573,573,573,575,580,576,558,684,657,665,690,743,1015,1344,1485,1544,1592,1636,1606,1579,1520,1485,1514,1474,1434,1480,1372,1389,1365,1304,1270,1252,1264,1194,1141,1099,1111,834,741,724,703,672,689,692,668,658,658,658,658,658,658,658,658,658,658,658,658,658,658,658,658,658,658,658,658,658,658,658,658,658,658,658,164,165,166,166,209,259,291,322,355,385,400,394,388,382,376,370,366,360,354,348,342,336,330,322,316,310,304,298,292,285,279,273,267,261,255,210,210,211,137,137,137,137,137,137,137,137,137,137,137,137,137,137,137,137,137,137,137,137,137,137,137,137,137,137,137,887,862,865,894,906,1437,1782,1925,2019,2056,2088,2051,2023,1948,1916,1942,1888,1845,1870,1778,1785,1762,1683,1644,1617,1624,1468,1372,1207,1104,1028,974,942,915,881,897,897,825,824,829,835,834,833,834,830,833,835,832,834,836,832,835,835,835,835,835,835,835,835,835,835,835,835,835,835,628,601,604,634,676,908,1210,1328,1404,1447,1489,1461,1448,1380,1357,1390,1351,1304,1352,1257,1276,1254,1186,1164,1139,1155,1094,1108,1037,1009,729,677,663,651,611,635,636,626,611,611,611,611,611,611,611,611,611,611,611,611,611,611,611,611,611,611,611,611,611,611,611,611,611,611,611,542,516,517,546,549,771,1020,1095,1175,1236,1283,1259,1244,1181,1163,1201,1162,1126,1170,1082,1105,1090,1025,1002,985,1003,945,960,979,879,738,628,648,562,545,547,548,508,510,513,519,516,521,519,516,519,517,514,517,518,511,510,510,510,510,510,510,510,510,510,510,510,510,510,510,588,562,564,592,597,856,1124,1212,1297,1357,1402,1375,1360,1294,1273,1310,1269,1232,1272,1183,1203,1185,1120,1094,1076,1090,1032,1045,1009,956,801,734,679,608,577,595,597,540,542,546,548,549,548,548,542,548,546,545,547,547,542,542,542,542,542,542,542,542,542,542,542,542,542,542,542,1112,1082,1095,1141,1394,2001,2338,2459,2565,2590,2614,2544,2507,2452,2383,2399,2360,2308,2321,2225,2227,2167,2098,2055,2014,1894,1534,1617,1452,1244,1226,1204,1182,1173,1093,1115,1117,1082,1074,1074,1074,1074,1074,1074,1074,1074,1074,1074,1074,1074,1074,1074,1074,1074,1074,1074,1074,1074,1074,1074,1074,1074,1074,1074,1074,396,396,397,412,402,619,718,807,864,945,936,902,890,877,864,852,838,825,813,800,817,774,762,747,734,721,735,694,682,669,656,621,575,411,403,400,483,378,362,367,366,368,366,366,372,372,371,372,367,371,367,373,373,373,373,373,372,371,373,373,373,373,373,373,373,1062,1036,1044,1102,1215,1929,2240,2376,2454,2478,2505,2459,2425,2350,2310,2321,2268,2208,2230,2128,2128,2092,2007,1966,1936,1908,1671,1592,1232,1179,1186,1142,1159,1123,1053,1076,1072,1041,1042,1043,1043,1043,1043,1043,1043,1043,1043,1043,1043,1043,1043,1043,1043,1043,1043,1043,1043,1043,1043,1043,1043,1043,1043,1043,1043,841,844,847,850,971,1549,1720,1879,1902,1963,1910,1904,1879,1851,1824,1851,1819,1825,1754,1723,1707,1658,1626,1622,1569,1529,1416,1359,1352,1226,1005,900,886,852,856,854,856,817,816,813,816,816,816,816,816,816,816,816,816,816,816,816,816,816,816,816,816,816,816,816,816,816,816,816,816,492,494,495,496,522,648,912,1006,1071,1146,1128,1112,1176,1102,1086,1069,1052,1035,997,1002,1034,995,951,937,918,883,886,867,852,835,818,656,635,594,502,497,500,501,500,498,497,491,488,497,500,504,493,500,502,504,504,499,517,500,519,497,500,514,500,497,504,494,516,498,502,624,621,631,631,659,853,1197,1333,1419,1457,1533,1457,1491,1392,1372,1376,1339,1309,1334,1265,1268,1247,1200,1177,1156,1157,1075,1075,990,984,778,756,654,641,631,633,635,592,575,575,575,575,575,575,575,575,575,575,575,575,575,575,575,575,575,575,575,575,575,575,575,575,575,575,575,656,658,666,664,754,1153,1325,1456,1558,1610,1608,1582,1557,1550,1506,1488,1454,1429,1404,1377,1369,1327,1300,1275,1250,1227,1198,1173,1147,1122,983,866,775,680,669,666,668,670,669,670,666,686,676,666,674,686,678,688,683,684,680,679,672,671,676,685,671,672,670,672,668,671,678,677,660,1256,1208,1212,1288,1378,2354,2664,2786,2802,2830,2857,2816,2810,2729,2629,2681,2583,2523,2541,2459,2479,2398,2263,2254,2020,1778,1418,1428,1457,1441,1335,1316,1336,1288,1225,1252,1252,1233,1248,1249,1253,1237,1248,1255,1255,1255,1255,1255,1255,1255,1255,1255,1255,1255,1255,1255,1255,1255,1255,1255,1255,1255,1255,1255,1255,995,969,975,1024,1161,1774,2073,2212,2294,2322,2351,2309,2278,2204,2160,2181,2132,2072,2096,1997,2000,1966,1883,1845,1817,1808,1719,1516,1453,1108,1116,1074,1092,1055,985,1008,1005,974,974,976,976,976,976,976,976,976,976,976,976,976,976,976,976,976,976,976,976,976,976,976,976,976,976,976,976,764,765,767,769,792,1367,1592,1718,1808,1867,1859,1831,1800,1791,1743,1714,1686,1656,1626,1588,1545,1512,1510,1481,1448,1423,1376,1348,1264,1188,984,907,877,790,772,773,760,750,751,750,754,755,764,770,774,779,767,770,769,770,768,761,764,779,779,766,769,768,758,774,767,771,764,779,765,103,103,104,104,157,159,181,201,222,243,258,254,249,246,242,237,234,229,225,222,217,213,208,205,201,196,193,189,184,181,176,172,169,164,160,157,157,158,95,96,98,101,99,99,98,100,96,101,96,96,100,99,102,138,100,99,100,100,100,98,100,138,99,100,98,681,657,657,687,688,1028,1316,1422,1523,1569,1640,1580,1561,1492,1467,1502,1458,1422,1456,1363,1383,1368,1293,1262,1243,1259,1191,1200,1109,1068,894,774,775,704,672,687,690,640,643,645,649,650,650,651,643,650,649,646,650,649,647,647,647,647,647,647,647,647,647,647,647,647,647,647,647,1004,976,961,1012,1132,1648,2070,2212,2296,2332,2295,2313,2265,2206,2167,2190,2097,2061,2104,2000,1994,1977,1886,1835,1823,1796,1502,1506,1345,1270,1155,1095,1060,1033,999,985,1011,931,931,940,951,944,943,945,944,943,945,943,945,945,940,945,945,945,945,945,945,945,945,945,945,945,945,945,945,0,0,0,0,0,0,0,0,0,0,0,0,0,0,0,0,0,0,0,0,0,0,0,0,0,0,0,0,0,0,0,0,0,0,0,0,0,0,0,0,0,0,0,0,0,0,0,0,0,0,0,0,0,0,0,0,0,0,0,0,0,0,0,0,0,684,657,665,690,743,1015,1344,1485,1544,1592,1636,1606,1579,1520,1485,1514,1474,1434,1480,1372,1389,1365,1304,1270,1252,1264,1194,1141,1099,1111,834,741,724,703,672,689,692,668,658,658,658,658,658,658,658,658,658,658,658,658,658,658,658,658,658,658,658,658,658,658,658,658,658,658,658,0,0,0,0,0,0,0,0,0,0,0,0,0,0,0,0,0,0,0,0,0,0,0,0,0,0,0,0,0,0,0,0,0,0,0,0,0,0,0,0,0,0,0,0,0,0,0,0,0,0,0,0,0,0,0,0,0,0,0,0,0,0,0,0,0,522,530,533,525,529,648,999,1098,1209,1287,1303,1290,1249,1238,1218,1198,1196,1146,1137,1116,1083,1072,1063,1031,1009,1005,961,848,702,829,675,657,665,578,564,528,542,564,472,478,480,501,484,483,485,501,483,480,484,482,485,487,485,483,480,483,483,485,482,483,481,482,480,480,480,446,447,449,451,456,555,830,926,1019,1088,1087,1078,1060,1044,1028,1009,993,980,958,933,924,907,889,872,855,837,820,804,786,769,657,610,561,467,456,452,455,455,427,427,429,429,430,430,433,434,434,433,434,435,436,437,436,439,437,437,439,440,439,439,441,443,440,440,440,84,84,92,92,96,130,147,164,181,198,210,206,204,200,196,193,190,187,183,181,177,174,170,168,164,160,158,154,151,147,145,141,138,135,132,96,96,129,58,58,59,61,58,58,60,62,59,58,59,58,61,60,60,59,58,59,59,63,62,58,61,63,61,61,61,268,268,269,272,273,288,489,570,602,672,667,674,644,658,630,626,622,622,585,572,561,550,541,530,519,508,496,489,474,466,456,445,290,283,276,273,273,283,287,259,254,256,273,280,271,271,278,280,290,279,283,286,288,284,268,284,292,293,287,286,272,274,288,267,269,245,246,247,294,295,394,447,526,553,620,616,626,596,609,582,580,578,576,542,528,518,507,498,488,478,468,458,452,435,429,418,409,399,390,304,296,297,302,242,237,240,242,242,242,242,243,240,245,244,243,242,244,243,240,242,245,246,247,242,241,246,245,243,243,242,761,764,766,758,789,1078,1511,1662,1806,1836,1847,1827,1782,1743,1714,1707,1655,1626,1618,1584,1567,1510,1486,1456,1446,1398,1367,1354,1283,1011,989,872,864,780,776,773,773,772,733,737,736,745,754,745,754,747,745,749,748,750,750,756,753,756,777,768,762,758,756,747,753,753,776,782,767,539,540,543,544,549,712,990,1058,1134,1191,1199,1216,1170,1168,1141,1184,1113,1099,1084,1070,1057,1047,1028,1015,1027,989,972,954,936,780,696,644,628,560,560,548,548,538,462,461,465,469,467,468,471,473,471,471,472,472,476,481,479,475,475,477,478,480,480,479,480,481,479,479,479,544,547,547,550,565,848,1053,1172,1280,1331,1338,1314,1314,1272,1236,1165,1210,1127,1183,1143,1124,1104,1071,1056,1040,1009,997,976,956,889,890,806,680,560,552,541,552,556,538,531,538,538,537,538,538,538,538,538,538,538,538,538,538,538,538,538,538,538,538,538,538,538,538,538,538,892,894,900,914,984,1690,1967,2199,2326,2374,2368,2305,2263,2220,2176,2150,2091,2049,2023,1981,1927,1896,1836,1812,1766,1713,1664,1624,1540,1361,1009,1051,953,924,908,916,911,906,903,903,903,903,903,903,903,903,903,903,903,903,903,903,903,903,903,903,903,903,903,903,903,903,903,903,903,841,843,847,849,871,1275,1635,1823,1956,2022,2013,1977,1945,1915,1895,1852,1821,1790,1759,1728,1699,1664,1641,1600,1569,1536,1510,1486,1365,1161,937,916,883,865,855,850,855,841,782,774,782,788,791,788,792,786,796,802,790,786,804,803,818,795,788,807,790,811,788,785,806,807,805,805,805,117,117,118,118,175,178,200,219,242,265,279,281,278,272,268,258,260,255,251,247,235,231,233,229,218,213,215,212,200,196,192,194,189,185,181,175,177,178,77,77,79,81,78,78,80,82,79,78,79,78,81,80,80,79,79,79,78,83,82,77,80,83,81,81,81,1007,983,1012,1022,1147,1695,2226,2420,2537,2559,2538,2458,2448,2429,2395,2337,2296,2278,2200,2154,2081,2055,2009,1979,1922,1875,1831,1753,1397,1248,1100,1076,1044,1028,997,1021,1027,1043,994,999,1008,1005,1022,1021,1032,1028,1016,1033,1013,1014,1014,1022,1029,1028,1025,1027,1017,1020,1015,1025,1029,1029,1038,1031,1028,1009,1027,1025,1047,1070,1611,2081,2272,2391,2442,2397,2384,2344,2295,2278,2223,2190,2164,2179,2060,2040,1993,1985,1880,1909,1825,1582,1356,1256,1157,1133,1084,1059,1050,1043,1030,1042,1036,985,985,986,986,986,988,989,990,990,990,991,991,991,992,991,992,992,992,995,995,994,994,995,996,995,995,995,592,594,610,597,620,812,1163,1290,1406,1456,1458,1435,1419,1386,1367,1340,1318,1295,1269,1248,1225,1200,1177,1155,1143,1109,1086,1063,1038,1016,902,738,632,619,608,604,612,607,581,581,585,582,589,589,596,599,594,601,594,595,593,596,593,602,600,596,600,595,593,598,599,603,596,596,596,1022,1024,1032,1084,1163,1953,2334,2569,2686,2726,2718,2663,2590,2541,2492,2462,2392,2343,2314,2265,2202,2167,2098,2065,2013,1953,1916,1851,1541,1383,1146,1136,1084,1056,1039,1052,1057,1054,1075,1075,1075,1075,1075,1075,1075,1075,1075,1075,1075,1075,1075,1075,1075,1075,1075,1075,1075,1075,1075,1075,1075,1075,1075,1075,1075,718,720,722,716,729,963,1383,1550,1679,1750,1750,1734,1707,1687,1661,1636,1598,1560,1549,1519,1465,1458,1434,1406,1367,1342,1297,1247,1101,1075,896,799,820,753,743,720,742,744,666,671,677,695,689,689,679,689,678,678,683,683,685,687,688,693,687,689,684,689,684,694,689,690,688,688,688,298,308,315,316,322,338,546,608,666,729,730,727,718,706,695,681,671,660,648,627,625,614,600,589,578,565,553,543,517,512,481,418,407,341,332,311,313,304,256,256,257,257,258,259,260,261,261,261,262,262,262,263,262,263,263,263,266,266,265,265,266,267,266,266,266,393,395,396,397,400,609,734,825,902,962,972,955,964,925,905,828,880,802,865,847,817,802,787,777,756,741,726,710,696,681,664,639,525,597,403,370,398,409,390,383,390,390,388,390,390,390,390,390,390,390,390,390,390,390,390,390,390,390,390,390,390,390,390,390,390,643,649,655,648,659,762,1223,1362,1503,1578,1568,1554,1506,1492,1468,1444,1444,1395,1369,1358,1329,1287,1278,1257,1214,1228,1173,1150,1004,1030,942,785,746,692,671,651,660,655,586,586,590,606,599,593,600,613,601,597,616,608,616,616,616,616,594,594,606,605,600,598,600,601,599,599,599,0,0,0,0,0,0,0,0,0,0,0,0,0,0,0,0,0,0,0,0,0,0,0,0,0,0,0,0,0,0,0,0,0,0,0,0,0,0,0,0,0,0,0,0,0,0,0,0,0,0,0,0,0,0,0,0,0,0,0,0,0,0,0,0,0 ]);
