n = 10;
D = [112,220,193,69,192,208,156,278,219,254 ];
q = 0;
prec = array2d(1..0,1..2,[]);
steps = 64;
l = 360;
r = 0;
which = [];
interval = array2d(1..0,1..2,[]);
T = array3d(1..11,1..11,0..64,[0,0,0,0,0,0,0,0,0,0,0,0,0,0,0,0,0,0,0,0,0,0,0,0,0,0,0,0,0,0,0,0,0,0,0,0,0,0,0,0,0,0,0,0,0,0,0,0,0,0,0,0,0,0,0,0,0,0,0,0,0,0,0,0,0,856,845,837,853,897,980,1150,1280,1324,1402,1400,1339,1317,1312,1336,1306,1300,1204,1202,1165,1143,1117,1099,1092,1056,1093,1012,1019,969,947,925,904,882,872,848,844,953,849,854,867,866,877,874,869,879,899,871,874,870,875,871,871,870,883,884,878,878,871,869,877,876,897,888,899,886,930,938,943,951,1011,1122,1314,1450,1489,1508,1504,1496,1475,1450,1426,1402,1378,1353,1323,1305,1278,1256,1230,1206,1181,1157,1133,1097,1085,1063,1036,1013,988,966,953,949,942,955,955,952,960,985,981,984,957,993,962,965,973,984,982,1004,1004,1017,1000,1003,976,984,973,991,997,1003,986,1008,988,1220,1197,1229,1227,1372,1483,1709,1804,1896,1950,1967,1979,1881,1838,1787,1753,1761,1694,1704,1686,1605,1573,1582,1544,1529,1481,1450,1384,1407,1337,1293,1262,1250,1211,1219,1217,1227,1227,1269,1274,1227,1236,1274,1259,1258,1266,1256,1261,1332,1266,1288,1298,1313,1294,1279,1290,1299,1323,1355,1276,1277,1294,1353,1291,1264,1302,1320,1287,1383,1437,1630,1873,2058,2011,2091,2082,2063,2002,1956,1956,1875,1858,1820,1788,1778,1727,1668,1657,1604,1608,1554,1561,1553,1450,1472,1411,1363,1315,1307,1328,1312,1323,1333,1367,1381,1333,1344,1372,1359,1364,1375,1369,1375,1422,1374,1384,1399,1397,1392,1380,1404,1410,1413,1444,1391,1394,1404,1443,1387,1379,1420,1394,1464,1451,1616,1871,2004,2132,2196,2265,2241,2176,2190,2067,2104,1992,2033,1994,2055,1893,1897,1809,1778,1750,1719,1687,1681,1618,1554,1586,1490,1490,1435,1450,1411,1436,1425,1443,1511,1496,1520,1517,1522,1556,1514,1517,1533,1544,1570,1542,1559,1557,1556,1542,1526,1542,1516,1551,1511,1532,1539,1548,1522,1533,1560,813,800,803,818,895,931,1053,1222,1241,1344,1320,1351,1265,1257,1218,1222,1218,1174,1186,1098,1117,1111,1053,1069,1091,1026,991,950,962,959,938,886,877,898,842,875,849,814,844,829,835,853,816,870,833,841,844,846,864,861,858,836,859,879,915,839,839,877,840,867,848,833,863,869,845,1236,1212,1245,1276,1429,1579,1778,1871,1962,2015,2061,1988,1972,1892,1846,1812,1818,1777,1803,1708,1657,1625,1632,1563,1600,1528,1518,1429,1424,1379,1334,1303,1291,1251,1260,1278,1267,1268,1322,1303,1309,1305,1338,1380,1326,1346,1351,1383,1365,1390,1395,1386,1353,1395,1356,1348,1357,1357,1375,1450,1428,1452,1429,1395,1411,1766,1719,1810,2021,2488,2984,3086,3166,3211,3238,3262,3156,3107,3048,2948,2913,2827,2830,2693,2684,2602,2493,2429,2360,2335,2310,2203,2094,2021,1959,1927,1826,1757,1706,1713,1711,1730,1754,2011,2006,2009,2019,2025,2046,2052,2056,2038,2054,2075,2060,2073,2080,2071,2102,2081,2050,2064,2073,2064,2083,2078,2062,2081,2125,2090,360,346,347,348,349,371,419,468,516,561,572,589,584,545,536,527,518,509,500,491,482,495,463,454,445,436,427,418,409,417,409,382,389,364,370,366,367,352,350,346,354,360,357,354,348,350,358,363,368,356,358,384,400,385,381,368,354,362,354,355,348,362,357,368,351,0,0,0,0,0,0,0,0,0,0,0,0,0,0,0,0,0,0,0,0,0,0,0,0,0,0,0,0,0,0,0,0,0,0,0,0,0,0,0,0,0,0,0,0,0,0,0,0,0,0,0,0,0,0,0,0,0,0,0,0,0,0,0,0,0,918,919,924,1003,989,1147,1268,1434,1512,1496,1542,1522,1448,1424,1400,1432,1353,1331,1305,1278,1300,1283,1299,1188,1201,1138,1114,1127,1066,1042,1016,994,968,946,933,978,964,987,958,940,943,945,977,990,973,965,963,981,1008,985,990,980,988,996,1027,981,990,1001,1003,1008,989,992,1019,1059,1005,0,0,0,0,0,0,0,0,0,0,0,0,0,0,0,0,0,0,0,0,0,0,0,0,0,0,0,0,0,0,0,0,0,0,0,0,0,0,0,0,0,0,0,0,0,0,0,0,0,0,0,0,0,0,0,0,0,0,0,0,0,0,0,0,0,183,183,184,184,185,190,215,239,263,287,301,297,292,287,283,278,273,268,264,259,254,250,245,240,236,231,226,222,217,212,208,203,198,194,189,185,186,186,177,170,170,171,192,184,175,173,175,173,187,188,203,186,197,179,200,180,185,201,218,189,186,192,202,213,184,650,625,672,675,697,710,857,955,1045,1063,1087,1070,1091,1136,1067,978,1034,915,951,934,956,951,883,866,849,849,811,795,766,837,751,730,699,680,722,627,662,704,669,674,677,694,690,682,678,687,680,699,692,695,760,767,794,738,712,693,693,698,697,687,692,700,690,709,689,478,508,480,478,507,527,593,663,735,782,787,777,764,752,739,727,714,698,689,676,664,648,635,623,614,598,585,573,564,551,535,526,514,497,489,485,482,487,485,479,477,480,479,486,483,488,483,481,485,479,480,483,483,485,487,488,483,485,490,490,483,495,485,494,487,616,615,619,621,647,692,775,870,954,1011,1001,1051,966,951,939,923,922,892,876,855,859,830,828,798,780,767,751,736,717,704,689,673,658,642,629,625,640,628,618,630,621,652,626,649,623,652,632,640,639,634,646,637,654,660,653,654,649,651,657,647,656,661,659,672,668,308,309,310,311,312,327,369,410,452,493,507,499,491,483,475,467,459,456,443,436,428,420,412,404,396,388,380,372,365,357,349,341,330,323,317,312,313,314,302,304,295,304,303,303,312,320,301,300,303,316,310,300,302,305,307,303,304,307,299,302,297,303,305,300,293,689,684,712,715,742,762,917,1023,1114,1091,1154,1166,1117,1192,1122,1039,1094,973,1036,990,1011,1005,936,918,899,898,860,842,812,876,795,793,741,720,762,667,677,745,713,726,724,736,752,738,736,745,724,735,730,728,726,745,746,755,838,801,744,739,744,733,724,730,746,738,722,1355,1316,1330,1406,1567,1853,2049,2194,2271,2323,2291,2384,2221,2166,2130,2029,2101,1951,1959,1876,1907,1798,1747,1709,1681,1639,1629,1600,1522,1484,1489,1419,1370,1346,1380,1337,1343,1373,1399,1430,1429,1432,1452,1430,1440,1471,1437,1434,1460,1420,1449,1447,1459,1465,1627,1577,1487,1451,1456,1447,1438,1452,1468,1521,1447,893,829,831,835,876,1065,1120,1281,1436,1349,1348,1390,1306,1387,1263,1300,1220,1203,1177,1155,1187,1165,1184,1070,1137,1027,1005,1021,994,941,919,898,874,853,842,903,882,884,855,896,854,851,878,866,864,879,871,885,899,871,874,881,890,897,888,907,886,892,906,882,904,906,927,896,884,918,919,924,1003,989,1147,1268,1434,1512,1496,1542,1522,1448,1424,1400,1432,1353,1331,1305,1278,1300,1283,1299,1188,1201,1138,1114,1127,1066,1042,1016,994,968,946,933,978,964,987,958,940,943,945,977,990,973,965,963,981,1008,985,990,980,988,996,1027,981,990,1001,1003,1008,989,992,1019,1059,1005,803,806,806,812,850,993,1063,1191,1277,1315,1412,1354,1273,1312,1233,1215,1169,1168,1144,1165,1105,1084,1100,1042,1021,1000,979,958,917,916,895,934,886,863,852,829,817,833,828,825,831,863,851,856,860,835,841,855,840,844,844,846,847,851,853,853,853,853,852,847,861,851,853,863,848,150,151,151,151,152,156,176,197,217,238,252,248,244,240,236,232,228,224,220,216,212,208,204,200,196,192,188,184,180,176,172,168,164,160,156,152,153,153,144,141,142,143,149,142,144,143,144,146,144,151,157,148,146,150,150,143,142,146,159,163,165,169,169,152,150,0,0,0,0,0,0,0,0,0,0,0,0,0,0,0,0,0,0,0,0,0,0,0,0,0,0,0,0,0,0,0,0,0,0,0,0,0,0,0,0,0,0,0,0,0,0,0,0,0,0,0,0,0,0,0,0,0,0,0,0,0,0,0,0,0,754,734,801,744,772,854,961,1114,1152,1182,1253,1202,1166,1147,1144,1134,1126,1065,1046,1057,1076,1030,985,921,977,941,896,877,870,831,839,813,780,782,746,751,745,758,751,748,769,764,761,782,767,783,782,772,804,776,776,783,781,793,770,769,776,782,774,778,775,782,762,782,787,599,587,565,567,568,630,747,834,954,1012,936,984,924,903,918,872,862,846,858,798,783,800,754,797,740,750,694,730,661,673,640,631,627,634,623,630,578,624,598,605,605,614,622,618,629,615,603,619,610,602,611,615,614,608,640,625,601,601,607,606,600,610,616,616,602,756,760,765,767,796,879,1007,1102,1193,1246,1259,1240,1239,1221,1155,1135,1131,1094,1075,1059,1040,1015,999,978,962,943,924,903,885,863,856,824,817,788,772,769,773,775,775,772,782,797,797,787,781,783,790,794,823,804,794,816,823,810,860,824,792,802,787,787,779,799,800,798,782,194,194,195,195,196,201,226,251,276,301,317,312,307,302,303,298,288,283,278,273,268,263,258,254,249,244,239,234,229,225,220,215,210,205,200,196,197,197,182,186,186,192,190,192,187,198,185,196,193,211,188,192,196,200,193,193,194,200,195,192,192,194,187,188,186,793,774,841,784,918,908,1023,1185,1253,1249,1319,1267,1230,1210,1206,1159,1185,1123,1103,1106,1098,1083,1062,973,997,960,944,924,916,1024,882,856,842,842,787,811,785,819,793,790,808,822,802,817,799,816,797,825,810,798,806,806,820,835,820,814,815,804,814,815,816,820,800,817,808,1476,1497,1516,1551,1801,2088,2210,2310,2379,2412,2376,2335,2301,2266,2254,2166,2218,2088,2044,2033,2010,1917,1883,1846,1798,1796,1715,1671,1704,1596,1606,1565,1475,1451,1478,1441,1496,1517,1540,1547,1570,1586,1560,1580,1562,1580,1563,1593,1586,1574,1571,1588,1596,1616,1600,1602,1575,1580,1598,1602,1600,1596,1575,1608,1598,711,739,716,757,742,836,926,1034,1123,1163,1251,1210,1129,1171,1097,1078,1055,1036,1018,1107,981,962,995,925,906,888,915,851,861,814,795,811,792,772,787,761,724,740,733,743,753,769,753,761,749,767,745,756,748,744,745,756,758,762,760,760,749,753,762,754,746,746,747,760,747,803,806,806,812,850,993,1063,1191,1277,1315,1412,1354,1273,1312,1233,1215,1169,1168,1144,1165,1105,1084,1100,1042,1021,1000,979,958,917,916,895,934,886,863,852,829,817,833,828,825,831,863,851,856,860,835,841,855,840,844,844,846,847,851,853,853,853,853,852,847,861,851,853,863,848,1114,1116,1112,1153,1236,1425,1538,1644,1808,1752,1831,1739,1701,1682,1686,1682,1616,1588,1561,1580,1536,1476,1478,1399,1403,1359,1315,1287,1259,1231,1252,1174,1147,1124,1151,1148,1132,1154,1161,1152,1147,1162,1151,1187,1156,1164,1189,1243,1167,1185,1185,1189,1182,1185,1205,1181,1172,1179,1180,1190,1185,1189,1189,1199,1180,565,567,570,563,572,626,710,793,874,918,923,908,893,878,864,849,834,819,805,790,775,760,746,742,716,702,687,672,657,643,628,613,598,584,578,567,568,570,562,564,570,577,563,569,565,570,571,575,572,569,571,560,582,590,583,575,583,580,577,577,583,577,569,578,573,746,748,752,745,776,855,972,1081,1169,1211,1213,1189,1168,1151,1130,1111,1092,1074,1055,1035,1016,1001,977,973,939,920,901,882,863,847,827,805,787,770,760,750,752,756,776,753,777,759,759,767,813,775,753,763,786,781,772,769,770,782,764,781,768,771,767,762,761,766,770,790,772,0,0,0,0,0,0,0,0,0,0,0,0,0,0,0,0,0,0,0,0,0,0,0,0,0,0,0,0,0,0,0,0,0,0,0,0,0,0,0,0,0,0,0,0,0,0,0,0,0,0,0,0,0,0,0,0,0,0,0,0,0,0,0,0,0,801,806,796,807,864,955,1064,1192,1280,1317,1326,1306,1277,1248,1236,1207,1186,1168,1147,1126,1108,1084,1047,1051,1015,1009,1066,943,961,915,881,874,848,829,818,810,813,820,837,817,829,827,824,828,869,853,822,816,837,838,831,821,822,833,824,831,825,835,822,825,816,828,832,837,815,757,760,749,764,817,858,998,1102,1168,1229,1224,1219,1184,1171,1161,1124,1094,1075,1056,1038,1044,1000,1002,961,963,921,905,886,882,869,843,810,791,799,769,755,755,755,766,770,767,781,781,775,786,793,764,781,778,768,778,785,783,776,807,794,771,770,782,772,763,776,781,781,769,818,812,792,800,863,947,1038,1186,1313,1296,1306,1326,1277,1269,1277,1206,1182,1169,1140,1123,1147,1112,1077,1070,1035,995,975,964,920,929,931,859,839,833,838,814,818,820,816,815,818,830,816,827,823,829,835,820,832,820,828,824,827,832,829,833,825,832,827,831,830,844,829,837,830,157,158,158,159,159,163,185,207,229,251,265,260,256,252,248,243,239,235,231,227,222,218,214,210,205,201,197,193,188,184,180,176,171,167,163,159,160,160,152,150,150,150,159,159,151,158,152,154,156,158,156,157,161,167,164,165,155,161,158,163,165,164,167,172,165,990,993,989,1000,1099,1250,1455,1625,1709,1743,1731,1700,1669,1638,1611,1562,1707,1500,1460,1448,1425,1391,1360,1329,1280,1262,1321,1205,1221,1185,1112,1077,1050,1023,1008,990,1002,1007,1057,1057,1046,1133,1113,1101,1077,1078,1091,1135,1087,1121,1135,1106,1063,1092,1089,1101,1110,1072,1115,1176,1135,1138,1147,1100,1096,1281,1283,1345,1367,1476,1667,1824,1997,2070,2034,2080,2017,2013,1978,1922,1914,1854,1823,1790,1795,1744,1678,1646,1647,1592,1560,1548,1549,1429,1429,1413,1349,1313,1356,1319,1287,1302,1322,1343,1399,1346,1369,1375,1367,1371,1395,1374,1382,1387,1365,1390,1380,1392,1392,1397,1397,1394,1391,1434,1378,1394,1403,1421,1405,1392,1114,1116,1112,1153,1236,1425,1538,1644,1808,1752,1831,1739,1701,1682,1686,1682,1616,1588,1561,1580,1536,1476,1478,1399,1403,1359,1315,1287,1259,1231,1252,1174,1147,1124,1151,1148,1132,1154,1161,1152,1147,1162,1151,1187,1156,1164,1189,1243,1167,1185,1185,1189,1182,1185,1205,1181,1172,1179,1180,1190,1185,1189,1189,1199,1180,1275,1256,1335,1314,1420,1596,1776,1983,2007,2034,2070,2127,1942,1903,1877,1919,1790,1767,1749,1735,1738,1681,1653,1662,1573,1544,1490,1499,1426,1398,1364,1330,1301,1264,1273,1271,1267,1270,1310,1300,1309,1328,1302,1338,1317,1333,1333,1333,1360,1330,1338,1330,1332,1357,1374,1338,1337,1351,1335,1342,1346,1343,1353,1380,1353,417,470,420,422,423,456,517,578,652,700,694,683,672,661,650,638,628,630,606,595,595,584,561,561,543,531,517,506,495,484,473,461,449,439,428,423,424,426,417,417,420,425,425,424,429,422,423,429,432,425,437,438,437,429,441,432,427,424,425,430,424,429,427,431,425,591,551,547,555,555,613,695,775,863,953,905,891,876,862,927,833,819,819,790,776,767,759,733,731,708,694,676,661,647,641,618,612,590,575,562,558,560,561,559,563,561,576,577,579,575,579,565,572,584,600,588,599,596,583,585,586,591,606,594,571,590,583,568,572,570,855,841,869,900,906,1015,1186,1257,1345,1455,1449,1373,1340,1363,1318,1351,1262,1251,1218,1225,1196,1162,1145,1145,1108,1108,1030,1024,981,1048,949,938,931,918,889,873,876,853,885,879,868,879,928,981,894,899,908,922,905,913,913,907,904,912,922,915,932,905,900,957,924,934,945,912,913,0,0,0,0,0,0,0,0,0,0,0,0,0,0,0,0,0,0,0,0,0,0,0,0,0,0,0,0,0,0,0,0,0,0,0,0,0,0,0,0,0,0,0,0,0,0,0,0,0,0,0,0,0,0,0,0,0,0,0,0,0,0,0,0,0,454,455,456,457,459,521,550,609,668,715,724,713,702,674,680,657,663,632,637,626,616,605,594,583,572,561,551,543,529,518,495,496,486,463,464,513,461,462,464,465,470,483,465,478,469,479,479,467,479,465,470,469,470,477,469,472,470,478,471,471,470,481,470,478,471,708,728,712,708,724,811,865,1060,1111,1167,1164,1182,1110,1086,1074,1045,1047,1041,1006,927,971,984,920,954,904,897,879,833,827,849,779,758,716,699,722,718,709,679,713,716,713,721,723,729,720,735,718,726,714,723,714,738,731,730,724,736,726,724,732,749,726,736,713,728,720,895,901,909,917,955,1072,1213,1327,1413,1522,1588,1468,1403,1388,1379,1410,1321,1308,1274,1273,1250,1215,1197,1253,1128,1156,1077,1070,1027,1065,992,979,946,958,929,913,916,894,934,922,927,919,952,989,935,952,957,975,966,976,968,975,960,981,952,954,963,957,951,1001,975,986,968,971,992,1017,1020,1038,1043,1090,1266,1414,1550,1641,1692,1684,1653,1711,1599,1565,1552,1539,1499,1473,1446,1420,1393,1357,1341,1314,1351,1224,1235,1196,1182,1174,1116,1066,1066,1051,1047,1035,1053,1061,1061,1074,1115,1098,1098,1093,1070,1082,1103,1103,1082,1110,1119,1138,1120,1116,1099,1083,1089,1084,1085,1076,1093,1078,1121,1068,1293,1250,1238,1366,1426,1560,1696,1922,2009,1998,2024,2031,1901,1941,1890,1832,1784,1765,1718,1628,1689,1689,1630,1598,1584,1545,1523,1472,1407,1414,1393,1299,1346,1295,1248,1246,1238,1209,1318,1292,1309,1367,1328,1341,1328,1313,1320,1334,1330,1314,1320,1352,1382,1375,1350,1332,1313,1329,1314,1309,1306,1338,1321,1348,1309,1275,1256,1335,1314,1420,1596,1776,1983,2007,2034,2070,2127,1942,1903,1877,1919,1790,1767,1749,1735,1738,1681,1653,1662,1573,1544,1490,1499,1426,1398,1364,1330,1301,1264,1273,1271,1267,1270,1310,1300,1309,1328,1302,1338,1317,1333,1333,1333,1360,1330,1338,1330,1332,1357,1374,1338,1337,1351,1335,1342,1346,1343,1353,1380,1353,1455,1390,1456,1448,1773,1775,2021,2289,2169,2191,2271,2181,2123,2069,2034,2000,2004,2071,1970,1969,1862,1813,1842,1785,1761,1652,1647,1581,1569,1513,1477,1465,1459,1459,1501,1413,1364,1432,1483,1488,1482,1525,1498,1489,1493,1505,1495,1520,1512,1513,1509,1503,1495,1497,1502,1513,1501,1503,1493,1496,1499,1531,1540,1535,1521,628,598,595,594,602,661,757,842,928,973,972,995,942,943,915,901,886,870,848,833,868,851,822,769,764,780,724,711,692,677,664,646,631,617,604,598,599,603,585,584,593,613,587,598,590,602,586,596,595,590,587,590,596,606,598,598,592,588,595,593,594,599,585,602,592,755,724,753,755,762,832,942,1046,1146,1185,1181,1193,1139,1143,1110,1087,1079,1057,1031,1022,993,999,992,937,917,946,884,862,877,854,805,825,771,749,741,760,762,764,778,756,760,754,763,764,812,806,768,804,791,764,767,822,824,824,820,830,821,845,820,807,800,782,763,760,754,735,733,727,726,762,867,956,1061,1160,1193,1259,1180,1161,1142,1155,1104,1146,1074,1047,1065,1052,1016,1025,952,941,900,918,902,856,860,846,818,788,749,785,767,785,754,787,781,745,746,770,763,762,763,771,781,820,772,781,790,807,790,771,792,793,808,839,805,793,786,830,772,779,368,377,346,402,348,371,420,470,559,564,574,565,594,546,537,528,519,510,500,491,482,473,464,454,445,436,427,418,463,399,390,381,372,415,404,349,350,351,340,341,349,361,345,349,346,349,355,347,351,347,349,351,349,353,351,354,354,355,353,354,357,379,377,381,377,0,0,0,0,0,0,0,0,0,0,0,0,0,0,0,0,0,0,0,0,0,0,0,0,0,0,0,0,0,0,0,0,0,0,0,0,0,0,0,0,0,0,0,0,0,0,0,0,0,0,0,0,0,0,0,0,0,0,0,0,0,0,0,0,0,916,879,880,913,922,975,1167,1385,1383,1416,1412,1443,1368,1374,1327,1342,1290,1267,1233,1211,1226,1228,1229,1120,1105,1117,1108,1034,1009,987,1005,942,963,904,910,882,905,852,902,891,902,922,906,907,902,912,914,915,923,904,917,945,967,948,942,925,904,928,912,905,899,934,915,935,907,774,773,767,766,809,888,1018,1131,1228,1260,1325,1245,1225,1205,1180,1164,1205,1132,1104,1121,1106,1070,1045,1003,991,949,989,949,902,877,889,860,849,789,825,782,800,815,800,792,807,821,812,815,806,824,816,824,820,812,821,847,868,852,841,832,806,820,809,810,802,822,817,832,805,910,921,913,908,966,1113,1229,1327,1442,1474,1419,1454,1383,1399,1381,1388,1333,1308,1262,1268,1222,1212,1180,1142,1158,1102,1114,1092,1039,1016,1020,971,947,925,934,932,923,937,913,907,915,929,944,916,907,916,912,958,939,932,936,1060,957,960,1070,947,945,939,952,952,953,955,951,957,955,1437,1401,1422,1574,1636,1826,2080,2276,2219,2275,2219,2295,2195,2197,2229,2082,2058,2025,1973,1901,1902,1889,1877,1758,1730,1780,1705,1648,1617,1547,1590,1516,1488,1429,1437,1450,1483,1456,1517,1566,1527,1535,1545,1533,1549,1552,1554,1551,1573,1539,1551,1549,1563,1574,1573,1590,1575,1567,1581,1545,1577,1585,1602,1575,1567,1455,1390,1456,1448,1773,1775,2021,2289,2169,2191,2271,2181,2123,2069,2034,2000,2004,2071,1970,1969,1862,1813,1842,1785,1761,1652,1647,1581,1569,1513,1477,1465,1459,1459,1501,1413,1364,1432,1483,1488,1482,1525,1498,1489,1493,1505,1495,1520,1512,1513,1509,1503,1495,1497,1502,1513,1501,1503,1493,1496,1499,1531,1540,1535,1521,651,624,626,626,639,702,796,892,1074,1019,1025,1055,990,976,960,943,927,908,894,878,862,843,829,790,794,778,763,745,796,714,698,682,665,649,617,631,615,635,617,622,626,660,629,638,619,629,625,615,633,631,672,686,683,645,628,639,639,646,645,634,637,647,621,633,631,490,491,503,504,498,541,613,685,757,805,812,799,786,773,760,766,734,721,708,713,682,669,657,644,631,618,620,607,579,566,611,540,527,514,501,497,498,500,507,498,506,525,514,504,509,515,516,508,513,509,516,509,516,509,504,511,506,514,509,509,508,510,504,503,500,470,471,447,448,450,516,583,613,676,767,734,763,710,738,726,676,664,652,641,665,618,606,594,583,571,560,548,536,525,513,530,490,505,493,481,477,478,479,475,455,456,456,506,480,469,464,467,471,507,496,501,498,508,480,518,487,491,511,526,501,481,488,522,519,488,883,886,879,896,944,1038,1289,1313,1452,1449,1431,1423,1401,1365,1348,1369,1311,1289,1256,1277,1221,1199,1176,1154,1172,1097,1115,1064,1041,993,996,953,934,913,963,896,899,915,919,912,919,912,925,954,916,929,938,947,937,930,930,936,935,930,934,932,922,938,919,939,935,932,920,938,947,954,911,954,939,1037,1087,1268,1378,1466,1478,1580,1468,1459,1404,1376,1387,1408,1369,1307,1284,1292,1280,1192,1186,1145,1119,1138,1107,1083,1028,1032,996,968,936,955,927,935,927,950,953,950,958,962,955,953,970,946,958,952,951,955,971,966,963,967,961,958,959,971,977,952,958,960,965,957,1033,1053,1083,1110,1194,1276,1450,1620,1687,1751,1721,1691,1614,1623,1610,1565,1529,1474,1453,1459,1469,1378,1369,1380,1394,1318,1263,1233,1205,1183,1194,1144,1103,1120,1051,1070,1102,1066,1101,1097,1103,1101,1134,1177,1120,1146,1143,1154,1167,1162,1149,1158,1142,1168,1136,1133,1150,1137,1131,1170,1152,1170,1145,1160,1160,0,0,0,0,0,0,0,0,0,0,0,0,0,0,0,0,0,0,0,0,0,0,0,0,0,0,0,0,0,0,0,0,0,0,0,0,0,0,0,0,0,0,0,0,0,0,0,0,0,0,0,0,0,0,0,0,0,0,0,0,0,0,0,0,0,923,945,938,939,1018,1095,1357,1382,1512,1515,1496,1488,1464,1427,1437,1393,1370,1346,1312,1299,1275,1277,1228,1204,1222,1146,1134,1110,1086,1037,1039,995,975,953,1003,956,939,955,960,963,975,1005,983,974,975,983,984,982,1051,1023,1007,1039,1078,1058,1062,998,983,1001,1007,986,967,991,994,980,963,1611,1699,1685,1879,2093,2315,2619,2635,2707,2941,2728,2640,2617,2522,2511,2454,2441,2401,2293,2277,2180,2221,2133,2187,2043,1975,2112,1881,1888,1808,1809,1797,1717,1764,1660,1660,1728,1674,1884,1881,1879,1903,1955,1941,1925,1942,1916,1940,1960,1948,1950,1948,1969,1984,2114,2029,1968,1978,1970,1964,1949,1947,1989,1993,1968,530,532,534,535,541,590,668,784,823,868,874,860,847,833,819,805,848,777,763,750,736,722,708,694,680,697,683,684,654,682,597,583,569,555,543,564,565,581,547,550,552,567,545,562,559,567,564,564,564,553,560,552,556,560,557,557,562,557,561,552,556,562,557,567,565,651,624,626,626,639,702,796,892,1074,1019,1025,1055,990,976,960,943,927,908,894,878,862,843,829,790,794,778,763,745,796,714,698,682,665,649,617,631,615,635,617,622,626,660,629,638,619,629,625,615,633,631,672,686,683,645,628,639,639,646,645,634,637,647,621,633,631,1168,1198,1161,1200,1292,1452,1634,1790,1920,1874,1925,1868,1877,1786,1748,1715,1684,1666,1626,1577,1566,1562,1532,1477,1494,1433,1370,1358,1328,1341,1268,1254,1209,1227,1180,1212,1175,1218,1250,1228,1220,1234,1242,1281,1297,1302,1256,1326,1260,1243,1243,1289,1292,1287,1290,1312,1296,1317,1285,1274,1274,1260,1239,1242,1225,620,622,624,635,641,704,797,891,977,1019,1023,1021,991,988,958,942,925,909,905,876,860,844,827,822,795,778,772,745,729,722,696,680,664,647,634,630,632,633,625,633,626,644,633,639,633,655,634,631,639,633,634,636,634,637,637,638,634,641,640,641,629,644,633,640,630,801,804,806,821,847,937,1065,1185,1271,1308,1308,1301,1266,1259,1223,1204,1183,1162,1153,1124,1104,1079,1062,1048,1017,999,985,954,934,922,892,870,852,833,819,813,815,817,816,828,817,825,830,841,835,843,824,836,828,836,830,823,818,827,830,833,821,828,820,824,817,831,830,823,809,174,175,175,176,176,181,204,228,251,275,290,286,281,277,272,267,263,258,254,249,245,240,235,231,226,222,217,213,208,203,199,194,190,185,181,177,177,178,162,163,163,163,163,163,165,164,165,165,164,165,165,166,165,166,167,169,166,166,166,169,171,170,167,167,167,865,863,866,872,923,1024,1166,1291,1375,1416,1415,1392,1382,1343,1356,1299,1279,1256,1260,1211,1195,1173,1142,1129,1107,1071,1052,1024,1007,988,974,948,916,892,904,878,879,883,889,897,894,911,914,912,920,917,897,916,912,897,907,915,915,906,940,929,902,902,908,907,899,912,916,917,904,826,822,807,835,921,936,1079,1224,1270,1334,1328,1307,1304,1241,1245,1241,1203,1160,1170,1123,1124,1099,1082,1088,1017,1023,1013,959,938,938,917,876,875,849,833,819,840,843,845,838,836,851,840,837,863,900,858,859,864,839,851,861,898,902,914,843,850,867,884,875,854,862,845,851,841,883,886,890,875,938,996,1145,1289,1374,1410,1449,1419,1391,1369,1299,1284,1262,1240,1253,1187,1174,1152,1148,1100,1082,1074,1028,1016,997,1028,966,925,923,896,907,879,879,919,892,909,905,896,891,904,929,916,900,909,952,897,912,899,913,916,928,931,923,915,946,913,900,901,894,940,881,0,0,0,0,0,0,0,0,0,0,0,0,0,0,0,0,0,0,0,0,0,0,0,0,0,0,0,0,0,0,0,0,0,0,0,0,0,0,0,0,0,0,0,0,0,0,0,0,0,0,0,0,0,0,0,0,0,0,0,0,0,0,0,0,0,1098,1144,1204,1182,1306,1421,1651,1810,1888,1969,1896,1862,1828,1856,1757,1728,1694,1660,1627,1662,1561,1526,1494,1512,1422,1385,1358,1327,1291,1257,1218,1185,1157,1129,1119,1110,1123,1128,1147,1145,1158,1177,1169,1168,1161,1180,1167,1176,1173,1166,1173,1204,1226,1210,1192,1184,1165,1176,1173,1165,1158,1182,1169,1187,1160,1376,1361,1416,1429,1556,1762,1918,2069,2217,2238,2175,2116,2106,2022,1982,1954,1920,1886,1898,1799,1781,1827,1735,1683,1690,1655,1576,1548,1514,1516,1459,1438,1398,1393,1348,1390,1352,1386,1394,1380,1404,1417,1429,1434,1444,1457,1428,1442,1463,1447,1472,1473,1445,1460,1495,1495,1464,1488,1504,1493,1495,1506,1501,1501,1518,1168,1198,1161,1200,1292,1452,1634,1790,1920,1874,1925,1868,1877,1786,1748,1715,1684,1666,1626,1577,1566,1562,1532,1477,1494,1433,1370,1358,1328,1341,1268,1254,1209,1227,1180,1212,1175,1218,1250,1228,1220,1234,1242,1281,1297,1302,1256,1326,1260,1243,1243,1289,1292,1287,1290,1312,1296,1317,1285,1274,1274,1260,1239,1242,1225,1601,1606,1655,1826,2210,2737,2893,3051,3116,3115,3092,3063,2963,2864,2804,2769,2675,2633,2551,2504,2419,2362,2298,2254,2170,2124,2061,1977,1913,1867,1785,1718,1688,1644,1632,1635,1659,1749,1853,1861,1815,1820,1861,1843,1858,1858,1858,1861,1919,1861,1873,1882,1893,1903,1873,1909,1908,1908,1942,1887,1882,1891,1945,1877,1869,1301,1326,1317,1464,1554,1745,1993,2158,2253,2204,2193,2146,2172,2138,2045,2015,1957,1961,1923,1911,1840,1768,1730,1692,1654,1626,1586,1578,1527,1514,1471,1396,1420,1361,1313,1322,1342,1362,1382,1389,1399,1425,1409,1414,1401,1414,1396,1397,1411,1403,1435,1450,1436,1419,1415,1427,1422,1435,1434,1411,1434,1434,1419,1419,1414,1448,1422,1521,1557,1714,1994,2210,2341,2501,2453,2387,2392,2360,2331,2240,2193,2205,2130,2110,2063,2058,1991,1952,1907,1868,1797,1755,1737,1758,1615,1570,1554,1487,1544,1496,1477,1492,1462,1555,1568,1583,1600,1594,1594,1586,1618,1583,1586,1624,1570,1587,1590,1604,1624,1778,1717,1620,1600,1597,1594,1582,1577,1589,1656,1578,979,1017,1025,999,1127,1245,1443,1763,1713,1744,1754,1675,1644,1614,1600,1554,1523,1509,1533,1433,1501,1412,1342,1312,1302,1251,1221,1190,1187,1154,1100,1069,1064,1029,996,1022,1000,1005,1009,1008,1027,1047,1016,1038,1016,1030,1019,1034,1046,1037,1029,1040,1044,1057,1044,1047,1030,1043,1049,1047,1047,1047,1032,1062,1058,1028,1000,979,994,1083,1159,1401,1451,1674,1718,1589,1564,1538,1560,1487,1545,1436,1411,1419,1432,1335,1309,1284,1258,1263,1207,1235,1157,1131,1106,1114,1088,1029,1007,991,988,990,993,985,982,1000,1016,997,1011,992,1013,993,1022,1007,996,1005,1006,1020,1035,1021,1015,1017,1007,1017,1020,1021,1026,1006,1026,1015,901,904,951,912,957,1059,1186,1351,1412,1486,1445,1422,1399,1377,1380,1354,1339,1286,1262,1240,1241,1196,1172,1149,1129,1107,1105,1103,1040,1018,996,986,958,1000,971,925,921,918,921,931,932,960,955,943,943,963,942,948,942,946,940,945,940,952,967,955,963,955,950,955,952,999,981,985,981,1560,1613,1640,1755,1973,2168,2433,2578,2647,2676,2624,2555,2561,2515,2476,2442,2334,2376,2266,2227,2191,2113,2087,2024,1984,1943,1900,1866,1869,1799,1720,1683,1659,1649,1597,1570,1650,1651,1794,1800,1786,1855,1804,1830,1811,1846,1850,1900,1825,1866,1854,1859,1840,1907,1871,1817,1819,1811,1854,1891,1865,1897,1873,1879,1855,1019,1057,1088,1043,1206,1336,1513,1839,1785,1875,1957,1768,1707,1704,1747,1613,1581,1550,1614,1487,1534,1515,1393,1362,1395,1299,1268,1236,1205,1211,1142,1131,1079,1092,1036,1045,1041,1046,1075,1077,1075,1088,1080,1080,1076,1083,1083,1085,1077,1091,1087,1087,1087,1085,1085,1089,1091,1093,1085,1089,1093,1123,1127,1123,1122,0,0,0,0,0,0,0,0,0,0,0,0,0,0,0,0,0,0,0,0,0,0,0,0,0,0,0,0,0,0,0,0,0,0,0,0,0,0,0,0,0,0,0,0,0,0,0,0,0,0,0,0,0,0,0,0,0,0,0,0,0,0,0,0,0,1644,1598,1700,1834,2133,2667,2813,3034,3046,3034,3020,2921,2940,2876,2787,2748,2692,2595,2504,2491,2371,2372,2260,2230,2155,2098,2089,1975,1996,1833,1801,1724,1736,1633,1616,1622,1639,1662,1813,1817,1817,1824,1835,1853,1884,1885,1830,1873,1871,1846,1843,1894,1904,1931,1901,1928,1892,1917,1917,1886,1878,1855,1863,1865,1851,1601,1606,1655,1826,2210,2737,2893,3051,3116,3115,3092,3063,2963,2864,2804,2769,2675,2633,2551,2504,2419,2362,2298,2254,2170,2124,2061,1977,1913,1867,1785,1718,1688,1644,1632,1635,1659,1749,1853,1861,1815,1820,1861,1843,1858,1858,1858,1861,1919,1861,1873,1882,1893,1903,1873,1909,1908,1908,1942,1887,1882,1891,1945,1877,1869,405,406,407,409,410,438,494,550,606,654,664,653,643,633,622,612,602,591,581,571,560,550,540,529,519,509,498,488,478,467,457,447,436,426,416,411,412,413,393,394,395,395,397,396,401,401,401,401,402,403,404,406,406,408,407,407,410,409,409,409,412,414,415,415,415,874,877,899,886,934,1040,1260,1352,1428,1462,1549,1434,1382,1374,1336,1341,1291,1272,1245,1200,1200,1216,1219,1171,1171,1147,1100,1154,1017,1050,1005,968,926,934,891,887,890,892,912,911,909,958,947,922,930,946,928,954,988,944,948,944,939,942,936,938,929,929,924,921,919,934,930,935,905,819,821,810,813,879,960,1068,1266,1279,1316,1314,1311,1272,1266,1231,1210,1189,1205,1147,1136,1137,1084,1093,1073,1041,1014,1007,991,938,917,921,895,886,841,844,817,819,833,837,831,837,836,838,832,837,843,840,843,835,841,845,858,851,852,847,852,847,846,844,863,852,855,840,846,848,1281,1293,1323,1376,1486,1678,1893,2021,2078,2089,2079,2053,2026,1986,1970,1916,1888,1859,1842,1789,1750,1720,1693,1717,1616,1647,1547,1514,1516,1448,1459,1400,1351,1385,1324,1310,1368,1352,1404,1375,1378,1421,1369,1398,1470,1497,1487,1409,1395,1375,1391,1396,1433,1441,1496,1426,1434,1436,1426,1430,1444,1407,1378,1398,1378,1311,1317,1349,1409,1545,1715,1915,2061,2075,2165,2053,2015,2025,1997,1956,1943,1934,1879,1831,1793,1782,1720,1741,1660,1668,1584,1593,1522,1518,1444,1438,1420,1353,1321,1311,1318,1342,1358,1419,1382,1388,1419,1390,1419,1390,1433,1427,1415,1419,1405,1415,1406,1438,1424,1417,1411,1434,1415,1405,1404,1420,1419,1409,1417,1403,1502,1502,1562,1603,1760,1949,2266,2284,2361,2406,2366,2328,2287,2249,2240,2143,2135,2074,2058,2004,1982,1989,1971,1885,1812,1823,1794,1699,1684,1679,1625,1618,1543,1515,1513,1507,1499,1570,1610,1624,1643,1655,1633,1667,1643,1652,1631,1657,1665,1644,1648,1657,1662,1677,1666,1677,1644,1665,1697,1664,1656,1636,1650,1679,1655,707,732,669,684,735,841,980,994,1045,1086,1109,1071,1074,1115,1039,1002,1045,1030,1008,968,1004,899,909,881,863,846,828,811,826,808,758,791,777,718,745,675,690,692,710,713,708,721,722,720,716,735,708,717,716,723,713,725,725,723,718,722,722,721,732,735,713,723,715,721,717,1321,1333,1390,1427,1545,1747,1972,2116,2143,2153,2142,2145,2108,2046,2037,1974,1945,1914,1918,1842,1802,1772,1744,1739,1664,1694,1592,1580,1533,1491,1493,1415,1391,1409,1365,1351,1397,1412,1448,1455,1405,1414,1444,1436,1440,1451,1445,1453,1502,1449,1461,1472,1474,1478,1451,1480,1493,1491,1525,1476,1470,1478,1528,1461,1466,1706,1640,1710,1893,2258,2579,2879,3002,3073,3063,3226,2937,2903,2814,2800,2691,2649,2615,2512,2446,2403,2341,2262,2218,2156,2078,2017,1971,1894,1833,1772,1713,1682,1638,1633,1677,1788,1719,1873,1885,1902,1919,1918,1912,1902,1938,1903,1918,1943,1912,1930,1933,1947,1960,2103,2053,1948,1940,1942,1934,1928,1918,1931,1983,1937,0,0,0,0,0,0,0,0,0,0,0,0,0,0,0,0,0,0,0,0,0,0,0,0,0,0,0,0,0,0,0,0,0,0,0,0,0,0,0,0,0,0,0,0,0,0,0,0,0,0,0,0,0,0,0,0,0,0,0,0,0,0,0,0,0,405,406,407,409,410,438,494,550,606,654,664,653,643,633,622,612,602,591,581,571,560,550,540,529,519,509,498,488,478,467,457,447,436,426,416,411,412,413,393,394,395,395,397,396,401,401,401,401,402,403,404,406,406,408,407,407,410,409,409,409,412,414,415,415,415,0,0,0,0,0,0,0,0,0,0,0,0,0,0,0,0,0,0,0,0,0,0,0,0,0,0,0,0,0,0,0,0,0,0,0,0,0,0,0,0,0,0,0,0,0,0,0,0,0,0,0,0,0,0,0,0,0,0,0,0,0,0,0,0,0,856,845,837,853,897,980,1150,1280,1324,1402,1400,1339,1317,1312,1336,1306,1300,1204,1202,1165,1143,1117,1099,1092,1056,1093,1012,1019,969,947,925,904,882,872,848,844,953,849,854,867,866,877,874,869,879,899,871,874,870,875,871,871,870,883,884,878,878,871,869,877,876,897,888,899,886,930,938,943,951,1011,1122,1314,1450,1489,1508,1504,1496,1475,1450,1426,1402,1378,1353,1323,1305,1278,1256,1230,1206,1181,1157,1133,1097,1085,1063,1036,1013,988,966,953,949,942,955,955,952,960,985,981,984,957,993,962,965,973,984,982,1004,1004,1017,1000,1003,976,984,973,991,997,1003,986,1008,988,1220,1197,1229,1227,1372,1483,1709,1804,1896,1950,1967,1979,1881,1838,1787,1753,1761,1694,1704,1686,1605,1573,1582,1544,1529,1481,1450,1384,1407,1337,1293,1262,1250,1211,1219,1217,1227,1227,1269,1274,1227,1236,1274,1259,1258,1266,1256,1261,1332,1266,1288,1298,1313,1294,1279,1290,1299,1323,1355,1276,1277,1294,1353,1291,1264,1302,1320,1287,1383,1437,1630,1873,2058,2011,2091,2082,2063,2002,1956,1956,1875,1858,1820,1788,1778,1727,1668,1657,1604,1608,1554,1561,1553,1450,1472,1411,1363,1315,1307,1328,1312,1323,1333,1367,1381,1333,1344,1372,1359,1364,1375,1369,1375,1422,1374,1384,1399,1397,1392,1380,1404,1410,1413,1444,1391,1394,1404,1443,1387,1379,1420,1394,1464,1451,1616,1871,2004,2132,2196,2265,2241,2176,2190,2067,2104,1992,2033,1994,2055,1893,1897,1809,1778,1750,1719,1687,1681,1618,1554,1586,1490,1490,1435,1450,1411,1436,1425,1443,1511,1496,1520,1517,1522,1556,1514,1517,1533,1544,1570,1542,1559,1557,1556,1542,1526,1542,1516,1551,1511,1532,1539,1548,1522,1533,1560,813,800,803,818,895,931,1053,1222,1241,1344,1320,1351,1265,1257,1218,1222,1218,1174,1186,1098,1117,1111,1053,1069,1091,1026,991,950,962,959,938,886,877,898,842,875,849,814,844,829,835,853,816,870,833,841,844,846,864,861,858,836,859,879,915,839,839,877,840,867,848,833,863,869,845,1236,1212,1245,1276,1429,1579,1778,1871,1962,2015,2061,1988,1972,1892,1846,1812,1818,1777,1803,1708,1657,1625,1632,1563,1600,1528,1518,1429,1424,1379,1334,1303,1291,1251,1260,1278,1267,1268,1322,1303,1309,1305,1338,1380,1326,1346,1351,1383,1365,1390,1395,1386,1353,1395,1356,1348,1357,1357,1375,1450,1428,1452,1429,1395,1411,1766,1719,1810,2021,2488,2984,3086,3166,3211,3238,3262,3156,3107,3048,2948,2913,2827,2830,2693,2684,2602,2493,2429,2360,2335,2310,2203,2094,2021,1959,1927,1826,1757,1706,1713,1711,1730,1754,2011,2006,2009,2019,2025,2046,2052,2056,2038,2054,2075,2060,2073,2080,2071,2102,2081,2050,2064,2073,2064,2083,2078,2062,2081,2125,2090,360,346,347,348,349,371,419,468,516,561,572,589,584,545,536,527,518,509,500,491,482,495,463,454,445,436,427,418,409,417,409,382,389,364,370,366,367,352,350,346,354,360,357,354,348,350,358,363,368,356,358,384,400,385,381,368,354,362,354,355,348,362,357,368,351,0,0,0,0,0,0,0,0,0,0,0,0,0,0,0,0,0,0,0,0,0,0,0,0,0,0,0,0,0,0,0,0,0,0,0,0,0,0,0,0,0,0,0,0,0,0,0,0,0,0,0,0,0,0,0,0,0,0,0,0,0,0,0,0,0 ]);
