n = 10;
D = [137,105,114,175,127,216,174,135,77,124 ];
q = 0;
prec = array2d(1..0,1..2,[]);
steps = 64;
l = 360;
r = 0;
which = [];
interval = array2d(1..0,1..2,[]);
T = array3d(1..11,1..11,0..64,[0,0,0,0,0,0,0,0,0,0,0,0,0,0,0,0,0,0,0,0,0,0,0,0,0,0,0,0,0,0,0,0,0,0,0,0,0,0,0,0,0,0,0,0,0,0,0,0,0,0,0,0,0,0,0,0,0,0,0,0,0,0,0,0,0,670,673,675,677,734,769,872,974,1097,1103,1105,1087,1069,1052,1060,1002,1020,1016,989,967,1035,1009,892,875,857,828,822,804,786,758,751,736,716,698,684,681,695,684,675,678,675,676,710,748,691,682,686,693,687,685,687,687,685,689,692,690,685,685,683,695,700,708,717,691,689,1115,1108,1142,1178,1222,1367,1549,1697,1772,1801,1814,1806,1741,1719,1748,1655,1590,1562,1724,1618,1519,1498,1455,1442,1429,1376,1337,1304,1300,1268,1236,1197,1184,1176,1140,1146,1132,1162,1168,1162,1185,1189,1198,1234,1191,1208,1206,1211,1236,1210,1212,1228,1228,1233,1208,1203,1206,1221,1206,1207,1212,1230,1208,1225,1223,564,588,569,574,578,628,717,772,838,881,888,876,864,852,856,824,801,803,791,779,767,759,742,745,718,694,689,675,661,634,633,623,605,591,578,574,576,596,575,570,583,596,598,603,592,575,588,605,598,588,606,621,639,618,618,596,578,592,580,587,578,592,591,603,576,446,447,448,450,452,489,561,620,694,733,741,730,726,706,694,682,670,658,654,642,623,611,599,594,575,563,551,540,534,522,504,492,480,468,457,458,454,455,448,448,452,456,456,463,460,470,469,457,468,457,455,460,458,468,455,455,461,463,458,458,458,463,452,464,457,598,600,601,616,615,675,765,854,939,983,988,991,956,940,924,909,893,877,861,845,830,814,798,798,767,751,750,719,703,688,685,656,640,624,611,607,608,610,624,624,600,603,626,637,630,649,619,644,640,677,664,670,644,717,637,611,629,629,667,691,677,713,683,679,659,532,522,535,537,531,580,657,747,810,874,861,847,834,820,824,778,782,782,751,737,739,710,696,696,669,643,651,627,614,601,586,562,559,545,532,528,541,543,529,522,529,530,549,560,546,561,553,564,575,542,556,540,540,560,545,540,553,542,532,547,549,563,550,569,553,390,391,392,393,394,418,467,515,563,604,615,606,597,588,579,570,561,552,543,534,525,516,507,531,489,480,471,462,453,444,435,426,417,408,399,395,396,397,386,386,385,392,448,425,408,433,411,454,424,423,423,395,401,419,408,396,432,406,394,422,414,445,422,420,409,1129,1106,1091,1109,1233,1336,1538,1689,1741,1783,1757,1745,1691,1667,1685,1600,1581,1585,1547,1552,1490,1494,1425,1441,1370,1329,1288,1294,1233,1231,1194,1159,1138,1108,1103,1115,1109,1105,1146,1142,1139,1141,1174,1222,1160,1188,1185,1203,1206,1211,1204,1207,1182,1219,1179,1177,1191,1180,1184,1241,1211,1236,1207,1212,1214,432,433,434,435,454,496,576,668,759,826,831,815,825,783,767,751,735,718,692,686,670,654,638,622,605,589,573,557,541,557,509,492,476,460,444,467,442,445,477,433,434,434,452,450,453,439,441,453,486,455,470,471,476,473,454,454,463,490,502,490,457,456,501,458,457,0,0,0,0,0,0,0,0,0,0,0,0,0,0,0,0,0,0,0,0,0,0,0,0,0,0,0,0,0,0,0,0,0,0,0,0,0,0,0,0,0,0,0,0,0,0,0,0,0,0,0,0,0,0,0,0,0,0,0,0,0,0,0,0,0,699,701,704,706,731,812,924,1036,1126,1165,1222,1146,1127,1108,1089,1070,1051,1032,1013,994,975,956,937,918,899,879,860,841,822,803,784,765,746,727,713,744,713,715,715,724,718,728,731,729,730,741,718,729,722,723,725,737,737,731,735,739,728,730,739,729,722,723,732,738,725,0,0,0,0,0,0,0,0,0,0,0,0,0,0,0,0,0,0,0,0,0,0,0,0,0,0,0,0,0,0,0,0,0,0,0,0,0,0,0,0,0,0,0,0,0,0,0,0,0,0,0,0,0,0,0,0,0,0,0,0,0,0,0,0,0,665,667,671,672,688,758,884,958,1050,1127,1094,1105,1078,1038,1044,1031,996,948,945,937,922,878,904,881,864,834,813,811,762,778,742,727,722,693,678,677,677,697,663,651,655,663,680,648,653,656,659,679,683,678,674,799,678,664,797,683,675,683,685,683,682,677,695,693,700,342,343,344,345,346,363,405,447,490,525,533,531,526,518,510,502,494,486,478,470,462,455,447,439,431,423,415,407,399,391,383,375,367,359,352,347,348,349,341,345,345,350,351,349,357,350,343,355,348,346,351,354,350,351,372,358,350,351,350,345,353,351,349,353,345,535,532,538,540,547,592,678,758,836,882,886,872,850,844,830,808,801,787,773,742,744,730,710,702,688,668,659,645,625,617,597,588,574,560,547,543,545,541,538,539,540,550,539,546,538,555,559,540,548,536,539,546,541,548,542,547,542,559,548,556,545,555,541,554,550,731,733,735,738,765,847,960,1073,1182,1201,1200,1201,1181,1143,1142,1104,1110,1229,1047,1028,1008,989,970,951,947,912,893,874,855,836,830,797,778,771,745,742,744,746,751,766,748,752,769,782,772,781,760,775,768,772,764,758,756,764,764,768,759,761,755,756,751,764,763,758,741,384,384,380,386,386,390,425,430,450,468,475,471,481,464,460,456,452,470,444,440,448,451,446,452,437,425,427,432,417,416,402,403,393,397,392,387,381,388,369,373,373,377,383,387,392,384,377,381,381,388,379,393,384,399,385,379,385,379,383,386,384,380,374,376,376,465,468,469,498,502,523,587,658,716,758,773,763,750,735,721,713,703,692,681,663,652,639,628,617,617,606,582,570,558,547,535,523,512,490,478,474,475,476,471,464,476,487,480,479,471,472,480,488,491,478,484,517,537,516,513,493,475,490,476,480,469,491,485,495,475,401,402,403,404,406,436,494,552,611,658,667,656,645,635,626,613,603,592,581,571,560,550,539,528,518,507,496,486,475,464,454,443,433,422,411,407,408,409,397,403,410,419,417,423,406,423,402,431,411,411,409,414,425,439,420,414,419,409,419,420,415,419,400,409,402,951,953,973,967,1093,1214,1408,1620,1699,1679,1667,1637,1607,1577,1547,1517,1488,1448,1418,1388,1368,1338,1308,1278,1248,1218,1188,1182,1128,1098,1068,1091,1030,980,962,1002,974,979,1007,991,1000,999,1023,1063,1014,1030,1030,1035,1070,1038,1037,1044,1040,1057,1016,1024,1035,1039,1031,1046,1030,1043,1038,1034,1037,699,701,704,706,731,812,924,1036,1126,1165,1222,1146,1127,1108,1089,1070,1051,1032,1013,994,975,956,937,918,899,879,860,841,822,803,784,765,746,727,713,744,713,715,715,724,718,728,731,729,730,741,718,729,722,723,725,737,737,731,735,739,728,730,739,729,722,723,732,738,725,976,1028,982,1000,1067,1185,1359,1494,1575,1621,1593,1630,1550,1520,1537,1468,1460,1453,1393,1373,1442,1320,1292,1263,1278,1211,1218,1157,1447,1111,1081,1063,1031,1006,998,991,992,993,1017,1014,1024,1045,1029,1017,1029,1038,1027,1032,1054,1055,1095,1111,1104,1078,1046,1031,1031,1049,1034,1017,1029,1039,1037,1047,1039,605,606,607,619,629,695,778,868,957,1003,1009,997,979,961,933,918,912,899,871,864,848,835,806,790,777,760,732,735,717,702,678,668,648,636,624,620,616,643,614,623,617,640,626,630,625,644,626,642,628,622,636,630,636,639,640,634,646,634,637,624,632,644,637,642,642,0,0,0,0,0,0,0,0,0,0,0,0,0,0,0,0,0,0,0,0,0,0,0,0,0,0,0,0,0,0,0,0,0,0,0,0,0,0,0,0,0,0,0,0,0,0,0,0,0,0,0,0,0,0,0,0,0,0,0,0,0,0,0,0,0,689,720,693,734,712,803,877,975,1110,1130,1107,1184,1073,1131,1039,1022,1070,988,1008,954,937,920,903,923,869,852,835,818,801,823,767,750,756,716,793,787,701,703,721,728,722,760,735,722,732,745,729,746,749,740,740,729,721,726,732,739,724,728,720,724,717,725,729,728,710,631,633,635,637,652,737,799,909,996,1098,1099,1177,1008,991,959,958,991,936,936,978,926,858,841,825,795,816,775,758,741,713,740,688,675,689,672,640,642,668,630,631,634,638,637,639,638,640,639,649,646,646,647,648,653,659,655,655,657,657,659,662,664,667,663,664,664,947,950,943,958,1076,1165,1418,1426,1516,1632,1544,1617,1493,1468,1436,1434,1448,1368,1378,1351,1302,1256,1247,1221,1171,1167,1136,1118,1086,1057,1078,1009,995,1013,1012,952,968,986,1007,986,981,988,1046,1095,1016,1012,1032,1055,1019,1073,1106,1069,1017,1060,1054,1040,1051,1032,1095,1207,1167,1182,1182,1093,1095,825,833,808,847,844,982,1077,1193,1341,1346,1319,1485,1279,1278,1238,1218,1216,1177,1152,1152,1094,1085,1060,1090,1036,990,975,978,937,973,895,868,871,833,890,841,818,814,850,843,838,845,855,848,852,845,852,850,850,846,860,856,859,852,850,856,855,859,848,863,859,862,848,847,846,755,762,765,792,800,870,1005,1128,1210,1229,1251,1220,1246,1191,1168,1148,1132,1108,1088,1068,1048,1028,1008,988,971,948,914,908,888,855,835,816,832,789,777,772,761,776,778,769,783,772,778,792,776,783,792,791,797,791,792,798,795,801,799,795,786,800,791,805,802,816,812,828,840,501,470,471,473,492,517,606,677,793,770,777,765,804,790,777,715,751,712,678,745,653,684,628,616,604,591,579,566,591,542,529,533,504,492,513,491,477,478,477,475,481,498,488,484,486,492,485,486,487,487,490,504,514,508,500,490,485,499,491,485,485,504,488,501,486,1209,1242,1262,1304,1412,1657,1895,1990,2056,2120,2081,2088,1975,2000,1922,1877,1883,1816,1796,1765,1748,1711,1656,1589,1572,1539,1480,1444,1742,1379,1372,1349,1265,1262,1279,1233,1238,1259,1310,1313,1315,1319,1338,1337,1356,1357,1330,1353,1359,1346,1352,1366,1356,1374,1346,1345,1356,1333,1327,1355,1341,1350,1340,1373,1338,976,1028,982,1000,1067,1185,1359,1494,1575,1621,1593,1630,1550,1520,1537,1468,1460,1453,1393,1373,1442,1320,1292,1263,1278,1211,1218,1157,1447,1111,1081,1063,1031,1006,998,991,992,993,1017,1014,1024,1045,1029,1017,1029,1038,1027,1032,1054,1055,1095,1111,1104,1078,1046,1031,1031,1049,1034,1017,1029,1039,1037,1047,1039,502,504,505,507,533,556,631,699,770,804,833,795,795,782,759,747,735,723,735,699,720,680,667,654,641,628,640,603,590,577,580,556,552,532,514,521,532,512,523,501,507,510,506,521,514,527,523,514,526,510,515,514,513,521,518,517,518,521,516,514,515,519,517,525,521,230,231,232,232,233,243,274,305,336,367,380,374,368,362,356,350,344,338,332,326,320,314,309,303,297,291,285,279,273,267,261,255,249,243,237,234,234,235,220,222,223,224,222,224,225,224,223,224,224,223,224,236,225,226,224,224,225,225,225,226,226,225,225,225,226,760,762,756,743,787,871,984,1120,1185,1246,1222,1203,1183,1183,1158,1126,1137,1087,1068,1061,1029,1010,1000,983,963,958,914,895,875,856,837,804,781,779,766,746,785,780,789,777,785,782,782,778,804,790,770,767,785,779,771,781,778,778,771,785,781,782,789,785,771,785,777,782,775,0,0,0,0,0,0,0,0,0,0,0,0,0,0,0,0,0,0,0,0,0,0,0,0,0,0,0,0,0,0,0,0,0,0,0,0,0,0,0,0,0,0,0,0,0,0,0,0,0,0,0,0,0,0,0,0,0,0,0,0,0,0,0,0,0,464,461,467,468,472,512,579,646,712,759,765,753,741,729,717,697,692,680,661,656,637,632,620,602,590,578,571,559,547,535,571,511,499,487,475,471,472,469,479,469,464,468,480,483,480,485,484,506,490,519,536,521,492,519,503,481,486,498,533,569,567,588,580,544,524,660,662,664,666,684,754,853,952,1039,1080,1081,1064,1047,1029,1012,995,978,978,944,927,910,892,891,858,841,824,807,790,772,755,752,721,704,687,673,670,672,673,675,668,666,669,678,686,674,679,680,720,675,671,677,677,674,674,683,682,676,679,671,683,677,680,678,682,677,186,187,187,188,188,195,219,244,315,334,347,342,295,291,330,325,321,317,312,308,304,253,248,244,239,234,230,225,220,216,211,206,201,231,192,189,189,190,181,186,184,186,188,188,186,193,182,189,184,184,186,189,192,193,190,187,186,184,193,195,185,187,185,187,185,238,239,239,240,234,248,265,283,301,318,328,324,320,316,311,309,305,302,298,295,291,288,284,281,277,274,270,267,263,244,239,253,249,226,221,219,235,241,217,215,212,239,222,225,211,216,219,228,230,224,231,219,222,223,251,220,216,226,216,223,217,211,228,218,211,657,634,658,660,665,747,845,913,1028,1059,1069,1053,1001,1020,1003,986,943,952,913,918,884,873,867,849,833,812,779,780,766,744,717,712,698,666,648,680,651,662,657,667,675,686,677,662,679,679,682,663,723,708,669,687,729,732,745,694,682,687,699,678,671,683,690,674,661,765,795,761,771,813,936,1091,1243,1345,1368,1406,1334,1322,1286,1263,1239,1239,1192,1171,1136,1121,1096,1071,1046,1041,995,970,945,920,895,870,862,866,795,779,778,812,816,791,785,797,804,805,816,802,820,798,824,814,798,805,800,802,813,808,807,812,798,802,808,805,810,805,828,808,502,504,505,507,533,556,631,699,770,804,833,795,795,782,759,747,735,723,735,699,720,680,667,654,641,628,640,603,590,577,580,556,552,532,514,521,532,512,523,501,507,510,506,521,514,527,523,514,526,510,515,514,513,521,518,517,518,521,516,514,515,519,517,525,521,473,475,476,477,481,564,588,657,725,773,780,768,816,743,731,718,706,694,681,669,657,644,683,620,607,639,583,570,558,589,533,521,509,496,521,480,482,483,480,481,481,480,487,486,493,486,490,486,486,487,487,491,492,491,490,501,496,509,499,486,510,485,495,491,484,494,496,497,529,505,549,624,673,766,817,818,807,794,779,745,753,742,726,694,702,687,678,644,650,664,626,612,597,582,571,558,545,531,518,513,502,503,505,491,495,494,508,498,500,498,509,503,495,502,504,503,501,501,507,504,506,502,508,501,506,506,519,521,522,515,654,656,658,695,676,761,901,961,1049,1070,1151,1119,1058,1083,1065,987,1029,953,936,934,919,885,846,922,834,806,800,798,733,749,700,729,740,681,667,664,666,667,666,668,683,672,657,664,670,677,678,682,708,679,669,664,678,675,687,690,705,684,699,682,694,678,692,689,669,508,510,511,492,508,529,630,640,687,733,743,733,755,745,705,751,686,698,686,705,663,651,672,615,647,634,621,581,569,557,545,534,522,510,499,494,496,518,490,492,491,500,563,540,518,545,522,567,536,536,536,504,510,533,517,503,549,514,502,536,526,560,533,527,518,0,0,0,0,0,0,0,0,0,0,0,0,0,0,0,0,0,0,0,0,0,0,0,0,0,0,0,0,0,0,0,0,0,0,0,0,0,0,0,0,0,0,0,0,0,0,0,0,0,0,0,0,0,0,0,0,0,0,0,0,0,0,0,0,0,396,397,398,399,401,430,487,545,611,659,659,649,638,630,617,606,596,588,575,572,554,543,540,522,519,508,490,480,469,461,450,440,429,417,412,407,408,404,389,389,397,411,396,401,388,399,393,391,395,395,393,397,400,406,401,404,395,400,400,402,404,404,403,409,404,570,563,565,537,566,594,714,752,906,976,988,971,961,934,889,844,830,799,876,789,845,726,750,697,721,706,691,641,627,613,599,585,571,557,565,540,541,573,547,541,554,568,569,575,563,546,561,576,571,564,582,593,613,592,591,568,549,564,554,560,552,564,562,575,547,437,439,440,442,444,480,544,610,673,717,766,716,703,693,719,670,659,647,635,623,614,600,588,615,558,558,541,536,525,514,503,492,481,460,440,444,445,447,432,434,433,444,438,452,435,439,449,442,437,439,435,440,439,434,441,445,442,438,439,440,447,454,449,456,447,822,828,829,839,882,992,1101,1229,1323,1363,1298,1334,1318,1291,1257,1253,1230,1156,1180,1155,1144,1121,1067,1050,1053,1032,1043,978,966,936,928,908,879,853,865,826,828,842,869,837,832,847,821,852,832,845,845,886,858,844,845,840,868,854,879,839,844,860,845,852,854,850,847,874,847,658,659,654,663,683,784,919,1054,1166,1236,1194,1183,1160,1127,1105,1093,1071,1048,1026,1003,981,958,936,913,891,868,846,857,801,778,748,734,711,689,671,669,673,677,669,677,679,702,692,682,684,698,680,693,698,706,747,740,763,738,693,689,700,694,700,685,697,703,691,700,693,473,475,476,477,481,564,588,657,725,773,780,768,816,743,731,718,706,694,681,669,657,644,683,620,607,639,583,570,558,589,533,521,509,496,521,480,482,483,480,481,481,480,487,486,493,486,490,486,486,487,487,491,492,491,490,501,496,509,499,486,510,485,495,491,484,572,574,576,578,586,641,725,809,891,936,941,926,941,896,912,867,852,837,822,807,792,777,762,747,733,718,703,688,673,658,643,628,613,598,585,581,583,584,575,570,563,572,576,602,572,579,592,585,575,580,570,578,580,568,580,584,582,580,577,579,590,595,590,596,586,736,738,790,743,810,853,967,1080,1167,1249,1207,1258,1168,1149,1130,1182,1091,1072,1053,1034,1015,995,976,956,938,918,899,880,909,841,822,803,784,764,785,775,749,751,770,759,758,762,763,776,761,770,764,761,767,760,766,764,768,777,776,770,763,771,770,783,770,781,771,781,775,999,1012,1046,1032,1162,1257,1417,1534,1606,1638,1631,1605,1593,1554,1508,1502,1496,1450,1426,1398,1409,1358,1347,1306,1294,1254,1217,1192,1166,1140,1136,1088,1083,1040,1042,1014,1010,1023,1040,1044,1038,1090,1030,1084,1044,1075,1062,1072,1089,1053,1069,1053,1066,1083,1097,1062,1062,1072,1070,1062,1062,1065,1067,1103,1076,729,710,734,732,729,871,896,994,1102,1112,1144,1101,1085,1079,1079,1039,1023,1057,992,995,978,961,930,927,928,895,868,859,819,807,789,791,774,736,722,712,777,722,724,732,735,732,749,733,748,753,743,737,743,737,739,744,762,771,789,785,756,747,756,747,744,745,748,754,740,343,344,345,346,347,369,418,468,517,561,573,564,554,545,536,527,518,509,499,490,481,479,469,453,444,435,426,417,408,398,389,380,371,362,353,348,349,350,330,332,337,347,334,334,333,337,339,333,335,337,337,338,337,340,340,341,339,342,339,342,345,355,355,357,355,0,0,0,0,0,0,0,0,0,0,0,0,0,0,0,0,0,0,0,0,0,0,0,0,0,0,0,0,0,0,0,0,0,0,0,0,0,0,0,0,0,0,0,0,0,0,0,0,0,0,0,0,0,0,0,0,0,0,0,0,0,0,0,0,0,761,764,766,784,795,952,1044,1168,1211,1316,1249,1306,1312,1338,1169,1149,1164,1144,1125,1069,1049,1029,1009,989,1010,949,929,909,883,870,850,830,810,790,776,776,832,786,775,817,776,777,794,781,787,793,792,807,809,786,799,792,800,798,805,810,804,807,835,794,808,812,828,805,800,635,609,611,613,626,695,779,881,965,999,1003,1028,979,972,939,931,915,890,874,858,842,826,810,794,778,762,753,736,720,704,688,672,650,634,620,616,672,620,642,619,640,633,624,624,659,640,624,618,640,632,632,632,631,628,619,631,629,636,633,621,624,632,633,628,625,1149,1139,1208,1164,1323,1420,1622,1762,1818,1864,1880,1822,1799,1675,1716,1684,1656,1586,1606,1590,1561,1513,1449,1476,1444,1414,1392,1323,1294,1277,1293,1261,1169,1181,1199,1130,1150,1158,1213,1188,1200,1200,1187,1208,1204,1211,1207,1219,1237,1218,1220,1219,1214,1226,1221,1218,1213,1222,1241,1218,1228,1220,1221,1246,1241,757,788,780,763,804,923,1077,1217,1332,1367,1407,1337,1312,1287,1262,1237,1212,1210,1152,1176,1112,1087,1062,1094,1012,987,962,937,912,887,862,837,812,788,772,770,797,772,777,792,792,795,805,805,805,807,793,798,795,791,795,806,812,817,810,822,802,810,818,802,797,791,807,812,792,572,574,576,578,586,641,725,809,891,936,941,926,941,896,912,867,852,837,822,807,792,777,762,747,733,718,703,688,673,658,643,628,613,598,585,581,583,584,575,570,563,572,576,602,572,579,592,585,575,580,570,578,580,568,580,584,582,580,577,579,590,595,590,596,586,473,474,476,477,480,521,589,657,725,772,779,767,780,742,755,718,705,693,681,668,656,644,631,619,607,594,582,570,557,586,533,521,508,496,520,480,481,482,470,468,470,472,473,472,473,473,475,475,476,476,479,480,480,480,480,483,483,483,483,488,485,485,487,486,486,242,242,243,244,245,256,290,324,359,393,405,399,392,386,379,373,366,360,353,347,340,334,327,321,314,308,302,295,289,282,276,269,263,256,250,245,246,247,234,235,234,241,241,239,240,240,236,236,238,240,233,235,238,241,235,238,240,238,239,239,239,243,234,239,236,798,827,829,833,859,969,1102,1210,1333,1327,1325,1304,1313,1318,1240,1216,1199,1195,1160,1171,1128,1107,1062,1056,1022,1004,1001,979,972,929,915,882,857,839,828,835,837,841,837,827,844,897,863,870,858,839,851,868,861,851,853,886,915,907,881,860,845,858,844,843,839,860,852,873,838,138,138,138,139,139,141,155,169,182,205,212,211,209,207,196,193,190,188,185,182,179,177,174,171,169,166,163,160,158,155,152,150,147,144,142,139,140,140,127,129,125,127,128,129,131,136,129,127,131,133,132,127,128,129,129,128,129,129,126,127,126,128,129,127,124,587,606,608,610,610,663,745,844,916,968,971,955,967,924,909,893,966,862,846,831,839,800,841,769,829,738,722,707,711,675,679,658,629,613,600,596,598,599,594,596,599,611,610,613,611,625,611,610,618,615,616,622,628,630,615,607,615,621,617,608,608,623,608,618,603,783,803,805,809,894,917,1039,1164,1248,1286,1284,1263,1269,1222,1201,1181,1185,1140,1119,1099,1102,1058,1037,1017,1018,976,955,935,934,894,892,871,832,812,798,795,797,799,785,792,804,824,810,810,804,823,798,830,815,823,846,835,863,867,821,818,832,829,828,816,833,850,817,824,816,0,0,0,0,0,0,0,0,0,0,0,0,0,0,0,0,0,0,0,0,0,0,0,0,0,0,0,0,0,0,0,0,0,0,0,0,0,0,0,0,0,0,0,0,0,0,0,0,0,0,0,0,0,0,0,0,0,0,0,0,0,0,0,0,0,219,220,221,221,222,231,262,293,324,355,368,362,357,351,345,339,333,327,321,315,309,303,298,292,286,280,274,268,262,256,250,244,239,233,227,223,223,224,211,213,212,217,217,222,213,225,213,215,215,212,213,220,218,217,216,217,218,218,225,228,215,222,213,217,217,653,651,669,659,670,743,855,966,1005,1027,1025,1012,1018,986,973,1008,947,948,923,938,931,873,862,875,816,815,816,797,781,759,749,733,692,723,668,674,659,661,659,668,672,689,745,718,683,729,682,775,713,746,716,686,715,749,714,692,743,709,695,724,718,759,712,706,693,746,748,750,752,792,906,1054,1201,1331,1364,1320,1333,1308,1259,1248,1211,1187,1162,1138,1137,1081,1088,1042,1018,994,969,945,921,897,873,841,825,800,805,761,759,780,797,763,778,775,793,860,835,804,852,804,881,827,859,831,800,825,864,829,805,853,821,809,840,832,868,831,827,814,473,474,476,477,480,521,589,657,725,772,779,767,780,742,755,718,705,693,681,668,656,644,631,619,607,594,582,570,557,586,533,521,508,496,520,480,481,482,470,468,470,472,473,472,473,473,475,475,476,476,479,480,480,480,480,483,483,483,483,488,485,485,487,486,486,346,347,348,349,351,417,421,469,518,562,631,563,554,545,536,527,518,509,500,491,482,473,464,455,446,437,428,419,410,401,392,383,374,365,356,352,352,353,342,340,340,351,341,342,341,347,339,347,346,343,346,345,346,343,345,348,350,349,348,341,347,349,347,348,349,399,400,401,402,404,435,493,551,609,639,645,636,628,619,611,611,601,590,579,569,560,551,537,526,515,505,494,484,473,462,452,441,430,430,409,405,406,407,399,395,401,407,401,400,401,404,403,402,403,401,408,416,422,414,407,403,402,410,407,403,401,412,404,409,404,778,785,795,777,826,913,1013,1131,1244,1258,1270,1237,1217,1228,1209,1158,1138,1130,1110,1078,1058,1038,1018,1016,978,983,938,952,912,878,858,838,818,798,785,794,783,800,771,775,786,801,789,792,783,795,783,810,789,786,805,801,822,836,810,802,807,807,808,809,815,832,804,810,801,222,222,244,223,224,231,258,294,291,305,316,313,311,308,305,302,300,297,294,292,289,286,290,285,294,287,283,279,275,270,266,244,239,234,249,225,225,226,222,209,216,224,204,218,211,224,215,227,246,226,209,215,222,219,217,218,232,218,223,231,218,217,256,215,207,497,483,500,497,501,534,599,652,748,819,769,769,768,776,750,730,709,698,686,674,662,650,624,626,622,609,572,583,590,557,555,542,519,494,494,478,495,488,486,501,483,493,496,494,506,515,488,490,493,498,493,487,491,494,495,493,494,492,492,495,486,500,492,502,486,644,636,648,650,674,752,846,889,988,1068,1015,1047,1034,1002,999,1027,932,916,900,884,868,853,823,821,792,772,755,784,765,750,722,706,706,697,678,654,650,647,661,655,662,705,680,692,683,655,663,677,663,668,657,661,698,737,662,661,671,656,661,661,664,662,657,671,654,275,275,276,277,278,292,331,370,446,524,552,561,555,549,463,487,449,442,435,428,421,414,371,364,356,349,342,334,327,320,312,305,298,290,283,279,280,280,270,270,271,271,269,273,272,272,273,271,274,269,271,271,270,271,274,271,270,271,272,273,269,274,272,277,273,0,0,0,0,0,0,0,0,0,0,0,0,0,0,0,0,0,0,0,0,0,0,0,0,0,0,0,0,0,0,0,0,0,0,0,0,0,0,0,0,0,0,0,0,0,0,0,0,0,0,0,0,0,0,0,0,0,0,0,0,0,0,0,0,0,812,825,807,833,852,963,1091,1228,1287,1337,1300,1295,1292,1260,1260,1231,1221,1228,1151,1161,1129,1112,1095,1039,1045,1030,1001,978,934,917,916,876,851,859,822,836,838,819,817,824,836,860,844,840,835,856,830,861,851,861,906,892,923,907,851,848,864,860,859,847,866,881,848,854,848,612,614,623,653,638,783,855,979,1088,1134,1131,1136,1078,1058,1048,1027,1006,985,964,943,922,901,880,859,829,817,816,775,746,734,713,692,671,650,632,630,634,637,631,625,638,660,644,655,625,646,633,624,638,644,632,640,649,670,656,666,634,652,647,659,664,666,661,677,660,346,347,348,349,351,417,421,469,518,562,631,563,554,545,536,527,518,509,500,491,482,473,464,455,446,437,428,419,410,401,392,383,374,365,356,352,352,353,342,340,340,351,341,342,341,347,339,347,346,343,346,345,346,343,345,348,350,349,348,341,347,349,347,348,349,1051,1047,1050,1075,1155,1366,1473,1610,1699,1836,1715,1748,1652,1635,1627,1616,1556,1525,1492,1515,1506,1402,1374,1347,1319,1339,1301,1260,1279,1224,1184,1150,1102,1105,1099,1099,1064,1072,1114,1121,1112,1147,1129,1119,1128,1149,1118,1137,1136,1134,1130,1127,1116,1123,1129,1138,1123,1130,1122,1124,1116,1130,1124,1128,1107,419,420,421,428,424,457,519,580,640,702,697,687,674,663,652,650,639,618,607,622,602,574,563,551,540,529,525,507,498,486,487,464,451,440,429,426,427,427,422,422,422,422,427,425,432,425,430,425,425,426,426,429,430,430,430,440,433,444,435,425,444,424,435,430,423,523,525,526,538,533,580,676,733,808,878,861,848,850,821,827,793,780,766,752,739,725,711,698,684,671,657,643,871,616,602,589,575,562,548,535,531,606,544,544,549,542,555,553,562,550,565,553,555,548,548,549,559,557,553,555,555,554,550,563,564,552,557,550,557,552,661,670,664,692,708,742,833,925,1010,1175,1097,1032,1016,1008,1027,1008,951,932,947,903,876,880,864,848,832,844,799,804,797,752,759,711,744,726,674,700,661,687,680,685,684,701,726,702,698,721,700,725,720,731,891,850,893,751,707,693,724,708,695,699,712,716,705,708,702,850,882,885,906,942,1049,1189,1322,1355,1407,1458,1379,1383,1327,1365,1361,1314,1287,1210,1266,1200,1191,1160,1131,1114,1091,1068,1070,992,987,958,953,935,904,895,937,895,869,885,893,892,907,1005,977,945,982,931,1027,984,990,973,927,951,989,953,935,1003,952,939,984,968,1016,980,993,953,1075,1079,1082,1109,1190,1332,1509,1646,1795,1825,1750,1783,1686,1665,1696,1729,1591,1559,1526,1491,1560,1436,1408,1380,1352,1330,1296,1293,1246,1213,1233,1170,1134,1107,1094,1137,1095,1144,1134,1139,1189,1444,1189,1121,1174,1267,1205,1147,1245,1218,1166,1170,1250,1230,1218,1135,1153,1158,1198,1206,1136,1190,1158,1159,1168,617,619,621,623,662,710,786,887,964,1140,1062,998,979,968,991,986,922,906,913,876,872,845,817,835,785,808,753,769,789,705,712,672,679,670,626,668,624,691,646,649,646,655,656,653,656,670,642,660,651,649,654,662,662,655,662,659,653,654,664,656,646,652,652,657,649,818,813,814,848,868,959,1080,1208,1271,1405,1330,1403,1286,1333,1265,1271,1221,1191,1165,1136,1117,1101,1072,1066,1030,1013,994,991,958,923,934,881,864,863,826,868,825,832,825,824,841,856,836,852,832,853,831,860,844,831,840,840,854,870,854,848,850,838,850,851,850,853,835,853,843,0,0,0,0,0,0,0,0,0,0,0,0,0,0,0,0,0,0,0,0,0,0,0,0,0,0,0,0,0,0,0,0,0,0,0,0,0,0,0,0,0,0,0,0,0,0,0,0,0,0,0,0,0,0,0,0,0,0,0,0,0,0,0,0,0,1252,1255,1305,1311,1405,1575,1771,1938,1999,2166,2015,1982,1951,1918,1886,1857,1822,1813,1760,1725,1693,1661,1632,1598,1565,1533,1501,1470,1437,1404,1372,1340,1310,1287,1276,1270,1313,1278,1302,1328,1338,1344,1349,1333,1338,1371,1334,1334,1363,1318,1343,1338,1355,1360,1520,1470,1378,1343,1346,1338,1326,1323,1337,1391,1318,1051,1047,1050,1075,1155,1366,1473,1610,1699,1836,1715,1748,1652,1635,1627,1616,1556,1525,1492,1515,1506,1402,1374,1347,1319,1339,1301,1260,1279,1224,1184,1150,1102,1105,1099,1099,1064,1072,1114,1121,1112,1147,1129,1119,1128,1149,1118,1137,1136,1134,1130,1127,1116,1123,1129,1138,1123,1130,1122,1124,1116,1130,1124,1128,1107,506,507,508,509,514,580,680,780,938,932,936,918,901,883,866,848,831,813,796,778,761,743,726,708,691,673,656,638,621,603,586,568,551,533,517,514,517,520,539,526,530,525,531,526,598,599,526,567,561,531,521,586,595,610,608,614,598,618,602,575,557,542,527,525,524,1041,1012,1046,1044,1103,1309,1493,1656,1725,1790,1753,1765,1692,1661,1752,1639,1569,1525,1507,1477,1447,1451,1386,1380,1324,1293,1263,1260,1230,1171,1153,1142,1103,1076,1112,1058,1063,1068,1096,1089,1083,1098,1087,1122,1090,1099,1124,1176,1101,1121,1120,1123,1116,1120,1139,1115,1105,1112,1114,1124,1119,1122,1123,1134,1114,1407,1380,1397,1468,1603,1857,2084,2220,2326,2359,2307,2305,2253,2210,2154,2109,2075,2030,2020,1951,1911,1903,1879,1792,1753,1713,1676,1671,1594,1560,1517,1475,1440,1414,1421,1387,1413,1408,1509,1507,1480,1501,1497,1541,1506,1518,1536,1597,1518,1545,1541,1548,1528,1578,1544,1516,1512,1514,1514,1536,1542,1560,1539,1544,1509,953,906,957,925,962,1140,1243,1412,1507,1552,1566,1569,1496,1484,1494,1421,1395,1357,1356,1323,1294,1305,1241,1247,1189,1162,1151,1108,1081,1054,1041,1031,1013,947,948,917,931,936,993,976,969,1054,1016,1013,999,984,1001,1027,1022,1012,1019,1009,988,988,990,1020,1020,1005,1031,1046,998,984,1026,981,982,707,709,711,718,737,843,1107,1130,1239,1286,1283,1267,1235,1212,1188,1165,1141,1117,1100,1070,1046,1023,1006,976,952,928,905,881,857,839,810,787,763,739,721,719,723,732,729,729,728,736,738,732,729,741,724,733,731,728,731,744,737,736,739,737,735,736,739,741,728,731,736,738,730,860,862,864,870,916,1049,1221,1384,1488,1530,1523,1495,1487,1441,1413,1386,1358,1331,1303,1276,1249,1221,1194,1166,1139,1126,1084,1057,1029,1002,974,947,920,893,875,873,878,883,889,892,888,901,913,893,901,915,906,901,915,927,991,998,1007,960,961,950,928,930,912,907,922,898,917,906,900,873,860,878,879,928,1039,1177,1309,1394,1429,1436,1403,1380,1357,1335,1337,1289,1266,1268,1221,1198,1175,1152,1143,1107,1084,1061,1061,1016,1007,970,947,924,903,894,871,897,890,885,894,898,921,905,912,898,898,896,892,916,897,920,937,929,908,906,920,915,919,920,907,911,925,899,906,904,791,760,772,742,766,863,996,1178,1267,1322,1366,1258,1235,1213,1191,1169,1183,1177,1134,1080,1073,1035,1013,991,1020,946,924,946,911,897,835,840,790,768,750,748,784,755,753,762,769,785,774,779,764,782,763,781,768,762,771,778,785,791,783,781,777,771,785,784,779,781,769,777,769,1322,1354,1372,1434,1505,1692,1892,2063,2113,2141,2123,2091,2104,2023,1987,1954,1922,1921,1854,1818,1786,1750,1718,1723,1755,1615,1627,1548,1513,1480,1472,1412,1393,1398,1383,1354,1346,1391,1424,1421,1425,1425,1450,1494,1442,1473,1472,1497,1495,1488,1473,1481,1472,1496,1460,1465,1481,1475,1460,1494,1482,1499,1480,1489,1494,0,0,0,0,0,0,0,0,0,0,0,0,0,0,0,0,0,0,0,0,0,0,0,0,0,0,0,0,0,0,0,0,0,0,0,0,0,0,0,0,0,0,0,0,0,0,0,0,0,0,0,0,0,0,0,0,0,0,0,0,0,0,0,0,0,506,507,508,509,514,580,680,780,938,932,936,918,901,883,866,848,831,813,796,778,761,743,726,708,691,673,656,638,621,603,586,568,551,533,517,514,517,520,539,526,530,525,531,526,598,599,526,567,561,531,521,586,595,610,608,614,598,618,602,575,557,542,527,525,524,0,0,0,0,0,0,0,0,0,0,0,0,0,0,0,0,0,0,0,0,0,0,0,0,0,0,0,0,0,0,0,0,0,0,0,0,0,0,0,0,0,0,0,0,0,0,0,0,0,0,0,0,0,0,0,0,0,0,0,0,0,0,0,0,0,670,673,675,677,734,769,872,974,1097,1103,1105,1087,1069,1052,1060,1002,1020,1016,989,967,1035,1009,892,875,857,828,822,804,786,758,751,736,716,698,684,681,695,684,675,678,675,676,710,748,691,682,686,693,687,685,687,687,685,689,692,690,685,685,683,695,700,708,717,691,689,1115,1108,1142,1178,1222,1367,1549,1697,1772,1801,1814,1806,1741,1719,1748,1655,1590,1562,1724,1618,1519,1498,1455,1442,1429,1376,1337,1304,1300,1268,1236,1197,1184,1176,1140,1146,1132,1162,1168,1162,1185,1189,1198,1234,1191,1208,1206,1211,1236,1210,1212,1228,1228,1233,1208,1203,1206,1221,1206,1207,1212,1230,1208,1225,1223,564,588,569,574,578,628,717,772,838,881,888,876,864,852,856,824,801,803,791,779,767,759,742,745,718,694,689,675,661,634,633,623,605,591,578,574,576,596,575,570,583,596,598,603,592,575,588,605,598,588,606,621,639,618,618,596,578,592,580,587,578,592,591,603,576,446,447,448,450,452,489,561,620,694,733,741,730,726,706,694,682,670,658,654,642,623,611,599,594,575,563,551,540,534,522,504,492,480,468,457,458,454,455,448,448,452,456,456,463,460,470,469,457,468,457,455,460,458,468,455,455,461,463,458,458,458,463,452,464,457,598,600,601,616,615,675,765,854,939,983,988,991,956,940,924,909,893,877,861,845,830,814,798,798,767,751,750,719,703,688,685,656,640,624,611,607,608,610,624,624,600,603,626,637,630,649,619,644,640,677,664,670,644,717,637,611,629,629,667,691,677,713,683,679,659,532,522,535,537,531,580,657,747,810,874,861,847,834,820,824,778,782,782,751,737,739,710,696,696,669,643,651,627,614,601,586,562,559,545,532,528,541,543,529,522,529,530,549,560,546,561,553,564,575,542,556,540,540,560,545,540,553,542,532,547,549,563,550,569,553,390,391,392,393,394,418,467,515,563,604,615,606,597,588,579,570,561,552,543,534,525,516,507,531,489,480,471,462,453,444,435,426,417,408,399,395,396,397,386,386,385,392,448,425,408,433,411,454,424,423,423,395,401,419,408,396,432,406,394,422,414,445,422,420,409,1129,1106,1091,1109,1233,1336,1538,1689,1741,1783,1757,1745,1691,1667,1685,1600,1581,1585,1547,1552,1490,1494,1425,1441,1370,1329,1288,1294,1233,1231,1194,1159,1138,1108,1103,1115,1109,1105,1146,1142,1139,1141,1174,1222,1160,1188,1185,1203,1206,1211,1204,1207,1182,1219,1179,1177,1191,1180,1184,1241,1211,1236,1207,1212,1214,432,433,434,435,454,496,576,668,759,826,831,815,825,783,767,751,735,718,692,686,670,654,638,622,605,589,573,557,541,557,509,492,476,460,444,467,442,445,477,433,434,434,452,450,453,439,441,453,486,455,470,471,476,473,454,454,463,490,502,490,457,456,501,458,457,0,0,0,0,0,0,0,0,0,0,0,0,0,0,0,0,0,0,0,0,0,0,0,0,0,0,0,0,0,0,0,0,0,0,0,0,0,0,0,0,0,0,0,0,0,0,0,0,0,0,0,0,0,0,0,0,0,0,0,0,0,0,0,0,0 ]);
