n = 10;
D = [176,64,237,76,188,180,180,110,148,66 ];
q = 0;
prec = array2d(1..0,1..2,[]);
steps = 64;
l = 360;
r = 0;
which = [];
interval = array2d(1..0,1..2,[]);
T = array3d(1..11,1..11,0..64,[0,0,0,0,0,0,0,0,0,0,0,0,0,0,0,0,0,0,0,0,0,0,0,0,0,0,0,0,0,0,0,0,0,0,0,0,0,0,0,0,0,0,0,0,0,0,0,0,0,0,0,0,0,0,0,0,0,0,0,0,0,0,0,0,0,726,731,734,734,758,1194,1524,1695,1791,1834,1832,1807,1774,1750,1721,1686,1658,1634,1614,1533,1552,1525,1493,1468,1439,1342,1315,1278,1156,1133,911,792,780,758,765,740,740,717,711,716,722,722,745,745,746,741,727,755,757,743,744,727,726,774,742,730,754,734,725,743,740,791,750,755,735,521,523,541,526,548,735,952,1063,1166,1218,1222,1203,1184,1222,1221,1125,1106,1087,1125,1070,1096,1030,990,970,951,932,932,955,918,854,835,839,796,518,507,599,505,506,498,488,492,498,512,486,490,492,493,510,512,509,504,533,509,497,535,512,505,512,513,511,511,506,521,519,524,1203,1210,1216,1260,1766,2299,2789,2946,3015,3012,2998,2949,2891,2847,2793,2735,2684,2633,2578,2514,2478,2445,2393,2250,2223,1968,1800,1666,1393,1399,1331,1285,1257,1239,1224,1220,1229,1204,1199,1202,1203,1220,1252,1223,1251,1240,1248,1242,1239,1248,1247,1253,1241,1275,1255,1239,1240,1240,1228,1253,1250,1292,1250,1247,1235,840,829,832,837,904,1427,1672,1941,1944,1970,2040,1939,2046,1878,1848,1946,1782,1755,1725,1694,1664,1634,1609,1573,1542,1508,1478,1450,1330,1259,912,907,865,847,879,834,821,854,841,845,847,860,851,863,845,854,860,852,852,849,851,862,850,849,859,858,855,858,850,866,860,898,865,892,861,576,569,572,565,592,980,1111,1242,1347,1398,1382,1378,1356,1334,1329,1290,1266,1261,1222,1200,1177,1155,1132,1095,1072,1051,1042,1021,1011,988,954,880,605,583,580,568,578,580,576,579,586,613,585,576,592,602,592,586,617,607,582,597,630,632,627,596,592,602,624,592,588,607,588,588,580,844,844,855,852,929,1567,1781,1949,2007,2080,2069,2039,1975,1951,1932,1899,1857,1852,1802,1757,1739,1707,1664,1628,1597,1578,1543,1509,1345,1167,1090,955,896,880,864,870,853,809,813,807,812,817,826,824,840,822,824,828,826,826,832,826,827,838,832,829,832,834,821,828,839,827,826,829,818,685,677,692,684,713,1215,1365,1528,1629,1664,1644,1647,1626,1594,1584,1540,1502,1503,1461,1434,1396,1370,1341,1302,1288,1249,1237,1210,1151,1070,988,871,770,693,693,698,689,688,681,686,688,689,693,682,691,696,689,693,703,694,688,702,700,703,708,703,694,701,699,696,694,701,694,694,686,928,930,924,949,1018,1563,1807,1975,2072,2137,2101,2070,2038,2082,2048,1944,1935,1904,1928,1838,1851,1786,1743,1724,1658,1627,1614,1559,1478,1268,979,1077,948,952,908,945,892,894,934,937,932,948,951,970,951,959,952,964,976,961,961,962,972,992,976,972,968,964,974,984,983,989,968,989,975,877,875,877,903,972,1559,1844,2103,2092,2123,2190,2085,2193,2020,1986,2079,1915,1884,1849,1816,1781,1746,1709,1690,1643,1612,1579,1551,1381,1308,964,939,919,900,933,888,859,892,882,884,890,897,892,904,886,901,896,896,894,888,893,904,894,891,903,900,898,895,893,905,896,929,907,926,903,0,0,0,0,0,0,0,0,0,0,0,0,0,0,0,0,0,0,0,0,0,0,0,0,0,0,0,0,0,0,0,0,0,0,0,0,0,0,0,0,0,0,0,0,0,0,0,0,0,0,0,0,0,0,0,0,0,0,0,0,0,0,0,0,0,636,637,640,641,654,820,1193,1348,1479,1554,1574,1528,1503,1479,1455,1430,1406,1381,1357,1332,1308,1282,1258,1233,1209,1184,1160,1136,1128,899,767,768,675,659,648,645,647,648,635,636,635,651,640,639,642,648,642,642,645,644,646,642,646,647,646,647,654,648,661,643,652,661,646,649,648,0,0,0,0,0,0,0,0,0,0,0,0,0,0,0,0,0,0,0,0,0,0,0,0,0,0,0,0,0,0,0,0,0,0,0,0,0,0,0,0,0,0,0,0,0,0,0,0,0,0,0,0,0,0,0,0,0,0,0,0,0,0,0,0,0,462,459,464,466,473,576,877,979,1077,1134,1141,1123,1104,1086,1068,1050,1032,1014,986,978,960,997,924,906,888,870,843,834,816,796,778,760,574,538,472,469,470,472,472,469,467,470,469,491,470,476,472,470,474,468,470,472,472,476,491,476,472,474,476,491,472,491,473,491,476,635,642,667,646,682,1174,1410,1622,1683,1711,1717,1672,1663,1661,1629,1561,1530,1498,1467,1436,1405,1374,1332,1320,1280,1238,1218,1186,1165,1034,857,708,687,745,652,652,656,651,655,655,652,661,666,654,663,667,665,665,667,667,667,667,667,667,667,667,667,667,663,665,667,659,667,662,658,348,343,344,345,352,510,631,704,776,834,843,842,817,804,790,788,764,757,738,724,711,698,685,672,658,645,632,627,614,601,588,509,506,466,351,352,348,348,344,348,348,353,357,357,360,358,351,355,357,360,360,360,360,360,356,353,360,355,357,357,357,356,350,352,352,261,261,263,274,265,391,462,518,570,663,679,668,657,627,615,605,594,585,574,563,554,542,530,519,508,498,490,479,469,457,447,435,427,343,316,265,266,267,247,248,244,246,255,250,251,252,249,250,250,253,249,252,251,253,249,248,253,252,253,253,252,255,249,251,248,594,593,597,600,613,834,1112,1249,1379,1453,1456,1421,1409,1386,1365,1343,1319,1300,1272,1249,1232,1201,1178,1151,1134,1108,1086,1064,919,883,800,790,695,622,604,612,616,595,550,551,546,549,558,552,553,554,551,552,553,554,551,553,553,557,551,554,555,555,555,555,552,557,555,552,549,331,321,322,324,337,391,594,638,703,804,801,788,775,759,749,737,724,712,699,684,674,685,647,657,644,631,618,584,573,560,546,535,538,337,328,337,393,381,306,312,310,317,317,317,313,318,310,314,314,315,307,314,314,320,315,315,317,314,319,318,313,327,308,314,310,424,425,426,427,428,471,758,832,907,966,976,904,892,936,922,908,895,882,867,854,841,777,813,799,786,772,758,700,732,572,500,490,481,470,433,429,430,431,413,412,414,414,420,419,419,421,424,425,425,430,431,428,427,428,434,432,433,433,434,434,434,434,434,434,434,380,382,381,384,387,600,715,799,883,942,950,934,919,903,924,873,858,838,828,812,798,782,766,752,733,721,706,691,672,661,645,557,545,400,390,387,388,387,384,387,386,399,394,388,390,401,392,394,401,401,401,401,401,401,392,387,396,393,389,392,392,392,390,392,392,636,637,640,641,654,820,1193,1348,1479,1554,1574,1528,1503,1479,1455,1430,1406,1381,1357,1332,1308,1282,1258,1233,1209,1184,1160,1136,1128,899,767,768,675,659,648,645,647,648,635,636,635,651,640,639,642,648,642,642,645,644,646,642,646,647,646,647,654,648,661,643,652,661,646,649,648,396,396,398,399,402,507,734,817,898,950,973,957,943,927,912,897,882,866,850,836,820,805,789,775,759,744,728,714,698,682,519,502,491,414,404,401,402,404,382,385,389,392,389,391,389,390,386,388,387,385,386,391,389,392,393,390,391,390,391,391,390,392,388,392,388,486,488,489,491,500,656,932,993,1222,1172,1204,1185,1166,1147,1082,1084,1089,1070,1114,1032,1076,993,1015,955,936,916,896,933,824,786,769,612,609,508,496,493,484,487,471,472,474,479,481,474,478,478,479,493,489,487,487,509,488,492,504,490,492,495,491,491,494,498,500,506,504,0,0,0,0,0,0,0,0,0,0,0,0,0,0,0,0,0,0,0,0,0,0,0,0,0,0,0,0,0,0,0,0,0,0,0,0,0,0,0,0,0,0,0,0,0,0,0,0,0,0,0,0,0,0,0,0,0,0,0,0,0,0,0,0,0,1008,1009,1014,1019,1065,1948,2273,2453,2575,2583,2561,2515,2470,2424,2377,2331,2286,2272,2217,2180,2136,2078,2043,1997,1950,1907,1859,1657,1518,1434,1128,1080,1069,1054,1028,1022,1021,1039,1009,988,993,994,1004,1012,998,1008,1003,1024,1017,1004,1020,1026,1035,1020,1017,1022,1016,1025,1017,1013,1015,1029,1020,1028,1023,630,632,633,691,701,1064,1213,1348,1464,1502,1502,1479,1467,1432,1410,1387,1364,1340,1317,1294,1272,1249,1225,1202,1179,1156,1144,1110,1087,1076,938,846,717,698,637,639,640,625,625,621,630,636,633,636,631,630,637,642,637,641,644,644,643,649,646,644,635,647,642,636,635,650,639,656,633,393,395,396,397,392,488,741,810,915,972,979,963,948,932,916,883,885,853,837,822,806,790,792,776,760,729,759,699,698,682,605,485,473,461,395,400,400,402,393,394,393,397,406,411,408,409,404,407,408,408,403,418,406,419,408,400,408,403,404,423,408,406,400,401,401,676,678,681,683,686,979,1333,1494,1620,1666,1662,1634,1608,1581,1554,1527,1500,1474,1445,1418,1395,1368,1340,1319,1292,1270,1238,1212,1185,1095,941,899,721,702,694,687,691,655,651,644,656,679,672,653,685,689,679,682,673,681,650,696,687,679,673,689,674,675,687,697,681,680,671,656,652,513,515,506,508,511,684,972,1068,1200,1252,1255,1235,1216,1196,1177,1156,1136,1088,1069,1077,1029,1037,1021,1000,983,932,943,916,902,883,699,661,598,536,505,511,522,515,498,501,501,503,514,514,515,515,512,514,514,514,509,525,514,526,514,507,514,510,511,527,515,511,506,505,505,552,553,555,568,565,928,1045,1126,1255,1282,1290,1270,1251,1233,1230,1196,1177,1173,1154,1122,1102,1076,1065,1047,1028,1010,991,992,954,934,916,840,832,724,563,559,560,562,552,552,552,552,552,553,554,557,555,557,559,562,564,565,565,567,569,571,566,569,569,569,618,618,631,639,629,676,680,679,737,760,1144,1368,1518,1619,1665,1660,1632,1606,1580,1552,1527,1499,1473,1446,1419,1393,1365,1338,1312,1285,1263,1235,1209,1182,1135,1030,843,776,701,691,688,691,663,663,661,668,686,672,674,669,671,673,678,680,668,677,686,686,698,698,690,668,690,672,671,668,692,681,690,670,396,396,398,399,402,507,734,817,898,950,973,957,943,927,912,897,882,866,850,836,820,805,789,775,759,744,728,714,698,682,519,502,491,414,404,401,402,404,382,385,389,392,389,391,389,390,386,388,387,385,386,391,389,392,393,390,391,390,391,391,390,392,388,392,388,1125,1129,1131,1148,1283,2304,2514,2698,2798,2839,2803,2763,2785,2659,2611,2679,2515,2467,2473,2371,2323,2285,2226,2187,2170,1850,1715,1659,1569,1260,1228,1223,1189,1156,1180,1132,1139,1141,1142,1155,1147,1151,1153,1174,1159,1174,1158,1164,1162,1161,1162,1174,1171,1174,1196,1182,1177,1165,1180,1175,1162,1167,1187,1179,1165,635,652,650,652,670,1219,1368,1556,1692,1732,1725,1668,1638,1600,1585,1680,1538,1515,1443,1444,1392,1382,1351,1320,1260,1257,1207,1176,1164,1132,1071,948,681,661,647,645,646,652,668,656,656,664,647,653,660,658,671,686,661,672,679,674,681,686,686,668,666,670,671,688,686,684,678,684,688,1041,1027,1034,1044,1168,2071,2293,2468,2587,2633,2588,2565,2592,2472,2419,2493,2329,2284,2300,2182,2168,2104,2059,2014,2040,1916,1890,1624,1523,1163,1133,1103,1096,1066,1106,1049,1052,1055,1058,1068,1069,1071,1069,1093,1069,1091,1076,1083,1077,1075,1087,1088,1095,1095,1106,1100,1093,1087,1086,1075,1076,1083,1106,1088,1074,0,0,0,0,0,0,0,0,0,0,0,0,0,0,0,0,0,0,0,0,0,0,0,0,0,0,0,0,0,0,0,0,0,0,0,0,0,0,0,0,0,0,0,0,0,0,0,0,0,0,0,0,0,0,0,0,0,0,0,0,0,0,0,0,0,550,551,552,551,565,712,1117,1279,1441,1498,1464,1438,1413,1387,1352,1344,1310,1285,1263,1233,1208,1183,1170,1154,1165,1076,1114,1014,996,961,694,676,656,575,635,632,561,564,559,558,559,573,564,561,560,564,565,576,572,569,572,564,573,576,578,576,572,577,576,578,576,576,574,604,573,740,742,765,764,857,1361,1640,1843,1959,1961,1958,1913,1888,1844,1817,1884,1744,1718,1672,1646,1611,1575,1532,1504,1469,1425,1398,1356,1327,1291,1030,928,800,788,774,763,756,749,739,747,740,757,749,757,748,767,755,761,761,758,763,763,770,766,777,773,771,775,772,768,773,782,765,764,763,836,851,842,859,904,1386,1712,1898,2006,2052,2042,2033,1977,1944,1911,1903,1870,1814,1804,1748,1716,1683,1651,1618,1621,1574,1520,1488,1369,1235,1106,952,883,884,852,849,851,852,848,851,856,855,872,860,864,869,861,861,859,867,869,870,863,873,876,878,871,871,865,860,866,863,864,864,860,755,731,732,740,784,1201,1566,1761,1884,1932,1921,1886,1851,1818,1783,1812,1714,1736,1646,1611,1578,1543,1509,1474,1440,1406,1371,1338,1303,1180,906,882,777,756,741,740,744,748,742,747,743,748,750,745,751,752,758,757,762,756,765,769,770,768,769,784,761,760,768,767,756,768,760,770,758,906,899,900,915,981,1696,1994,2184,2326,2453,2445,2283,2242,2202,2244,2120,2078,2037,1996,1956,1933,1874,1833,1791,1845,1710,1669,1628,1390,1030,1013,976,948,924,910,910,955,920,958,952,943,954,981,985,972,996,988,984,1008,975,990,994,988,1007,978,981,993,988,977,993,983,979,979,979,976,514,514,516,518,532,680,1066,1221,1461,1437,1406,1389,1354,1328,1302,1276,1246,1221,1206,1170,1146,1118,1128,1101,1042,1023,990,964,938,912,663,643,556,539,523,572,525,528,532,533,536,539,543,543,546,545,540,548,548,544,551,551,559,546,546,553,549,556,548,545,563,567,548,545,540,1125,1129,1131,1148,1283,2304,2514,2698,2798,2839,2803,2763,2785,2659,2611,2679,2515,2467,2473,2371,2323,2285,2226,2187,2170,1850,1715,1659,1569,1260,1228,1223,1189,1156,1180,1132,1139,1141,1142,1155,1147,1151,1153,1174,1159,1174,1158,1164,1162,1161,1162,1174,1171,1174,1196,1182,1177,1165,1180,1175,1162,1167,1187,1179,1165,846,848,861,862,907,1244,1699,1876,1986,2033,2031,2007,1969,1949,1909,1874,1846,1811,1783,1749,1717,1689,1654,1635,1605,1562,1530,1418,1183,1091,1104,907,908,881,859,858,909,862,837,834,850,842,836,847,847,851,846,844,848,848,844,846,846,852,851,857,850,852,846,854,853,853,852,852,852,378,365,380,381,384,443,679,760,834,896,894,881,886,845,857,829,816,817,780,776,776,739,749,736,722,709,695,681,655,654,640,578,434,394,385,383,384,385,358,363,362,372,373,381,375,389,374,376,384,373,374,372,373,380,387,375,376,376,372,369,374,376,371,379,370,754,767,759,771,776,1089,1496,1651,1767,1818,1809,1796,1764,1738,1707,1679,1651,1622,1599,1572,1538,1514,1482,1455,1426,1399,1370,1329,1301,1169,979,812,815,788,779,764,806,768,750,748,750,752,757,759,767,761,758,756,759,762,761,760,758,765,765,767,765,763,760,759,762,766,767,767,767,531,532,534,536,589,882,1026,1173,1315,1417,1419,1394,1368,1342,1317,1292,1266,1244,1226,1201,1177,1152,1127,1101,1076,1051,1024,1000,973,917,720,600,653,556,577,534,576,538,505,501,505,508,501,510,509,509,510,511,519,508,506,512,508,515,509,511,510,511,509,512,510,509,509,537,512,0,0,0,0,0,0,0,0,0,0,0,0,0,0,0,0,0,0,0,0,0,0,0,0,0,0,0,0,0,0,0,0,0,0,0,0,0,0,0,0,0,0,0,0,0,0,0,0,0,0,0,0,0,0,0,0,0,0,0,0,0,0,0,0,0,412,412,414,420,420,509,766,851,938,1000,1027,999,986,952,964,935,931,904,872,873,857,842,826,783,786,770,754,748,723,716,692,521,511,502,420,400,419,403,397,397,397,399,397,403,402,401,405,401,402,399,398,400,399,401,402,405,403,403,406,407,403,428,406,417,413,533,535,536,539,549,655,901,1132,1243,1279,1285,1267,1249,1231,1213,1205,1185,1164,1143,1123,1105,1088,1061,1040,1011,995,974,879,811,793,739,663,624,591,546,542,542,513,447,453,452,460,462,457,458,459,449,467,458,453,457,463,464,474,464,460,459,453,459,461,458,463,451,460,450,285,286,287,288,288,308,516,574,630,684,704,693,682,672,662,651,640,629,618,608,597,586,575,564,546,535,524,513,502,492,482,314,307,300,292,289,290,291,265,262,266,269,264,276,269,297,293,269,295,267,269,269,268,273,269,269,270,273,271,269,269,271,269,275,269,669,671,663,664,683,1108,1252,1390,1521,1589,1596,1571,1548,1522,1498,1473,1449,1450,1406,1376,1357,1332,1337,1277,1253,1230,1220,1179,1159,1111,1087,869,772,681,669,668,670,710,660,662,656,690,681,661,667,681,671,677,688,680,689,671,662,669,673,680,669,669,662,668,668,677,700,697,684,99,150,150,150,151,152,168,182,202,217,224,224,218,218,214,208,206,209,206,203,200,197,193,184,181,178,175,172,177,166,163,168,157,161,151,99,150,150,63,63,63,65,69,65,64,66,65,69,65,66,66,63,64,66,65,63,66,66,63,66,65,69,66,65,64,846,848,861,862,907,1244,1699,1876,1986,2033,2031,2007,1969,1949,1909,1874,1846,1811,1783,1749,1717,1689,1654,1635,1605,1562,1530,1418,1183,1091,1104,907,908,881,859,858,909,862,837,834,850,842,836,847,847,851,846,844,848,848,844,846,846,852,851,857,850,852,846,854,853,853,852,852,852,591,586,595,588,590,795,1082,1274,1372,1423,1383,1410,1353,1359,1336,1296,1274,1279,1248,1207,1212,1162,1123,1118,1096,1063,1052,1029,1008,884,809,673,612,608,586,593,584,596,561,561,561,561,561,561,562,562,561,561,561,561,561,561,561,562,562,561,561,561,561,561,561,561,561,561,561,282,283,284,284,285,290,493,565,615,660,702,690,679,668,638,670,634,624,613,590,590,579,590,556,536,525,524,504,492,490,480,487,410,399,284,286,287,288,282,281,280,283,288,288,285,286,282,286,288,283,284,288,290,288,288,290,288,289,290,290,284,288,284,290,285,515,516,518,520,521,751,1006,1134,1240,1312,1270,1249,1229,1209,1178,1157,1148,1118,1107,1088,1058,1046,1026,1005,986,965,949,936,918,786,767,749,640,536,529,522,524,526,496,499,499,499,499,499,500,500,499,499,499,499,499,499,499,500,500,499,499,499,499,499,499,499,499,499,499,744,746,748,749,792,1188,1549,1790,1923,1977,1953,1928,1897,1857,1804,1791,1763,1716,1681,1642,1653,1584,1548,1513,1470,1441,1402,1363,1277,1042,858,808,791,785,762,755,759,756,755,739,752,754,747,765,753,785,759,785,770,750,764,760,768,795,783,763,762,765,759,754,765,788,757,788,756,354,344,345,346,348,421,630,686,752,807,829,806,794,782,775,763,746,734,733,720,697,685,673,661,649,637,628,613,601,589,552,443,440,414,356,353,354,355,329,335,331,342,346,349,340,349,336,356,341,340,347,345,355,360,356,345,352,344,353,348,352,359,340,346,338,0,0,0,0,0,0,0,0,0,0,0,0,0,0,0,0,0,0,0,0,0,0,0,0,0,0,0,0,0,0,0,0,0,0,0,0,0,0,0,0,0,0,0,0,0,0,0,0,0,0,0,0,0,0,0,0,0,0,0,0,0,0,0,0,0,335,336,336,347,348,465,610,680,750,821,849,837,821,809,794,782,766,753,741,728,702,690,676,663,648,637,623,610,596,582,523,493,480,454,419,350,351,351,310,310,310,315,313,315,313,320,309,318,310,313,312,320,317,318,313,317,313,315,318,316,315,315,310,315,310,135,136,136,136,136,210,237,264,293,320,340,334,330,324,319,313,308,302,297,291,286,280,276,270,265,259,253,248,242,237,231,226,220,216,210,137,137,138,113,105,105,105,105,105,105,105,105,105,105,105,105,105,105,105,105,105,105,105,105,105,105,105,105,105,105,638,655,617,659,634,711,1150,1269,1379,1464,1531,1417,1396,1375,1354,1423,1401,1378,1279,1282,1228,1207,1186,1165,1144,1058,966,1090,831,815,706,704,700,636,670,622,624,624,625,619,631,654,632,635,628,640,643,638,642,630,642,657,664,664,662,643,643,643,643,643,643,643,643,643,643,394,395,396,396,398,480,738,824,907,977,984,969,951,936,925,910,889,874,857,841,826,809,796,778,762,746,735,715,699,683,671,498,492,416,404,402,408,388,367,373,372,380,383,380,378,382,377,384,380,382,382,381,380,384,384,384,386,386,383,388,393,410,382,388,380,591,586,595,588,590,795,1082,1274,1372,1423,1383,1410,1353,1359,1336,1296,1274,1279,1248,1207,1212,1162,1123,1118,1096,1063,1052,1029,1008,884,809,673,612,608,586,593,584,596,561,561,561,561,561,561,562,562,561,561,561,561,561,561,561,562,562,561,561,561,561,561,561,561,561,561,561,840,859,844,856,881,1268,1711,1940,2017,2043,2017,1991,1958,1925,1915,1907,1866,1838,1784,1759,1718,1686,1652,1646,1574,1554,1522,1492,1283,1031,1001,956,882,898,844,852,844,856,840,838,840,840,844,847,847,856,844,849,843,840,841,845,845,845,847,844,846,844,844,842,848,843,843,849,843,542,544,541,543,550,669,1045,1168,1283,1323,1324,1313,1282,1261,1240,1222,1206,1177,1156,1135,1121,1105,1071,1050,1029,1014,987,973,945,877,725,660,652,559,602,555,574,549,536,536,540,540,536,540,540,540,540,540,540,540,540,540,540,540,539,540,540,540,539,537,539,540,539,540,539,779,781,785,787,874,1176,1605,1759,1872,1901,1891,1861,1819,1797,1771,1741,1719,1695,1656,1619,1602,1572,1534,1498,1473,1452,1413,1335,1275,1118,1066,855,834,868,793,791,843,790,768,767,769,778,785,774,790,801,781,784,790,783,787,792,789,802,793,784,812,794,795,786,804,794,813,797,810,812,815,817,832,879,1426,1615,1795,1919,1988,1978,1957,1916,1884,1852,1821,1790,1759,1726,1695,1679,1633,1602,1569,1538,1507,1485,1444,1278,1189,917,879,858,840,828,824,823,824,815,815,815,821,821,821,821,821,821,821,821,821,821,821,821,821,821,821,821,821,821,821,821,821,821,821,821,492,493,500,503,520,625,892,990,1086,1169,1188,1162,1151,1136,1119,1095,1072,1054,1042,1018,1000,988,972,948,934,921,894,876,865,813,603,554,599,543,506,503,500,494,461,461,461,461,461,461,461,461,461,461,461,461,461,461,461,461,461,461,461,461,461,461,461,461,461,461,461,344,345,346,348,349,451,642,717,792,849,858,844,830,817,804,784,784,762,748,735,729,708,693,688,661,652,639,620,545,597,519,508,496,457,413,349,350,408,379,332,332,333,341,343,344,347,341,343,344,344,346,347,346,349,345,341,348,348,347,344,340,343,379,350,335,0,0,0,0,0,0,0,0,0,0,0,0,0,0,0,0,0,0,0,0,0,0,0,0,0,0,0,0,0,0,0,0,0,0,0,0,0,0,0,0,0,0,0,0,0,0,0,0,0,0,0,0,0,0,0,0,0,0,0,0,0,0,0,0,0,310,311,312,313,314,385,573,642,709,765,775,763,751,738,726,708,700,688,676,663,659,639,626,614,602,589,577,565,552,540,482,421,396,327,318,315,316,316,303,298,298,300,303,303,303,303,303,303,303,303,303,303,303,303,303,303,303,303,303,303,303,303,303,303,299,897,900,927,904,938,1402,1810,1976,2080,2120,2110,2066,2035,2004,2024,1935,1917,1873,1875,1814,1836,1793,1726,1622,1584,1476,1451,1316,1104,1174,1053,1021,996,932,947,905,932,909,914,931,915,918,937,924,931,950,937,944,947,929,939,930,938,940,942,945,943,950,950,932,944,950,950,950,940,537,539,542,540,539,647,971,1146,1251,1310,1316,1297,1283,1246,1246,1222,1201,1172,1158,1139,1112,1096,1074,1027,1030,999,990,969,945,835,734,605,617,592,541,539,540,533,483,483,483,483,483,483,483,483,483,483,483,483,483,483,483,483,483,483,483,483,483,483,483,483,483,483,483,840,859,844,856,881,1268,1711,1940,2017,2043,2017,1991,1958,1925,1915,1907,1866,1838,1784,1759,1718,1686,1652,1646,1574,1554,1522,1492,1283,1031,1001,956,882,898,844,852,844,856,840,838,840,840,844,847,847,856,844,849,843,840,841,845,845,845,847,844,846,844,844,842,848,843,843,849,843,700,713,712,708,726,1009,1392,1536,1684,1710,1705,1663,1638,1610,1597,1569,1543,1532,1510,1449,1435,1441,1405,1356,1358,1297,1273,1258,1239,1005,984,835,744,735,712,721,712,708,704,704,704,708,707,722,709,711,718,712,709,706,704,707,709,707,710,715,711,710,708,711,713,727,718,722,713,341,343,344,344,346,491,633,706,780,837,847,834,822,807,794,781,768,753,740,727,714,700,686,673,660,646,633,619,606,592,579,566,542,427,350,347,348,348,337,340,342,352,348,343,346,353,342,344,348,347,345,347,349,349,346,343,348,350,352,342,345,353,347,348,347,639,641,642,646,647,1024,1253,1402,1524,1568,1565,1540,1500,1465,1453,1438,1412,1390,1364,1339,1316,1300,1263,1238,1224,1199,1174,1149,1124,1008,872,745,740,673,656,649,650,697,643,632,640,644,655,658,639,658,646,640,654,655,651,655,664,671,668,670,648,659,662,666,662,668,665,665,664,744,746,748,749,802,1210,1631,1790,1923,1993,1957,1928,1929,1857,1836,1786,1752,1716,1681,1674,1618,1563,1548,1504,1459,1438,1404,1368,1277,1120,894,815,791,804,758,755,759,756,759,739,746,755,754,768,762,772,762,764,783,770,777,759,760,791,760,759,765,760,756,758,762,765,756,780,769,348,344,345,351,348,455,620,686,752,819,864,806,794,782,804,758,746,734,733,720,697,685,673,661,649,637,636,613,601,627,548,492,472,411,356,353,397,350,321,322,322,324,327,323,323,326,327,331,334,339,339,341,334,335,342,332,331,339,343,344,340,344,345,343,340,202,202,182,183,258,201,343,394,400,492,506,499,463,456,474,418,458,438,417,421,426,417,398,379,393,385,378,369,361,344,345,337,310,320,313,284,284,285,194,196,196,197,197,198,197,199,196,196,196,196,197,259,200,200,200,200,202,204,233,202,200,236,196,198,199,318,319,319,322,332,387,561,636,702,768,794,776,769,758,744,732,717,705,693,682,667,655,643,630,616,604,586,584,572,558,513,467,448,439,340,332,334,335,283,282,283,286,286,285,288,288,283,287,290,283,288,293,293,289,294,292,284,285,286,288,283,286,285,285,282,0,0,0,0,0,0,0,0,0,0,0,0,0,0,0,0,0,0,0,0,0,0,0,0,0,0,0,0,0,0,0,0,0,0,0,0,0,0,0,0,0,0,0,0,0,0,0,0,0,0,0,0,0,0,0,0,0,0,0,0,0,0,0,0,0,713,734,717,733,774,1047,1411,1542,1678,1723,1719,1664,1640,1642,1621,1592,1566,1528,1503,1504,1440,1438,1388,1364,1339,1224,1180,1091,1076,984,954,947,765,736,732,723,724,750,735,745,746,752,759,759,759,773,748,758,756,757,753,760,776,777,761,758,761,764,779,758,755,751,756,756,748,389,393,392,393,396,489,734,820,907,963,978,955,946,951,920,906,888,861,846,830,814,809,790,774,752,738,722,711,687,659,603,543,419,408,416,402,400,400,359,360,363,362,363,360,361,364,366,367,370,368,368,371,368,368,378,372,373,372,374,372,375,374,376,380,374,700,713,712,708,726,1009,1392,1536,1684,1710,1705,1663,1638,1610,1597,1569,1543,1532,1510,1449,1435,1441,1405,1356,1358,1297,1273,1258,1239,1005,984,835,744,735,712,721,712,708,704,704,704,708,707,722,709,711,718,712,709,706,704,707,709,707,710,715,711,710,708,711,713,727,718,722,713,888,875,884,893,981,1582,1740,1896,2000,2002,1995,1933,1937,1897,1881,1852,1823,1767,1766,1737,1709,1657,1645,1643,1593,1564,1548,1526,1328,968,956,958,919,905,892,898,891,896,861,871,876,884,892,881,884,884,880,908,890,880,889,889,919,908,901,891,897,890,901,905,904,961,966,966,950,543,545,546,402,405,652,704,756,807,842,838,829,818,808,799,807,780,770,777,751,741,747,722,711,702,708,736,724,663,703,644,423,416,410,404,404,412,413,404,407,396,442,442,411,415,456,413,412,417,450,423,408,403,412,411,414,412,408,401,406,404,407,415,408,392,565,566,567,569,586,943,1026,1137,1215,1244,1234,1218,1202,1186,1170,1153,1137,1121,1105,1089,1072,1060,1044,1028,1012,996,980,964,948,932,801,789,589,579,572,572,572,574,537,544,548,556,549,550,543,551,553,552,550,550,552,558,566,563,559,561,558,557,561,563,566,573,584,583,576,792,787,788,864,963,1522,1766,1956,2029,2067,2068,1993,1965,1921,1885,1849,1813,1777,1741,1705,1695,1633,1597,1593,1525,1489,1463,1417,1381,1315,955,848,824,803,808,812,810,801,803,796,808,819,813,813,811,808,818,822,820,815,860,858,842,881,866,824,808,819,815,815,807,823,811,827,806,583,591,585,586,616,1024,1155,1266,1360,1393,1378,1358,1336,1316,1294,1280,1254,1232,1212,1190,1170,1148,1128,1106,1086,1065,1060,1040,1002,801,739,724,612,598,589,590,599,595,589,589,589,600,616,591,598,606,597,598,604,612,661,648,652,661,649,645,648,616,598,596,609,592,604,600,594,635,636,638,667,669,1147,1210,1412,1396,1510,1468,1446,1433,1413,1393,1340,1353,1333,1282,1238,1219,1200,1230,1213,1192,1187,1106,1087,870,858,687,674,661,649,642,642,679,654,629,631,639,640,636,635,633,644,635,636,641,637,636,643,649,642,642,640,643,648,645,639,646,654,643,643,640,961,963,966,975,1161,1828,2021,2202,2214,2263,2241,2207,2180,2147,2114,2072,2052,2019,1969,1910,1878,1845,1845,1810,1773,1736,1654,1603,1288,1189,1045,1028,999,982,972,980,940,932,932,933,942,942,938,930,935,947,937,939,942,939,937,945,950,944,943,942,945,950,947,939,948,954,941,934,933,713,716,716,737,745,1267,1386,1553,1602,1620,1604,1580,1549,1543,1523,1516,1477,1454,1449,1436,1388,1369,1332,1322,1322,1292,1277,1255,965,953,912,764,753,730,722,729,751,719,716,717,713,721,724,718,727,728,725,726,719,720,727,722,723,727,726,731,726,727,719,719,731,715,724,718,702,0,0,0,0,0,0,0,0,0,0,0,0,0,0,0,0,0,0,0,0,0,0,0,0,0,0,0,0,0,0,0,0,0,0,0,0,0,0,0,0,0,0,0,0,0,0,0,0,0,0,0,0,0,0,0,0,0,0,0,0,0,0,0,0,0,622,623,622,626,768,1107,1240,1374,1462,1498,1482,1459,1436,1470,1390,1368,1345,1317,1299,1276,1309,1231,1208,1180,1162,1135,1116,1093,1070,902,883,864,773,637,628,628,632,635,620,615,626,624,616,628,627,620,623,633,652,639,636,639,639,671,636,640,629,640,639,638,641,635,633,642,636,888,875,884,893,981,1582,1740,1896,2000,2002,1995,1933,1937,1897,1881,1852,1823,1767,1766,1737,1709,1657,1645,1643,1593,1564,1548,1526,1328,968,956,958,919,905,892,898,891,896,861,871,876,884,892,881,884,884,880,908,890,880,889,889,919,908,901,891,897,890,901,905,904,961,966,966,950,879,881,890,905,967,1356,1756,1943,2060,2110,2121,2064,2031,1999,1965,1933,1900,1867,1834,1813,1770,1774,1723,1690,1658,1624,1592,1456,1242,1096,1044,1017,927,920,900,915,900,902,867,867,886,871,875,876,882,877,877,875,879,884,875,880,882,884,883,895,885,894,881,881,881,881,881,881,881,400,410,404,420,425,490,736,825,908,955,984,968,957,930,927,886,872,858,856,849,836,810,818,803,787,771,757,741,712,710,658,643,484,477,415,412,424,414,393,394,395,397,397,397,400,413,397,397,398,398,396,401,402,402,399,400,402,401,403,399,402,408,399,407,407,787,789,797,811,856,1201,1552,1753,1841,1897,1899,1857,1843,1798,1784,1740,1696,1694,1651,1633,1604,1599,1551,1522,1491,1461,1432,1402,1370,1192,969,854,835,828,802,816,816,817,786,784,786,788,796,798,796,797,796,792,798,796,798,798,804,819,804,806,798,803,795,795,795,795,795,795,795,481,483,524,487,495,800,939,1079,1216,1316,1327,1302,1264,1252,1237,1204,1179,1155,1118,1106,1089,1045,1032,997,982,967,924,909,885,850,557,540,579,521,493,490,493,502,468,464,467,468,464,472,472,472,472,474,482,471,470,475,472,478,474,476,475,474,472,472,472,472,472,472,472,111,111,111,111,111,112,122,130,140,148,157,154,153,151,150,147,146,144,142,140,139,136,135,133,132,129,128,126,124,122,121,118,117,115,114,112,112,112,56,56,56,57,56,57,56,58,56,57,57,57,57,57,58,58,58,58,58,58,59,58,58,58,58,59,59,473,469,461,464,475,571,875,961,1059,1133,1148,1132,1104,1103,1090,1064,1041,1029,1011,994,974,958,940,895,895,887,869,847,820,784,670,615,614,496,486,467,476,469,411,410,408,408,407,413,410,410,411,411,410,412,413,410,412,413,418,410,410,415,410,413,410,408,413,410,410,590,593,593,597,605,775,1083,1254,1362,1411,1420,1404,1383,1361,1342,1328,1301,1289,1266,1244,1224,1204,1175,1152,1130,1108,1022,994,932,883,818,767,723,645,616,616,617,580,467,471,471,474,471,480,472,474,470,484,470,474,480,480,484,493,491,476,474,476,475,478,477,476,475,475,475,342,344,344,346,346,420,616,684,751,817,841,830,818,805,793,780,764,754,741,729,716,702,689,676,664,651,637,621,601,598,586,432,424,415,358,355,356,357,287,286,284,284,283,289,286,286,287,287,286,288,289,286,288,289,294,286,286,291,286,289,286,284,289,286,286,699,694,711,704,730,1156,1308,1457,1595,1671,1686,1639,1633,1587,1562,1554,1528,1484,1478,1431,1406,1380,1354,1344,1302,1292,1250,1239,1214,1167,1141,941,823,787,719,718,754,713,702,698,692,719,705,704,703,719,708,713,716,714,717,711,706,719,716,719,706,711,703,710,715,719,719,719,712,0,0,0,0,0,0,0,0,0,0,0,0,0,0,0,0,0,0,0,0,0,0,0,0,0,0,0,0,0,0,0,0,0,0,0,0,0,0,0,0,0,0,0,0,0,0,0,0,0,0,0,0,0,0,0,0,0,0,0,0,0,0,0,0,0,879,881,890,905,967,1356,1756,1943,2060,2110,2121,2064,2031,1999,1965,1933,1900,1867,1834,1813,1770,1774,1723,1690,1658,1624,1592,1456,1242,1096,1044,1017,927,920,900,915,900,902,867,867,886,871,875,876,882,877,877,875,879,884,875,880,882,884,883,895,885,894,881,881,881,881,881,881,881,0,0,0,0,0,0,0,0,0,0,0,0,0,0,0,0,0,0,0,0,0,0,0,0,0,0,0,0,0,0,0,0,0,0,0,0,0,0,0,0,0,0,0,0,0,0,0,0,0,0,0,0,0,0,0,0,0,0,0,0,0,0,0,0,0,726,731,734,734,758,1194,1524,1695,1791,1834,1832,1807,1774,1750,1721,1686,1658,1634,1614,1533,1552,1525,1493,1468,1439,1342,1315,1278,1156,1133,911,792,780,758,765,740,740,717,711,716,722,722,745,745,746,741,727,755,757,743,744,727,726,774,742,730,754,734,725,743,740,791,750,755,735,521,523,541,526,548,735,952,1063,1166,1218,1222,1203,1184,1222,1221,1125,1106,1087,1125,1070,1096,1030,990,970,951,932,932,955,918,854,835,839,796,518,507,599,505,506,498,488,492,498,512,486,490,492,493,510,512,509,504,533,509,497,535,512,505,512,513,511,511,506,521,519,524,1203,1210,1216,1260,1766,2299,2789,2946,3015,3012,2998,2949,2891,2847,2793,2735,2684,2633,2578,2514,2478,2445,2393,2250,2223,1968,1800,1666,1393,1399,1331,1285,1257,1239,1224,1220,1229,1204,1199,1202,1203,1220,1252,1223,1251,1240,1248,1242,1239,1248,1247,1253,1241,1275,1255,1239,1240,1240,1228,1253,1250,1292,1250,1247,1235,840,829,832,837,904,1427,1672,1941,1944,1970,2040,1939,2046,1878,1848,1946,1782,1755,1725,1694,1664,1634,1609,1573,1542,1508,1478,1450,1330,1259,912,907,865,847,879,834,821,854,841,845,847,860,851,863,845,854,860,852,852,849,851,862,850,849,859,858,855,858,850,866,860,898,865,892,861,576,569,572,565,592,980,1111,1242,1347,1398,1382,1378,1356,1334,1329,1290,1266,1261,1222,1200,1177,1155,1132,1095,1072,1051,1042,1021,1011,988,954,880,605,583,580,568,578,580,576,579,586,613,585,576,592,602,592,586,617,607,582,597,630,632,627,596,592,602,624,592,588,607,588,588,580,844,844,855,852,929,1567,1781,1949,2007,2080,2069,2039,1975,1951,1932,1899,1857,1852,1802,1757,1739,1707,1664,1628,1597,1578,1543,1509,1345,1167,1090,955,896,880,864,870,853,809,813,807,812,817,826,824,840,822,824,828,826,826,832,826,827,838,832,829,832,834,821,828,839,827,826,829,818,685,677,692,684,713,1215,1365,1528,1629,1664,1644,1647,1626,1594,1584,1540,1502,1503,1461,1434,1396,1370,1341,1302,1288,1249,1237,1210,1151,1070,988,871,770,693,693,698,689,688,681,686,688,689,693,682,691,696,689,693,703,694,688,702,700,703,708,703,694,701,699,696,694,701,694,694,686,928,930,924,949,1018,1563,1807,1975,2072,2137,2101,2070,2038,2082,2048,1944,1935,1904,1928,1838,1851,1786,1743,1724,1658,1627,1614,1559,1478,1268,979,1077,948,952,908,945,892,894,934,937,932,948,951,970,951,959,952,964,976,961,961,962,972,992,976,972,968,964,974,984,983,989,968,989,975,877,875,877,903,972,1559,1844,2103,2092,2123,2190,2085,2193,2020,1986,2079,1915,1884,1849,1816,1781,1746,1709,1690,1643,1612,1579,1551,1381,1308,964,939,919,900,933,888,859,892,882,884,890,897,892,904,886,901,896,896,894,888,893,904,894,891,903,900,898,895,893,905,896,929,907,926,903,0,0,0,0,0,0,0,0,0,0,0,0,0,0,0,0,0,0,0,0,0,0,0,0,0,0,0,0,0,0,0,0,0,0,0,0,0,0,0,0,0,0,0,0,0,0,0,0,0,0,0,0,0,0,0,0,0,0,0,0,0,0,0,0,0 ]);
