n = 10;
D = [259,114,70,150,129,121,117,103,287,80 ];
q = 0;
prec = array2d(1..0,1..2,[]);
steps = 64;
l = 360;
r = 0;
which = [];
interval = array2d(1..0,1..2,[]);
T = array3d(1..11,1..11,0..64,[0,0,0,0,0,0,0,0,0,0,0,0,0,0,0,0,0,0,0,0,0,0,0,0,0,0,0,0,0,0,0,0,0,0,0,0,0,0,0,0,0,0,0,0,0,0,0,0,0,0,0,0,0,0,0,0,0,0,0,0,0,0,0,0,0,648,614,621,624,622,862,1198,1382,1482,1453,1460,1426,1403,1393,1358,1354,1330,1357,1348,1299,1280,1259,1232,1212,1166,1151,1118,1094,1040,988,893,665,656,640,630,620,624,611,602,604,600,615,610,610,609,605,609,614,614,609,618,617,607,604,613,619,607,607,602,608,612,618,610,606,597,584,544,546,549,550,638,1036,1218,1297,1284,1287,1258,1246,1219,1199,1197,1177,1205,1204,1159,1139,1119,1107,1088,1039,1018,998,976,639,638,634,612,605,567,545,549,552,536,514,521,521,523,526,526,524,528,522,538,524,524,528,532,546,548,551,535,535,523,537,536,536,534,532,547,530,135,136,136,173,173,212,239,267,294,322,340,334,330,327,319,313,308,302,297,291,286,280,276,270,265,259,253,248,242,237,231,226,220,216,210,206,206,207,101,101,101,102,102,102,103,103,102,103,103,103,103,104,104,104,104,104,104,104,103,103,103,103,103,103,103,680,682,684,696,726,1127,1361,1498,1509,1558,1560,1537,1515,1492,1432,1449,1485,1405,1382,1360,1338,1376,1293,1272,1297,1227,1243,1155,1142,1034,978,861,832,700,700,688,688,692,695,681,685,696,675,682,687,685,704,679,688,696,711,702,713,700,703,700,699,697,696,701,701,707,700,700,697,587,539,540,541,546,767,1026,1176,1277,1268,1269,1249,1230,1211,1192,1188,1169,1189,1171,1151,1130,1113,1094,1075,1028,1006,985,964,943,919,868,766,687,559,548,543,547,547,517,517,516,523,525,516,516,520,519,522,519,517,523,528,528,530,538,525,521,520,535,544,520,524,523,523,521,644,610,617,619,617,853,1188,1372,1471,1443,1450,1416,1393,1383,1348,1345,1321,1347,1339,1290,1271,1250,1223,1204,1158,1143,1110,1086,1033,1009,885,691,650,634,624,616,619,611,602,604,600,621,610,610,609,605,609,614,621,609,618,617,607,604,613,619,607,607,602,608,612,618,610,606,597,86,86,87,87,132,134,152,170,188,206,219,216,212,208,205,201,198,194,190,187,183,180,177,174,170,166,163,159,156,152,148,145,141,138,134,132,132,132,76,76,77,80,78,78,77,80,76,80,78,80,78,78,80,82,80,78,80,80,80,78,80,81,77,78,77,638,590,592,593,598,864,1134,1300,1404,1393,1391,1369,1349,1326,1306,1301,1278,1297,1277,1255,1232,1213,1192,1171,1123,1100,1079,1053,946,938,926,856,625,611,600,595,599,599,570,574,569,569,584,582,577,597,573,579,580,574,578,576,581,594,598,580,578,575,578,598,575,582,578,581,579,525,476,476,478,480,746,900,1025,1114,1110,1113,1096,1080,1064,1047,1047,1029,1057,1036,1020,1003,986,969,954,908,890,871,853,834,812,740,724,636,495,484,480,484,483,468,472,473,477,476,474,472,479,468,494,469,469,479,475,490,507,495,476,478,473,482,490,480,493,473,476,471,0,0,0,0,0,0,0,0,0,0,0,0,0,0,0,0,0,0,0,0,0,0,0,0,0,0,0,0,0,0,0,0,0,0,0,0,0,0,0,0,0,0,0,0,0,0,0,0,0,0,0,0,0,0,0,0,0,0,0,0,0,0,0,0,0,642,642,648,640,655,885,1226,1401,1489,1561,1502,1478,1478,1486,1437,1446,1438,1396,1335,1357,1282,1284,1269,1196,1210,1194,1167,1125,1090,989,765,763,702,657,680,644,676,623,610,617,612,615,618,627,623,624,619,619,624,619,618,624,623,629,629,633,628,630,629,633,630,632,627,626,626,0,0,0,0,0,0,0,0,0,0,0,0,0,0,0,0,0,0,0,0,0,0,0,0,0,0,0,0,0,0,0,0,0,0,0,0,0,0,0,0,0,0,0,0,0,0,0,0,0,0,0,0,0,0,0,0,0,0,0,0,0,0,0,0,0,388,389,392,392,397,489,702,782,867,935,953,934,920,899,888,873,856,842,835,805,802,783,765,751,738,723,707,693,677,662,571,558,501,426,413,394,396,380,323,322,324,324,325,326,327,328,328,328,329,329,329,330,329,330,329,330,333,333,332,332,332,334,334,333,333,658,662,662,666,675,815,1264,1404,1541,1610,1591,1591,1541,1518,1508,1468,1474,1421,1402,1389,1360,1319,1293,1274,1296,1235,1199,1170,1031,1046,959,817,723,706,696,667,668,647,591,592,594,609,605,601,602,617,605,603,614,614,626,626,639,649,601,601,609,607,606,606,604,606,601,600,600,907,908,913,949,1036,1658,2006,2201,2354,2391,2374,2347,2295,2286,2228,2184,2152,2112,2059,2031,1953,1951,1900,1861,1812,1766,1722,1658,1492,1345,1023,1037,964,941,923,928,942,947,942,940,934,942,935,952,941,946,965,980,947,956,969,969,961,959,1004,956,949,954,964,961,960,974,969,977,964,499,506,508,508,527,619,937,1046,1158,1229,1242,1218,1200,1174,1158,1138,1117,1098,1086,1054,1046,1024,1001,981,965,944,924,905,884,821,697,674,560,524,519,528,531,512,432,427,429,432,434,435,436,433,435,437,438,438,438,439,438,439,438,439,442,442,441,439,442,440,437,437,437,58,58,58,58,58,60,67,75,84,91,98,97,94,93,92,91,88,87,86,84,82,81,79,78,76,75,73,72,70,68,67,66,63,62,61,60,60,60,16,15,16,16,16,16,16,16,16,16,16,16,16,16,16,16,15,16,16,16,16,16,16,16,15,16,16,568,571,576,568,579,682,1038,1177,1249,1303,1275,1257,1239,1254,1260,1244,1200,1206,1158,1155,1107,1099,1108,1047,1063,1051,1030,880,866,849,692,800,701,584,606,571,586,588,567,564,568,574,572,575,580,583,573,575,574,575,576,585,584,585,594,592,576,582,587,580,577,579,574,573,573,501,507,510,513,517,695,940,1048,1161,1232,1245,1221,1202,1176,1159,1140,1119,1100,1088,1057,1049,1027,1003,984,968,946,926,906,886,763,698,682,665,526,520,518,521,503,419,418,420,420,421,422,423,424,424,424,425,425,425,426,425,426,425,426,429,429,428,428,429,430,430,429,429,447,454,456,456,454,571,832,925,1023,1097,1114,1091,1076,1052,1037,1020,1000,985,974,944,938,918,897,879,864,847,828,716,680,711,667,580,541,514,462,459,460,460,404,403,405,405,406,407,408,409,409,409,410,410,410,411,410,411,410,411,414,414,413,413,414,415,415,414,414,642,642,648,640,655,885,1226,1401,1489,1561,1502,1478,1478,1486,1437,1446,1438,1396,1335,1357,1282,1284,1269,1196,1210,1194,1167,1125,1090,989,765,763,702,657,680,644,676,623,610,617,612,615,618,627,623,624,619,619,624,619,618,624,623,629,629,633,628,630,629,633,630,632,627,626,626,580,582,579,584,604,681,1134,1281,1368,1405,1450,1426,1363,1341,1322,1297,1271,1286,1248,1251,1187,1174,1143,1116,1112,1071,1060,972,816,806,792,692,612,597,611,623,588,586,556,561,556,561,567,565,562,567,563,565,566,566,560,559,560,564,562,560,564,561,559,563,561,568,561,565,560,316,316,317,318,320,337,568,634,700,765,797,775,769,750,737,724,719,706,698,681,643,631,636,624,612,583,586,573,566,555,478,376,476,335,324,320,323,324,292,296,284,291,311,300,297,312,294,303,300,308,312,308,296,305,311,293,297,301,311,308,311,313,312,314,310,0,0,0,0,0,0,0,0,0,0,0,0,0,0,0,0,0,0,0,0,0,0,0,0,0,0,0,0,0,0,0,0,0,0,0,0,0,0,0,0,0,0,0,0,0,0,0,0,0,0,0,0,0,0,0,0,0,0,0,0,0,0,0,0,0,549,551,547,558,579,669,1042,1194,1287,1320,1368,1341,1288,1264,1245,1224,1196,1207,1178,1183,1118,1111,1078,1056,1054,1013,1000,971,786,764,793,734,588,574,577,592,565,540,509,514,509,514,520,518,515,520,516,518,519,519,513,512,513,517,515,513,517,514,512,516,514,521,514,518,513,881,895,885,900,934,1401,1779,1954,2130,2160,2160,2158,2085,2064,2018,1983,1950,1906,1882,1861,1804,1782,1735,1711,1680,1646,1565,1517,1355,1157,980,951,958,933,926,896,859,861,858,864,862,867,872,874,897,902,863,875,863,869,869,894,877,881,897,895,877,869,878,879,868,882,860,873,865,174,175,175,176,176,219,312,349,385,422,438,432,424,417,410,403,396,390,382,375,368,361,354,348,340,333,326,319,312,306,298,291,284,277,220,176,177,177,164,154,152,155,162,161,159,155,154,157,172,159,163,168,169,167,159,159,163,206,176,168,158,159,172,156,153,332,333,335,336,345,397,571,687,746,812,840,817,811,797,777,764,757,755,742,717,679,682,681,657,644,611,600,590,579,567,520,368,504,353,345,347,360,341,308,311,300,307,322,316,313,327,310,319,316,324,328,324,312,321,326,309,313,317,327,324,327,329,327,329,326,519,521,496,482,504,658,892,981,1078,1201,1141,1147,1144,1084,1066,1051,1038,1017,1097,990,1043,1015,980,922,910,922,874,783,750,778,590,568,495,514,521,549,531,491,498,507,505,515,524,511,512,512,507,517,519,515,510,518,522,527,539,536,517,522,518,509,507,505,525,519,505,176,176,176,177,177,277,314,351,387,424,440,434,427,420,412,405,398,391,385,378,370,363,356,349,342,336,328,321,314,307,300,292,286,279,272,178,268,268,157,158,158,160,158,165,159,166,164,160,165,159,160,160,159,163,160,160,160,162,163,159,160,161,158,164,161,138,138,139,139,140,216,243,271,300,327,343,338,332,327,321,316,310,306,300,295,290,284,279,273,268,262,258,252,247,241,236,230,225,219,143,140,140,140,128,131,128,131,129,136,132,158,137,132,139,133,135,132,132,135,132,132,133,132,131,131,129,133,132,134,128,580,582,579,584,604,681,1134,1281,1368,1405,1450,1426,1363,1341,1322,1297,1271,1286,1248,1251,1187,1174,1143,1116,1112,1071,1060,972,816,806,792,692,612,597,611,623,588,586,556,561,556,561,567,565,562,567,563,565,566,566,560,559,560,564,562,560,564,561,559,563,561,568,561,565,560,157,158,158,159,160,245,279,311,343,375,396,390,384,378,370,364,358,352,345,339,333,327,320,314,308,301,295,289,282,276,270,264,257,250,244,160,240,241,114,114,114,114,114,114,114,114,114,114,114,114,114,114,114,114,114,114,114,114,114,114,114,114,114,114,114,690,698,700,707,737,990,1362,1510,1623,1656,1661,1636,1597,1583,1549,1551,1515,1490,1470,1435,1380,1382,1353,1302,1275,1256,1183,1106,1068,1054,857,751,735,723,708,706,705,696,658,658,658,658,658,658,658,658,658,658,658,658,658,658,658,658,658,658,658,658,658,658,658,658,658,658,658,619,623,629,635,642,883,1209,1354,1435,1486,1484,1460,1444,1423,1393,1386,1362,1335,1315,1282,1228,1242,1217,1168,1143,1120,1134,999,867,914,796,736,717,636,632,629,632,617,583,583,583,583,583,583,583,583,583,583,583,583,583,583,583,583,583,583,583,583,583,583,583,583,583,583,583,0,0,0,0,0,0,0,0,0,0,0,0,0,0,0,0,0,0,0,0,0,0,0,0,0,0,0,0,0,0,0,0,0,0,0,0,0,0,0,0,0,0,0,0,0,0,0,0,0,0,0,0,0,0,0,0,0,0,0,0,0,0,0,0,0,606,610,612,613,644,1050,1201,1319,1432,1482,1491,1473,1449,1426,1406,1380,1357,1343,1300,1287,1279,1240,1206,1194,1171,1134,1124,1100,1063,1054,749,711,656,640,618,615,616,618,614,603,607,618,596,604,607,603,627,599,607,624,637,623,633,637,638,619,618,613,637,637,637,636,636,636,636,614,617,619,632,668,1021,1190,1310,1425,1466,1471,1448,1423,1413,1382,1376,1350,1315,1303,1270,1221,1237,1209,1163,1137,1113,1127,1068,1082,1019,835,678,667,640,626,623,628,611,568,568,568,568,568,568,568,568,568,568,568,568,568,568,568,568,568,568,568,568,568,568,568,568,568,568,568,686,694,696,702,732,984,1352,1498,1611,1646,1651,1626,1587,1573,1539,1542,1506,1481,1461,1426,1371,1373,1345,1294,1267,1248,1175,1098,1063,1049,849,743,730,715,703,701,700,696,658,658,658,658,658,658,658,658,658,658,658,658,658,658,658,658,658,658,658,658,658,658,658,658,658,658,658,200,198,199,214,214,312,325,402,423,486,456,470,463,434,427,420,433,427,440,412,405,416,408,400,354,369,339,356,348,316,343,336,327,313,306,215,215,216,172,172,172,172,172,172,172,172,172,172,172,172,172,172,172,172,172,172,172,172,172,172,172,172,172,172,172,665,668,671,684,729,1118,1302,1434,1551,1590,1592,1567,1541,1528,1495,1488,1459,1423,1407,1373,1323,1337,1308,1259,1231,1205,1217,1156,1167,925,914,732,733,692,678,675,680,664,625,625,625,625,625,625,625,625,625,625,625,625,625,625,625,625,625,625,625,625,625,625,625,625,625,625,625,552,554,555,567,580,875,1053,1159,1264,1309,1316,1296,1274,1262,1238,1234,1212,1180,1170,1139,1090,1110,1086,1039,1020,999,1015,958,975,881,609,596,601,576,563,560,564,562,520,520,520,520,520,520,520,520,520,520,520,520,520,520,520,520,520,520,520,520,520,520,520,520,520,520,520,157,158,158,159,160,245,279,311,343,375,396,390,384,378,370,364,358,352,345,339,333,327,320,314,308,301,295,289,282,276,270,264,257,250,244,160,240,241,114,114,114,114,114,114,114,114,114,114,114,114,114,114,114,114,114,114,114,114,114,114,114,114,114,114,114,793,801,798,812,904,1409,1605,1773,1871,1923,1948,1893,1863,1834,1807,1779,1750,1724,1695,1652,1643,1597,1566,1549,1518,1472,1442,1323,963,944,925,931,910,852,841,808,809,797,774,773,782,777,782,781,786,791,783,790,792,785,789,782,791,795,790,788,793,782,783,783,783,783,783,783,783,939,942,973,962,1022,1703,2069,2310,2469,2552,2532,2485,2448,2391,2344,2297,2259,2203,2166,2119,2072,2016,1979,1922,1884,1837,1780,1700,1569,1295,1106,1074,1000,1014,958,952,963,961,948,946,948,952,954,952,961,968,962,960,962,959,966,965,966,971,968,967,968,972,968,970,969,969,968,969,968,989,990,990,1041,1139,1779,2159,2356,2462,2499,2514,2466,2422,2367,2310,2278,2244,2196,2204,2163,2128,2064,2026,1945,1906,1887,1804,1533,1444,1231,1093,1084,1073,1042,1007,1016,1000,1003,980,986,986,993,989,996,993,998,998,993,999,992,994,993,993,996,993,993,993,996,993,992,993,994,993,996,993,685,687,693,693,737,1190,1346,1503,1635,1683,1754,1653,1627,1599,1588,1545,1534,1492,1465,1507,1412,1384,1358,1330,1304,1278,1250,1237,1110,1056,825,806,726,709,697,695,698,700,682,675,682,685,684,686,687,691,688,688,694,687,693,686,693,698,693,694,696,690,687,687,687,687,687,687,687,0,0,0,0,0,0,0,0,0,0,0,0,0,0,0,0,0,0,0,0,0,0,0,0,0,0,0,0,0,0,0,0,0,0,0,0,0,0,0,0,0,0,0,0,0,0,0,0,0,0,0,0,0,0,0,0,0,0,0,0,0,0,0,0,0,880,882,884,912,950,1563,1894,2127,2253,2283,2331,2293,2187,2148,2108,2131,2029,2044,2007,1963,1922,1830,1838,1749,1758,1718,1630,1590,1415,1346,1163,954,984,916,898,894,898,903,880,886,886,893,892,896,893,898,898,893,899,892,894,893,893,896,893,893,893,896,893,892,893,894,893,896,893,935,938,968,956,1071,1693,2057,2300,2459,2542,2522,2475,2439,2382,2335,2288,2250,2194,2157,2110,2063,2007,1970,1914,1876,1830,1773,1692,1561,1287,1168,1069,996,1009,953,948,963,961,948,946,948,952,954,952,961,968,962,960,962,959,966,966,966,971,971,967,969,974,968,970,971,970,968,971,968,823,834,836,847,911,1496,1694,1821,1965,2040,2025,1993,1960,1946,1960,1881,1890,1798,1783,1767,1678,1669,1636,1584,1536,1580,1522,1471,1111,1089,1019,947,875,856,848,844,870,848,842,837,826,824,847,850,847,857,853,855,861,855,860,853,860,867,862,864,866,859,859,859,859,859,859,859,859,878,881,887,908,951,1588,1919,2135,2253,2281,2265,2225,2184,2143,2112,2128,2038,1989,2017,1916,1923,1827,1837,1754,1706,1671,1637,1589,1557,1280,1089,964,951,925,921,917,885,892,856,868,865,870,862,873,869,875,875,870,875,869,871,870,870,873,870,870,870,873,870,869,870,871,870,873,870,946,967,976,989,1035,1703,2056,2188,2290,2331,2346,2281,2269,2231,2181,2151,2113,2074,2041,2003,1998,1928,1874,1855,1782,1747,1712,1643,1397,1243,1074,1022,1035,983,966,962,972,977,956,954,964,969,967,972,959,969,963,956,974,968,970,969,969,972,969,969,969,972,969,968,969,970,969,972,969,793,801,798,812,904,1409,1605,1773,1871,1923,1948,1893,1863,1834,1807,1779,1750,1724,1695,1652,1643,1597,1566,1549,1518,1472,1442,1323,963,944,925,931,910,852,841,808,809,797,774,773,782,777,782,781,786,791,783,790,792,785,789,782,791,795,790,788,793,782,783,783,783,783,783,783,783,612,628,616,631,623,774,1187,1357,1436,1523,1513,1502,1468,1464,1436,1413,1363,1345,1312,1290,1277,1266,1239,1193,1189,1167,1145,967,868,847,790,683,665,652,642,639,626,622,556,553,549,556,561,556,561,563,557,559,560,570,577,578,580,567,564,558,561,564,555,556,555,558,559,558,549,408,411,413,414,415,486,741,828,918,996,1022,999,985,931,952,937,926,907,865,852,834,823,825,810,798,760,749,728,728,711,589,479,569,465,418,415,416,420,390,373,363,371,390,377,373,397,371,376,376,374,371,368,370,374,375,372,372,372,372,372,372,372,372,372,372,108,108,162,162,163,168,189,211,232,254,270,265,261,256,252,248,243,240,235,231,226,223,218,214,210,206,234,196,193,188,214,180,176,171,168,164,164,165,102,100,100,100,100,102,105,105,101,101,104,104,103,101,101,104,102,102,101,102,100,100,101,101,102,104,101,580,596,584,600,599,701,1120,1275,1354,1439,1436,1420,1395,1391,1360,1344,1289,1276,1246,1220,1208,1202,1175,1134,1126,1110,1088,1065,846,814,741,659,642,618,619,611,603,575,509,506,502,509,514,509,514,516,510,512,513,523,531,531,535,520,517,511,514,517,508,509,508,511,512,511,502,876,872,881,883,889,1360,1932,2115,2229,2261,2230,2193,2178,2142,2111,2054,2019,1988,1946,1905,1860,1821,1791,1752,1701,1648,1572,1537,1407,1240,1094,956,925,903,892,886,836,829,821,825,827,834,844,847,840,849,835,844,838,854,852,853,845,858,841,850,851,843,844,848,842,856,826,834,834,0,0,0,0,0,0,0,0,0,0,0,0,0,0,0,0,0,0,0,0,0,0,0,0,0,0,0,0,0,0,0,0,0,0,0,0,0,0,0,0,0,0,0,0,0,0,0,0,0,0,0,0,0,0,0,0,0,0,0,0,0,0,0,0,0,425,428,436,432,438,493,773,890,965,1041,1064,1048,1032,990,992,975,975,959,918,888,875,859,873,848,823,806,793,775,757,740,588,471,561,457,436,432,443,436,405,389,379,387,396,393,389,405,387,392,392,390,387,384,386,389,391,388,388,388,388,388,388,388,388,388,388,555,572,569,552,588,645,997,1162,1237,1312,1289,1246,1252,1234,1172,1209,1180,1164,1152,1173,1128,1121,1102,1084,1055,1041,1005,830,866,817,734,739,612,568,564,567,587,557,536,533,529,536,541,536,541,543,537,539,540,549,550,552,553,547,544,538,541,544,535,536,535,538,539,538,529,116,116,116,116,176,181,204,228,252,276,291,286,282,277,272,268,264,259,254,249,244,240,236,231,226,222,217,212,207,204,199,194,189,184,180,176,177,177,108,108,108,108,108,110,112,178,112,112,111,111,110,110,110,114,114,110,111,108,108,110,111,112,110,111,111,103,103,156,156,156,159,181,201,222,242,256,252,248,244,240,236,232,228,224,220,216,212,208,204,200,196,230,188,184,216,176,172,168,164,192,157,157,158,91,90,91,92,92,92,92,91,91,92,96,91,92,94,95,92,97,96,92,92,90,92,90,92,92,92,91,612,628,616,631,623,774,1187,1357,1436,1523,1513,1502,1468,1464,1436,1413,1363,1345,1312,1290,1277,1266,1239,1193,1189,1167,1145,967,868,847,790,683,665,652,642,639,626,622,556,553,549,556,561,556,561,563,557,559,560,570,577,578,580,567,564,558,561,564,555,556,555,558,559,558,549,646,646,652,644,663,880,1233,1403,1499,1571,1514,1489,1490,1493,1447,1447,1430,1395,1345,1366,1292,1292,1275,1205,1214,1203,1132,1116,1084,989,722,770,710,665,674,652,678,631,605,611,608,612,612,616,619,616,615,614,617,613,614,614,614,614,614,614,614,614,614,614,614,614,614,614,614,4,4,4,4,8,8,8,9,10,10,12,12,12,10,10,10,10,10,10,10,10,9,9,9,9,9,9,9,8,8,8,8,8,8,8,8,8,8,0,0,0,0,0,0,0,0,0,0,0,0,0,0,0,0,0,0,0,0,0,0,0,0,0,0,0,344,347,348,351,353,429,635,707,779,844,855,841,826,809,802,788,770,760,750,721,720,705,692,679,664,651,637,624,610,596,504,492,438,364,355,352,350,348,307,307,308,308,309,310,311,312,312,312,313,313,313,314,313,314,314,314,317,317,316,316,316,318,317,317,317,656,658,659,669,677,810,1258,1398,1535,1606,1594,1583,1537,1522,1498,1472,1471,1412,1396,1383,1354,1312,1302,1268,1236,1229,1194,1164,1019,1054,942,824,731,714,692,664,665,655,586,586,590,606,599,593,598,613,601,596,609,608,616,616,616,616,594,594,603,605,600,598,600,601,599,599,599,911,912,917,937,1021,1598,2002,2195,2363,2400,2386,2343,2307,2240,2236,2188,2130,2092,2069,2040,1963,1960,1909,1868,1820,1762,1711,1667,1492,1340,1029,991,972,944,927,936,950,955,942,942,942,942,942,942,942,942,942,942,942,942,942,942,942,942,942,942,942,942,942,942,942,942,942,942,942,458,462,463,465,478,559,870,971,1069,1138,1144,1125,1106,1089,1077,1058,1032,1021,1006,972,964,946,928,908,891,872,854,836,817,753,630,608,497,485,474,472,480,469,416,412,413,416,418,419,420,417,419,421,422,422,422,423,422,423,423,423,426,426,425,423,426,424,422,423,423,0,0,0,0,0,0,0,0,0,0,0,0,0,0,0,0,0,0,0,0,0,0,0,0,0,0,0,0,0,0,0,0,0,0,0,0,0,0,0,0,0,0,0,0,0,0,0,0,0,0,0,0,0,0,0,0,0,0,0,0,0,0,0,0,0,572,575,580,572,586,622,1046,1184,1259,1313,1287,1267,1251,1232,1270,1251,1210,1161,1168,1165,1117,1108,1117,1056,1072,1051,1014,871,873,857,625,742,699,592,591,579,594,588,562,558,564,571,566,567,576,579,569,568,569,569,573,580,579,576,586,585,570,580,581,572,573,574,572,572,572,460,463,465,477,479,602,873,973,1071,1141,1147,1128,1108,1091,1079,1059,1034,1023,1008,974,967,949,930,909,894,874,856,837,818,696,631,616,608,486,476,474,481,467,403,403,404,404,405,406,407,408,408,408,409,409,409,410,409,410,410,410,413,413,412,412,413,414,413,413,413,406,410,411,413,414,508,765,850,937,1006,1016,998,982,965,955,937,917,902,890,860,856,840,824,807,789,772,758,716,610,710,600,581,530,473,420,418,419,416,388,388,389,389,390,391,392,393,393,393,394,394,394,395,394,395,395,395,398,398,397,397,398,399,398,398,398,646,646,652,644,663,880,1233,1403,1499,1571,1514,1489,1490,1493,1447,1447,1430,1395,1345,1366,1292,1292,1275,1205,1214,1203,1132,1116,1084,989,722,770,710,665,674,652,678,631,605,611,608,612,612,616,619,616,615,614,617,613,614,614,614,614,614,614,614,614,614,614,614,614,614,614,614,172,207,179,163,164,169,287,321,354,388,406,399,393,424,380,374,367,361,354,348,342,334,328,321,318,309,302,296,289,283,277,270,267,219,167,164,164,209,129,119,121,121,122,125,121,125,121,121,122,123,121,123,123,123,125,126,123,123,123,123,126,123,121,121,121,612,593,605,618,625,745,1132,1276,1393,1413,1416,1403,1368,1358,1333,1313,1298,1288,1254,1241,1213,1200,1171,1153,1133,1100,1083,1055,1024,924,759,707,624,617,624,600,596,579,561,565,568,575,576,578,568,581,564,570,573,570,570,580,579,577,580,580,582,576,577,580,580,585,564,571,564,541,518,530,549,564,564,982,1097,1201,1250,1251,1223,1212,1184,1172,1154,1149,1153,1133,1091,1072,1051,1031,1013,994,991,968,948,906,887,580,574,556,567,553,539,525,554,508,508,513,509,506,513,507,515,519,504,518,509,509,508,524,524,528,516,529,519,511,517,522,515,503,518,514,212,212,213,219,214,246,378,423,472,517,531,523,516,506,510,489,481,475,464,454,450,438,429,421,412,415,396,387,379,370,363,351,256,250,244,215,216,216,182,182,182,185,209,211,197,206,198,212,201,194,205,189,190,205,197,188,214,189,187,211,201,214,205,202,198,755,745,761,756,811,1100,1424,1576,1671,1777,1716,1723,1720,1688,1650,1592,1568,1543,1550,1494,1470,1474,1420,1420,1393,1358,1332,996,1115,980,963,851,829,751,756,736,755,757,744,750,754,755,761,766,754,760,758,751,760,760,783,761,764,770,767,766,776,768,759,768,773,803,781,788,781,537,513,525,579,580,710,973,1086,1191,1233,1233,1214,1196,1178,1158,1141,1136,1117,1099,1081,1061,1040,1020,1002,983,972,955,915,896,876,787,642,546,541,546,530,520,590,490,490,490,498,501,496,494,496,497,502,499,497,500,508,506,501,501,505,505,512,516,503,505,499,501,502,499,608,589,601,613,620,738,1123,1265,1381,1402,1406,1393,1358,1348,1323,1303,1288,1278,1245,1232,1204,1191,1162,1144,1125,1092,1076,1047,1016,916,751,741,619,612,618,595,592,579,561,565,568,575,576,578,568,581,564,570,573,570,570,580,579,577,580,580,582,576,577,580,580,585,564,571,564,0,0,0,0,0,0,0,0,0,0,0,0,0,0,0,0,0,0,0,0,0,0,0,0,0,0,0,0,0,0,0,0,0,0,0,0,0,0,0,0,0,0,0,0,0,0,0,0,0,0,0,0,0,0,0,0,0,0,0,0,0,0,0,0,0,588,564,577,630,669,797,1081,1214,1318,1357,1355,1334,1315,1293,1273,1254,1246,1225,1207,1185,1164,1141,1118,1099,1078,1065,1046,1005,984,961,795,767,599,593,597,582,572,643,543,547,543,544,560,562,555,573,551,559,560,554,555,556,559,565,561,560,562,567,560,562,560,557,556,560,557,474,450,461,478,502,507,847,947,1036,1078,1080,1062,1046,1029,1014,998,994,979,964,948,928,912,895,879,862,855,840,804,787,769,630,621,499,477,537,466,457,536,441,445,447,452,452,454,450,455,446,458,449,449,456,455,465,469,456,456,462,465,464,452,465,473,451,455,449,172,207,179,163,164,169,287,321,354,388,406,399,393,424,380,374,367,361,354,348,342,334,328,321,318,309,302,296,289,283,277,270,267,219,167,164,164,209,129,119,121,121,122,125,121,125,121,121,122,123,121,123,123,123,125,126,123,123,123,123,126,123,121,121,121,664,665,661,656,661,884,1272,1436,1541,1614,1606,1595,1559,1538,1528,1496,1449,1425,1393,1371,1356,1345,1307,1267,1264,1213,1218,1035,965,943,923,824,758,688,678,667,665,646,585,579,583,592,587,588,586,590,588,592,592,589,605,609,607,590,589,587,589,593,583,581,588,587,584,589,582,441,435,436,432,447,544,799,913,989,1073,1095,1059,1011,1005,1026,1009,987,972,952,913,903,902,870,868,828,807,808,800,764,751,609,598,581,450,444,449,451,452,405,408,401,414,428,414,413,438,408,414,416,428,414,407,413,419,410,412,416,427,414,411,413,440,433,437,433,132,133,133,194,201,207,235,261,289,316,332,327,321,316,312,306,301,296,290,285,316,274,270,264,259,254,248,243,237,232,228,222,217,211,206,202,202,204,125,126,127,124,125,127,127,126,126,132,128,127,126,128,127,128,128,129,128,127,127,127,127,127,127,130,128,619,634,630,622,637,877,1214,1356,1459,1530,1529,1513,1486,1465,1453,1426,1375,1356,1327,1301,1287,1281,1241,1206,1201,1156,1158,1112,925,875,853,800,724,657,655,644,642,599,538,532,536,545,540,541,539,543,541,545,545,542,559,562,562,543,542,540,542,546,536,534,541,540,537,542,535,902,897,905,908,925,1490,1888,2132,2292,2323,2308,2272,2240,2196,2172,2116,2088,2047,1993,1962,1921,1858,1838,1801,1754,1685,1640,1604,1375,1271,1047,976,955,945,913,913,853,850,845,843,852,859,857,855,863,872,860,859,860,859,853,868,863,868,889,878,855,856,863,863,858,865,852,861,856,84,84,84,84,128,130,147,164,182,199,212,210,206,202,199,195,192,189,186,182,178,175,172,169,165,162,158,154,152,148,145,141,138,134,132,128,128,129,73,73,75,76,74,76,74,75,74,76,75,74,74,74,75,76,75,74,75,74,75,75,74,75,73,74,74,457,460,461,457,466,594,831,952,1036,1118,1138,1125,1070,1064,1066,1047,1026,1009,990,949,954,936,919,905,867,851,835,819,793,793,675,590,574,468,461,467,468,468,420,424,417,430,434,430,429,453,424,430,432,444,430,423,429,434,426,428,432,443,430,427,429,454,440,441,441,570,572,575,588,621,697,1082,1202,1330,1382,1362,1368,1353,1300,1310,1256,1272,1250,1266,1168,1210,1202,1160,1179,1147,1152,1032,915,945,820,784,743,610,606,608,591,627,577,565,559,563,572,567,568,566,570,568,572,572,569,586,589,584,570,569,567,569,573,563,561,568,567,564,569,562,0,0,0,0,0,0,0,0,0,0,0,0,0,0,0,0,0,0,0,0,0,0,0,0,0,0,0,0,0,0,0,0,0,0,0,0,0,0,0,0,0,0,0,0,0,0,0,0,0,0,0,0,0,0,0,0,0,0,0,0,0,0,0,0,0,150,151,151,152,152,236,266,297,327,358,375,369,363,357,351,345,339,333,328,322,316,310,304,298,292,286,280,274,268,262,256,252,246,240,234,152,230,230,145,144,142,144,141,148,141,144,144,148,148,147,150,144,149,148,146,144,144,148,144,148,144,141,146,144,143,664,665,661,656,661,884,1272,1436,1541,1614,1606,1595,1559,1538,1528,1496,1449,1425,1393,1371,1356,1345,1307,1267,1264,1213,1218,1035,965,943,923,824,758,688,678,667,665,646,585,579,583,592,587,588,586,590,588,592,592,589,605,609,607,590,589,587,589,593,583,581,588,587,584,589,582,532,536,517,540,547,660,978,1090,1199,1323,1282,1258,1242,1228,1200,1196,1159,1164,1137,1094,1069,1054,1052,1015,994,979,955,881,766,751,689,740,658,544,525,522,532,514,491,494,490,494,502,496,495,498,493,501,498,501,495,495,495,497,496,495,500,497,495,498,498,502,497,497,497,347,360,362,363,364,469,634,721,803,874,873,882,867,831,835,824,814,795,786,770,757,703,723,699,696,666,644,652,616,617,589,458,479,394,401,368,379,387,318,319,321,321,320,319,318,327,327,321,321,320,322,327,325,328,327,326,325,324,327,330,326,326,326,325,322,154,155,156,156,156,243,274,307,338,370,387,380,374,368,394,388,350,344,338,332,325,319,313,307,328,295,289,283,277,271,264,258,252,246,160,156,258,258,142,143,143,147,142,144,143,145,145,146,145,144,146,145,146,146,146,146,148,146,148,146,148,147,147,147,147,500,504,484,509,524,634,921,1023,1120,1244,1204,1175,1167,1157,1121,1126,1090,1096,1070,1029,1000,991,990,955,936,919,898,878,754,666,664,628,634,518,500,499,508,468,444,447,443,447,455,449,448,451,446,454,451,454,448,448,448,450,449,448,453,450,448,451,451,455,450,450,450,844,841,849,852,858,1272,1702,1888,2008,2039,2031,2036,1970,1939,1910,1881,1869,1806,1789,1759,1728,1702,1669,1653,1612,1577,1448,1418,1323,1181,1094,962,895,866,860,852,808,801,790,792,796,796,796,804,800,813,800,801,797,801,798,810,806,823,803,814,808,805,809,808,807,813,790,801,798,151,152,152,229,229,237,270,301,332,364,381,374,368,362,356,350,344,338,332,326,320,314,308,302,295,289,283,277,271,265,259,253,247,241,235,230,231,231,143,143,143,143,144,144,144,145,144,144,144,144,144,145,144,145,144,144,147,145,144,143,144,145,147,147,145,372,379,379,388,385,497,634,772,844,919,945,924,908,898,875,864,867,840,823,810,792,739,758,763,728,685,673,660,647,609,595,508,504,396,393,390,384,387,320,323,321,321,327,328,328,332,327,326,329,328,327,329,329,333,328,327,329,324,327,330,326,326,326,325,322,474,476,431,478,512,559,816,961,1015,1118,1033,994,1004,990,1009,1017,948,969,942,980,912,909,894,900,879,866,850,727,637,687,623,573,571,542,484,447,448,483,458,461,465,474,464,475,461,468,463,456,470,467,475,475,475,476,465,475,473,476,475,468,469,480,460,470,467,202,203,204,204,204,301,364,406,450,492,507,499,490,483,475,466,459,451,442,434,427,418,459,402,394,386,378,369,362,354,345,337,330,302,292,205,289,291,198,196,197,197,250,198,200,205,197,251,200,198,203,202,200,203,252,205,253,204,202,204,200,204,204,204,205,0,0,0,0,0,0,0,0,0,0,0,0,0,0,0,0,0,0,0,0,0,0,0,0,0,0,0,0,0,0,0,0,0,0,0,0,0,0,0,0,0,0,0,0,0,0,0,0,0,0,0,0,0,0,0,0,0,0,0,0,0,0,0,0,0,532,536,517,540,547,660,978,1090,1199,1323,1282,1258,1242,1228,1200,1196,1159,1164,1137,1094,1069,1054,1052,1015,994,979,955,881,766,751,689,740,658,544,525,522,532,514,491,494,490,494,502,496,495,498,493,501,498,501,495,495,495,497,496,495,500,497,495,498,498,502,497,497,497,0,0,0,0,0,0,0,0,0,0,0,0,0,0,0,0,0,0,0,0,0,0,0,0,0,0,0,0,0,0,0,0,0,0,0,0,0,0,0,0,0,0,0,0,0,0,0,0,0,0,0,0,0,0,0,0,0,0,0,0,0,0,0,0,0,648,614,621,624,622,862,1198,1382,1482,1453,1460,1426,1403,1393,1358,1354,1330,1357,1348,1299,1280,1259,1232,1212,1166,1151,1118,1094,1040,988,893,665,656,640,630,620,624,611,602,604,600,615,610,610,609,605,609,614,614,609,618,617,607,604,613,619,607,607,602,608,612,618,610,606,597,584,544,546,549,550,638,1036,1218,1297,1284,1287,1258,1246,1219,1199,1197,1177,1205,1204,1159,1139,1119,1107,1088,1039,1018,998,976,639,638,634,612,605,567,545,549,552,536,514,521,521,523,526,526,524,528,522,538,524,524,528,532,546,548,551,535,535,523,537,536,536,534,532,547,530,135,136,136,173,173,212,239,267,294,322,340,334,330,327,319,313,308,302,297,291,286,280,276,270,265,259,253,248,242,237,231,226,220,216,210,206,206,207,101,101,101,102,102,102,103,103,102,103,103,103,103,104,104,104,104,104,104,104,103,103,103,103,103,103,103,680,682,684,696,726,1127,1361,1498,1509,1558,1560,1537,1515,1492,1432,1449,1485,1405,1382,1360,1338,1376,1293,1272,1297,1227,1243,1155,1142,1034,978,861,832,700,700,688,688,692,695,681,685,696,675,682,687,685,704,679,688,696,711,702,713,700,703,700,699,697,696,701,701,707,700,700,697,587,539,540,541,546,767,1026,1176,1277,1268,1269,1249,1230,1211,1192,1188,1169,1189,1171,1151,1130,1113,1094,1075,1028,1006,985,964,943,919,868,766,687,559,548,543,547,547,517,517,516,523,525,516,516,520,519,522,519,517,523,528,528,530,538,525,521,520,535,544,520,524,523,523,521,644,610,617,619,617,853,1188,1372,1471,1443,1450,1416,1393,1383,1348,1345,1321,1347,1339,1290,1271,1250,1223,1204,1158,1143,1110,1086,1033,1009,885,691,650,634,624,616,619,611,602,604,600,621,610,610,609,605,609,614,621,609,618,617,607,604,613,619,607,607,602,608,612,618,610,606,597,86,86,87,87,132,134,152,170,188,206,219,216,212,208,205,201,198,194,190,187,183,180,177,174,170,166,163,159,156,152,148,145,141,138,134,132,132,132,76,76,77,80,78,78,77,80,76,80,78,80,78,78,80,82,80,78,80,80,80,78,80,81,77,78,77,638,590,592,593,598,864,1134,1300,1404,1393,1391,1369,1349,1326,1306,1301,1278,1297,1277,1255,1232,1213,1192,1171,1123,1100,1079,1053,946,938,926,856,625,611,600,595,599,599,570,574,569,569,584,582,577,597,573,579,580,574,578,576,581,594,598,580,578,575,578,598,575,582,578,581,579,525,476,476,478,480,746,900,1025,1114,1110,1113,1096,1080,1064,1047,1047,1029,1057,1036,1020,1003,986,969,954,908,890,871,853,834,812,740,724,636,495,484,480,484,483,468,472,473,477,476,474,472,479,468,494,469,469,479,475,490,507,495,476,478,473,482,490,480,493,473,476,471,0,0,0,0,0,0,0,0,0,0,0,0,0,0,0,0,0,0,0,0,0,0,0,0,0,0,0,0,0,0,0,0,0,0,0,0,0,0,0,0,0,0,0,0,0,0,0,0,0,0,0,0,0,0,0,0,0,0,0,0,0,0,0,0,0 ]);
