n = 10;
D = [202,200,141,80,151,228,101,292,160,246 ];
q = 0;
prec = array2d(1..0,1..2,[]);
steps = 64;
l = 360;
r = 0;
which = [];
interval = array2d(1..0,1..2,[]);
T = array3d(1..11,1..11,0..64,[0,0,0,0,0,0,0,0,0,0,0,0,0,0,0,0,0,0,0,0,0,0,0,0,0,0,0,0,0,0,0,0,0,0,0,0,0,0,0,0,0,0,0,0,0,0,0,0,0,0,0,0,0,0,0,0,0,0,0,0,0,0,0,0,0,742,739,727,749,765,945,1193,1262,1418,1454,1444,1421,1419,1377,1378,1339,1310,1303,1264,1257,1239,1211,1188,1170,1129,1130,1099,1076,1042,870,958,841,798,776,736,756,739,711,660,660,657,657,673,671,688,677,666,675,677,691,676,671,672,680,674,677,680,682,676,675,673,675,672,677,665,768,767,753,777,808,965,1245,1322,1478,1506,1495,1476,1470,1429,1430,1390,1362,1351,1312,1309,1288,1257,1233,1215,1163,1174,1140,1116,1058,910,953,829,827,812,763,767,783,758,708,707,703,704,717,720,733,722,711,720,722,736,721,716,717,725,719,722,725,727,721,720,718,720,717,722,710,1402,1438,1460,1512,1928,2406,2779,2920,2971,2929,2945,2910,2868,2834,2733,2692,2604,2504,2503,2448,2396,2389,2291,2251,2237,2118,1865,1857,1651,1615,1543,1527,1451,1468,1461,1468,1460,1453,1434,1446,1442,1447,1442,1464,1452,1472,1458,1470,1455,1451,1470,1464,1469,1475,1482,1465,1466,1475,1497,1461,1460,1474,1454,1466,1461,825,819,813,828,846,963,1322,1391,1548,1593,1581,1548,1551,1514,1516,1477,1422,1430,1387,1380,1357,1326,1301,1285,1242,1243,1210,1186,1056,911,1024,884,879,854,821,825,791,790,741,740,737,750,756,754,767,758,756,757,758,769,754,750,754,762,753,762,759,760,759,757,761,760,755,758,746,720,725,722,732,767,881,1141,1255,1394,1451,1447,1410,1405,1369,1352,1330,1306,1288,1258,1240,1217,1194,1169,1147,1123,1100,1076,1056,1030,1006,986,841,769,766,736,732,735,694,644,642,643,643,656,654,674,653,650,656,656,671,660,656,658,663,657,659,663,669,657,656,657,655,654,659,647,124,125,125,126,126,156,176,196,216,237,254,249,245,242,237,234,229,225,222,217,213,210,205,201,198,193,190,185,181,178,173,169,166,161,157,126,155,155,83,83,83,83,83,87,83,83,84,85,84,84,82,84,83,82,83,84,83,84,83,82,83,83,82,83,82,791,801,819,839,873,1073,1310,1459,1527,1555,1581,1564,1540,1537,1481,1473,1426,1405,1355,1354,1310,1301,1280,1261,1241,1204,1179,1171,1156,1026,1036,898,838,828,823,818,787,791,789,773,774,779,782,780,799,811,798,803,799,782,790,815,819,832,801,801,810,806,798,813,805,798,783,783,773,536,538,540,540,551,727,825,922,1017,1075,1083,1065,1048,1031,1014,996,979,962,944,927,909,893,875,858,840,828,808,788,775,757,737,678,619,559,548,544,546,559,515,528,524,531,551,533,535,536,522,539,524,529,528,539,538,556,563,543,536,535,538,529,528,529,539,538,524,829,840,863,878,907,1120,1357,1507,1583,1602,1629,1611,1596,1584,1529,1521,1474,1453,1402,1401,1357,1348,1337,1308,1289,1261,1235,1218,1184,1054,1054,954,883,872,867,857,832,837,810,819,821,816,834,834,840,839,840,854,841,826,832,840,839,830,852,847,830,830,837,840,828,842,835,835,824,0,0,0,0,0,0,0,0,0,0,0,0,0,0,0,0,0,0,0,0,0,0,0,0,0,0,0,0,0,0,0,0,0,0,0,0,0,0,0,0,0,0,0,0,0,0,0,0,0,0,0,0,0,0,0,0,0,0,0,0,0,0,0,0,0,891,901,901,924,978,1311,1504,1638,1728,1760,1748,1774,1685,1658,1639,1612,1584,1549,1522,1496,1474,1442,1420,1401,1376,1343,1316,1294,1261,1225,1129,1014,936,941,930,936,907,893,868,857,861,863,878,878,883,875,879,878,872,871,883,863,868,879,879,870,883,864,863,880,877,889,884,883,883,0,0,0,0,0,0,0,0,0,0,0,0,0,0,0,0,0,0,0,0,0,0,0,0,0,0,0,0,0,0,0,0,0,0,0,0,0,0,0,0,0,0,0,0,0,0,0,0,0,0,0,0,0,0,0,0,0,0,0,0,0,0,0,0,0,101,101,101,101,101,101,101,101,101,101,101,101,101,101,101,101,101,101,101,101,101,101,101,101,101,101,101,101,101,101,101,101,101,101,101,101,101,101,60,60,60,60,60,60,60,62,60,62,62,62,62,62,62,62,62,62,62,63,63,63,63,63,63,63,63,890,915,917,932,949,1204,1526,1669,1779,1797,1832,1760,1733,1707,1682,1656,1629,1649,1577,1560,1516,1508,1482,1449,1419,1405,1357,1304,1277,1086,1108,1052,991,963,944,948,935,905,882,881,888,891,888,890,886,889,886,890,887,886,887,887,889,891,889,888,889,887,889,889,888,890,885,887,886,124,125,125,125,154,157,172,187,187,188,187,187,188,188,188,187,187,187,187,187,187,188,188,188,185,183,180,177,173,171,168,165,161,159,156,154,154,154,99,99,99,101,113,106,104,110,104,114,107,106,108,103,104,107,107,104,111,103,103,103,103,103,103,103,103,408,410,411,412,415,500,589,655,741,793,797,786,774,763,750,737,725,713,702,690,678,666,652,642,630,618,609,597,585,572,509,497,471,435,437,417,418,419,342,346,347,353,352,351,350,352,343,358,351,345,352,353,362,359,371,355,351,346,351,352,351,355,346,350,350,771,780,775,802,857,1110,1251,1392,1485,1512,1505,1535,1458,1435,1412,1389,1366,1343,1320,1295,1272,1249,1226,1213,1196,1156,1133,1119,1086,1063,1003,907,812,794,783,782,783,779,752,741,745,747,766,757,767,760,763,759,760,755,768,747,752,763,763,754,767,748,747,764,761,768,768,767,767,314,315,316,319,320,290,374,438,464,491,508,503,497,492,488,486,479,474,469,463,458,454,449,412,439,399,393,386,382,373,368,296,291,287,281,320,322,322,236,238,239,241,246,241,240,240,240,241,239,244,241,242,243,242,244,242,242,243,245,244,242,243,241,243,241,488,512,515,497,499,600,739,844,918,965,971,941,969,924,937,898,880,869,884,837,810,802,795,785,755,741,748,713,704,688,689,587,575,534,507,522,504,500,478,481,484,483,495,477,490,508,495,487,497,502,487,487,495,507,507,494,500,491,488,497,483,493,489,485,485,357,360,362,363,380,323,421,485,515,538,555,550,544,539,535,533,526,521,517,511,506,502,496,459,486,446,440,434,429,420,340,364,329,332,325,373,375,375,286,286,287,289,296,291,290,290,290,291,290,292,292,293,293,292,298,294,293,293,296,298,295,302,303,306,304,891,901,901,924,978,1311,1504,1638,1728,1760,1748,1774,1685,1658,1639,1612,1584,1549,1522,1496,1474,1442,1420,1401,1376,1343,1316,1294,1261,1225,1129,1014,936,941,930,936,907,893,868,857,861,863,878,878,883,875,879,878,872,871,883,863,868,879,879,870,883,864,863,880,877,889,884,883,883,911,920,932,927,988,1337,1521,1673,1767,1803,1789,1768,1729,1706,1678,1653,1620,1597,1569,1541,1507,1480,1459,1431,1413,1368,1352,1303,1277,1188,1125,1003,954,936,954,926,939,918,894,888,888,889,891,892,910,905,889,908,899,889,888,893,898,909,910,900,913,894,893,910,903,895,891,891,888,116,116,113,113,116,116,113,113,113,113,113,113,113,113,113,113,113,113,113,113,113,113,113,113,113,113,113,113,113,113,113,113,113,113,113,116,116,116,52,49,45,46,48,49,56,56,46,56,56,46,45,56,56,55,55,56,56,56,56,56,57,52,48,48,45,0,0,0,0,0,0,0,0,0,0,0,0,0,0,0,0,0,0,0,0,0,0,0,0,0,0,0,0,0,0,0,0,0,0,0,0,0,0,0,0,0,0,0,0,0,0,0,0,0,0,0,0,0,0,0,0,0,0,0,0,0,0,0,0,0,875,878,884,923,936,1066,1370,1587,1707,1732,1736,1709,1682,1648,1622,1607,1579,1554,1517,1499,1475,1431,1406,1375,1347,1326,1290,1232,1206,985,1066,973,942,920,941,895,911,892,845,845,845,845,845,845,845,845,845,845,845,845,845,845,845,845,845,845,845,845,845,845,845,845,845,845,845,72,72,72,72,72,90,95,95,94,95,94,94,95,95,95,94,94,94,94,94,94,95,95,95,95,95,95,95,95,95,95,94,93,91,90,72,72,72,39,39,39,39,39,39,39,39,39,39,39,39,39,39,39,39,39,39,39,39,39,39,39,39,39,39,39,378,380,382,382,384,430,549,610,666,736,723,716,709,708,697,686,675,668,658,646,638,627,616,606,596,584,575,565,546,535,523,451,441,430,393,386,387,388,319,319,319,319,319,319,319,319,319,319,319,319,319,319,319,319,319,319,319,319,319,319,319,319,319,319,319,791,802,806,803,883,1136,1277,1424,1516,1556,1545,1529,1502,1476,1452,1428,1402,1382,1358,1335,1312,1289,1265,1241,1229,1202,1179,1144,1112,1019,960,910,896,815,802,803,832,804,776,772,772,773,775,776,797,790,773,789,783,773,772,777,782,793,794,784,797,778,777,794,787,779,775,775,772,293,293,339,296,297,368,410,485,531,558,583,576,568,555,553,548,517,536,532,526,521,501,513,475,448,440,432,424,416,408,400,381,375,368,301,297,298,299,251,251,253,254,252,256,255,258,257,256,257,255,255,254,256,257,255,255,256,256,255,255,255,258,254,258,256,518,536,530,521,548,682,773,900,957,1023,1008,1014,988,973,942,936,926,909,886,885,844,843,830,822,796,766,754,742,728,716,677,684,619,560,511,510,526,511,505,506,504,500,502,503,520,523,499,517,510,500,499,517,519,525,526,527,525,521,518,522,514,506,502,502,499,336,337,357,338,341,371,457,532,579,605,630,623,615,602,600,595,564,584,580,574,569,548,560,522,496,487,479,471,464,455,429,440,402,352,345,342,342,343,301,299,301,302,302,306,305,308,307,306,308,303,306,305,306,307,309,307,307,306,306,309,308,317,316,321,319,911,920,932,927,988,1337,1521,1673,1767,1803,1789,1768,1729,1706,1678,1653,1620,1597,1569,1541,1507,1480,1459,1431,1413,1368,1352,1303,1277,1188,1125,1003,954,936,954,926,939,918,894,888,888,889,891,892,910,905,889,908,899,889,888,893,898,909,910,900,913,894,893,910,903,895,891,891,888,1494,1457,1533,1694,1836,2523,2788,2948,3061,3109,3073,3004,2946,2894,2842,2787,2753,2666,2624,2602,2515,2466,2414,2350,2275,2069,2000,1892,1716,1693,1660,1584,1564,1518,1512,1508,1464,1459,1417,1417,1417,1417,1417,1417,1417,1417,1417,1417,1417,1417,1417,1417,1417,1417,1417,1417,1417,1417,1417,1417,1417,1417,1417,1417,1417,875,878,881,889,937,1262,1417,1581,1666,1728,1757,1691,1670,1656,1610,1570,1551,1564,1541,1480,1465,1427,1398,1361,1347,1314,1283,1248,1222,1205,1079,1051,915,909,891,888,874,871,867,867,867,867,867,867,867,867,867,867,867,867,867,867,867,867,867,867,867,867,867,867,867,867,867,867,867,852,830,831,841,911,1180,1360,1520,1610,1666,1701,1631,1608,1578,1540,1514,1488,1515,1455,1423,1397,1370,1328,1304,1278,1251,1244,1190,1163,1147,995,970,940,855,843,840,840,837,828,827,828,834,835,837,842,842,841,846,843,844,847,849,849,845,857,857,858,869,858,855,868,872,859,878,866,0,0,0,0,0,0,0,0,0,0,0,0,0,0,0,0,0,0,0,0,0,0,0,0,0,0,0,0,0,0,0,0,0,0,0,0,0,0,0,0,0,0,0,0,0,0,0,0,0,0,0,0,0,0,0,0,0,0,0,0,0,0,0,0,0,785,788,804,796,841,1114,1285,1434,1525,1584,1619,1579,1529,1504,1464,1438,1438,1423,1402,1376,1328,1303,1265,1239,1215,1190,1166,1130,1106,1091,1065,895,824,826,814,797,777,779,799,788,784,796,804,818,800,802,813,813,803,802,802,806,807,785,799,813,806,813,793,795,815,818,810,813,799,908,899,901,945,961,1310,1483,1658,1770,1793,1808,1756,1728,1699,1687,1664,1613,1585,1556,1608,1500,1471,1463,1435,1386,1376,1328,1318,1288,1243,1223,970,946,953,912,909,911,913,903,899,906,919,933,907,898,906,902,959,927,926,926,960,943,959,959,935,934,928,939,939,940,941,938,937,937,1374,1331,1401,1498,1651,2269,2544,2714,2827,2878,2853,2783,2728,2681,2635,2576,2554,2469,2427,2407,2325,2283,2229,2176,2141,2088,2002,1812,1588,1543,1524,1449,1439,1395,1389,1392,1348,1343,1301,1301,1301,1301,1301,1301,1301,1301,1301,1301,1301,1301,1301,1301,1301,1301,1301,1301,1301,1301,1301,1301,1301,1301,1301,1301,1301,756,740,778,771,797,1099,1280,1453,1623,1675,1651,1622,1593,1606,1553,1507,1515,1459,1442,1413,1398,1340,1307,1273,1246,1207,1174,1158,1108,1075,1026,941,850,771,764,792,768,765,741,741,741,741,741,741,741,741,741,741,741,741,741,741,741,741,741,741,741,741,741,741,741,741,741,741,741,928,924,936,977,1033,1444,1665,1858,2018,2071,2039,1994,1961,1965,1901,1850,1848,1778,1743,1707,1681,1642,1617,1562,1528,1488,1454,1412,1366,1322,1257,1016,998,954,957,958,939,933,896,896,896,896,896,896,896,896,896,896,896,896,896,896,896,896,896,896,896,896,896,896,896,896,896,896,896,716,721,744,732,758,1062,1241,1416,1586,1632,1615,1588,1560,1572,1504,1477,1467,1411,1393,1365,1372,1312,1283,1249,1222,1174,1150,1109,1084,1051,1002,975,789,751,744,752,748,745,720,720,720,720,720,720,720,720,720,720,720,720,720,720,720,720,720,720,720,720,720,720,720,720,720,720,720,1494,1457,1533,1694,1836,2523,2788,2948,3061,3109,3073,3004,2946,2894,2842,2787,2753,2666,2624,2602,2515,2466,2414,2350,2275,2069,2000,1892,1716,1693,1660,1584,1564,1518,1512,1508,1464,1459,1417,1417,1417,1417,1417,1417,1417,1417,1417,1417,1417,1417,1417,1417,1417,1417,1417,1417,1417,1417,1417,1417,1417,1417,1417,1417,1417,951,948,956,961,1025,1369,1574,1724,1863,1874,1880,1849,1820,1796,1767,1734,1687,1666,1637,1598,1577,1545,1516,1492,1450,1434,1413,1366,1332,1211,1067,1077,1023,997,986,991,954,948,927,933,929,935,940,938,935,939,938,936,932,937,934,937,936,935,939,943,939,935,938,936,932,936,946,947,936,183,165,205,165,165,207,207,212,216,221,226,225,224,223,222,221,220,220,218,217,216,215,214,213,213,212,211,210,216,207,207,206,205,204,166,206,165,206,117,114,116,116,118,117,115,117,116,116,116,116,117,117,115,114,116,117,117,116,115,116,116,116,118,116,114,115,115,115,115,115,115,121,125,129,134,139,138,137,136,135,134,133,133,132,130,129,128,127,126,126,125,124,123,122,121,121,119,118,117,116,115,115,115,78,78,80,83,79,79,81,84,80,80,80,80,83,80,82,81,79,80,80,84,83,79,82,85,82,82,81,869,872,874,871,911,1109,1358,1575,1683,1724,1708,1692,1665,1637,1611,1586,1558,1519,1496,1474,1438,1424,1400,1371,1339,1320,1290,1223,1197,1106,971,934,917,891,880,892,879,852,813,818,820,822,827,826,823,826,823,826,825,827,824,822,823,824,823,823,826,824,822,826,824,831,825,825,823,0,0,0,0,0,0,0,0,0,0,0,0,0,0,0,0,0,0,0,0,0,0,0,0,0,0,0,0,0,0,0,0,0,0,0,0,0,0,0,0,0,0,0,0,0,0,0,0,0,0,0,0,0,0,0,0,0,0,0,0,0,0,0,0,0,362,363,365,367,372,432,522,585,645,691,693,686,678,672,664,664,650,650,640,627,617,605,594,582,571,559,548,537,527,516,505,456,446,389,379,372,374,374,316,315,315,327,316,318,319,321,315,320,323,316,321,319,323,320,328,322,320,319,318,314,316,322,319,320,317,825,828,829,838,877,1167,1320,1475,1619,1636,1645,1618,1593,1566,1545,1510,1477,1469,1425,1400,1373,1348,1332,1307,1270,1255,1237,1193,1167,1107,997,924,900,851,839,860,839,832,811,817,813,820,823,822,819,823,822,820,816,821,818,821,820,819,823,827,823,819,822,820,816,820,830,831,820,343,361,345,347,383,380,491,583,638,665,672,686,686,664,635,656,650,640,629,618,607,596,589,576,549,537,527,525,507,504,473,475,452,381,352,384,351,351,300,302,303,304,304,304,303,305,304,305,306,308,308,309,310,311,310,308,311,309,307,311,309,316,310,310,308,564,537,569,552,558,691,833,958,997,1090,1107,1092,1064,1055,1062,1006,983,979,963,942,927,886,893,880,854,825,827,804,807,773,771,748,598,555,593,590,562,559,540,533,542,533,532,542,538,543,543,538,544,541,539,540,538,551,547,542,539,544,540,544,545,542,543,550,545,386,400,389,390,404,406,538,630,686,712,719,733,733,711,683,703,697,687,676,665,658,643,642,623,596,584,575,573,554,551,520,497,414,437,396,410,411,395,350,350,351,352,354,354,353,355,354,355,357,356,359,360,360,361,364,360,363,361,359,363,361,368,362,362,360,951,948,956,961,1025,1369,1574,1724,1863,1874,1880,1849,1820,1796,1767,1734,1687,1666,1637,1598,1577,1545,1516,1492,1450,1434,1413,1366,1332,1211,1067,1077,1023,997,986,991,954,948,927,933,929,935,940,938,935,939,938,936,932,937,934,937,936,935,939,943,939,935,938,936,932,936,946,947,936,883,863,878,873,915,1133,1352,1608,1692,1728,1721,1696,1666,1646,1609,1597,1562,1529,1499,1472,1446,1422,1389,1373,1339,1330,1283,1255,1228,1192,1067,1028,908,916,900,882,877,862,848,841,845,853,848,856,854,860,852,854,854,854,855,856,857,858,855,856,860,855,853,852,855,858,852,861,857,350,351,351,355,358,418,508,565,621,680,706,690,683,672,661,650,635,624,613,602,591,585,573,563,547,536,525,520,510,493,487,438,427,418,359,354,363,356,266,266,266,266,266,266,266,266,266,266,266,266,266,266,266,266,266,266,266,266,266,266,266,266,266,266,266,337,333,334,328,329,421,481,537,621,663,682,673,645,641,629,619,608,598,587,576,566,543,544,522,523,512,502,480,482,470,459,441,430,350,341,337,338,339,297,297,297,297,297,297,297,297,297,297,297,297,297,297,297,297,297,297,297,297,297,297,297,297,297,297,297,934,928,931,948,1002,1340,1508,1666,1780,1844,1835,1802,1779,1751,1722,1694,1665,1629,1599,1584,1542,1527,1494,1466,1437,1400,1380,1351,1310,1294,1267,1013,977,956,944,952,927,928,928,928,928,928,928,928,928,928,928,928,928,928,928,928,928,928,928,928,928,928,928,928,928,928,928,928,928,321,316,317,317,318,377,449,495,554,586,605,596,591,584,575,567,557,548,538,530,523,512,503,495,485,476,467,461,449,441,431,422,415,381,372,319,333,333,280,280,280,280,280,280,280,280,280,280,280,280,280,280,280,280,280,280,280,280,280,280,280,280,280,280,280,0,0,0,0,0,0,0,0,0,0,0,0,0,0,0,0,0,0,0,0,0,0,0,0,0,0,0,0,0,0,0,0,0,0,0,0,0,0,0,0,0,0,0,0,0,0,0,0,0,0,0,0,0,0,0,0,0,0,0,0,0,0,0,0,0,746,735,750,748,758,831,1138,1344,1449,1481,1478,1447,1431,1400,1383,1375,1344,1306,1282,1266,1249,1215,1201,1177,1140,1120,1101,1069,1053,1026,910,825,784,762,759,757,753,746,720,721,723,730,729,736,738,732,731,738,742,734,736,732,733,737,739,739,737,732,727,736,734,739,736,740,736,515,516,519,521,534,579,771,860,948,1024,1041,1018,1007,989,973,956,936,919,903,886,870,858,843,821,805,797,772,755,744,724,649,591,550,573,525,522,523,506,471,471,471,471,471,471,471,471,471,471,471,471,471,471,471,471,471,471,471,471,471,471,471,471,471,471,471,463,465,467,493,473,609,689,800,893,983,941,925,909,896,880,867,857,844,826,804,798,782,759,751,729,728,699,685,684,669,639,623,586,570,475,470,472,486,459,458,458,465,465,466,466,502,466,467,471,463,463,465,465,469,465,465,467,466,466,464,463,466,462,470,464,554,555,562,566,580,665,818,907,995,1071,1089,1065,1055,1041,1025,1003,983,966,955,933,917,905,890,869,856,844,819,803,793,772,673,619,651,606,569,566,562,555,519,519,519,519,519,519,519,519,519,519,519,519,519,519,519,519,519,519,519,519,519,519,519,519,519,519,519,883,863,878,873,915,1133,1352,1608,1692,1728,1721,1696,1666,1646,1609,1597,1562,1529,1499,1472,1446,1422,1389,1373,1339,1330,1283,1255,1228,1192,1067,1028,908,916,900,882,877,862,848,841,845,853,848,856,854,860,852,854,854,854,855,856,857,858,855,856,860,855,853,852,855,858,852,861,857,186,187,187,188,231,238,270,302,334,366,382,377,370,365,358,353,346,339,334,327,322,315,309,303,297,291,284,279,272,266,260,254,248,242,235,231,232,233,234,174,175,174,180,181,175,182,176,176,180,180,178,180,182,186,187,187,178,183,182,182,186,186,188,231,188,711,706,713,716,751,978,1134,1226,1378,1431,1407,1399,1376,1349,1333,1288,1266,1259,1242,1215,1192,1150,1148,1127,1116,1088,1061,1020,1013,991,843,774,773,738,728,722,727,692,637,635,639,638,648,652,653,662,653,649,665,653,654,652,653,656,649,654,658,664,657,655,656,655,650,651,651,739,732,741,745,785,986,1184,1286,1435,1481,1459,1450,1428,1401,1378,1339,1317,1311,1291,1263,1244,1196,1191,1178,1164,1131,1102,1052,1033,1014,912,803,788,765,756,750,758,738,685,682,685,685,692,701,698,707,698,694,710,698,699,697,698,701,694,699,703,709,702,700,701,700,695,696,696,1379,1413,1433,1455,1885,2409,2661,2920,2909,2887,2907,2893,2800,2778,2684,2646,2566,2508,2489,2393,2385,2347,2290,2227,2140,2117,1967,1917,1603,1587,1521,1494,1435,1443,1436,1440,1410,1446,1413,1420,1427,1423,1431,1446,1446,1437,1431,1446,1435,1434,1445,1448,1452,1463,1445,1446,1448,1459,1465,1443,1435,1439,1434,1436,1436,791,789,797,799,842,984,1253,1355,1513,1566,1544,1521,1482,1488,1464,1426,1373,1379,1361,1333,1318,1265,1269,1238,1233,1201,1171,1130,1031,1012,956,894,850,818,808,808,790,771,718,715,719,731,731,735,736,743,743,731,746,736,732,731,735,738,728,740,737,742,740,737,744,740,733,732,732,695,695,701,704,743,914,1108,1219,1355,1416,1392,1375,1351,1333,1312,1279,1257,1244,1220,1197,1174,1152,1129,1107,1085,1061,1033,1010,996,955,900,835,752,734,711,708,709,675,621,617,625,624,631,635,639,638,637,630,649,633,638,637,639,639,632,636,641,651,638,636,640,635,632,633,633,0,0,0,0,0,0,0,0,0,0,0,0,0,0,0,0,0,0,0,0,0,0,0,0,0,0,0,0,0,0,0,0,0,0,0,0,0,0,0,0,0,0,0,0,0,0,0,0,0,0,0,0,0,0,0,0,0,0,0,0,0,0,0,0,0,768,778,769,774,820,1094,1242,1434,1501,1513,1536,1553,1482,1458,1496,1424,1402,1362,1331,1313,1287,1276,1279,1215,1232,1179,1120,1118,1094,909,969,836,830,826,810,798,765,763,761,759,773,783,770,745,773,787,783,770,786,777,770,783,778,795,790,752,775,776,781,784,759,793,773,769,769,511,513,513,515,524,699,788,884,974,1028,1034,1017,1001,984,968,951,933,917,900,894,906,851,834,818,801,785,768,752,735,719,702,678,634,534,522,518,520,522,495,497,491,510,497,503,497,494,503,496,511,518,526,495,497,497,508,504,507,495,509,514,527,497,485,522,522,807,817,813,819,858,1141,1289,1481,1549,1560,1584,1609,1530,1505,1543,1471,1449,1410,1378,1360,1334,1323,1326,1262,1279,1226,1168,1166,1141,937,993,937,874,864,855,842,810,808,807,790,795,794,799,799,798,808,800,808,816,820,812,816,823,821,832,805,820,829,823,828,813,844,825,821,821,186,187,187,188,231,238,270,302,334,366,382,377,370,365,358,353,346,339,334,327,322,315,309,303,297,291,284,279,272,266,260,254,248,242,235,231,232,233,234,174,175,174,180,181,175,182,176,176,180,180,178,180,182,186,187,187,178,183,182,182,186,186,188,231,188,959,962,1017,969,1065,1378,1634,1765,1841,1867,1845,1822,1800,1762,1744,1716,1696,1672,1631,1596,1576,1574,1559,1485,1472,1428,1433,1391,1339,1301,1126,1078,997,1002,968,992,962,955,950,944,956,955,945,982,951,957,953,951,971,954,947,955,953,992,964,962,953,961,960,962,961,964,953,985,961,240,240,241,241,294,305,345,350,365,379,385,382,379,377,374,371,368,366,363,360,357,375,369,365,360,358,355,333,328,323,319,313,309,303,300,294,299,295,207,205,208,213,211,213,213,220,213,214,213,219,212,220,216,235,216,210,213,218,213,215,213,214,212,214,214,288,288,289,290,290,288,369,426,448,463,468,466,480,460,457,455,452,449,446,444,441,434,429,423,416,411,409,385,378,350,344,337,288,339,362,291,331,292,233,232,233,237,236,236,238,245,236,238,238,244,236,241,238,264,237,234,238,242,238,240,238,238,237,237,237,745,777,786,755,801,1033,1256,1499,1653,1726,1729,1637,1699,1577,1552,1533,1562,1466,1435,1421,1375,1344,1290,1281,1230,1217,1221,1148,1120,1085,1060,953,823,811,790,792,804,771,760,763,766,773,770,773,782,781,773,778,777,780,787,781,788,788,773,774,781,775,776,777,777,773,776,766,766,283,284,285,285,286,361,412,445,479,511,530,523,516,510,502,497,491,485,478,472,466,454,448,442,435,432,427,402,394,388,381,375,367,366,356,287,343,288,233,232,233,237,236,239,238,246,239,240,239,245,237,243,240,265,239,236,241,244,240,242,240,240,240,239,239,607,609,610,614,626,713,937,1034,1126,1160,1155,1156,1142,1111,1096,1090,1073,1056,1039,1022,1008,1012,997,957,939,923,907,877,849,835,785,720,675,635,620,618,620,576,523,529,531,539,536,541,535,545,532,547,533,541,538,549,545,580,547,535,539,536,539,541,541,542,533,538,538,833,842,890,847,929,1177,1382,1508,1608,1625,1621,1588,1565,1541,1516,1492,1476,1458,1421,1397,1372,1376,1365,1301,1288,1252,1256,1218,1164,1142,1013,992,874,915,846,845,847,839,834,828,840,864,829,863,835,841,837,835,854,838,831,839,837,873,848,846,837,845,844,846,845,848,837,869,845,0,0,0,0,0,0,0,0,0,0,0,0,0,0,0,0,0,0,0,0,0,0,0,0,0,0,0,0,0,0,0,0,0,0,0,0,0,0,0,0,0,0,0,0,0,0,0,0,0,0,0,0,0,0,0,0,0,0,0,0,0,0,0,0,0,574,576,581,558,594,670,853,953,1019,1070,1079,1037,1055,1054,1025,1008,997,978,955,917,928,943,923,905,865,872,838,823,785,776,781,642,585,578,584,582,592,566,538,534,544,556,551,536,541,544,545,553,557,549,555,558,558,550,553,562,545,544,546,546,546,546,546,546,546,101,101,101,101,101,101,101,101,101,101,101,101,101,101,101,101,101,101,101,101,101,101,101,101,101,101,101,101,101,101,101,101,101,101,101,101,101,101,59,59,59,59,59,60,60,60,60,60,60,60,62,62,62,62,62,62,62,62,63,63,63,63,63,63,63,959,962,1017,969,1065,1378,1634,1765,1841,1867,1845,1822,1800,1762,1744,1716,1696,1672,1631,1596,1576,1574,1559,1485,1472,1428,1433,1391,1339,1301,1126,1078,997,1002,968,992,962,955,950,944,956,955,945,982,951,957,953,951,971,954,947,955,953,992,964,962,953,961,960,962,961,964,953,985,961,595,603,604,606,610,664,954,1029,1148,1196,1201,1187,1162,1149,1120,1134,1115,1071,1047,1040,1020,1022,1020,971,934,915,895,902,882,863,844,820,797,603,608,630,644,621,584,589,592,594,591,596,591,594,587,595,589,591,594,594,604,624,603,596,598,589,598,596,597,602,590,597,590,483,494,486,487,493,584,718,790,864,917,941,928,872,900,872,885,871,832,818,805,812,796,782,769,752,737,740,710,691,677,616,602,561,548,494,495,492,476,445,438,439,445,446,444,446,454,440,448,449,455,443,445,447,450,447,450,453,459,449,447,450,450,450,451,450,514,516,518,520,533,627,793,874,948,1012,1025,1012,955,984,955,961,945,929,913,897,880,861,839,827,809,789,791,756,719,702,686,654,562,538,526,522,524,524,489,484,484,488,488,485,491,486,485,488,487,487,488,491,492,490,495,495,490,492,491,490,494,494,493,493,494,931,934,928,920,1055,1457,1765,1940,1977,2066,2048,1977,1972,1901,1896,1827,1835,1802,1743,1705,1686,1629,1590,1552,1471,1486,1397,1399,1337,1300,1269,1065,989,932,909,941,939,945,945,937,951,962,956,984,966,985,973,961,980,972,975,983,990,1002,966,967,973,978,975,963,971,972,961,981,964,527,529,531,531,541,703,812,904,1006,1056,1078,1062,1001,1026,995,977,960,944,927,910,896,874,858,841,823,807,808,774,756,740,723,700,594,550,539,535,536,524,490,486,486,488,491,485,492,489,491,489,488,488,493,495,493,492,497,498,492,494,493,493,496,499,495,496,497,514,515,519,521,526,652,762,853,949,1022,1041,1023,1011,991,975,959,942,926,908,892,875,859,848,826,809,793,777,759,742,726,653,638,623,575,559,524,525,516,459,461,460,468,468,469,468,471,469,468,470,469,469,469,470,471,472,472,472,473,472,472,472,474,472,474,473,476,477,478,480,486,579,755,810,895,946,961,946,930,915,891,919,893,853,838,823,808,814,828,782,739,724,709,719,704,688,672,654,634,479,486,483,497,498,468,470,476,478,476,476,475,478,471,478,473,475,478,478,486,483,484,480,482,473,482,480,481,486,474,481,474,375,377,378,378,380,500,566,631,697,749,775,763,708,739,710,698,686,694,662,650,639,627,614,602,590,578,584,554,542,531,519,507,495,455,413,399,400,377,348,349,350,355,356,361,350,376,347,369,360,347,351,358,370,374,360,357,352,350,364,368,350,351,347,357,349,0,0,0,0,0,0,0,0,0,0,0,0,0,0,0,0,0,0,0,0,0,0,0,0,0,0,0,0,0,0,0,0,0,0,0,0,0,0,0,0,0,0,0,0,0,0,0,0,0,0,0,0,0,0,0,0,0,0,0,0,0,0,0,0,0,419,420,422,417,425,547,613,678,744,796,822,810,755,786,757,745,733,741,709,697,686,674,662,650,638,625,631,601,589,578,556,544,551,529,459,420,426,411,389,382,388,398,390,394,383,395,392,385,392,397,397,400,394,404,403,396,387,402,400,404,403,406,401,408,401,595,603,604,606,610,664,954,1029,1148,1196,1201,1187,1162,1149,1120,1134,1115,1071,1047,1040,1020,1022,1020,971,934,915,895,902,882,863,844,820,797,603,608,630,644,621,584,589,592,594,591,596,591,594,587,595,589,591,594,594,604,624,603,596,598,589,598,596,597,602,590,597,590,946,949,952,961,1026,1385,1596,1741,1835,1871,1867,1846,1814,1785,1766,1729,1703,1673,1643,1624,1578,1548,1518,1514,1447,1435,1389,1356,1341,1200,1062,1017,1014,994,982,984,973,960,930,926,931,937,936,944,945,953,939,944,947,939,937,939,939,945,938,936,945,945,945,935,937,943,932,943,937,232,233,233,234,234,243,327,341,367,389,408,403,397,393,388,384,380,375,371,367,362,358,370,364,337,345,327,333,327,321,315,309,303,243,238,234,253,253,186,188,188,191,195,190,191,191,189,192,190,191,189,194,192,195,192,190,192,190,191,193,190,193,187,192,188,280,281,281,282,283,280,351,416,450,473,491,487,480,476,472,468,463,459,455,450,446,442,430,422,412,400,396,385,377,323,296,289,298,293,287,284,284,285,212,215,213,215,220,213,216,216,212,216,215,216,213,215,214,216,213,214,217,214,216,218,215,217,212,215,213,718,756,720,743,792,1001,1220,1461,1602,1661,1666,1594,1570,1588,1552,1479,1493,1400,1412,1393,1316,1299,1316,1238,1238,1177,1192,1161,1077,1048,1025,898,850,769,751,749,792,761,725,728,732,739,735,737,746,745,738,742,741,743,750,744,751,750,735,737,744,738,738,741,740,735,734,728,727,275,276,277,278,279,308,394,435,481,521,553,543,534,527,517,510,503,494,486,479,471,462,450,441,430,418,414,400,393,386,331,323,317,327,321,279,279,298,212,215,213,215,220,216,216,217,215,218,216,217,214,217,216,217,215,216,220,216,218,220,217,219,215,217,216,599,601,603,606,618,720,885,1021,1128,1172,1178,1161,1145,1128,1112,1104,1086,1067,1048,1029,1013,1001,976,957,929,912,894,866,848,833,779,728,684,648,615,610,610,577,502,512,511,517,520,518,513,516,508,525,510,513,515,523,521,532,523,515,518,508,517,519,518,521,508,516,507,826,828,830,839,889,1161,1346,1492,1599,1633,1635,1613,1586,1561,1540,1509,1484,1459,1433,1419,1382,1356,1330,1324,1268,1263,1217,1191,1166,1125,912,891,870,851,839,837,857,844,811,810,815,821,820,828,829,837,822,828,830,819,821,823,823,829,822,820,826,827,829,819,821,827,816,827,821,61,61,61,61,61,61,61,61,61,61,61,61,61,61,61,61,61,61,61,61,61,61,61,61,61,61,61,61,61,61,61,61,61,61,61,61,61,61,21,21,21,21,21,21,21,21,21,21,21,21,21,21,21,21,21,21,21,21,21,21,21,21,21,21,21,516,518,520,526,530,624,782,868,955,1012,1024,1008,992,984,961,945,938,914,899,883,867,859,836,828,806,790,774,758,743,727,712,588,576,575,526,524,529,508,481,473,485,497,497,475,478,488,485,497,503,488,496,498,496,486,493,503,484,483,486,484,488,486,494,494,494,0,0,0,0,0,0,0,0,0,0,0,0,0,0,0,0,0,0,0,0,0,0,0,0,0,0,0,0,0,0,0,0,0,0,0,0,0,0,0,0,0,0,0,0,0,0,0,0,0,0,0,0,0,0,0,0,0,0,0,0,0,0,0,0,0,946,949,952,961,1026,1385,1596,1741,1835,1871,1867,1846,1814,1785,1766,1729,1703,1673,1643,1624,1578,1548,1518,1514,1447,1435,1389,1356,1341,1200,1062,1017,1014,994,982,984,973,960,930,926,931,937,936,944,945,953,939,944,947,939,937,939,939,945,938,936,945,945,945,935,937,943,932,943,937,0,0,0,0,0,0,0,0,0,0,0,0,0,0,0,0,0,0,0,0,0,0,0,0,0,0,0,0,0,0,0,0,0,0,0,0,0,0,0,0,0,0,0,0,0,0,0,0,0,0,0,0,0,0,0,0,0,0,0,0,0,0,0,0,0,742,739,727,749,765,945,1193,1262,1418,1454,1444,1421,1419,1377,1378,1339,1310,1303,1264,1257,1239,1211,1188,1170,1129,1130,1099,1076,1042,870,958,841,798,776,736,756,739,711,660,660,657,657,673,671,688,677,666,675,677,691,676,671,672,680,674,677,680,682,676,675,673,675,672,677,665,768,767,753,777,808,965,1245,1322,1478,1506,1495,1476,1470,1429,1430,1390,1362,1351,1312,1309,1288,1257,1233,1215,1163,1174,1140,1116,1058,910,953,829,827,812,763,767,783,758,708,707,703,704,717,720,733,722,711,720,722,736,721,716,717,725,719,722,725,727,721,720,718,720,717,722,710,1402,1438,1460,1512,1928,2406,2779,2920,2971,2929,2945,2910,2868,2834,2733,2692,2604,2504,2503,2448,2396,2389,2291,2251,2237,2118,1865,1857,1651,1615,1543,1527,1451,1468,1461,1468,1460,1453,1434,1446,1442,1447,1442,1464,1452,1472,1458,1470,1455,1451,1470,1464,1469,1475,1482,1465,1466,1475,1497,1461,1460,1474,1454,1466,1461,825,819,813,828,846,963,1322,1391,1548,1593,1581,1548,1551,1514,1516,1477,1422,1430,1387,1380,1357,1326,1301,1285,1242,1243,1210,1186,1056,911,1024,884,879,854,821,825,791,790,741,740,737,750,756,754,767,758,756,757,758,769,754,750,754,762,753,762,759,760,759,757,761,760,755,758,746,720,725,722,732,767,881,1141,1255,1394,1451,1447,1410,1405,1369,1352,1330,1306,1288,1258,1240,1217,1194,1169,1147,1123,1100,1076,1056,1030,1006,986,841,769,766,736,732,735,694,644,642,643,643,656,654,674,653,650,656,656,671,660,656,658,663,657,659,663,669,657,656,657,655,654,659,647,124,125,125,126,126,156,176,196,216,237,254,249,245,242,237,234,229,225,222,217,213,210,205,201,198,193,190,185,181,178,173,169,166,161,157,126,155,155,83,83,83,83,83,87,83,83,84,85,84,84,82,84,83,82,83,84,83,84,83,82,83,83,82,83,82,791,801,819,839,873,1073,1310,1459,1527,1555,1581,1564,1540,1537,1481,1473,1426,1405,1355,1354,1310,1301,1280,1261,1241,1204,1179,1171,1156,1026,1036,898,838,828,823,818,787,791,789,773,774,779,782,780,799,811,798,803,799,782,790,815,819,832,801,801,810,806,798,813,805,798,783,783,773,536,538,540,540,551,727,825,922,1017,1075,1083,1065,1048,1031,1014,996,979,962,944,927,909,893,875,858,840,828,808,788,775,757,737,678,619,559,548,544,546,559,515,528,524,531,551,533,535,536,522,539,524,529,528,539,538,556,563,543,536,535,538,529,528,529,539,538,524,829,840,863,878,907,1120,1357,1507,1583,1602,1629,1611,1596,1584,1529,1521,1474,1453,1402,1401,1357,1348,1337,1308,1289,1261,1235,1218,1184,1054,1054,954,883,872,867,857,832,837,810,819,821,816,834,834,840,839,840,854,841,826,832,840,839,830,852,847,830,830,837,840,828,842,835,835,824,0,0,0,0,0,0,0,0,0,0,0,0,0,0,0,0,0,0,0,0,0,0,0,0,0,0,0,0,0,0,0,0,0,0,0,0,0,0,0,0,0,0,0,0,0,0,0,0,0,0,0,0,0,0,0,0,0,0,0,0,0,0,0,0,0 ]);
