n = 10;
D = [231,91,294,156,152,159,228,215,202,173 ];
q = 0;
prec = array2d(1..0,1..2,[]);
steps = 64;
l = 360;
r = 0;
which = [];
interval = array2d(1..0,1..2,[]);
T = array3d(1..11,1..11,0..64,[0,0,0,0,0,0,0,0,0,0,0,0,0,0,0,0,0,0,0,0,0,0,0,0,0,0,0,0,0,0,0,0,0,0,0,0,0,0,0,0,0,0,0,0,0,0,0,0,0,0,0,0,0,0,0,0,0,0,0,0,0,0,0,0,0,448,449,450,452,454,629,825,942,1031,1098,1105,1072,1070,1040,1036,1019,1008,991,969,958,935,919,893,885,848,851,823,709,690,676,641,490,495,461,456,454,455,445,418,422,415,423,442,429,424,428,421,428,424,444,420,422,425,444,428,440,428,424,424,427,426,457,422,427,424,616,617,631,622,635,905,1252,1379,1468,1516,1515,1495,1505,1492,1454,1430,1372,1378,1352,1334,1304,1286,1248,1241,1189,1090,1159,916,896,1011,874,748,754,644,667,626,638,629,606,616,617,632,628,629,617,638,613,623,622,637,611,616,623,670,623,623,623,618,623,627,620,641,612,625,617,763,767,771,772,798,1056,1467,1672,1820,1853,1867,1837,1805,1773,1745,1716,1685,1658,1601,1564,1542,1512,1492,1469,1426,1405,1384,1190,1051,953,997,858,854,818,777,776,792,736,717,710,714,718,715,721,717,724,722,726,723,733,732,733,723,718,721,720,724,721,715,716,720,721,721,718,717,688,679,695,690,701,887,1290,1481,1614,1668,1687,1649,1619,1604,1588,1557,1501,1481,1433,1416,1406,1356,1342,1330,1298,1270,1208,1116,1004,863,906,744,805,714,689,712,701,664,645,638,642,646,643,649,645,652,650,654,651,661,660,661,651,646,649,648,652,649,643,644,648,649,649,646,645,304,305,306,307,308,381,560,625,691,706,757,745,733,694,709,697,655,673,661,625,637,602,613,601,589,579,565,553,543,529,498,505,393,421,368,309,365,366,307,300,304,303,299,300,301,303,306,303,302,304,302,305,308,308,309,307,308,308,308,313,309,310,308,307,309,276,277,278,279,320,331,470,551,609,667,675,679,668,657,646,621,624,613,602,591,580,570,558,547,536,525,514,504,492,470,460,353,344,337,278,322,322,323,251,252,251,252,260,258,266,266,259,262,260,256,257,253,254,263,260,254,259,254,254,258,257,264,258,261,256,180,180,180,181,181,205,318,352,388,423,440,433,427,420,412,406,399,393,386,379,373,366,358,352,345,339,332,325,319,312,304,219,214,208,204,182,183,183,140,142,141,144,157,152,153,152,153,153,152,153,153,147,151,156,156,147,161,155,147,152,160,152,158,153,152,760,747,747,767,793,1135,1356,1528,1631,1696,1695,1680,1657,1676,1609,1583,1558,1582,1510,1509,1460,1404,1459,1420,1388,1334,1230,1209,1152,1082,867,887,794,808,774,755,744,753,737,736,738,743,742,748,743,750,746,750,746,742,740,744,742,741,747,744,747,747,742,741,746,749,745,745,744,505,495,496,512,509,566,886,1044,1135,1178,1255,1170,1150,1131,1126,1092,1078,1069,1078,1058,1024,1015,981,966,969,926,903,888,870,840,770,759,574,501,490,514,502,504,503,498,504,504,492,516,504,512,507,509,511,507,503,500,510,510,511,511,511,511,513,524,506,504,505,514,495,0,0,0,0,0,0,0,0,0,0,0,0,0,0,0,0,0,0,0,0,0,0,0,0,0,0,0,0,0,0,0,0,0,0,0,0,0,0,0,0,0,0,0,0,0,0,0,0,0,0,0,0,0,0,0,0,0,0,0,0,0,0,0,0,0,436,438,440,440,441,547,791,869,1049,1056,1115,1048,1031,1015,998,980,1011,948,932,960,940,881,864,853,842,835,817,831,812,767,734,627,563,486,470,459,459,461,412,410,409,409,409,409,409,409,409,409,409,409,409,409,409,409,409,409,409,409,409,409,409,409,409,409,409,0,0,0,0,0,0,0,0,0,0,0,0,0,0,0,0,0,0,0,0,0,0,0,0,0,0,0,0,0,0,0,0,0,0,0,0,0,0,0,0,0,0,0,0,0,0,0,0,0,0,0,0,0,0,0,0,0,0,0,0,0,0,0,0,0,309,310,312,312,313,351,568,634,700,759,771,759,747,735,722,710,698,686,673,661,649,637,625,612,600,588,576,562,550,538,526,359,350,342,334,314,331,332,309,309,309,308,308,308,309,309,307,309,309,309,309,309,309,309,309,309,309,309,309,307,309,309,309,309,309,843,827,829,839,896,1304,1668,1836,1958,2040,2026,2013,1977,1905,1883,1857,1818,1756,1764,1702,1711,1680,1637,1580,1551,1553,1426,1306,1237,1123,1050,888,890,879,852,825,852,796,782,779,784,784,783,784,784,784,786,785,784,784,784,784,784,784,784,784,784,784,784,784,784,784,784,784,784,770,773,755,779,796,1149,1494,1644,1756,1842,1841,1811,1782,1712,1728,1699,1670,1603,1620,1549,1556,1528,1499,1433,1408,1377,1345,1226,1229,885,866,811,812,821,785,762,784,724,710,707,712,712,711,712,712,712,714,713,712,712,712,712,712,712,712,712,712,712,712,712,712,712,712,712,712,210,211,212,228,228,284,376,421,464,507,524,517,508,500,492,483,475,466,458,450,441,433,426,417,409,400,392,384,375,367,358,350,296,290,282,229,230,231,202,200,200,202,202,202,202,202,202,202,202,202,202,202,202,202,202,202,202,202,202,202,202,202,202,202,202,442,444,446,458,464,546,851,946,1041,1090,1104,1092,1074,1057,1039,1021,1003,986,968,940,926,908,891,872,859,841,820,802,784,722,706,667,582,484,458,455,456,447,394,392,391,391,391,391,391,391,391,391,391,391,391,391,391,391,391,391,391,391,391,391,391,391,391,391,391,515,517,518,520,521,635,988,1105,1200,1260,1264,1249,1225,1210,1184,1165,1144,1124,1109,1084,1065,1045,1024,1007,985,966,949,925,906,886,761,706,562,537,526,523,524,479,433,431,430,430,430,430,430,430,430,430,430,430,430,430,430,430,430,430,430,430,430,430,430,430,430,430,430,699,701,704,708,744,853,1333,1456,1556,1649,1645,1634,1596,1542,1564,1541,1519,1507,1471,1454,1431,1401,1376,1348,1302,1287,1129,1072,1060,1038,980,817,740,723,713,709,712,702,691,691,691,691,691,691,691,691,691,691,691,691,691,691,691,691,691,691,691,691,691,691,691,691,691,691,691,434,436,417,439,440,618,789,881,969,1072,1081,1063,1046,982,1011,994,976,916,942,884,907,890,873,817,801,820,804,751,735,740,724,619,628,571,444,421,442,444,426,414,421,426,424,426,415,426,423,416,424,424,421,426,426,426,426,426,421,426,426,426,426,426,426,426,426,436,438,440,440,441,547,791,869,1049,1056,1115,1048,1031,1015,998,980,1011,948,932,960,940,881,864,853,842,835,817,831,812,767,734,627,563,486,470,459,459,461,412,410,409,409,409,409,409,409,409,409,409,409,409,409,409,409,409,409,409,409,409,409,409,409,409,409,409,604,607,608,609,611,990,1154,1278,1412,1515,1473,1451,1428,1403,1379,1403,1333,1310,1331,1306,1239,1222,1201,1179,1164,1140,1155,1129,967,1037,837,827,705,688,642,638,640,621,562,566,561,563,568,567,566,571,564,573,565,562,564,566,569,573,572,568,566,564,569,570,564,569,564,571,567,210,210,211,212,319,331,374,416,458,501,519,512,504,495,487,480,471,463,454,447,439,430,422,415,406,398,390,381,374,366,357,349,342,333,325,319,320,321,197,197,198,198,199,199,200,200,200,200,202,202,203,204,204,204,204,205,205,206,206,207,207,208,208,207,207,0,0,0,0,0,0,0,0,0,0,0,0,0,0,0,0,0,0,0,0,0,0,0,0,0,0,0,0,0,0,0,0,0,0,0,0,0,0,0,0,0,0,0,0,0,0,0,0,0,0,0,0,0,0,0,0,0,0,0,0,0,0,0,0,0,998,996,1019,1009,1146,1680,2121,2269,2350,2427,2441,2400,2363,2290,2259,2212,2172,2142,2127,2077,2003,1992,1973,1928,1886,1786,1660,1508,1429,1356,1148,1088,1055,1069,1045,1042,1010,993,929,935,938,938,943,937,943,946,943,947,941,957,962,965,948,951,949,947,945,936,939,947,941,946,941,947,943,938,942,945,948,966,1510,1929,2069,2152,2242,2239,2205,2170,2132,2100,2064,2028,1993,1960,1922,1851,1856,1826,1785,1711,1675,1580,1530,1259,1153,1133,1012,988,1002,982,979,938,921,857,863,866,866,871,865,871,874,871,875,869,884,888,893,876,879,877,875,873,864,867,875,869,874,869,875,871,378,380,380,381,411,596,706,784,862,924,942,928,913,897,882,867,851,836,821,807,791,777,760,746,730,716,702,685,671,655,641,631,616,601,412,409,410,411,352,356,352,353,359,357,357,361,354,363,355,353,355,357,359,363,362,358,356,354,359,361,355,360,355,361,357,611,614,614,621,633,824,1184,1358,1452,1504,1520,1496,1474,1446,1416,1397,1373,1348,1315,1292,1267,1243,1216,1196,1173,1143,1120,1096,871,959,835,750,680,664,653,651,648,603,544,548,543,545,550,549,548,553,546,555,547,544,546,548,551,555,554,550,548,546,551,552,546,551,546,553,549,683,685,688,690,698,987,1336,1516,1617,1666,1673,1650,1621,1592,1566,1539,1513,1486,1458,1434,1405,1379,1351,1324,1297,1271,1245,1217,986,1029,879,865,769,732,722,719,720,642,583,587,582,584,589,588,587,592,585,594,586,583,585,587,590,594,593,589,587,585,590,591,585,590,585,592,588,827,829,831,853,905,1237,1700,1868,1962,1983,2021,1990,1954,1923,1897,1858,1854,1801,1763,1737,1689,1673,1641,1611,1579,1454,1426,1368,1356,1192,1007,962,917,852,842,840,840,837,809,819,811,824,823,836,821,835,835,825,826,821,816,823,826,826,827,826,825,823,828,826,824,828,824,831,825,602,604,605,608,610,879,1166,1279,1381,1482,1492,1468,1444,1419,1395,1370,1345,1321,1297,1273,1210,1226,1200,1177,1152,1128,1105,1047,1057,900,829,748,647,710,641,637,639,627,566,569,575,587,580,581,573,587,580,578,576,574,578,584,631,631,589,584,577,587,582,588,586,598,585,621,587,604,607,608,609,611,990,1154,1278,1412,1515,1473,1451,1428,1403,1379,1403,1333,1310,1331,1306,1239,1222,1201,1179,1164,1140,1155,1129,967,1037,837,827,705,688,642,638,640,621,562,566,561,563,568,567,566,571,564,573,565,562,564,566,569,573,572,568,566,564,569,570,564,569,564,571,567,848,847,844,844,863,1295,1649,1857,1963,1996,1982,1957,1929,1892,1864,1853,1822,1788,1754,1699,1701,1636,1611,1574,1540,1542,1365,1323,1101,1020,998,978,900,868,858,856,859,802,795,794,799,801,810,810,804,808,809,807,811,813,811,817,811,812,810,813,812,814,805,803,803,803,803,803,803,939,936,938,940,1053,1688,1866,2088,2170,2214,2200,2168,2123,2098,2060,2052,2011,1971,1939,1899,1876,1798,1773,1736,1550,1518,1511,1427,1205,1167,1099,1085,977,959,949,951,936,920,907,903,905,918,924,911,923,915,927,922,922,922,922,922,922,922,922,922,922,922,922,922,922,922,922,922,922,1139,1122,1119,1156,1443,2112,2370,2538,2622,2641,2623,2592,2550,2509,2452,2437,2394,2342,2305,2262,2274,2166,2133,2078,1916,1778,1662,1382,1370,1355,1285,1200,1188,1141,1131,1137,1131,1125,1115,1136,1134,1121,1129,1116,1127,1124,1124,1125,1125,1125,1125,1125,1125,1125,1125,1125,1125,1125,1125,1125,1125,1125,1125,1125,1125,0,0,0,0,0,0,0,0,0,0,0,0,0,0,0,0,0,0,0,0,0,0,0,0,0,0,0,0,0,0,0,0,0,0,0,0,0,0,0,0,0,0,0,0,0,0,0,0,0,0,0,0,0,0,0,0,0,0,0,0,0,0,0,0,0,162,162,163,164,164,255,288,320,352,385,402,396,390,382,376,370,364,358,351,345,339,333,326,320,314,308,301,295,289,283,277,270,264,258,252,239,239,240,153,149,151,154,149,158,154,158,157,154,158,154,156,155,154,158,155,156,154,156,154,153,156,156,156,158,156,772,770,769,774,831,1344,1474,1694,1801,1850,1822,1814,1754,1724,1708,1723,1700,1657,1624,1574,1569,1515,1474,1435,1408,1430,1362,1196,1151,1046,992,902,801,795,790,786,789,787,763,768,768,774,779,778,786,779,783,776,776,776,776,776,776,776,776,776,776,776,776,776,776,776,776,776,776,645,645,641,640,650,947,1186,1358,1470,1512,1506,1489,1469,1440,1419,1417,1393,1367,1372,1290,1305,1242,1224,1198,1168,1186,1121,1103,941,984,838,762,698,662,652,648,656,622,616,615,622,622,629,629,626,630,628,627,630,635,632,639,635,639,636,629,638,632,623,621,621,621,621,621,621,793,796,789,792,802,1136,1511,1725,1825,1858,1850,1826,1803,1772,1746,1735,1710,1679,1638,1585,1598,1530,1506,1471,1439,1441,1224,1212,1037,994,869,849,853,811,802,798,779,722,719,715,719,724,730,729,725,728,730,728,731,730,726,730,731,731,730,731,730,730,725,722,722,722,722,722,722,571,573,568,560,576,915,1048,1147,1233,1270,1315,1297,1238,1214,1203,1186,1168,1152,1134,1104,1080,1069,1084,1033,1016,1050,996,979,960,899,861,842,584,572,564,562,611,564,564,565,567,574,576,576,575,576,569,576,576,575,576,576,576,576,576,576,576,576,576,576,576,576,576,576,576,631,630,625,625,636,1058,1159,1330,1442,1482,1477,1460,1441,1412,1391,1390,1367,1338,1315,1264,1276,1218,1193,1169,1138,1154,1095,1080,1090,1045,902,786,743,643,634,635,630,622,597,596,595,601,611,610,604,603,606,610,610,610,610,610,610,610,610,610,610,610,610,610,610,610,610,610,610,848,847,844,844,863,1295,1649,1857,1963,1996,1982,1957,1929,1892,1864,1853,1822,1788,1754,1699,1701,1636,1611,1574,1540,1542,1365,1323,1101,1020,998,978,900,868,858,856,859,802,795,794,799,801,810,810,804,808,809,807,811,813,811,817,811,812,810,813,812,814,805,803,803,803,803,803,803,693,695,698,698,709,1172,1381,1542,1639,1655,1644,1613,1588,1556,1544,1536,1495,1476,1467,1435,1409,1384,1357,1326,1303,1280,1239,1141,1081,1019,880,805,764,732,732,711,716,694,648,654,656,654,666,660,672,663,666,671,669,668,672,669,666,680,684,669,672,664,662,668,666,673,667,671,663,787,785,784,794,815,1331,1586,1753,1846,1876,1852,1819,1799,1756,1750,1733,1694,1665,1650,1617,1607,1561,1527,1499,1474,1446,1411,1377,1323,1076,876,998,821,837,818,808,790,799,757,757,761,776,781,773,775,785,773,783,787,778,801,802,803,789,804,790,787,787,786,787,787,787,785,786,785,998,970,973,1005,1042,1732,2063,2204,2288,2310,2282,2241,2222,2182,2149,2125,2079,2044,2021,1974,1990,1960,1876,1839,1802,1667,1593,1588,1453,1266,1226,1210,1002,1028,1029,990,985,1004,965,983,991,979,986,978,979,987,970,986,979,972,995,998,1004,990,1006,983,986,981,985,991,982,988,984,986,985,146,146,147,147,148,228,252,298,296,322,336,331,322,318,316,313,308,348,342,337,331,322,301,297,294,290,261,258,253,248,243,238,234,261,225,148,148,148,137,139,138,144,143,144,141,188,139,147,147,184,141,144,147,148,144,144,147,182,147,144,144,148,141,142,141,0,0,0,0,0,0,0,0,0,0,0,0,0,0,0,0,0,0,0,0,0,0,0,0,0,0,0,0,0,0,0,0,0,0,0,0,0,0,0,0,0,0,0,0,0,0,0,0,0,0,0,0,0,0,0,0,0,0,0,0,0,0,0,0,0,623,618,623,629,660,1051,1239,1342,1506,1511,1465,1453,1445,1387,1397,1381,1365,1372,1321,1279,1277,1254,1244,1183,1169,1156,1142,1116,1108,1082,936,866,651,725,652,642,655,657,630,619,624,629,633,634,638,646,634,640,641,630,651,642,645,637,654,634,634,628,626,631,632,638,636,637,636,491,493,495,494,496,782,954,1048,1140,1162,1160,1137,1119,1102,1092,1092,1059,1047,1046,1026,1006,987,967,940,929,913,892,873,861,843,765,545,548,531,527,504,510,512,469,475,479,475,485,481,492,486,483,495,489,490,493,491,490,508,501,485,495,482,477,486,488,496,491,496,488,638,644,643,646,648,1075,1276,1398,1498,1517,1506,1481,1455,1440,1417,1419,1374,1364,1350,1319,1300,1280,1249,1223,1200,1178,1152,1080,1061,952,808,734,683,677,677,654,660,612,572,575,576,577,586,581,591,584,585,592,590,585,587,587,587,599,602,587,589,581,579,587,585,591,585,588,580,466,467,473,469,475,754,840,918,993,1055,1032,1039,1030,1027,1013,988,949,971,946,919,904,890,888,862,848,834,820,817,803,742,787,716,496,554,472,475,477,473,470,468,467,478,483,485,473,497,468,480,485,486,480,481,493,498,487,489,487,492,489,485,497,492,491,493,482,476,478,479,480,482,779,912,1005,1098,1132,1129,1107,1090,1074,1064,1064,1032,1021,1017,996,979,961,943,916,906,887,869,850,834,812,800,822,507,504,502,491,484,497,465,453,452,456,468,466,467,461,458,466,481,466,478,482,482,472,477,470,469,478,475,468,463,465,463,459,458,693,695,698,698,709,1172,1381,1542,1639,1655,1644,1613,1588,1556,1544,1536,1495,1476,1467,1435,1409,1384,1357,1326,1303,1280,1239,1141,1081,1019,880,805,764,732,732,711,716,694,648,654,656,654,666,660,672,663,666,671,669,668,672,669,666,680,684,669,672,664,662,668,666,673,667,671,663,248,248,249,250,251,263,442,492,540,585,600,591,582,573,564,555,546,536,528,518,510,500,492,482,472,512,529,517,506,495,418,410,267,260,255,251,252,252,210,210,209,210,209,210,209,210,210,209,210,209,209,209,210,210,210,210,210,210,210,210,209,211,209,208,208,247,232,232,233,234,245,354,460,506,553,568,558,550,541,532,523,514,505,497,487,479,470,461,452,444,434,426,445,358,347,261,256,250,244,238,234,235,236,215,220,216,220,220,222,221,217,221,219,240,221,223,224,225,221,224,244,225,224,214,245,224,224,225,231,222,439,440,443,445,446,472,740,932,952,1081,1087,1030,1053,1036,951,1001,982,966,949,871,854,897,879,861,847,774,724,793,565,553,676,492,440,429,419,428,471,472,427,431,431,436,432,436,433,437,429,427,431,432,429,428,430,430,431,434,432,432,429,437,427,478,430,434,429,651,652,665,662,660,890,1288,1400,1570,1604,1612,1590,1561,1551,1521,1463,1445,1422,1401,1372,1372,1333,1309,1266,1240,1238,1208,1066,1012,991,831,838,732,674,672,654,664,645,591,577,581,590,585,587,584,589,586,590,590,588,604,608,608,590,588,587,588,592,582,580,586,586,586,586,586,575,594,579,580,600,743,1109,1226,1369,1414,1414,1398,1374,1351,1331,1308,1292,1271,1248,1228,1206,1178,1158,1136,1113,1095,1034,1008,946,927,732,670,692,620,587,595,589,573,519,505,509,518,513,515,512,517,514,518,518,516,531,534,536,518,516,515,516,520,510,508,514,514,514,514,514,0,0,0,0,0,0,0,0,0,0,0,0,0,0,0,0,0,0,0,0,0,0,0,0,0,0,0,0,0,0,0,0,0,0,0,0,0,0,0,0,0,0,0,0,0,0,0,0,0,0,0,0,0,0,0,0,0,0,0,0,0,0,0,0,0,241,242,243,244,292,342,425,478,532,577,590,580,580,571,561,552,542,538,523,513,500,490,481,472,461,457,447,433,424,416,379,365,356,339,318,313,316,316,192,192,191,192,191,192,191,192,192,191,192,191,191,191,192,192,192,192,192,192,192,192,191,193,191,190,190,316,316,317,318,320,400,556,618,693,742,760,748,736,724,712,700,688,676,666,654,642,630,618,606,594,582,570,559,547,535,523,424,414,336,316,320,314,315,231,231,230,231,230,231,230,231,231,230,231,230,230,230,231,231,231,231,231,231,231,231,230,232,230,229,229,588,581,591,584,593,810,1090,1140,1232,1294,1300,1282,1270,1238,1234,1218,1211,1292,1234,1201,1196,1178,1161,1142,1112,1102,1031,852,836,929,769,732,619,611,590,587,619,589,569,566,566,569,569,575,576,590,572,576,575,569,573,575,578,583,581,576,570,570,581,575,569,576,572,581,576,288,289,291,298,299,391,577,595,657,711,723,711,700,688,691,666,654,708,631,619,620,608,584,573,561,549,538,526,514,514,492,403,401,384,374,293,294,295,292,283,288,290,284,332,288,332,326,290,329,290,292,294,291,299,292,291,292,299,292,294,294,296,292,299,297,248,248,249,250,251,263,442,492,540,585,600,591,582,573,564,555,546,536,528,518,510,500,492,482,472,512,529,517,506,495,418,410,267,260,255,251,252,252,210,210,209,210,209,210,209,210,210,209,210,209,209,209,210,210,210,210,210,210,210,210,209,211,209,208,208,204,204,223,223,235,216,360,402,445,487,508,500,493,484,476,469,460,452,444,436,428,420,412,404,396,387,380,372,363,356,348,339,328,216,210,236,296,208,182,179,182,185,180,181,181,183,181,183,181,181,184,187,199,188,183,183,184,184,183,183,183,183,183,183,183,501,503,507,506,519,608,986,1025,1136,1219,1236,1217,1201,1178,1145,1140,1121,1102,1083,1058,1040,1023,1006,984,966,933,914,870,848,842,757,627,554,586,524,522,520,508,455,455,455,455,454,454,455,455,455,455,455,454,454,455,455,455,455,455,455,454,454,453,453,453,453,453,453,680,696,694,708,713,954,1384,1456,1604,1685,1699,1647,1628,1624,1597,1542,1560,1493,1464,1496,1431,1385,1347,1332,1318,1258,1159,1077,1054,1005,882,809,729,719,706,730,697,703,665,663,665,665,662,662,663,659,660,661,662,659,658,660,660,661,661,662,660,658,662,657,657,657,657,657,657,587,584,587,588,613,749,1114,1217,1368,1420,1435,1392,1371,1348,1325,1316,1300,1262,1254,1226,1203,1197,1162,1140,1119,1127,1073,1050,883,864,887,816,744,609,594,595,593,586,575,572,574,575,578,581,579,574,580,580,581,580,583,582,584,593,578,585,583,585,578,586,586,586,583,582,575,494,494,496,497,518,610,913,1031,1159,1216,1240,1193,1185,1181,1137,1138,1123,1092,1086,1066,1034,1040,1005,984,967,985,916,866,817,782,778,610,615,601,503,542,501,503,490,492,497,496,499,508,500,493,494,500,499,496,496,500,496,500,496,497,498,497,494,500,496,496,495,496,496,335,337,340,338,342,470,606,670,744,814,841,828,814,801,783,774,760,747,733,718,706,692,680,667,655,640,627,614,600,586,519,508,485,473,348,344,345,357,287,287,287,287,286,286,287,287,287,287,287,286,286,287,287,287,287,287,287,286,286,285,285,285,285,285,285,0,0,0,0,0,0,0,0,0,0,0,0,0,0,0,0,0,0,0,0,0,0,0,0,0,0,0,0,0,0,0,0,0,0,0,0,0,0,0,0,0,0,0,0,0,0,0,0,0,0,0,0,0,0,0,0,0,0,0,0,0,0,0,0,0,161,162,162,181,182,250,281,312,343,374,394,388,382,376,370,364,358,352,346,340,334,328,322,316,310,304,298,292,286,280,274,268,262,256,250,182,232,232,100,103,101,102,103,101,102,102,102,102,102,102,100,102,101,102,102,101,102,100,100,100,100,100,100,100,100,637,614,627,643,642,848,1152,1268,1389,1468,1447,1393,1374,1353,1334,1337,1311,1303,1263,1303,1277,1261,1234,1212,1192,1170,1069,1049,1087,932,838,729,676,672,657,642,652,638,622,617,624,631,628,634,624,637,632,625,634,628,633,633,631,636,637,637,632,636,632,633,632,632,632,632,632,401,403,404,405,409,615,759,889,937,993,1000,984,968,952,936,934,904,888,872,856,853,836,820,792,776,759,744,728,711,696,680,628,577,421,411,408,415,410,410,405,415,422,421,408,420,422,416,417,418,417,419,422,422,422,422,422,413,417,420,420,412,420,416,420,416,204,204,223,223,235,216,360,402,445,487,508,500,493,484,476,469,460,452,444,436,428,420,412,404,396,387,380,372,363,356,348,339,328,216,210,236,296,208,182,179,182,185,180,181,181,183,181,183,181,181,184,187,199,188,183,183,184,184,183,183,183,183,183,183,183,203,205,206,206,208,270,356,397,439,482,513,504,496,488,480,472,463,456,447,440,432,423,415,407,399,391,382,374,366,358,349,341,283,276,270,264,264,264,158,156,158,162,160,160,159,164,162,163,160,159,163,165,167,166,164,159,159,159,159,159,159,159,159,159,159,570,574,579,581,608,750,1056,1172,1298,1374,1378,1374,1344,1330,1297,1276,1253,1232,1210,1200,1176,1146,1137,1110,1097,1061,1005,977,958,944,850,683,621,625,600,586,595,584,483,484,491,496,499,498,494,496,487,499,501,500,498,499,501,500,498,498,498,498,498,498,498,498,498,498,498,773,753,759,761,788,1121,1504,1610,1753,1818,1815,1786,1768,1743,1745,1689,1686,1659,1590,1617,1544,1536,1511,1453,1396,1395,1212,1183,1252,1021,950,828,831,810,782,763,778,774,693,690,685,691,707,706,700,699,692,705,705,701,702,704,706,706,704,705,705,705,705,705,705,705,705,705,705,693,694,710,701,706,956,1351,1498,1633,1681,1704,1655,1629,1601,1575,1543,1516,1498,1470,1439,1449,1388,1362,1350,1329,1292,1269,1087,1065,1048,911,882,795,733,706,701,704,693,623,625,622,627,637,634,632,634,629,632,634,634,632,632,634,633,631,631,631,631,631,631,631,631,631,631,631,600,604,629,610,613,818,1173,1302,1418,1486,1516,1454,1443,1416,1392,1368,1345,1328,1304,1268,1256,1232,1210,1194,1166,1148,1104,966,1005,908,778,717,648,648,631,615,611,611,551,551,550,555,565,562,560,554,557,560,562,562,560,560,562,561,559,559,559,559,559,559,559,559,559,559,559,404,407,408,413,414,537,727,808,892,971,984,967,958,942,927,912,896,881,866,850,835,820,814,796,786,759,748,726,717,697,655,505,450,440,472,413,426,426,315,314,318,326,320,322,318,317,318,318,322,320,321,322,323,322,320,320,320,320,320,320,320,320,320,320,320,186,188,188,188,203,290,329,368,406,445,468,460,453,446,439,430,423,415,408,401,394,386,379,372,364,357,349,341,334,327,318,311,304,297,290,204,205,205,150,146,149,149,152,153,153,151,151,152,157,154,153,152,154,155,152,152,152,152,152,152,152,152,152,152,152,0,0,0,0,0,0,0,0,0,0,0,0,0,0,0,0,0,0,0,0,0,0,0,0,0,0,0,0,0,0,0,0,0,0,0,0,0,0,0,0,0,0,0,0,0,0,0,0,0,0,0,0,0,0,0,0,0,0,0,0,0,0,0,0,0,753,741,749,750,776,1083,1354,1494,1614,1666,1686,1677,1626,1599,1606,1564,1554,1522,1545,1499,1438,1446,1450,1417,1378,1334,1263,1239,1133,1043,1010,846,815,757,754,742,740,737,665,664,669,678,673,674,677,678,670,673,675,675,673,673,675,674,672,672,672,672,672,672,672,672,672,672,672,509,517,512,514,537,700,960,1075,1194,1252,1261,1240,1220,1200,1180,1160,1140,1119,1099,1080,1059,1039,1018,998,978,958,938,918,897,877,699,678,661,531,520,517,518,527,450,455,456,461,465,465,461,463,454,457,459,459,457,457,459,458,456,456,456,456,456,456,456,456,456,456,456,203,205,206,206,208,270,356,397,439,482,513,504,496,488,480,472,463,456,447,440,432,423,415,407,399,391,382,374,366,358,349,341,283,276,270,264,264,264,158,156,158,162,160,160,159,164,162,163,160,159,163,165,167,166,164,159,159,159,159,159,159,159,159,159,159,768,793,769,782,824,881,1498,1634,1770,1747,1743,1766,1692,1694,1644,1619,1610,1616,1599,1522,1542,1474,1441,1417,1392,1376,1387,1278,1021,871,975,897,828,810,798,807,782,786,735,735,735,735,735,735,735,735,735,735,735,735,735,735,735,735,735,735,735,735,735,735,735,735,735,735,735,694,704,704,707,711,1012,1309,1527,1619,1652,1644,1626,1597,1574,1556,1533,1505,1487,1459,1436,1412,1393,1366,1340,1316,1296,1272,1245,1131,945,938,751,780,732,717,704,706,696,673,673,673,673,673,673,673,673,673,673,673,673,673,673,673,673,673,673,673,673,673,673,673,673,673,673,673,874,876,885,891,910,1406,1810,1984,2084,2100,2074,2061,2013,1991,1965,1930,1894,1875,1833,1804,1778,1748,1712,1676,1646,1605,1444,1376,1476,1276,1137,938,921,898,894,887,889,892,868,868,868,868,868,868,868,868,868,868,868,868,868,868,868,868,868,868,868,868,868,868,868,868,868,868,868,508,504,505,508,515,813,957,1059,1162,1220,1231,1173,1180,1132,1108,1124,1107,1096,1077,1065,1033,1010,1000,973,957,934,916,901,847,843,738,813,684,522,514,509,511,528,470,470,470,470,470,470,470,470,470,470,470,470,470,470,470,470,470,470,470,470,470,470,470,470,470,470,470,504,506,507,508,519,731,928,1020,1130,1182,1195,1176,1153,1135,1117,1101,1081,1065,1047,1031,1020,1000,980,964,946,928,909,858,808,858,789,748,680,539,528,512,527,507,482,478,479,479,479,475,480,479,481,479,479,479,482,482,482,482,482,482,482,482,482,482,482,482,482,482,482,659,666,669,671,685,897,1265,1450,1522,1580,1510,1520,1489,1474,1483,1450,1447,1390,1368,1358,1319,1287,1288,1285,1245,1210,1187,1182,1060,978,910,776,742,693,672,671,676,663,629,629,629,629,629,629,629,629,629,629,629,629,629,629,629,629,629,629,629,629,629,629,629,629,629,629,629,620,620,620,620,647,886,1207,1345,1448,1496,1504,1522,1485,1424,1400,1386,1353,1371,1310,1293,1269,1236,1243,1197,1166,1150,1127,1104,1027,861,805,669,673,638,626,651,647,635,596,596,596,596,596,596,596,596,596,596,596,596,596,596,596,596,596,596,596,596,596,596,596,596,596,596,596,752,754,755,758,775,1035,1466,1595,1680,1720,1704,1681,1656,1633,1607,1591,1570,1539,1525,1491,1469,1443,1422,1395,1371,1347,1322,1292,1150,858,879,813,785,783,764,763,732,708,664,664,664,664,664,664,664,664,664,664,664,664,664,664,664,664,664,664,664,664,664,664,664,664,664,664,664,0,0,0,0,0,0,0,0,0,0,0,0,0,0,0,0,0,0,0,0,0,0,0,0,0,0,0,0,0,0,0,0,0,0,0,0,0,0,0,0,0,0,0,0,0,0,0,0,0,0,0,0,0,0,0,0,0,0,0,0,0,0,0,0,0,366,364,368,368,371,405,630,674,719,750,763,755,746,737,729,721,712,704,695,686,677,669,660,652,642,634,626,616,609,599,583,577,404,396,372,391,371,371,332,332,332,332,332,332,332,332,332,332,332,332,332,332,332,332,332,332,332,332,332,332,332,332,332,332,332,768,793,769,782,824,881,1498,1634,1770,1747,1743,1766,1692,1694,1644,1619,1610,1616,1599,1522,1542,1474,1441,1417,1392,1376,1387,1278,1021,871,975,897,828,810,798,807,782,786,735,735,735,735,735,735,735,735,735,735,735,735,735,735,735,735,735,735,735,735,735,735,735,735,735,735,735,564,537,539,540,570,768,1094,1215,1250,1300,1390,1352,1263,1302,1302,1279,1237,1220,1213,1196,1145,1147,1112,1088,1071,1045,1038,1014,926,748,801,616,706,583,546,572,574,564,536,536,536,536,536,536,536,536,536,536,536,536,536,536,536,536,536,536,536,536,536,536,536,536,536,536,536,405,407,408,471,412,651,757,854,932,989,996,980,965,1037,934,918,902,887,871,856,839,887,808,808,776,777,762,730,714,698,625,636,597,526,431,412,412,429,410,399,400,403,400,404,402,402,405,403,403,400,402,403,400,401,406,406,404,402,404,405,404,409,410,408,408,584,587,617,618,611,844,1186,1285,1390,1438,1468,1416,1453,1436,1346,1323,1322,1278,1255,1232,1267,1236,1188,1195,1171,1094,1124,1084,860,972,956,830,623,607,596,594,595,596,611,600,598,604,606,610,608,609,607,610,610,604,608,608,609,615,614,612,605,611,609,607,613,613,608,604,597,518,520,515,523,525,599,952,1055,1181,1257,1253,1240,1226,1205,1203,1179,1123,1113,1074,1065,1052,1061,1027,995,956,969,941,918,782,695,637,622,612,551,517,520,522,522,431,431,431,431,431,431,431,431,431,431,431,431,431,431,431,431,431,431,431,431,431,431,431,431,431,431,431,445,446,448,449,455,476,794,874,983,1056,1063,1048,1034,1018,1001,986,968,954,926,921,904,895,872,864,841,822,807,757,702,761,637,487,476,465,456,452,453,455,359,359,359,359,359,359,359,359,359,359,359,359,359,359,359,359,359,359,359,359,359,359,359,359,359,359,359,372,374,374,375,376,616,695,782,851,918,925,913,890,892,868,852,838,824,808,801,778,769,749,734,719,712,690,675,666,645,627,606,504,398,389,377,379,380,363,355,363,381,371,356,355,362,364,382,379,367,380,376,372,365,365,379,365,364,366,364,365,364,373,370,357,454,455,457,458,459,624,861,957,1052,1120,1125,1107,1090,1072,1058,1041,1023,1000,972,964,946,932,910,896,865,852,835,820,802,782,741,601,514,470,464,468,463,465,435,423,428,433,432,429,426,429,432,435,435,432,432,435,435,435,435,435,430,435,430,431,428,435,435,435,429,521,523,525,526,527,813,996,1105,1213,1278,1280,1260,1240,1220,1200,1179,1163,1138,1119,1099,1082,1058,1038,1022,998,978,959,937,916,896,872,703,609,576,533,529,530,486,465,465,461,461,461,461,461,461,461,461,461,461,461,461,461,461,461,461,461,461,461,461,461,461,461,461,461,359,342,343,344,345,398,619,646,692,735,760,750,742,734,722,706,705,699,744,706,663,727,695,675,661,648,634,620,447,440,443,383,428,394,349,345,347,348,326,327,326,327,327,327,327,327,327,327,327,327,327,327,327,327,327,327,327,327,327,327,327,327,327,327,327,0,0,0,0,0,0,0,0,0,0,0,0,0,0,0,0,0,0,0,0,0,0,0,0,0,0,0,0,0,0,0,0,0,0,0,0,0,0,0,0,0,0,0,0,0,0,0,0,0,0,0,0,0,0,0,0,0,0,0,0,0,0,0,0,0,564,537,539,540,570,768,1094,1215,1250,1300,1390,1352,1263,1302,1302,1279,1237,1220,1213,1196,1145,1147,1112,1088,1071,1045,1038,1014,926,748,801,616,706,583,546,572,574,564,536,536,536,536,536,536,536,536,536,536,536,536,536,536,536,536,536,536,536,536,536,536,536,536,536,536,536,0,0,0,0,0,0,0,0,0,0,0,0,0,0,0,0,0,0,0,0,0,0,0,0,0,0,0,0,0,0,0,0,0,0,0,0,0,0,0,0,0,0,0,0,0,0,0,0,0,0,0,0,0,0,0,0,0,0,0,0,0,0,0,0,0,448,449,450,452,454,629,825,942,1031,1098,1105,1072,1070,1040,1036,1019,1008,991,969,958,935,919,893,885,848,851,823,709,690,676,641,490,495,461,456,454,455,445,418,422,415,423,442,429,424,428,421,428,424,444,420,422,425,444,428,440,428,424,424,427,426,457,422,427,424,616,617,631,622,635,905,1252,1379,1468,1516,1515,1495,1505,1492,1454,1430,1372,1378,1352,1334,1304,1286,1248,1241,1189,1090,1159,916,896,1011,874,748,754,644,667,626,638,629,606,616,617,632,628,629,617,638,613,623,622,637,611,616,623,670,623,623,623,618,623,627,620,641,612,625,617,763,767,771,772,798,1056,1467,1672,1820,1853,1867,1837,1805,1773,1745,1716,1685,1658,1601,1564,1542,1512,1492,1469,1426,1405,1384,1190,1051,953,997,858,854,818,777,776,792,736,717,710,714,718,715,721,717,724,722,726,723,733,732,733,723,718,721,720,724,721,715,716,720,721,721,718,717,688,679,695,690,701,887,1290,1481,1614,1668,1687,1649,1619,1604,1588,1557,1501,1481,1433,1416,1406,1356,1342,1330,1298,1270,1208,1116,1004,863,906,744,805,714,689,712,701,664,645,638,642,646,643,649,645,652,650,654,651,661,660,661,651,646,649,648,652,649,643,644,648,649,649,646,645,304,305,306,307,308,381,560,625,691,706,757,745,733,694,709,697,655,673,661,625,637,602,613,601,589,579,565,553,543,529,498,505,393,421,368,309,365,366,307,300,304,303,299,300,301,303,306,303,302,304,302,305,308,308,309,307,308,308,308,313,309,310,308,307,309,276,277,278,279,320,331,470,551,609,667,675,679,668,657,646,621,624,613,602,591,580,570,558,547,536,525,514,504,492,470,460,353,344,337,278,322,322,323,251,252,251,252,260,258,266,266,259,262,260,256,257,253,254,263,260,254,259,254,254,258,257,264,258,261,256,180,180,180,181,181,205,318,352,388,423,440,433,427,420,412,406,399,393,386,379,373,366,358,352,345,339,332,325,319,312,304,219,214,208,204,182,183,183,140,142,141,144,157,152,153,152,153,153,152,153,153,147,151,156,156,147,161,155,147,152,160,152,158,153,152,760,747,747,767,793,1135,1356,1528,1631,1696,1695,1680,1657,1676,1609,1583,1558,1582,1510,1509,1460,1404,1459,1420,1388,1334,1230,1209,1152,1082,867,887,794,808,774,755,744,753,737,736,738,743,742,748,743,750,746,750,746,742,740,744,742,741,747,744,747,747,742,741,746,749,745,745,744,505,495,496,512,509,566,886,1044,1135,1178,1255,1170,1150,1131,1126,1092,1078,1069,1078,1058,1024,1015,981,966,969,926,903,888,870,840,770,759,574,501,490,514,502,504,503,498,504,504,492,516,504,512,507,509,511,507,503,500,510,510,511,511,511,511,513,524,506,504,505,514,495,0,0,0,0,0,0,0,0,0,0,0,0,0,0,0,0,0,0,0,0,0,0,0,0,0,0,0,0,0,0,0,0,0,0,0,0,0,0,0,0,0,0,0,0,0,0,0,0,0,0,0,0,0,0,0,0,0,0,0,0,0,0,0,0,0 ]);
