n = 30;
D = [214,204,126,166,111,162,209,158,71,140,64,85,83,262,108,62,60,101,157,72,127,99,271,88,180,265,205,70,190,221 ];
q = 0;
prec = array2d(1..0,1..2,[]);
steps = 64;
l = 360;
r = 0;
which = [];
interval = array2d(1..0,1..2,[]);
T = array3d(1..31,1..31,0..64,[0,0,0,0,0,0,0,0,0,0,0,0,0,0,0,0,0,0,0,0,0,0,0,0,0,0,0,0,0,0,0,0,0,0,0,0,0,0,0,0,0,0,0,0,0,0,0,0,0,0,0,0,0,0,0,0,0,0,0,0,0,0,0,0,0,827,832,833,840,873,1035,1319,1463,1581,1660,1657,1629,1602,1575,1549,1517,1495,1469,1449,1422,1409,1370,1342,1315,1301,1262,1235,1211,1180,1150,1126,968,933,853,848,844,840,848,760,764,763,801,781,781,773,782,777,802,793,795,799,811,795,825,794,796,803,815,807,791,792,812,807,792,792,629,609,619,633,636,787,907,1043,1106,1180,1183,1159,1145,1152,1111,1091,1073,1059,1057,1036,1015,982,997,988,964,927,908,874,849,734,720,714,714,658,622,622,612,615,530,531,533,536,536,542,540,541,538,540,540,541,542,553,550,550,546,546,545,546,549,548,544,548,543,543,543,1071,1079,1080,1094,1154,1524,1743,1993,2111,2147,2155,2120,2064,2051,1997,1981,1947,1908,1852,1842,1756,1758,1698,1686,1648,1616,1587,1552,1519,1312,1243,1167,1140,1120,1105,1092,1107,1110,1059,1058,1068,1072,1071,1081,1072,1092,1071,1083,1079,1072,1074,1091,1089,1094,1087,1087,1081,1078,1083,1091,1077,1087,1074,1081,1081,608,611,611,615,631,847,972,1075,1164,1211,1215,1195,1218,1157,1124,1125,1100,1024,1076,1053,1024,1004,990,971,947,917,906,889,870,851,830,812,792,687,612,616,622,622,606,601,608,616,612,613,611,618,614,612,617,616,616,618,620,624,623,621,623,624,624,624,624,624,623,622,622,929,933,936,942,944,1328,1483,1656,1786,1830,1818,1795,1779,1734,1722,1675,1654,1625,1623,1554,1534,1496,1495,1429,1409,1378,1351,1324,1252,1153,1051,1044,978,956,930,944,952,927,854,853,858,859,860,863,861,865,865,865,866,866,866,867,866,860,861,866,870,870,869,869,871,872,872,871,871,1020,1022,1027,1065,1166,1568,1789,2017,2157,2192,2179,2165,2104,2096,2042,2002,1973,1936,1887,1862,1790,1788,1742,1706,1661,1619,1578,1520,1491,1431,1151,1139,1084,1059,1038,1044,1060,1065,1059,1057,1050,1060,1052,1071,1059,1065,1085,1102,1066,1076,1090,1091,1081,1080,1112,1076,1068,1074,1085,1082,1079,1096,1091,1102,1085,367,368,369,369,371,487,550,613,676,729,739,728,759,704,693,680,669,657,646,634,622,611,632,619,576,564,553,541,530,518,506,495,482,471,376,372,373,374,356,359,358,360,362,363,364,365,365,365,366,367,364,367,364,367,366,365,370,368,367,369,369,372,370,371,371,235,235,236,237,238,292,344,383,444,485,476,469,462,475,467,438,452,424,430,422,401,394,379,379,383,364,356,365,357,345,321,312,305,304,305,239,298,306,228,229,228,230,230,234,230,235,231,234,229,232,230,235,236,234,232,234,229,233,236,234,232,236,228,231,231,438,440,441,451,445,589,687,759,818,873,880,866,895,839,820,817,797,726,785,767,742,728,719,705,686,673,677,644,631,617,603,589,575,565,449,448,449,460,439,434,441,448,444,446,442,449,444,442,446,445,445,446,448,456,453,453,449,452,450,452,451,457,450,455,445,921,923,928,955,1029,1416,1635,1855,1974,2020,2017,1963,1927,1905,1868,1832,1795,1742,1720,1683,1647,1608,1558,1540,1498,1460,1424,1384,1348,1270,1086,1039,985,963,937,958,956,969,962,968,953,998,980,985,976,983,990,1002,981,990,1000,990,969,978,1002,999,1001,985,989,994,1021,999,999,997,995,1155,1153,1096,1260,1346,1970,2175,2364,2359,2492,2487,2415,2401,2271,2277,2249,2220,2114,2134,2084,2060,1933,1973,1833,1839,1732,1716,1651,1606,1486,1212,1170,1238,1135,1107,1191,1120,1137,1187,1197,1185,1199,1205,1203,1205,1205,1205,1205,1205,1204,1205,1205,1205,1205,1204,1205,1205,1205,1205,1202,1205,1205,1204,1203,1203,543,546,545,546,550,616,794,881,968,1052,1062,1046,1029,1013,997,981,964,955,938,916,912,884,867,852,836,819,803,789,772,758,648,634,619,606,553,549,550,552,480,476,480,484,493,496,484,493,483,489,490,490,491,497,500,512,499,501,488,493,494,503,500,504,499,499,499,726,733,748,733,745,822,1127,1254,1380,1448,1456,1432,1387,1365,1354,1320,1346,1284,1260,1250,1224,1186,1163,1158,1166,1130,1080,1053,1022,1010,981,848,815,770,758,737,743,729,666,667,669,685,681,676,679,694,681,679,699,691,704,705,740,738,677,676,688,683,682,682,680,684,679,679,679,1145,1147,1157,1207,1500,1843,2132,2348,2454,2489,2480,2432,2367,2341,2295,2248,2205,2140,2115,2068,2029,1978,1915,1887,1839,1794,1749,1688,1657,1509,1280,1266,1210,1199,1164,1182,1187,1201,1193,1188,1200,1209,1208,1215,1203,1226,1225,1218,1221,1204,1222,1232,1242,1232,1237,1233,1206,1216,1213,1211,1207,1250,1231,1249,1220,901,913,910,902,922,1276,1446,1592,1732,1766,1783,1756,1720,1679,1650,1644,1594,1567,1562,1529,1507,1458,1434,1403,1394,1348,1319,1305,1258,1107,1082,972,963,934,919,925,916,904,842,845,845,856,865,857,866,859,856,861,859,862,862,868,866,868,892,882,875,870,868,858,866,866,889,870,870,668,671,672,684,693,944,1083,1216,1296,1339,1340,1320,1340,1277,1251,1239,1213,1134,1185,1160,1141,1105,1089,1068,1041,1020,996,977,955,935,911,792,711,698,682,677,684,684,668,665,676,683,669,673,671,679,682,686,686,682,686,684,678,686,685,686,686,686,686,686,683,686,685,684,684,907,912,918,921,946,1214,1453,1579,1725,1780,1774,1761,1729,1703,1670,1630,1612,1597,1553,1518,1507,1484,1453,1410,1398,1361,1334,1319,1283,1184,1048,1027,1003,942,925,919,922,921,870,872,872,882,885,893,894,909,890,892,891,892,891,890,889,917,912,888,891,888,883,893,885,889,884,884,884,1170,1194,1205,1231,1391,1830,2067,2257,2304,2358,2336,2256,2300,2219,2179,2157,2101,2016,2043,2006,1958,1932,1887,1821,1810,1759,1659,1516,1540,1306,1366,1294,1265,1224,1214,1218,1216,1212,1190,1192,1206,1208,1208,1208,1208,1208,1208,1208,1208,1208,1207,1208,1208,1208,1207,1208,1208,1208,1208,1208,1208,1208,1207,1206,1206,303,304,305,309,306,365,441,493,544,601,618,608,598,593,580,568,558,548,539,529,526,509,499,489,480,470,460,451,441,431,421,411,385,376,312,307,308,309,246,244,248,258,255,252,245,251,251,257,260,267,268,274,273,298,265,255,251,257,254,251,245,249,244,244,244,559,562,568,559,559,654,881,1007,1097,1145,1117,1100,1082,1093,1056,1008,1038,993,995,975,914,905,929,885,885,874,854,836,817,781,677,612,609,567,604,562,579,581,562,564,562,570,571,572,570,573,570,568,570,568,572,572,574,578,579,581,571,572,576,580,577,582,571,570,570,862,888,867,896,904,1235,1410,1574,1699,1709,1742,1676,1691,1622,1627,1610,1576,1478,1522,1502,1466,1407,1415,1396,1344,1299,1272,1267,1218,1191,954,933,949,925,901,897,871,873,848,849,850,843,841,853,858,863,851,859,862,864,866,859,869,861,874,857,864,874,862,859,869,859,872,862,862,325,326,328,329,330,430,487,543,603,650,661,650,640,629,619,608,598,587,598,587,566,545,555,524,533,503,493,482,471,462,451,441,446,400,395,331,362,364,289,289,289,291,290,299,293,303,310,294,299,291,294,296,295,303,297,296,294,300,297,296,293,297,292,292,292,599,601,606,608,605,778,909,1001,1123,1196,1194,1171,1147,1147,1112,1104,1084,1051,1037,1009,998,979,959,938,923,900,882,899,847,837,818,653,686,619,616,606,608,610,556,555,560,557,564,565,573,587,570,588,570,571,569,572,569,598,592,572,577,571,569,574,576,581,574,599,599,967,972,973,974,996,1310,1518,1737,1878,1921,1912,1900,1850,1839,1791,1758,1731,1698,1662,1631,1574,1575,1522,1514,1480,1452,1427,1395,1367,1170,1143,1108,1018,998,983,979,983,987,932,935,926,926,944,950,948,959,947,948,950,947,946,952,948,960,956,954,953,953,953,952,947,958,943,950,950,910,876,893,907,923,1138,1426,1592,1682,1752,1718,1690,1687,1692,1633,1582,1556,1553,1545,1512,1484,1440,1430,1419,1391,1345,1323,1277,1226,1108,1051,1026,958,939,901,909,869,897,814,815,819,826,828,831,839,827,824,826,826,827,828,839,836,836,832,832,831,832,835,834,830,834,829,829,829,301,302,308,297,298,357,448,489,569,619,599,643,580,621,589,552,569,532,544,534,495,495,485,476,485,456,469,459,449,435,401,420,389,311,315,299,315,348,290,293,292,294,294,297,295,299,295,298,297,297,298,300,303,306,304,303,301,302,307,303,302,306,302,304,304,391,382,400,395,396,480,578,646,715,761,789,781,763,751,723,730,713,701,689,676,663,651,637,625,630,601,576,576,551,549,526,506,499,411,401,396,398,392,327,329,330,333,333,336,335,336,334,335,334,334,335,344,340,341,337,341,336,334,337,338,338,342,337,337,337,461,463,464,475,469,621,700,797,859,913,919,905,933,876,862,848,833,819,820,825,794,762,748,733,719,705,690,676,662,647,633,619,605,544,472,468,469,470,459,458,464,469,462,466,466,468,469,467,468,465,466,468,465,469,470,471,470,470,470,470,472,477,475,475,472,1103,1108,1112,1118,1156,1559,1784,2017,2152,2186,2173,2160,2103,2088,2035,2002,1965,1929,1887,1853,1791,1788,1731,1719,1680,1648,1619,1582,1506,1330,1229,1182,1154,1144,1120,1098,1100,1104,1060,1054,1064,1079,1076,1080,1073,1084,1081,1088,1082,1075,1091,1109,1095,1082,1079,1092,1069,1096,1081,1077,1073,1084,1077,1079,1079,0,0,0,0,0,0,0,0,0,0,0,0,0,0,0,0,0,0,0,0,0,0,0,0,0,0,0,0,0,0,0,0,0,0,0,0,0,0,0,0,0,0,0,0,0,0,0,0,0,0,0,0,0,0,0,0,0,0,0,0,0,0,0,0,0,926,919,919,926,974,1271,1439,1592,1685,1719,1714,1694,1671,1638,1618,1601,1563,1521,1520,1503,1471,1459,1443,1412,1348,1321,1333,1291,1226,1079,1054,970,926,906,909,918,895,892,864,870,871,883,883,873,887,890,879,884,880,883,889,897,897,907,893,887,890,894,895,888,888,914,888,893,887,0,0,0,0,0,0,0,0,0,0,0,0,0,0,0,0,0,0,0,0,0,0,0,0,0,0,0,0,0,0,0,0,0,0,0,0,0,0,0,0,0,0,0,0,0,0,0,0,0,0,0,0,0,0,0,0,0,0,0,0,0,0,0,0,0,516,516,517,518,559,698,739,814,886,948,942,929,916,905,891,877,863,852,839,827,812,792,788,766,752,742,724,708,694,698,657,642,523,513,502,522,524,525,501,507,505,522,508,517,511,523,513,521,517,510,520,520,528,526,523,518,522,521,525,516,518,564,517,520,514,459,447,448,450,453,611,679,803,866,892,905,891,876,861,847,832,818,817,788,774,782,745,731,729,760,687,673,730,663,630,614,600,586,572,574,452,453,454,457,456,455,459,457,543,457,548,457,542,459,457,457,456,461,537,461,459,459,459,461,461,458,543,455,461,457,1250,1261,1258,1294,1591,1909,2151,2295,2363,2402,2347,2312,2299,2258,2228,2185,2150,2109,2080,2043,2000,1964,1923,1893,1852,1813,1771,1417,1393,1398,1411,1300,1274,1267,1245,1268,1261,1256,1227,1223,1239,1250,1244,1240,1244,1250,1240,1241,1244,1242,1248,1255,1254,1262,1252,1246,1246,1253,1253,1240,1240,1272,1240,1245,1239,1173,1175,1184,1217,1397,1777,2005,2184,2211,2248,2201,2165,2157,2141,2115,2050,2027,2022,1977,1933,1891,1832,1810,1785,1772,1693,1659,1627,1449,1424,1268,1267,1208,1197,1167,1181,1198,1194,1167,1173,1174,1192,1178,1190,1179,1194,1184,1199,1195,1188,1192,1198,1192,1190,1189,1188,1200,1199,1203,1194,1196,1215,1195,1198,1192,474,468,470,485,579,632,724,806,886,937,950,936,921,906,892,877,863,848,826,819,804,789,775,750,745,731,717,701,687,673,644,643,629,599,478,474,476,477,472,471,472,476,477,476,479,476,483,482,478,477,482,483,484,479,482,535,482,529,479,484,533,536,485,483,479,930,937,941,953,1043,1274,1506,1666,1759,1784,1775,1758,1752,1699,1674,1673,1617,1588,1560,1554,1499,1500,1487,1444,1395,1365,1358,1329,1047,1022,1010,1007,954,951,938,959,898,912,869,877,880,890,889,884,885,892,884,890,882,886,889,898,906,908,899,886,889,896,895,890,889,909,889,891,885,816,825,833,862,849,1048,1275,1387,1500,1513,1512,1488,1522,1446,1465,1442,1417,1370,1326,1325,1279,1279,1263,1209,1214,1184,1206,1168,1115,895,1026,863,854,813,813,809,783,769,771,774,769,784,782,785,777,779,782,774,773,778,776,779,782,773,778,785,783,783,778,779,783,809,787,792,780,1179,1164,1184,1248,1303,1698,2007,2109,2233,2258,2241,2186,2196,2139,2083,2073,2036,1999,1909,1959,1897,1889,1857,1816,1755,1712,1689,1656,1581,1302,1257,1272,1210,1187,1157,1200,1159,1171,1133,1148,1142,1153,1155,1154,1150,1156,1150,1156,1149,1150,1157,1168,1173,1175,1164,1155,1155,1160,1162,1156,1155,1178,1159,1161,1155,657,685,688,690,753,927,1103,1221,1271,1367,1372,1350,1335,1306,1284,1262,1240,1193,1196,1174,1137,1131,1114,1068,1026,1043,1021,1004,964,955,927,911,754,710,688,694,696,691,693,686,681,697,707,717,706,701,705,714,703,707,697,704,710,691,695,708,708,705,698,698,703,708,710,711,703,1587,1585,1709,2205,2700,3052,3337,3433,3474,3495,3430,3405,3347,3317,3219,3216,3137,3084,3053,2989,2673,2624,2459,2362,2250,2243,1989,1920,1855,1791,1718,1679,1668,1634,1623,1638,1647,1679,1697,1693,1698,1756,1762,1714,1742,1754,1764,1733,1758,1759,1747,1737,1769,1760,1763,1758,1742,1776,1759,1765,1790,1801,1770,1764,1760,508,509,513,513,552,681,716,790,891,922,929,904,897,918,871,861,847,833,814,801,792,777,763,750,736,722,711,698,685,671,653,660,581,506,495,578,578,514,467,469,471,470,474,474,477,479,473,476,476,476,480,482,481,484,481,476,480,484,485,477,477,486,477,482,476,351,352,353,368,369,460,550,572,627,675,685,675,665,654,644,634,623,613,603,592,583,570,561,553,542,532,522,511,501,491,480,475,464,412,360,390,358,359,347,341,346,346,338,352,347,346,351,353,360,351,350,350,348,360,357,350,345,355,348,350,351,347,350,356,353,685,693,695,680,720,906,1114,1235,1331,1375,1382,1361,1340,1309,1288,1275,1254,1233,1204,1189,1168,1145,1125,1094,1059,1036,1039,1019,994,974,927,911,785,728,719,704,702,675,671,665,671,681,680,683,675,683,677,677,684,686,680,684,691,690,690,693,686,686,693,688,707,705,702,700,696,1307,1298,1315,1367,1589,1996,2239,2376,2465,2498,2448,2411,2372,2354,2299,2263,2228,2208,2169,2130,2088,2031,2006,1956,1917,1889,1844,1724,1562,1563,1386,1356,1317,1311,1301,1324,1312,1302,1263,1267,1284,1291,1293,1284,1291,1296,1285,1297,1295,1294,1299,1315,1312,1315,1302,1300,1295,1306,1309,1299,1299,1320,1299,1304,1297,1266,1255,1260,1278,1609,1884,2125,2285,2354,2393,2338,2303,2291,2249,2226,2176,2134,2101,2074,2022,1996,1956,1916,1885,1844,1807,1763,1651,1386,1427,1379,1294,1277,1261,1240,1250,1244,1239,1212,1206,1221,1233,1227,1223,1227,1233,1223,1224,1227,1225,1231,1238,1237,1245,1235,1229,1229,1236,1236,1223,1223,1255,1223,1228,1222,592,594,632,596,636,802,870,973,1076,1098,1103,1086,1071,1054,1075,1059,1042,1016,974,946,930,914,898,882,865,850,849,831,800,756,761,755,712,589,578,657,605,603,607,593,596,608,595,601,601,608,600,601,601,594,606,603,610,608,603,603,600,634,606,601,602,663,604,641,603,1733,1732,1804,1923,2477,2833,3084,3291,3252,3291,3246,3241,3158,3117,3038,2998,2923,2898,2843,2784,2546,2500,2313,2169,2057,2054,2032,2037,1901,1896,1805,1782,1773,1746,1730,1749,1758,1790,1755,1747,1764,1778,1777,1776,1780,1786,1776,1777,1780,1778,1784,1788,1790,1798,1787,1779,1782,1788,1789,1776,1776,1798,1776,1781,1775,733,741,754,764,738,968,1122,1221,1336,1354,1354,1333,1355,1296,1318,1297,1274,1230,1189,1191,1147,1150,1148,1086,1092,1065,1053,1054,1002,962,913,763,756,729,716,724,732,713,701,706,705,708,702,712,708,716,716,720,716,715,721,719,721,715,721,720,724,722,721,718,721,729,721,726,720,951,950,954,967,991,1265,1528,1672,1789,1739,1780,1753,1747,1701,1694,1689,1659,1608,1575,1533,1465,1478,1478,1423,1420,1332,1283,1268,1183,1239,1032,995,981,953,942,923,932,944,939,941,945,945,945,942,948,954,948,954,955,957,960,967,968,962,961,958,958,965,958,960,969,960,967,962,956,1290,1294,1298,1338,1614,1962,2221,2370,2430,2469,2413,2401,2375,2321,2290,2245,2211,2172,2139,2105,2061,2035,1979,1959,1905,1867,1831,1783,1435,1453,1369,1348,1313,1295,1285,1301,1303,1295,1259,1269,1277,1285,1294,1286,1293,1295,1287,1294,1287,1291,1296,1313,1317,1317,1294,1292,1296,1300,1298,1285,1290,1301,1293,1292,1286,694,718,711,735,693,906,1050,1141,1257,1277,1278,1258,1296,1224,1246,1205,1206,1162,1123,1125,1084,1087,1074,1026,1034,1007,997,981,948,910,863,846,810,690,678,685,693,671,670,675,666,682,679,684,674,680,679,675,674,676,672,675,675,669,675,682,679,676,675,675,676,703,685,705,680,1053,1056,1058,1070,1306,1531,1748,1903,1978,2022,1976,1947,1939,1905,1879,1844,1816,1784,1756,1727,1689,1659,1625,1600,1565,1532,1496,1463,1380,1169,1175,1099,1074,1060,1045,1067,1070,1065,1038,1032,1048,1059,1053,1049,1053,1059,1049,1050,1053,1051,1057,1064,1063,1071,1061,1055,1055,1062,1062,1049,1049,1086,1049,1054,1048,296,297,297,298,299,313,431,479,529,575,594,585,576,566,557,547,539,530,520,511,501,492,484,474,465,456,446,437,427,419,410,400,391,313,305,300,301,302,289,293,289,298,295,300,293,305,295,298,293,292,293,297,297,294,297,297,295,293,299,293,293,294,293,295,289,652,654,656,657,744,919,1020,1105,1199,1239,1240,1249,1202,1182,1163,1144,1124,1105,1085,1067,1047,1028,1009,990,970,951,931,913,893,874,854,834,667,651,639,661,663,665,650,646,651,658,655,650,655,657,657,653,657,656,694,725,696,697,665,662,664,719,696,669,666,730,665,666,668,813,751,780,765,837,1021,1178,1308,1381,1398,1453,1390,1425,1337,1398,1315,1361,1310,1227,1205,1246,1163,1171,1120,1162,1117,1120,1107,1015,930,979,900,874,752,740,747,790,741,773,748,755,755,755,770,756,768,760,769,782,768,761,770,766,778,779,779,768,773,772,774,779,776,779,788,782,623,648,680,678,612,822,920,1041,1148,1202,1203,1153,1165,1118,1122,1096,1093,1081,1050,1023,1004,986,963,949,943,906,893,897,853,836,818,774,698,616,604,611,603,603,598,600,597,602,606,604,608,612,604,603,607,607,611,604,603,610,611,607,609,612,601,607,602,609,608,608,595,1141,1147,1149,1162,1344,1638,1940,2084,2120,2191,2127,2102,2103,2030,1998,2001,1941,1927,1903,1860,1835,1809,1769,1731,1701,1636,1636,1578,1512,1345,1216,1207,1145,1146,1144,1134,1119,1130,1086,1096,1106,1115,1120,1127,1109,1117,1110,1115,1110,1107,1114,1125,1133,1131,1126,1107,1111,1120,1117,1115,1114,1133,1107,1109,1103,468,469,471,472,477,632,716,799,883,932,946,930,916,900,885,871,855,841,826,810,796,781,765,751,735,720,706,690,675,661,645,640,616,600,479,476,477,457,441,438,440,442,445,440,441,443,442,449,450,449,449,455,450,449,457,454,454,456,455,455,456,456,486,480,471,926,919,919,926,974,1271,1439,1592,1685,1719,1714,1694,1671,1638,1618,1601,1563,1521,1520,1503,1471,1459,1443,1412,1348,1321,1333,1291,1226,1079,1054,970,926,906,909,918,895,892,864,870,871,883,883,873,887,890,879,884,880,883,889,897,897,907,893,887,890,894,895,888,888,914,888,893,887,500,513,503,504,529,608,765,853,936,982,988,973,961,955,939,898,907,892,852,860,855,841,812,797,781,765,749,733,717,718,690,681,535,522,511,507,520,505,466,466,466,466,466,466,466,466,466,466,466,466,466,466,466,466,466,466,466,466,466,466,466,466,466,466,466,518,519,535,522,517,595,785,863,953,1021,1025,1008,1008,988,959,959,918,902,888,889,858,847,836,843,813,776,777,758,745,729,713,609,595,549,539,528,546,532,488,488,488,488,488,488,488,488,488,488,488,488,488,488,488,488,488,488,488,488,488,488,488,488,488,488,488,0,0,0,0,0,0,0,0,0,0,0,0,0,0,0,0,0,0,0,0,0,0,0,0,0,0,0,0,0,0,0,0,0,0,0,0,0,0,0,0,0,0,0,0,0,0,0,0,0,0,0,0,0,0,0,0,0,0,0,0,0,0,0,0,0,834,837,828,829,848,1122,1356,1507,1581,1639,1630,1590,1557,1571,1532,1509,1507,1453,1419,1412,1388,1364,1333,1315,1289,1247,1239,1211,1168,960,925,891,882,855,857,847,841,812,780,780,780,780,780,780,780,780,780,780,780,780,780,780,780,780,780,780,780,780,780,780,780,780,780,780,780,752,784,748,753,789,1050,1211,1348,1441,1481,1477,1454,1427,1419,1383,1360,1337,1325,1290,1267,1244,1230,1197,1173,1159,1127,1112,1080,1057,1015,957,931,788,770,758,762,757,749,736,736,736,736,736,736,736,736,736,736,736,736,736,736,736,736,736,736,736,736,736,736,736,736,736,736,736,688,695,671,683,715,891,1086,1195,1289,1371,1325,1309,1288,1277,1241,1236,1264,1182,1204,1193,1172,1108,1079,1074,1070,1038,1045,973,950,934,878,724,700,692,728,668,682,674,669,669,669,669,669,669,669,669,669,669,669,669,669,669,669,669,669,669,669,669,669,669,669,669,669,669,669,845,851,865,852,875,1148,1381,1536,1622,1663,1655,1631,1597,1596,1558,1523,1553,1487,1455,1438,1414,1391,1366,1343,1313,1294,1257,1196,1171,1134,1024,980,905,887,871,857,861,839,809,809,809,809,809,809,809,809,809,809,809,809,809,809,809,809,809,809,809,809,809,809,809,809,809,809,809,499,500,502,503,511,631,756,859,941,992,996,981,965,950,935,918,903,887,872,857,840,826,809,794,778,763,747,731,717,700,685,548,534,522,516,512,514,462,431,431,431,431,431,431,431,431,431,431,431,431,431,431,431,431,431,431,431,431,431,431,431,431,431,431,431,494,495,496,496,499,581,725,809,894,984,990,974,960,941,926,911,895,879,864,849,836,822,806,790,773,757,743,727,711,695,681,656,551,533,511,502,504,486,437,437,437,437,437,437,437,437,437,437,437,437,437,437,437,437,437,437,437,437,437,437,437,437,437,437,437,722,735,735,740,746,979,1145,1305,1413,1462,1423,1430,1409,1325,1365,1340,1261,1295,1231,1251,1225,1203,1128,1106,1134,1110,1088,1065,1036,1019,997,890,809,757,747,745,746,723,690,690,690,690,690,690,690,690,690,690,690,690,690,690,690,690,690,690,690,690,690,690,690,690,690,690,690,1050,1038,1040,1063,1142,1470,1743,1916,2004,2025,2009,1980,1948,1933,1905,1865,1877,1803,1777,1763,1732,1685,1676,1645,1589,1560,1529,1488,1469,1214,1136,1138,1100,1071,1059,1051,1061,1028,981,981,981,981,981,981,981,981,981,981,981,981,981,981,981,981,981,981,981,981,981,981,981,981,981,981,981,1345,1335,1377,1432,1677,2074,2414,2580,2629,2619,2614,2587,2521,2494,2468,2426,2383,2344,2295,2240,2216,2184,2152,2101,2051,1963,1729,1747,1632,1509,1449,1425,1396,1400,1344,1370,1372,1392,1380,1386,1385,1387,1387,1387,1387,1387,1387,1387,1387,1387,1387,1387,1387,1387,1387,1387,1387,1387,1387,1387,1387,1387,1387,1387,1387,178,191,177,178,178,226,251,277,316,326,341,352,331,325,321,316,311,306,301,297,292,287,282,277,272,268,262,258,253,248,244,238,232,226,224,193,193,193,159,159,159,159,159,159,159,159,159,159,159,159,159,159,159,159,159,159,159,159,159,159,159,159,159,159,159,447,446,441,449,441,525,651,725,806,882,848,858,846,844,808,797,801,781,784,741,748,710,746,716,695,679,651,639,627,547,510,492,543,489,446,445,453,438,384,384,384,384,384,384,384,384,384,384,384,384,384,384,384,384,384,384,384,384,384,384,384,384,384,384,384,769,770,772,775,808,1113,1318,1533,1660,1695,1691,1652,1635,1593,1580,1536,1513,1478,1453,1412,1392,1361,1333,1316,1285,1252,1219,1180,1156,1133,1004,849,836,796,807,800,788,799,770,770,770,770,770,770,770,770,770,770,770,770,770,770,770,770,770,770,770,770,770,770,770,770,770,770,770,800,801,804,810,845,1149,1314,1428,1533,1565,1564,1551,1533,1513,1465,1440,1438,1392,1366,1361,1333,1307,1282,1241,1233,1190,1180,1158,1133,1092,1063,867,833,840,853,823,828,800,783,783,783,783,783,783,783,783,783,783,783,783,783,783,783,783,783,783,783,783,783,783,783,783,783,783,783,748,791,743,747,793,1054,1186,1345,1432,1471,1468,1445,1417,1416,1375,1351,1335,1322,1282,1259,1235,1202,1189,1166,1130,1119,1111,1072,1049,1022,999,824,807,756,752,741,743,732,718,718,719,719,719,719,719,719,719,719,719,719,719,719,719,719,719,719,719,719,719,719,719,719,719,719,719,413,414,418,416,422,456,598,649,676,708,732,736,715,707,682,689,680,682,647,671,666,644,634,625,615,606,596,587,583,585,513,549,448,455,438,422,422,408,395,395,395,395,395,395,395,395,395,395,395,395,395,395,395,395,395,395,395,395,395,395,395,395,395,395,395,1250,1224,1232,1268,1518,1934,2156,2336,2398,2470,2366,2343,2304,2343,2284,2237,2160,2121,2081,2060,2006,1979,1955,1903,1858,1878,1818,1676,1452,1366,1355,1338,1286,1281,1233,1244,1246,1265,1271,1261,1256,1270,1272,1272,1272,1272,1272,1272,1272,1272,1272,1272,1272,1272,1272,1272,1272,1272,1272,1272,1272,1272,1272,1272,1272,380,381,383,383,386,425,552,616,681,758,767,755,742,731,718,706,693,681,669,659,648,636,624,612,600,587,576,564,550,539,527,426,417,405,394,390,392,392,324,324,324,324,324,324,324,324,324,324,324,324,324,324,324,324,324,324,324,324,324,324,324,324,324,324,324,649,651,646,636,676,788,1011,1141,1263,1275,1263,1290,1254,1203,1211,1193,1156,1150,1087,1068,1090,1043,1049,1028,1008,987,940,947,924,887,773,793,730,655,649,658,642,636,624,624,624,624,624,624,624,624,624,624,624,624,624,624,624,624,624,624,624,624,624,624,624,624,624,624,624,783,793,788,792,844,1136,1277,1419,1511,1566,1544,1521,1497,1473,1480,1424,1399,1375,1351,1327,1302,1278,1254,1243,1206,1195,1157,1133,1114,1090,1054,916,828,810,797,795,791,801,785,789,786,785,789,788,789,789,789,789,789,789,789,789,789,789,789,789,789,789,789,789,789,789,789,789,789,402,391,392,393,407,436,598,655,721,773,781,768,757,743,731,719,707,710,683,671,658,646,633,643,609,597,585,573,561,560,536,523,432,408,398,395,423,397,358,358,358,358,358,358,358,358,358,358,358,358,358,358,358,358,358,358,358,358,358,358,358,358,358,358,358,548,600,550,552,563,755,852,950,1041,1089,1092,1074,1058,1040,1023,1006,988,972,954,938,920,903,886,869,852,834,818,800,783,766,749,732,715,570,558,556,557,558,545,545,545,545,545,545,545,545,545,545,545,545,545,545,545,545,545,545,545,545,545,545,545,545,545,545,545,662,664,666,668,664,865,1040,1163,1247,1293,1291,1272,1254,1248,1216,1197,1224,1160,1141,1123,1104,1085,1068,1048,1027,1010,992,966,947,935,882,723,704,687,681,673,675,671,628,628,628,628,628,628,628,628,628,628,628,628,628,628,628,628,628,628,628,628,628,628,628,628,628,628,628,338,339,340,341,342,435,510,564,622,660,683,656,661,650,628,618,608,598,611,578,574,564,553,542,531,521,523,499,488,477,464,454,446,374,360,362,356,344,329,331,332,332,332,332,332,332,332,332,332,332,332,332,332,332,332,332,332,332,332,332,332,332,332,332,332,473,464,454,462,479,538,699,779,879,911,903,888,930,860,860,831,869,878,789,775,773,761,747,718,704,690,686,686,657,644,629,617,550,485,468,457,505,459,450,450,450,450,450,450,450,450,450,450,450,450,450,450,450,450,450,450,450,450,450,450,450,450,450,450,450,261,262,275,264,265,279,378,420,463,513,526,517,509,501,493,485,475,467,459,452,444,436,427,420,411,403,394,387,378,370,297,289,283,276,270,266,266,267,212,212,212,212,212,212,212,212,212,212,212,212,212,212,212,212,212,212,212,212,212,212,212,212,212,212,212,651,696,657,658,684,886,1046,1169,1262,1317,1316,1295,1259,1253,1232,1213,1190,1159,1148,1128,1097,1076,1056,1035,1023,1002,973,952,931,911,904,711,694,677,703,660,665,656,639,641,643,643,643,643,643,643,643,643,643,643,643,643,643,643,643,643,643,643,643,643,643,643,643,643,643,711,713,709,717,722,975,1140,1389,1519,1563,1552,1518,1502,1463,1439,1409,1382,1355,1332,1292,1274,1246,1217,1189,1160,1131,1102,1074,1049,1017,988,932,762,738,725,723,730,731,709,709,709,709,709,709,709,709,709,709,709,709,709,709,709,709,709,709,709,709,709,709,709,709,709,709,709,500,513,503,504,529,608,765,853,936,982,988,973,961,955,939,898,907,892,852,860,855,841,812,797,781,765,749,733,717,718,690,681,535,522,511,507,520,505,466,466,466,466,466,466,466,466,466,466,466,466,466,466,466,466,466,466,466,466,466,466,466,466,466,466,466,1051,1053,1058,1076,1144,1602,1889,2111,2252,2320,2297,2255,2212,2170,2127,2106,2062,2002,1956,1936,1871,1828,1788,1743,1717,1657,1615,1575,1530,1476,1338,1147,1144,1085,1096,1069,1115,1077,1087,1085,1087,1092,1102,1092,1105,1114,1100,1111,1104,1137,1109,1106,1109,1114,1116,1115,1117,1118,1113,1113,1119,1152,1112,1130,1130,482,484,485,486,491,547,729,809,888,941,949,933,919,905,891,876,862,848,833,818,804,789,775,761,746,732,717,702,688,674,660,645,610,504,493,489,490,492,486,494,490,500,501,497,529,601,487,504,496,492,500,521,501,498,531,513,492,492,503,495,487,495,497,503,492,834,837,837,846,896,1134,1363,1489,1603,1639,1635,1636,1586,1562,1580,1511,1488,1464,1439,1415,1383,1418,1347,1354,1278,1255,1229,1204,1230,1152,1026,1028,931,861,849,845,848,850,847,850,857,861,859,861,868,867,870,862,862,849,855,862,868,873,875,856,863,863,863,868,872,868,851,869,866,0,0,0,0,0,0,0,0,0,0,0,0,0,0,0,0,0,0,0,0,0,0,0,0,0,0,0,0,0,0,0,0,0,0,0,0,0,0,0,0,0,0,0,0,0,0,0,0,0,0,0,0,0,0,0,0,0,0,0,0,0,0,0,0,0,1431,1397,1454,1529,1683,2315,2609,2826,2876,2918,2890,2871,2790,2740,2703,2630,2572,2521,2478,2444,2350,2310,2269,2242,2191,2018,1973,1857,1690,1637,1576,1562,1498,1467,1453,1449,1401,1410,1382,1403,1397,1420,1400,1415,1405,1428,1412,1424,1412,1427,1416,1413,1420,1428,1426,1438,1430,1422,1439,1427,1432,1443,1426,1430,1422,1066,1074,1072,1110,1164,1596,1921,2137,2229,2252,2233,2244,2173,2133,2091,2038,1999,1966,1959,1912,1853,1839,1765,1744,1687,1659,1569,1581,1536,1401,1366,1202,1127,1105,1083,1108,1106,1112,1111,1110,1114,1125,1140,1136,1134,1151,1131,1152,1139,1145,1138,1153,1146,1143,1137,1144,1149,1146,1138,1146,1137,1153,1135,1143,1134,128,128,158,158,158,162,184,205,226,248,262,258,254,249,246,242,237,233,228,225,221,216,212,209,204,200,195,191,188,183,179,174,171,167,162,159,159,160,120,120,121,120,119,119,122,122,122,119,122,120,119,120,120,120,120,120,120,120,120,119,120,120,120,121,122,1248,1252,1259,1332,1410,1910,2239,2352,2468,2501,2445,2435,2371,2330,2348,2247,2247,2194,2155,2112,2092,2059,1997,1993,1913,1861,1767,1684,1606,1414,1432,1344,1299,1284,1269,1222,1214,1214,1215,1223,1225,1242,1231,1227,1237,1238,1239,1227,1245,1237,1237,1236,1253,1261,1259,1261,1246,1243,1263,1239,1242,1247,1242,1244,1237,998,990,993,1024,1083,1447,1664,1814,1944,1987,1977,1921,1908,1901,1829,1797,1767,1735,1742,1673,1641,1633,1578,1547,1536,1487,1456,1425,1393,1357,1289,1064,1039,1032,1004,1013,970,972,990,975,981,978,983,989,990,987,990,1006,1017,1008,1016,1018,1007,1016,1011,1016,1007,1006,999,1018,1002,999,1007,1008,1007,1425,1427,1457,1527,1802,2323,2672,2827,2929,2945,2897,2873,2779,2756,2761,2668,2652,2597,2539,2504,2442,2390,2358,2283,2252,2173,1874,1946,1707,1630,1574,1522,1526,1483,1449,1436,1445,1460,1442,1463,1457,1480,1460,1475,1465,1488,1472,1484,1472,1487,1476,1473,1480,1488,1486,1498,1490,1482,1499,1487,1492,1503,1486,1490,1482,317,318,319,321,322,418,474,529,585,634,647,638,627,617,606,596,586,575,565,554,544,534,523,513,502,492,482,471,462,451,441,431,420,335,326,323,324,324,314,320,324,335,329,320,322,327,325,318,408,427,317,334,392,404,392,381,332,333,335,324,318,328,336,319,314,1185,1188,1190,1314,1827,2342,2741,2936,3058,3069,3027,2959,2890,2821,2753,2685,2615,2564,2479,2434,2373,2272,2197,2128,2060,2020,1930,1883,1793,1686,1354,1298,1250,1224,1215,1225,1242,1258,1287,1278,1268,1271,1317,1341,1304,1310,1313,1344,1312,1321,1317,1329,1310,1340,1343,1324,1343,1325,1341,1351,1361,1341,1313,1320,1305,842,846,826,838,882,1029,1342,1487,1585,1651,1617,1597,1566,1566,1548,1488,1464,1443,1416,1391,1365,1392,1315,1325,1267,1241,1217,1193,1221,1066,1041,1021,873,859,842,839,810,812,809,814,816,832,821,819,826,827,827,821,835,828,825,825,849,851,857,851,834,833,827,827,830,835,833,835,828,763,765,774,774,803,887,1222,1330,1447,1488,1487,1461,1443,1408,1398,1376,1348,1322,1313,1277,1265,1233,1219,1183,1180,1140,1120,1094,1008,962,947,924,807,789,786,774,765,760,768,767,776,780,778,777,775,790,773,793,785,773,782,782,779,784,789,789,784,780,778,783,781,791,778,794,781,344,344,345,347,347,330,371,504,555,602,688,677,667,656,645,634,624,613,602,592,581,570,559,550,539,528,518,507,496,486,475,379,370,362,353,349,350,351,330,332,334,338,336,335,338,340,333,340,340,338,335,340,336,335,336,340,341,343,337,335,342,340,338,338,337,1226,1252,1247,1281,1467,1966,2240,2490,2567,2584,2560,2591,2442,2438,2407,2319,2286,2294,2180,2193,2141,2112,2006,1999,1918,1922,1859,1750,1632,1571,1404,1324,1288,1272,1258,1260,1267,1274,1264,1279,1278,1288,1294,1300,1291,1317,1289,1302,1299,1290,1299,1307,1307,1313,1306,1296,1302,1301,1314,1291,1282,1323,1288,1296,1290,1405,1391,1412,1491,1639,2275,2546,2796,2861,2867,2838,2854,2741,2712,2657,2594,2557,2513,2459,2436,2347,2302,2255,2206,2158,2142,1966,1951,1744,1595,1526,1493,1474,1430,1415,1417,1384,1393,1365,1386,1380,1403,1383,1398,1388,1411,1395,1407,1395,1410,1399,1396,1403,1411,1409,1421,1413,1405,1422,1410,1415,1426,1409,1413,1405,711,738,716,719,748,881,1142,1329,1381,1470,1467,1400,1378,1353,1331,1309,1287,1265,1255,1256,1232,1173,1151,1128,1125,1083,1060,1068,1045,992,897,867,863,738,725,722,724,703,694,713,702,725,699,716,708,727,716,722,711,707,716,714,723,723,724,746,722,716,734,721,724,739,721,730,721,1331,1334,1339,1483,2054,2579,2970,3158,3276,3279,3238,3162,3093,3019,2953,2875,2807,2747,2667,2618,2553,2449,2369,2294,2229,2180,2086,1949,1820,1569,1508,1413,1397,1371,1363,1335,1353,1369,1398,1394,1382,1387,1431,1454,1421,1424,1426,1457,1424,1433,1431,1441,1421,1455,1455,1436,1457,1438,1457,1463,1465,1454,1426,1433,1418,903,906,909,924,970,1323,1499,1650,1786,1807,1823,1771,1760,1755,1685,1655,1648,1618,1608,1541,1534,1505,1454,1425,1397,1368,1339,1311,1282,1266,1152,978,954,934,919,917,918,920,937,932,941,994,975,946,946,946,942,979,973,963,967,961,949,959,956,976,946,949,941,955,946,941,952,953,952,1043,1045,1046,1065,1281,1584,1868,2093,2160,2269,2171,2136,2145,2112,2075,2040,2005,1970,1949,1898,1857,1828,1754,1730,1687,1645,1602,1560,1477,1432,1352,1136,1103,1076,1059,1060,1066,1073,1071,1078,1085,1104,1094,1100,1093,1098,1086,1090,1098,1126,1091,1101,1103,1125,1155,1143,1098,1098,1102,1097,1090,1093,1092,1105,1089,1253,1255,1250,1319,1406,1970,2261,2515,2571,2590,2565,2618,2488,2443,2411,2352,2291,2299,2204,2197,2164,2116,2028,2004,1960,1899,1828,1702,1662,1499,1387,1340,1321,1276,1272,1262,1270,1278,1271,1286,1282,1289,1294,1298,1295,1314,1285,1301,1297,1302,1295,1317,1307,1310,1303,1305,1305,1295,1320,1292,1294,1316,1289,1297,1294,865,868,870,882,948,1243,1420,1570,1707,1731,1747,1697,1687,1684,1614,1587,1559,1532,1542,1477,1449,1444,1394,1367,1339,1312,1284,1257,1229,1215,1171,1115,945,896,881,878,873,875,886,886,896,914,908,900,900,900,893,907,900,896,899,910,903,913,910,979,900,903,895,900,897,897,907,908,900,1214,1199,1216,1286,1344,1918,2207,2446,2501,2550,2528,2506,2417,2394,2363,2297,2245,2196,2164,2134,2048,2013,1972,1956,1910,1870,1829,1734,1608,1548,1355,1347,1299,1260,1245,1258,1210,1219,1191,1212,1206,1229,1209,1224,1214,1237,1221,1233,1221,1236,1225,1222,1229,1237,1235,1247,1239,1231,1248,1236,1241,1252,1235,1239,1231,326,328,329,330,331,430,484,539,594,643,655,645,634,624,614,605,594,584,574,563,553,543,533,522,512,502,492,481,471,462,451,441,431,344,335,332,333,333,324,321,324,328,326,325,326,332,327,328,326,326,332,333,334,348,334,329,327,333,331,331,326,404,328,333,328,712,713,713,716,737,1020,1217,1431,1529,1611,1557,1574,1501,1480,1459,1416,1422,1392,1332,1304,1276,1278,1219,1197,1163,1147,1134,1090,1050,1023,1014,962,788,741,725,725,750,737,731,733,737,737,738,737,765,776,732,743,768,748,747,779,779,763,742,737,746,746,740,734,745,743,742,743,745,955,963,969,950,1077,1346,1558,1749,1820,1864,1842,1812,1813,1767,1772,1744,1666,1685,1667,1621,1548,1519,1521,1500,1470,1401,1372,1343,1359,1305,1259,1150,1069,965,943,970,943,953,966,961,966,1029,985,990,993,972,976,990,979,982,980,982,990,1023,990,988,993,990,990,983,1011,989,986,1015,987,910,900,903,933,1014,1256,1513,1640,1751,1797,1789,1863,1750,1703,1675,1668,1618,1610,1597,1532,1503,1475,1446,1436,1389,1379,1332,1321,1274,1215,1091,1065,949,942,914,924,914,929,936,944,936,948,952,946,948,958,936,945,941,941,940,956,982,949,945,949,949,945,962,958,941,966,942,948,945,1340,1306,1328,1415,1534,2134,2434,2656,2708,2753,2728,2702,2642,2584,2549,2480,2424,2374,2335,2303,2209,2174,2133,2112,2064,2027,1931,1825,1677,1506,1484,1454,1405,1379,1364,1356,1307,1316,1288,1309,1303,1326,1306,1321,1311,1334,1318,1330,1318,1333,1322,1319,1326,1334,1332,1344,1336,1328,1345,1333,1338,1349,1332,1336,1328,248,248,249,250,251,322,364,405,447,489,502,495,487,479,470,463,455,447,438,431,423,415,408,399,391,383,376,368,359,352,344,336,328,320,312,252,252,252,244,244,243,244,244,246,246,267,250,250,246,250,249,312,251,321,251,246,248,249,245,255,249,248,246,249,246,1051,1053,1058,1076,1144,1602,1889,2111,2252,2320,2297,2255,2212,2170,2127,2106,2062,2002,1956,1936,1871,1828,1788,1743,1717,1657,1615,1575,1530,1476,1338,1147,1144,1085,1096,1069,1115,1077,1087,1085,1087,1092,1102,1092,1105,1114,1100,1111,1104,1137,1109,1106,1109,1114,1116,1115,1117,1118,1113,1113,1119,1152,1112,1130,1130,505,506,507,509,525,664,775,877,930,1004,1029,1012,997,973,980,940,946,908,892,875,859,842,831,829,799,777,765,749,728,716,699,702,553,529,517,513,514,516,500,491,497,500,505,506,495,520,508,494,534,511,505,505,514,532,515,513,501,518,507,514,524,519,522,530,526,1147,1144,1147,1179,1332,1642,1979,2125,2240,2274,2222,2213,2184,2143,2100,2068,2038,1995,1951,1929,1888,1862,1828,1760,1778,1703,1685,1638,1508,1414,1319,1239,1182,1167,1180,1171,1151,1116,1105,1098,1104,1112,1115,1118,1122,1124,1118,1114,1128,1118,1119,1117,1118,1121,1115,1119,1123,1126,1119,1120,1121,1120,1116,1118,1113,701,703,710,707,723,963,1110,1213,1326,1394,1355,1360,1338,1326,1299,1278,1248,1227,1206,1198,1172,1154,1130,1098,1117,1058,1047,1015,994,978,816,816,776,714,740,731,713,691,653,651,655,654,663,669,669,690,670,666,684,670,671,669,670,673,667,671,675,681,674,672,673,672,668,670,665,1397,1423,1431,1469,1748,2274,2585,2731,2813,2847,2772,2772,2709,2659,2622,2561,2537,2478,2445,2401,2368,2310,2247,2186,2217,2091,1820,1800,1724,1564,1549,1530,1487,1468,1450,1430,1438,1407,1391,1393,1393,1405,1409,1413,1414,1417,1413,1409,1424,1414,1415,1413,1414,1417,1411,1415,1418,1420,1412,1416,1412,1414,1409,1411,1406,0,0,0,0,0,0,0,0,0,0,0,0,0,0,0,0,0,0,0,0,0,0,0,0,0,0,0,0,0,0,0,0,0,0,0,0,0,0,0,0,0,0,0,0,0,0,0,0,0,0,0,0,0,0,0,0,0,0,0,0,0,0,0,0,0,748,749,746,755,794,1069,1227,1372,1464,1504,1561,1479,1512,1475,1411,1424,1357,1339,1326,1286,1247,1228,1210,1200,1135,1152,1055,1032,1011,1004,964,926,894,811,762,760,792,763,745,756,757,764,765,762,762,756,766,786,771,770,769,785,791,794,770,767,792,772,769,764,785,790,771,767,764,1341,1374,1380,1401,1727,2292,2572,2750,2773,2850,2800,2774,2697,2683,2564,2516,2459,2493,2423,2333,2305,2280,2240,2140,2166,2043,1983,1795,1673,1536,1492,1498,1438,1422,1393,1318,1326,1339,1322,1331,1332,1332,1334,1353,1355,1339,1341,1354,1344,1343,1350,1357,1361,1372,1352,1355,1358,1368,1373,1352,1340,1348,1344,1347,1344,324,325,326,327,329,413,468,521,575,628,656,645,635,627,616,606,594,584,574,563,553,543,532,524,510,501,491,480,470,461,449,440,429,419,334,354,331,332,272,274,273,274,275,282,277,306,285,277,298,279,282,279,279,283,279,280,283,286,281,282,282,284,281,284,279,694,702,704,709,736,931,1081,1227,1317,1386,1413,1386,1374,1335,1317,1282,1290,1262,1236,1233,1205,1157,1137,1125,1098,1059,1049,1031,1014,981,937,860,741,735,723,712,714,724,662,660,662,662,664,672,668,702,674,665,692,668,671,665,667,672,670,672,670,672,666,669,671,674,670,679,673,233,233,234,235,235,246,331,369,406,443,469,463,455,449,441,433,426,419,411,404,397,390,382,375,369,361,353,346,338,331,324,292,285,247,247,267,267,268,211,216,213,216,244,239,227,248,235,244,251,227,275,219,222,239,228,219,245,224,217,244,234,249,246,239,227,1387,1402,1400,1475,1879,2349,2653,2805,2848,2870,2850,2804,2773,2709,2668,2602,2561,2520,2468,2449,2369,2317,2266,2214,2163,2103,2056,1949,1636,1589,1530,1485,1456,1435,1414,1417,1423,1453,1445,1430,1470,1475,1467,1462,1471,1490,1488,1475,1502,1484,1483,1464,1478,1488,1482,1483,1470,1487,1482,1484,1484,1486,1482,1486,1481,834,859,851,867,918,1207,1332,1509,1603,1687,1668,1628,1597,1607,1566,1532,1443,1428,1457,1395,1401,1319,1348,1308,1279,1246,1273,1237,1146,1005,926,937,894,852,878,875,857,840,836,838,823,827,847,822,852,827,830,856,841,838,834,888,840,832,868,839,837,855,857,841,842,836,846,845,844,782,786,794,792,822,1090,1265,1389,1510,1567,1526,1522,1499,1496,1463,1428,1404,1380,1351,1347,1317,1296,1266,1228,1241,1185,1174,1136,1112,1094,959,860,815,798,813,801,798,784,747,747,750,751,755,761,759,778,758,754,775,758,759,757,758,761,755,759,763,769,762,760,761,760,756,758,753,1055,1068,1061,1090,1146,1505,1813,1967,2072,2119,2058,2057,2018,2028,1957,1932,1885,1865,1819,1807,1787,1726,1694,1645,1653,1596,1537,1476,1400,1360,1170,1141,1113,1078,1108,1081,1047,1012,1001,994,1000,1008,1011,1014,1018,1020,1014,1010,1024,1014,1015,1013,1014,1017,1011,1015,1019,1022,1015,1016,1017,1016,1012,1014,1009,1221,1226,1249,1272,1634,2048,2309,2492,2503,2602,2559,2536,2473,2467,2385,2317,2238,2283,2224,2171,2104,2083,2055,1963,2008,1889,1830,1834,1584,1363,1368,1394,1287,1292,1277,1252,1254,1277,1249,1241,1242,1277,1256,1270,1272,1269,1273,1295,1272,1275,1281,1286,1299,1312,1299,1286,1304,1284,1285,1284,1290,1295,1271,1274,1271,565,567,583,583,591,763,857,952,1045,1101,1103,1086,1070,1052,1036,1018,977,961,944,928,935,895,900,862,866,836,832,816,779,789,753,748,584,570,592,587,589,591,550,546,551,590,565,613,593,548,557,565,557,559,553,555,565,590,567,558,558,553,551,554,555,555,556,563,548,226,227,227,261,261,268,297,327,356,387,401,396,390,385,378,372,367,361,355,349,344,338,332,326,321,315,309,303,298,239,234,229,225,220,267,262,263,264,186,188,184,186,190,195,189,193,191,191,192,190,191,188,189,191,198,188,190,192,187,190,188,190,190,190,186,993,997,962,1001,1089,1396,1552,1724,1848,1873,1829,1826,1786,1773,1732,1738,1710,1651,1654,1626,1618,1570,1570,1453,1536,1464,1435,1402,1373,1193,1198,1055,1017,987,999,1007,999,995,998,998,1008,1011,1009,1009,1017,1017,1017,1014,1015,1023,1019,1023,1021,1017,1011,1016,1027,1019,1017,1020,1022,1018,1019,1017,1014,724,774,752,730,767,999,1180,1291,1378,1440,1444,1402,1391,1369,1346,1324,1302,1280,1265,1225,1200,1177,1138,1133,1111,1111,1079,1058,999,821,946,787,806,755,773,758,790,774,742,738,742,754,743,751,750,758,749,747,751,745,757,758,766,765,774,756,750,758,756,749,751,766,758,766,752,657,661,662,665,687,908,1033,1163,1274,1338,1312,1304,1282,1288,1240,1218,1196,1175,1154,1132,1111,1089,1061,1042,1082,1006,986,965,942,920,875,775,705,733,672,670,671,637,603,600,607,606,613,617,621,631,619,612,631,615,620,619,621,621,615,618,623,633,620,618,622,617,615,617,612,999,990,998,1005,1091,1436,1644,1837,1941,1993,1952,1936,1898,1897,1840,1812,1774,1748,1712,1680,1635,1604,1580,1549,1574,1492,1461,1431,1349,1242,1220,1091,1044,1027,1001,1006,1009,978,942,943,952,952,953,969,963,979,967,965,982,967,970,965,968,967,967,964,966,974,965,966,969,968,962,964,959,440,431,442,434,435,543,616,672,735,792,802,796,778,766,753,748,729,723,706,699,682,670,664,647,635,623,617,605,586,580,563,451,451,432,440,436,438,432,393,398,388,392,403,402,404,402,396,401,402,414,403,396,400,405,407,399,404,402,398,401,396,399,401,404,393,701,704,706,711,738,973,1107,1246,1361,1423,1395,1385,1362,1368,1317,1294,1272,1248,1227,1204,1181,1157,1129,1109,1146,1070,1047,1027,1001,916,895,848,749,728,716,715,716,679,646,642,646,652,660,661,665,680,662,659,676,660,660,661,666,663,656,662,665,671,663,661,668,661,659,661,656,320,321,322,323,311,421,476,481,521,559,570,563,555,547,540,532,524,518,510,502,495,487,507,473,487,457,484,455,463,453,443,433,422,412,402,324,325,326,315,314,315,324,318,315,315,319,320,327,325,318,324,313,324,321,325,327,320,329,324,324,327,324,321,329,324,1295,1293,1273,1349,1538,1929,2267,2401,2502,2526,2473,2464,2398,2377,2323,2284,2245,2206,2167,2127,2117,2047,2033,1941,1976,1892,1869,1764,1588,1543,1431,1355,1351,1297,1299,1319,1296,1256,1245,1239,1255,1256,1257,1268,1264,1269,1267,1263,1277,1266,1267,1265,1267,1268,1261,1267,1270,1271,1268,1268,1267,1270,1266,1268,1263,870,872,879,876,943,1271,1459,1618,1702,1822,1754,1752,1681,1712,1623,1596,1571,1596,1565,1498,1451,1475,1442,1358,1440,1318,1292,1300,1201,1024,1099,968,932,920,916,885,863,891,882,865,868,867,878,886,872,881,872,873,878,884,883,886,893,895,910,896,885,892,892,893,900,907,906,912,893,755,774,764,778,803,1043,1191,1331,1449,1516,1532,1517,1493,1467,1435,1398,1397,1369,1331,1316,1310,1284,1239,1232,1191,1155,1136,1117,1073,1038,994,908,807,800,797,795,775,763,717,719,725,720,721,740,735,757,738,737,756,746,750,753,751,737,735,740,748,754,733,746,747,741,738,742,736,674,680,680,687,721,877,1069,1200,1308,1374,1345,1323,1317,1295,1273,1252,1220,1207,1186,1166,1144,1120,1065,1076,1078,1034,1015,994,922,868,868,736,702,686,696,684,692,600,566,563,565,579,582,581,581,599,589,579,598,582,581,578,583,586,578,587,584,593,588,585,593,584,582,584,579,115,116,116,117,117,146,165,184,204,223,237,234,229,226,222,218,214,211,207,203,200,195,192,188,184,180,177,172,169,166,161,158,154,150,146,117,117,117,107,107,108,113,110,107,108,112,108,108,113,114,167,162,166,145,107,108,111,112,111,108,111,112,111,111,111,1143,1168,1174,1182,1476,1898,2170,2354,2425,2468,2428,2405,2334,2340,2215,2173,2116,2163,2095,2010,1989,1971,1944,1853,1883,1756,1740,1699,1611,1436,1424,1362,1231,1215,1192,1187,1194,1207,1192,1199,1203,1202,1202,1222,1221,1208,1208,1222,1210,1213,1217,1227,1230,1240,1220,1225,1227,1237,1242,1223,1212,1222,1218,1221,1218,505,506,507,509,525,664,775,877,930,1004,1029,1012,997,973,980,940,946,908,892,875,859,842,831,829,799,777,765,749,728,716,699,702,553,529,517,513,514,516,500,491,497,500,505,506,495,520,508,494,534,511,505,505,514,532,515,513,501,518,507,514,524,519,522,530,526,804,803,809,837,865,1024,1285,1451,1555,1591,1612,1558,1577,1548,1522,1486,1470,1439,1396,1361,1355,1330,1300,1258,1237,1222,1192,1175,1131,1047,1056,935,881,870,845,838,835,802,720,718,718,719,722,722,721,725,722,727,723,720,721,719,721,724,724,721,723,722,720,725,721,726,722,722,722,1091,1088,1099,1134,1216,1593,1818,2002,2053,2124,2158,2125,2088,2056,1999,1982,1945,1891,1864,1830,1823,1765,1749,1707,1664,1639,1598,1470,1422,1373,1289,1187,1163,1122,1133,1097,1096,1053,1029,1025,1032,1035,1035,1029,1035,1037,1039,1040,1036,1054,1061,1054,1036,1041,1038,1038,1040,1033,1027,1039,1036,1039,1037,1037,1037,689,691,693,714,716,857,1048,1161,1218,1317,1343,1324,1306,1302,1284,1258,1238,1213,1192,1174,1153,1108,1111,1101,1068,1046,1026,1004,965,919,901,765,769,726,729,704,715,660,628,629,631,636,639,635,640,644,637,644,640,637,639,635,638,644,640,640,644,639,636,645,642,645,643,643,643,1121,1130,1135,1152,1288,1715,1960,2170,2334,2354,2340,2307,2264,2227,2188,2142,2103,2059,2020,1976,1935,1889,1864,1824,1792,1745,1714,1673,1488,1323,1290,1253,1223,1190,1179,1180,1167,1182,1097,1109,1107,1119,1116,1125,1115,1128,1127,1123,1136,1128,1127,1123,1127,1128,1129,1123,1125,1127,1127,1123,1123,1127,1129,1129,1129,719,720,722,724,727,948,1137,1261,1378,1439,1439,1417,1393,1371,1332,1309,1301,1280,1257,1234,1200,1187,1165,1141,1119,1096,1073,1049,1027,988,913,926,852,750,738,730,731,729,675,674,673,674,677,677,676,680,677,682,678,675,676,674,676,679,679,676,678,677,675,680,676,681,677,677,677,0,0,0,0,0,0,0,0,0,0,0,0,0,0,0,0,0,0,0,0,0,0,0,0,0,0,0,0,0,0,0,0,0,0,0,0,0,0,0,0,0,0,0,0,0,0,0,0,0,0,0,0,0,0,0,0,0,0,0,0,0,0,0,0,0,1072,1081,1086,1088,1213,1588,1841,2071,2238,2273,2246,2204,2174,2125,2100,2056,2017,1977,1939,1885,1857,1813,1789,1744,1704,1669,1637,1596,1416,1295,1233,1196,1165,1145,1130,1102,1055,1063,985,983,996,992,999,1005,996,1009,1008,1004,1017,1009,1008,1004,1008,1009,1010,1004,1006,1008,1008,1004,1004,1008,1010,1010,1010,609,611,614,634,636,772,938,1047,1149,1214,1229,1210,1194,1172,1151,1131,1113,1092,1074,1053,1036,1014,995,975,956,936,917,898,878,858,803,697,681,663,650,637,640,596,508,507,506,507,510,510,509,513,510,515,511,508,509,507,509,512,512,509,511,510,508,513,509,514,510,510,510,814,819,816,844,860,1049,1319,1475,1576,1636,1630,1611,1602,1572,1548,1519,1485,1457,1431,1397,1381,1344,1329,1290,1265,1236,1212,1185,1169,1145,1110,921,903,873,853,853,857,823,741,740,739,740,743,743,742,746,743,748,744,741,742,740,742,745,745,742,744,743,741,746,742,747,743,743,743,795,819,814,816,884,1114,1271,1432,1564,1617,1606,1592,1572,1546,1520,1492,1463,1428,1414,1354,1354,1335,1314,1239,1250,1238,1202,1187,1070,1125,1025,897,889,864,846,830,836,828,735,734,733,734,737,737,736,740,737,742,738,735,736,734,736,739,739,736,738,737,735,740,736,741,737,737,737,1325,1348,1348,1376,1619,2164,2365,2593,2735,2768,2711,2696,2646,2605,2529,2511,2437,2386,2342,2319,2269,2217,2182,2114,2072,2028,1993,1823,1604,1558,1492,1456,1414,1386,1375,1389,1380,1379,1300,1313,1315,1316,1323,1322,1319,1325,1324,1320,1333,1325,1324,1320,1324,1325,1326,1320,1322,1324,1324,1320,1320,1324,1326,1326,1326,1058,1060,1083,1097,1140,1641,1861,1995,2101,2159,2129,2104,2087,2032,1998,1961,1884,1905,1881,1843,1811,1756,1686,1695,1670,1624,1601,1555,1362,1367,1290,1159,1115,1087,1079,1093,1098,1112,1073,1076,1079,1083,1133,1109,1131,1111,1101,1133,1099,1102,1111,1098,1097,1108,1103,1097,1127,1098,1094,1113,1110,1122,1112,1111,1104,772,774,774,794,799,1003,1184,1362,1444,1504,1537,1514,1493,1470,1451,1425,1396,1364,1346,1318,1292,1248,1249,1235,1200,1174,1148,1126,1083,1066,930,854,858,810,811,788,795,752,728,724,731,734,734,728,734,736,734,739,735,741,747,736,735,740,737,737,739,732,726,738,735,738,736,736,736,1016,1011,1026,1034,1118,1440,1646,1842,1917,1956,1997,1984,1971,1925,1857,1832,1793,1772,1738,1717,1696,1632,1615,1592,1562,1527,1487,1445,1282,1333,1231,1109,1084,1042,1059,1027,992,949,925,921,928,931,931,925,931,933,935,936,932,950,957,955,932,937,934,934,936,929,923,935,932,935,933,933,933,944,949,965,966,1034,1416,1627,1842,1981,2020,1995,1973,1964,1928,1865,1828,1794,1798,1721,1713,1651,1643,1593,1561,1551,1523,1480,1453,1403,1309,1234,1098,1025,995,988,980,1000,998,920,909,917,916,919,943,935,946,943,941,954,932,945,926,934,946,944,933,936,936,933,934,935,938,936,936,936,324,324,325,326,327,425,480,535,591,641,654,644,633,623,613,602,592,583,572,562,551,541,531,520,510,500,489,479,469,458,448,437,427,342,333,329,329,330,320,319,317,320,425,341,427,340,332,431,336,332,340,325,324,335,332,326,421,325,321,340,336,427,341,338,333,645,646,648,650,652,903,1014,1121,1231,1294,1297,1276,1255,1234,1199,1179,1172,1153,1131,1112,1090,1070,1049,1028,1007,987,966,945,925,903,883,861,766,675,663,655,656,654,624,624,622,626,659,647,659,645,635,661,641,638,643,630,636,646,637,629,659,630,626,645,642,654,644,643,636,841,844,847,849,882,956,1234,1380,1440,1501,1547,1538,1517,1494,1471,1450,1428,1436,1414,1391,1367,1286,1295,1280,1265,1236,1204,1182,1122,1136,983,966,941,873,868,848,851,831,771,777,772,787,783,797,781,793,795,784,788,786,779,781,783,783,785,785,788,788,785,786,787,790,788,788,788,983,986,984,950,988,1460,1588,1739,1878,1922,1923,1932,1899,1822,1821,1726,1696,1678,1658,1628,1597,1546,1516,1500,1525,1426,1429,1369,1178,1266,1114,1071,1045,998,990,978,1010,986,946,947,948,954,1015,973,1011,978,968,1007,971,973,979,967,968,977,971,965,1019,972,968,1005,983,1016,989,985,979,701,703,702,730,739,864,1110,1245,1349,1404,1414,1399,1376,1349,1333,1299,1287,1264,1242,1209,1189,1164,1142,1117,1096,1072,1051,1030,1008,955,933,853,832,758,742,740,743,708,626,625,624,625,628,628,627,631,628,633,629,626,627,625,627,630,630,627,629,628,626,631,627,632,628,628,628,1006,1010,1014,1037,1066,1392,1652,1857,1957,1976,1997,1964,1938,1915,1879,1849,1816,1782,1734,1718,1667,1638,1618,1585,1553,1520,1479,1446,1398,1267,1139,1112,1085,1055,1052,1040,1034,1027,942,944,954,950,951,956,955,965,963,974,958,960,965,959,967,971,971,959,970,965,967,966,960,963,961,961,961,389,389,390,391,398,515,579,636,708,766,778,766,754,741,719,707,705,694,682,669,656,645,633,621,609,596,584,572,560,548,536,523,511,414,404,399,400,401,369,367,365,369,408,390,406,388,378,414,384,381,386,373,379,389,380,372,402,373,369,388,385,397,387,386,379,745,748,745,774,785,929,1184,1328,1436,1487,1497,1480,1455,1427,1410,1376,1363,1337,1314,1281,1258,1232,1209,1184,1161,1136,1112,1092,1057,1032,998,850,821,802,786,785,784,750,668,667,666,667,670,670,669,673,670,675,671,668,669,667,669,672,672,669,671,670,668,673,669,674,670,670,670,524,526,527,549,549,689,780,886,978,1045,1063,1046,1029,1013,995,978,962,944,927,911,875,876,860,843,828,809,793,776,759,717,726,709,659,609,565,534,545,564,484,483,482,483,486,486,485,489,486,491,487,484,485,483,485,488,488,485,487,486,484,489,485,490,486,486,486,1132,1142,1147,1161,1338,1707,1989,2181,2310,2357,2354,2319,2276,2239,2197,2154,2115,2073,2034,1990,1948,1902,1877,1837,1799,1745,1660,1619,1484,1433,1296,1265,1226,1206,1192,1192,1191,1165,1110,1120,1119,1123,1129,1129,1124,1132,1131,1127,1140,1132,1131,1127,1131,1132,1133,1127,1129,1131,1131,1127,1127,1131,1133,1133,1133,604,606,607,610,646,794,905,1012,1154,1216,1220,1201,1180,1161,1142,1121,1122,1081,1062,1043,1024,1011,996,977,957,934,916,898,876,859,816,800,683,666,649,645,645,649,565,563,560,567,572,587,570,582,589,580,578,576,571,574,576,573,578,577,580,580,577,578,579,582,580,580,580,825,828,826,853,870,1051,1327,1504,1598,1643,1651,1632,1605,1573,1556,1518,1503,1477,1450,1414,1388,1360,1335,1307,1281,1253,1227,1204,1178,1159,959,933,913,883,863,863,867,834,752,751,750,751,754,754,753,757,754,759,755,752,753,751,753,756,756,753,755,754,752,757,753,758,754,754,754,658,660,664,686,688,841,1019,1145,1254,1315,1329,1307,1289,1270,1243,1226,1204,1180,1161,1140,1119,1096,1074,1054,1033,1009,990,969,946,921,841,821,731,710,702,688,691,633,560,557,566,573,573,568,569,570,582,586,572,571,568,565,570,583,575,571,569,568,569,573,567,570,568,568,568,628,632,633,655,667,813,953,1094,1200,1263,1277,1257,1237,1213,1196,1174,1154,1133,1113,1093,1053,1051,1032,1011,992,970,950,930,910,863,853,823,768,718,665,639,652,654,581,580,579,580,583,583,582,586,583,588,584,581,582,580,582,585,585,582,584,583,581,586,582,587,583,583,583,867,876,880,881,958,1253,1460,1661,1842,1884,1864,1840,1805,1772,1737,1703,1669,1635,1605,1568,1534,1497,1479,1448,1416,1379,1355,1321,1279,1255,1018,994,959,938,923,922,924,931,853,865,864,868,870,873,865,877,876,872,885,877,876,872,876,877,878,872,874,876,876,872,872,876,878,878,878,804,803,809,837,865,1024,1285,1451,1555,1591,1612,1558,1577,1548,1522,1486,1470,1439,1396,1361,1355,1330,1300,1258,1237,1222,1192,1175,1131,1047,1056,935,881,870,845,838,835,802,720,718,718,719,722,722,721,725,722,727,723,720,721,719,721,724,724,721,723,722,720,725,721,726,722,722,722,1057,1060,1095,1082,1150,1583,1897,2119,2263,2339,2321,2278,2244,2192,2149,2106,2071,2019,1985,1942,1899,1848,1814,1762,1726,1683,1632,1598,1546,1400,1220,1185,1125,1122,1077,1071,1083,1081,1066,1064,1066,1070,1073,1071,1081,1089,1082,1079,1082,1079,1086,1086,1086,1092,1088,1087,1088,1092,1088,1088,1092,1091,1088,1092,1088,578,579,580,585,597,772,910,1016,1058,1139,1127,1139,1121,1103,1045,1093,1074,1020,1015,971,979,980,961,942,924,877,886,832,815,798,791,746,646,596,584,589,591,627,573,576,577,581,580,589,601,594,585,583,592,594,591,594,598,601,584,586,590,587,586,584,585,584,584,584,584,933,932,933,943,996,1348,1506,1669,1765,1819,1809,1782,1754,1727,1708,1687,1642,1632,1585,1577,1557,1522,1471,1458,1429,1387,1361,1334,1302,1223,1118,1004,963,950,938,945,949,957,924,924,927,934,951,959,940,946,952,943,944,952,952,950,955,947,955,957,948,959,947,957,948,949,949,949,949,255,256,257,258,259,289,375,419,462,505,524,515,507,499,490,481,474,465,457,448,440,432,423,414,407,398,389,381,372,365,356,309,303,295,287,260,260,261,252,233,231,232,245,251,245,243,242,247,270,253,252,252,251,264,261,242,248,255,251,255,255,252,252,273,257,1440,1404,1461,1555,1723,2332,2600,2803,2901,2893,2884,2842,2732,2750,2684,2684,2560,2517,2549,2452,2406,2310,2312,2227,2190,2091,1983,1666,1635,1640,1561,1529,1508,1473,1464,1441,1401,1404,1361,1375,1375,1377,1371,1381,1377,1382,1383,1376,1383,1375,1378,1377,1377,1381,1377,1377,1377,1380,1376,1377,1376,1378,1377,1381,1377,1078,1072,1077,1140,1170,1641,1927,2128,2278,2257,2239,2189,2150,2112,2072,2090,1995,1955,2003,1878,1914,1800,1819,1722,1684,1644,1614,1567,1577,1218,1187,1154,1139,1125,1091,1087,1095,1119,1090,1089,1093,1103,1106,1114,1107,1113,1113,1108,1117,1109,1111,1111,1112,1111,1108,1112,1111,1114,1112,1112,1110,1115,1114,1118,1114,0,0,0,0,0,0,0,0,0,0,0,0,0,0,0,0,0,0,0,0,0,0,0,0,0,0,0,0,0,0,0,0,0,0,0,0,0,0,0,0,0,0,0,0,0,0,0,0,0,0,0,0,0,0,0,0,0,0,0,0,0,0,0,0,0,1252,1255,1265,1338,1416,1982,2264,2460,2567,2586,2621,2575,2474,2431,2385,2399,2296,2303,2272,2212,2177,2080,2077,1989,1988,1944,1857,1785,1617,1420,1387,1354,1355,1296,1278,1225,1217,1224,1194,1205,1208,1210,1204,1214,1210,1215,1216,1209,1216,1208,1210,1210,1210,1213,1210,1209,1210,1212,1209,1208,1209,1211,1210,1214,1210,1061,1057,1056,1099,1164,1546,1771,1936,2048,2088,2071,2037,2022,1988,1937,1904,1874,1840,1823,1809,1756,1724,1694,1641,1624,1575,1556,1540,1507,1197,1168,1128,1131,1081,1067,1077,1034,1040,1029,1025,1029,1031,1029,1041,1024,1042,1034,1042,1064,1047,1040,1052,1045,1062,1059,1057,1053,1052,1051,1058,1057,1051,1051,1051,1051,1455,1434,1472,1533,1797,2304,2680,2841,2975,3018,2995,2939,2832,2838,2788,2686,2681,2622,2550,2524,2467,2413,2340,2331,2257,2158,2009,1924,1665,1662,1589,1575,1501,1494,1443,1439,1461,1464,1421,1435,1435,1437,1431,1441,1437,1442,1443,1436,1443,1435,1438,1437,1437,1441,1437,1437,1437,1440,1436,1437,1436,1438,1437,1441,1437,417,419,420,422,424,554,627,700,772,836,848,834,820,799,794,779,766,753,739,726,718,698,690,672,658,644,631,618,603,590,577,563,550,536,428,423,425,426,405,400,408,415,405,412,404,410,415,408,417,408,409,406,408,416,412,413,407,410,406,405,402,412,408,416,414,1191,1194,1197,1320,1833,2323,2749,2944,3069,3095,3049,2979,2911,2842,2792,2704,2653,2566,2498,2439,2359,2283,2222,2152,2084,2008,1962,1886,1808,1692,1367,1310,1262,1237,1221,1225,1255,1252,1266,1257,1247,1249,1280,1285,1280,1285,1287,1281,1288,1280,1282,1281,1281,1285,1281,1281,1281,1284,1281,1280,1281,1282,1281,1285,1281,936,925,926,935,982,1318,1524,1650,1754,1816,1794,1781,1729,1701,1668,1665,1624,1625,1568,1540,1565,1483,1455,1465,1401,1373,1346,1317,1289,1191,1173,1018,959,945,927,940,924,927,907,903,900,913,909,911,916,917,916,904,916,919,923,908,912,917,918,916,913,919,908,918,908,937,936,934,927,811,801,804,811,900,1136,1286,1434,1555,1601,1662,1568,1543,1532,1506,1481,1493,1416,1391,1420,1339,1314,1289,1295,1238,1234,1188,1204,1098,1080,969,947,846,827,836,811,811,814,793,785,793,796,795,798,800,804,800,800,807,799,806,798,806,812,806,807,809,802,798,805,809,809,809,809,809,224,225,225,225,273,287,323,358,393,429,445,438,432,425,419,411,404,398,391,385,378,370,364,357,350,344,337,330,323,316,310,303,295,289,282,274,275,275,217,212,215,218,217,216,216,218,215,221,220,218,216,220,216,215,216,220,221,223,217,216,222,220,218,217,217,1277,1252,1254,1290,1465,1948,2219,2427,2559,2568,2549,2502,2458,2393,2387,2382,2298,2219,2259,2164,2148,2065,2046,1978,1931,1888,1893,1750,1444,1401,1379,1331,1317,1295,1264,1262,1270,1265,1243,1258,1257,1260,1264,1274,1262,1274,1271,1264,1277,1257,1273,1264,1275,1281,1269,1270,1270,1276,1270,1265,1255,1279,1262,1266,1262,1433,1398,1419,1531,1679,2280,2573,2759,2853,2868,2833,2784,2724,2687,2656,2645,2553,2504,2508,2409,2406,2302,2304,2202,2168,2085,2016,1865,1603,1564,1523,1500,1469,1451,1422,1420,1384,1387,1344,1358,1358,1360,1354,1364,1360,1365,1366,1359,1366,1358,1361,1360,1360,1364,1360,1360,1360,1363,1359,1360,1359,1361,1360,1364,1360,757,759,756,743,788,1031,1201,1368,1461,1528,1516,1530,1490,1435,1411,1381,1357,1334,1324,1285,1300,1238,1251,1160,1166,1154,1118,1094,1070,1089,849,881,797,805,766,786,776,770,747,743,739,750,749,753,763,769,749,749,759,748,748,753,756,756,754,753,763,756,754,749,752,753,753,753,753,1307,1314,1346,1489,2060,2560,2978,3166,3287,3310,3256,3186,3111,3045,2992,2895,2843,2754,2678,2623,2539,2460,2394,2324,2253,2174,2123,1972,1833,1543,1516,1460,1377,1384,1369,1335,1366,1363,1372,1371,1361,1365,1372,1377,1373,1379,1379,1373,1380,1372,1374,1373,1373,1377,1373,1373,1373,1376,1373,1372,1373,1374,1373,1377,1373,965,974,976,1002,1068,1404,1588,1775,1889,1933,1918,1887,1856,1826,1795,1764,1733,1703,1688,1678,1627,1580,1571,1519,1489,1477,1441,1429,1396,1309,1218,1086,1017,997,1007,992,981,984,975,968,972,974,975,984,971,985,981,989,996,992,982,992,987,1000,996,999,992,995,993,996,1001,993,993,993,993,1049,1052,1053,1071,1176,1565,1876,2101,2246,2317,2302,2261,2218,2176,2134,2091,2056,2014,1962,1919,1876,1833,1791,1757,1706,1663,1620,1577,1534,1482,1398,1151,1139,1089,1067,1062,1070,1077,1050,1057,1064,1065,1064,1069,1065,1071,1068,1058,1072,1064,1066,1065,1065,1069,1065,1065,1065,1068,1065,1064,1063,1062,1062,1062,1062,1287,1260,1257,1328,1446,1960,2247,2455,2563,2572,2559,2506,2462,2438,2391,2386,2286,2244,2264,2169,2162,2078,2068,2001,1936,1868,1874,1724,1530,1404,1385,1346,1332,1298,1268,1275,1275,1276,1250,1265,1261,1267,1264,1277,1266,1271,1267,1269,1275,1269,1272,1274,1275,1278,1272,1279,1273,1270,1272,1266,1267,1279,1268,1272,1268,927,935,933,959,1005,1334,1510,1697,1811,1856,1843,1813,1785,1755,1725,1696,1667,1637,1623,1615,1564,1520,1511,1461,1432,1402,1386,1344,1327,1232,1190,1124,979,958,968,954,936,939,930,922,927,928,928,938,925,939,935,943,962,943,936,945,941,959,957,953,946,949,947,951,956,949,949,949,949,1242,1206,1223,1309,1369,1935,2194,2423,2526,2524,2511,2479,2381,2391,2344,2350,2233,2192,2235,2131,2104,2011,2019,1931,1906,1862,1824,1757,1665,1524,1354,1333,1301,1273,1264,1250,1210,1213,1170,1184,1184,1186,1180,1190,1186,1191,1192,1185,1192,1184,1187,1186,1186,1190,1186,1186,1186,1189,1185,1186,1185,1187,1186,1190,1186,388,390,391,392,394,513,578,642,707,768,779,767,766,743,740,718,706,694,682,669,657,645,633,621,609,597,585,573,559,547,535,523,511,499,398,395,417,396,375,376,378,383,384,388,385,394,382,382,387,382,384,385,386,390,383,383,384,385,393,382,382,382,382,382,382,715,717,719,722,743,1026,1219,1428,1551,1557,1552,1559,1503,1467,1474,1479,1383,1355,1406,1332,1325,1244,1261,1188,1159,1131,1130,1075,1068,1025,996,788,785,754,732,728,731,740,710,712,716,715,709,716,725,731,714,711,732,719,726,725,725,729,718,716,720,721,718,709,718,712,712,712,712,993,1028,995,1029,1166,1456,1648,1796,1932,2021,1974,1985,1897,1896,1835,1804,1821,1794,1722,1694,1647,1628,1585,1596,1564,1491,1459,1443,1410,1233,1092,1074,1070,1054,1034,1038,1007,1030,1037,1030,1025,1036,1032,1046,1039,1049,1043,1052,1055,1051,1044,1052,1050,1069,1066,1048,1046,1041,1057,1061,1066,1058,1058,1058,1058,960,963,966,985,1047,1416,1577,1767,1863,1917,1908,1877,1846,1816,1786,1755,1724,1695,1664,1648,1602,1588,1542,1511,1572,1450,1420,1389,1389,1299,1157,1094,1068,991,977,975,977,980,980,980,983,988,984,990,996,1009,996,1000,993,996,994,995,1002,1001,1007,1027,1008,1008,1010,1004,1004,1003,1003,1003,1003,1348,1313,1335,1421,1554,2151,2422,2633,2733,2726,2721,2675,2574,2596,2530,2534,2412,2370,2406,2311,2265,2172,2179,2096,2060,2012,1931,1763,1735,1556,1466,1436,1424,1380,1371,1348,1307,1310,1267,1281,1281,1283,1277,1287,1283,1288,1289,1282,1289,1281,1284,1283,1283,1287,1283,1283,1283,1286,1282,1283,1282,1284,1283,1287,1283,288,288,289,290,291,363,422,472,519,567,589,580,570,562,552,537,529,519,510,500,491,482,473,464,454,445,436,426,418,420,399,390,380,371,357,328,329,330,284,268,268,269,274,278,271,278,272,273,278,272,276,275,274,279,276,275,274,276,274,282,274,273,273,273,273,1057,1060,1095,1082,1150,1583,1897,2119,2263,2339,2321,2278,2244,2192,2149,2106,2071,2019,1985,1942,1899,1848,1814,1762,1726,1683,1632,1598,1546,1400,1220,1185,1125,1122,1077,1071,1083,1081,1066,1064,1066,1070,1073,1071,1081,1089,1082,1079,1082,1079,1086,1086,1086,1092,1088,1087,1088,1092,1088,1088,1092,1091,1088,1092,1088,337,338,340,341,342,436,499,558,617,676,688,677,666,655,643,632,622,611,601,589,578,568,555,544,533,522,512,500,489,478,468,457,441,430,373,342,343,344,306,308,306,313,313,317,310,314,309,307,310,309,307,311,312,315,312,311,311,311,311,311,311,311,311,311,311,903,910,916,924,952,1196,1483,1668,1753,1785,1769,1776,1725,1700,1694,1641,1599,1572,1557,1523,1497,1485,1439,1419,1392,1364,1331,1306,1223,1120,1013,989,952,923,920,923,917,906,828,829,826,831,843,839,837,840,833,837,839,839,837,838,840,838,836,836,836,836,836,836,836,836,836,836,836,461,463,464,466,468,543,693,768,832,891,904,891,876,863,850,836,822,808,795,782,767,754,740,727,713,699,686,672,658,644,564,542,530,483,472,468,469,464,384,377,379,382,385,387,388,387,385,389,391,391,389,390,392,390,388,388,388,388,388,388,388,388,388,388,388,1181,1193,1196,1204,1261,1611,2013,2200,2314,2351,2349,2303,2270,2226,2187,2155,2118,2079,2033,1996,1966,1929,1890,1852,1815,1779,1738,1590,1535,1333,1317,1280,1244,1228,1215,1201,1202,1198,1119,1115,1121,1120,1136,1133,1132,1132,1126,1132,1134,1135,1133,1134,1136,1134,1132,1132,1132,1132,1132,1132,1132,1132,1132,1132,1132,545,547,550,559,568,657,816,912,1011,1085,1110,1093,1067,1013,1040,1019,1001,979,961,949,931,913,895,878,855,840,821,807,787,742,716,720,595,588,567,554,556,532,481,480,482,486,487,492,495,490,489,493,494,488,492,490,490,489,499,494,494,494,494,494,494,494,494,494,494,736,711,717,719,734,886,1122,1207,1331,1398,1398,1376,1365,1348,1352,1303,1307,1249,1228,1260,1192,1162,1171,1124,1086,1073,1055,1025,1005,892,859,805,793,764,747,721,737,743,645,636,634,637,656,653,655,651,651,656,664,660,664,663,667,666,657,659,659,659,659,659,659,659,659,659,659,1203,1215,1211,1229,1288,1657,2039,2245,2360,2391,2387,2353,2315,2264,2224,2190,2159,2124,2068,2040,2010,1963,1923,1886,1855,1815,1769,1728,1538,1431,1339,1312,1279,1253,1232,1196,1188,1200,1116,1120,1120,1126,1137,1127,1145,1132,1122,1123,1129,1124,1140,1131,1138,1132,1140,1138,1138,1138,1138,1138,1138,1138,1138,1138,1138,0,0,0,0,0,0,0,0,0,0,0,0,0,0,0,0,0,0,0,0,0,0,0,0,0,0,0,0,0,0,0,0,0,0,0,0,0,0,0,0,0,0,0,0,0,0,0,0,0,0,0,0,0,0,0,0,0,0,0,0,0,0,0,0,0,423,426,417,429,432,541,638,715,766,828,858,845,831,818,804,790,757,743,750,736,722,709,694,666,667,654,626,627,613,600,551,534,524,513,435,421,428,434,390,390,385,388,389,390,391,396,389,388,394,389,390,386,388,389,391,390,390,390,390,390,390,390,390,390,390,392,394,396,397,410,507,572,640,698,763,801,783,771,764,752,734,720,708,695,693,671,659,645,634,627,610,595,582,571,557,546,533,521,509,411,407,408,409,348,344,352,361,353,353,357,360,353,353,355,354,359,359,359,360,357,354,354,354,354,354,354,354,354,354,354,1256,1267,1268,1284,1623,1992,2350,2533,2623,2649,2626,2583,2527,2474,2436,2387,2341,2291,2245,2187,2158,2106,2060,2024,1970,1918,1874,1802,1626,1496,1399,1350,1305,1291,1286,1285,1281,1303,1274,1258,1262,1270,1288,1291,1286,1290,1289,1289,1290,1289,1289,1281,1289,1290,1288,1288,1288,1288,1288,1288,1288,1288,1288,1288,1288,1162,1156,1165,1214,1245,1676,1958,2121,2298,2305,2300,2292,2215,2159,2130,2120,2087,2052,2016,1977,1911,1827,1854,1849,1794,1750,1742,1598,1486,1345,1367,1284,1202,1206,1193,1189,1200,1197,1148,1146,1151,1155,1154,1154,1154,1159,1157,1159,1156,1155,1160,1162,1165,1164,1162,1156,1156,1156,1156,1156,1156,1156,1156,1156,1156,544,546,552,547,557,655,843,939,1013,1073,1080,1067,1042,1032,1016,998,977,966,945,927,910,899,883,863,841,827,808,811,778,762,710,685,631,577,556,552,554,556,478,471,475,477,482,479,480,477,473,477,479,479,477,478,480,478,476,476,476,476,476,476,476,476,476,476,476,815,816,823,821,834,892,1302,1443,1565,1608,1636,1583,1558,1533,1508,1476,1450,1446,1416,1379,1386,1347,1311,1294,1270,1255,1213,1176,1101,1070,1028,891,872,862,830,824,815,802,724,725,722,727,739,735,733,736,729,733,735,735,733,734,736,734,732,732,732,732,732,732,732,732,732,732,732,1090,1094,1098,1136,1306,1631,1962,2192,2282,2319,2306,2263,2222,2180,2150,2126,2083,2045,2002,1990,1910,1863,1827,1782,1774,1701,1656,1624,1582,1434,1227,1194,1166,1141,1130,1119,1117,1129,1044,1053,1047,1050,1066,1056,1060,1057,1062,1069,1070,1070,1072,1072,1074,1068,1069,1062,1062,1062,1062,1062,1062,1062,1062,1062,1062,673,682,685,688,702,860,1050,1172,1258,1353,1338,1317,1320,1297,1253,1232,1233,1190,1177,1155,1148,1115,1093,1087,1047,1038,1020,984,963,935,873,778,725,707,683,679,704,681,627,631,621,639,638,639,652,655,637,634,639,654,656,634,635,642,639,633,633,633,633,633,633,633,633,633,633,548,556,558,559,573,715,833,959,1065,1103,1143,1122,1094,1065,1058,1040,1021,992,999,981,935,920,895,893,867,857,861,823,812,754,738,710,613,587,601,556,564,561,480,478,483,487,486,486,486,491,489,491,488,487,492,494,497,496,494,488,488,488,488,488,488,488,488,488,488,816,815,809,816,841,1050,1210,1334,1443,1492,1511,1503,1457,1433,1439,1402,1392,1364,1354,1311,1289,1284,1269,1240,1218,1195,1161,1151,1136,1090,1028,878,860,833,826,816,818,815,734,732,737,748,742,744,746,747,739,743,745,745,743,744,746,744,742,742,742,742,742,742,742,742,742,742,742,1040,1067,1063,1078,1221,1475,1685,1905,2037,2062,2076,2099,1992,2012,1938,1897,1861,1829,1795,1763,1710,1657,1650,1660,1596,1557,1568,1514,1458,1173,1197,1147,1091,1095,1106,1056,1074,1076,1024,1031,1032,1032,1039,1039,1039,1044,1042,1044,1041,1040,1045,1047,1050,1049,1047,1041,1041,1041,1041,1041,1041,1041,1041,1041,1041,392,394,395,397,400,469,589,660,727,784,799,788,773,761,748,735,722,710,697,684,672,658,646,633,620,608,594,582,567,546,536,485,473,486,404,400,407,402,330,327,328,334,337,337,336,339,326,338,337,335,334,339,342,341,336,336,336,336,336,336,336,336,336,336,336,724,738,719,732,737,835,1165,1307,1404,1451,1458,1434,1410,1388,1363,1340,1316,1292,1269,1245,1222,1182,1174,1152,1127,1104,1080,1057,1033,1012,855,828,780,752,755,735,735,751,671,666,671,679,683,677,688,681,674,686,690,686,686,689,688,688,682,688,688,688,688,688,688,688,688,688,688,667,667,672,671,684,803,1018,1135,1249,1319,1324,1303,1298,1262,1241,1220,1199,1178,1157,1136,1115,1094,1074,1053,1032,1020,995,969,899,866,834,784,762,691,678,675,677,673,622,625,628,625,635,632,634,635,640,634,639,634,634,636,641,646,645,640,640,640,640,640,640,640,640,640,640,436,438,440,441,445,542,659,737,813,871,884,871,856,842,827,814,799,786,770,757,743,729,715,701,687,672,658,643,629,608,590,557,470,531,448,444,451,447,372,370,370,373,383,384,380,383,375,381,384,380,379,379,384,386,378,377,377,377,377,377,377,377,377,377,377,358,359,360,361,362,446,528,598,665,706,750,739,724,712,700,688,677,642,656,645,608,597,587,574,563,552,565,529,535,505,512,500,452,385,464,363,364,387,306,304,309,313,312,312,312,317,315,317,314,313,318,320,323,322,320,314,314,314,314,314,314,314,314,314,314,1049,1052,1071,1064,1110,1412,1759,1950,2021,2088,2057,2021,1991,1961,1928,1897,1866,1836,1807,1773,1742,1711,1679,1647,1627,1586,1546,1516,1404,1369,1160,1142,1107,1086,1076,1071,1061,1046,968,969,967,982,986,981,987,982,978,986,988,987,985,986,988,987,983,982,982,982,982,982,982,982,982,982,982,738,747,744,740,772,890,1144,1282,1394,1470,1475,1423,1401,1378,1366,1333,1318,1312,1266,1268,1228,1219,1182,1156,1131,1124,1086,1063,1041,1017,878,813,795,755,749,739,757,734,649,656,656,662,667,666,668,663,655,660,661,660,658,660,662,662,657,658,658,658,658,658,658,658,658,658,658,475,478,480,481,483,560,724,810,894,951,964,947,933,917,902,887,871,855,840,825,810,796,778,764,749,733,718,702,687,672,588,574,512,564,492,484,486,492,444,443,444,452,448,453,454,460,451,455,458,458,471,469,472,473,456,451,451,451,451,451,451,451,451,451,451,410,414,415,419,421,466,617,688,759,824,836,825,811,799,786,772,757,744,731,718,706,692,678,664,652,637,623,609,597,576,495,484,475,461,428,421,423,392,293,290,291,292,310,306,300,299,294,308,304,302,301,300,301,303,301,299,299,299,299,299,299,299,299,299,299,352,354,356,357,358,451,502,572,632,693,723,713,699,651,679,665,652,641,629,618,606,595,584,572,559,548,538,525,514,476,465,479,468,456,371,359,360,360,306,308,305,308,314,316,319,327,313,313,316,316,317,311,313,316,314,309,309,309,309,309,309,309,309,309,309,1034,1036,1039,1046,1156,1453,1820,2046,2144,2188,2171,2131,2092,2053,2023,1980,1935,1903,1854,1829,1787,1749,1713,1672,1629,1595,1556,1521,1470,1325,1288,1116,1098,1062,1053,1052,1057,1068,986,988,991,996,1007,996,1011,998,991,990,997,992,1010,1000,1013,999,1009,1009,1009,1009,1009,1009,1009,1009,1009,1009,1009,337,338,340,341,342,436,499,558,617,676,688,677,666,655,643,632,622,611,601,589,578,568,555,544,533,522,512,500,489,478,468,457,441,430,373,342,343,344,306,308,306,313,313,317,310,314,309,307,310,309,307,311,312,315,312,311,311,311,311,311,311,311,311,311,311,211,212,212,212,214,241,308,344,379,415,432,425,418,410,403,397,390,383,377,376,363,355,349,342,335,328,322,315,307,300,294,259,253,247,242,215,215,216,192,187,182,182,195,197,191,194,192,199,199,207,205,200,203,200,203,194,199,204,216,214,211,202,207,202,201,733,735,749,740,771,922,1153,1286,1428,1470,1468,1444,1452,1397,1373,1350,1326,1324,1279,1283,1231,1208,1194,1186,1128,1114,1120,1093,1043,937,917,907,771,764,740,743,746,765,724,718,716,750,728,734,729,736,739,744,741,737,745,746,737,765,755,736,765,762,746,738,757,773,760,737,729,554,565,558,569,596,705,854,935,1061,1109,1113,1123,1098,1089,1045,1036,1039,1005,1000,975,964,935,902,889,883,887,840,834,816,791,767,676,671,645,578,572,584,526,511,507,507,509,509,514,513,511,508,510,511,511,511,518,517,517,519,515,519,518,516,514,517,518,516,515,513,911,927,930,934,998,1277,1444,1640,1788,1824,1831,1787,1757,1743,1700,1685,1669,1612,1606,1579,1546,1509,1467,1438,1440,1380,1362,1322,1293,1274,1245,986,963,950,927,947,936,930,937,926,931,940,916,937,925,938,930,948,938,937,935,948,946,956,950,944,943,941,945,952,941,943,936,946,940,769,789,782,796,818,977,1244,1355,1513,1564,1541,1519,1514,1469,1435,1436,1414,1361,1347,1323,1350,1332,1231,1239,1200,1181,1142,1128,1121,1000,1002,942,896,794,791,797,791,786,777,777,788,788,786,792,793,792,798,796,799,791,795,799,798,803,803,800,802,796,794,800,802,806,796,807,798,941,921,932,945,1017,1314,1486,1682,1794,1843,1850,1820,1820,1757,1742,1681,1679,1629,1654,1575,1539,1503,1479,1443,1424,1413,1362,1349,1237,1175,1028,1056,1005,1002,939,968,943,937,901,894,898,905,900,908,901,907,904,903,907,905,901,903,904,900,902,905,904,904,903,904,906,906,903,906,903,933,943,939,970,1000,1301,1491,1659,1817,1870,1861,1832,1802,1774,1744,1716,1686,1648,1628,1614,1569,1541,1511,1470,1453,1423,1394,1365,1356,1306,1173,1053,998,964,950,947,963,953,950,948,957,968,957,937,967,969,962,969,985,975,977,984,989,984,966,951,974,972,986,974,960,959,973,967,949,452,453,468,469,477,558,673,751,841,909,911,897,884,885,855,855,826,825,797,797,782,767,741,739,716,701,694,668,654,650,625,555,546,519,472,475,478,436,403,400,398,406,403,408,404,407,404,403,407,406,399,403,402,407,407,404,404,402,401,404,404,406,401,406,401,0,0,0,0,0,0,0,0,0,0,0,0,0,0,0,0,0,0,0,0,0,0,0,0,0,0,0,0,0,0,0,0,0,0,0,0,0,0,0,0,0,0,0,0,0,0,0,0,0,0,0,0,0,0,0,0,0,0,0,0,0,0,0,0,0,606,617,610,633,628,830,948,1025,1168,1235,1213,1193,1180,1155,1136,1133,1116,1079,1059,1040,1068,1060,970,977,944,930,906,886,870,865,829,809,745,631,619,625,617,620,610,610,621,621,618,623,624,623,629,626,628,620,625,631,640,630,630,633,632,634,630,628,626,638,633,641,630,909,923,934,931,1071,1455,1687,1877,1971,2036,2018,1943,1907,1871,1833,1797,1761,1724,1687,1651,1614,1578,1542,1504,1468,1443,1395,1358,1322,1270,1126,1088,962,957,927,927,933,938,946,951,955,964,969,1022,968,1027,956,1040,969,958,964,966,970,1017,975,972,972,964,972,970,967,968,964,1040,967,1143,1145,1158,1273,1785,2226,2495,2660,2695,2717,2668,2666,2612,2619,2487,2423,2372,2315,2242,2201,2143,2080,2029,1972,1908,1856,1799,1734,1693,1572,1315,1238,1196,1177,1170,1180,1185,1203,1241,1240,1264,1258,1295,1255,1273,1285,1279,1266,1299,1284,1286,1297,1311,1309,1324,1245,1278,1283,1284,1278,1260,1301,1265,1281,1278,454,466,457,468,485,508,694,769,849,900,908,927,881,886,853,862,854,817,826,794,790,757,761,730,717,728,689,675,662,647,614,497,587,487,475,470,472,463,461,452,454,456,459,462,457,463,453,458,461,456,460,463,463,464,467,464,457,468,463,467,465,466,466,464,462,615,625,627,644,667,735,934,1029,1137,1197,1242,1203,1189,1166,1149,1101,1112,1065,1049,1078,1015,1020,998,997,963,928,907,920,865,848,842,849,727,719,636,632,640,614,615,609,609,613,611,618,617,614,617,622,624,615,622,622,625,630,623,623,626,623,616,620,622,627,619,618,611,1133,1135,1163,1182,1316,1686,1936,2097,2218,2289,2272,2236,2200,2171,2135,2074,2054,2018,1953,1971,1896,1884,1824,1800,1752,1740,1685,1662,1633,1489,1363,1222,1208,1161,1188,1155,1149,1151,1135,1132,1146,1154,1157,1127,1151,1164,1155,1149,1174,1163,1163,1174,1189,1183,1166,1135,1164,1162,1154,1181,1149,1165,1155,1157,1151,926,916,934,952,977,1270,1501,1652,1794,1829,1816,1790,1767,1729,1699,1693,1642,1625,1603,1573,1549,1511,1475,1455,1435,1387,1357,1345,1316,1044,1032,1010,993,970,949,944,945,926,889,886,885,902,905,902,906,901,895,899,900,901,897,904,904,908,926,926,909,904,902,893,901,900,928,905,896,812,821,837,844,864,1112,1303,1463,1570,1647,1639,1599,1585,1554,1525,1509,1458,1442,1431,1412,1364,1363,1328,1290,1273,1244,1215,1195,1170,1136,1066,934,873,853,845,836,835,810,777,770,774,777,778,784,781,793,782,790,785,782,778,782,781,795,793,785,785,779,777,783,785,789,779,790,781,824,842,854,842,891,1127,1312,1442,1596,1657,1655,1601,1598,1572,1533,1502,1493,1457,1448,1400,1379,1347,1338,1320,1276,1257,1229,1211,1167,1030,1075,949,961,870,839,841,839,835,841,843,846,855,843,863,857,861,853,862,858,853,849,853,856,861,872,860,865,862,862,859,851,855,860,863,841,1283,1291,1285,1349,1487,1995,2255,2436,2532,2595,2541,2464,2486,2457,2378,2351,2287,2262,2215,2189,2116,2127,2102,2024,1974,1937,1659,1645,1513,1504,1433,1381,1343,1324,1318,1290,1296,1314,1328,1314,1306,1329,1330,1337,1333,1336,1333,1332,1336,1334,1330,1332,1329,1336,1336,1335,1333,1332,1330,1333,1335,1335,1332,1335,1332,225,225,226,226,227,291,330,368,407,445,459,452,445,437,430,423,415,408,401,393,386,379,371,365,357,349,343,335,327,321,313,305,299,291,283,228,229,299,210,206,205,207,207,209,208,207,204,206,206,205,205,214,208,208,210,210,210,211,221,210,210,209,207,207,205,404,405,406,407,409,481,636,685,785,811,819,806,794,781,767,754,741,728,697,701,688,701,663,650,636,647,634,597,584,556,544,507,498,487,414,410,416,412,395,400,397,408,396,404,402,405,404,409,405,402,407,403,408,409,408,408,412,408,412,407,410,424,407,412,410,910,912,928,940,970,1290,1465,1635,1759,1811,1802,1774,1746,1724,1690,1660,1641,1613,1575,1546,1527,1501,1464,1444,1408,1379,1347,1306,1290,1132,1030,993,977,954,936,939,936,928,895,890,890,889,881,898,898,905,890,897,903,903,901,895,907,901,915,896,898,908,896,894,904,893,903,897,893,187,188,188,189,189,239,271,302,334,365,380,374,368,363,356,350,344,338,332,326,320,314,309,302,297,290,284,278,272,266,260,255,248,243,236,189,226,226,173,163,167,183,173,165,161,166,165,185,181,167,174,172,169,165,174,174,164,165,164,165,165,161,168,168,159,623,615,637,633,642,792,961,1062,1179,1254,1251,1219,1216,1190,1160,1152,1118,1109,1093,1072,1049,1043,1016,990,967,946,924,915,895,877,855,760,685,660,645,642,649,636,603,596,600,603,604,610,607,628,608,625,611,608,604,608,607,638,633,611,611,605,603,609,611,615,605,616,607,799,801,804,810,832,1071,1233,1375,1538,1596,1591,1566,1541,1515,1490,1466,1441,1415,1390,1390,1339,1314,1289,1263,1239,1214,1189,1163,1138,1113,934,913,891,829,814,811,813,815,801,787,799,808,806,806,800,814,808,820,805,808,805,808,812,826,819,813,802,809,808,803,800,812,805,815,797,833,845,838,845,894,1104,1349,1494,1650,1675,1680,1661,1644,1617,1572,1530,1533,1497,1464,1450,1415,1387,1347,1335,1305,1298,1237,1217,1191,1164,1073,892,891,873,859,859,863,814,795,791,793,799,801,803,812,797,794,796,797,797,797,804,803,803,805,801,805,804,802,800,803,804,802,801,799,144,145,145,179,179,184,207,281,256,279,294,290,344,280,276,271,267,261,257,253,248,244,238,234,229,225,221,215,211,206,202,198,192,188,183,180,180,181,138,138,139,139,138,139,141,143,141,140,141,140,139,138,139,141,141,139,140,139,139,138,139,140,139,140,141,333,343,334,345,362,393,507,575,634,686,696,685,674,663,652,641,630,619,607,605,585,574,547,552,541,530,519,508,497,485,474,416,406,395,351,351,349,353,308,305,304,306,306,308,308,306,304,305,305,304,304,314,307,308,310,313,310,310,316,310,313,310,307,305,302,630,639,633,656,653,845,984,1097,1209,1268,1251,1233,1236,1193,1173,1170,1163,1115,1095,1075,1091,1077,1016,1010,977,958,938,918,900,892,860,812,757,655,642,648,640,647,626,617,619,633,625,639,640,631,629,629,632,632,622,625,629,634,628,631,626,623,625,626,629,631,625,624,619,935,937,940,959,990,1291,1484,1664,1813,1873,1855,1827,1797,1767,1738,1717,1678,1648,1619,1614,1559,1539,1501,1505,1442,1412,1382,1353,1332,1286,1162,1073,986,965,951,948,930,933,925,917,923,934,938,921,931,935,934,936,943,936,966,963,963,979,962,952,932,949,936,934,937,925,938,951,923,211,212,212,212,214,241,308,344,379,415,432,425,418,410,403,397,390,383,377,376,363,355,349,342,335,328,322,315,307,300,294,259,253,247,242,215,215,216,192,187,182,182,195,197,191,194,192,199,199,207,205,200,203,200,203,194,199,204,216,214,211,202,207,202,201,626,628,632,634,651,830,1001,1117,1211,1261,1270,1245,1223,1203,1178,1164,1144,1122,1125,1089,1061,1041,1020,1001,981,957,942,916,901,880,871,772,705,664,641,635,639,632,625,620,625,634,634,635,622,638,626,638,636,641,631,638,636,644,647,648,637,642,636,643,638,643,645,643,623,1290,1304,1316,1369,1575,1866,2291,2420,2541,2571,2551,2490,2425,2415,2386,2337,2288,2223,2190,2146,2151,2090,2050,2027,1983,1938,1879,1813,1599,1515,1453,1419,1361,1363,1309,1319,1284,1272,1221,1232,1241,1245,1247,1248,1241,1250,1240,1274,1250,1271,1246,1252,1276,1275,1254,1257,1261,1261,1260,1256,1257,1254,1245,1247,1244,846,864,871,873,900,1097,1397,1526,1654,1702,1698,1643,1609,1613,1592,1555,1527,1477,1450,1459,1432,1377,1371,1349,1326,1300,1267,1240,1214,1104,1067,996,908,921,864,877,874,825,774,783,783,793,798,798,793,802,792,826,802,823,798,804,828,827,806,809,813,813,812,808,809,806,797,799,796,1565,1594,1623,1706,2086,2419,2879,2994,3110,3121,3093,3018,2947,2961,2880,2863,2802,2746,2698,2607,2571,2545,2493,2237,2097,1899,1900,1818,1818,1746,1741,1680,1649,1646,1611,1593,1576,1561,1515,1526,1521,1541,1541,1544,1536,1543,1536,1567,1546,1567,1542,1548,1572,1571,1550,1553,1555,1554,1556,1547,1551,1547,1538,1540,1537,181,182,182,224,224,232,260,288,316,345,361,356,350,345,339,334,328,323,317,312,306,301,295,290,284,279,273,268,262,257,251,246,240,235,229,225,226,226,166,167,167,167,168,168,169,169,169,170,170,171,171,171,172,172,173,173,174,174,174,175,175,176,176,176,177,861,864,864,876,981,1329,1437,1588,1750,1779,1718,1725,1655,1615,1595,1580,1546,1520,1478,1470,1432,1410,1383,1361,1318,1306,1269,1251,1189,1196,1151,1016,912,891,876,877,874,882,890,876,878,882,913,909,930,925,902,953,908,894,910,887,889,902,906,896,914,890,886,907,904,946,912,943,912,1516,1538,1543,1681,2069,2461,2838,3005,3082,3135,3097,3009,2992,2884,2869,2812,2780,2745,2626,2600,2496,2511,2433,2368,2147,1852,2014,1764,1770,1696,1672,1627,1600,1592,1497,1484,1510,1490,1490,1495,1493,1506,1501,1524,1524,1508,1510,1524,1512,1516,1519,1528,1534,1535,1524,1527,1534,1541,1541,1525,1513,1524,1520,1523,1519,448,449,451,452,466,579,687,762,838,898,906,892,877,862,848,834,820,805,790,777,762,747,733,718,703,690,675,660,647,632,620,609,595,479,468,470,466,444,397,403,401,409,409,411,405,417,403,435,411,435,408,412,438,439,416,417,419,421,420,418,418,419,411,413,410,826,825,829,842,862,1129,1371,1504,1596,1643,1648,1619,1592,1560,1530,1514,1487,1479,1453,1420,1425,1349,1326,1302,1260,1244,1223,1228,1184,1118,1080,901,876,851,869,838,840,834,787,788,789,798,799,802,801,806,791,829,800,824,794,800,827,830,808,804,805,806,807,807,808,808,806,807,804,0,0,0,0,0,0,0,0,0,0,0,0,0,0,0,0,0,0,0,0,0,0,0,0,0,0,0,0,0,0,0,0,0,0,0,0,0,0,0,0,0,0,0,0,0,0,0,0,0,0,0,0,0,0,0,0,0,0,0,0,0,0,0,0,0,1456,1460,1515,1549,1972,2494,2826,2924,2995,3008,2987,2923,2890,2828,2777,2708,2649,2604,2545,2513,2440,2388,2343,2289,2222,2139,2001,1956,1741,1629,1572,1562,1527,1508,1484,1481,1488,1509,1514,1521,1529,1512,1542,1520,1549,1540,1556,1552,1540,1555,1543,1560,1551,1559,1563,1559,1559,1566,1556,1557,1574,1578,1613,1568,1548,828,830,832,841,936,1211,1299,1472,1604,1650,1618,1619,1637,1581,1520,1432,1464,1485,1423,1399,1360,1345,1331,1304,1310,1283,1227,1239,1201,1055,987,976,954,855,818,840,818,868,846,848,844,856,864,872,861,862,869,875,864,864,864,868,868,848,863,871,869,873,855,858,874,879,866,866,856,929,947,954,958,998,1236,1555,1700,1835,1876,1873,1809,1775,1777,1752,1718,1681,1621,1598,1604,1574,1515,1505,1480,1454,1428,1389,1356,1325,1250,1168,1029,992,1003,945,950,965,922,868,878,878,891,888,891,882,890,880,914,890,911,886,892,916,915,894,897,901,901,900,896,897,894,885,887,884,1221,1234,1231,1258,1378,1691,2131,2273,2376,2416,2401,2333,2300,2268,2234,2198,2165,2108,2062,2055,2014,1948,1941,1895,1866,1825,1730,1666,1552,1470,1401,1316,1271,1280,1226,1217,1180,1173,1117,1128,1137,1141,1143,1147,1137,1146,1136,1170,1146,1167,1142,1148,1172,1171,1150,1153,1157,1157,1156,1152,1153,1150,1141,1143,1140,1368,1413,1410,1507,1882,2256,2577,2754,2819,2892,2858,2787,2770,2660,2651,2590,2566,2532,2420,2399,2300,2340,2291,2246,2159,2110,2085,1860,1634,1583,1578,1483,1480,1471,1413,1419,1439,1418,1415,1408,1409,1440,1424,1438,1441,1438,1442,1465,1442,1446,1452,1457,1470,1454,1468,1459,1478,1458,1459,1459,1465,1471,1447,1450,1446,594,596,598,600,710,807,937,1019,1228,1252,1192,1172,1153,1135,1116,1097,1078,1059,1040,998,981,962,964,925,906,908,870,851,851,814,814,795,775,756,607,603,605,683,607,601,603,603,603,597,603,603,606,601,602,602,608,609,610,610,607,604,608,608,610,680,610,688,607,604,612,242,243,243,243,244,313,355,396,437,478,492,485,477,469,462,453,445,437,430,422,414,407,399,391,382,375,367,359,352,344,336,328,321,312,304,245,301,301,236,229,231,235,301,225,227,229,230,243,244,241,237,342,238,230,345,238,233,237,238,236,235,232,243,239,243,1144,1146,1144,1162,1313,1560,1837,2012,2112,2166,2143,2088,2066,2048,2058,2029,1984,1951,1924,1867,1853,1839,1813,1743,1736,1688,1687,1645,1540,1403,1345,1257,1215,1186,1149,1156,1164,1164,1133,1140,1140,1157,1153,1164,1152,1156,1146,1180,1156,1177,1152,1158,1182,1179,1160,1163,1167,1167,1166,1162,1163,1160,1151,1153,1150,748,764,768,779,787,1016,1183,1380,1462,1488,1523,1488,1470,1438,1422,1398,1367,1369,1317,1301,1269,1252,1219,1205,1192,1156,1131,1076,1093,1059,1039,827,807,787,804,777,771,776,752,751,758,765,780,797,805,766,771,779,786,792,766,762,774,782,772,770,778,768,767,770,773,783,776,771,761,808,829,823,837,864,1005,1320,1473,1589,1659,1633,1592,1570,1574,1527,1499,1477,1432,1423,1397,1387,1339,1333,1296,1260,1256,1216,1189,1173,1116,1093,908,876,870,833,824,833,774,724,731,735,746,746,747,744,743,741,772,746,768,747,754,779,775,754,756,761,765,758,754,758,751,744,746,743,1158,1152,1164,1179,1247,1548,1980,2147,2246,2274,2265,2199,2180,2130,2114,2077,2041,1993,1973,1921,1915,1858,1816,1785,1739,1706,1690,1605,1523,1281,1284,1235,1204,1175,1170,1161,1165,1115,1063,1074,1080,1092,1086,1099,1086,1091,1089,1125,1097,1120,1097,1100,1126,1121,1106,1102,1104,1106,1103,1102,1105,1102,1091,1093,1090,455,447,448,450,453,614,676,753,895,967,891,877,862,849,835,838,807,793,779,766,751,737,724,709,695,696,668,653,640,626,688,610,596,467,456,452,453,448,451,437,442,443,441,450,448,473,453,448,463,446,449,450,446,452,450,450,452,452,449,445,450,453,451,558,453,852,874,867,880,901,1071,1399,1561,1674,1742,1714,1673,1649,1652,1603,1575,1550,1505,1494,1468,1456,1407,1400,1362,1325,1319,1279,1250,1177,1123,1120,973,920,918,877,868,878,816,767,773,774,792,793,791,788,792,784,819,791,813,787,796,824,817,795,800,803,803,801,797,804,795,788,790,787,475,475,477,471,478,569,675,741,809,876,895,882,870,856,851,831,825,813,793,781,774,755,742,730,723,711,697,685,666,657,645,591,578,497,486,476,477,478,477,460,452,457,486,476,484,488,467,487,492,489,494,484,487,493,498,471,486,485,497,500,486,500,487,492,487,1435,1444,1455,1544,1770,2160,2534,2679,2783,2811,2777,2708,2665,2663,2606,2584,2517,2477,2432,2358,2335,2305,2278,2222,2175,2131,1973,1819,1635,1630,1598,1555,1514,1492,1453,1452,1424,1417,1362,1385,1380,1387,1394,1398,1386,1399,1389,1423,1398,1419,1394,1400,1423,1421,1403,1405,1406,1407,1406,1402,1404,1404,1395,1397,1394,1014,1062,1030,1085,1167,1460,1719,1905,2018,2114,2091,2029,1995,1947,1910,1869,1886,1857,1776,1751,1708,1707,1649,1648,1626,1526,1559,1444,1384,1278,1280,1106,1114,1095,1051,1079,1044,1025,1028,1031,1035,1034,1046,1055,1036,1050,1040,1043,1048,1046,1053,1057,1065,1067,1076,1062,1059,1058,1066,1068,1069,1078,1059,1066,1064,910,890,889,905,929,1198,1486,1636,1726,1771,1788,1745,1749,1672,1639,1657,1593,1586,1554,1510,1527,1451,1420,1395,1356,1332,1309,1315,1225,1001,1003,968,942,912,930,899,901,888,840,847,853,857,862,865,865,868,858,893,869,905,877,884,911,895,869,878,886,884,879,878,881,876,868,870,867,831,835,843,857,886,1037,1360,1488,1626,1686,1667,1632,1606,1600,1561,1534,1510,1466,1457,1431,1401,1374,1357,1322,1276,1273,1242,1165,1104,1086,1056,923,926,894,835,846,795,737,687,694,693,719,715,711,704,711,711,739,713,735,708,713,741,740,717,725,722,725,726,721,729,718,711,713,710,274,275,276,277,278,358,405,453,501,547,561,552,543,534,525,515,507,498,489,480,471,462,453,444,435,426,418,409,399,390,381,372,364,355,282,279,279,279,271,271,273,271,277,275,277,281,277,278,279,279,278,278,277,317,280,279,279,274,274,278,279,282,276,287,279,1311,1339,1336,1408,1717,2114,2436,2616,2715,2760,2728,2657,2636,2535,2526,2469,2444,2415,2303,2284,2186,2218,2143,2139,2052,1981,1995,1842,1626,1484,1488,1423,1400,1389,1353,1353,1378,1360,1358,1366,1363,1376,1370,1390,1390,1377,1377,1392,1380,1384,1388,1398,1401,1403,1393,1398,1401,1411,1411,1398,1387,1398,1394,1397,1393,626,628,632,634,651,830,1001,1117,1211,1261,1270,1245,1223,1203,1178,1164,1144,1122,1125,1089,1061,1041,1020,1001,981,957,942,916,901,880,871,772,705,664,641,635,639,632,625,620,625,634,634,635,622,638,626,638,636,641,631,638,636,644,647,648,637,642,636,643,638,643,645,643,623,928,948,930,951,1034,1444,1719,1823,1941,2055,1978,1941,1905,1947,1870,1797,1764,1724,1727,1651,1615,1578,1545,1569,1470,1433,1460,1389,1324,1363,1276,1146,985,940,920,918,918,927,944,941,949,950,956,945,1088,972,956,979,973,960,959,976,977,970,1117,981,968,965,970,968,964,972,972,969,967,645,648,655,651,702,850,1013,1125,1222,1268,1270,1250,1230,1212,1240,1220,1152,1133,1143,1094,1074,1054,1035,1015,996,976,960,937,917,897,821,740,724,708,658,655,657,657,645,652,657,666,663,658,656,666,657,657,657,659,650,662,655,665,665,666,664,662,656,666,661,704,652,664,658,1011,1021,1019,1027,1180,1460,1681,1837,1929,1960,1949,1917,1903,1870,1889,1847,1789,1742,1747,1676,1654,1614,1584,1615,1523,1496,1519,1486,1400,1218,1172,1069,1046,1026,1015,1047,1015,1042,1032,1034,1044,1045,1037,1053,1040,1041,1044,1052,1063,1054,1049,1055,1057,1056,1051,1060,1045,1058,1054,1059,1047,1058,1050,1055,1048,251,252,252,253,254,326,370,414,457,500,514,507,498,490,481,474,465,457,448,441,432,424,415,408,399,391,382,375,366,358,349,342,333,325,316,312,312,313,252,245,244,248,249,244,246,251,244,253,244,243,246,246,253,245,253,249,252,250,250,249,249,250,248,250,251,1469,1475,1494,1601,1907,2487,2743,2929,2963,3102,2964,2912,2907,2869,2765,2715,2666,2611,2577,2566,2460,2394,2356,2284,2137,1955,1952,1669,1677,1666,1607,1543,1520,1493,1463,1451,1470,1486,1503,1513,1519,1506,1511,1527,1573,1553,1519,1543,1579,1557,1560,1579,1554,1576,1599,1544,1542,1541,1535,1554,1542,1553,1535,1591,1574,1216,1220,1257,1296,1475,1997,2324,2506,2621,2631,2610,2570,2514,2483,2469,2368,2319,2278,2253,2175,2172,2144,2047,1982,1933,1916,1904,1788,1740,1566,1364,1311,1269,1241,1231,1270,1241,1248,1305,1282,1290,1297,1313,1325,1308,1315,1318,1330,1341,1330,1336,1334,1319,1329,1334,1331,1334,1337,1339,1335,1340,1323,1333,1335,1324,379,380,382,374,375,431,558,640,705,762,772,760,747,717,723,711,698,685,673,662,632,636,624,612,599,586,573,563,549,539,467,455,445,435,390,376,387,388,361,362,360,366,365,363,363,364,365,364,364,363,362,366,366,365,366,369,368,368,365,368,369,370,366,368,367,1229,1230,1222,1282,1527,1998,2277,2450,2517,2658,2568,2488,2480,2438,2354,2308,2267,2247,2205,2163,2084,2039,1997,1981,1904,1894,1849,1793,1668,1594,1360,1300,1267,1243,1245,1246,1230,1255,1262,1260,1270,1266,1273,1287,1326,1299,1274,1297,1321,1299,1298,1295,1295,1319,1348,1299,1289,1293,1289,1295,1294,1302,1289,1340,1321,996,999,1000,1029,1208,1549,1786,1975,2189,2224,2145,2201,2046,2069,1989,1997,1960,1873,1838,1776,1756,1718,1681,1672,1601,1562,1643,1485,1482,1471,1293,1087,1055,1032,1012,1010,1016,1024,1059,1053,1080,1074,1087,1100,1090,1092,1087,1103,1112,1092,1097,1107,1114,1187,1125,1094,1085,1106,1089,1084,1083,1101,1085,1116,1087,1303,1303,1302,1372,1611,2142,2418,2607,2653,2790,2664,2618,2607,2563,2476,2429,2385,2335,2306,2299,2200,2148,2104,2037,2007,1995,1938,1734,1734,1640,1434,1371,1349,1320,1297,1286,1303,1319,1336,1345,1351,1337,1342,1358,1405,1383,1358,1379,1412,1391,1407,1406,1381,1409,1448,1383,1367,1366,1359,1378,1372,1379,1363,1414,1407,0,0,0,0,0,0,0,0,0,0,0,0,0,0,0,0,0,0,0,0,0,0,0,0,0,0,0,0,0,0,0,0,0,0,0,0,0,0,0,0,0,0,0,0,0,0,0,0,0,0,0,0,0,0,0,0,0,0,0,0,0,0,0,0,0,1034,1041,1043,1124,1652,2097,2506,2655,2756,2773,2722,2668,2597,2543,2480,2410,2347,2317,2229,2167,2096,2041,1978,1916,1853,1790,1743,1665,1618,1540,1477,1328,1107,1093,1058,1071,1086,1101,1118,1107,1115,1123,1132,1116,1117,1132,1130,1143,1153,1138,1140,1289,1143,1138,1430,1148,1145,1149,1151,1144,1149,1149,1286,1286,1286,1009,994,1026,1018,1121,1439,1638,1822,1910,1973,1934,1964,1873,1839,1863,1831,1750,1720,1749,1706,1627,1596,1566,1598,1533,1480,1492,1459,1389,1108,1080,1064,1055,1019,1043,1030,976,1003,994,994,1003,1005,998,1009,998,1001,1001,1007,1020,1014,1008,1013,1014,1014,1009,1018,1006,1018,1015,1018,1005,1018,1012,1017,1010,927,936,931,970,1039,1319,1513,1680,1765,1808,1801,1760,1745,1725,1745,1733,1633,1604,1622,1548,1520,1547,1464,1433,1428,1379,1384,1327,1203,1182,1004,1027,988,962,963,954,932,939,936,934,933,940,942,947,945,949,943,954,949,949,946,955,961,935,956,959,954,960,939,945,954,947,944,953,946,561,563,565,576,577,599,873,969,1059,1147,1171,1102,1084,1102,1084,1065,1014,996,1039,961,944,927,909,892,874,856,867,842,804,774,739,721,671,626,573,606,571,572,570,573,571,575,581,576,574,579,576,584,582,579,577,582,581,581,586,587,586,585,581,588,589,588,583,581,580,1425,1414,1401,1440,1968,2397,2665,2817,2961,2938,2900,2875,2795,2766,2762,2645,2603,2544,2508,2436,2372,2400,2267,2214,2178,2158,2054,1932,1832,1679,1509,1480,1442,1426,1406,1402,1416,1424,1458,1444,1444,1445,1465,1479,1464,1482,1475,1487,1486,1494,1486,1495,1485,1494,1487,1484,1489,1495,1490,1479,1492,1475,1486,1488,1477,1535,1537,1566,1725,2026,2618,2880,3054,3094,3219,3089,3036,3018,2966,2872,2820,2769,2712,2676,2662,2556,2498,2446,2321,2082,2034,2028,1744,1742,1741,1677,1604,1583,1567,1533,1521,1532,1537,1565,1556,1562,1553,1571,1588,1569,1569,1573,1586,1608,1604,1604,1604,1592,1610,1603,1599,1599,1601,1591,1604,1611,1593,1604,1606,1595,893,916,921,930,992,1286,1469,1618,1782,1818,1809,1781,1679,1724,1694,1650,1642,1614,1585,1493,1467,1503,1473,1447,1409,1334,1350,1304,1301,1242,1073,1009,984,943,931,919,885,888,915,911,908,920,920,921,910,915,921,923,927,922,922,920,913,925,921,922,914,926,924,920,925,913,925,927,916,1149,1156,1189,1293,1861,2332,2740,2877,2978,2985,2937,2879,2804,2746,2677,2610,2542,2509,2417,2351,2280,2216,2150,2084,2022,1959,1909,1826,1741,1381,1374,1273,1223,1240,1175,1190,1197,1212,1229,1223,1229,1239,1246,1229,1234,1246,1243,1256,1265,1250,1254,1343,1254,1253,1542,1260,1259,1262,1267,1257,1261,1262,1399,1399,1399,1072,1075,1075,1106,1209,1592,1808,1985,2093,2121,2131,2075,2041,2030,2029,1993,1950,1888,1910,1806,1772,1738,1705,1670,1637,1621,1587,1536,1401,1397,1201,1146,1119,1133,1085,1116,1085,1088,1096,1113,1098,1098,1118,1102,1114,1120,1118,1117,1159,1118,1117,1126,1126,1130,1125,1142,1134,1132,1136,1114,1128,1140,1136,1126,1122,897,899,900,914,1191,1370,1784,1806,1925,1974,1962,1926,1889,1853,1817,1966,1892,1709,1670,1637,1601,1565,1529,1492,1558,1421,1384,1348,1456,1277,1240,1167,955,929,911,909,915,920,928,926,930,945,938,937,941,953,939,1114,945,945,941,945,954,938,952,949,945,948,949,941,952,954,947,954,952,1429,1438,1404,1509,1992,2403,2669,2853,2967,2951,2927,2880,2840,2770,2766,2676,2620,2567,2501,2459,2403,2404,2289,2236,2156,2178,1972,1774,1611,1584,1524,1496,1462,1429,1409,1412,1420,1428,1465,1448,1449,1455,1465,1483,1469,1468,1475,1488,1496,1492,1496,1494,1487,1495,1496,1487,1482,1498,1491,1490,1502,1477,1487,1489,1478,1035,1036,1035,1060,1154,1523,1728,1902,2016,2047,2058,2003,1970,1938,1960,1926,1879,1823,1825,1743,1710,1678,1645,1613,1580,1548,1532,1483,1433,1412,1240,1107,1081,1086,1046,1067,1040,1043,1051,1062,1053,1052,1071,1056,1068,1074,1072,1071,1085,1069,1071,1079,1080,1084,1079,1092,1088,1086,1090,1068,1083,1092,1091,1081,1077,1372,1378,1389,1467,1795,2337,2633,2792,2914,2892,2868,2845,2782,2737,2674,2621,2552,2514,2478,2385,2325,2333,2240,2187,2149,2154,1970,1906,1763,1648,1509,1474,1442,1404,1380,1363,1359,1363,1391,1382,1388,1379,1406,1416,1395,1395,1399,1412,1434,1430,1430,1430,1418,1436,1429,1425,1425,1435,1434,1430,1438,1419,1430,1432,1421,489,491,493,494,500,651,752,848,924,973,998,982,950,935,965,949,888,873,900,842,841,811,796,781,765,750,734,719,704,688,644,638,624,513,501,497,507,499,486,485,497,504,501,497,493,501,492,506,499,500,504,503,513,514,515,508,500,504,505,504,497,508,501,508,503,855,857,860,873,1021,1349,1605,1793,1921,1952,1939,1912,1871,1832,1801,1756,1752,1697,1643,1606,1567,1587,1492,1454,1445,1451,1399,1303,1271,1300,1138,1118,927,883,873,892,880,901,903,899,894,903,918,928,919,924,921,928,948,937,933,924,928,949,938,927,928,939,930,941,958,940,938,957,946,1004,1033,1008,1024,1096,1541,1800,2013,2137,2182,2151,2130,2079,2049,2009,1971,1931,1927,1844,1813,1774,1735,1696,1656,1618,1578,1532,1500,1499,1421,1350,1098,1067,1037,1015,1017,1018,1057,1089,1097,1084,1107,1135,1128,1109,1107,1125,1161,1119,1152,1157,1148,1098,1106,1130,1140,1140,1112,1171,1178,1176,1144,1158,1132,1134,1062,1078,1070,1130,1219,1582,1797,1970,2082,2136,2123,2088,2054,1998,2036,1984,1919,1879,1881,1797,1764,1730,1697,1681,1647,1596,1563,1546,1394,1297,1261,1200,1114,1105,1080,1090,1080,1129,1101,1113,1115,1106,1105,1114,1117,1120,1119,1120,1133,1117,1127,1131,1134,1129,1135,1139,1122,1120,1128,1127,1120,1132,1123,1143,1139,1323,1326,1327,1400,1647,2183,2458,2645,2691,2827,2701,2654,2643,2599,2512,2465,2421,2370,2340,2347,2228,2181,2136,2117,2038,2027,1977,1827,1831,1663,1458,1396,1372,1340,1321,1348,1327,1354,1366,1365,1376,1371,1376,1386,1423,1400,1376,1404,1432,1413,1416,1404,1403,1429,1442,1402,1405,1405,1393,1400,1399,1406,1395,1441,1427,443,445,446,448,451,591,678,757,837,888,896,882,867,853,885,870,810,796,825,768,754,740,726,711,697,683,668,654,640,625,611,597,583,483,454,450,451,432,430,425,423,438,434,435,424,429,435,437,441,436,436,434,427,439,435,436,428,440,438,434,439,427,439,441,430,928,948,930,951,1034,1444,1719,1823,1941,2055,1978,1941,1905,1947,1870,1797,1764,1724,1727,1651,1615,1578,1545,1569,1470,1433,1460,1389,1324,1363,1276,1146,985,940,920,918,918,927,944,941,949,950,956,945,1088,972,956,979,973,960,959,976,977,970,1117,981,968,965,970,968,964,972,972,969,967,1136,1149,1146,1179,1267,1719,1915,2128,2212,2217,2263,2189,2158,2121,2098,2063,2032,1998,1968,1905,1890,1835,1826,1782,1765,1692,1681,1640,1490,1299,1260,1228,1200,1180,1168,1168,1155,1162,1164,1161,1161,1166,1170,1181,1173,1178,1175,1181,1173,1168,1163,1167,1171,1161,1172,1172,1175,1173,1164,1170,1179,1181,1180,1178,1171,1778,1792,1845,2081,2396,2952,3214,3346,3378,3398,3371,3298,3279,3232,3165,3119,3085,3030,2956,2905,2873,2630,2270,2260,2185,2166,2116,2075,2020,1957,1917,1879,1838,1825,1807,1751,1749,1734,1723,1723,1722,1722,1728,1730,1733,1731,1732,1757,1764,1748,1738,1732,1726,1736,1731,1727,1730,1734,1728,1729,1730,1732,1728,1733,1727,1332,1349,1349,1410,1579,2045,2346,2475,2540,2584,2570,2514,2493,2466,2419,2408,2369,2314,2268,2221,2207,2142,2107,2053,2029,1974,1934,1764,1550,1501,1483,1440,1413,1400,1392,1349,1318,1316,1305,1307,1314,1314,1322,1321,1321,1323,1324,1326,1332,1321,1325,1323,1319,1326,1323,1322,1326,1328,1323,1325,1321,1324,1320,1325,1319,1420,1427,1480,1683,2288,2681,3268,3484,3598,3505,3487,3355,3340,3316,3256,3180,3103,3039,2890,2874,2778,2732,2625,2564,2473,2314,2252,2074,1729,1669,1674,1592,1549,1471,1468,1464,1522,1550,1611,1584,1592,1592,1610,1622,1611,1618,1610,1629,1648,1631,1638,1648,1652,1657,1649,1660,1634,1663,1630,1629,1636,1668,1643,1662,1632,738,740,750,756,764,993,1144,1230,1347,1412,1445,1408,1397,1418,1350,1371,1341,1325,1261,1225,1254,1194,1170,1171,1160,1125,1111,1044,1056,1018,864,837,824,771,765,750,764,715,707,704,699,706,715,726,714,725,725,729,715,713,708,712,712,702,712,715,717,718,705,712,717,720,712,713,706,1001,1004,1008,1035,1239,1542,1813,1986,2065,2145,2092,2055,2028,1983,1955,1910,1873,1831,1910,1758,1728,1754,1655,1618,1581,1545,1583,1472,1436,1399,1307,1192,1055,1031,1019,1018,1023,1027,1044,1082,1048,1049,1076,1051,1064,1069,1068,1069,1078,1066,1076,1069,1072,1075,1121,1082,1133,1133,1123,1065,1119,1140,1136,1136,1078,1374,1378,1422,1555,2120,2642,3074,3328,3449,3460,3405,3308,3235,3166,3108,3034,2961,2919,2792,2739,2645,2590,2498,2424,2350,2277,2220,2055,1894,1621,1628,1503,1469,1423,1448,1415,1432,1473,1525,1518,1527,1551,1541,1547,1545,1538,1542,1588,1549,1532,1558,1586,1570,1561,1591,1550,1529,1559,1534,1533,1536,1647,1543,1610,1532,954,962,961,969,1029,1388,1544,1749,1838,1864,1875,1851,1815,1792,1756,1740,1709,1683,1658,1609,1596,1556,1547,1505,1487,1428,1410,1383,1353,1205,1174,1042,1027,997,981,968,937,939,925,925,926,927,931,935,936,934,934,936,943,931,935,933,931,936,933,932,936,938,933,935,933,938,934,939,933,1357,1355,1371,1430,1532,2119,2363,2522,2578,2624,2616,2556,2506,2457,2427,2394,2363,2337,2289,2246,2215,2169,2132,2112,2035,2013,1957,1832,1555,1530,1507,1428,1395,1411,1375,1375,1327,1325,1314,1313,1315,1317,1322,1331,1325,1322,1328,1325,1333,1317,1323,1322,1322,1328,1320,1319,1322,1325,1322,1325,1323,1333,1328,1333,1327,938,968,943,982,1002,1219,1564,1688,1782,1802,1864,1765,1777,1813,1743,1724,1713,1663,1629,1590,1593,1553,1493,1519,1469,1438,1398,1348,1286,1285,1082,1018,998,971,955,980,973,929,921,919,950,950,947,963,955,962,962,956,967,936,930,947,944,921,955,936,939,940,927,934,939,942,934,935,928,1276,1279,1302,1413,1932,2382,2826,3089,3218,3238,3221,3131,3026,2963,2917,2854,2805,2732,2612,2564,2480,2425,2367,2293,2198,2129,2092,2019,1922,1736,1474,1404,1369,1323,1317,1312,1328,1358,1395,1398,1360,1354,1401,1383,1395,1399,1395,1404,1440,1402,1410,1423,1419,1428,1401,1425,1447,1458,1458,1465,1419,1429,1461,1411,1415,0,0,0,0,0,0,0,0,0,0,0,0,0,0,0,0,0,0,0,0,0,0,0,0,0,0,0,0,0,0,0,0,0,0,0,0,0,0,0,0,0,0,0,0,0,0,0,0,0,0,0,0,0,0,0,0,0,0,0,0,0,0,0,0,0,1416,1433,1434,1518,1729,2227,2522,2650,2711,2752,2735,2674,2651,2622,2569,2558,2515,2459,2409,2362,2343,2265,2235,2178,2152,2092,2043,1683,1649,1588,1568,1520,1498,1484,1454,1441,1412,1412,1400,1402,1406,1406,1412,1409,1409,1411,1413,1415,1420,1409,1415,1411,1407,1414,1413,1415,1417,1418,1411,1414,1409,1412,1408,1413,1407,1690,1695,1734,1943,2243,2790,3046,3190,3235,3271,3239,3162,3137,3083,3044,2997,2969,2919,2820,2776,2649,2485,2193,2255,2091,2097,2042,1980,1942,1862,1833,1797,1764,1756,1708,1647,1645,1630,1619,1619,1618,1618,1624,1626,1629,1627,1628,1653,1660,1648,1634,1628,1622,1632,1627,1623,1626,1630,1624,1625,1626,1628,1624,1629,1623,1460,1445,1639,1717,2348,2880,3231,3296,3399,3340,3293,3295,3161,3155,3086,3017,3037,2873,2809,2697,2669,2564,2648,2475,2366,2322,2252,2063,1703,1647,1591,1557,1498,1538,1511,1488,1501,1515,1629,1662,1633,1661,1679,1655,1666,1679,1660,1672,1671,1663,1687,1679,1679,1690,1734,1692,1671,1686,1675,1674,1676,1725,1683,1726,1672,788,818,791,813,865,1086,1285,1496,1512,1614,1617,1570,1555,1493,1503,1458,1419,1393,1411,1389,1315,1330,1321,1244,1257,1229,1178,1181,1157,1118,1100,1072,834,809,846,818,802,825,815,815,816,825,823,825,827,832,825,834,841,824,833,824,829,838,831,823,834,836,826,827,831,836,832,837,831,647,678,688,668,675,855,970,1128,1195,1268,1299,1249,1242,1237,1201,1203,1181,1169,1119,1099,1098,1059,1057,1018,1031,976,988,950,931,895,828,802,711,688,675,672,658,669,648,655,657,651,662,664,665,663,661,665,671,660,662,662,660,669,662,661,665,664,662,661,662,667,663,668,660,1362,1366,1420,1521,1738,2316,2591,2776,2813,2837,2839,2773,2778,2734,2699,2663,2632,2589,2522,2471,2416,2360,2380,2245,2186,2129,2071,1960,1600,1552,1547,1458,1454,1431,1388,1357,1366,1376,1416,1413,1420,1422,1426,1414,1432,1444,1424,1430,1434,1438,1543,1542,1457,1438,1460,1483,1477,1535,1528,1444,1480,1525,1534,1538,1471,118,118,146,146,146,149,169,189,209,227,242,237,234,229,226,222,218,215,211,207,203,200,195,192,188,184,180,177,172,169,166,161,158,154,150,147,147,148,110,111,111,111,116,114,116,114,113,117,114,113,113,112,112,114,112,111,115,112,112,114,113,116,113,112,113,1291,1303,1313,1392,1524,2013,2281,2436,2501,2538,2526,2462,2447,2410,2378,2359,2325,2259,2215,2171,2152,2093,2062,2009,1985,1931,1890,1799,1511,1476,1474,1395,1372,1353,1333,1301,1267,1264,1258,1258,1263,1263,1272,1265,1268,1271,1269,1271,1280,1269,1276,1275,1267,1274,1272,1277,1278,1275,1269,1275,1267,1271,1267,1272,1266,1337,1339,1368,1439,1906,2310,2723,2989,3127,3140,3099,3037,2974,2911,2856,2786,2758,2704,2635,2552,2512,2411,2367,2306,2223,2160,2097,1974,1614,1563,1561,1517,1473,1380,1358,1389,1401,1388,1429,1436,1437,1442,1449,1457,1461,1469,1467,1473,1483,1461,1469,1476,1479,1486,1490,1484,1493,1490,1500,1493,1506,1501,1566,1562,1540,674,678,678,691,715,922,1042,1191,1280,1341,1333,1311,1304,1277,1274,1241,1207,1192,1175,1172,1130,1126,1088,1059,1052,1029,1019,987,960,957,868,896,839,768,699,684,686,683,672,673,674,673,679,681,682,680,680,682,686,677,681,679,677,686,679,678,682,684,679,681,679,684,680,684,679,1333,1348,1356,1474,1595,2099,2366,2520,2582,2617,2604,2539,2523,2486,2451,2432,2396,2330,2283,2238,2218,2157,2126,2072,2048,1992,1889,1859,1552,1522,1520,1439,1416,1398,1377,1343,1310,1306,1297,1304,1310,1307,1316,1314,1311,1318,1314,1316,1320,1311,1321,1317,1308,1318,1314,1315,1321,1318,1315,1319,1311,1315,1311,1316,1310,762,765,767,769,803,1033,1207,1341,1424,1488,1546,1465,1457,1445,1408,1408,1382,1365,1313,1294,1285,1242,1236,1194,1187,1146,1138,1113,1089,1051,1022,998,823,803,777,774,775,759,745,746,747,746,752,754,755,753,753,755,762,750,754,752,750,759,752,751,755,757,752,754,752,757,753,758,752,1597,1607,1686,1856,2546,3075,3443,3595,3614,3632,3605,3524,3482,3409,3336,3272,3291,3124,3042,2976,2909,2841,2660,2503,2376,2091,2033,1971,1916,1857,1798,1727,1709,1648,1673,1641,1668,1702,1754,1795,1787,1834,1793,1822,1798,1789,1799,1831,1796,1779,1808,1824,1872,1800,1879,1808,1787,1855,1790,1786,1783,1883,1790,1884,1779,1241,1224,1262,1339,1631,2145,2426,2585,2633,2670,2672,2604,2586,2542,2497,2472,2435,2361,2312,2253,2238,2150,2181,2042,1988,1933,1879,1826,1739,1569,1361,1317,1278,1253,1245,1249,1258,1283,1306,1329,1297,1305,1332,1325,1328,1339,1333,1341,1350,1337,1349,1351,1359,1369,1340,1375,1378,1356,1357,1378,1340,1353,1378,1350,1353,1412,1424,1436,1503,1690,2268,2494,2648,2734,2745,2736,2666,2614,2612,2531,2513,2499,2445,2385,2340,2316,2265,2224,2188,2154,2078,1989,1830,1615,1599,1544,1494,1485,1472,1455,1427,1382,1384,1377,1371,1372,1385,1389,1386,1389,1394,1392,1403,1410,1403,1407,1387,1387,1396,1398,1401,1389,1402,1398,1392,1391,1396,1391,1396,1390,1309,1324,1333,1408,1551,2015,2317,2445,2511,2554,2534,2471,2474,2434,2386,2379,2348,2291,2233,2189,2181,2119,2091,2022,2009,1901,1834,1739,1518,1473,1472,1418,1389,1353,1340,1264,1231,1228,1218,1228,1233,1226,1235,1228,1240,1236,1236,1240,1241,1230,1240,1236,1230,1242,1234,1239,1243,1243,1244,1239,1234,1238,1234,1239,1233,821,824,827,830,849,1118,1283,1404,1519,1580,1595,1557,1543,1544,1491,1508,1482,1459,1391,1366,1372,1318,1292,1289,1277,1239,1214,1152,1169,1025,918,904,870,856,837,826,835,797,788,787,783,790,799,809,795,809,809,812,798,797,799,849,826,792,798,798,802,801,789,795,802,805,798,797,790,1383,1387,1566,1768,2261,2736,3099,3165,3267,3214,3169,3100,3036,2971,2906,2842,2877,2710,2637,2578,2519,2454,2510,2325,2260,2195,2130,2026,1906,1584,1531,1480,1440,1420,1414,1422,1433,1445,1552,1541,1553,1575,1551,1564,1557,1564,1582,1667,1580,1578,1598,1678,1678,1673,1673,1595,1566,1595,1586,1590,1572,1672,1599,1673,1583,1136,1149,1146,1179,1267,1719,1915,2128,2212,2217,2263,2189,2158,2121,2098,2063,2032,1998,1968,1905,1890,1835,1826,1782,1765,1692,1681,1640,1490,1299,1260,1228,1200,1180,1168,1168,1155,1162,1164,1161,1161,1166,1170,1181,1173,1178,1175,1181,1173,1168,1163,1167,1171,1161,1172,1172,1175,1173,1164,1170,1179,1181,1180,1178,1171,448,449,451,447,449,567,663,740,819,891,908,893,879,864,847,836,810,797,783,778,753,749,734,717,705,691,676,667,636,632,616,596,573,470,459,455,457,437,422,423,426,434,426,433,427,440,439,431,438,431,437,434,429,431,431,435,430,436,429,428,430,431,432,431,425,406,407,496,409,480,559,613,693,717,812,805,793,793,778,771,763,752,735,712,701,723,694,665,658,639,627,625,614,604,577,563,581,568,526,421,412,413,414,401,396,393,453,407,407,399,407,401,404,407,410,406,409,409,412,412,413,411,414,412,414,410,417,425,481,427,206,207,217,220,220,271,293,323,353,378,399,400,394,380,383,378,364,366,352,346,339,336,326,333,327,322,316,300,305,289,294,289,283,275,261,209,265,258,144,144,144,144,144,144,144,144,144,144,144,144,144,144,144,144,144,144,144,144,144,144,144,144,144,144,144,765,755,765,759,801,946,1140,1292,1432,1479,1460,1460,1426,1394,1395,1373,1336,1316,1282,1261,1266,1216,1211,1171,1157,1146,1104,1082,1073,1042,1006,944,910,782,766,764,765,749,722,722,721,730,730,728,725,730,724,729,726,726,729,730,733,737,729,730,737,733,730,728,726,748,723,728,725,848,849,855,861,895,1193,1356,1515,1646,1692,1703,1661,1633,1607,1579,1553,1526,1505,1482,1451,1424,1404,1370,1344,1323,1284,1272,1230,1213,1141,980,958,911,890,884,863,864,859,805,805,805,805,805,805,805,805,805,805,805,805,805,805,805,805,805,805,805,805,805,805,805,805,805,805,805,809,775,770,772,834,1006,1266,1356,1467,1525,1548,1520,1492,1481,1438,1435,1394,1376,1348,1321,1300,1337,1271,1223,1207,1176,1154,1110,1128,1067,901,856,827,829,798,784,787,802,746,746,746,746,746,746,746,746,746,746,746,746,746,746,746,746,746,746,746,746,746,746,746,746,746,746,746,780,777,795,782,805,975,1195,1338,1479,1519,1501,1500,1467,1443,1423,1399,1376,1350,1318,1309,1292,1250,1254,1218,1196,1175,1151,1084,1068,1046,981,853,834,814,788,786,797,776,751,751,754,767,772,759,767,763,763,767,759,764,760,766,772,774,760,767,763,763,771,770,768,788,765,770,767,534,538,539,541,545,662,815,906,996,1073,1074,1057,1045,1031,1010,996,979,954,943,926,903,889,876,853,842,818,805,782,770,753,677,687,584,572,555,552,562,491,453,453,453,453,453,453,453,453,453,453,453,453,453,453,453,453,453,453,453,453,453,453,453,453,453,453,453,372,372,369,373,371,404,541,603,667,728,741,728,733,705,693,681,671,658,646,634,622,611,599,587,576,563,552,540,535,517,505,492,409,477,380,376,373,378,333,326,326,331,328,334,329,332,327,332,333,330,331,335,333,340,336,335,335,335,339,337,338,341,334,342,335,783,782,764,789,829,1011,1228,1380,1491,1556,1552,1532,1448,1478,1456,1434,1407,1384,1325,1331,1308,1254,1263,1232,1214,1190,1161,1137,1101,1081,955,893,846,813,800,761,796,752,712,712,712,712,712,712,712,712,712,712,712,712,712,712,712,712,712,712,712,712,712,712,712,712,712,712,712,981,969,971,993,1072,1284,1548,1694,1883,1915,1873,1860,1811,1790,1786,1753,1710,1665,1643,1642,1612,1556,1562,1522,1467,1436,1417,1387,1356,1288,1101,1077,1040,1023,989,985,986,965,923,926,933,943,944,942,938,943,934,947,938,940,934,937,945,949,941,937,939,938,941,939,937,959,934,939,936,1390,1390,1483,1541,1820,2332,2579,2749,2852,2856,2795,2754,2717,2701,2632,2603,2566,2522,2445,2425,2399,2327,2298,2258,2212,1963,1903,1741,1692,1572,1609,1474,1445,1456,1431,1438,1446,1461,1456,1456,1456,1456,1456,1456,1456,1456,1456,1456,1456,1456,1456,1456,1456,1456,1456,1456,1456,1456,1456,1456,1456,1456,1456,1456,1456,0,0,0,0,0,0,0,0,0,0,0,0,0,0,0,0,0,0,0,0,0,0,0,0,0,0,0,0,0,0,0,0,0,0,0,0,0,0,0,0,0,0,0,0,0,0,0,0,0,0,0,0,0,0,0,0,0,0,0,0,0,0,0,0,0,328,319,401,321,347,448,487,564,573,623,654,622,619,607,598,612,628,575,579,551,576,543,518,533,498,498,489,481,473,448,438,468,441,334,348,323,324,324,302,302,305,308,307,307,311,308,305,310,314,314,311,311,310,309,382,335,308,310,308,309,306,311,311,312,308,873,875,878,901,919,1294,1530,1717,1847,1887,1874,1863,1818,1788,1760,1729,1696,1665,1645,1617,1570,1545,1502,1485,1428,1391,1366,1332,1281,1191,1138,983,967,924,891,907,899,901,847,847,847,847,847,847,847,847,847,847,847,847,847,847,847,847,847,847,847,847,847,847,847,847,847,847,847,904,908,903,918,952,1248,1474,1594,1753,1771,1791,1741,1734,1685,1656,1650,1601,1570,1561,1541,1512,1484,1465,1407,1399,1347,1323,1311,1262,1206,1015,993,967,920,920,917,923,910,851,851,851,851,851,851,851,851,851,851,851,851,851,851,851,851,851,851,851,851,851,851,851,851,851,851,851,843,839,842,876,879,1184,1347,1514,1636,1681,1693,1652,1615,1598,1570,1544,1518,1497,1463,1429,1415,1396,1361,1335,1316,1277,1257,1223,1207,1169,1087,929,907,882,889,856,846,842,788,788,788,788,788,788,788,788,788,788,788,788,788,788,788,788,788,788,788,788,788,788,788,788,788,788,788,468,455,459,460,465,619,696,768,889,884,884,874,884,849,847,834,810,798,785,793,748,734,721,721,696,684,662,657,668,638,623,633,536,576,466,472,559,465,463,467,468,495,470,480,467,473,468,462,477,471,495,495,495,480,471,482,480,483,486,474,474,495,465,474,471,1318,1350,1365,1404,1522,2059,2314,2488,2617,2666,2593,2552,2496,2478,2443,2397,2343,2304,2279,2228,2194,2122,2097,2060,2026,2002,1811,1557,1638,1514,1467,1415,1385,1383,1370,1361,1361,1362,1341,1341,1341,1341,1341,1341,1341,1341,1341,1341,1341,1341,1341,1341,1341,1341,1341,1341,1341,1341,1341,1341,1341,1341,1341,1341,1341,257,258,259,260,261,328,371,414,458,501,526,517,508,500,491,482,475,467,458,451,441,433,424,416,408,399,391,383,375,366,357,349,342,333,265,261,261,263,244,240,248,248,245,252,249,253,253,248,257,247,252,252,251,255,259,251,247,253,246,247,247,250,247,253,250,504,506,507,509,516,691,783,875,964,1015,1019,953,987,971,954,938,922,861,889,873,840,840,825,808,792,775,759,706,727,710,694,677,631,603,515,486,513,515,499,495,500,503,499,515,503,507,504,498,513,512,506,512,511,520,506,518,507,514,513,511,513,520,500,511,507,888,891,893,901,939,1256,1420,1582,1727,1759,1754,1727,1699,1671,1643,1616,1588,1559,1531,1511,1491,1455,1435,1399,1372,1339,1315,1283,1255,1228,1101,960,951,916,916,902,900,901,843,843,843,843,843,843,843,843,843,843,843,843,843,843,843,843,843,843,843,843,843,843,843,843,843,843,843,257,246,247,247,248,319,360,402,444,485,499,490,507,475,467,459,452,443,435,427,420,412,404,396,388,380,372,365,374,348,341,333,325,334,309,249,305,306,235,225,227,228,226,231,228,229,228,229,234,231,229,231,229,233,232,232,232,231,232,234,234,234,233,240,235,651,654,656,658,671,883,1000,1116,1249,1297,1317,1284,1263,1243,1222,1202,1181,1166,1143,1123,1097,1087,1060,1040,1019,994,977,953,932,911,883,711,708,678,677,662,664,668,614,614,614,614,614,614,614,614,614,614,614,614,614,614,614,614,614,614,614,614,614,614,614,614,614,614,614,593,594,596,598,604,777,870,964,1099,1146,1145,1140,1112,1094,1076,1060,1042,1025,1008,992,981,958,952,922,905,888,871,854,843,825,783,789,712,614,604,602,603,604,580,571,575,576,586,579,573,590,579,581,583,588,581,585,596,597,583,580,579,584,583,579,582,589,578,585,583,474,468,477,489,496,551,697,787,852,931,942,933,920,914,911,887,838,823,826,808,784,782,767,753,743,728,709,695,686,663,629,615,613,487,486,482,483,494,432,432,432,432,432,432,432,432,432,432,432,432,432,432,432,432,432,432,432,432,432,432,432,432,432,432,432,356,357,359,359,310,403,456,509,563,611,636,665,602,592,583,573,576,605,543,631,523,513,536,493,525,474,514,532,445,445,425,415,414,324,323,387,312,320,306,307,308,307,311,307,314,314,312,315,313,313,315,315,313,315,315,313,318,315,313,311,315,318,319,318,318,141,142,142,174,174,180,204,227,251,275,289,284,280,276,271,266,261,257,253,248,244,238,234,229,225,221,216,211,206,202,198,193,189,183,179,176,176,177,131,131,131,131,132,132,132,133,133,133,134,134,134,135,135,135,134,135,136,135,136,135,135,135,136,135,136,719,737,734,749,746,950,1143,1311,1427,1488,1434,1465,1388,1381,1350,1327,1300,1285,1259,1271,1211,1224,1205,1157,1123,1108,1077,1059,1048,1012,939,871,790,748,745,752,730,712,671,671,671,671,671,671,671,671,671,671,671,671,671,671,671,671,671,671,671,671,671,671,671,671,671,671,671,729,731,734,736,742,890,1097,1218,1377,1416,1411,1402,1369,1347,1326,1305,1283,1262,1240,1219,1204,1177,1168,1134,1114,1091,1069,999,984,964,941,896,772,753,742,740,738,689,665,668,667,674,676,667,670,669,675,672,665,670,668,677,691,683,670,672,669,673,676,674,672,694,669,674,671,448,449,451,447,449,567,663,740,819,891,908,893,879,864,847,836,810,797,783,778,753,749,734,717,705,691,676,667,636,632,616,596,573,470,459,455,457,437,422,423,426,434,426,433,427,440,439,431,438,431,437,434,429,431,431,435,430,436,429,428,430,431,432,431,425,774,744,755,782,843,1024,1225,1371,1425,1468,1509,1481,1456,1402,1370,1397,1360,1323,1364,1266,1281,1259,1204,1172,1166,1167,1101,1128,1102,1070,923,841,822,796,762,781,774,750,740,740,740,740,740,740,740,740,740,740,740,740,740,740,740,740,740,740,740,740,740,740,740,740,740,740,740,268,269,270,270,271,348,393,438,463,529,519,511,528,517,508,499,491,482,454,465,457,430,440,433,423,397,408,397,388,380,371,363,354,346,337,271,272,273,264,272,261,271,314,274,270,274,267,270,270,272,267,264,267,270,269,270,271,270,269,314,266,314,270,272,267,524,523,525,531,538,708,774,855,930,987,986,958,974,933,942,909,897,885,873,855,849,836,828,810,810,772,773,748,731,720,727,676,679,545,535,575,534,492,492,492,492,492,492,492,492,492,492,492,492,492,492,492,492,492,492,492,492,492,492,492,492,492,492,492,492,612,613,616,618,635,854,1001,1100,1174,1240,1153,1205,1191,1128,1157,1186,1129,1095,1090,1069,1101,1029,1009,976,976,949,917,909,877,859,849,748,816,721,625,621,623,633,631,632,632,641,640,638,637,657,630,639,636,634,638,657,657,640,640,640,637,637,657,657,631,635,635,637,631,1196,1170,1174,1242,1524,1807,2038,2179,2250,2282,2296,2254,2223,2154,2131,2129,2094,2024,2049,1951,1953,1917,1843,1810,1781,1767,1698,1713,1386,1326,1334,1285,1296,1276,1184,1212,1204,1153,1153,1153,1153,1153,1153,1153,1153,1153,1153,1153,1153,1153,1153,1153,1153,1153,1153,1153,1153,1153,1153,1153,1153,1153,1153,1153,1153,1122,1092,1126,1179,1319,1722,1864,2057,2087,2126,2158,2124,2091,2065,2013,2008,1954,1912,1938,1843,1868,1808,1738,1690,1663,1648,1581,1486,1448,1378,1226,1206,1225,1178,1107,1135,1148,1094,1094,1094,1094,1094,1094,1094,1094,1094,1094,1094,1094,1094,1094,1094,1094,1094,1094,1094,1094,1094,1094,1094,1094,1094,1094,1094,1094,634,636,638,639,672,899,1032,1129,1225,1387,1279,1259,1239,1237,1200,1180,1160,1140,1120,1092,1086,1102,1040,1020,1001,981,961,941,921,902,868,715,689,673,660,643,645,647,680,653,657,669,645,652,657,652,678,648,657,676,691,675,686,691,691,671,669,664,691,691,691,691,690,691,691,883,853,859,890,955,1211,1417,1545,1629,1679,1704,1673,1651,1594,1568,1595,1551,1503,1532,1442,1457,1437,1365,1332,1311,1328,1255,1262,1209,1046,1044,974,966,907,863,892,840,790,787,796,802,799,799,798,792,797,800,797,795,799,792,798,798,798,798,798,798,798,798,798,798,798,798,798,798,605,613,617,610,628,725,919,1027,1101,1141,1212,1147,1187,1094,1100,1082,1051,1026,1053,993,999,983,943,926,908,913,875,858,861,844,690,670,635,621,612,613,628,576,557,557,557,557,557,557,557,557,557,557,557,557,557,557,557,557,557,557,557,557,557,557,557,557,557,557,557,1131,1080,1107,1152,1303,1596,1898,2034,2114,2151,2104,2125,2076,2041,2009,2018,1950,1889,1936,1844,1827,1812,1737,1682,1673,1657,1584,1589,1468,1362,1290,1231,1193,1159,1082,1145,1101,1049,1051,1067,1064,1062,1065,1068,1057,1061,1066,1063,1062,1063,1060,1068,1068,1068,1068,1068,1068,1068,1068,1068,1068,1068,1068,1068,1068,837,854,856,864,977,1246,1406,1499,1525,1586,1541,1574,1519,1531,1504,1504,1507,1505,1454,1400,1418,1376,1349,1322,1301,1267,1261,1191,1216,1180,1037,977,900,864,870,864,869,837,848,835,841,846,848,848,848,848,848,848,848,848,848,848,848,848,848,848,848,848,848,848,848,848,848,848,848,1562,1570,1623,2169,2521,2974,3225,3368,3342,3396,3378,3364,3271,3234,3173,3109,3042,2969,2885,2854,2640,2506,2305,2298,2025,1969,1962,1906,1800,1745,1751,1695,1629,1660,1613,1612,1658,1637,1685,1685,1685,1685,1685,1685,1685,1685,1685,1685,1685,1685,1685,1685,1685,1685,1685,1685,1685,1685,1685,1685,1685,1685,1685,1685,1685,453,423,423,475,500,619,663,699,740,788,837,822,816,764,752,794,765,732,784,707,735,723,671,658,646,669,622,645,668,620,528,518,586,558,431,456,501,429,425,425,425,425,425,425,425,425,425,425,425,425,425,425,425,425,425,425,425,425,425,425,425,425,425,425,425,0,0,0,0,0,0,0,0,0,0,0,0,0,0,0,0,0,0,0,0,0,0,0,0,0,0,0,0,0,0,0,0,0,0,0,0,0,0,0,0,0,0,0,0,0,0,0,0,0,0,0,0,0,0,0,0,0,0,0,0,0,0,0,0,0,859,861,863,879,887,1253,1425,1574,1658,1716,1704,1678,1650,1641,1598,1571,1545,1518,1490,1456,1416,1386,1386,1362,1332,1308,1266,1236,1206,1199,1135,1002,964,883,867,870,855,846,848,843,848,849,861,868,875,867,864,867,871,873,864,859,867,877,879,863,863,865,859,868,863,867,863,878,859,1255,1218,1231,1299,1528,1920,2117,2285,2352,2383,2397,2331,2298,2234,2239,2211,2157,2116,2138,2040,2041,1985,1925,1887,1855,1841,1688,1702,1593,1399,1379,1354,1330,1312,1228,1268,1256,1199,1199,1199,1199,1199,1199,1199,1199,1199,1199,1199,1199,1199,1199,1199,1199,1199,1199,1199,1199,1199,1199,1199,1199,1199,1199,1199,1199,1190,1164,1189,1226,1443,1797,2035,2169,2240,2272,2271,2245,2215,2148,2128,2125,2061,2016,2027,1943,1946,1910,1835,1796,1773,1760,1690,1687,1523,1342,1328,1278,1288,1263,1178,1194,1187,1136,1136,1136,1136,1136,1136,1136,1136,1136,1136,1136,1136,1136,1136,1136,1136,1136,1136,1136,1136,1136,1136,1136,1136,1136,1136,1136,1136,603,603,605,607,623,810,906,998,1093,1128,1130,1152,1136,1084,1069,1048,1038,1023,1007,980,964,949,933,917,900,885,897,854,851,822,817,792,683,621,682,629,611,623,609,615,612,614,615,615,615,615,615,615,615,615,615,615,615,615,615,615,615,615,615,615,615,615,615,615,615,1697,1680,1690,1871,2363,2804,2982,3165,3140,3169,3152,3184,3082,3028,2950,2940,2877,2819,2815,2669,2505,2305,2104,2100,2081,2046,1950,1914,1898,1849,1866,1795,1776,1734,1672,1708,1724,1689,1689,1689,1689,1689,1689,1689,1689,1689,1689,1689,1689,1689,1689,1689,1689,1689,1689,1689,1689,1689,1689,1689,1689,1689,1689,1689,1689,522,518,532,526,535,608,778,872,936,977,1053,990,1033,941,927,933,907,884,913,855,864,851,812,798,784,791,755,741,747,712,711,566,549,537,527,529,530,525,501,501,501,501,501,501,501,501,501,501,501,501,501,501,501,501,501,501,501,501,501,501,501,501,501,501,501,679,681,683,685,689,846,1046,1149,1264,1342,1347,1331,1310,1283,1268,1241,1228,1184,1178,1161,1136,1122,1095,1075,1054,1032,1011,931,911,762,914,738,725,755,693,689,699,683,637,637,637,637,637,637,637,637,637,637,637,637,637,637,637,637,637,637,637,637,637,637,637,637,637,637,637,1238,1208,1214,1286,1553,1871,2090,2265,2317,2348,2361,2319,2288,2218,2209,2194,2142,2084,2108,2009,2011,1987,1899,1874,1835,1819,1753,1610,1579,1401,1381,1324,1314,1307,1224,1245,1247,1191,1191,1191,1191,1191,1191,1191,1191,1191,1191,1191,1191,1191,1191,1191,1191,1191,1191,1191,1191,1191,1191,1191,1191,1191,1191,1191,1191,484,480,509,487,494,553,712,798,855,898,976,914,958,867,854,863,838,816,847,789,800,787,751,738,724,731,699,686,692,660,661,641,537,526,488,490,491,480,456,456,456,456,456,456,456,456,456,456,456,456,456,456,456,456,456,456,456,456,456,456,456,456,456,456,456,1001,971,974,1018,1166,1451,1624,1782,1864,1901,1924,1890,1865,1800,1772,1794,1745,1694,1725,1634,1642,1613,1543,1521,1491,1486,1422,1439,1380,1149,1136,1084,1097,1069,984,1011,1013,962,962,962,962,962,962,962,962,962,962,962,962,962,962,962,962,962,962,962,962,962,962,962,962,962,962,962,962,462,464,465,467,469,621,701,782,862,920,927,913,898,884,869,854,840,826,810,796,782,767,753,738,723,709,695,679,665,651,636,622,623,485,473,469,554,471,477,469,472,476,482,486,484,511,484,474,480,491,486,476,477,486,484,479,479,483,477,483,480,486,485,490,483,662,664,666,667,693,901,1033,1116,1265,1269,1268,1249,1266,1212,1193,1174,1156,1137,1118,1100,1081,1062,1067,1024,1005,1027,968,949,950,910,892,872,766,684,688,671,673,675,666,664,662,672,668,670,671,672,671,672,672,672,672,672,672,672,672,672,672,672,672,672,672,672,672,672,669,574,570,570,557,560,697,818,929,981,1021,1102,1047,1059,1037,969,987,948,973,989,939,957,933,849,834,819,848,789,774,790,744,725,590,636,589,579,590,553,578,527,527,527,527,527,527,527,527,527,527,527,527,527,527,527,527,527,527,527,527,527,527,527,527,527,527,527,472,441,443,494,521,633,712,760,810,859,906,888,881,827,814,852,822,787,838,759,785,772,717,702,688,709,661,682,703,652,567,541,545,533,450,516,521,449,451,455,458,458,458,458,450,458,456,450,457,457,450,458,458,458,458,458,458,458,458,458,458,458,458,458,458,1086,1051,1067,1105,1243,1568,1827,1964,2048,2039,2092,2021,1988,1936,1911,1919,1869,1856,1876,1743,1793,1749,1646,1620,1621,1595,1531,1521,1393,1258,1242,1191,1132,1118,1075,1081,1061,1008,1004,1015,1028,1024,1030,1031,1016,1022,1026,1022,1023,1020,1017,1025,1025,1025,1025,1025,1025,1025,1025,1025,1025,1025,1025,1025,1025,635,637,639,641,661,889,1025,1125,1222,1273,1274,1254,1234,1232,1193,1181,1152,1133,1112,1092,1097,1051,1030,1010,991,970,950,929,908,898,869,861,804,661,648,645,647,627,626,627,621,657,657,622,631,665,633,676,657,642,657,633,625,627,632,640,626,627,619,625,621,626,635,631,612,774,744,755,782,843,1024,1225,1371,1425,1468,1509,1481,1456,1402,1370,1397,1360,1323,1364,1266,1281,1259,1204,1172,1166,1167,1101,1128,1102,1070,923,841,822,796,762,781,774,750,740,740,740,740,740,740,740,740,740,740,740,740,740,740,740,740,740,740,740,740,740,740,740,740,740,740,740,1176,1181,1187,1203,1274,1744,2071,2337,2468,2492,2478,2405,2365,2349,2295,2279,2215,2185,2137,2096,2056,2018,1973,1924,1878,1862,1786,1747,1661,1486,1402,1275,1240,1233,1237,1190,1201,1229,1212,1204,1210,1217,1221,1210,1226,1227,1222,1228,1227,1223,1230,1230,1234,1235,1237,1240,1236,1237,1239,1235,1239,1249,1224,1242,1224,581,583,584,585,613,780,925,1015,1117,1183,1144,1126,1108,1091,1073,1056,1038,1056,1003,985,968,950,932,942,897,880,886,844,827,809,792,750,732,664,593,589,591,592,586,588,590,595,585,589,594,594,594,590,593,589,591,588,593,594,594,595,591,593,594,622,590,615,593,620,616,952,936,957,960,996,1274,1556,1686,1776,1813,1824,1799,1771,1743,1713,1687,1656,1644,1604,1570,1565,1513,1503,1492,1425,1399,1370,1339,1313,1191,1113,1100,981,973,962,946,924,917,912,914,916,918,911,921,921,921,928,936,926,935,932,937,932,947,939,939,929,926,932,935,930,929,933,936,933,292,293,294,295,296,340,385,472,522,571,598,589,579,569,561,551,541,531,522,512,502,493,484,474,464,455,445,435,425,383,375,366,357,348,301,297,297,298,289,290,288,290,296,299,294,303,291,301,299,356,292,301,302,380,303,298,296,300,353,304,301,360,293,299,294,1377,1352,1401,1509,1694,2243,2482,2697,2772,2795,2742,2715,2685,2601,2575,2518,2470,2413,2392,2342,2292,2218,2177,2160,2099,2051,1949,1754,1755,1551,1503,1474,1439,1407,1387,1360,1338,1341,1334,1329,1353,1366,1344,1355,1342,1358,1345,1364,1370,1345,1348,1356,1356,1376,1370,1361,1359,1354,1359,1368,1363,1358,1341,1373,1349,1008,1043,1040,1075,1147,1605,1787,2037,2099,2184,2114,2076,2113,2003,1985,1929,1892,1854,1883,1780,1743,1706,1711,1632,1595,1597,1479,1483,1478,1347,1269,1133,1062,1038,1039,1060,1029,1034,1049,1051,1059,1062,1059,1069,1070,1070,1078,1077,1077,1075,1077,1080,1076,1076,1078,1082,1081,1080,1076,1082,1080,1093,1082,1092,1080,188,188,189,189,189,239,270,302,332,364,385,378,371,366,359,354,347,342,335,330,323,316,311,304,299,292,287,280,275,268,261,256,249,244,237,200,234,234,161,159,164,164,162,159,160,159,158,164,184,187,180,167,165,167,161,165,161,164,160,159,163,161,159,160,159,1190,1193,1226,1231,1456,1875,2153,2339,2445,2470,2506,2407,2363,2322,2332,2284,2200,2154,2112,2127,2029,2037,1943,1900,1857,1856,1779,1732,1660,1500,1432,1278,1247,1224,1210,1173,1154,1161,1165,1162,1186,1188,1177,1188,1175,1191,1178,1197,1201,1178,1181,1189,1189,1202,1203,1194,1192,1187,1192,1201,1196,1191,1174,1196,1182,1049,1053,1057,1089,1168,1560,1767,1939,2072,2107,2095,2037,2029,1994,1937,1926,1874,1861,1807,1794,1741,1708,1674,1642,1608,1575,1561,1510,1478,1357,1155,1128,1102,1081,1080,1065,1033,1040,1053,1035,1032,1075,1033,1054,1073,1097,1084,1059,1055,1040,1067,1060,1098,1081,1098,1083,1077,1065,1075,1092,1081,1061,1036,1054,1036,1423,1430,1450,1574,1845,2341,2623,2787,2890,2906,2877,2825,2721,2729,2721,2632,2594,2537,2492,2447,2341,2365,2290,2241,2190,2069,1971,1886,1823,1729,1591,1516,1472,1461,1448,1416,1398,1401,1394,1389,1413,1426,1404,1415,1402,1418,1405,1424,1430,1405,1408,1416,1416,1436,1430,1421,1419,1414,1419,1428,1423,1418,1401,1433,1409,503,504,505,507,510,574,747,834,922,999,1017,1011,996,968,963,936,919,903,886,871,854,838,821,806,789,773,756,745,724,716,700,675,582,526,514,510,512,513,498,504,504,518,527,527,514,561,507,522,520,517,518,522,527,527,524,523,526,521,522,527,520,573,517,522,515,1305,1310,1317,1441,1957,2484,2923,3195,3293,3289,3242,3170,3101,3017,2954,2882,2816,2734,2656,2593,2522,2443,2369,2303,2230,2157,2083,2010,1864,1550,1474,1432,1374,1347,1349,1347,1377,1393,1412,1396,1391,1396,1442,1444,1425,1423,1435,1445,1435,1458,1462,1448,1433,1452,1442,1446,1442,1445,1441,1439,1444,1443,1440,1445,1440,925,923,926,945,982,1329,1525,1681,1764,1826,1811,1783,1754,1722,1695,1668,1639,1611,1580,1554,1526,1497,1468,1476,1414,1387,1358,1376,1301,1064,1042,1017,974,963,943,959,911,929,922,917,928,927,930,932,930,934,933,939,945,938,931,941,937,942,945,939,938,944,931,938,937,949,934,967,935,799,801,804,810,866,1154,1342,1459,1583,1658,1635,1653,1543,1518,1492,1493,1466,1467,1391,1389,1339,1314,1289,1263,1257,1234,1218,1181,1112,1092,1021,904,881,827,835,811,810,812,805,811,814,822,820,837,822,817,820,834,822,823,820,828,836,809,829,828,825,833,814,819,830,828,818,830,822,0,0,0,0,0,0,0,0,0,0,0,0,0,0,0,0,0,0,0,0,0,0,0,0,0,0,0,0,0,0,0,0,0,0,0,0,0,0,0,0,0,0,0,0,0,0,0,0,0,0,0,0,0,0,0,0,0,0,0,0,0,0,0,0,0,1168,1194,1194,1242,1354,1869,2132,2306,2406,2453,2433,2394,2431,2322,2306,2237,2194,2141,2183,2064,2032,1971,1982,1886,1844,1861,1761,1702,1584,1416,1303,1301,1240,1223,1210,1199,1206,1197,1210,1220,1225,1233,1232,1231,1231,1240,1238,1230,1247,1227,1241,1231,1255,1273,1256,1243,1262,1253,1250,1234,1235,1254,1238,1243,1234,1335,1346,1355,1443,1657,2203,2462,2638,2729,2747,2739,2676,2676,2592,2566,2488,2442,2394,2384,2301,2255,2208,2169,2114,2068,2043,1943,1894,1755,1500,1462,1424,1393,1369,1367,1343,1321,1324,1317,1312,1336,1349,1327,1338,1325,1341,1328,1347,1353,1328,1331,1339,1339,1359,1353,1344,1342,1337,1342,1351,1346,1341,1324,1356,1332,697,745,727,750,766,893,1121,1253,1372,1394,1444,1397,1351,1329,1307,1284,1306,1240,1260,1195,1229,1191,1129,1107,1084,1062,1040,1096,995,973,917,866,742,723,737,708,710,714,707,702,708,718,724,727,719,705,714,724,712,706,719,712,708,708,725,724,705,706,703,709,712,716,719,719,707,1420,1456,1466,1630,2159,2721,3038,3202,3384,3302,3251,3217,3234,3117,3091,2976,2931,2866,2840,2760,2699,2614,2537,2332,2275,2158,2107,2001,1789,1704,1624,1582,1521,1494,1465,1457,1488,1504,1523,1512,1505,1512,1534,1536,1533,1537,1537,1537,1547,1559,1554,1540,1538,1544,1534,1538,1534,1540,1533,1531,1536,1535,1532,1537,1532,978,969,972,992,1055,1416,1604,1777,1912,1951,1941,1887,1856,1849,1795,1787,1734,1703,1673,1642,1611,1580,1549,1520,1489,1458,1447,1397,1366,1351,1279,1125,1017,997,1009,980,981,984,999,978,975,1018,979,997,1023,1040,1023,1006,998,985,1009,1000,1013,1015,1023,1025,1016,1008,1011,1014,1015,1003,981,999,981,1168,1170,1173,1192,1292,1726,2050,2218,2299,2349,2350,2296,2259,2222,2173,2147,2099,2073,2036,1998,1961,1914,1860,1833,1811,1786,1728,1699,1567,1303,1298,1263,1228,1201,1206,1186,1197,1205,1196,1196,1208,1229,1211,1218,1214,1211,1208,1207,1221,1211,1212,1227,1226,1236,1226,1230,1216,1218,1225,1219,1212,1215,1213,1222,1220,1195,1197,1197,1270,1424,1917,2152,2334,2435,2458,2457,2413,2436,2327,2332,2241,2198,2154,2208,2069,2039,1975,1986,1890,1849,1836,1739,1677,1637,1502,1305,1287,1256,1226,1213,1202,1212,1213,1217,1227,1230,1243,1232,1234,1235,1237,1236,1237,1246,1239,1242,1241,1255,1270,1253,1252,1258,1247,1256,1235,1247,1256,1239,1246,1238,927,930,933,948,999,1349,1527,1699,1835,1875,1868,1813,1785,1778,1725,1719,1667,1637,1608,1579,1549,1520,1490,1461,1432,1402,1392,1344,1314,1226,1161,1003,979,958,970,941,936,939,954,932,930,972,932,951,988,994,988,960,953,936,963,953,1008,978,1008,979,970,962,971,985,980,959,936,954,936,1179,1153,1181,1238,1362,1846,2084,2310,2390,2427,2378,2357,2332,2255,2235,2185,2142,2088,2071,2028,1988,1916,1880,1874,1815,1774,1732,1687,1546,1420,1300,1256,1240,1200,1198,1169,1147,1150,1143,1138,1162,1175,1153,1164,1151,1167,1154,1173,1179,1154,1157,1165,1165,1185,1179,1170,1168,1163,1168,1177,1172,1167,1150,1182,1158,388,390,391,392,394,517,583,650,716,768,779,767,755,743,731,719,706,694,682,669,657,645,633,621,609,597,585,573,561,547,535,523,418,408,398,395,396,396,387,399,396,400,384,389,384,396,397,384,401,401,397,402,403,403,404,382,402,401,451,397,396,404,401,388,386,654,675,657,658,729,954,1111,1268,1395,1467,1434,1408,1417,1364,1329,1311,1311,1284,1225,1199,1172,1147,1120,1124,1074,1041,1016,990,963,937,910,794,771,681,666,665,668,672,665,674,664,692,664,684,670,690,677,684,678,672,685,679,689,687,687,687,692,686,715,684,690,715,708,708,708,1008,1026,1024,1018,1114,1461,1662,1839,1931,1983,1960,1929,1951,1906,1914,1850,1821,1786,1710,1724,1680,1645,1640,1565,1562,1491,1486,1466,1458,1403,1327,1074,1048,1020,1014,1033,1035,1009,1046,1038,1038,1041,1039,1059,1048,1056,1061,1069,1061,1044,1071,1060,1091,1088,1096,1077,1075,1070,1074,1095,1083,1068,1043,1061,1043,972,963,966,986,1048,1406,1613,1767,1901,1916,1908,1877,1846,1839,1786,1755,1746,1695,1664,1633,1623,1592,1562,1530,1481,1468,1437,1390,1359,1251,1197,1120,1025,991,1006,974,977,980,990,1002,996,1002,1009,999,1006,1014,1017,1011,1032,1006,1008,1017,1016,1021,1019,1070,1022,1025,1033,1014,1022,1029,1031,1049,1031,1285,1260,1301,1365,1545,2062,2304,2521,2597,2630,2578,2554,2525,2445,2421,2368,2321,2266,2247,2199,2154,2077,2041,2030,1969,1924,1878,1804,1664,1583,1407,1360,1347,1318,1295,1267,1244,1247,1240,1235,1259,1272,1250,1261,1248,1264,1251,1270,1276,1251,1254,1262,1262,1282,1276,1267,1265,1260,1265,1274,1269,1264,1247,1279,1255,265,266,267,268,269,334,391,437,482,528,543,534,525,517,508,500,491,482,474,465,456,447,438,430,421,413,404,396,387,378,369,360,352,342,333,270,328,329,264,266,265,266,270,265,267,273,263,269,265,264,267,289,270,270,270,267,265,265,303,290,266,267,265,267,266,1176,1181,1187,1203,1274,1744,2071,2337,2468,2492,2478,2405,2365,2349,2295,2279,2215,2185,2137,2096,2056,2018,1973,1924,1878,1862,1786,1747,1661,1486,1402,1275,1240,1233,1237,1190,1201,1229,1212,1204,1210,1217,1221,1210,1226,1227,1222,1228,1227,1223,1230,1230,1234,1235,1237,1240,1236,1237,1239,1235,1239,1249,1224,1242,1224,734,737,732,741,767,1031,1166,1291,1408,1478,1452,1428,1404,1398,1358,1335,1303,1326,1302,1299,1230,1228,1177,1174,1126,1107,1080,1076,1046,1004,818,799,769,751,758,761,773,778,741,741,741,742,737,737,736,736,734,736,736,737,734,736,743,742,736,734,738,736,736,736,737,737,734,736,734,1161,1169,1173,1187,1331,1788,2020,2213,2259,2294,2281,2310,2259,2175,2125,2106,2066,2090,1973,1995,1965,1880,1853,1792,1815,1740,1704,1672,1535,1397,1282,1260,1221,1197,1201,1173,1165,1131,1122,1130,1126,1139,1128,1130,1137,1149,1138,1132,1135,1162,1163,1153,1135,1136,1137,1137,1134,1134,1126,1134,1129,1158,1157,1165,1129,755,757,758,761,764,1026,1194,1310,1432,1476,1476,1469,1445,1420,1398,1374,1352,1329,1306,1283,1255,1240,1214,1192,1163,1152,1120,1107,1073,1049,872,873,832,790,773,766,764,738,727,722,724,724,731,733,736,736,744,736,735,742,748,737,737,739,736,743,738,740,735,740,736,745,741,742,735,1285,1291,1288,1322,1399,2005,2299,2566,2650,2684,2657,2605,2546,2511,2476,2428,2374,2336,2286,2234,2192,2143,2102,2049,2009,1951,1915,1857,1771,1471,1436,1408,1355,1347,1319,1309,1304,1318,1274,1296,1284,1300,1287,1300,1300,1316,1296,1288,1300,1294,1303,1305,1313,1312,1318,1303,1325,1308,1319,1326,1308,1356,1337,1339,1337,395,396,397,398,400,526,596,665,733,787,798,785,773,760,748,734,722,709,697,685,672,660,646,634,621,609,596,584,570,558,545,533,520,508,405,401,402,403,377,381,383,387,381,383,381,383,379,379,382,381,377,377,386,387,381,379,382,380,377,380,380,383,378,382,379,378,378,380,381,382,502,568,635,701,755,765,753,741,729,717,705,693,680,668,656,644,632,620,608,596,583,570,558,546,534,522,510,498,486,387,384,385,386,377,377,380,383,383,383,384,380,383,387,480,386,481,488,488,389,484,389,387,386,386,390,383,387,387,390,384,1240,1235,1246,1251,1373,1895,2181,2468,2558,2590,2558,2515,2471,2437,2377,2343,2292,2254,2207,2161,2111,2067,2027,1973,1939,1893,1840,1751,1648,1505,1369,1351,1314,1297,1261,1196,1192,1199,1160,1162,1170,1187,1171,1165,1184,1195,1175,1175,1177,1174,1178,1181,1188,1194,1193,1179,1183,1186,1216,1206,1182,1222,1203,1205,1203,544,556,547,549,559,625,841,929,1034,1086,1092,1074,1058,1036,1018,1005,980,988,985,954,919,910,884,867,850,832,817,798,789,763,640,596,586,567,575,577,579,547,514,515,518,519,518,519,518,518,516,518,518,519,516,518,525,524,518,516,520,518,518,518,519,519,516,518,516,831,834,836,838,848,1184,1345,1498,1614,1670,1660,1634,1604,1594,1554,1532,1503,1474,1450,1420,1393,1374,1348,1320,1290,1259,1239,1204,1183,1077,1052,999,881,864,852,845,854,807,803,791,800,825,838,823,838,828,853,836,825,837,842,829,854,835,816,855,819,834,845,838,865,844,841,827,820,597,588,600,607,612,812,919,1028,1118,1170,1192,1156,1148,1129,1155,1082,1090,1045,1026,1007,988,970,952,981,922,896,877,859,848,827,820,774,757,612,599,618,620,614,588,587,587,588,587,588,587,587,585,587,587,588,585,587,594,593,587,585,589,587,587,587,588,588,585,587,585,1495,1483,1494,1561,1800,2403,2729,2981,3055,3068,3035,2964,2935,2878,2817,2762,2734,2667,2614,2554,2520,2447,2396,2333,2074,2019,1987,1782,1728,1683,1620,1591,1555,1539,1513,1511,1517,1515,1477,1485,1503,1522,1507,1489,1512,1536,1513,1515,1519,1508,1533,1524,1541,1527,1531,1528,1523,1529,1552,1542,1541,1562,1543,1545,1543,772,774,771,761,778,1097,1276,1383,1463,1510,1548,1504,1460,1466,1422,1406,1359,1292,1336,1309,1281,1264,1219,1195,1191,1160,1124,1112,1109,898,1058,844,813,791,803,775,802,793,752,752,759,763,761,760,770,763,767,769,773,769,767,773,777,770,769,771,775,773,773,773,774,774,771,773,771,838,837,838,845,853,1165,1354,1486,1624,1667,1663,1637,1606,1579,1558,1527,1498,1474,1455,1420,1391,1371,1353,1318,1294,1280,1245,1233,1189,1175,965,944,887,875,858,850,855,830,821,821,824,826,827,829,836,833,837,831,829,832,860,841,834,835,832,836,833,833,825,833,828,836,834,835,828,1086,1096,1099,1087,1202,1637,1834,2037,2110,2158,2131,2161,2125,2044,1982,1956,1914,1955,1854,1871,1846,1744,1724,1698,1710,1631,1584,1534,1414,1354,1197,1180,1144,1114,1113,1096,1061,1027,1018,1026,1022,1035,1024,1026,1033,1045,1034,1028,1031,1058,1059,1053,1031,1032,1033,1033,1030,1030,1022,1030,1025,1054,1053,1061,1025,1091,1094,1118,1112,1190,1666,1959,2203,2314,2344,2325,2271,2246,2203,2164,2122,2082,2039,2019,1958,1925,1884,1833,1794,1752,1704,1663,1629,1592,1323,1215,1198,1188,1169,1135,1122,1130,1133,1100,1087,1083,1092,1109,1088,1098,1109,1105,1107,1130,1104,1108,1114,1117,1129,1109,1127,1115,1133,1115,1118,1116,1135,1149,1132,1129,0,0,0,0,0,0,0,0,0,0,0,0,0,0,0,0,0,0,0,0,0,0,0,0,0,0,0,0,0,0,0,0,0,0,0,0,0,0,0,0,0,0,0,0,0,0,0,0,0,0,0,0,0,0,0,0,0,0,0,0,0,0,0,0,0,321,322,323,324,325,422,478,534,590,640,653,643,632,622,611,601,591,580,570,559,550,539,529,518,508,497,487,477,466,456,445,435,424,339,330,326,327,328,302,303,305,306,305,306,305,305,303,305,305,306,303,305,312,311,305,303,307,305,305,305,306,306,303,305,303,918,921,923,933,978,1273,1410,1546,1651,1692,1689,1787,1787,1616,1593,1592,1577,1551,1530,1507,1479,1426,1430,1410,1379,1355,1306,1384,1279,1225,1137,992,999,945,941,930,933,908,883,876,880,876,895,888,898,893,891,902,902,900,902,901,905,907,910,905,907,914,925,938,915,911,963,956,956,668,660,663,624,661,893,1066,1182,1232,1287,1314,1271,1273,1277,1250,1190,1124,1104,1148,1086,1066,1046,1005,985,986,1020,926,940,920,709,914,729,710,694,683,679,681,680,626,625,630,632,632,632,634,636,634,636,634,641,638,641,644,641,638,639,643,646,647,664,645,670,648,647,646,718,720,722,724,728,996,1143,1269,1387,1443,1444,1422,1394,1376,1346,1326,1303,1280,1262,1234,1211,1193,1166,1142,1119,1096,1073,1049,1027,1003,970,948,801,781,737,730,738,692,684,674,683,696,703,693,709,694,728,703,693,705,721,703,722,703,692,723,693,715,706,705,716,709,702,695,688,1051,1044,1056,1060,1094,1536,1772,1944,2042,2089,2081,2048,2006,1980,1940,1919,1879,1846,1818,1779,1736,1720,1683,1645,1613,1580,1546,1512,1453,1356,1218,1216,1103,1076,1064,1067,1067,1033,1023,1017,1028,1042,1043,1045,1051,1042,1076,1056,1044,1057,1071,1049,1069,1049,1045,1069,1036,1056,1051,1053,1063,1060,1049,1037,1030,65,65,65,65,81,81,90,99,108,117,125,124,122,121,118,116,115,113,111,110,107,105,104,102,101,99,96,95,93,91,90,88,86,84,82,81,81,81,49,48,48,49,48,49,48,48,46,48,48,49,46,48,55,54,48,46,50,48,48,48,49,49,46,48,46,762,765,765,768,773,1067,1219,1352,1472,1526,1527,1503,1473,1454,1423,1402,1378,1354,1335,1305,1281,1262,1234,1208,1183,1159,1135,1111,1081,1056,1033,1017,857,798,781,774,780,734,727,716,722,742,750,737,753,743,771,750,738,750,761,745,767,745,733,767,735,753,749,748,762,753,746,737,730,352,353,355,356,357,466,526,587,647,700,712,701,690,679,667,656,645,634,622,611,600,589,578,566,555,559,533,521,510,499,488,477,465,454,362,358,359,360,342,338,341,342,341,342,340,341,339,341,341,342,339,341,348,347,341,339,343,341,341,341,342,342,339,341,339,1293,1297,1302,1323,1441,1976,2288,2445,2516,2542,2525,2530,2511,2409,2368,2320,2289,2249,2210,2167,2126,2084,2042,2001,1960,1909,1861,1773,1667,1430,1413,1391,1354,1327,1314,1312,1290,1242,1239,1225,1240,1233,1237,1246,1244,1238,1247,1252,1257,1259,1262,1261,1259,1257,1260,1259,1259,1264,1275,1283,1263,1266,1290,1306,1280,765,762,770,763,778,910,1182,1380,1485,1525,1537,1518,1492,1448,1425,1399,1375,1354,1329,1307,1283,1256,1232,1208,1182,1157,1135,1119,1085,953,932,909,849,798,781,770,775,751,740,740,752,757,756,755,749,755,755,763,759,755,765,767,779,764,782,767,754,775,756,759,757,767,764,761,758,842,845,846,847,858,1201,1380,1514,1631,1682,1681,1655,1623,1600,1567,1544,1518,1491,1469,1437,1411,1390,1359,1331,1304,1277,1251,1223,1196,1170,1103,1010,891,874,862,855,864,818,810,807,815,833,855,837,830,831,865,836,832,848,851,837,854,837,824,850,823,843,839,840,850,845,840,822,815,726,738,733,736,749,970,1167,1294,1426,1473,1464,1439,1424,1400,1375,1350,1327,1304,1288,1266,1242,1197,1179,1169,1133,1123,1101,1076,1001,1014,941,913,802,765,751,747,743,655,647,637,641,669,678,657,672,662,698,670,660,672,682,662,687,668,655,692,654,675,674,672,686,676,670,663,656,404,405,406,407,410,541,613,685,757,810,821,808,795,782,768,755,742,729,716,702,689,677,664,651,638,624,611,598,585,572,558,545,532,519,414,436,437,438,398,397,397,398,397,398,397,397,395,397,397,398,395,397,404,403,397,395,399,397,397,397,398,398,395,397,395,1035,1037,1040,1044,1091,1541,1782,2066,2169,2208,2190,2139,2105,2074,2034,1994,1953,1918,1877,1838,1800,1751,1720,1683,1643,1604,1563,1525,1487,1447,1230,1141,1107,1090,1062,1052,1061,1067,1030,1030,1041,1057,1041,1034,1050,1061,1044,1042,1045,1042,1046,1050,1058,1059,1061,1048,1054,1053,1085,1076,1055,1096,1077,1079,1077,734,737,732,741,767,1031,1166,1291,1408,1478,1452,1428,1404,1398,1358,1335,1303,1326,1302,1299,1230,1228,1177,1174,1126,1107,1080,1076,1046,1004,818,799,769,751,758,761,773,778,741,741,741,742,737,737,736,736,734,736,736,737,734,736,743,742,736,734,738,736,736,736,737,737,734,736,734,646,645,647,652,671,868,984,1105,1246,1291,1291,1300,1250,1229,1222,1188,1183,1174,1131,1104,1085,1069,1054,1023,1003,986,961,940,919,899,878,867,836,668,669,652,657,656,632,642,643,648,646,641,641,647,640,639,641,647,645,645,645,650,650,651,650,652,649,654,653,659,656,662,662,1298,1296,1295,1352,1580,1863,2250,2369,2494,2529,2517,2487,2433,2391,2349,2324,2274,2241,2178,2161,2136,2078,2058,2013,1978,1922,1890,1813,1660,1456,1429,1421,1346,1320,1313,1324,1263,1266,1238,1245,1250,1249,1258,1257,1269,1262,1255,1261,1262,1274,1264,1259,1258,1265,1263,1267,1272,1268,1264,1266,1264,1263,1264,1265,1265,853,855,855,860,932,1094,1359,1474,1610,1661,1657,1632,1624,1565,1555,1538,1507,1497,1456,1443,1416,1384,1367,1333,1320,1259,1262,1232,1186,1176,1072,995,900,865,873,880,853,819,791,796,792,797,809,807,823,814,807,813,814,826,816,811,810,817,815,819,824,820,816,818,816,815,816,817,817,1556,1561,1598,1675,2067,2416,2870,2942,3078,3091,3062,3038,2955,2908,2876,2830,2776,2729,2680,2617,2594,2543,2479,2282,2260,1917,1900,1834,1815,1738,1742,1639,1612,1585,1593,1580,1555,1555,1532,1539,1530,1545,1552,1553,1564,1555,1551,1554,1558,1570,1560,1555,1554,1561,1559,1563,1566,1561,1560,1557,1558,1556,1557,1558,1558,214,215,216,216,216,271,308,343,377,412,434,427,420,413,407,400,393,386,379,372,366,359,352,345,338,332,325,317,311,304,298,291,283,277,270,266,266,267,185,185,186,186,186,186,186,188,187,189,189,189,190,190,190,191,191,191,193,194,194,195,195,195,195,194,194,820,823,851,861,882,1114,1268,1406,1500,1545,1537,1513,1488,1552,1527,1415,1388,1449,1342,1317,1290,1268,1323,1225,1194,1170,1218,1116,1102,1140,1037,1017,955,797,778,779,788,786,797,806,790,838,822,806,809,833,807,806,810,816,819,808,800,806,810,816,806,808,804,809,797,810,811,810,788,1507,1505,1527,1603,2028,2458,2875,2985,3039,3062,3055,2977,2934,2866,2836,2785,2722,2686,2648,2580,2531,2480,2409,2373,2293,2096,2064,1781,1756,1688,1668,1589,1563,1543,1480,1468,1477,1457,1450,1455,1466,1473,1464,1488,1480,1476,1469,1474,1471,1474,1477,1488,1497,1506,1485,1490,1486,1507,1500,1483,1489,1493,1489,1499,1494,462,463,465,466,476,603,682,761,839,911,929,923,900,885,880,856,841,835,812,804,783,767,760,739,723,709,701,679,665,651,635,613,597,508,473,468,470,438,414,416,410,413,420,420,435,430,418,422,423,437,426,419,420,429,425,427,430,428,424,428,425,428,430,432,432,853,832,858,861,889,1171,1353,1493,1634,1690,1686,1644,1669,1587,1577,1554,1511,1509,1470,1426,1401,1380,1362,1336,1307,1273,1271,1200,1180,1057,1029,1005,922,866,861,845,867,828,804,801,798,802,810,811,831,818,806,816,812,827,812,807,809,820,817,814,816,813,811,817,815,817,825,825,825,441,442,444,445,451,517,647,724,797,868,889,876,862,846,833,819,805,791,777,763,750,734,720,707,693,678,665,651,636,623,582,568,556,524,488,447,448,447,396,401,399,402,430,425,413,436,422,433,436,416,452,409,412,430,419,410,438,416,416,417,417,417,417,416,416,1528,1544,1544,1631,2185,2654,2889,3036,3145,3140,3119,3053,3046,2950,2914,2837,2781,2737,2680,2657,2556,2504,2454,2300,2243,1883,1837,1791,1747,1690,1692,1655,1626,1564,1573,1555,1566,1586,1580,1576,1614,1606,1598,1605,1609,1631,1622,1626,1628,1642,1611,1609,1625,1632,1628,1629,1631,1629,1626,1630,1627,1629,1632,1633,1633,667,693,689,700,698,753,1049,1192,1287,1356,1357,1317,1338,1274,1253,1248,1242,1230,1164,1184,1154,1131,1111,1061,1067,1046,1030,1010,988,867,944,849,721,717,716,700,678,692,693,690,693,700,702,703,705,703,703,711,706,708,711,722,724,719,724,720,715,724,719,711,726,720,719,727,717,936,938,939,946,1038,1233,1526,1648,1790,1835,1832,1802,1777,1735,1715,1696,1664,1642,1606,1577,1552,1522,1502,1465,1449,1384,1387,1353,1302,1290,1164,1084,984,947,970,955,944,916,885,891,887,895,899,900,912,902,895,901,902,914,904,899,898,905,903,907,912,908,904,906,904,903,904,905,905,1211,1222,1220,1247,1405,1688,2077,2221,2335,2375,2372,2326,2309,2250,2211,2174,2142,2115,2064,2052,1997,1959,1928,1883,1862,1801,1726,1633,1583,1433,1332,1341,1280,1231,1241,1222,1159,1167,1134,1141,1146,1145,1154,1156,1165,1158,1151,1157,1158,1170,1160,1155,1154,1161,1159,1163,1168,1164,1160,1162,1160,1159,1160,1161,1161,1369,1383,1388,1454,1826,2253,2610,2718,2793,2844,2813,2743,2714,2664,2614,2587,2544,2484,2445,2379,2339,2291,2245,2187,2139,2089,2041,1860,1723,1556,1539,1460,1431,1420,1404,1402,1410,1397,1377,1367,1371,1411,1387,1402,1399,1406,1401,1427,1401,1404,1410,1417,1432,1422,1433,1422,1433,1416,1418,1417,1426,1459,1416,1429,1423,513,522,516,517,525,689,779,871,931,982,988,973,957,995,979,910,918,921,863,848,832,816,839,806,770,753,738,762,745,709,675,677,675,528,516,498,513,515,512,517,520,518,514,521,535,518,515,534,585,535,535,528,528,588,531,534,521,531,587,532,531,524,526,586,583,0,0,0,0,0,0,0,0,0,0,0,0,0,0,0,0,0,0,0,0,0,0,0,0,0,0,0,0,0,0,0,0,0,0,0,0,0,0,0,0,0,0,0,0,0,0,0,0,0,0,0,0,0,0,0,0,0,0,0,0,0,0,0,0,0,1135,1122,1132,1154,1305,1557,1840,1987,2084,2146,2106,2097,2074,2030,2046,2001,1966,1938,1874,1873,1840,1839,1775,1780,1723,1691,1622,1601,1517,1426,1332,1224,1195,1171,1174,1161,1143,1156,1140,1141,1149,1151,1164,1163,1166,1168,1161,1167,1168,1164,1170,1165,1164,1171,1169,1173,1178,1172,1168,1172,1170,1169,1170,1171,1171,532,573,576,578,547,589,808,991,1092,1168,1139,1056,1103,1021,1005,1079,1060,1041,937,957,931,913,897,851,862,845,865,817,799,817,764,684,664,605,593,592,593,594,576,583,588,589,591,592,584,591,582,598,595,594,595,596,598,602,598,598,601,598,598,600,603,636,594,601,595,809,812,815,817,863,1002,1286,1436,1548,1620,1618,1587,1564,1539,1509,1485,1463,1444,1410,1384,1358,1333,1304,1283,1267,1221,1196,1164,1146,1046,1016,911,859,839,825,824,823,768,741,744,744,750,757,756,774,755,756,759,758,771,765,761,761,765,763,766,772,772,762,764,765,760,763,764,764,1150,1136,1151,1158,1361,1545,1960,2107,2208,2262,2250,2192,2181,2139,2103,2063,2035,2005,1960,1908,1886,1852,1811,1776,1759,1708,1667,1605,1540,1309,1300,1240,1196,1170,1162,1160,1152,1109,1080,1087,1089,1096,1097,1108,1116,1103,1104,1112,1109,1123,1115,1107,1108,1111,1115,1112,1115,1113,1107,1112,1112,1111,1110,1111,1111,378,378,379,442,443,470,529,590,649,701,712,701,690,719,685,657,662,635,624,612,601,590,579,568,557,546,535,524,513,502,491,480,469,374,375,361,362,360,342,342,350,357,346,350,347,350,352,348,350,349,348,349,349,353,352,354,351,352,352,352,355,356,362,360,354,853,856,859,869,892,1068,1365,1524,1633,1704,1699,1668,1643,1616,1586,1561,1536,1517,1481,1455,1427,1401,1371,1349,1331,1285,1257,1225,1144,1104,1073,926,903,883,869,874,868,810,784,786,783,796,804,800,818,804,799,806,803,816,805,803,806,807,804,810,814,810,805,807,811,804,807,808,808,426,442,429,430,432,566,628,689,751,811,830,824,807,795,784,772,760,754,737,724,713,707,689,683,668,655,640,628,620,608,587,574,561,495,484,432,433,434,422,423,417,423,428,438,424,430,431,435,425,431,423,428,430,420,430,432,431,430,427,429,437,523,438,448,435,1431,1416,1439,1532,1751,2157,2537,2631,2749,2791,2756,2735,2673,2629,2602,2535,2491,2451,2405,2367,2330,2301,2254,2221,2163,2119,2018,1659,1612,1638,1579,1556,1502,1466,1469,1460,1403,1411,1379,1398,1389,1391,1405,1407,1414,1411,1404,1410,1410,1422,1412,1407,1405,1411,1412,1415,1417,1414,1410,1412,1411,1413,1414,1415,1415,1018,1027,1024,1054,1121,1457,1767,1900,1967,2035,2040,1998,1975,1918,1896,1867,1826,1795,1785,1732,1690,1683,1636,1596,1588,1549,1507,1432,1341,1309,1151,1108,1062,1062,1052,1039,1034,1018,1004,1011,1012,1008,1043,1038,1037,1032,1035,1047,1023,1010,1025,1031,1031,1026,1039,1038,1020,1017,1030,1031,1018,1031,1034,1037,1037,922,897,923,931,945,1195,1487,1618,1760,1817,1832,1785,1788,1728,1727,1688,1624,1621,1572,1525,1499,1501,1456,1451,1403,1361,1365,1290,1242,1116,1031,1027,1013,927,947,906,939,882,857,860,862,861,873,874,895,880,873,880,881,908,895,891,893,885,878,888,897,891,883,888,888,885,887,888,888,830,832,835,833,884,1034,1328,1436,1585,1616,1625,1624,1600,1551,1543,1499,1497,1469,1423,1416,1383,1355,1329,1303,1292,1224,1204,1155,1093,1104,1075,922,882,865,849,851,795,731,704,707,702,723,726,720,734,723,726,726,725,738,726,720,723,730,726,735,733,732,730,731,736,727,730,731,731,289,290,291,292,293,369,420,468,517,567,591,583,573,563,554,544,535,525,515,507,497,488,478,468,459,449,441,431,421,412,402,393,383,306,298,294,295,296,267,266,269,270,270,270,269,269,271,273,272,272,274,281,291,303,281,277,276,279,277,279,278,280,280,280,280,1302,1306,1320,1367,1686,2111,2473,2618,2657,2686,2686,2614,2587,2525,2490,2442,2387,2363,2327,2264,2221,2177,2106,2079,2039,1991,1937,1814,1711,1476,1461,1383,1356,1336,1335,1337,1345,1327,1320,1325,1336,1343,1333,1354,1346,1345,1336,1342,1339,1342,1346,1358,1362,1374,1354,1361,1353,1376,1370,1356,1363,1367,1363,1373,1368,646,645,647,652,671,868,984,1105,1246,1291,1291,1300,1250,1229,1222,1188,1183,1174,1131,1104,1085,1069,1054,1023,1003,986,961,940,919,899,878,867,836,668,669,652,657,656,632,642,643,648,646,641,641,647,640,639,641,647,645,645,645,650,650,651,650,652,649,654,653,659,656,662,662,793,795,809,824,844,1146,1304,1417,1522,1561,1558,1574,1556,1542,1468,1444,1464,1427,1370,1360,1320,1311,1284,1211,1250,1213,1138,1172,1126,1098,986,885,880,814,807,810,824,786,779,780,785,787,797,782,790,799,793,793,786,786,791,787,798,803,803,803,803,803,799,796,803,794,799,799,793,649,635,636,638,676,857,977,1082,1203,1250,1251,1232,1208,1149,1129,1150,1130,1111,1095,1085,1059,1039,1021,1000,981,962,943,917,907,883,785,838,828,659,645,635,622,644,616,619,623,640,640,633,629,639,636,640,640,640,640,640,640,640,640,640,640,640,640,635,640,640,640,640,640,405,405,407,409,430,512,598,652,701,742,754,753,735,776,717,707,698,688,678,669,660,651,653,632,622,610,599,587,576,564,522,513,483,423,413,411,430,411,406,407,408,411,415,414,414,416,415,422,414,421,430,430,430,430,416,412,421,424,420,418,421,424,416,417,415,707,710,711,713,747,986,1113,1281,1404,1420,1453,1395,1357,1335,1327,1304,1282,1259,1236,1213,1191,1168,1145,1121,1089,1084,1054,1039,1009,986,964,850,830,741,712,717,720,706,714,707,715,704,720,708,724,713,721,715,710,719,720,722,724,723,722,738,721,738,722,724,720,738,728,738,726,1054,1058,1060,1074,1106,1412,1666,1902,1971,1988,1969,1940,1919,1887,1854,1832,1797,1770,1740,1711,1687,1653,1625,1596,1568,1539,1509,1438,1280,1245,1142,1151,1095,1086,1072,1069,1062,1064,1047,1037,1027,1034,1052,1044,1048,1068,1042,1064,1054,1066,1058,1071,1067,1071,1071,1064,1057,1068,1070,1071,1065,1071,1053,1061,1055,851,852,854,858,868,1154,1353,1479,1579,1626,1580,1571,1548,1512,1490,1468,1445,1423,1400,1378,1355,1334,1360,1301,1266,1243,1229,1156,1175,1153,993,967,888,886,864,860,864,865,833,831,823,841,829,844,836,859,841,863,879,869,862,836,855,859,865,859,836,862,832,857,832,827,859,833,832,657,653,662,664,669,900,1016,1164,1303,1321,1369,1300,1279,1258,1236,1216,1194,1173,1152,1131,1109,1089,1067,1045,1014,1004,972,968,941,920,851,743,725,722,664,660,669,594,595,595,589,593,592,592,598,594,600,594,597,596,602,595,602,598,602,618,599,599,598,609,611,613,597,614,595,810,812,813,822,826,1025,1215,1404,1483,1510,1500,1478,1457,1435,1416,1395,1372,1353,1331,1309,1294,1266,1246,1225,1203,1183,1160,1139,1078,1036,932,897,879,831,823,820,787,764,738,717,727,739,747,760,750,760,753,762,762,762,761,758,762,762,762,749,760,762,761,760,762,758,756,762,759,787,789,791,794,828,1107,1281,1422,1524,1559,1556,1534,1544,1530,1459,1435,1438,1387,1360,1335,1311,1285,1262,1237,1212,1224,1162,1138,1137,1092,1048,869,853,818,803,818,794,757,750,737,740,743,738,751,744,765,750,746,761,741,744,744,743,747,747,746,746,747,745,744,744,747,745,751,747,1045,1046,1039,1055,1177,1412,1642,1878,1954,1909,1892,1915,1890,1821,1837,1750,1721,1752,1673,1694,1668,1586,1559,1581,1542,1523,1493,1339,1233,1328,1096,1156,1106,1070,1029,1026,1041,1023,1002,981,993,1000,1016,1026,1015,1025,1019,1026,1026,1026,1026,1026,1026,1026,1026,1020,1026,1026,1026,1026,1026,1026,1026,1026,1026,907,909,929,935,1011,1308,1472,1686,1833,1841,1839,1806,1777,1748,1716,1688,1656,1628,1571,1569,1513,1485,1479,1449,1425,1369,1340,1337,1283,1264,1186,1075,979,986,940,936,923,919,911,910,914,923,928,928,921,925,935,932,935,935,934,935,935,935,935,935,935,935,935,935,935,935,932,935,935,1586,1618,1656,1773,2034,2483,2810,2990,3033,3043,2948,2928,2854,2898,2796,2780,2737,2677,2648,2599,2522,2331,1971,2259,2028,1983,1960,1917,1823,1755,1758,1744,1679,1667,1620,1635,1646,1661,1610,1602,1621,1619,1617,1649,1633,1637,1636,1648,1668,1660,1663,1643,1672,1674,1669,1652,1653,1667,1650,1674,1634,1654,1661,1642,1641,446,454,454,455,475,597,665,735,820,871,872,860,872,886,822,809,796,781,769,756,742,729,715,702,689,695,662,652,660,626,614,601,588,473,498,459,454,445,440,404,407,410,405,418,411,450,417,413,443,408,411,411,410,414,414,413,413,414,412,411,411,414,412,418,414,576,570,580,574,600,718,889,983,1075,1136,1150,1109,1089,1036,1014,1036,1030,1021,984,973,949,931,915,897,880,862,844,828,812,793,611,757,723,592,580,576,557,567,543,539,550,567,546,560,548,564,546,557,567,547,549,555,551,562,563,552,553,553,559,561,551,551,546,567,550,653,675,681,657,725,917,1075,1254,1423,1329,1354,1324,1336,1314,1361,1224,1203,1182,1161,1183,1162,1181,1115,1070,1095,1037,1031,1009,988,932,921,737,719,702,672,674,686,678,685,672,673,682,676,684,687,685,698,684,687,700,707,685,692,709,706,688,702,695,685,706,699,709,708,709,702,1022,1018,1021,1025,1058,1339,1672,1811,1885,1953,1912,1879,1830,1823,1796,1747,1741,1695,1686,1657,1630,1602,1575,1538,1510,1475,1480,1436,1409,1130,1095,1108,1062,1085,1038,1023,1026,1029,997,992,995,999,995,1018,1003,1008,1014,1023,1033,1022,1018,1009,1031,1041,1046,1017,1015,1036,1020,1034,1010,1017,1035,1016,1015,1055,1046,1048,1051,1099,1403,1656,1892,1952,1980,1960,1936,1910,1874,1831,1823,1788,1766,1723,1704,1679,1645,1609,1588,1559,1524,1508,1485,1395,1199,1157,1144,1112,1089,1067,1062,1045,1047,1030,1014,1010,1017,1035,1028,1031,1051,1025,1045,1037,1049,1041,1049,1050,1054,1054,1039,1044,1049,1052,1054,1043,1054,1036,1043,1038,0,0,0,0,0,0,0,0,0,0,0,0,0,0,0,0,0,0,0,0,0,0,0,0,0,0,0,0,0,0,0,0,0,0,0,0,0,0,0,0,0,0,0,0,0,0,0,0,0,0,0,0,0,0,0,0,0,0,0,0,0,0,0,0,0,1476,1499,1520,1593,1839,2263,2595,2733,2780,2814,2752,2732,2662,2672,2605,2557,2521,2473,2434,2389,2347,2200,1840,2176,2185,1946,1805,1803,1718,1629,1619,1630,1557,1558,1494,1509,1519,1532,1500,1496,1502,1497,1499,1532,1505,1511,1508,1519,1536,1535,1537,1517,1544,1546,1543,1524,1524,1541,1521,1554,1506,1526,1534,1515,1514,673,676,678,681,718,922,1078,1195,1297,1339,1338,1320,1334,1323,1254,1233,1251,1192,1170,1148,1128,1106,1085,1063,1042,1058,1000,979,982,903,868,835,821,702,689,705,687,644,636,636,643,646,649,645,645,649,652,654,643,645,646,646,651,658,658,657,657,656,649,646,654,647,651,650,644,924,945,948,962,998,1380,1540,1694,1814,1824,1805,1821,1816,1779,1709,1667,1640,1654,1609,1589,1555,1503,1496,1456,1455,1426,1368,1320,1266,1215,1192,1094,979,970,958,966,958,935,935,903,906,909,904,917,910,948,916,912,942,907,910,910,909,913,913,912,912,913,911,910,910,913,911,917,913,1035,1034,1031,1043,1069,1364,1676,1829,1908,1958,1916,1884,1856,1828,1800,1777,1745,1739,1690,1662,1634,1607,1579,1552,1524,1512,1444,1416,1369,1216,1110,1161,1081,1089,1041,1039,1041,1043,1004,996,993,998,1005,1024,998,1012,1007,1020,1040,1028,1031,1012,1042,1041,1040,1022,1017,1034,1022,1042,1015,1018,1035,1016,1015,682,684,686,688,701,957,1067,1188,1287,1345,1347,1328,1339,1327,1266,1245,1225,1208,1184,1164,1139,1123,1102,1075,1054,1061,1012,991,960,940,889,836,724,707,722,705,705,678,665,639,642,645,640,653,646,681,652,648,678,643,646,646,645,649,649,648,648,649,647,646,646,649,647,653,649,858,861,862,865,878,1098,1299,1526,1580,1604,1599,1569,1546,1526,1501,1479,1456,1434,1411,1389,1371,1343,1321,1299,1275,1252,1229,1207,1146,1042,1021,1008,896,879,871,869,871,873,856,846,836,843,861,866,857,877,851,873,863,875,867,880,876,880,880,873,870,877,880,880,874,880,862,870,864,606,608,609,611,624,827,944,1032,1056,1102,1112,1096,1080,1064,1071,1034,1018,1002,986,971,961,940,924,916,893,877,862,847,830,815,799,692,678,615,618,613,623,616,602,602,606,604,609,614,606,611,611,616,615,611,616,616,616,616,616,616,616,616,616,616,616,616,616,616,616,305,305,306,306,306,390,416,444,470,526,502,497,491,486,481,476,470,465,460,455,449,445,440,434,429,424,419,413,408,403,398,437,387,382,308,306,307,307,295,290,286,282,283,306,289,293,294,306,319,307,312,293,319,319,319,294,295,319,297,319,297,289,319,294,293,751,763,748,761,765,1053,1174,1344,1411,1468,1466,1452,1446,1459,1391,1356,1335,1363,1289,1269,1259,1222,1193,1189,1158,1152,1101,1088,1078,1041,1019,924,787,776,757,767,756,751,747,710,713,716,711,724,717,756,723,719,749,714,717,717,716,720,720,719,719,720,718,717,717,720,718,724,720,554,556,558,559,588,760,864,961,1052,1099,1102,1089,1106,1100,1033,1015,1037,982,964,946,930,913,894,877,859,880,825,809,814,774,757,692,707,577,566,583,564,532,526,523,529,533,536,530,532,536,537,537,530,529,533,530,537,545,545,544,544,545,537,534,541,532,537,538,532,971,969,973,971,1032,1278,1497,1730,1799,1816,1807,1774,1756,1721,1696,1668,1643,1623,1591,1575,1554,1512,1484,1460,1431,1408,1380,1333,1293,1157,1045,1045,1002,984,978,976,969,971,954,933,934,941,959,948,955,975,949,971,961,973,965,972,974,978,978,960,966,975,978,978,972,978,960,968,962,454,455,457,458,462,614,697,778,889,914,984,906,891,876,862,847,832,817,803,788,773,759,744,729,715,699,685,671,655,641,625,611,597,525,465,460,462,463,463,463,459,461,463,462,466,463,466,463,464,464,468,465,469,468,469,487,467,469,467,487,487,487,469,487,469,793,795,809,824,844,1146,1304,1417,1522,1561,1558,1574,1556,1542,1468,1444,1464,1427,1370,1360,1320,1311,1284,1211,1250,1213,1138,1172,1126,1098,986,885,880,814,807,810,824,786,779,780,785,787,797,782,790,799,793,793,786,786,791,787,798,803,803,803,803,803,799,796,803,794,799,799,793,1018,1022,1069,1029,1067,1439,1746,1934,2032,2040,2030,1952,1964,1914,1872,1874,1822,1783,1772,1739,1694,1635,1644,1603,1610,1508,1517,1471,1347,1130,1232,1078,1083,1064,1050,1046,1050,1014,1054,1050,1050,1055,1054,1067,1057,1064,1064,1062,1059,1055,1050,1055,1059,1047,1060,1061,1060,1061,1052,1056,1065,1065,1067,1066,1060,1667,1656,1733,1847,2058,2658,3031,3172,3183,3193,3162,3093,3063,3033,2944,2928,2868,2837,2777,2737,2685,2528,2316,2068,2066,1982,2009,1918,1890,1800,1817,1723,1715,1695,1700,1630,1630,1614,1613,1612,1611,1611,1612,1616,1617,1617,1619,1640,1650,1639,1625,1620,1614,1622,1619,1616,1615,1622,1616,1615,1617,1620,1615,1621,1616,1226,1219,1234,1242,1371,1784,2177,2304,2342,2367,2350,2304,2269,2267,2200,2194,2151,2124,2057,2026,2011,1950,1925,1875,1894,1800,1761,1717,1608,1332,1430,1303,1265,1255,1267,1237,1196,1173,1195,1197,1199,1205,1204,1209,1205,1209,1211,1209,1218,1208,1212,1211,1207,1212,1211,1211,1211,1216,1211,1211,1208,1212,1207,1213,1208,1307,1309,1334,1537,2142,2532,3105,3295,3396,3292,3245,3300,3106,3137,3063,2988,2921,2875,2679,2693,2612,2629,2465,2398,2317,2250,2176,2014,1927,1862,1634,1479,1391,1388,1387,1341,1397,1432,1501,1473,1481,1481,1495,1509,1494,1503,1497,1512,1534,1518,1525,1535,1540,1544,1537,1539,1527,1546,1527,1515,1521,1552,1530,1550,1521,629,624,633,639,630,823,975,1041,1138,1185,1206,1186,1167,1206,1129,1164,1131,1110,1051,1018,1062,994,975,979,998,941,944,925,884,849,889,678,673,617,628,643,639,567,597,593,588,595,599,612,598,611,614,610,601,600,595,600,600,588,600,604,602,606,593,598,604,604,599,601,595,969,971,969,966,1066,1368,1667,1854,1856,1933,1928,1896,1895,1852,1801,1756,1706,1747,1702,1644,1619,1575,1547,1516,1507,1458,1417,1384,1343,1298,1175,1167,1018,1020,980,963,1003,1000,1014,1008,1009,1017,1008,1003,1007,1022,999,996,1004,1015,1017,1014,1014,1015,1009,1020,1018,1021,1011,1015,1006,1026,1023,1024,1014,1290,1260,1280,1409,1974,2493,2905,3139,3240,3248,3199,3151,3056,2985,2913,2843,2878,2704,2629,2557,2486,2498,2343,2271,2200,2128,2057,2028,1962,1766,1462,1391,1340,1304,1298,1313,1309,1325,1415,1407,1416,1439,1425,1434,1429,1424,1429,1505,1436,1419,1445,1499,1458,1444,1479,1438,1414,1447,1423,1419,1423,1549,1430,1498,1421,835,840,876,844,857,1143,1375,1554,1629,1682,1633,1614,1581,1584,1530,1536,1499,1468,1457,1414,1400,1356,1363,1326,1351,1244,1236,1214,1192,1058,1134,891,896,887,862,859,815,796,815,815,815,816,817,821,820,820,821,819,829,818,822,821,819,822,821,821,821,826,821,821,820,826,821,827,822,1224,1253,1258,1254,1311,1779,2194,2334,2409,2415,2374,2356,2318,2271,2216,2195,2153,2122,2105,2054,2019,1977,1938,1928,1894,1829,1783,1713,1654,1361,1370,1289,1272,1263,1249,1253,1205,1186,1200,1203,1204,1206,1208,1217,1209,1208,1215,1208,1219,1204,1210,1210,1210,1214,1208,1208,1207,1213,1210,1211,1210,1221,1215,1221,1216,820,852,854,857,855,1050,1391,1497,1573,1575,1626,1601,1543,1625,1522,1550,1523,1448,1418,1383,1407,1353,1318,1327,1312,1276,1270,1244,1147,1132,1130,857,848,817,805,874,826,778,811,806,804,839,831,848,840,848,847,847,853,823,817,835,832,812,843,825,824,828,815,820,826,826,821,823,817,1160,1161,1170,1267,1786,2233,2657,2900,3009,3022,2979,2935,2846,2779,2712,2646,2688,2517,2446,2411,2312,2330,2179,2113,2046,1978,1912,1873,1801,1733,1640,1291,1241,1203,1201,1189,1205,1220,1285,1287,1249,1243,1285,1269,1279,1285,1282,1287,1468,1289,1297,1311,1307,1314,1289,1314,1549,1546,1590,1471,1306,1313,1536,1299,1304,135,135,136,136,137,215,243,270,298,326,273,269,265,261,257,253,248,244,239,235,232,227,223,218,214,210,205,201,198,193,189,184,180,176,171,137,169,169,126,126,127,129,131,129,128,136,127,133,133,188,128,129,132,133,129,131,132,171,132,128,129,131,129,127,128,1306,1303,1322,1341,1532,1994,2353,2478,2513,2537,2511,2469,2429,2425,2354,2345,2299,2261,2198,2180,2149,2082,2055,1994,2007,1922,1879,1831,1718,1419,1518,1374,1345,1339,1328,1329,1293,1267,1290,1292,1297,1295,1297,1298,1293,1297,1300,1298,1306,1296,1302,1299,1295,1300,1301,1304,1302,1306,1299,1300,1296,1300,1295,1301,1296,1592,1579,1625,1707,1920,2498,2882,3027,3033,3054,3030,2950,2921,2881,2818,2803,2749,2722,2643,2608,2575,2289,2292,2065,2217,1918,2046,1870,1795,1718,1735,1667,1626,1607,1597,1526,1526,1510,1509,1508,1507,1507,1508,1512,1513,1513,1515,1536,1546,1535,1521,1516,1510,1518,1515,1512,1511,1518,1512,1511,1513,1516,1511,1517,1512,1407,1411,1494,1571,2185,2591,3087,3179,3210,3215,3177,3124,3068,3040,2959,2960,2865,2824,2770,2744,2669,2624,2521,2473,2372,2315,2228,2056,1901,1840,1606,1516,1504,1448,1425,1419,1471,1500,1549,1551,1562,1586,1568,1572,1582,1565,1570,1600,1587,1594,1618,1636,1614,1589,1622,1638,1556,1591,1575,1560,1579,1613,1570,1614,1561,685,700,694,667,723,937,1117,1248,1303,1406,1375,1333,1336,1364,1314,1236,1247,1264,1200,1182,1129,1130,1146,1075,1135,1049,1037,1004,998,949,1003,911,734,749,696,679,720,705,712,704,705,714,707,717,711,718,719,716,727,711,720,712,717,724,719,712,719,724,714,713,718,724,719,725,720,531,533,570,572,529,706,801,954,986,1079,1084,1025,1008,1019,975,989,969,954,908,892,902,859,875,826,907,792,820,824,770,726,696,655,553,640,527,554,537,526,542,538,546,540,546,550,549,549,548,548,557,547,549,550,548,555,550,550,550,552,550,550,546,552,550,556,549,1391,1401,1431,1534,1592,2043,2422,2643,2597,2621,2602,2563,2569,2543,2479,2472,2422,2388,2311,2313,2271,2270,2208,2116,2132,2035,2025,1914,1744,1551,1551,1476,1461,1427,1418,1390,1391,1385,1416,1394,1413,1409,1404,1417,1415,1420,1421,1414,1425,1410,1433,1428,1428,1426,1419,1425,1420,1432,1423,1429,1433,1451,1425,1427,1421,0,0,0,0,0,0,0,0,0,0,0,0,0,0,0,0,0,0,0,0,0,0,0,0,0,0,0,0,0,0,0,0,0,0,0,0,0,0,0,0,0,0,0,0,0,0,0,0,0,0,0,0,0,0,0,0,0,0,0,0,0,0,0,0,0,1188,1177,1195,1241,1338,1754,2116,2247,2296,2318,2290,2260,2223,2209,2155,2151,2107,2072,2011,1981,1962,1897,1884,1828,1857,1750,1724,1680,1491,1307,1366,1249,1229,1219,1216,1208,1145,1123,1143,1149,1152,1153,1153,1160,1146,1158,1158,1154,1163,1157,1164,1162,1155,1160,1160,1164,1166,1164,1157,1161,1153,1159,1154,1160,1155,1219,1250,1235,1293,1760,2161,2554,2800,2924,2929,2905,2853,2794,2730,2718,2610,2657,2489,2442,2383,2323,2334,2219,2127,2066,2006,1947,1815,1790,1702,1395,1577,1337,1262,1239,1242,1254,1321,1319,1325,1326,1331,1333,1343,1345,1355,1354,1356,1369,1348,1356,1364,1367,1372,1378,1373,1378,1378,1388,1379,1393,1385,1501,1507,1502,574,571,558,573,569,674,873,1017,1071,1135,1104,1088,1070,1099,1053,1019,1044,993,979,965,936,926,920,884,898,845,848,810,797,788,736,699,705,668,559,568,590,558,559,562,563,562,563,567,566,566,567,565,575,564,568,567,565,572,567,567,567,572,567,567,566,572,567,573,568,1232,1219,1243,1257,1404,1833,2201,2331,2379,2398,2369,2338,2300,2285,2228,2224,2178,2143,2081,2049,2029,1963,1949,1892,1919,1812,1746,1712,1590,1353,1408,1293,1274,1263,1261,1252,1187,1166,1185,1188,1198,1200,1197,1204,1195,1201,1205,1199,1208,1197,1206,1207,1197,1201,1204,1206,1204,1207,1200,1207,1197,1203,1198,1204,1199,646,648,649,650,657,857,1038,1152,1215,1261,1357,1243,1223,1230,1182,1194,1169,1150,1102,1116,1089,1042,1054,1002,1036,962,964,944,928,882,908,841,765,667,643,655,654,643,635,635,636,635,636,640,639,639,640,638,648,637,641,640,638,645,640,640,640,645,640,640,639,645,640,646,641,1513,1489,1540,1710,2164,2906,3286,3414,3420,3429,3397,3341,3284,3246,3162,3154,3090,3052,2958,2893,2808,2727,2632,2315,2320,2158,2219,2155,2077,1749,1686,1614,1564,1528,1523,1546,1535,1562,1644,1715,1676,1694,1746,1686,1741,1677,1680,1755,1679,1666,1760,1767,1760,1757,1767,1679,1672,1702,1735,1675,1674,1771,1677,1772,1668,1251,1257,1271,1305,1424,1778,2257,2396,2429,2454,2436,2396,2364,2343,2277,2271,2221,2191,2119,2114,2069,2018,2008,1927,1952,1854,1831,1673,1609,1428,1456,1320,1306,1289,1269,1250,1251,1247,1255,1254,1259,1261,1257,1264,1261,1264,1264,1261,1271,1261,1265,1266,1261,1269,1261,1264,1263,1267,1260,1264,1265,1270,1265,1271,1266,1285,1298,1310,1327,1391,1922,2310,2476,2533,2534,2513,2481,2428,2379,2325,2299,2287,2248,2193,2161,2120,2071,2029,2010,2016,1905,1862,1711,1552,1430,1494,1368,1345,1323,1321,1316,1259,1239,1259,1267,1263,1269,1271,1281,1271,1275,1279,1277,1300,1287,1294,1294,1275,1275,1282,1289,1285,1285,1281,1284,1278,1283,1278,1284,1279,1208,1195,1216,1216,1319,1790,2140,2268,2311,2341,2303,2264,2252,2235,2170,2168,2137,2102,2026,2007,1985,1925,1912,1839,1863,1765,1663,1636,1459,1304,1333,1271,1247,1226,1220,1165,1108,1086,1106,1107,1126,1120,1117,1119,1114,1129,1124,1121,1133,1116,1123,1124,1122,1121,1129,1128,1123,1132,1126,1130,1121,1126,1121,1127,1122,705,709,710,713,740,827,1114,1210,1316,1358,1360,1336,1316,1352,1272,1305,1282,1244,1184,1162,1176,1118,1097,1097,1128,1055,1040,1034,1002,877,907,743,735,702,689,752,688,649,678,676,672,679,683,695,679,695,698,693,684,684,686,737,714,678,686,687,687,689,677,681,689,689,685,685,679,1411,1382,1420,1622,2053,2449,2941,3045,3075,3082,3048,2997,2943,2916,2834,2811,2748,2700,2645,2615,2562,2479,2460,2373,2367,2263,2167,2033,1905,1777,1584,1512,1461,1425,1421,1453,1431,1466,1529,1543,1548,1540,1550,1560,1550,1552,1555,1550,1563,1555,1568,1566,1566,1559,1561,1558,1567,1579,1558,1566,1554,1560,1555,1561,1550,1018,1022,1069,1029,1067,1439,1746,1934,2032,2040,2030,1952,1964,1914,1872,1874,1822,1783,1772,1739,1694,1635,1644,1603,1610,1508,1517,1471,1347,1130,1232,1078,1083,1064,1050,1046,1050,1014,1054,1050,1050,1055,1054,1067,1057,1064,1064,1062,1059,1055,1050,1055,1059,1047,1060,1061,1060,1061,1052,1056,1065,1065,1067,1066,1060,286,281,282,283,312,367,416,465,524,572,585,564,565,556,541,537,518,519,500,501,481,482,472,454,445,444,435,426,408,407,398,381,379,370,319,312,286,287,257,255,254,258,273,267,263,274,261,279,272,272,268,263,265,270,261,262,273,271,264,267,264,273,270,265,262,553,555,557,558,561,764,858,954,1050,1115,1118,1100,1096,1065,1047,1042,1025,994,977,958,941,922,905,886,869,851,833,814,798,779,751,748,619,583,570,563,563,565,545,545,545,545,545,545,545,545,545,545,545,545,545,545,545,545,545,545,545,545,545,545,545,545,545,545,545,363,365,366,367,368,452,532,588,654,704,715,718,678,682,671,661,650,638,637,627,615,594,595,573,574,563,553,531,520,521,510,472,461,427,418,378,379,375,303,303,303,303,303,303,303,303,303,303,303,303,303,303,303,303,303,303,303,303,303,303,303,303,303,303,303,818,828,831,832,883,1173,1306,1481,1584,1644,1679,1628,1586,1574,1533,1508,1494,1482,1428,1402,1376,1350,1324,1317,1296,1270,1218,1211,1167,1140,1124,1076,868,848,848,857,833,835,830,830,830,830,830,830,830,830,830,830,830,830,830,830,830,830,830,830,830,830,830,830,830,830,830,830,830,765,744,759,750,787,899,1140,1362,1451,1483,1480,1470,1433,1419,1386,1377,1346,1324,1292,1268,1252,1227,1203,1180,1150,1148,1103,1080,1056,1032,915,806,816,796,756,760,756,748,734,728,731,739,736,738,740,749,738,740,744,740,742,742,743,744,741,741,746,739,739,738,734,744,737,743,737,716,696,706,742,720,948,1157,1307,1407,1469,1403,1391,1419,1385,1323,1312,1277,1267,1221,1256,1187,1153,1124,1173,1078,1064,1055,1020,1005,892,846,776,738,776,715,746,714,745,727,721,718,722,735,739,738,758,743,751,750,739,752,746,747,753,750,740,744,742,753,753,741,752,756,763,742,848,843,846,855,910,1197,1353,1505,1621,1689,1684,1652,1631,1604,1578,1552,1525,1491,1464,1451,1411,1394,1368,1342,1315,1277,1262,1236,1196,1183,1157,980,891,871,857,865,855,857,856,856,856,856,856,854,856,856,856,856,856,856,856,856,856,856,856,856,856,856,856,856,856,856,856,856,856,399,403,402,406,407,466,585,674,748,801,810,797,784,772,758,745,733,720,707,690,677,668,650,646,634,623,601,589,576,563,556,492,480,438,414,421,409,394,343,347,345,351,354,352,356,351,351,355,358,352,351,351,347,354,352,351,353,347,346,352,349,356,352,357,351,187,187,188,231,231,239,270,301,332,363,378,371,366,360,354,348,343,336,331,324,319,313,306,301,294,289,283,277,271,266,259,254,247,242,236,232,232,233,177,182,180,183,195,183,184,186,181,183,183,187,180,183,182,187,183,182,187,183,184,183,183,188,180,184,181,647,648,650,630,656,796,970,1122,1202,1299,1298,1277,1251,1236,1212,1198,1177,1154,1130,1111,1091,1070,1050,1028,1010,987,966,945,926,907,883,753,737,683,666,626,625,655,604,606,609,622,616,615,622,621,616,619,624,618,618,615,615,624,619,618,618,616,612,616,616,622,618,626,621,1057,1029,1046,1101,1160,1544,1772,1891,2027,2100,2074,2047,1982,1970,1948,1934,1905,1845,1824,1782,1749,1715,1690,1618,1615,1582,1556,1514,1271,1390,1168,1126,1093,1090,1045,1042,1069,1072,1056,1056,1056,1056,1056,1056,1056,1056,1056,1056,1056,1056,1056,1056,1056,1056,1056,1056,1056,1056,1056,1056,1056,1056,1056,1056,1056,1326,1325,1327,1423,1617,1950,2300,2566,2639,2660,2660,2589,2528,2496,2481,2446,2408,2367,2251,2241,2191,2179,2121,2107,2049,1963,1807,1756,1610,1478,1460,1413,1417,1368,1383,1390,1378,1362,1380,1377,1376,1390,1384,1393,1391,1401,1389,1391,1395,1391,1393,1393,1394,1395,1392,1393,1397,1392,1390,1389,1392,1395,1389,1398,1394,264,265,265,266,279,339,377,415,454,492,506,499,531,497,490,469,463,455,447,441,433,426,419,411,404,397,390,382,375,368,360,354,346,338,283,280,281,281,251,251,251,251,251,251,251,251,251,251,251,251,251,251,251,251,251,251,251,251,251,251,251,251,251,251,251,454,467,468,450,455,502,677,761,837,928,915,898,885,858,843,829,816,839,789,774,784,765,761,744,724,726,701,665,656,677,623,627,622,487,489,465,473,455,437,437,437,437,437,437,437,437,437,437,437,437,437,437,437,437,437,437,437,437,437,437,437,437,437,437,437,1006,1008,1032,1052,1125,1568,1780,1941,2053,2108,2062,2060,2028,1977,1969,1937,1903,1861,1828,1808,1768,1733,1700,1668,1643,1577,1536,1501,1486,1366,1254,1127,1071,1077,1044,1026,1030,1036,991,991,991,991,991,991,991,991,991,991,991,991,991,991,991,991,991,991,991,991,991,991,991,991,991,991,991,797,800,795,809,815,1065,1223,1427,1542,1591,1567,1560,1534,1510,1467,1438,1445,1397,1367,1359,1337,1296,1283,1248,1223,1213,1182,1157,1130,1065,1044,866,857,884,800,849,855,798,780,776,777,784,795,788,793,812,792,791,796,792,791,791,796,801,796,791,826,792,793,788,792,797,823,800,815,759,738,765,744,778,930,1131,1337,1442,1468,1471,1464,1418,1409,1377,1375,1344,1315,1283,1267,1230,1219,1195,1172,1138,1128,1095,1072,1048,1025,908,911,810,790,750,766,749,731,717,709,714,718,718,725,723,727,721,723,722,719,719,724,724,722,724,723,729,724,719,721,724,722,717,725,719,635,649,656,646,665,830,982,1094,1192,1234,1212,1216,1235,1180,1161,1163,1124,1104,1087,1089,1046,1031,1024,1003,985,966,933,919,912,886,850,744,766,648,649,637,639,640,641,641,641,641,641,641,641,641,641,641,641,641,641,641,641,641,641,641,641,641,641,641,641,641,641,641,641,1251,1254,1258,1267,1375,1786,2104,2349,2407,2430,2413,2345,2376,2335,2312,2255,2185,2144,2075,2061,1998,1981,1920,1909,1858,1865,1659,1572,1510,1362,1368,1337,1309,1281,1244,1268,1252,1235,1270,1252,1247,1262,1272,1270,1276,1280,1274,1276,1279,1272,1276,1278,1274,1278,1277,1278,1281,1277,1275,1274,1277,1278,1274,1283,1279,0,0,0,0,0,0,0,0,0,0,0,0,0,0,0,0,0,0,0,0,0,0,0,0,0,0,0,0,0,0,0,0,0,0,0,0,0,0,0,0,0,0,0,0,0,0,0,0,0,0,0,0,0,0,0,0,0,0,0,0,0,0,0,0,0,394,405,408,399,412,540,611,681,752,795,820,807,773,780,771,754,741,728,719,702,689,677,663,650,637,624,611,598,586,572,559,532,427,425,415,412,416,413,388,388,388,388,388,388,388,388,388,388,388,388,388,388,388,388,388,388,388,388,388,388,388,388,388,388,388,781,783,786,791,805,1063,1201,1418,1521,1552,1547,1523,1498,1475,1460,1421,1409,1386,1352,1336,1311,1285,1255,1236,1204,1196,1157,1132,1107,1083,1058,908,827,832,795,792,845,790,775,779,777,787,786,789,786,807,794,786,794,786,784,791,789,799,796,800,799,797,796,796,795,804,802,807,799,117,117,117,118,118,121,168,187,205,225,237,234,231,226,223,220,215,212,207,204,201,196,193,190,185,182,178,174,171,167,163,160,156,152,121,119,119,119,110,111,108,113,132,120,114,132,114,132,119,132,116,113,114,118,117,115,132,120,115,120,117,132,118,118,116,562,547,554,550,560,687,813,963,1052,1092,1094,1078,1060,1042,1025,1012,998,982,955,939,929,910,886,876,852,850,817,799,783,765,757,716,670,635,557,553,555,557,543,542,540,548,545,551,549,559,547,549,553,549,551,551,552,553,550,551,555,550,548,547,550,553,547,556,552,706,709,711,713,735,967,1095,1221,1338,1413,1412,1390,1367,1345,1323,1300,1278,1269,1234,1211,1189,1167,1144,1122,1100,1078,1054,1032,1010,988,965,876,767,736,721,717,719,720,703,703,703,703,703,703,703,703,703,703,703,703,703,703,703,703,703,703,703,703,703,703,703,703,703,703,703,641,643,646,644,644,785,955,1113,1220,1279,1283,1265,1245,1211,1208,1186,1165,1144,1126,1111,1082,1063,1047,997,1005,985,961,939,917,897,846,790,745,670,665,643,645,649,591,591,591,591,591,591,591,591,591,591,591,591,591,591,591,591,591,591,591,591,591,591,591,591,591,591,591,197,198,198,198,199,252,287,320,353,386,401,394,388,437,376,369,363,356,350,344,337,331,325,369,312,350,300,293,287,280,275,268,261,250,244,200,200,201,188,184,190,199,190,189,191,198,191,191,191,191,198,216,216,202,199,195,190,216,197,190,193,216,198,201,194,123,124,124,152,152,156,177,198,217,238,253,248,244,240,236,232,228,224,221,216,212,209,204,200,196,192,188,184,180,177,172,168,165,160,156,152,154,154,98,98,98,98,98,98,98,98,98,98,98,98,98,98,98,98,98,98,98,98,98,98,98,98,98,98,98,609,584,600,613,615,768,886,1038,1162,1229,1230,1157,1189,1120,1109,1093,1090,1045,1024,1050,1031,971,992,968,912,896,913,854,873,820,832,768,717,608,606,617,619,613,564,565,562,570,580,577,587,585,575,580,584,577,579,572,572,581,579,574,580,568,568,576,571,581,577,578,569,841,844,846,856,911,1187,1346,1511,1617,1685,1678,1652,1625,1598,1571,1545,1518,1500,1465,1437,1425,1384,1357,1331,1304,1277,1250,1224,1196,1170,950,927,905,872,858,854,836,837,827,827,834,834,834,828,834,834,834,834,834,834,834,834,834,834,834,834,834,834,834,834,834,834,834,834,834,286,281,282,283,312,367,416,465,524,572,585,564,565,556,541,537,518,519,500,501,481,482,472,454,445,444,435,426,408,407,398,381,379,370,319,312,286,287,257,255,254,258,273,267,263,274,261,279,272,272,268,263,265,270,261,262,273,271,264,267,264,273,270,265,262,564,566,568,570,584,767,887,1060,1086,1135,1179,1121,1103,1084,1067,1048,1087,1087,1081,1014,994,975,921,903,884,899,880,864,811,821,634,620,604,590,577,574,576,588,576,576,575,579,581,579,584,580,582,582,583,582,584,580,583,585,588,586,586,586,581,581,583,583,588,585,579,829,829,817,838,834,1195,1340,1491,1584,1610,1599,1595,1554,1538,1508,1491,1462,1422,1431,1415,1391,1365,1326,1316,1283,1236,1227,1221,1141,1134,1138,896,952,861,836,833,836,846,817,830,828,844,838,845,831,846,838,858,857,850,858,862,852,892,851,855,849,854,848,855,851,873,856,864,863,665,666,654,656,670,904,1031,1141,1236,1287,1290,1270,1250,1230,1203,1182,1191,1171,1151,1104,1093,1051,1031,1034,1003,983,974,955,925,918,794,777,691,667,673,683,663,623,610,613,620,622,616,631,620,628,620,619,621,615,621,619,620,642,618,621,619,622,621,622,616,631,614,623,615,990,987,996,1017,1052,1515,1717,1858,1974,2033,2013,1966,1934,1917,1870,1861,1820,1796,1755,1731,1678,1646,1614,1602,1551,1520,1512,1479,1412,1384,1244,1036,1006,1015,967,967,973,1041,1032,1028,1035,1040,1031,1042,1039,1067,1044,1052,1056,1038,1042,1065,1057,1062,1055,1056,1049,1052,1050,1067,1049,1071,1047,1052,1045,1102,1109,1116,1144,1220,1673,1898,2062,2141,2183,2171,2143,2098,2062,2037,1999,1964,1930,1890,1836,1821,1780,1764,1714,1698,1643,1595,1519,1412,1307,1213,1198,1173,1130,1125,1113,1108,1089,1079,1081,1083,1089,1089,1099,1096,1095,1098,1089,1096,1094,1091,1092,1102,1102,1101,1108,1092,1095,1099,1094,1102,1094,1091,1100,1095,1059,1070,1107,1085,1231,1638,1882,2028,2081,2117,2158,2064,2031,2022,1968,1987,1917,1877,1880,1813,1774,1725,1696,1653,1638,1587,1564,1528,1375,1382,1178,1229,1147,1164,1116,1081,1084,1097,1076,1077,1082,1100,1099,1104,1099,1106,1111,1102,1099,1113,1098,1106,1113,1111,1100,1111,1105,1116,1116,1106,1112,1123,1111,1105,1102,901,903,905,922,1088,1459,1717,1903,2015,2036,2019,1981,1942,1903,1864,1826,1787,1749,1710,1672,1633,1595,1556,1518,1479,1441,1401,1362,1324,1285,1185,1092,957,929,918,919,927,955,948,940,947,961,960,956,961,953,959,954,962,956,965,959,963,959,959,973,960,972,952,962,956,976,961,959,952,727,734,729,738,772,1032,1178,1324,1417,1474,1476,1448,1428,1398,1386,1359,1334,1304,1291,1237,1227,1199,1194,1146,1147,1097,1083,1076,1047,1025,988,958,803,767,755,740,731,698,692,688,695,697,696,699,697,699,701,694,701,698,695,696,702,704,704,710,698,702,703,696,702,699,708,704,698,403,404,405,406,408,539,610,680,751,804,814,801,788,775,762,750,737,723,710,698,685,672,660,646,633,620,608,595,581,569,556,564,530,423,413,409,427,396,386,387,388,387,391,388,393,389,392,388,390,391,390,392,395,397,396,404,393,398,396,391,393,391,401,397,391,936,965,954,970,1077,1382,1637,1800,1840,1874,1850,1821,1787,1778,1773,1703,1734,1726,1658,1586,1556,1527,1508,1525,1439,1410,1393,1355,1326,1249,1080,1012,997,991,954,950,943,954,951,952,966,959,959,965,967,964,965,960,967,965,959,964,972,971,971,975,967,968,967,963,968,965,977,974,968,803,805,828,813,880,1248,1461,1653,1762,1831,1796,1747,1714,1681,1669,1629,1581,1547,1514,1481,1447,1414,1381,1347,1314,1281,1252,1214,1181,1147,911,884,856,831,818,818,823,829,827,838,837,855,1033,917,872,1028,866,1034,900,1067,917,857,884,1057,892,863,1050,878,868,1027,900,1028,914,913,879,1061,1063,1038,1115,1647,2017,2296,2445,2505,2531,2528,2475,2421,2356,2318,2251,2203,2142,2101,2040,2009,1932,1877,1815,1776,1714,1665,1606,1569,1518,1466,1157,1116,1067,1063,1092,1080,1112,1113,1166,1118,1133,1142,1125,1132,1139,1141,1134,1149,1134,1142,1139,1141,1143,1152,1178,1154,1155,1441,1142,1161,1178,1469,1443,1152,564,566,553,555,566,749,841,945,1024,1072,1079,1062,1046,1029,1013,996,1007,991,973,930,914,897,881,865,849,832,816,799,783,788,750,600,586,573,561,558,561,560,545,548,554,559,553,560,554,561,552,559,558,557,553,554,556,597,556,557,558,558,557,559,554,566,549,561,553,638,645,650,654,650,884,979,1102,1155,1190,1238,1181,1210,1150,1155,1096,1103,1087,1072,1072,1079,1057,1054,984,1009,962,970,937,903,917,894,856,681,687,659,653,655,640,628,623,634,636,624,636,628,638,632,638,646,636,628,632,635,648,634,639,647,643,637,641,633,644,641,637,629,1065,1029,1031,1062,1235,1721,1999,2146,2348,2296,2244,2301,2160,2118,2076,2035,1993,1951,1933,1890,1826,1783,1817,1730,1684,1615,1574,1560,1490,1235,1151,1116,1108,1055,1044,1084,1053,1096,1090,1093,1109,1113,1116,1094,1103,1132,1100,1114,1119,1118,1121,1132,1132,1139,1128,1103,1125,1127,1118,1116,1104,1141,1120,1125,1103,1163,1158,1174,1180,1321,1771,1974,2167,2239,2287,2273,2237,2184,2147,2130,2082,2038,2022,1973,1929,1911,1857,1827,1801,1780,1714,1707,1589,1551,1285,1265,1223,1230,1237,1174,1179,1167,1150,1131,1136,1144,1160,1148,1159,1152,1155,1151,1148,1152,1152,1143,1155,1161,1157,1151,1193,1155,1156,1151,1157,1157,1190,1148,1178,1175,1095,1101,1102,1112,1251,1663,1884,2053,2136,2180,2155,2134,2096,2060,2035,1997,1956,1928,1881,1827,1822,1778,1761,1702,1695,1639,1575,1577,1531,1267,1236,1192,1176,1116,1122,1118,1096,1072,1062,1064,1066,1072,1072,1082,1079,1078,1078,1072,1079,1077,1074,1075,1082,1085,1083,1091,1075,1078,1082,1077,1082,1077,1073,1082,1078,920,928,926,936,988,1366,1527,1675,1804,1796,1791,1800,1734,1743,1702,1648,1668,1639,1590,1526,1527,1477,1501,1422,1430,1395,1371,1337,1311,1238,1171,985,977,952,931,922,933,937,922,929,948,954,942,945,935,947,937,956,947,935,946,947,958,985,956,953,954,949,956,956,951,954,937,950,942,1207,1209,1184,1284,1856,2252,2525,2674,2731,2745,2741,2682,2632,2563,2521,2446,2398,2330,2285,2228,2193,2112,2054,1984,1948,1883,1824,1762,1727,1666,1318,1273,1263,1214,1210,1202,1191,1223,1224,1282,1232,1249,1256,1238,1249,1253,1254,1247,1261,1246,1256,1251,1252,1258,1264,1290,1268,1268,1324,1255,1273,1291,1582,1556,1265,363,364,366,367,368,482,547,611,675,727,739,727,715,702,691,679,667,656,644,632,621,609,597,585,574,562,550,539,526,514,502,491,479,467,373,369,369,370,355,359,360,365,360,366,357,363,356,356,360,361,352,359,360,361,360,367,363,363,363,365,360,367,355,363,360,0,0,0,0,0,0,0,0,0,0,0,0,0,0,0,0,0,0,0,0,0,0,0,0,0,0,0,0,0,0,0,0,0,0,0,0,0,0,0,0,0,0,0,0,0,0,0,0,0,0,0,0,0,0,0,0,0,0,0,0,0,0,0,0,0,1146,1150,1157,1170,1380,1751,1965,2132,2220,2250,2237,2202,2168,2137,2100,2071,2025,1990,1954,1919,1900,1864,1813,1789,1754,1706,1682,1635,1588,1289,1269,1218,1194,1224,1164,1156,1159,1145,1134,1136,1147,1151,1149,1152,1151,1157,1146,1146,1146,1145,1143,1148,1159,1157,1160,1166,1160,1159,1159,1160,1164,1169,1155,1162,1159,325,326,327,328,329,429,485,541,598,647,660,650,639,629,618,608,597,587,576,566,555,545,534,524,513,503,492,482,471,462,451,441,430,419,334,330,331,332,325,325,326,326,333,333,328,332,327,332,328,331,327,334,336,356,333,333,329,329,333,351,332,333,328,333,332,898,904,900,909,997,1310,1499,1663,1750,1792,1799,1768,1737,1697,1689,1652,1626,1592,1564,1510,1502,1483,1449,1405,1397,1348,1316,1303,1274,1162,1137,990,956,931,918,913,922,898,888,890,892,898,898,908,906,904,907,898,905,903,900,901,913,911,911,917,901,904,908,903,911,903,904,910,904,895,898,900,909,924,1301,1466,1619,1742,1782,1775,1747,1719,1690,1663,1634,1607,1578,1551,1522,1494,1466,1437,1410,1381,1354,1325,1298,1269,1240,1213,1134,946,925,911,909,910,913,899,903,910,917,914,918,913,922,912,920,920,913,916,918,916,927,920,924,922,920,920,918,919,930,917,930,924,942,941,926,932,968,1327,1556,1742,1818,1859,1847,1817,1787,1758,1722,1695,1694,1656,1632,1584,1547,1521,1489,1460,1406,1388,1357,1328,1312,1237,1117,995,971,975,936,946,947,911,894,897,906,912,908,920,919,914,906,905,907,901,907,905,906,928,904,907,905,908,907,908,902,917,900,909,901,295,296,297,297,298,386,436,487,537,585,599,589,580,570,561,552,542,532,523,513,504,495,485,476,466,456,447,437,429,419,409,400,390,380,371,299,300,301,293,286,290,293,287,301,294,374,371,294,375,291,295,292,292,298,294,294,294,297,293,291,292,295,293,300,294,454,455,431,432,435,573,653,770,807,858,867,853,840,826,811,798,829,815,802,743,729,715,701,687,674,660,645,632,618,605,590,567,553,449,438,434,435,437,428,427,429,429,430,424,430,429,431,429,429,430,432,434,434,435,436,434,435,435,436,435,438,451,436,435,439,913,945,917,950,1053,1381,1575,1759,1836,1884,1885,1847,1823,1757,1759,1681,1693,1629,1648,1589,1573,1497,1519,1469,1464,1403,1351,1356,1311,1258,1106,1033,998,953,970,955,937,919,910,905,914,923,921,930,945,923,926,920,926,926,916,921,929,931,927,937,919,924,927,918,927,924,932,922,916,1022,1034,1026,1052,1078,1551,1743,1900,2015,2048,2038,2005,1972,1940,1907,1875,1842,1810,1787,1745,1722,1680,1647,1615,1582,1551,1518,1485,1453,1420,1154,1112,1081,1062,1040,1042,1027,1030,1022,1022,1032,1044,1036,1044,1034,1046,1036,1041,1048,1043,1064,1062,1071,1094,1040,1045,1038,1052,1046,1043,1045,1057,1040,1050,1042,564,566,568,570,584,767,887,1060,1086,1135,1179,1121,1103,1084,1067,1048,1087,1087,1081,1014,994,975,921,903,884,899,880,864,811,821,634,620,604,590,577,574,576,588,576,576,575,579,581,579,584,580,582,582,583,582,584,580,583,585,588,586,586,586,581,581,583,583,588,585,579,679,672,715,676,737,950,1076,1192,1300,1404,1345,1388,1344,1287,1299,1277,1255,1218,1211,1189,1123,1123,1080,1096,1064,1036,1037,992,962,937,933,749,876,826,684,680,708,701,692,693,693,693,689,688,688,688,688,688,688,688,688,688,688,688,688,688,688,688,688,688,688,688,688,688,688,1324,1321,1321,1378,1576,2076,2303,2469,2541,2571,2533,2495,2499,2396,2372,2328,2276,2251,2214,2182,2132,2096,2068,2011,1970,1929,1798,1813,1649,1527,1434,1397,1355,1325,1322,1319,1266,1267,1261,1261,1261,1261,1261,1261,1261,1261,1261,1261,1261,1261,1261,1261,1261,1261,1261,1261,1261,1261,1261,1261,1261,1261,1261,1261,1261,878,880,884,881,917,1237,1394,1594,1668,1728,1726,1689,1682,1649,1592,1599,1560,1534,1493,1487,1460,1426,1409,1376,1351,1323,1300,1252,1238,1148,959,988,965,909,894,912,873,847,842,847,848,848,848,848,848,848,848,848,848,848,848,848,848,848,848,848,848,848,848,848,848,848,848,848,848,1424,1422,1457,1533,1946,2400,2641,2856,2909,2944,2885,2832,2780,2742,2690,2632,2590,2545,2498,2443,2380,2339,2298,2240,2193,2039,1994,1961,1684,1604,1570,1540,1489,1466,1450,1437,1452,1430,1429,1429,1429,1429,1429,1429,1429,1429,1429,1429,1429,1429,1429,1429,1429,1429,1429,1429,1429,1429,1429,1429,1429,1429,1429,1429,1429,341,342,342,343,344,449,508,567,625,724,689,678,667,656,645,634,623,612,602,591,580,569,558,547,536,525,514,503,492,482,471,460,449,438,357,352,353,354,328,333,335,338,333,334,333,335,333,331,334,332,331,329,331,333,333,333,332,332,329,332,331,334,332,334,333,513,513,515,517,531,699,792,884,974,1023,1034,1017,1001,984,968,951,935,918,902,885,870,853,837,820,804,787,771,754,738,721,705,570,556,543,531,520,522,522,508,506,514,517,510,517,510,517,508,517,515,512,510,512,517,517,517,517,513,511,517,515,515,517,508,517,513,1369,1380,1386,1472,1867,2282,2542,2760,2815,2844,2795,2758,2706,2643,2605,2559,2508,2452,2435,2352,2304,2265,2235,2169,2124,2079,2026,1870,1603,1564,1514,1477,1440,1408,1393,1325,1333,1318,1303,1303,1303,1303,1303,1303,1303,1303,1303,1303,1303,1303,1303,1303,1303,1303,1303,1303,1303,1303,1303,1303,1303,1303,1303,1303,1303,489,491,492,494,500,544,752,829,926,1020,979,1012,995,932,962,940,925,875,897,844,821,805,789,814,766,743,767,712,704,688,550,538,686,620,498,496,498,466,465,467,470,470,470,470,470,470,470,470,470,470,470,470,470,470,470,470,470,470,470,470,470,470,470,470,470,862,869,907,896,987,1182,1460,1610,1718,1785,1775,1738,1720,1643,1667,1634,1629,1563,1556,1511,1438,1459,1400,1394,1371,1322,1332,1294,1244,1194,1059,949,1005,920,892,880,904,856,855,852,854,854,854,854,854,854,854,854,854,854,854,854,854,854,854,854,854,854,854,854,854,854,854,854,854,532,534,535,542,546,752,858,929,1010,1113,1067,1093,1075,1017,1048,993,975,1003,980,937,949,931,915,904,876,815,830,788,777,748,730,702,687,578,549,540,541,543,539,539,539,539,539,539,539,539,539,539,539,539,539,539,539,539,539,539,539,539,539,539,539,539,539,539,539,1566,1565,1650,1817,2231,2745,3017,3128,3182,3216,3164,3129,3069,2989,2956,2909,2911,2795,2768,2691,2599,2589,2478,2333,1973,1920,1891,1818,1779,1730,1690,1638,1690,1660,1587,1588,1627,1633,1628,1628,1628,1628,1628,1628,1628,1628,1628,1628,1628,1628,1628,1628,1628,1628,1628,1628,1628,1628,1628,1628,1628,1628,1628,1628,1628,707,714,706,720,751,989,1097,1284,1359,1423,1423,1401,1358,1345,1333,1291,1278,1265,1225,1218,1196,1166,1142,1129,1098,1081,1061,1036,1016,911,968,858,751,781,726,718,725,727,725,717,725,725,725,725,725,725,725,725,725,725,725,725,725,725,725,725,725,725,725,725,725,725,725,725,725,958,960,968,965,1072,1387,1554,1778,1849,1903,1898,1853,1846,1807,1752,1757,1707,1685,1634,1621,1595,1568,1544,1499,1471,1448,1427,1377,1353,1172,1048,1147,1044,994,978,979,965,944,936,942,943,943,943,943,943,943,943,943,943,943,943,943,943,943,943,943,943,943,943,943,943,943,943,943,943,1248,1245,1221,1267,1457,1881,2143,2329,2382,2420,2398,2356,2365,2253,2222,2176,2159,2128,2098,2055,2019,1960,1953,1893,1860,1828,1764,1658,1573,1452,1346,1325,1281,1235,1235,1226,1162,1163,1157,1157,1157,1157,1157,1157,1157,1157,1157,1157,1157,1157,1157,1157,1157,1157,1157,1157,1157,1157,1157,1157,1157,1157,1157,1157,1157,1228,1252,1247,1323,1672,2089,2270,2504,2575,2611,2551,2521,2472,2430,2385,2340,2297,2275,2222,2166,2120,2068,2043,1977,1962,1902,1865,1823,1683,1404,1371,1327,1298,1291,1262,1259,1266,1256,1230,1230,1230,1230,1230,1230,1230,1230,1230,1230,1230,1230,1230,1230,1230,1230,1230,1230,1230,1230,1230,1230,1230,1230,1230,1230,1230,247,248,248,249,250,317,359,400,441,481,500,491,484,476,468,460,453,445,437,429,421,413,405,398,390,382,375,367,358,350,343,335,327,320,312,251,252,252,235,235,235,235,235,235,235,235,235,235,235,235,235,235,235,235,235,235,235,235,235,235,235,235,235,235,235,267,268,269,269,270,347,392,438,485,529,544,535,526,518,509,500,491,484,475,466,457,448,440,431,423,414,405,397,388,379,370,363,354,345,336,270,332,333,253,255,257,257,257,257,257,257,257,257,257,257,257,257,257,257,257,257,257,257,257,257,257,257,257,257,257,1046,1049,1067,1081,1146,1533,1679,1857,1968,1978,1950,1919,1895,1867,1839,1798,1814,1803,1762,1726,1686,1666,1664,1608,1579,1525,1511,1557,1464,1401,1149,1136,1102,1068,1078,1060,1044,1028,1035,1037,1032,1032,1032,1032,1032,1032,1032,1032,1032,1032,1032,1032,1032,1032,1032,1032,1032,1032,1032,1032,1032,1032,1032,1032,1032,621,605,608,610,646,828,856,1110,1139,1252,1203,1185,1166,1195,1150,1156,1131,1106,1052,991,974,955,938,919,901,894,912,891,897,869,849,678,684,645,624,630,630,633,618,616,621,621,621,613,615,618,618,620,621,621,621,621,621,621,621,621,618,618,621,616,621,621,619,618,618,837,842,844,846,931,1133,1352,1510,1623,1677,1674,1645,1639,1600,1566,1545,1518,1484,1459,1433,1406,1381,1351,1325,1299,1275,1247,1214,1193,1162,1035,919,889,867,856,852,853,796,792,795,800,800,800,800,800,800,800,800,800,800,800,800,800,800,800,800,800,800,800,800,800,800,800,800,800,1175,1166,1180,1188,1359,1726,2001,2181,2279,2319,2305,2249,2248,2203,2157,2127,2090,2042,2009,1957,1934,1900,1858,1821,1785,1755,1717,1623,1575,1472,1316,1255,1217,1200,1193,1188,1182,1137,1131,1138,1145,1145,1145,1145,1145,1145,1145,1145,1145,1145,1145,1145,1145,1145,1145,1145,1145,1145,1145,1145,1145,1145,1145,1145,1145,0,0,0,0,0,0,0,0,0,0,0,0,0,0,0,0,0,0,0,0,0,0,0,0,0,0,0,0,0,0,0,0,0,0,0,0,0,0,0,0,0,0,0,0,0,0,0,0,0,0,0,0,0,0,0,0,0,0,0,0,0,0,0,0,0,881,885,888,889,926,1203,1430,1598,1708,1761,1755,1726,1719,1678,1642,1621,1591,1557,1530,1504,1475,1449,1418,1389,1363,1339,1309,1275,1184,1159,1103,958,933,911,900,899,896,838,835,837,839,839,839,839,839,839,839,839,839,839,839,839,839,839,839,839,839,839,839,839,839,839,839,839,839,298,299,300,301,302,389,440,490,541,589,603,594,584,575,565,556,546,536,528,518,508,499,489,480,470,460,452,442,432,423,413,404,394,385,376,310,311,312,293,290,293,293,293,293,292,293,293,293,293,293,293,293,293,293,293,293,293,293,293,293,293,293,293,293,293,1427,1430,1440,1553,1736,2355,2567,2728,2773,2820,2776,2731,2691,2640,2598,2542,2496,2463,2423,2372,2333,2287,2267,2184,2139,2102,2044,1843,1663,1615,1561,1524,1484,1455,1453,1438,1378,1384,1384,1397,1389,1389,1389,1389,1389,1389,1389,1389,1389,1389,1389,1389,1389,1389,1389,1389,1389,1389,1389,1389,1389,1389,1389,1389,1389,895,900,904,912,978,1317,1463,1675,1753,1813,1790,1752,1728,1699,1669,1641,1612,1594,1583,1527,1497,1476,1461,1410,1382,1354,1340,1317,1270,1126,1009,981,941,921,914,915,893,889,883,882,883,883,883,883,883,883,883,883,883,883,883,883,883,883,883,883,883,883,883,883,883,883,883,883,883,927,929,959,970,1039,1268,1581,1733,1844,1894,1887,1857,1826,1765,1770,1745,1719,1688,1639,1614,1559,1558,1500,1502,1472,1410,1410,1374,1281,1251,1061,1036,1006,991,955,940,966,910,908,911,918,918,918,918,918,918,918,918,918,918,918,918,918,918,918,918,918,918,918,918,918,918,918,918,918,852,861,859,852,918,1161,1387,1548,1659,1700,1694,1671,1642,1629,1560,1573,1529,1517,1492,1465,1420,1408,1381,1353,1324,1299,1270,1177,1135,1142,1003,934,912,888,875,863,809,760,754,759,758,758,758,758,758,758,758,758,758,758,758,758,758,758,758,758,758,758,758,758,758,758,758,758,758,350,351,351,352,354,463,524,586,649,744,712,744,732,678,708,655,644,632,660,610,598,587,576,663,553,542,563,519,507,496,485,473,462,451,359,355,356,357,349,349,349,349,349,349,349,349,349,349,349,349,349,349,349,349,349,349,349,349,349,349,349,349,349,349,349,1170,1174,1179,1225,1515,1890,2132,2364,2426,2476,2419,2389,2343,2300,2256,2216,2172,2131,2105,2042,1988,1955,1932,1872,1834,1804,1761,1719,1678,1514,1305,1267,1233,1209,1193,1194,1201,1186,1173,1173,1173,1173,1173,1173,1173,1173,1173,1173,1173,1173,1173,1173,1173,1173,1173,1173,1173,1173,1173,1173,1173,1173,1173,1173,1173,679,672,715,676,737,950,1076,1192,1300,1404,1345,1388,1344,1287,1299,1277,1255,1218,1211,1189,1123,1123,1080,1096,1064,1036,1037,992,962,937,933,749,876,826,684,680,708,701,692,693,693,693,689,688,688,688,688,688,688,688,688,688,688,688,688,688,688,688,688,688,688,688,688,688,688,400,396,397,399,407,427,579,647,723,792,806,792,785,758,749,752,730,726,704,700,677,673,654,639,627,616,600,591,574,554,513,501,463,459,412,409,403,398,363,342,340,340,352,348,349,343,343,346,365,350,354,361,362,358,344,348,354,364,363,359,345,345,362,342,339,571,573,581,584,603,711,898,998,1098,1150,1160,1145,1129,1111,1113,1074,1056,1036,1018,999,981,983,966,924,894,887,869,849,832,720,704,698,657,604,590,587,589,589,575,569,566,596,593,592,576,587,592,591,594,599,600,595,593,600,601,600,601,603,594,600,599,675,607,615,615,409,411,412,413,424,538,609,680,739,790,806,794,811,778,766,746,742,721,718,706,684,682,669,635,646,633,610,613,598,574,563,561,536,462,429,418,426,423,364,364,365,368,368,366,369,369,365,370,367,367,368,371,371,369,369,371,369,369,369,373,366,368,364,368,366,756,766,761,774,939,1093,1214,1355,1454,1529,1519,1494,1470,1446,1422,1412,1373,1349,1338,1313,1276,1283,1227,1203,1179,1155,1141,1105,1081,1068,1050,1008,993,799,786,767,783,780,780,784,779,789,783,782,783,802,781,789,780,785,782,795,794,791,790,791,794,788,786,795,784,799,782,789,789,878,859,873,866,903,1147,1381,1545,1653,1704,1713,1694,1644,1631,1604,1583,1552,1509,1481,1469,1443,1401,1387,1360,1320,1324,1266,1250,1211,1099,1072,933,900,918,871,876,873,863,836,838,841,843,853,853,854,855,858,857,855,855,860,854,855,860,861,852,860,853,845,854,858,858,860,857,855,830,811,821,820,834,1141,1319,1517,1619,1686,1637,1615,1633,1605,1519,1527,1483,1476,1425,1443,1364,1337,1314,1285,1253,1243,1208,1174,1172,1012,1028,903,859,857,833,825,827,862,833,828,824,830,848,855,849,859,853,868,861,864,870,869,861,868,871,851,867,856,863,871,865,884,873,877,861,778,781,783,822,836,1116,1260,1400,1499,1555,1564,1540,1515,1491,1467,1442,1417,1393,1360,1345,1320,1327,1271,1247,1211,1185,1161,1149,1125,1100,1112,847,875,821,827,822,792,794,793,796,821,838,827,783,822,828,830,810,840,821,824,832,880,859,848,796,817,819,828,824,803,839,819,816,816,513,512,515,517,521,584,766,856,950,1022,1037,1013,1004,987,970,955,938,915,905,882,866,850,833,823,806,785,768,750,735,719,709,613,564,535,523,515,526,472,453,451,453,461,465,469,464,462,461,462,470,464,468,460,463,476,464,464,466,461,458,471,464,463,467,461,458,196,198,198,199,200,218,280,311,343,375,400,394,387,382,375,368,361,356,349,342,337,330,324,318,311,306,297,293,287,280,274,268,260,254,204,200,201,201,171,151,151,152,160,158,158,152,152,156,171,157,163,167,169,165,156,156,161,171,169,169,155,155,170,153,151,738,762,743,747,770,943,1151,1317,1404,1482,1514,1490,1414,1441,1418,1394,1370,1344,1303,1264,1277,1255,1210,1204,1183,1156,1135,1108,1087,1060,997,803,829,796,775,734,752,733,712,715,724,723,728,735,734,727,725,728,736,731,732,728,733,743,731,729,735,727,722,741,730,729,736,731,728,981,983,1001,993,1058,1432,1681,1790,1921,1917,1965,1953,1894,1870,1829,1763,1792,1753,1698,1673,1669,1579,1587,1564,1524,1510,1448,1437,1406,1386,1112,1099,1108,1001,1005,1010,987,984,993,1007,1014,1025,1017,1024,1011,1016,1023,1024,1014,1018,1017,1025,1019,1016,1023,1026,1023,1024,1018,1025,1028,1026,1030,1033,1033,1339,1333,1356,1442,1788,2206,2593,2764,2828,2881,2822,2783,2728,2719,2679,2638,2568,2533,2449,2423,2382,2350,2292,2223,2204,1986,1938,1856,1673,1533,1482,1444,1399,1387,1367,1376,1386,1399,1412,1392,1392,1393,1401,1399,1399,1393,1393,1397,1412,1398,1404,1408,1410,1406,1397,1397,1402,1412,1410,1410,1396,1396,1411,1394,1392,310,311,312,313,314,402,448,495,562,586,632,590,581,573,564,555,546,537,529,520,511,502,493,485,476,467,459,451,442,433,448,438,407,420,318,314,315,315,305,307,309,312,313,312,313,322,312,314,316,319,322,315,319,336,313,314,319,318,319,314,319,324,314,314,314,460,491,478,485,478,620,690,760,828,940,948,867,855,850,830,843,806,794,803,768,776,754,732,739,706,695,702,697,674,645,645,636,578,546,478,487,486,464,458,458,460,461,464,464,465,462,468,469,470,463,472,470,470,465,463,470,469,474,462,464,463,469,465,461,461,1003,1005,1008,1040,1152,1502,1689,1845,1931,1980,1983,1951,1919,1889,1858,1819,1787,1768,1730,1709,1677,1622,1589,1544,1541,1507,1477,1454,1409,1353,1286,1083,1087,1036,1004,999,991,986,978,987,994,999,1005,1001,998,1012,997,1010,1018,1011,1027,1034,1037,1018,1006,1007,1012,1010,997,1016,1005,1007,1001,1004,1004,911,915,909,923,929,1225,1475,1609,1746,1786,1806,1774,1747,1705,1666,1667,1610,1581,1572,1543,1514,1484,1464,1417,1397,1361,1346,1299,1262,1223,1172,993,944,947,918,912,940,914,886,883,883,892,908,904,904,912,902,908,907,904,910,902,910,912,915,902,931,906,903,902,914,931,933,914,914,876,852,879,860,896,1108,1352,1519,1644,1689,1705,1686,1638,1621,1595,1580,1550,1500,1474,1462,1421,1392,1379,1326,1312,1316,1258,1230,1204,1168,1065,943,893,912,864,882,853,846,817,819,824,824,836,839,836,838,836,840,832,834,839,835,836,841,843,836,843,836,828,836,847,841,840,839,838,684,711,685,672,718,892,1089,1187,1298,1348,1323,1333,1285,1266,1274,1260,1206,1185,1152,1136,1126,1089,1073,1089,1070,1021,1022,973,953,952,937,871,713,723,683,680,706,684,684,691,698,701,691,709,704,709,704,712,720,711,696,701,713,724,713,714,718,709,714,718,709,705,714,707,707,1343,1359,1373,1411,1530,2022,2328,2503,2621,2651,2623,2576,2596,2547,2482,2422,2345,2315,2273,2230,2189,2145,2104,2060,2030,2019,1749,1695,1555,1521,1497,1460,1412,1392,1346,1379,1369,1352,1367,1362,1355,1367,1389,1385,1392,1391,1390,1391,1385,1391,1394,1385,1391,1396,1395,1390,1396,1390,1381,1390,1393,1394,1396,1392,1389,114,115,115,116,116,118,163,182,202,221,234,231,226,223,220,215,212,209,204,201,196,193,190,185,182,179,174,171,167,163,160,127,125,122,118,116,117,117,106,107,106,108,133,134,117,135,117,135,125,125,133,111,114,125,119,111,134,114,110,135,124,134,132,126,119,334,335,336,327,339,442,501,559,619,671,682,671,660,649,638,627,616,605,595,584,573,544,551,540,529,518,507,497,486,475,464,453,442,418,420,329,415,416,324,325,333,334,332,328,327,334,329,331,332,327,329,334,333,333,333,333,333,333,338,336,331,333,329,333,332,895,898,901,907,919,1222,1439,1600,1723,1773,1781,1738,1724,1698,1653,1636,1611,1570,1542,1512,1485,1457,1429,1415,1374,1345,1319,1290,1263,1234,1120,965,952,937,910,908,911,906,881,886,883,895,899,905,897,911,904,903,905,898,903,902,903,913,915,911,919,911,906,910,917,936,924,921,918,0,0,0,0,0,0,0,0,0,0,0,0,0,0,0,0,0,0,0,0,0,0,0,0,0,0,0,0,0,0,0,0,0,0,0,0,0,0,0,0,0,0,0,0,0,0,0,0,0,0,0,0,0,0,0,0,0,0,0,0,0,0,0,0,0,675,660,668,665,676,817,1014,1145,1254,1313,1327,1309,1274,1263,1245,1226,1204,1170,1149,1140,1120,1086,1076,1045,1024,1030,982,961,940,928,917,718,698,707,671,669,672,672,648,647,650,652,662,665,665,664,667,666,664,664,669,663,664,669,670,664,669,663,654,665,673,667,670,667,664,644,646,648,650,666,883,998,1114,1216,1281,1291,1271,1250,1230,1210,1190,1169,1148,1128,1107,1087,1067,1047,1026,1006,985,965,944,925,904,884,863,843,673,659,654,656,657,656,646,637,635,654,652,655,656,659,661,651,656,652,656,653,661,659,658,659,656,656,656,654,663,651,658,658,688,690,693,678,719,921,1089,1213,1322,1373,1390,1360,1363,1307,1295,1274,1255,1221,1199,1187,1166,1144,1121,1084,1060,1038,1015,997,971,962,925,857,734,715,703,700,701,696,643,652,650,656,660,654,662,663,651,656,653,653,654,657,657,655,655,657,655,655,655,659,652,654,650,654,652,166,166,167,167,168,212,239,267,294,322,337,332,326,321,316,311,305,300,294,289,284,279,273,268,262,258,253,247,242,236,231,226,221,215,210,206,206,207,162,163,159,160,162,159,195,161,162,167,159,160,157,159,161,160,160,161,157,162,167,161,160,162,160,160,159,188,189,189,189,219,242,273,305,337,369,385,378,372,366,360,354,348,342,336,330,323,317,311,305,299,293,287,280,275,268,262,256,250,244,238,234,234,235,177,178,178,178,179,181,177,180,178,179,177,179,178,183,181,182,181,183,183,182,183,186,183,187,180,180,180,697,724,713,728,732,889,1123,1220,1380,1442,1400,1381,1378,1326,1321,1288,1261,1246,1223,1239,1193,1157,1168,1147,1088,1068,1056,1019,1024,977,982,891,815,730,735,730,712,693,671,668,672,687,690,700,704,686,686,688,695,692,689,685,690,703,687,691,687,683,682,693,689,688,691,679,676,779,782,784,790,826,1107,1254,1397,1494,1554,1559,1534,1510,1494,1459,1435,1410,1386,1360,1336,1311,1285,1261,1236,1212,1186,1161,1137,1112,1087,1062,885,864,810,796,791,773,774,771,765,775,788,786,786,780,783,788,794,789,784,832,815,813,817,805,797,775,796,784,781,780,799,785,818,811,400,396,397,399,407,427,579,647,723,792,806,792,785,758,749,752,730,726,704,700,677,673,654,639,627,616,600,591,574,554,513,501,463,459,412,409,403,398,363,342,340,340,352,348,349,343,343,346,365,350,354,361,362,358,344,348,354,364,363,359,345,345,362,342,339,454,453,455,456,470,612,695,771,870,908,916,900,886,872,858,842,828,814,798,784,770,754,743,726,720,704,682,667,652,642,623,624,609,487,466,459,460,461,430,430,430,430,430,430,430,430,430,430,430,430,430,430,430,430,430,430,430,430,430,430,430,430,430,430,430,1097,1108,1120,1120,1173,1594,1920,2037,2160,2199,2186,2157,2119,2059,2033,2002,1972,1908,1881,1843,1830,1779,1761,1710,1691,1661,1620,1575,1457,1236,1198,1195,1172,1132,1129,1128,1104,1104,1041,1041,1041,1041,1041,1041,1041,1041,1041,1041,1041,1041,1041,1041,1041,1041,1041,1041,1041,1041,1041,1041,1041,1041,1041,1041,1041,652,668,673,663,677,837,1045,1125,1253,1324,1317,1291,1277,1250,1224,1204,1190,1175,1147,1109,1114,1066,1063,1048,1024,1003,988,950,952,865,725,722,752,677,677,691,668,660,589,589,589,589,589,589,589,589,589,589,589,589,589,589,589,589,589,589,589,589,589,589,589,589,589,589,589,1377,1365,1392,1430,1637,2073,2460,2643,2732,2759,2725,2700,2654,2581,2551,2501,2475,2396,2383,2332,2288,2245,2194,2166,2118,2040,1950,1826,1582,1575,1501,1479,1412,1422,1408,1390,1391,1386,1327,1327,1327,1327,1327,1327,1327,1327,1327,1327,1327,1327,1327,1327,1327,1327,1327,1327,1327,1327,1327,1327,1327,1327,1327,1327,1327,223,224,224,225,225,288,325,361,398,436,452,444,437,430,423,415,409,402,394,388,380,374,366,359,352,345,338,331,324,316,310,302,295,288,281,226,226,278,191,191,191,191,191,191,191,191,191,191,191,191,191,191,191,191,191,191,191,191,191,191,191,191,191,191,191,713,715,717,725,743,937,1152,1254,1378,1431,1475,1408,1397,1369,1342,1300,1291,1277,1262,1221,1216,1175,1155,1147,1069,1021,1055,979,959,1006,915,877,772,738,725,729,724,719,697,697,697,697,697,697,697,697,697,697,697,697,697,697,697,697,697,697,697,697,697,697,697,697,697,697,697,1325,1316,1341,1362,1662,2121,2469,2652,2743,2734,2733,2626,2579,2583,2578,2496,2459,2351,2304,2270,2230,2212,2136,2107,2062,1982,1949,1821,1553,1528,1451,1431,1370,1388,1357,1278,1275,1274,1273,1273,1273,1273,1273,1273,1273,1273,1273,1273,1273,1273,1273,1273,1273,1273,1273,1273,1273,1273,1273,1273,1273,1273,1273,1273,1273,269,274,275,277,278,291,394,441,486,529,547,540,531,522,513,504,497,488,479,470,462,454,445,436,427,419,409,401,392,384,376,367,321,292,285,278,279,280,208,208,208,208,208,208,208,208,208,208,208,208,208,208,208,208,208,208,208,208,208,208,208,208,208,208,208,650,645,648,649,692,828,1026,1150,1247,1296,1293,1281,1252,1235,1206,1198,1178,1145,1145,1124,1128,1082,1054,1033,993,1004,1011,960,939,909,884,864,689,681,668,677,659,669,598,598,598,598,598,598,598,598,598,598,598,598,598,598,598,598,598,598,598,598,598,598,598,598,598,598,598,315,321,322,323,324,385,464,515,567,619,643,633,612,602,592,583,573,563,553,553,542,523,513,503,493,484,482,471,462,444,434,424,405,396,323,327,327,327,295,295,295,295,295,295,295,295,295,295,295,295,295,295,295,295,295,295,295,295,295,295,295,295,295,295,295,1337,1350,1348,1422,1825,2211,2593,2713,2788,2793,2767,2728,2660,2628,2578,2534,2476,2426,2367,2324,2288,2238,2180,2127,2073,2023,1988,1902,1683,1508,1466,1449,1398,1379,1363,1362,1368,1389,1383,1383,1383,1383,1383,1383,1383,1383,1383,1383,1383,1383,1383,1383,1383,1383,1383,1383,1383,1383,1383,1383,1383,1383,1383,1383,1383,854,857,841,827,887,1170,1364,1530,1580,1660,1667,1633,1568,1589,1522,1512,1509,1445,1472,1428,1420,1356,1336,1333,1287,1265,1215,1186,1193,1089,1112,892,921,875,848,864,846,864,842,842,842,842,842,842,842,842,842,842,842,842,842,842,842,842,842,842,842,842,842,842,842,842,842,842,842,735,752,753,745,762,991,1206,1301,1434,1492,1491,1453,1447,1410,1387,1364,1340,1329,1299,1250,1259,1218,1201,1178,1155,1128,1112,1082,1071,971,944,941,879,761,762,749,753,754,684,684,684,684,684,684,684,684,684,684,684,684,684,684,684,684,684,684,684,684,684,684,684,684,684,684,684,1019,1031,1032,1035,1062,1398,1734,1879,2000,2049,2030,2002,1971,1933,1888,1870,1825,1783,1755,1714,1719,1641,1622,1615,1574,1536,1517,1413,1352,1141,1129,1112,1086,1042,1040,1040,1000,1000,937,937,937,937,937,937,937,937,937,937,937,937,937,937,937,937,937,937,937,937,937,937,937,937,937,937,937,1185,1175,1200,1233,1507,1887,2201,2430,2492,2482,2510,2388,2341,2395,2354,2273,2241,2191,2105,2071,2052,2042,1944,1920,1887,1819,1793,1753,1638,1503,1303,1285,1241,1238,1226,1212,1202,1208,1201,1201,1201,1201,1201,1201,1201,1201,1201,1201,1201,1201,1201,1201,1201,1201,1201,1201,1201,1201,1201,1201,1201,1201,1201,1201,1201,521,522,537,539,548,729,824,920,1013,1067,1050,1056,1039,996,1005,987,902,953,937,873,884,864,869,852,834,818,800,784,766,735,732,716,567,530,546,541,543,545,526,526,526,526,526,526,526,526,526,526,526,526,526,526,526,526,526,526,526,526,526,526,526,526,526,526,526,222,222,239,240,241,252,317,353,389,425,450,443,437,431,421,415,408,402,394,387,380,373,366,359,352,345,338,331,323,317,309,303,258,252,245,241,242,243,174,174,174,174,174,174,174,174,174,174,174,174,174,174,174,174,174,174,174,174,174,174,174,174,174,174,174,934,966,959,967,999,1332,1465,1668,1747,1788,1769,1749,1718,1691,1666,1682,1669,1597,1576,1552,1544,1512,1485,1464,1430,1404,1355,1350,1145,1232,1026,1041,1028,961,979,960,971,985,942,942,942,942,942,942,942,942,942,942,942,942,942,942,942,942,942,942,942,942,942,942,942,942,942,942,942,719,745,747,725,730,983,1128,1337,1314,1395,1434,1379,1393,1386,1278,1333,1294,1272,1286,1225,1202,1160,1126,1136,1086,1064,1017,1061,1004,1010,958,758,780,751,711,739,715,771,727,727,727,727,727,727,727,727,727,727,727,727,727,727,727,727,727,727,727,727,727,727,727,727,727,727,727,618,624,625,628,636,748,972,1076,1202,1264,1255,1237,1211,1210,1190,1169,1130,1114,1093,1067,1039,1028,1013,990,972,951,932,913,895,866,755,794,662,646,635,639,640,606,538,538,538,538,538,538,538,538,538,538,538,538,538,538,538,538,538,538,538,538,538,538,538,538,538,538,538,952,950,966,970,990,1286,1583,1742,1869,1924,1897,1869,1820,1808,1794,1763,1708,1686,1652,1617,1563,1556,1532,1497,1468,1437,1407,1383,1274,1178,1123,1045,1019,976,972,975,971,947,877,877,877,877,877,877,877,877,877,877,877,877,877,877,877,877,877,877,877,877,877,877,877,877,877,877,877,385,365,366,367,368,508,574,638,703,759,697,758,746,735,723,711,632,686,674,596,650,638,626,614,602,590,521,510,554,400,530,518,506,365,363,369,369,364,352,352,352,352,352,352,352,352,352,352,352,352,352,352,352,352,352,352,352,352,352,352,352,352,352,352,352,662,667,669,677,680,823,1046,1157,1289,1349,1339,1318,1291,1289,1268,1246,1206,1187,1166,1138,1110,1097,1081,1057,1036,1015,993,975,956,865,746,829,707,690,679,685,680,648,581,581,581,581,581,581,581,581,581,581,581,581,581,581,581,581,581,581,581,581,581,581,581,581,581,581,581,0,0,0,0,0,0,0,0,0,0,0,0,0,0,0,0,0,0,0,0,0,0,0,0,0,0,0,0,0,0,0,0,0,0,0,0,0,0,0,0,0,0,0,0,0,0,0,0,0,0,0,0,0,0,0,0,0,0,0,0,0,0,0,0,0,1229,1261,1268,1282,1348,1846,2137,2313,2418,2435,2425,2391,2355,2297,2260,2227,2183,2122,2115,2069,2032,1993,1954,1921,1878,1841,1779,1764,1537,1377,1337,1340,1324,1260,1277,1271,1249,1244,1181,1181,1181,1181,1181,1181,1181,1181,1181,1181,1181,1181,1181,1181,1181,1181,1181,1181,1181,1181,1181,1181,1181,1181,1181,1181,1181,835,833,840,837,896,1195,1357,1550,1644,1681,1673,1635,1614,1622,1601,1534,1569,1476,1449,1428,1400,1394,1346,1318,1286,1243,1259,1217,1150,1107,1010,904,882,895,855,846,847,827,813,813,813,813,813,813,813,813,813,813,813,813,813,813,813,813,813,813,813,813,813,813,813,813,813,813,813,710,710,712,715,755,846,1136,1270,1394,1417,1419,1405,1392,1347,1325,1307,1312,1257,1255,1232,1183,1186,1160,1126,1116,1100,1102,1049,1026,962,920,774,772,742,729,749,727,731,653,653,653,653,653,653,653,653,653,653,653,653,653,653,653,653,653,653,653,653,653,653,653,653,653,653,653,622,639,644,633,651,765,996,1115,1238,1301,1279,1254,1247,1214,1223,1176,1165,1149,1128,1072,1066,1059,1030,1009,1002,981,958,914,871,726,780,811,682,666,664,660,641,569,503,503,503,503,503,503,503,503,503,503,503,503,503,503,503,503,503,503,503,503,503,503,503,503,503,503,503,132,132,133,133,163,168,190,212,235,257,271,267,262,258,254,249,245,240,236,232,227,224,220,215,211,206,202,198,193,189,184,180,176,171,167,163,165,165,98,98,98,98,98,98,98,98,98,98,98,98,98,98,98,98,98,98,98,98,98,98,98,98,98,98,98,1128,1110,1135,1143,1369,1755,2059,2256,2354,2352,2357,2257,2216,2227,2229,2149,2119,2015,1974,1958,1914,1911,1833,1810,1769,1694,1667,1632,1552,1475,1240,1222,1163,1181,1150,1147,1143,1142,1143,1143,1143,1143,1143,1143,1143,1143,1143,1143,1143,1143,1143,1143,1143,1143,1143,1143,1143,1143,1143,1143,1143,1143,1143,1143,1143,454,453,455,456,470,612,695,771,870,908,916,900,886,872,858,842,828,814,798,784,770,754,743,726,720,704,682,667,652,642,623,624,609,487,466,459,460,461,430,430,430,430,430,430,430,430,430,430,430,430,430,430,430,430,430,430,430,430,430,430,430,430,430,430,430,970,985,976,987,1086,1424,1644,1790,1874,1934,1940,1906,1863,1839,1818,1796,1755,1713,1692,1652,1620,1589,1559,1544,1502,1464,1455,1415,1359,1100,1184,1095,1028,1010,989,985,948,946,932,935,942,943,936,941,945,956,953,958,949,948,961,954,955,962,961,961,970,957,954,957,965,986,958,980,975,306,306,308,309,310,324,449,438,479,520,535,528,520,512,504,497,488,480,473,532,457,449,442,434,425,418,410,402,444,434,425,415,405,324,315,311,312,312,298,297,299,304,315,312,300,315,305,300,310,314,308,301,306,313,307,305,305,311,304,311,308,317,308,308,306,626,629,631,633,650,870,983,1091,1180,1227,1233,1215,1200,1200,1161,1142,1130,1112,1190,1071,1046,1035,1017,988,969,950,931,961,893,874,871,836,668,652,640,637,650,639,640,629,632,640,627,655,638,645,645,648,644,645,634,641,646,629,641,644,639,642,633,634,644,641,636,640,632,251,252,252,252,253,326,369,413,457,500,513,506,497,489,480,473,464,456,447,440,431,423,414,445,436,390,382,374,366,357,349,341,333,324,316,254,255,256,241,238,239,242,242,243,243,243,243,244,244,244,243,245,245,243,245,246,248,248,246,246,249,249,249,249,249,1360,1366,1371,1407,1701,2214,2424,2568,2634,2654,2645,2598,2543,2532,2460,2432,2392,2349,2413,2261,2225,2198,2154,2111,2075,1961,1827,1795,1544,1529,1487,1493,1413,1406,1383,1371,1388,1361,1360,1353,1360,1368,1363,1378,1364,1375,1372,1375,1367,1367,1362,1367,1372,1357,1370,1373,1365,1372,1361,1358,1366,1366,1359,1365,1357,1095,1099,1102,1114,1193,1610,1898,2190,2273,2310,2279,2263,2210,2161,2119,2079,2040,1999,1982,1919,1879,1842,1793,1784,1719,1693,1613,1624,1585,1452,1215,1227,1164,1167,1135,1123,1127,1139,1120,1113,1114,1115,1123,1128,1124,1136,1131,1133,1136,1140,1132,1140,1139,1128,1128,1140,1142,1147,1137,1137,1140,1140,1134,1133,1132,278,279,279,279,280,359,402,445,488,529,553,544,535,526,518,509,500,491,482,474,465,456,447,438,430,421,412,403,398,389,381,374,365,357,337,281,282,283,270,272,272,276,279,279,279,301,278,278,279,279,273,278,279,305,277,276,280,279,278,278,278,308,273,279,276,1047,1053,1054,1088,1140,1572,1835,1958,2076,2071,2083,2059,1999,1962,1933,1899,1900,1830,1878,1764,1734,1707,1658,1637,1604,1565,1550,1449,1348,1197,1181,1138,1138,1088,1083,1072,1018,1005,1000,1007,1001,1008,1008,1022,1005,1017,1016,1024,1005,1011,1003,1012,1017,996,1017,1013,1008,1015,1003,1008,1015,1015,1008,1011,1003,773,787,790,783,853,1088,1239,1380,1498,1536,1545,1564,1495,1470,1446,1443,1396,1372,1347,1322,1298,1273,1249,1240,1198,1174,1170,1146,1120,1094,1070,1042,821,802,789,797,756,755,743,747,750,753,745,750,754,766,759,765,758,754,768,761,767,770,768,768,776,767,764,767,773,797,770,792,787,1293,1277,1304,1363,1544,2018,2279,2446,2548,2522,2525,2473,2437,2384,2354,2329,2318,2237,2262,2161,2121,2083,2032,2000,1958,1887,1836,1702,1678,1498,1420,1379,1370,1325,1293,1314,1279,1264,1264,1278,1263,1271,1274,1292,1270,1281,1282,1290,1272,1275,1271,1282,1284,1263,1282,1282,1274,1279,1270,1274,1281,1284,1278,1281,1273,466,470,468,470,475,636,717,771,876,944,949,935,914,898,884,869,825,839,823,781,793,778,768,752,708,721,706,687,673,657,646,618,604,488,477,457,475,476,456,455,447,448,463,466,466,468,459,469,469,469,470,464,461,472,465,459,477,466,460,467,466,477,468,469,464,1389,1394,1395,1519,2033,2774,3219,3374,3419,3432,3362,3287,3214,3137,3054,2984,2918,2844,2763,2693,2623,2549,2482,2401,2324,2246,2141,1998,1664,1600,1543,1486,1445,1431,1424,1426,1459,1454,1495,1496,1482,1485,1542,1561,1518,1517,1525,1556,1518,1548,1555,1549,1555,1573,1558,1544,1557,1541,1559,1558,1559,1576,1554,1564,1557,619,621,624,626,641,853,963,1074,1170,1246,1221,1202,1171,1163,1160,1125,1134,1087,1169,1049,1029,1009,1050,972,952,937,973,957,880,861,844,875,681,646,633,630,631,602,598,597,592,599,598,606,597,606,605,612,599,601,594,600,606,586,599,603,599,603,593,595,603,603,596,602,594,513,515,516,561,526,699,792,931,1032,1071,1084,1068,1051,1034,1017,1004,996,972,950,888,915,900,891,867,851,845,838,804,740,723,707,740,551,573,560,551,522,521,523,519,523,527,527,519,530,531,525,526,528,527,531,527,530,533,532,533,529,530,530,532,531,529,531,534,531,491,493,494,495,479,564,730,835,913,974,989,973,937,922,907,892,876,882,865,831,816,817,804,788,773,734,718,725,711,689,678,641,600,523,494,488,489,480,459,458,458,462,470,471,463,461,467,465,468,465,469,463,467,467,462,468,463,463,459,468,463,466,471,490,458,1267,1259,1275,1294,1491,1960,2217,2501,2579,2659,2606,2618,2515,2464,2417,2372,2327,2294,2218,2186,2129,2104,2032,2017,1949,1939,1885,1834,1712,1474,1437,1363,1332,1312,1301,1291,1303,1323,1282,1277,1286,1280,1289,1292,1280,1295,1288,1285,1291,1285,1296,1290,1300,1294,1293,1293,1295,1302,1295,1288,1284,1292,1287,1286,1285,1376,1360,1374,1391,1657,2213,2415,2559,2625,2644,2637,2590,2534,2529,2451,2413,2384,2343,2392,2254,2216,2191,2147,2103,2067,1955,1928,1788,1538,1522,1481,1493,1424,1400,1381,1354,1371,1344,1343,1336,1343,1351,1346,1361,1347,1358,1355,1358,1350,1350,1345,1350,1355,1340,1353,1356,1348,1355,1344,1341,1349,1349,1342,1348,1340,703,710,726,710,766,905,1119,1291,1360,1414,1423,1389,1373,1400,1306,1324,1290,1243,1295,1189,1213,1156,1161,1103,1082,1060,1053,1013,1025,975,897,846,746,729,717,720,732,717,718,712,720,720,721,721,720,727,721,721,725,726,724,726,725,724,724,727,725,727,726,721,725,725,726,725,724,1505,1540,1544,1708,2260,2885,3115,3407,3443,3518,3415,3419,3313,3238,3193,3147,3082,3026,2947,2873,2796,2721,2611,2479,2394,2243,1957,1894,1822,1754,1693,1633,1592,1548,1550,1536,1570,1565,1611,1610,1598,1599,1651,1656,1632,1630,1638,1651,1630,1651,1647,1651,1652,1665,1650,1649,1653,1655,1651,1650,1651,1668,1646,1656,1649,689,703,693,695,719,959,1086,1213,1311,1377,1387,1365,1366,1321,1341,1298,1254,1232,1210,1188,1166,1144,1120,1117,1076,1054,1052,1030,988,965,962,939,736,718,704,699,701,702,687,693,693,696,688,696,697,713,702,712,705,697,715,703,709,712,711,711,718,712,712,709,712,724,712,729,726,909,912,915,931,988,1333,1511,1664,1752,1810,1812,1736,1689,1694,1697,1667,1639,1592,1564,1523,1523,1512,1465,1436,1406,1378,1349,1311,1257,1006,982,985,962,952,928,923,916,944,925,924,926,932,931,936,931,944,933,951,950,940,944,953,958,969,956,959,945,954,956,952,959,960,945,1025,1010,1271,1274,1279,1329,1424,1965,2238,2555,2606,2664,2611,2623,2520,2488,2421,2376,2332,2299,2241,2209,2151,2108,2065,2029,1970,1921,1872,1740,1733,1480,1442,1367,1335,1315,1304,1311,1306,1326,1289,1284,1287,1286,1286,1290,1284,1288,1286,1288,1292,1295,1294,1300,1299,1298,1294,1302,1297,1294,1298,1289,1295,1302,1288,1287,1286,650,680,655,657,674,896,1015,1134,1232,1299,1311,1290,1269,1248,1227,1228,1185,1164,1144,1123,1102,1081,1060,1058,1018,997,996,975,935,914,911,887,696,679,666,660,662,657,642,648,647,651,642,649,651,667,656,666,659,652,666,657,662,666,665,665,672,666,666,663,666,692,668,693,678,1163,1167,1171,1183,1362,1815,2024,2183,2254,2281,2273,2238,2189,2173,2133,2096,2062,2025,2092,1950,1917,1894,1855,1819,1781,1735,1694,1696,1520,1485,1399,1313,1215,1200,1184,1180,1197,1170,1169,1162,1169,1177,1172,1187,1173,1184,1181,1184,1176,1176,1171,1176,1181,1166,1179,1182,1174,1181,1170,1167,1175,1175,1168,1174,1166,0,0,0,0,0,0,0,0,0,0,0,0,0,0,0,0,0,0,0,0,0,0,0,0,0,0,0,0,0,0,0,0,0,0,0,0,0,0,0,0,0,0,0,0,0,0,0,0,0,0,0,0,0,0,0,0,0,0,0,0,0,0,0,0,0,741,744,746,749,777,1044,1194,1395,1488,1527,1526,1502,1478,1454,1428,1404,1380,1356,1371,1306,1282,1258,1234,1208,1206,1160,1136,1131,1102,1062,993,965,883,790,756,770,767,779,741,733,739,753,743,758,740,756,754,748,755,747,745,751,746,746,748,754,752,756,748,744,754,758,757,758,754,740,748,724,727,746,995,1127,1317,1370,1421,1527,1461,1435,1376,1390,1316,1293,1270,1248,1237,1258,1180,1168,1145,1151,1098,1106,1073,1059,997,974,961,868,741,735,723,754,749,739,735,746,759,756,757,752,761,751,754,752,749,752,765,761,769,772,765,759,765,762,756,752,774,758,777,753,684,685,688,690,712,950,1076,1203,1300,1366,1377,1355,1333,1311,1289,1289,1245,1223,1201,1179,1157,1135,1113,1091,1069,1065,1025,1003,981,959,937,915,730,712,699,693,695,698,679,683,699,728,696,705,686,702,687,714,696,691,697,700,711,717,710,704,700,700,708,702,699,727,694,703,699,1242,1260,1257,1317,1489,1941,2245,2375,2436,2458,2437,2414,2354,2305,2257,2222,2243,2178,2181,2103,2059,1986,1950,1944,1896,1847,1826,1792,1621,1459,1437,1336,1321,1285,1283,1250,1239,1223,1217,1226,1227,1233,1239,1266,1229,1242,1242,1249,1233,1232,1228,1239,1244,1219,1244,1234,1230,1239,1225,1233,1240,1239,1226,1229,1221,266,266,267,268,269,346,391,436,481,525,539,531,522,513,504,497,488,479,470,463,454,445,436,429,420,411,402,394,386,377,369,360,352,343,274,270,270,271,240,233,234,234,239,239,234,241,235,235,239,240,238,240,239,238,238,241,239,241,240,236,239,239,240,239,238,970,985,976,987,1086,1424,1644,1790,1874,1934,1940,1906,1863,1839,1818,1796,1755,1713,1692,1652,1620,1589,1559,1544,1502,1464,1455,1415,1359,1100,1184,1095,1028,1010,989,985,948,946,932,935,942,943,936,941,945,956,953,958,949,948,961,954,955,962,961,961,970,957,954,957,965,986,958,980,975,877,869,872,862,949,1113,1417,1547,1652,1709,1691,1696,1678,1642,1643,1586,1565,1522,1503,1461,1446,1424,1413,1377,1328,1300,1307,1264,1234,1167,1019,927,974,894,882,892,868,864,825,834,831,839,844,835,842,845,837,844,833,840,844,848,853,852,854,848,838,843,853,850,849,840,844,842,842,692,701,703,705,738,952,1073,1220,1326,1382,1400,1379,1382,1333,1302,1283,1260,1237,1234,1200,1169,1149,1133,1110,1088,1047,1054,1022,1001,983,891,794,747,728,712,702,727,711,683,682,685,698,698,713,689,708,695,733,721,713,709,718,703,733,721,710,739,733,712,719,701,740,738,730,702,465,466,469,482,472,544,708,774,838,881,895,895,880,874,855,854,842,830,817,799,796,786,773,760,739,715,710,702,672,658,647,612,504,516,487,484,472,454,381,384,380,385,392,388,385,394,383,395,385,388,386,391,389,393,389,391,387,385,391,391,385,386,384,387,387,635,637,638,640,662,897,1039,1222,1325,1404,1405,1383,1343,1334,1302,1280,1251,1228,1199,1176,1135,1109,1096,1059,1046,1019,999,969,942,921,886,708,687,658,649,644,651,630,640,635,651,642,653,646,679,651,651,649,648,658,699,679,700,708,649,656,658,678,656,652,658,653,655,656,655,910,891,909,918,940,1151,1465,1628,1769,1798,1765,1760,1710,1705,1676,1615,1605,1590,1553,1513,1476,1466,1453,1383,1356,1352,1309,1295,1025,988,1145,980,969,931,908,899,906,879,833,825,832,837,840,839,830,838,840,830,835,835,835,838,838,867,839,846,835,850,841,846,847,845,847,838,838,546,570,549,552,562,714,859,958,1047,1109,1100,1082,1084,1066,1029,1030,994,976,1006,942,925,907,889,920,867,837,819,822,743,767,763,721,585,570,574,554,572,558,538,541,537,557,546,538,547,565,547,557,560,560,550,543,536,543,546,563,541,547,535,542,535,538,541,539,539,586,580,589,591,594,811,942,1102,1240,1308,1309,1288,1265,1239,1212,1191,1153,1130,1114,1094,1066,1042,1007,999,971,947,926,898,877,850,769,755,693,641,600,594,593,518,521,523,525,531,525,530,555,532,530,528,535,535,555,573,573,558,529,531,535,530,532,532,532,529,524,522,521,729,731,748,737,767,950,1182,1318,1409,1465,1470,1446,1424,1401,1379,1354,1331,1308,1285,1260,1221,1214,1191,1166,1128,1120,1098,1061,1057,1034,953,903,774,771,743,746,726,684,660,649,654,670,673,672,663,671,673,663,668,668,668,662,671,683,672,675,668,662,668,678,676,678,677,671,671,861,863,865,868,966,1094,1403,1551,1654,1709,1711,1689,1662,1634,1597,1577,1556,1520,1492,1454,1440,1413,1386,1382,1338,1290,1276,1254,1220,1116,1063,952,923,893,877,887,858,828,796,803,803,812,800,813,807,809,808,813,808,816,818,815,817,823,818,813,810,813,807,814,811,808,809,814,813,964,964,980,974,1009,1297,1635,1764,1874,1895,1921,1890,1862,1832,1781,1713,1738,1710,1662,1602,1595,1533,1503,1510,1475,1461,1427,1328,1266,1109,1099,1053,1026,1009,980,978,987,939,893,885,892,897,900,899,890,898,900,890,895,895,895,898,898,927,899,906,895,910,901,906,907,905,907,898,898,835,828,833,848,936,1219,1398,1632,1772,1826,1788,1795,1762,1697,1690,1662,1626,1597,1533,1532,1495,1471,1433,1411,1344,1339,1289,1249,1217,1206,1146,1055,929,863,846,838,845,843,844,838,843,854,844,860,862,858,863,869,870,857,866,857,864,869,857,867,869,865,870,862,868,886,862,862,861,1292,1318,1317,1352,1468,2003,2274,2408,2556,2598,2520,2502,2434,2448,2404,2358,2331,2267,2247,2191,2175,2073,2075,2039,2029,1963,1906,1780,1648,1440,1443,1404,1379,1360,1350,1329,1338,1352,1326,1315,1313,1343,1334,1339,1345,1342,1342,1339,1347,1349,1350,1351,1351,1355,1357,1355,1354,1361,1352,1362,1355,1351,1352,1348,1348,526,527,529,545,554,683,772,859,961,1018,1033,1018,1008,982,967,953,940,920,904,876,870,855,841,823,809,778,776,764,748,732,717,689,678,590,538,534,550,495,473,470,470,479,467,480,474,476,475,480,480,483,485,482,484,490,485,480,477,480,474,481,478,475,476,481,480,643,640,644,652,661,820,992,1089,1196,1276,1276,1257,1249,1224,1195,1175,1155,1126,1126,1110,1074,1046,1039,1017,993,953,982,948,909,903,866,852,684,659,647,658,666,631,599,604,609,613,615,615,609,616,616,627,621,614,618,615,627,625,615,619,627,616,617,618,618,641,630,636,620,439,440,465,466,466,631,743,856,969,1040,1047,1057,1007,1024,969,979,957,933,953,930,907,884,860,837,814,790,731,712,686,674,674,663,614,510,450,469,484,459,460,464,458,462,466,469,493,544,463,469,472,491,473,464,467,553,473,470,471,467,466,468,466,472,472,482,465,728,719,715,719,737,1007,1155,1269,1367,1433,1431,1410,1388,1365,1362,1320,1296,1273,1230,1246,1205,1182,1157,1153,1104,1107,1051,1061,1023,1001,977,913,856,744,731,717,719,732,701,702,703,717,713,713,713,712,716,717,721,714,720,706,720,714,724,738,719,721,721,719,722,728,707,722,722,873,882,889,891,902,1142,1441,1603,1710,1756,1756,1707,1679,1672,1624,1596,1587,1560,1513,1486,1468,1430,1419,1383,1347,1332,1301,1263,1251,1200,1044,998,920,900,895,892,887,862,816,808,815,820,823,822,813,821,823,813,818,818,818,821,821,850,822,829,818,833,824,829,830,828,830,821,821,270,271,271,272,273,342,384,424,465,506,530,522,514,507,499,490,482,475,467,458,451,443,435,427,419,411,403,396,387,379,371,364,356,347,292,274,288,288,234,229,230,232,237,234,231,237,232,235,234,235,237,234,238,245,241,241,236,242,237,239,240,241,267,271,269,1176,1205,1197,1216,1414,1776,2054,2193,2299,2359,2288,2339,2238,2232,2172,2126,2104,2052,2029,1985,1965,1906,1874,1841,1858,1775,1743,1660,1538,1323,1274,1296,1242,1263,1186,1203,1212,1225,1199,1205,1207,1215,1222,1213,1226,1214,1216,1211,1218,1219,1225,1225,1225,1227,1229,1229,1226,1235,1226,1233,1229,1223,1224,1221,1221,747,750,752,755,792,907,1203,1317,1431,1490,1494,1476,1454,1429,1395,1377,1360,1327,1304,1266,1257,1232,1209,1208,1168,1124,1113,1095,1065,1011,869,848,828,778,764,774,763,722,682,690,689,698,703,698,697,695,696,705,690,699,699,707,706,716,709,699,692,696,703,700,699,693,696,693,693,991,1008,1006,1025,1127,1359,1645,1816,1953,1968,1959,1968,1945,1869,1825,1797,1810,1751,1721,1688,1644,1636,1622,1587,1568,1461,1483,1445,1341,1296,1181,1053,1076,1042,1024,1032,1020,994,972,969,969,978,966,979,973,975,974,979,979,982,984,981,983,989,984,979,976,979,973,980,977,974,975,980,979,731,735,737,738,740,1011,1160,1287,1395,1438,1464,1414,1392,1389,1366,1324,1301,1298,1274,1250,1210,1186,1180,1157,1118,1111,1088,1026,1010,961,942,919,765,747,751,742,734,736,712,706,707,716,722,720,709,716,717,710,719,721,718,719,720,725,724,726,722,727,719,733,712,729,724,722,722,757,758,772,762,810,972,1182,1337,1436,1492,1508,1476,1467,1426,1403,1382,1369,1335,1312,1277,1268,1242,1227,1203,1179,1135,1132,1111,1069,1046,872,812,860,782,782,779,765,730,708,705,705,714,702,715,709,711,710,715,715,718,720,717,719,725,720,715,712,715,709,716,713,710,711,716,715,706,691,711,713,727,854,1100,1231,1360,1375,1372,1376,1332,1343,1320,1266,1252,1251,1220,1188,1157,1152,1146,1081,1059,1063,1026,1018,982,942,938,845,768,732,702,699,705,688,642,634,641,646,649,648,639,647,649,639,644,644,644,647,647,676,648,655,644,659,650,655,656,654,656,647,647,647,648,650,652,667,869,1053,1234,1354,1415,1419,1395,1369,1362,1314,1293,1263,1241,1211,1189,1160,1135,1116,1090,1059,1032,1007,986,892,867,835,819,699,675,661,656,663,657,644,648,652,654,655,659,673,660,654,657,657,660,669,680,686,703,655,657,660,658,659,656,661,657,657,655,654,0,0,0,0,0,0,0,0,0,0,0,0,0,0,0,0,0,0,0,0,0,0,0,0,0,0,0,0,0,0,0,0,0,0,0,0,0,0,0,0,0,0,0,0,0,0,0,0,0,0,0,0,0,0,0,0,0,0,0,0,0,0,0,0,0,828,833,833,836,905,1096,1307,1470,1559,1612,1626,1593,1582,1552,1514,1492,1481,1440,1419,1389,1367,1340,1325,1297,1287,1225,1221,1200,1169,1134,1032,958,935,851,844,841,832,801,779,776,776,785,773,786,780,782,781,786,786,789,791,788,790,796,791,786,783,786,780,787,784,781,782,787,786,628,630,632,634,666,830,989,1081,1190,1252,1261,1246,1229,1208,1177,1160,1148,1120,1100,1065,1058,1039,1018,1022,985,946,939,925,897,883,837,731,714,653,640,651,639,610,572,577,575,585,593,583,584,582,581,588,577,583,586,591,592,593,595,587,579,588,591,588,586,578,582,581,581,813,796,817,829,840,1012,1294,1447,1588,1621,1590,1583,1534,1542,1515,1458,1450,1437,1403,1366,1332,1321,1313,1242,1220,1218,1179,1168,1128,1083,969,957,874,837,809,806,813,785,739,731,738,743,746,745,736,744,746,736,741,741,741,744,744,773,745,752,741,756,747,752,753,751,753,744,744,382,383,384,385,387,525,623,724,825,898,907,894,876,858,837,822,800,786,765,751,730,711,694,676,658,641,623,605,587,569,543,534,517,499,394,387,393,387,389,391,395,399,396,400,499,401,396,397,402,403,498,508,501,500,396,399,403,400,401,400,401,400,396,396,399,877,869,872,862,949,1113,1417,1547,1652,1709,1691,1696,1678,1642,1643,1586,1565,1522,1503,1461,1446,1424,1413,1377,1328,1300,1307,1264,1234,1167,1019,927,974,894,882,892,868,864,825,834,831,839,844,835,842,845,837,844,833,840,844,848,853,852,854,848,838,843,853,850,849,840,844,842,842,400,401,401,402,413,436,581,648,715,798,806,793,779,767,757,749,735,722,697,701,685,658,659,639,633,598,601,595,567,568,468,501,423,438,416,417,418,413,366,353,350,349,360,360,359,356,356,359,377,363,362,368,368,369,351,361,369,369,390,395,357,359,390,353,351,635,637,653,655,697,824,991,1101,1228,1260,1273,1244,1233,1232,1191,1172,1151,1131,1109,1089,1098,1055,1035,1014,981,974,971,956,930,731,715,820,682,663,648,672,646,675,648,636,637,661,656,656,640,650,654,668,663,662,663,672,657,679,666,664,675,677,670,663,663,663,663,663,663,465,467,483,470,472,578,686,769,853,913,944,914,900,886,874,851,844,825,817,793,778,775,739,746,733,745,679,694,664,585,565,552,560,528,486,483,484,455,412,414,415,416,416,418,420,421,419,420,420,422,422,423,426,426,427,427,426,427,429,428,428,426,426,426,426,826,816,826,835,948,1164,1295,1470,1590,1642,1644,1618,1601,1551,1524,1535,1472,1468,1455,1394,1381,1362,1336,1323,1263,1237,1212,1204,1159,1144,1101,1081,863,852,829,825,828,838,841,846,841,852,854,855,852,882,843,851,851,848,845,873,858,858,855,855,853,852,864,859,847,847,847,847,847,868,871,873,878,945,1230,1401,1567,1676,1730,1734,1718,1668,1641,1628,1607,1576,1531,1519,1484,1455,1442,1407,1366,1353,1323,1297,1252,1224,983,981,979,930,902,912,882,884,875,848,851,854,855,861,858,863,865,862,861,859,862,861,867,865,870,864,861,866,859,861,868,856,864,858,862,862,843,823,834,851,848,1184,1339,1526,1637,1653,1647,1640,1595,1564,1560,1515,1507,1499,1448,1467,1384,1368,1335,1344,1268,1249,1219,1191,1186,1030,1046,949,908,861,865,833,851,867,842,841,837,842,856,860,858,873,861,872,868,858,871,882,871,877,874,860,865,862,879,881,861,874,871,882,882,848,837,840,862,892,1188,1342,1493,1608,1676,1674,1647,1621,1596,1569,1543,1516,1490,1465,1438,1402,1386,1359,1322,1295,1281,1243,1228,1189,1205,996,969,885,865,852,900,850,865,866,858,865,876,865,847,872,908,890,872,918,877,873,882,887,922,884,860,881,883,883,886,866,866,866,866,866,524,527,528,529,532,656,778,870,973,1048,1063,1047,1030,1012,988,979,961,952,919,904,895,871,854,838,821,804,787,773,760,738,691,659,562,554,541,533,536,484,465,463,466,473,473,473,474,473,469,475,477,468,473,473,473,478,471,473,472,467,475,478,471,476,474,472,470,189,189,189,189,221,227,272,303,335,366,381,375,369,364,357,352,345,339,333,327,322,315,310,303,298,291,286,280,273,268,250,245,238,233,227,222,223,223,174,162,161,161,168,170,168,165,165,169,178,170,171,174,175,176,163,169,176,176,182,182,167,169,183,164,163,746,776,756,781,791,1022,1162,1335,1427,1506,1538,1515,1494,1469,1402,1417,1393,1369,1342,1278,1292,1276,1223,1188,1200,1173,1153,1128,1104,1081,830,855,807,789,790,753,781,745,724,727,737,735,736,739,744,738,733,741,743,735,737,741,743,745,738,738,741,733,739,745,737,742,743,742,740,1026,1055,1047,1065,1169,1535,1761,1879,2008,2073,2054,2028,1969,1977,1934,1892,1882,1806,1773,1769,1725,1676,1668,1629,1596,1582,1549,1508,1450,1170,1173,1131,1144,1070,1058,1068,1064,1042,1065,1061,1067,1081,1080,1088,1072,1078,1085,1086,1078,1081,1079,1088,1083,1071,1088,1090,1084,1083,1079,1088,1091,1091,1091,1091,1091,1332,1303,1328,1406,1802,2314,2613,2779,2874,2902,2854,2808,2752,2702,2703,2652,2598,2553,2472,2416,2358,2350,2250,2189,2127,2006,1951,1771,1753,1491,1448,1387,1402,1355,1337,1351,1350,1367,1393,1403,1401,1402,1409,1411,1409,1406,1406,1410,1437,1411,1412,1415,1416,1417,1404,1410,1417,1417,1454,1431,1408,1410,1448,1405,1404,367,368,383,369,370,481,522,595,652,702,712,702,691,682,671,660,650,643,629,618,607,597,586,575,565,579,529,557,509,512,501,491,480,469,419,371,372,373,363,365,362,369,369,370,369,378,367,368,369,373,370,365,366,380,370,368,369,373,363,370,366,370,369,372,366,544,527,553,556,546,661,785,863,942,1026,1008,1021,995,970,942,922,913,894,910,881,869,858,840,809,819,781,783,762,752,733,702,689,550,559,549,558,550,539,531,521,522,524,527,528,529,525,530,531,534,526,535,533,534,528,528,537,533,542,527,527,535,535,535,535,530,1052,1062,1069,1082,1209,1573,1769,1931,2025,2101,2088,2058,2025,1994,1960,1928,1857,1824,1803,1797,1759,1711,1662,1646,1621,1600,1559,1527,1492,1353,1161,1205,1108,1094,1093,1058,1041,1051,1053,1053,1056,1062,1068,1065,1062,1075,1068,1072,1082,1074,1070,1080,1089,1081,1071,1071,1076,1074,1062,1080,1068,1068,1068,1068,1063,924,926,921,937,943,1268,1495,1646,1781,1812,1831,1815,1768,1720,1689,1683,1634,1604,1605,1565,1536,1511,1494,1437,1403,1391,1367,1329,1280,1240,1184,1030,972,952,946,937,945,924,898,896,896,904,916,909,913,924,910,912,914,911,911,915,920,925,918,911,938,912,919,916,912,919,933,919,919,863,865,868,872,938,1221,1372,1541,1667,1715,1731,1693,1659,1632,1619,1604,1571,1522,1510,1484,1441,1434,1386,1358,1333,1320,1289,1234,1234,1183,974,957,924,896,908,875,865,858,829,832,837,836,844,844,845,848,840,844,836,841,840,848,846,851,846,845,849,842,844,850,846,843,838,844,844,730,753,765,746,797,1053,1165,1276,1398,1437,1436,1414,1379,1419,1337,1327,1334,1304,1284,1251,1206,1222,1186,1178,1140,1100,1105,1081,1018,1036,1019,839,774,764,759,766,744,746,751,753,749,754,754,752,759,761,766,774,774,766,759,764,772,773,776,770,768,773,771,777,770,772,772,772,772,1351,1371,1381,1424,1560,2135,2348,2525,2646,2654,2655,2602,2535,2513,2506,2446,2379,2363,2296,2264,2193,2188,2088,2072,2072,2019,1762,1587,1619,1536,1546,1440,1437,1414,1388,1379,1378,1393,1379,1375,1368,1379,1397,1390,1401,1401,1395,1397,1389,1398,1395,1398,1401,1406,1400,1399,1401,1396,1397,1404,1399,1399,1395,1403,1401,127,127,128,128,158,161,183,204,225,247,260,257,253,248,244,240,236,232,227,224,220,215,211,207,203,199,194,190,187,182,178,173,170,166,161,158,159,159,118,120,119,120,121,121,120,122,118,121,118,119,120,124,124,124,122,120,121,120,126,128,120,122,120,121,121,288,289,290,291,292,297,429,479,529,576,589,580,570,562,552,543,533,524,514,504,496,486,477,467,458,448,440,430,420,411,401,309,382,306,297,293,294,295,280,285,283,283,279,287,285,283,286,360,306,287,285,288,285,291,292,289,286,288,288,289,289,284,287,299,288,908,909,913,919,933,1287,1459,1622,1746,1798,1791,1780,1732,1705,1676,1649,1620,1606,1579,1553,1520,1500,1466,1421,1394,1379,1338,1305,1293,1252,1096,979,963,935,937,921,918,915,893,899,896,907,907,910,906,925,912,907,912,905,904,915,913,923,918,920,920,917,922,924,915,926,922,926,926,90,90,90,111,111,113,127,141,156,169,181,178,176,172,170,167,163,161,158,156,152,150,147,145,141,139,136,133,130,127,125,122,119,116,114,111,112,112,76,77,77,79,78,77,79,80,77,77,78,78,79,78,79,79,77,78,79,80,80,78,79,81,78,79,79,671,674,675,678,711,907,1034,1167,1277,1339,1342,1335,1299,1278,1269,1250,1228,1193,1182,1150,1128,1125,1086,1064,1055,1023,1011,975,969,937,916,840,729,703,705,682,684,684,660,660,663,664,670,670,674,674,671,670,668,671,670,676,674,679,673,673,675,669,670,679,672,673,668,677,676,701,703,705,708,729,958,1084,1209,1325,1400,1402,1380,1357,1335,1313,1291,1269,1247,1225,1203,1180,1158,1136,1114,1092,1070,1048,1025,1003,981,959,937,915,730,716,711,713,715,707,708,713,714,717,716,719,725,721,723,715,719,715,719,717,724,724,722,723,720,721,719,717,717,717,717,717,739,746,754,751,748,989,1167,1328,1447,1497,1490,1466,1453,1422,1394,1357,1333,1329,1300,1276,1250,1214,1203,1180,1160,1150,1082,1099,1037,959,929,913,790,783,770,756,758,743,696,698,701,706,708,707,719,707,705,706,706,708,708,709,712,712,713,713,712,713,715,714,714,712,712,712,712,0,0,0,0,0,0,0,0,0,0,0,0,0,0,0,0,0,0,0,0,0,0,0,0,0,0,0,0,0,0,0,0,0,0,0,0,0,0,0,0,0,0,0,0,0,0,0,0,0,0,0,0,0,0,0,0,0,0,0,0,0,0,0,0,0,250,251,252,247,248,317,360,402,442,485,499,491,484,476,467,467,452,444,435,427,420,412,411,396,388,380,378,370,363,354,341,333,324,322,309,248,304,305,216,219,218,219,220,220,220,221,218,220,217,218,219,224,223,224,222,223,221,219,225,228,223,223,220,219,219,710,737,726,740,756,961,1138,1242,1403,1464,1420,1448,1378,1356,1350,1309,1285,1270,1246,1258,1194,1178,1191,1165,1109,1088,1069,1039,1035,996,976,921,781,740,749,746,723,705,683,680,685,699,698,704,713,697,694,701,702,696,694,698,700,705,694,700,693,689,699,700,696,701,698,690,688,836,838,841,851,893,1178,1335,1499,1604,1672,1668,1642,1615,1589,1563,1544,1509,1482,1456,1430,1402,1376,1349,1323,1296,1270,1243,1216,1190,1163,1087,959,886,866,870,849,830,832,844,827,834,838,820,848,831,846,850,856,848,846,852,852,892,896,856,848,839,847,849,844,843,843,843,843,843,400,401,401,402,413,436,581,648,715,798,806,793,779,767,757,749,735,722,697,701,685,658,659,639,633,598,601,595,567,568,468,501,423,438,416,417,418,413,366,353,350,349,360,360,359,356,356,359,377,363,362,368,368,369,351,361,369,369,390,395,357,359,390,353,351,330,331,332,333,334,437,495,553,610,663,674,663,651,641,630,619,609,606,587,577,565,554,544,533,522,512,501,489,480,469,458,447,437,349,340,335,336,337,301,301,304,304,302,301,300,307,311,311,311,311,311,311,311,311,311,311,311,311,311,311,311,311,311,311,311,614,615,613,616,674,767,873,956,1002,1056,1071,1060,1037,1039,1014,999,1004,984,960,946,931,916,915,902,889,864,860,846,836,822,789,775,760,630,611,625,613,628,575,583,578,610,598,607,586,595,585,605,602,604,601,612,597,618,602,605,613,614,619,607,602,628,605,602,599,255,256,257,258,258,310,365,401,438,476,479,478,477,468,462,455,447,441,433,426,420,412,405,399,391,385,377,370,364,356,349,342,335,313,262,259,260,260,246,234,230,231,245,245,246,239,239,245,251,249,256,252,250,260,240,245,249,252,259,261,251,254,251,244,242,918,921,912,922,974,1216,1432,1583,1669,1734,1743,1707,1683,1659,1621,1595,1565,1563,1519,1504,1459,1453,1411,1408,1381,1357,1316,1292,1240,1018,1115,1018,960,949,943,918,921,906,876,878,880,892,885,892,883,884,884,881,885,879,884,895,889,894,891,896,895,893,914,888,903,891,883,888,885,754,757,779,780,831,947,1207,1363,1469,1510,1507,1482,1489,1434,1410,1387,1390,1338,1332,1301,1267,1267,1218,1194,1194,1147,1123,1098,1072,1015,935,820,801,813,777,773,780,761,728,722,725,730,729,730,731,736,728,728,728,728,728,728,728,728,728,728,728,728,728,728,728,728,728,728,728,715,695,683,683,702,866,1089,1262,1316,1422,1421,1333,1304,1273,1279,1305,1232,1262,1195,1221,1130,1122,1094,1130,1094,1065,1008,988,972,892,859,840,799,697,724,738,700,692,700,689,708,715,711,713,706,714,716,723,724,723,729,729,729,729,723,715,706,729,724,720,720,729,729,729,723,927,932,934,946,994,1242,1466,1606,1707,1758,1768,1750,1708,1685,1659,1637,1614,1589,1555,1531,1507,1482,1459,1435,1411,1387,1316,1297,1275,1192,1129,1088,982,970,965,941,948,935,905,907,913,932,923,924,919,919,923,918,918,919,915,932,928,927,922,928,926,925,949,930,945,933,925,930,927,426,426,428,430,431,476,620,697,769,839,852,839,830,818,799,790,776,757,749,736,723,704,690,682,668,655,641,628,617,603,509,499,485,457,448,446,455,419,337,338,339,342,343,341,340,342,339,339,339,339,339,339,339,339,339,339,339,339,339,339,339,339,339,339,339,302,303,304,304,305,388,441,491,543,592,616,601,592,583,576,563,553,544,534,524,514,506,496,486,476,466,457,447,437,427,419,409,399,389,330,321,323,323,272,278,276,277,279,279,279,283,276,276,276,276,276,276,276,276,276,276,276,276,276,276,276,276,276,276,276,669,675,675,654,679,820,1027,1150,1242,1331,1346,1321,1301,1281,1258,1236,1215,1194,1171,1147,1127,1112,1089,1068,1048,982,983,937,946,930,854,837,731,696,685,681,666,651,598,597,603,613,605,604,606,612,604,604,604,604,604,604,604,604,604,604,604,604,604,604,604,604,604,604,604,1135,1140,1155,1188,1266,1564,1827,1988,2107,2150,2122,2101,2052,2019,2002,1970,1943,1898,1872,1854,1797,1790,1763,1724,1681,1651,1619,1600,1487,1310,1223,1217,1183,1162,1154,1152,1137,1114,1077,1082,1092,1105,1099,1106,1096,1097,1094,1099,1097,1093,1089,1103,1101,1106,1103,1103,1097,1100,1125,1099,1114,1102,1094,1099,1096,1354,1379,1389,1455,1678,2001,2408,2590,2605,2686,2684,2615,2573,2521,2484,2466,2449,2364,2293,2264,2231,2219,2160,2114,2071,1963,1728,1739,1563,1529,1538,1413,1412,1455,1396,1408,1385,1409,1374,1371,1370,1381,1377,1385,1382,1388,1379,1379,1379,1379,1379,1379,1379,1379,1379,1379,1379,1379,1379,1379,1379,1379,1379,1379,1379,260,260,260,260,260,262,269,276,282,289,292,291,290,289,287,286,284,283,282,281,279,278,277,276,275,273,271,270,269,268,267,266,264,262,261,260,276,261,196,199,198,199,200,200,199,201,197,201,197,198,199,203,204,207,204,201,202,200,207,210,202,204,199,201,202,538,532,540,531,550,674,744,786,855,876,917,893,869,893,852,862,846,838,851,825,822,810,795,762,770,765,733,722,709,699,705,669,546,596,544,531,531,519,485,492,491,494,496,500,497,494,491,503,508,493,493,506,504,503,502,508,505,504,515,504,502,506,495,503,500,883,885,909,900,1066,1399,1633,1759,1889,1922,1908,1886,1865,1838,1784,1766,1705,1700,1752,1666,1568,1552,1501,1506,1478,1409,1402,1365,1314,1261,1181,1115,956,945,931,901,918,918,895,891,907,945,899,909,896,900,901,911,918,917,915,922,923,926,927,920,911,925,927,923,925,924,923,929,927,811,814,816,833,839,1034,1305,1442,1553,1616,1595,1593,1579,1540,1493,1466,1486,1412,1408,1381,1358,1331,1293,1286,1235,1228,1202,1175,1134,1019,1000,909,850,826,826,823,836,812,772,770,771,777,788,780,784,790,778,778,778,778,778,778,778,778,778,778,778,778,778,778,778,778,778,778,778,747,752,773,774,796,952,1197,1361,1467,1485,1497,1479,1464,1425,1401,1378,1388,1329,1323,1268,1265,1259,1211,1186,1174,1138,1115,1091,1064,1039,958,837,817,799,774,780,774,744,711,703,708,711,711,717,714,714,711,711,711,711,711,711,711,711,711,711,711,711,711,711,711,711,711,711,711,597,620,604,606,617,677,900,965,1062,1093,1105,1086,1061,1047,1042,1043,1028,1020,980,995,943,970,940,899,910,895,872,856,845,825,783,725,715,609,612,609,607,612,597,589,590,594,597,597,601,603,600,603,606,608,609,610,610,613,602,610,611,615,612,615,608,618,615,611,609,1265,1269,1274,1291,1408,1765,2139,2346,2395,2459,2468,2371,2422,2346,2312,2282,2226,2141,2106,2050,2029,2014,1959,1924,1902,1866,1659,1555,1485,1417,1425,1303,1289,1328,1263,1282,1273,1282,1264,1246,1241,1255,1265,1262,1267,1270,1264,1264,1264,1264,1264,1264,1264,1264,1264,1264,1264,1264,1264,1264,1264,1264,1264,1264,1264,189,189,189,190,191,240,271,302,334,365,386,379,374,367,361,355,348,343,336,331,324,319,312,305,300,293,288,281,276,269,262,257,250,245,211,206,207,207,162,162,162,163,171,171,169,167,168,169,169,169,169,169,169,168,169,169,166,166,167,169,169,168,167,169,166,483,474,477,487,492,623,731,817,903,967,977,961,946,930,915,899,891,867,844,837,821,805,789,774,759,743,728,711,696,680,641,627,518,505,494,480,492,493,459,458,463,465,463,470,467,468,467,467,467,467,467,467,467,467,467,467,467,467,467,467,467,467,467,467,467,794,797,800,825,829,1058,1285,1432,1536,1578,1574,1591,1556,1515,1503,1450,1453,1400,1393,1350,1325,1312,1300,1274,1225,1212,1188,1151,1126,1055,973,958,850,821,828,806,813,813,767,766,770,770,779,781,777,778,779,779,779,779,779,779,779,779,779,779,779,779,779,779,779,779,779,779,779,232,225,234,234,234,297,335,372,412,450,462,453,457,435,444,434,426,420,412,404,397,390,382,375,367,359,353,345,337,330,321,315,302,300,292,235,236,253,193,193,202,214,193,195,195,196,195,195,195,195,195,195,195,195,195,195,195,195,195,195,195,195,195,195,195,586,560,562,574,576,637,864,962,1071,1118,1120,1103,1105,1068,1050,1032,1042,996,996,961,943,950,908,889,896,894,837,819,801,807,749,612,597,626,570,567,579,570,537,534,534,539,538,543,540,546,537,537,537,537,537,537,537,537,537,537,537,537,537,537,537,537,537,537,537,766,768,770,802,826,1021,1126,1231,1332,1389,1402,1392,1356,1338,1321,1302,1283,1264,1245,1217,1197,1179,1161,1142,1124,1105,1086,1068,1049,1030,879,866,797,783,774,775,777,764,724,734,727,748,737,738,744,740,734,740,746,735,739,757,753,748,742,742,742,743,765,744,744,746,740,746,743,522,523,540,531,536,656,804,899,1003,1043,1040,1026,1008,993,990,961,964,929,920,903,904,870,871,833,834,801,785,785,751,738,717,715,611,596,549,545,531,517,512,505,511,517,507,527,519,523,522,518,540,514,514,515,513,542,514,520,513,515,513,515,520,518,517,535,522,312,314,314,342,315,347,456,509,567,622,635,627,613,607,596,583,573,561,553,543,533,522,511,505,492,482,480,463,453,442,374,365,360,348,340,315,332,337,285,285,286,287,287,287,288,290,288,288,288,288,288,288,288,288,288,288,288,288,288,288,288,288,288,288,288,0,0,0,0,0,0,0,0,0,0,0,0,0,0,0,0,0,0,0,0,0,0,0,0,0,0,0,0,0,0,0,0,0,0,0,0,0,0,0,0,0,0,0,0,0,0,0,0,0,0,0,0,0,0,0,0,0,0,0,0,0,0,0,0,0,632,611,623,637,641,771,956,1084,1194,1269,1277,1205,1190,1166,1152,1160,1111,1088,1067,1086,1067,1009,1012,1006,949,932,948,893,893,853,805,681,691,652,641,641,643,634,558,556,556,561,569,566,571,585,563,563,563,563,563,563,563,563,563,563,563,563,563,563,563,563,563,563,563,826,829,832,837,984,1151,1369,1502,1605,1658,1665,1652,1611,1589,1567,1544,1521,1498,1475,1443,1420,1396,1373,1351,1327,1304,1268,1214,1191,1170,993,975,879,854,863,836,842,849,819,824,826,836,831,831,828,823,835,824,824,823,823,843,842,837,832,833,827,835,851,834,849,837,829,834,831,330,331,332,333,334,437,495,553,610,663,674,663,651,641,630,619,609,606,587,577,565,554,544,533,522,512,501,489,480,469,458,447,437,349,340,335,336,337,301,301,304,304,302,301,300,307,311,311,311,311,311,311,311,311,311,311,311,311,311,311,311,311,311,311,311,483,484,486,487,503,610,742,847,890,961,985,970,955,938,939,908,906,915,875,881,843,812,796,795,765,749,734,718,702,686,670,673,533,509,497,504,491,496,486,465,472,477,483,476,473,482,479,472,483,494,528,489,497,520,496,491,478,499,532,531,534,532,527,540,521,1155,1170,1173,1204,1335,1652,2017,2158,2279,2327,2298,2226,2201,2182,2146,2074,2061,2025,1973,1972,1922,1901,1853,1813,1784,1751,1723,1674,1511,1384,1280,1278,1234,1195,1184,1190,1173,1144,1091,1072,1079,1089,1093,1088,1100,1087,1089,1092,1097,1101,1146,1101,1102,1109,1096,1096,1100,1109,1147,1158,1137,1155,1142,1139,1108,718,729,730,733,752,905,1122,1250,1388,1443,1429,1375,1387,1364,1344,1301,1293,1263,1241,1241,1205,1190,1161,1152,1123,1095,1085,1063,1029,996,843,838,807,739,740,763,738,716,639,625,630,631,641,639,647,639,641,644,649,653,698,653,654,661,648,648,652,661,711,713,689,707,698,691,660,1459,1469,1494,1538,1770,2141,2557,2771,2862,2876,2850,2783,2754,2711,2673,2595,2584,2524,2494,2429,2388,2339,2285,2231,2193,2139,1963,1878,1634,1629,1563,1513,1496,1481,1456,1461,1460,1435,1377,1367,1368,1382,1387,1383,1392,1380,1384,1387,1393,1397,1442,1397,1398,1405,1392,1392,1395,1403,1440,1454,1428,1449,1435,1432,1401,305,308,309,310,319,333,454,505,557,605,620,612,602,592,582,572,563,553,542,533,524,514,503,494,484,475,465,455,445,435,425,349,341,333,324,320,321,322,274,268,274,278,270,281,274,276,277,274,347,275,273,276,274,284,276,277,274,276,276,276,280,278,275,341,282,774,774,777,780,821,1075,1265,1415,1560,1546,1552,1530,1503,1524,1455,1472,1402,1383,1397,1329,1310,1268,1307,1248,1131,1223,1084,1062,1046,974,998,893,820,801,787,785,820,788,775,793,786,799,799,800,797,798,801,810,799,797,797,819,820,810,797,795,805,796,802,802,804,791,796,806,788,1413,1427,1430,1499,1705,2189,2603,2797,2820,2814,2803,2756,2759,2731,2646,2606,2581,2480,2468,2430,2347,2264,2212,2150,2124,2095,1983,1623,1581,1575,1527,1464,1447,1431,1405,1349,1380,1364,1352,1368,1344,1344,1368,1363,1382,1376,1375,1376,1372,1370,1378,1391,1394,1391,1379,1383,1377,1409,1402,1390,1387,1369,1369,1386,1368,302,303,305,305,340,359,435,486,535,585,615,606,597,586,576,568,557,548,538,528,519,509,499,490,480,469,461,451,441,432,422,412,375,359,351,341,342,342,258,248,248,251,253,252,255,254,256,255,258,262,309,263,262,271,260,258,260,267,318,324,298,319,311,305,274,715,680,683,695,714,877,1065,1192,1277,1343,1369,1348,1384,1368,1325,1280,1291,1233,1212,1195,1169,1176,1101,1091,1064,1026,1032,999,1017,951,908,905,727,710,729,696,698,692,648,634,637,639,642,642,646,650,645,643,652,651,698,649,650,660,651,650,647,653,703,710,687,709,700,700,668,211,211,213,213,213,217,298,334,366,400,426,420,413,407,400,393,387,380,374,367,360,354,347,341,334,327,321,314,308,301,294,263,229,225,220,215,215,215,197,190,188,193,216,214,205,207,206,210,214,210,204,203,205,227,209,197,214,205,209,207,207,209,215,207,203,1375,1380,1379,1453,1857,2206,2620,2770,2826,2845,2814,2777,2731,2679,2627,2593,2557,2513,2437,2425,2358,2299,2230,2180,2129,2076,2025,1887,1734,1573,1532,1505,1435,1406,1402,1407,1400,1429,1431,1404,1445,1452,1445,1437,1449,1458,1459,1453,1462,1467,1510,1458,1461,1476,1463,1461,1447,1468,1519,1525,1500,1521,1512,1507,1476,1015,1010,1000,1026,1050,1445,1677,1822,1934,1950,1962,1932,1938,1890,1832,1797,1793,1725,1723,1676,1674,1633,1581,1558,1544,1511,1415,1413,1349,1209,1192,1130,1119,1025,998,1016,1024,1003,1009,1010,1014,1030,1026,1025,1042,1040,1029,1036,1060,1036,1043,1058,1050,1029,1030,1035,1036,1033,1021,1031,1032,1035,1032,1026,1016,797,810,814,820,850,1057,1288,1434,1564,1612,1599,1546,1548,1529,1499,1452,1453,1418,1386,1390,1356,1338,1298,1287,1241,1229,1212,1188,1147,1132,957,949,854,824,824,827,824,810,733,721,725,728,733,731,737,727,729,732,737,741,786,741,742,749,736,736,740,749,799,801,777,795,786,779,748,1083,1089,1096,1106,1161,1466,1839,2012,2110,2164,2144,2078,2065,2061,2000,1948,1945,1898,1854,1850,1794,1765,1720,1713,1669,1626,1550,1500,1443,1224,1196,1202,1150,1105,1103,1103,1069,1040,987,968,975,985,989,984,996,983,985,988,993,997,1042,997,998,1005,992,992,996,1005,1043,1054,1033,1051,1038,1035,1004,1266,1290,1293,1350,1656,1954,2347,2539,2567,2567,2561,2516,2552,2516,2469,2405,2366,2317,2268,2244,2146,2115,2082,1972,1937,1921,1862,1829,1677,1477,1380,1340,1324,1302,1277,1284,1311,1302,1279,1278,1271,1308,1290,1308,1307,1311,1308,1323,1300,1302,1309,1320,1331,1307,1322,1314,1326,1308,1318,1322,1314,1319,1296,1313,1295,711,712,703,705,743,984,1113,1263,1354,1419,1398,1397,1351,1329,1308,1285,1285,1240,1219,1196,1174,1151,1156,1134,1085,1087,1041,1042,1004,974,953,920,890,723,725,739,717,710,697,706,699,715,718,720,711,721,711,723,710,709,710,717,724,717,716,714,718,707,723,725,711,711,711,728,710,365,389,390,392,394,518,586,612,723,776,788,775,763,751,738,726,712,700,688,675,663,650,638,624,612,600,587,575,562,550,537,493,512,499,398,394,396,396,396,373,373,373,372,377,378,377,375,374,378,372,373,374,374,375,378,378,375,379,381,378,374,400,375,379,377,996,1014,1007,1026,1130,1342,1590,1786,1859,1907,1903,1908,1872,1818,1790,1773,1774,1714,1685,1679,1639,1636,1582,1560,1523,1524,1466,1468,1299,1223,1158,1180,1066,1011,1042,1015,1024,1023,994,983,993,988,998,997,1007,993,995,998,1003,1007,1043,1007,1008,1015,1002,1002,1006,1015,1045,1052,1043,1057,1039,1042,1014,890,917,920,898,935,1289,1519,1683,1748,1811,1777,1788,1768,1728,1699,1620,1654,1615,1569,1530,1512,1481,1445,1417,1404,1361,1335,1282,1266,1250,1069,954,972,930,916,924,933,931,915,910,921,934,934,942,931,938,926,930,933,930,926,925,929,925,934,934,933,927,925,926,931,939,937,932,921,679,686,687,690,694,854,1040,1194,1306,1370,1371,1354,1317,1308,1287,1261,1241,1212,1196,1175,1153,1131,1109,1086,1065,1045,1023,1001,972,953,765,747,729,719,703,695,696,662,589,574,582,583,591,587,599,580,590,590,593,598,647,603,605,609,596,595,600,613,657,659,638,652,645,638,607,1016,1010,1021,1031,1069,1372,1642,1854,1963,2016,1991,1982,1920,1922,1885,1847,1818,1780,1756,1723,1677,1657,1610,1589,1547,1505,1498,1467,1364,1151,1120,1094,1057,1033,1040,1031,1032,1003,928,917,927,929,931,939,941,928,938,943,944,950,997,949,952,955,948,941,943,954,1002,1007,985,1003,992,985,954,589,594,596,598,604,804,926,1026,1126,1094,1100,1163,1145,1048,1108,1013,1070,1052,1033,1014,927,910,892,876,922,903,823,866,789,771,618,786,772,575,563,559,603,556,562,573,561,576,582,584,575,577,580,577,570,576,573,570,569,570,575,576,577,572,569,577,577,599,586,584,576,723,730,731,738,739,919,1113,1277,1393,1453,1454,1435,1397,1387,1365,1337,1316,1285,1269,1247,1223,1199,1176,1152,1129,1109,1084,1063,1026,951,921,792,774,754,747,740,741,704,632,616,621,629,638,631,643,629,633,637,638,643,687,645,650,651,637,639,642,651,700,702,684,696,689,682,651,345,333,334,335,337,455,514,574,633,685,697,686,675,664,653,642,631,620,609,598,587,576,565,554,543,532,521,510,499,488,477,466,455,444,433,338,339,340,342,340,342,340,345,349,342,350,348,351,348,342,350,349,347,356,352,349,346,353,347,357,349,349,346,353,360,1291,1314,1318,1361,1542,1879,2284,2440,2534,2571,2540,2480,2468,2425,2390,2321,2303,2239,2215,2168,2128,2087,2046,2004,1975,1956,1900,1764,1606,1457,1445,1404,1391,1331,1340,1328,1318,1284,1231,1213,1230,1233,1235,1237,1242,1232,1238,1241,1246,1249,1294,1249,1250,1256,1242,1245,1248,1254,1296,1304,1283,1305,1293,1289,1258,912,937,927,949,970,1220,1528,1666,1757,1800,1787,1752,1787,1746,1718,1657,1655,1607,1572,1580,1497,1467,1439,1408,1381,1354,1358,1298,1234,1193,1165,978,954,953,918,939,923,918,918,896,892,913,896,918,923,909,912,914,906,891,905,920,926,930,918,917,922,930,933,937,928,916,894,905,892,768,767,743,758,781,965,1182,1367,1409,1473,1488,1488,1502,1477,1442,1392,1402,1346,1319,1298,1292,1274,1203,1209,1157,1122,1126,1085,1060,1010,985,912,790,771,786,757,778,753,703,693,700,697,699,710,713,705,709,715,716,729,777,737,734,725,716,718,725,735,770,787,763,776,768,763,731,684,706,707,712,716,823,1074,1219,1342,1408,1412,1344,1323,1333,1318,1266,1275,1218,1229,1208,1184,1162,1140,1116,1094,1075,1052,1030,943,903,814,790,770,710,722,717,717,625,552,537,540,556,560,551,559,548,560,557,560,565,608,562,567,574,559,564,561,573,625,626,609,619,612,605,574,0,0,0,0,0,0,0,0,0,0,0,0,0,0,0,0,0,0,0,0,0,0,0,0,0,0,0,0,0,0,0,0,0,0,0,0,0,0,0,0,0,0,0,0,0,0,0,0,0,0,0,0,0,0,0,0,0,0,0,0,0,0,0,0,0,1208,1221,1223,1265,1498,1826,2208,2402,2432,2433,2429,2387,2396,2388,2308,2263,2245,2147,2140,2118,2031,1954,1909,1863,1834,1812,1772,1709,1600,1411,1400,1257,1240,1224,1198,1218,1248,1232,1222,1236,1215,1214,1236,1232,1248,1245,1242,1244,1238,1240,1245,1261,1261,1259,1247,1253,1246,1280,1271,1261,1259,1243,1243,1260,1242,483,484,486,487,503,610,742,847,890,961,985,970,955,938,939,908,906,915,875,881,843,812,796,795,765,749,734,718,702,686,670,673,533,509,497,504,491,496,486,465,472,477,483,476,473,482,479,472,483,494,528,489,497,520,496,491,478,499,532,531,534,532,527,540,521,1134,1126,1139,1163,1319,1701,1946,2087,2193,2237,2219,2189,2163,2117,2071,2040,1999,1973,1950,1894,1863,1828,1794,1751,1729,1686,1643,1592,1481,1341,1242,1223,1188,1164,1142,1131,1098,1099,1110,1102,1113,1121,1114,1125,1123,1140,1123,1124,1136,1128,1138,1144,1168,1164,1124,1119,1132,1125,1129,1121,1121,1128,1114,1125,1120,399,400,401,403,405,489,592,656,721,773,783,771,759,748,735,722,712,700,688,676,665,653,641,629,618,606,594,583,570,558,546,535,501,490,480,405,405,473,383,383,396,429,388,390,387,389,389,387,389,391,388,391,393,396,395,396,394,395,394,396,400,445,405,442,441,750,753,753,758,792,1069,1219,1335,1431,1479,1479,1502,1430,1409,1387,1383,1337,1321,1299,1277,1248,1225,1202,1183,1156,1133,1109,1086,1083,1041,993,812,795,776,765,762,764,765,757,760,758,760,762,758,766,763,766,760,766,766,772,768,783,766,768,763,768,771,776,800,778,782,770,771,769,252,253,312,254,255,315,372,416,508,554,517,509,500,492,484,476,467,459,451,442,434,425,418,409,401,392,385,376,368,359,352,343,335,326,319,256,257,258,243,251,244,256,243,257,246,276,250,255,252,246,255,252,257,255,255,253,257,255,278,255,252,257,253,259,260,1214,1217,1221,1240,1394,1907,2162,2368,2466,2499,2456,2423,2382,2342,2261,2253,2210,2165,2113,2086,2062,1967,1937,1896,1876,1819,1782,1750,1632,1437,1426,1294,1252,1249,1205,1232,1197,1185,1180,1177,1181,1191,1194,1193,1192,1185,1197,1196,1202,1204,1201,1206,1207,1214,1206,1205,1197,1197,1195,1201,1195,1202,1192,1202,1186,846,878,882,860,929,1274,1481,1663,1775,1885,1822,1796,1757,1713,1723,1650,1618,1585,1620,1521,1488,1486,1424,1411,1378,1327,1306,1223,1230,1199,1181,1132,939,877,861,865,872,876,886,886,894,904,898,903,907,909,909,912,911,922,923,924,917,912,907,909,916,922,927,919,916,923,923,927,922,203,204,205,205,206,207,285,317,350,383,415,411,402,396,389,382,376,369,363,356,349,343,336,330,323,316,310,303,297,290,283,226,221,216,210,207,207,207,131,132,132,130,132,129,130,132,131,134,131,133,132,134,130,133,130,133,132,132,130,131,132,131,129,126,126,1029,1031,1035,1067,1243,1603,1878,2079,2127,2223,2151,2113,2075,2037,2000,1962,1924,1885,1901,1813,1818,1787,1704,1716,1626,1589,1563,1514,1476,1367,1262,1116,1094,1062,1072,1045,998,1018,1013,1010,1014,1024,1027,1026,1025,1018,1030,1029,1035,1037,1034,1038,1040,1047,1039,1038,1030,1030,1028,1034,1028,1035,1025,1035,1019,936,951,943,947,1047,1353,1529,1688,1795,1843,1880,1804,1797,1746,1716,1686,1659,1628,1620,1569,1540,1512,1484,1454,1425,1396,1366,1353,1307,1294,1039,1111,1011,955,953,937,906,908,921,914,921,931,923,934,932,946,929,931,942,934,968,956,966,969,931,926,940,935,939,931,929,939,926,937,932,1251,1267,1269,1309,1573,2052,2288,2523,2576,2645,2589,2538,2498,2395,2407,2365,2318,2244,2259,2179,2149,2089,2060,2034,1966,1923,1821,1743,1673,1538,1422,1355,1332,1286,1281,1251,1257,1245,1240,1237,1241,1251,1254,1253,1252,1245,1257,1256,1262,1264,1261,1266,1267,1274,1266,1265,1257,1257,1255,1261,1255,1262,1252,1262,1246,468,453,470,472,476,549,694,775,917,908,947,932,917,902,886,872,856,841,826,811,768,781,765,751,735,720,705,666,675,660,644,608,599,509,478,475,476,477,456,455,447,448,455,468,460,467,457,467,475,472,477,466,487,480,487,461,468,480,469,476,470,467,486,466,462,1323,1326,1333,1457,2004,2459,2924,3162,3194,3290,3180,3106,3124,3051,2970,2898,2845,2771,2697,2609,2544,2468,2394,2326,2253,2180,2103,1906,1864,1692,1488,1425,1389,1368,1359,1377,1393,1404,1383,1369,1359,1362,1412,1414,1395,1396,1408,1415,1403,1413,1414,1415,1408,1418,1411,1414,1413,1416,1411,1411,1413,1413,1410,1411,1411,742,745,748,810,796,931,1183,1326,1419,1463,1460,1472,1410,1392,1369,1364,1322,1299,1304,1253,1255,1207,1185,1163,1139,1119,1097,1093,1048,1030,942,921,851,770,758,755,756,735,715,723,729,732,733,743,727,761,726,764,735,726,732,737,739,754,743,740,740,733,738,758,737,740,730,739,731,676,684,690,692,705,829,1061,1177,1309,1351,1325,1305,1322,1266,1271,1245,1206,1191,1171,1140,1118,1108,1083,1073,1039,1019,996,980,960,846,832,815,756,704,707,689,699,687,683,682,681,681,684,684,681,680,684,690,682,689,685,689,689,686,684,689,690,689,687,685,693,704,702,707,703,285,286,287,288,288,370,416,464,510,555,569,561,552,608,534,599,517,508,499,490,481,539,464,455,446,437,429,420,411,402,393,385,376,367,358,289,355,355,279,279,279,282,283,288,287,292,289,286,289,284,279,279,280,287,282,282,283,280,279,279,279,282,277,286,280,1017,1028,1044,1037,1073,1576,1799,1992,2129,2172,2134,2116,2146,2000,2040,1964,1910,1889,1867,1798,1762,1718,1697,1667,1612,1558,1548,1483,1447,1379,1348,1106,1098,1051,1035,1021,1057,1052,1043,1045,1056,1061,1065,1056,1071,1085,1075,1059,1064,1066,1068,1083,1073,1074,1071,1071,1069,1088,1076,1077,1074,1078,1078,1082,1069,1184,1177,1222,1202,1376,1872,2119,2315,2413,2448,2426,2384,2380,2301,2252,2233,2174,2132,2105,2049,2006,1967,1922,1881,1839,1796,1774,1726,1667,1384,1327,1263,1256,1207,1199,1191,1180,1168,1163,1160,1164,1174,1177,1176,1175,1168,1180,1179,1185,1187,1184,1189,1190,1197,1189,1188,1180,1180,1178,1184,1178,1185,1175,1185,1169,515,531,519,491,497,553,793,862,924,974,981,965,950,981,919,903,887,872,899,883,825,809,794,778,800,746,767,716,700,685,669,548,536,523,497,494,533,473,486,475,471,481,475,478,496,501,488,499,488,476,474,499,500,501,501,500,506,503,500,494,504,491,480,481,475,1444,1472,1482,1646,1897,2515,2709,2958,2991,3069,2984,2912,2955,2828,2846,2738,2660,2626,2645,2521,2470,2492,2379,2368,2280,2158,2016,1722,1731,1658,1604,1575,1536,1485,1507,1487,1504,1515,1494,1485,1473,1478,1504,1506,1503,1510,1510,1507,1511,1505,1506,1507,1503,1510,1503,1506,1505,1508,1503,1503,1505,1505,1502,1503,1503,852,843,846,884,930,1213,1375,1523,1634,1685,1678,1652,1648,1598,1571,1544,1518,1491,1486,1437,1410,1383,1357,1329,1303,1311,1249,1240,1195,1169,1086,1055,913,871,856,853,855,867,865,857,864,874,869,877,879,927,876,878,885,879,927,897,933,932,874,868,879,878,881,870,873,881,871,882,877,1062,1077,1062,1107,1244,1612,1821,1969,2070,2113,2099,2065,2032,1998,1964,1931,1867,1834,1830,1797,1763,1730,1696,1625,1646,1580,1562,1494,1387,1311,1142,1141,1123,1094,1080,1078,1062,1083,1119,1106,1087,1091,1109,1114,1115,1120,1113,1116,1128,1123,1140,1163,1152,1145,1122,1119,1127,1122,1124,1117,1123,1129,1114,1125,1117,1033,1035,1070,1040,1155,1580,1803,2009,2139,2176,2139,2122,2151,2027,2044,1968,1930,1893,1892,1802,1766,1741,1701,1671,1617,1579,1530,1481,1420,1385,1139,1109,1103,1054,1038,1047,1058,1055,1044,1052,1060,1057,1064,1053,1068,1086,1060,1057,1063,1067,1066,1067,1073,1075,1076,1071,1078,1079,1067,1075,1069,1095,1078,1088,1075,829,804,807,814,875,1146,1298,1444,1556,1609,1603,1578,1575,1526,1501,1476,1450,1424,1420,1373,1348,1322,1296,1271,1246,1219,1194,1186,1144,1117,1009,985,949,832,818,814,816,819,813,811,815,820,821,821,829,825,828,832,825,830,881,830,831,828,828,822,833,832,835,824,828,837,826,837,832,1017,1019,1022,1027,1093,1520,1758,1977,2086,2115,2077,2050,2026,1993,1915,1913,1875,1837,1788,1772,1742,1665,1635,1599,1590,1532,1525,1482,1444,1312,1280,1220,1053,1054,1005,1022,1006,994,989,986,990,1000,1003,1002,1001,994,1006,1005,1011,1013,1010,1015,1016,1023,1015,1014,1006,1006,1004,1010,1004,1011,1001,1011,995,264,265,265,266,267,280,386,430,473,515,529,520,512,503,496,504,479,471,463,455,446,438,430,422,414,405,398,389,381,305,298,292,285,288,271,268,269,270,274,255,257,257,255,259,259,259,259,258,260,255,257,257,256,257,260,259,258,257,258,258,256,260,257,261,259,493,498,514,496,508,698,821,953,1061,1120,1122,1101,1079,1058,1072,1051,995,981,952,963,910,913,867,847,826,804,795,762,741,719,698,677,690,523,522,500,512,535,519,519,517,527,529,521,525,526,524,528,534,542,599,606,601,602,525,532,540,542,528,527,562,521,524,528,523,864,866,908,889,1013,1252,1458,1625,1678,1743,1773,1747,1666,1639,1673,1585,1569,1578,1502,1486,1447,1518,1403,1365,1337,1321,1321,1292,1237,1267,1075,1036,1025,923,907,876,908,889,927,915,918,918,925,919,926,927,931,927,920,923,935,974,969,931,926,931,927,935,925,934,935,946,923,923,923,835,850,840,864,888,1158,1364,1512,1624,1699,1668,1642,1615,1588,1562,1535,1509,1482,1455,1428,1402,1395,1348,1322,1295,1269,1241,1215,1189,1201,1025,907,885,865,851,896,863,852,846,854,858,855,864,874,858,887,857,891,866,857,863,869,873,889,874,871,871,864,873,893,868,871,861,870,862,1123,1126,1129,1140,1259,1714,1981,2193,2296,2322,2290,2250,2222,2194,2105,2099,2059,2016,1966,1943,1921,1826,1796,1760,1746,1685,1653,1628,1550,1317,1310,1201,1160,1157,1112,1139,1103,1091,1086,1083,1087,1097,1100,1099,1098,1091,1103,1102,1108,1110,1107,1112,1113,1120,1112,1111,1103,1103,1101,1107,1101,1108,1098,1108,1092,0,0,0,0,0,0,0,0,0,0,0,0,0,0,0,0,0,0,0,0,0,0,0,0,0,0,0,0,0,0,0,0,0,0,0,0,0,0,0,0,0,0,0,0,0,0,0,0,0,0,0,0,0,0,0,0,0,0,0,0,0,0,0,0,0,1134,1126,1139,1163,1319,1701,1946,2087,2193,2237,2219,2189,2163,2117,2071,2040,1999,1973,1950,1894,1863,1828,1794,1751,1729,1686,1643,1592,1481,1341,1242,1223,1188,1164,1142,1131,1098,1099,1110,1102,1113,1121,1114,1125,1123,1140,1123,1124,1136,1128,1138,1144,1168,1164,1124,1119,1132,1125,1129,1121,1121,1128,1114,1125,1120,0,0,0,0,0,0,0,0,0,0,0,0,0,0,0,0,0,0,0,0,0,0,0,0,0,0,0,0,0,0,0,0,0,0,0,0,0,0,0,0,0,0,0,0,0,0,0,0,0,0,0,0,0,0,0,0,0,0,0,0,0,0,0,0,0,827,832,833,840,873,1035,1319,1463,1581,1660,1657,1629,1602,1575,1549,1517,1495,1469,1449,1422,1409,1370,1342,1315,1301,1262,1235,1211,1180,1150,1126,968,933,853,848,844,840,848,760,764,763,801,781,781,773,782,777,802,793,795,799,811,795,825,794,796,803,815,807,791,792,812,807,792,792,629,609,619,633,636,787,907,1043,1106,1180,1183,1159,1145,1152,1111,1091,1073,1059,1057,1036,1015,982,997,988,964,927,908,874,849,734,720,714,714,658,622,622,612,615,530,531,533,536,536,542,540,541,538,540,540,541,542,553,550,550,546,546,545,546,549,548,544,548,543,543,543,1071,1079,1080,1094,1154,1524,1743,1993,2111,2147,2155,2120,2064,2051,1997,1981,1947,1908,1852,1842,1756,1758,1698,1686,1648,1616,1587,1552,1519,1312,1243,1167,1140,1120,1105,1092,1107,1110,1059,1058,1068,1072,1071,1081,1072,1092,1071,1083,1079,1072,1074,1091,1089,1094,1087,1087,1081,1078,1083,1091,1077,1087,1074,1081,1081,608,611,611,615,631,847,972,1075,1164,1211,1215,1195,1218,1157,1124,1125,1100,1024,1076,1053,1024,1004,990,971,947,917,906,889,870,851,830,812,792,687,612,616,622,622,606,601,608,616,612,613,611,618,614,612,617,616,616,618,620,624,623,621,623,624,624,624,624,624,623,622,622,929,933,936,942,944,1328,1483,1656,1786,1830,1818,1795,1779,1734,1722,1675,1654,1625,1623,1554,1534,1496,1495,1429,1409,1378,1351,1324,1252,1153,1051,1044,978,956,930,944,952,927,854,853,858,859,860,863,861,865,865,865,866,866,866,867,866,860,861,866,870,870,869,869,871,872,872,871,871,1020,1022,1027,1065,1166,1568,1789,2017,2157,2192,2179,2165,2104,2096,2042,2002,1973,1936,1887,1862,1790,1788,1742,1706,1661,1619,1578,1520,1491,1431,1151,1139,1084,1059,1038,1044,1060,1065,1059,1057,1050,1060,1052,1071,1059,1065,1085,1102,1066,1076,1090,1091,1081,1080,1112,1076,1068,1074,1085,1082,1079,1096,1091,1102,1085,367,368,369,369,371,487,550,613,676,729,739,728,759,704,693,680,669,657,646,634,622,611,632,619,576,564,553,541,530,518,506,495,482,471,376,372,373,374,356,359,358,360,362,363,364,365,365,365,366,367,364,367,364,367,366,365,370,368,367,369,369,372,370,371,371,235,235,236,237,238,292,344,383,444,485,476,469,462,475,467,438,452,424,430,422,401,394,379,379,383,364,356,365,357,345,321,312,305,304,305,239,298,306,228,229,228,230,230,234,230,235,231,234,229,232,230,235,236,234,232,234,229,233,236,234,232,236,228,231,231,438,440,441,451,445,589,687,759,818,873,880,866,895,839,820,817,797,726,785,767,742,728,719,705,686,673,677,644,631,617,603,589,575,565,449,448,449,460,439,434,441,448,444,446,442,449,444,442,446,445,445,446,448,456,453,453,449,452,450,452,451,457,450,455,445,921,923,928,955,1029,1416,1635,1855,1974,2020,2017,1963,1927,1905,1868,1832,1795,1742,1720,1683,1647,1608,1558,1540,1498,1460,1424,1384,1348,1270,1086,1039,985,963,937,958,956,969,962,968,953,998,980,985,976,983,990,1002,981,990,1000,990,969,978,1002,999,1001,985,989,994,1021,999,999,997,995,1155,1153,1096,1260,1346,1970,2175,2364,2359,2492,2487,2415,2401,2271,2277,2249,2220,2114,2134,2084,2060,1933,1973,1833,1839,1732,1716,1651,1606,1486,1212,1170,1238,1135,1107,1191,1120,1137,1187,1197,1185,1199,1205,1203,1205,1205,1205,1205,1205,1204,1205,1205,1205,1205,1204,1205,1205,1205,1205,1202,1205,1205,1204,1203,1203,543,546,545,546,550,616,794,881,968,1052,1062,1046,1029,1013,997,981,964,955,938,916,912,884,867,852,836,819,803,789,772,758,648,634,619,606,553,549,550,552,480,476,480,484,493,496,484,493,483,489,490,490,491,497,500,512,499,501,488,493,494,503,500,504,499,499,499,726,733,748,733,745,822,1127,1254,1380,1448,1456,1432,1387,1365,1354,1320,1346,1284,1260,1250,1224,1186,1163,1158,1166,1130,1080,1053,1022,1010,981,848,815,770,758,737,743,729,666,667,669,685,681,676,679,694,681,679,699,691,704,705,740,738,677,676,688,683,682,682,680,684,679,679,679,1145,1147,1157,1207,1500,1843,2132,2348,2454,2489,2480,2432,2367,2341,2295,2248,2205,2140,2115,2068,2029,1978,1915,1887,1839,1794,1749,1688,1657,1509,1280,1266,1210,1199,1164,1182,1187,1201,1193,1188,1200,1209,1208,1215,1203,1226,1225,1218,1221,1204,1222,1232,1242,1232,1237,1233,1206,1216,1213,1211,1207,1250,1231,1249,1220,901,913,910,902,922,1276,1446,1592,1732,1766,1783,1756,1720,1679,1650,1644,1594,1567,1562,1529,1507,1458,1434,1403,1394,1348,1319,1305,1258,1107,1082,972,963,934,919,925,916,904,842,845,845,856,865,857,866,859,856,861,859,862,862,868,866,868,892,882,875,870,868,858,866,866,889,870,870,668,671,672,684,693,944,1083,1216,1296,1339,1340,1320,1340,1277,1251,1239,1213,1134,1185,1160,1141,1105,1089,1068,1041,1020,996,977,955,935,911,792,711,698,682,677,684,684,668,665,676,683,669,673,671,679,682,686,686,682,686,684,678,686,685,686,686,686,686,686,683,686,685,684,684,907,912,918,921,946,1214,1453,1579,1725,1780,1774,1761,1729,1703,1670,1630,1612,1597,1553,1518,1507,1484,1453,1410,1398,1361,1334,1319,1283,1184,1048,1027,1003,942,925,919,922,921,870,872,872,882,885,893,894,909,890,892,891,892,891,890,889,917,912,888,891,888,883,893,885,889,884,884,884,1170,1194,1205,1231,1391,1830,2067,2257,2304,2358,2336,2256,2300,2219,2179,2157,2101,2016,2043,2006,1958,1932,1887,1821,1810,1759,1659,1516,1540,1306,1366,1294,1265,1224,1214,1218,1216,1212,1190,1192,1206,1208,1208,1208,1208,1208,1208,1208,1208,1208,1207,1208,1208,1208,1207,1208,1208,1208,1208,1208,1208,1208,1207,1206,1206,303,304,305,309,306,365,441,493,544,601,618,608,598,593,580,568,558,548,539,529,526,509,499,489,480,470,460,451,441,431,421,411,385,376,312,307,308,309,246,244,248,258,255,252,245,251,251,257,260,267,268,274,273,298,265,255,251,257,254,251,245,249,244,244,244,559,562,568,559,559,654,881,1007,1097,1145,1117,1100,1082,1093,1056,1008,1038,993,995,975,914,905,929,885,885,874,854,836,817,781,677,612,609,567,604,562,579,581,562,564,562,570,571,572,570,573,570,568,570,568,572,572,574,578,579,581,571,572,576,580,577,582,571,570,570,862,888,867,896,904,1235,1410,1574,1699,1709,1742,1676,1691,1622,1627,1610,1576,1478,1522,1502,1466,1407,1415,1396,1344,1299,1272,1267,1218,1191,954,933,949,925,901,897,871,873,848,849,850,843,841,853,858,863,851,859,862,864,866,859,869,861,874,857,864,874,862,859,869,859,872,862,862,325,326,328,329,330,430,487,543,603,650,661,650,640,629,619,608,598,587,598,587,566,545,555,524,533,503,493,482,471,462,451,441,446,400,395,331,362,364,289,289,289,291,290,299,293,303,310,294,299,291,294,296,295,303,297,296,294,300,297,296,293,297,292,292,292,599,601,606,608,605,778,909,1001,1123,1196,1194,1171,1147,1147,1112,1104,1084,1051,1037,1009,998,979,959,938,923,900,882,899,847,837,818,653,686,619,616,606,608,610,556,555,560,557,564,565,573,587,570,588,570,571,569,572,569,598,592,572,577,571,569,574,576,581,574,599,599,967,972,973,974,996,1310,1518,1737,1878,1921,1912,1900,1850,1839,1791,1758,1731,1698,1662,1631,1574,1575,1522,1514,1480,1452,1427,1395,1367,1170,1143,1108,1018,998,983,979,983,987,932,935,926,926,944,950,948,959,947,948,950,947,946,952,948,960,956,954,953,953,953,952,947,958,943,950,950,910,876,893,907,923,1138,1426,1592,1682,1752,1718,1690,1687,1692,1633,1582,1556,1553,1545,1512,1484,1440,1430,1419,1391,1345,1323,1277,1226,1108,1051,1026,958,939,901,909,869,897,814,815,819,826,828,831,839,827,824,826,826,827,828,839,836,836,832,832,831,832,835,834,830,834,829,829,829,301,302,308,297,298,357,448,489,569,619,599,643,580,621,589,552,569,532,544,534,495,495,485,476,485,456,469,459,449,435,401,420,389,311,315,299,315,348,290,293,292,294,294,297,295,299,295,298,297,297,298,300,303,306,304,303,301,302,307,303,302,306,302,304,304,391,382,400,395,396,480,578,646,715,761,789,781,763,751,723,730,713,701,689,676,663,651,637,625,630,601,576,576,551,549,526,506,499,411,401,396,398,392,327,329,330,333,333,336,335,336,334,335,334,334,335,344,340,341,337,341,336,334,337,338,338,342,337,337,337,461,463,464,475,469,621,700,797,859,913,919,905,933,876,862,848,833,819,820,825,794,762,748,733,719,705,690,676,662,647,633,619,605,544,472,468,469,470,459,458,464,469,462,466,466,468,469,467,468,465,466,468,465,469,470,471,470,470,470,470,472,477,475,475,472,1103,1108,1112,1118,1156,1559,1784,2017,2152,2186,2173,2160,2103,2088,2035,2002,1965,1929,1887,1853,1791,1788,1731,1719,1680,1648,1619,1582,1506,1330,1229,1182,1154,1144,1120,1098,1100,1104,1060,1054,1064,1079,1076,1080,1073,1084,1081,1088,1082,1075,1091,1109,1095,1082,1079,1092,1069,1096,1081,1077,1073,1084,1077,1079,1079,0,0,0,0,0,0,0,0,0,0,0,0,0,0,0,0,0,0,0,0,0,0,0,0,0,0,0,0,0,0,0,0,0,0,0,0,0,0,0,0,0,0,0,0,0,0,0,0,0,0,0,0,0,0,0,0,0,0,0,0,0,0,0,0,0 ]);
