n = 30;
D = [116,73,124,130,165,153,98,260,169,141,105,60,221,61,227,97,283,156,217,84,223,216,273,118,296,192,192,280,257,101 ];
q = 0;
prec = array2d(1..0,1..2,[]);
steps = 64;
l = 360;
r = 0;
which = [];
interval = array2d(1..0,1..2,[]);
T = array3d(1..31,1..31,0..64,[0,0,0,0,0,0,0,0,0,0,0,0,0,0,0,0,0,0,0,0,0,0,0,0,0,0,0,0,0,0,0,0,0,0,0,0,0,0,0,0,0,0,0,0,0,0,0,0,0,0,0,0,0,0,0,0,0,0,0,0,0,0,0,0,0,440,441,442,443,447,535,654,726,810,865,889,875,861,847,832,818,816,802,788,774,760,746,730,716,702,688,673,659,645,584,569,558,472,460,450,446,447,436,397,395,400,403,400,400,401,403,401,404,402,402,407,409,412,409,409,406,403,408,406,407,404,409,408,411,409,747,747,751,750,793,1018,1197,1330,1424,1434,1477,1478,1446,1428,1389,1368,1342,1321,1290,1303,1269,1233,1209,1244,1164,1129,1139,1078,1057,1025,995,918,870,776,765,764,749,764,750,747,755,751,760,758,756,775,764,760,773,765,771,773,775,782,770,764,761,772,767,757,763,782,764,771,764,688,689,694,694,711,821,1050,1202,1319,1327,1363,1351,1320,1303,1277,1260,1234,1216,1217,1173,1170,1149,1130,1099,1079,1059,1033,1007,954,861,910,822,731,716,711,711,722,671,661,666,665,667,675,674,673,674,662,672,671,671,666,672,673,674,672,676,673,679,675,676,673,670,671,669,664,592,616,622,627,632,707,940,1080,1160,1209,1194,1183,1167,1153,1114,1150,1125,1082,1040,1043,1023,982,972,976,955,933,913,867,885,871,669,696,659,644,634,635,611,589,527,519,523,536,532,534,536,534,526,534,535,535,531,535,535,532,533,535,536,540,538,536,534,533,530,530,528,385,369,370,371,390,441,600,650,722,761,765,753,741,710,726,752,650,726,696,684,643,631,631,607,595,583,570,557,584,566,509,510,396,439,378,374,392,376,377,377,377,379,379,379,379,381,376,380,379,379,377,380,379,377,379,380,379,380,380,379,379,377,377,379,377,326,306,307,308,309,409,469,501,552,600,627,617,594,584,574,577,555,545,536,556,518,508,498,515,479,469,460,451,466,432,422,435,403,393,315,310,311,312,300,301,307,310,313,314,312,307,307,317,303,306,311,305,303,305,303,305,304,304,306,306,311,306,306,312,305,392,397,398,401,403,449,595,665,734,792,797,785,776,763,750,772,727,711,698,686,673,659,646,635,622,609,595,583,570,559,544,466,453,442,411,401,402,396,321,317,318,320,338,332,328,329,320,338,332,331,328,327,329,330,330,328,336,333,331,334,331,336,327,328,326,441,442,445,445,449,575,659,738,802,877,897,883,869,849,834,826,811,788,783,770,754,740,718,707,698,684,664,651,641,622,605,598,559,466,451,461,449,450,417,417,417,419,419,419,419,421,416,420,419,419,417,420,419,417,419,420,419,420,420,419,419,417,417,419,417,731,761,731,758,755,983,1101,1276,1436,1444,1464,1431,1400,1377,1354,1331,1314,1325,1288,1272,1273,1216,1199,1201,1160,1114,1090,1067,936,928,985,819,771,780,746,739,735,756,727,725,730,733,730,730,731,733,731,734,732,732,737,739,742,739,739,736,733,738,736,737,734,739,738,741,739,320,321,322,323,363,305,421,515,520,567,579,570,561,552,542,533,524,514,506,558,487,477,510,459,449,441,431,422,413,403,448,385,307,300,292,365,365,367,272,270,268,269,271,278,274,278,273,279,276,276,279,277,278,277,281,278,278,282,277,282,278,274,275,276,276,542,536,538,540,550,703,825,909,1003,1066,1081,1063,1032,1038,1020,994,976,962,942,933,904,898,895,863,846,817,809,757,742,726,709,678,722,558,596,551,573,564,525,526,515,526,527,528,532,535,526,526,529,540,541,526,528,528,535,542,530,532,525,527,524,530,534,526,519,865,865,875,878,897,975,1383,1545,1668,1702,1691,1676,1650,1625,1597,1599,1544,1519,1490,1460,1467,1406,1378,1366,1342,1309,1285,1173,1175,1166,1032,955,941,902,890,898,852,851,789,780,784,797,793,795,797,795,787,795,796,796,792,796,797,794,794,796,797,801,799,797,795,794,791,791,789,1306,1297,1335,1383,1593,2030,2485,2690,2778,2744,2746,2723,2643,2591,2589,2495,2444,2425,2356,2345,2249,2222,2179,2143,2074,2005,1965,1863,1665,1488,1444,1403,1379,1371,1331,1335,1332,1340,1339,1343,1352,1342,1352,1361,1358,1378,1367,1364,1375,1380,1375,1377,1395,1382,1368,1369,1371,1396,1399,1378,1400,1370,1378,1377,1375,1086,1108,1116,1121,1190,1434,1815,2028,2113,2143,2118,2100,2087,2055,2016,2013,1941,1923,1861,1844,1799,1761,1729,1722,1664,1631,1611,1566,1469,1236,1268,1184,1150,1111,1121,1109,1060,1075,1006,1006,1012,1015,1019,1021,1021,1020,1012,1021,1020,1022,1018,1023,1022,1018,1021,1021,1024,1028,1025,1025,1019,1021,1017,1017,1015,306,307,308,309,310,398,450,500,551,544,625,616,606,596,586,575,565,555,545,535,525,515,506,496,486,476,466,456,445,435,425,419,410,396,315,311,312,313,295,296,297,302,310,296,300,315,296,301,299,298,301,316,303,301,301,299,298,301,317,307,300,303,300,301,299,1250,1257,1263,1337,1697,2051,2332,2511,2595,2624,2619,2564,2535,2462,2414,2368,2325,2278,2230,2194,2151,2102,2049,2015,1973,1927,1873,1812,1619,1527,1378,1346,1302,1295,1273,1292,1282,1300,1266,1266,1266,1268,1268,1268,1268,1270,1265,1269,1268,1268,1266,1269,1268,1266,1268,1269,1268,1269,1269,1268,1268,1266,1266,1268,1266,106,107,107,107,132,134,151,168,185,203,215,212,209,205,202,199,195,192,189,185,182,179,174,171,168,165,161,158,155,151,148,145,141,138,135,132,132,133,94,92,95,98,95,94,95,97,95,97,95,95,99,101,104,100,100,97,94,99,97,98,94,99,98,99,97,1089,1111,1115,1121,1148,1439,1830,2034,2123,2149,2124,2106,2092,2060,2026,2018,1945,1928,1865,1849,1805,1765,1734,1727,1667,1634,1615,1569,1404,1240,1223,1187,1152,1114,1125,1122,1090,1095,1033,1025,1041,1040,1039,1046,1048,1044,1040,1048,1049,1048,1044,1048,1049,1045,1044,1049,1049,1050,1049,1047,1045,1043,1040,1040,1038,1062,1087,1102,1130,1221,1602,1926,2172,2282,2260,2277,2231,2171,2151,2132,2086,2076,2030,1969,1933,1918,1848,1811,1777,1749,1690,1649,1604,1557,1424,1269,1157,1150,1111,1128,1115,1097,1098,1099,1107,1106,1109,1119,1118,1114,1123,1122,1138,1133,1128,1134,1135,1135,1129,1131,1126,1137,1137,1139,1140,1132,1128,1134,1134,1127,626,628,633,651,664,840,1028,1093,1212,1225,1273,1233,1186,1223,1200,1139,1118,1138,1111,1131,1062,1063,1007,1003,1011,974,961,925,895,885,854,799,710,667,662,665,644,622,647,647,645,654,658,657,660,648,651,654,658,659,652,657,659,663,659,658,657,652,655,657,657,659,655,661,649,377,378,379,380,382,483,585,687,742,775,784,772,759,746,734,720,708,697,684,671,658,646,619,621,609,611,584,570,558,546,534,521,494,482,469,451,384,385,379,383,384,388,392,388,387,413,381,390,388,389,388,392,393,409,388,389,393,391,390,392,392,395,382,390,384,691,685,687,690,692,877,1042,1160,1300,1339,1354,1352,1317,1295,1274,1247,1213,1204,1183,1161,1145,1118,1102,1075,1054,1032,1012,991,969,926,905,838,722,717,704,702,703,699,660,654,660,666,663,663,664,666,664,667,665,665,670,672,675,672,672,669,666,671,669,670,667,672,671,674,672,405,405,408,408,411,531,602,674,743,806,835,814,827,782,768,761,748,735,721,709,695,682,668,650,642,629,611,598,589,572,563,550,510,453,414,429,412,413,375,375,375,377,377,377,377,379,374,378,377,377,375,378,377,375,377,378,377,378,378,377,377,375,375,377,375,1006,1019,1021,1040,1121,1424,1784,2031,2094,2124,2147,2099,2041,2022,2000,1956,1921,1854,1835,1806,1756,1737,1681,1667,1610,1554,1543,1479,1455,1149,1127,1097,1075,1054,1051,1035,1030,1035,1040,1041,1019,1017,1053,1032,1046,1055,1045,1044,1058,1049,1053,1062,1069,1059,1045,1063,1061,1068,1076,1052,1062,1050,1057,1046,1044,355,356,357,367,369,462,523,586,646,711,729,716,713,687,676,671,658,646,635,623,611,600,589,572,566,553,537,525,519,502,491,484,397,462,364,360,361,366,324,324,324,326,326,326,326,328,323,327,326,326,324,327,326,324,326,327,326,327,327,326,326,324,324,326,324,644,647,656,650,672,739,967,1117,1231,1244,1283,1260,1255,1226,1191,1175,1151,1135,1148,1095,1092,1074,1058,1029,1009,985,969,953,882,790,858,754,719,667,661,663,695,651,646,638,640,647,651,651,650,652,657,653,653,646,651,659,657,651,659,658,656,661,649,650,651,655,653,656,633,222,223,224,224,225,286,323,359,397,433,448,442,434,427,420,413,407,399,392,386,378,371,364,357,350,343,336,330,322,315,308,301,294,287,280,276,276,277,215,216,216,223,220,221,217,224,216,223,217,220,220,217,225,270,220,220,222,223,223,217,222,270,217,218,216,273,273,274,304,305,349,396,441,487,534,561,552,543,535,525,516,508,499,490,481,472,462,453,444,436,427,417,409,400,391,381,373,365,354,309,306,306,307,246,245,252,261,248,251,250,256,252,249,253,250,252,249,251,254,251,250,250,254,252,248,252,255,251,255,252,506,501,502,504,514,674,761,840,926,990,1006,991,983,954,951,927,910,897,878,870,842,838,836,805,789,763,756,740,700,685,669,549,657,522,513,515,529,509,482,485,483,496,483,485,499,506,484,482,485,497,501,481,483,485,491,484,484,491,480,486,478,485,487,484,476,0,0,0,0,0,0,0,0,0,0,0,0,0,0,0,0,0,0,0,0,0,0,0,0,0,0,0,0,0,0,0,0,0,0,0,0,0,0,0,0,0,0,0,0,0,0,0,0,0,0,0,0,0,0,0,0,0,0,0,0,0,0,0,0,0,471,473,475,476,481,610,694,773,850,924,943,935,912,898,890,868,856,846,825,810,794,778,771,751,734,719,705,689,674,659,645,606,506,483,496,478,480,459,436,438,435,437,445,442,458,470,443,443,443,481,449,444,448,453,448,449,448,450,446,450,447,448,451,450,450,0,0,0,0,0,0,0,0,0,0,0,0,0,0,0,0,0,0,0,0,0,0,0,0,0,0,0,0,0,0,0,0,0,0,0,0,0,0,0,0,0,0,0,0,0,0,0,0,0,0,0,0,0,0,0,0,0,0,0,0,0,0,0,0,0,1030,1035,1036,1041,1131,1508,1763,1911,2009,2050,2027,2001,1965,1938,1904,1871,1852,1820,1784,1729,1709,1690,1651,1616,1587,1548,1510,1455,1345,1289,1171,1105,1100,1069,1044,1047,1051,1028,1021,1024,1032,1039,1038,1039,1027,1044,1037,1040,1036,1038,1039,1039,1049,1061,1049,1050,1049,1042,1048,1046,1056,1064,1058,1064,1060,976,982,984,1011,1101,1377,1683,1825,1881,1949,1956,1915,1894,1838,1818,1790,1752,1720,1711,1659,1620,1614,1567,1530,1523,1484,1444,1360,1315,1257,1241,1075,1014,1009,997,994,984,970,957,961,961,959,981,979,989,981,986,996,974,959,975,981,983,979,993,989,972,968,982,982,968,983,985,987,987,954,942,952,963,1032,1278,1585,1694,1827,1882,1859,1852,1821,1767,1767,1726,1695,1678,1623,1617,1587,1548,1526,1491,1479,1419,1408,1371,1277,1250,1066,1058,1005,962,978,984,897,905,873,880,885,884,893,895,904,897,890,896,897,909,899,893,892,900,898,902,907,903,899,901,899,898,899,900,900,695,694,696,702,724,942,1069,1200,1344,1387,1379,1370,1342,1313,1311,1269,1252,1243,1214,1185,1164,1148,1132,1093,1076,1059,1032,1010,988,965,926,924,738,718,720,702,708,707,682,686,692,700,693,701,686,693,689,682,696,692,690,705,700,705,696,706,707,722,714,705,705,729,693,704,704,445,447,448,449,461,560,653,730,803,873,895,880,867,852,838,824,810,796,783,768,754,740,726,711,697,684,669,655,642,628,568,555,543,530,463,459,460,452,401,403,403,405,405,412,409,422,413,409,421,410,415,411,410,415,416,412,414,417,417,418,418,418,418,417,417,777,777,781,783,807,950,1229,1326,1479,1511,1522,1522,1500,1454,1447,1403,1403,1377,1332,1326,1295,1270,1245,1221,1211,1145,1126,1078,1018,1031,1008,868,826,806,790,789,763,699,671,675,669,690,691,687,701,691,694,693,693,706,691,687,690,697,691,702,700,696,697,698,702,695,697,698,698,732,731,734,735,787,1000,1134,1271,1416,1460,1476,1437,1466,1387,1378,1340,1307,1307,1276,1246,1224,1204,1189,1155,1147,1113,1085,1062,1039,1016,987,898,879,756,757,735,746,744,728,726,729,738,741,734,737,734,741,742,744,748,762,759,762,767,754,753,751,769,752,740,762,740,749,752,752,379,381,414,414,417,517,627,688,775,827,836,809,809,796,782,768,755,730,729,704,701,668,675,612,649,634,621,608,551,440,568,554,541,432,389,417,418,420,408,410,412,417,481,434,429,487,423,494,432,437,427,490,425,498,439,434,497,428,417,493,430,545,423,436,424,694,696,698,701,703,897,1082,1210,1321,1391,1396,1354,1359,1322,1314,1291,1267,1245,1205,1200,1178,1155,1132,1109,1087,1064,1042,1020,997,974,783,785,778,722,708,705,708,650,624,625,618,623,637,633,650,644,635,637,638,657,641,636,637,648,641,644,649,642,645,645,640,643,645,648,648,788,789,794,796,859,1123,1294,1435,1541,1581,1579,1550,1528,1504,1478,1453,1429,1406,1385,1359,1336,1314,1284,1257,1225,1210,1126,1108,1084,1060,1020,932,855,821,796,801,803,782,774,772,780,789,789,791,780,794,783,787,787,787,788,792,795,811,817,801,795,794,797,799,804,829,808,821,821,1224,1227,1244,1276,1420,1719,2106,2251,2362,2402,2396,2352,2334,2266,2237,2200,2159,2134,2088,2066,2013,1981,1948,1903,1869,1820,1712,1666,1588,1370,1358,1352,1304,1253,1262,1222,1159,1167,1134,1141,1146,1145,1154,1156,1165,1158,1151,1157,1158,1170,1160,1155,1154,1161,1159,1163,1168,1164,1160,1162,1160,1159,1160,1161,1161,1594,1597,1656,1822,2308,2789,3147,3252,3273,3280,3303,3183,3182,3133,3024,2998,2939,2871,2817,2734,2698,2485,2125,2356,2110,1999,1914,1894,1847,1774,1760,1685,1650,1632,1643,1650,1636,1651,1634,1650,1631,1673,1640,1666,1663,1684,1667,1682,1678,1670,1684,1690,1692,1680,1676,1678,1691,1706,1693,1700,1683,1708,1695,1700,1695,1428,1413,1436,1521,1746,2150,2532,2624,2743,2786,2750,2731,2667,2623,2598,2530,2487,2445,2400,2362,2326,2297,2250,2217,2160,2115,2016,1656,1610,1620,1572,1521,1499,1463,1466,1430,1383,1384,1360,1369,1364,1371,1380,1380,1390,1383,1377,1381,1384,1396,1387,1380,1378,1388,1384,1390,1395,1390,1388,1386,1387,1385,1386,1387,1387,592,594,593,594,614,777,937,1035,1108,1190,1257,1173,1165,1135,1116,1097,1078,1059,1076,1020,1011,993,963,944,934,906,887,869,858,830,820,686,669,617,604,601,634,604,596,596,591,630,600,595,600,607,599,594,610,603,620,606,598,602,604,615,602,601,595,599,598,600,597,605,605,1540,1556,1555,1644,2204,2673,2908,3054,3164,3158,3138,3071,3064,2967,2920,2854,2798,2754,2697,2643,2571,2520,2469,2356,2256,1896,1849,1803,1759,1701,1704,1667,1638,1576,1584,1566,1578,1594,1571,1577,1585,1599,1620,1613,1606,1616,1622,1607,1604,1630,1634,1628,1630,1637,1633,1634,1636,1634,1631,1633,1622,1621,1632,1627,1618,351,352,353,355,356,382,513,574,633,693,717,706,694,683,671,660,647,636,625,613,602,590,579,567,556,544,533,522,510,499,487,389,379,370,360,357,358,359,332,335,333,337,379,379,354,363,352,383,359,355,380,344,346,364,356,344,387,347,345,387,365,387,387,366,366,1431,1416,1439,1532,1751,2157,2537,2631,2749,2791,2756,2735,2673,2629,2602,2535,2491,2451,2405,2367,2330,2301,2254,2221,2163,2119,2018,1659,1612,1638,1579,1556,1502,1466,1469,1460,1403,1411,1379,1398,1389,1391,1405,1407,1414,1411,1404,1410,1410,1422,1412,1407,1405,1411,1412,1415,1417,1414,1410,1412,1409,1408,1409,1410,1410,1369,1383,1388,1454,1826,2253,2610,2718,2793,2844,2813,2743,2714,2664,2614,2587,2544,2484,2445,2379,2339,2291,2245,2187,2139,2089,2041,1860,1723,1556,1539,1460,1431,1420,1404,1403,1411,1398,1390,1370,1373,1415,1390,1405,1402,1408,1401,1429,1401,1405,1413,1418,1432,1423,1433,1422,1434,1417,1420,1419,1427,1459,1416,1429,1423,902,902,906,910,973,1296,1508,1631,1716,1761,1750,1722,1695,1699,1670,1592,1577,1588,1527,1500,1454,1444,1453,1394,1361,1350,1340,1272,1240,1204,1095,954,949,900,892,905,915,904,902,902,912,921,919,919,911,919,911,918,917,917,920,923,930,940,931,934,927,928,928,932,938,938,935,936,925,796,790,801,805,810,1066,1246,1417,1528,1572,1590,1549,1553,1506,1500,1465,1445,1408,1380,1372,1315,1319,1294,1256,1240,1216,1178,1140,1138,892,970,893,850,825,812,809,791,757,737,741,740,744,747,746,759,752,746,749,751,765,756,751,773,755,752,759,758,767,755,759,761,750,759,756,756,321,322,323,324,324,421,475,529,583,632,644,634,624,614,603,594,584,574,564,554,544,534,523,513,503,493,484,474,464,454,443,433,423,413,330,325,326,327,317,319,320,325,414,334,333,416,327,414,332,414,329,333,329,424,332,324,413,331,329,336,334,413,331,328,328,695,694,700,713,729,944,1071,1202,1346,1390,1388,1439,1399,1321,1313,1277,1255,1245,1223,1186,1166,1149,1133,1110,1108,1060,1043,1010,988,966,969,797,780,718,720,702,708,707,688,699,701,717,722,717,717,723,716,715,717,723,720,718,721,726,726,723,726,728,725,730,729,728,741,736,727,1302,1306,1320,1367,1686,2111,2473,2618,2657,2686,2686,2614,2587,2525,2490,2442,2387,2363,2327,2264,2221,2177,2106,2079,2039,1991,1937,1814,1711,1476,1461,1383,1356,1336,1335,1337,1345,1327,1320,1325,1336,1343,1333,1354,1346,1345,1336,1342,1339,1342,1346,1358,1362,1374,1354,1361,1353,1376,1370,1356,1363,1367,1363,1373,1368,646,645,647,652,671,868,984,1105,1246,1291,1291,1300,1250,1229,1222,1188,1183,1174,1131,1104,1085,1069,1054,1023,1003,986,961,940,919,899,878,867,836,668,669,652,657,656,632,642,643,648,646,641,641,647,640,639,641,647,645,645,645,650,650,651,650,652,649,654,653,659,656,662,662,932,946,940,957,1038,1294,1595,1734,1790,1879,1867,1826,1810,1764,1736,1721,1683,1652,1636,1630,1546,1542,1497,1460,1455,1419,1391,1288,1244,1188,1178,1007,967,963,951,978,964,949,950,942,944,951,951,949,962,968,957,973,967,953,964,969,976,976,984,974,979,979,983,980,978,974,958,956,956,341,342,343,344,350,436,496,554,612,670,695,684,673,661,650,639,628,617,606,595,584,572,561,550,539,528,517,506,495,484,471,460,449,424,414,345,346,348,309,311,311,312,312,319,314,329,321,315,329,317,321,317,317,322,318,318,321,323,323,324,324,324,324,323,323,586,588,590,592,602,741,889,994,1098,1147,1167,1175,1145,1125,1106,1087,1078,1050,1030,999,972,953,964,943,925,905,860,842,832,813,810,689,672,611,599,600,597,594,566,570,569,574,582,588,584,593,590,583,593,586,585,589,587,602,584,582,594,590,587,605,591,621,585,592,592,753,753,758,760,821,1064,1226,1359,1466,1507,1506,1479,1459,1436,1411,1388,1366,1343,1322,1298,1275,1256,1225,1200,1170,1156,1128,1066,1043,1020,845,893,800,786,760,765,766,739,733,740,750,745,745,747,736,752,739,743,743,743,743,747,752,767,756,755,754,749,756,753,759,773,766,778,778,471,473,475,476,481,610,694,773,850,924,943,935,912,898,890,868,856,846,825,810,794,778,771,751,734,719,705,689,674,659,645,606,506,483,496,478,480,459,436,438,435,437,445,442,458,470,443,443,443,481,449,444,448,453,448,449,448,450,446,450,447,448,451,450,450,695,698,700,703,733,907,1115,1247,1351,1394,1394,1371,1352,1327,1305,1283,1260,1238,1217,1193,1172,1150,1126,1105,1081,1058,1038,1016,994,972,915,758,740,722,749,707,709,689,674,676,674,677,695,687,691,684,681,688,684,687,683,691,684,694,683,685,690,687,687,690,690,692,689,682,678,869,871,875,877,904,1150,1370,1545,1657,1734,1742,1701,1673,1646,1628,1591,1563,1556,1501,1489,1477,1425,1413,1378,1344,1315,1304,1276,1248,1180,1057,1043,940,919,903,894,887,864,822,824,821,823,841,833,837,833,827,834,830,833,829,837,830,840,829,831,836,833,833,836,836,838,835,828,824,0,0,0,0,0,0,0,0,0,0,0,0,0,0,0,0,0,0,0,0,0,0,0,0,0,0,0,0,0,0,0,0,0,0,0,0,0,0,0,0,0,0,0,0,0,0,0,0,0,0,0,0,0,0,0,0,0,0,0,0,0,0,0,0,0,468,468,470,472,475,635,721,806,889,941,948,933,913,928,883,896,856,842,827,807,796,781,766,751,735,717,705,690,675,660,644,629,503,490,490,475,476,477,477,480,477,493,504,494,493,500,490,489,501,511,499,506,508,513,498,504,513,492,473,510,492,493,487,511,489,684,687,689,705,714,938,1083,1240,1330,1374,1371,1355,1332,1320,1285,1263,1245,1223,1202,1175,1153,1131,1109,1087,1060,1043,1021,999,971,955,888,755,737,711,698,696,703,630,623,629,629,641,645,654,642,647,649,677,674,675,681,670,661,683,656,649,648,657,647,671,655,650,649,658,650,927,928,932,930,1008,1270,1548,1714,1808,1833,1789,1826,1773,1689,1715,1691,1639,1602,1576,1568,1559,1511,1448,1438,1428,1394,1372,1335,1279,1186,1070,1066,973,957,987,932,949,868,859,865,889,859,867,863,874,870,868,869,869,871,875,877,876,881,877,873,879,881,878,872,879,880,885,880,878,969,970,975,980,1014,1280,1607,1746,1857,1898,1888,1877,1853,1817,1781,1702,1730,1697,1670,1630,1608,1524,1494,1514,1484,1452,1303,1271,1278,1171,1193,1008,1037,999,994,984,987,948,906,908,905,907,925,917,921,917,911,918,914,917,913,921,914,924,913,915,920,917,917,920,920,922,919,912,908,661,663,706,668,766,917,1057,1178,1282,1331,1327,1383,1283,1262,1240,1294,1200,1179,1158,1137,1116,1094,1073,1051,1031,1009,988,941,947,900,879,859,709,687,709,676,674,627,620,615,619,618,623,620,630,627,626,625,627,629,633,634,632,637,633,630,636,638,635,629,635,637,640,636,634,1051,1057,1066,1063,1132,1474,1790,1961,2062,2072,2026,2032,2002,1917,1938,1921,1854,1822,1792,1768,1749,1715,1640,1635,1608,1567,1544,1505,1368,1249,1171,1134,1089,1091,1115,1074,1066,1004,996,1003,1000,998,1004,1002,1009,1009,1005,1006,1006,1007,1008,1011,1009,1017,1008,1010,1015,1011,1012,1015,1015,1017,1014,1007,1003,883,885,888,891,953,1213,1458,1614,1715,1753,1747,1720,1692,1664,1636,1607,1583,1560,1533,1504,1492,1463,1422,1391,1363,1336,1307,1313,1252,1195,1160,956,936,916,931,922,904,889,895,870,871,870,882,889,890,882,887,897,914,898,908,912,909,906,896,906,917,914,942,920,958,909,919,917,914,831,826,835,834,884,1092,1322,1456,1573,1610,1608,1584,1557,1519,1504,1475,1453,1430,1423,1386,1357,1323,1295,1271,1252,1223,1206,1175,1100,1041,927,927,872,832,889,852,840,814,790,792,789,791,804,801,805,801,795,802,798,797,797,803,798,807,797,799,804,801,801,804,802,806,803,796,792,407,407,409,411,412,458,597,666,737,807,833,818,805,796,785,773,759,746,732,719,705,693,679,664,651,638,625,611,598,584,570,558,447,436,440,422,423,423,393,389,393,399,397,406,401,401,399,402,410,400,398,399,394,406,398,399,401,397,396,399,400,402,398,410,398,962,973,972,979,1069,1393,1596,1803,1893,1922,1919,1891,1879,1855,1784,1757,1734,1697,1665,1640,1614,1569,1543,1528,1495,1451,1442,1346,1267,1234,1169,1026,1028,994,984,985,967,892,885,890,890,902,906,915,903,908,910,938,935,936,942,931,923,945,917,910,909,918,908,932,916,911,910,919,911,1004,1023,1013,1037,1240,1664,1950,2174,2208,2253,2209,2191,2156,2085,2202,2003,2009,1920,1878,1837,1796,1754,1712,1695,1597,1588,1564,1505,1465,1401,1320,1097,1062,1047,999,999,1049,1047,1044,1074,1057,1073,1065,1062,1059,1071,1071,1064,1080,1061,1061,1071,1071,1077,1081,1092,1086,1082,1092,1077,1083,1146,1090,1103,1087,839,846,865,858,915,1279,1501,1670,1782,1823,1804,1776,1746,1707,1684,1642,1617,1585,1541,1520,1487,1454,1421,1382,1356,1324,1295,1257,1227,1194,1242,1028,898,871,865,864,873,851,851,873,861,897,855,874,867,888,878,883,876,866,879,874,925,881,881,909,881,876,912,878,884,966,879,945,925,461,462,464,466,473,600,679,759,838,915,937,921,905,895,881,867,851,837,820,807,792,776,760,745,730,716,700,685,670,654,639,625,609,502,490,486,512,510,434,442,438,445,453,456,452,451,441,449,446,449,440,452,445,457,447,447,452,446,451,454,449,464,442,445,440,1215,1217,1240,1231,1578,1961,2252,2414,2508,2529,2512,2462,2417,2372,2333,2290,2254,2203,2154,2117,2076,2031,1985,1942,1902,1853,1810,1770,1694,1594,1387,1328,1311,1247,1234,1233,1220,1195,1197,1216,1205,1284,1204,1225,1219,1240,1233,1236,1230,1217,1263,1234,1266,1235,1236,1331,1237,1238,1292,1233,1265,1328,1235,1302,1290,693,695,698,700,717,880,1067,1182,1271,1351,1371,1344,1332,1314,1284,1268,1248,1225,1200,1175,1154,1131,1117,1087,1074,1052,1023,1009,980,966,843,800,789,763,712,718,725,690,648,650,647,649,667,659,663,659,653,660,656,659,655,663,656,666,655,657,662,659,659,662,662,664,661,654,650,967,972,992,978,1147,1488,1750,1917,2030,2059,2044,2009,1971,1935,1900,1865,1829,1795,1746,1721,1687,1650,1612,1577,1540,1504,1402,1370,1335,1300,1341,1056,1025,999,987,986,1011,975,977,995,984,1032,983,1001,993,1010,1002,1003,995,989,996,996,1007,1006,1006,1057,1005,999,1058,1006,1005,1102,1005,1097,1077,782,788,802,791,976,1180,1399,1535,1658,1695,1744,1655,1624,1595,1625,1534,1503,1535,1433,1427,1434,1400,1367,1333,1261,1232,1232,1171,1163,1129,1063,1065,858,790,796,775,801,793,805,802,815,805,814,818,832,827,807,803,823,826,819,810,813,846,817,824,813,820,813,819,811,821,817,946,810,160,161,161,198,198,203,231,257,283,310,326,321,316,311,305,301,295,290,284,280,275,269,265,259,254,249,244,238,234,228,223,217,213,207,202,199,199,200,148,149,149,150,150,153,150,152,153,152,150,152,152,152,150,152,152,152,153,150,150,149,153,153,153,154,153,934,923,931,926,996,1280,1555,1701,1815,1856,1836,1809,1793,1755,1730,1683,1676,1632,1603,1579,1554,1519,1486,1459,1429,1400,1371,1328,1256,1232,1114,1027,971,956,984,942,941,870,866,862,867,864,871,868,878,871,880,871,874,877,881,894,906,898,883,882,884,887,885,880,887,886,892,881,879,1156,1152,1162,1159,1291,1607,1920,2049,2223,2238,2212,2172,2172,2135,2071,2068,2028,1992,1955,1908,1875,1848,1822,1748,1714,1729,1667,1629,1456,1434,1322,1259,1232,1194,1168,1151,1150,1127,1085,1087,1084,1086,1104,1096,1100,1096,1090,1097,1093,1096,1092,1100,1093,1103,1092,1094,1099,1096,1096,1099,1099,1101,1098,1091,1087,1019,1019,1024,1025,1111,1410,1711,1883,1978,2001,1949,1977,1934,1842,1871,1840,1789,1744,1716,1709,1688,1647,1582,1570,1556,1515,1491,1451,1391,1200,1160,1152,1052,1049,1075,1017,1022,942,933,941,959,935,941,939,947,946,942,943,943,948,952,955,953,958,954,949,958,959,955,950,953,956,961,956,954,704,707,725,711,888,1058,1235,1392,1518,1556,1548,1521,1492,1464,1435,1406,1378,1349,1311,1293,1265,1236,1207,1179,1151,1123,1097,1065,1037,1008,1069,931,901,732,719,717,741,719,720,738,729,841,724,742,734,752,742,748,738,732,740,739,747,747,748,845,747,741,838,746,748,850,746,876,849,930,930,936,935,984,1280,1545,1710,1819,1844,1801,1811,1784,1700,1725,1701,1649,1612,1586,1565,1549,1520,1457,1447,1422,1387,1373,1332,1291,1081,1067,1056,962,958,987,937,949,910,884,886,883,885,901,895,899,895,889,896,892,890,890,893,892,899,891,893,897,893,895,898,898,900,897,890,886,456,463,464,466,464,629,689,776,843,895,903,889,875,904,848,843,820,806,792,778,764,751,737,722,709,709,680,679,665,650,635,620,556,483,467,468,464,465,466,466,467,470,477,509,476,515,477,480,472,478,470,476,477,482,477,473,482,474,474,479,482,483,468,480,472,890,892,896,893,920,1148,1438,1587,1697,1725,1774,1738,1715,1693,1658,1624,1608,1582,1519,1496,1489,1442,1446,1387,1368,1353,1311,1177,1266,1147,1087,981,996,933,909,910,909,863,821,823,820,822,840,832,836,832,826,833,829,832,828,836,829,839,828,830,835,832,832,835,835,837,834,827,823,521,522,524,540,537,609,788,876,977,1036,1058,1040,1022,1009,993,976,957,943,925,910,895,877,861,842,834,819,791,773,765,733,720,576,683,577,560,558,567,500,458,460,457,459,477,469,473,469,463,470,466,469,465,473,466,476,465,467,472,469,469,472,472,474,471,464,460,292,293,294,295,296,312,421,468,518,567,596,585,575,565,556,546,537,533,519,513,499,490,480,474,466,453,447,437,427,418,409,399,390,353,327,323,324,324,275,272,274,277,283,281,319,279,276,284,277,283,304,287,279,308,277,275,280,277,302,306,306,307,303,290,285,695,698,700,703,733,907,1115,1247,1351,1394,1394,1371,1352,1327,1305,1283,1260,1238,1217,1193,1172,1150,1126,1105,1081,1058,1038,1016,994,972,915,758,740,722,749,707,709,689,674,676,674,677,695,687,691,684,681,688,684,687,683,691,684,694,683,685,690,687,687,690,690,692,689,682,678,612,615,616,619,626,786,936,1040,1141,1207,1222,1204,1186,1167,1147,1133,1107,1094,1078,1059,1039,1019,1001,981,961,942,922,905,872,862,843,707,690,652,633,630,632,613,523,522,520,520,519,525,522,522,523,523,522,524,525,522,524,525,531,522,522,528,522,525,522,520,525,522,522,884,888,885,888,935,1253,1425,1589,1697,1754,1754,1722,1709,1678,1650,1618,1584,1566,1539,1500,1485,1456,1421,1400,1383,1346,1316,1292,1236,1199,995,962,950,912,901,928,911,903,823,822,820,820,819,825,822,822,823,823,822,824,825,822,824,825,831,822,822,828,822,825,822,820,825,822,822,530,532,541,543,553,601,795,885,974,1043,1061,1029,1014,997,981,964,948,932,916,899,883,894,863,846,830,813,797,780,764,747,730,612,597,584,549,546,548,549,515,512,516,525,519,520,524,519,518,526,543,518,528,531,527,526,536,540,523,522,518,518,518,518,518,518,518,0,0,0,0,0,0,0,0,0,0,0,0,0,0,0,0,0,0,0,0,0,0,0,0,0,0,0,0,0,0,0,0,0,0,0,0,0,0,0,0,0,0,0,0,0,0,0,0,0,0,0,0,0,0,0,0,0,0,0,0,0,0,0,0,0,377,379,380,382,387,441,548,613,686,738,758,745,734,722,709,699,689,676,665,655,643,630,620,607,595,583,573,561,539,537,527,453,444,423,401,387,389,367,251,249,249,252,250,254,252,252,253,255,254,257,280,277,279,262,264,252,253,261,252,254,253,250,254,254,254,769,771,772,775,793,969,1192,1364,1460,1500,1506,1485,1465,1442,1421,1404,1375,1361,1334,1312,1290,1269,1239,1218,1192,1168,1141,1116,1018,896,929,872,841,821,800,796,799,749,621,636,644,629,630,635,629,632,624,638,626,627,633,636,640,641,648,633,632,633,633,636,633,632,631,634,634,886,887,867,896,946,1200,1416,1569,1662,1702,1709,1682,1637,1641,1609,1551,1531,1556,1532,1467,1476,1452,1375,1348,1372,1340,1313,1282,1172,1106,979,972,939,904,889,895,888,879,794,794,792,796,796,799,798,799,799,800,798,801,804,799,803,808,812,802,802,808,806,809,806,804,809,806,806,490,492,492,494,496,594,731,813,896,945,960,949,937,923,911,903,883,877,861,847,834,822,801,786,771,756,738,722,699,686,671,609,548,535,517,514,516,508,382,386,383,388,386,392,385,389,382,394,384,385,391,393,396,397,404,390,389,390,390,393,389,389,386,390,390,904,911,914,917,954,1231,1468,1633,1720,1758,1750,1731,1717,1691,1657,1641,1615,1586,1552,1550,1501,1490,1448,1437,1380,1374,1319,1316,1144,1053,1030,994,981,954,933,940,934,885,757,773,780,768,769,772,768,767,763,775,763,764,773,776,782,781,788,773,771,776,775,776,776,769,770,773,773,1035,1046,1049,1081,1148,1501,1706,1879,1998,2037,2039,1996,1964,1920,1901,1869,1836,1805,1762,1743,1699,1703,1651,1621,1590,1558,1534,1489,1366,1286,1217,1128,1098,1083,1071,1074,1071,1064,1029,1031,1035,1036,1050,1040,1038,1050,1039,1035,1043,1042,1039,1037,1046,1044,1046,1049,1043,1049,1049,1057,1059,1059,1059,1059,1059,675,660,655,678,676,759,1002,1116,1216,1263,1275,1263,1246,1228,1211,1194,1170,1161,1142,1134,1117,1086,1075,1014,996,978,958,939,915,917,786,747,731,704,691,696,686,683,571,572,573,575,584,588,578,585,573,583,591,594,589,595,598,599,603,593,587,602,595,598,596,594,599,596,596,554,556,565,567,580,728,835,935,1025,1092,1109,1091,1060,1058,1026,1008,1005,974,970,940,924,933,902,898,867,865,845,815,798,781,721,707,627,597,591,588,572,574,544,541,544,546,551,554,551,558,558,552,557,556,555,550,552,560,557,552,556,556,550,550,550,550,550,550,550,595,594,596,601,621,751,909,1007,1113,1180,1198,1180,1162,1142,1126,1086,1085,1063,1045,1030,1010,997,976,962,935,916,894,879,860,841,804,683,667,646,616,603,608,574,513,511,510,510,509,515,512,512,513,513,512,514,515,512,514,515,521,512,512,518,512,515,512,510,515,512,512,792,766,767,792,857,1201,1349,1593,1714,1800,1791,1756,1710,1657,1613,1619,1560,1564,1493,1492,1447,1413,1391,1345,1310,1256,1241,1175,1141,1108,1017,887,876,820,817,776,810,807,790,789,790,788,801,793,796,804,803,821,818,807,811,797,825,818,825,813,801,818,812,812,812,812,812,812,812,621,624,628,630,658,857,1017,1145,1286,1373,1382,1356,1320,1306,1273,1252,1227,1206,1170,1156,1127,1098,1080,1044,1029,997,968,953,928,898,858,772,712,652,646,637,639,634,607,604,603,606,606,611,608,606,608,608,608,608,611,608,611,610,615,609,607,615,609,611,610,605,612,608,608,443,445,446,448,448,534,655,727,800,867,885,873,862,847,834,821,804,793,779,767,753,738,725,717,698,684,670,657,632,628,614,492,482,471,460,470,480,472,410,404,403,407,406,405,407,409,408,410,406,408,410,409,411,411,418,409,409,415,409,412,409,407,411,409,409,997,997,1002,1012,1142,1444,1774,1904,2032,2092,2088,2054,2011,1992,1954,1917,1880,1835,1789,1768,1727,1686,1657,1608,1584,1544,1497,1469,1433,1302,1167,1137,1054,1032,1014,1011,990,978,958,959,962,971,972,973,987,976,979,974,983,987,987,987,987,987,977,980,987,983,987,987,987,987,987,987,987,674,676,671,702,720,802,1078,1186,1237,1358,1330,1296,1295,1309,1253,1240,1196,1204,1204,1185,1117,1105,1082,1107,1085,1016,1005,987,992,875,901,730,732,728,701,697,708,697,610,609,607,607,606,612,609,609,610,610,609,611,612,609,611,612,618,609,609,615,609,612,609,607,612,609,609,696,698,700,702,705,884,1088,1204,1328,1395,1409,1388,1360,1343,1322,1282,1273,1253,1230,1208,1186,1164,1141,1120,1095,1074,1050,1027,1006,984,949,853,740,722,710,707,709,705,627,631,626,625,631,631,639,635,632,639,639,637,642,639,641,640,642,632,635,640,631,638,635,631,634,631,631,544,545,570,573,558,764,893,1024,1154,1244,1254,1230,1195,1184,1171,1138,1116,1093,1059,1047,1048,991,977,944,932,909,891,869,840,824,779,754,728,616,576,574,585,569,552,553,550,555,559,562,560,569,558,560,564,568,565,558,563,577,566,564,564,560,559,559,559,559,559,559,559,530,557,545,561,578,691,830,932,987,1049,1095,1078,1049,1033,1015,988,972,954,952,941,926,901,905,851,870,819,836,811,769,784,740,617,639,630,563,560,575,563,541,540,540,545,544,548,540,552,544,543,549,546,545,552,554,562,556,553,548,553,547,547,546,547,547,547,547,763,766,766,770,796,974,1185,1350,1451,1491,1497,1478,1456,1434,1413,1396,1368,1353,1328,1305,1283,1262,1233,1209,1185,1161,1134,1109,1082,1051,973,861,824,815,799,792,794,751,628,633,631,634,634,640,633,633,636,640,631,633,639,653,655,656,654,642,637,639,640,644,641,638,638,635,635,1138,1142,1145,1159,1250,1692,1919,2088,2188,2231,2218,2184,2164,2126,2091,2051,2009,1986,1951,1921,1884,1848,1813,1787,1750,1711,1673,1532,1345,1277,1268,1220,1213,1175,1165,1185,1174,1166,1086,1085,1083,1083,1082,1088,1085,1085,1086,1086,1085,1087,1088,1085,1087,1088,1094,1085,1085,1091,1085,1088,1085,1083,1088,1085,1085,851,854,855,859,896,1107,1343,1533,1629,1666,1669,1647,1625,1597,1574,1554,1522,1505,1477,1452,1426,1402,1370,1343,1316,1290,1260,1232,1140,1015,1019,973,915,904,883,881,872,823,695,710,718,705,706,709,705,705,700,712,700,701,710,713,718,718,725,710,708,712,711,713,711,706,707,710,710,487,488,489,492,498,658,773,892,1010,1102,1115,1094,1060,1051,1030,1009,988,968,935,925,904,875,862,830,822,798,767,756,735,705,690,672,532,515,499,495,499,502,480,482,486,490,487,491,509,493,488,489,494,495,509,509,509,509,489,492,496,493,493,493,493,493,493,493,493,778,784,786,790,812,1030,1236,1380,1473,1515,1522,1506,1496,1474,1444,1428,1400,1381,1344,1353,1298,1291,1253,1254,1203,1196,1148,1140,1094,1019,998,890,878,827,805,812,819,794,668,675,672,675,672,677,676,685,670,683,672,674,684,683,690,689,698,684,681,681,685,688,685,686,682,684,684,41,41,41,41,51,51,57,63,70,75,81,80,79,78,77,75,74,72,71,70,69,68,67,66,64,63,62,60,59,58,57,56,55,53,52,51,51,51,15,15,15,15,15,15,15,15,15,15,15,15,15,15,15,15,15,15,15,15,15,15,15,15,15,15,15,824,820,828,832,896,1103,1304,1447,1559,1616,1624,1601,1576,1541,1523,1493,1472,1454,1419,1410,1382,1336,1332,1306,1263,1246,1212,1189,1129,1125,1057,901,876,865,833,844,846,809,729,733,736,732,730,737,738,734,737,735,733,740,741,738,740,741,746,732,738,744,731,739,738,736,741,736,736,564,573,573,571,605,724,855,981,1079,1139,1133,1112,1099,1080,1063,1064,1029,1040,1010,986,980,954,930,904,897,879,860,837,805,796,657,655,644,595,598,578,595,540,487,486,484,484,483,489,486,486,487,487,486,488,489,486,488,489,495,486,486,492,486,489,486,484,489,486,486,527,520,529,531,540,674,775,861,948,1017,1036,1004,988,973,957,941,926,909,894,878,874,873,843,827,825,795,779,762,746,731,719,671,585,571,537,552,536,535,497,494,497,498,499,499,501,501,502,500,502,504,505,507,509,509,505,511,505,507,508,508,508,508,508,508,508,612,615,616,619,626,786,936,1040,1141,1207,1222,1204,1186,1167,1147,1133,1107,1094,1078,1059,1039,1019,1001,981,961,942,922,905,872,862,843,707,690,652,633,630,632,613,523,522,520,520,519,525,522,522,523,523,522,524,525,522,524,525,531,522,522,528,522,525,522,520,525,522,522,520,522,522,525,548,587,799,893,984,1047,1051,1034,1025,1008,983,963,949,930,920,900,880,862,848,835,816,801,782,762,736,719,605,591,586,563,531,528,527,497,472,473,477,475,478,478,477,476,475,479,481,476,478,490,506,479,479,485,480,480,481,481,482,482,480,482,478,848,873,854,879,882,1165,1356,1526,1632,1694,1688,1668,1646,1628,1580,1540,1544,1500,1473,1459,1431,1392,1372,1346,1315,1297,1257,1247,1214,1069,1045,935,896,868,875,862,851,846,816,819,811,824,826,824,823,824,826,824,820,825,823,825,824,823,827,827,827,823,826,825,820,820,820,820,819,703,706,708,711,725,948,1101,1223,1342,1413,1412,1389,1380,1344,1321,1299,1284,1254,1230,1208,1197,1163,1140,1118,1106,1073,1050,1028,1020,983,968,874,748,730,718,715,717,719,677,684,679,698,685,697,684,699,694,699,699,694,699,699,699,699,698,698,699,699,699,699,697,697,697,697,696,275,276,277,278,279,360,403,457,498,551,563,554,545,530,526,518,502,500,491,476,467,464,455,441,436,427,413,410,401,391,382,374,365,356,346,279,280,344,273,274,273,279,280,279,277,314,272,280,279,274,276,310,279,279,279,280,279,279,288,280,278,278,277,279,277,0,0,0,0,0,0,0,0,0,0,0,0,0,0,0,0,0,0,0,0,0,0,0,0,0,0,0,0,0,0,0,0,0,0,0,0,0,0,0,0,0,0,0,0,0,0,0,0,0,0,0,0,0,0,0,0,0,0,0,0,0,0,0,0,0,495,497,497,499,506,578,729,813,936,957,961,949,946,926,915,904,892,881,868,856,839,823,807,797,777,765,750,736,720,697,672,553,570,572,516,542,514,510,430,424,436,455,430,436,431,437,431,434,435,432,434,432,436,436,435,435,434,435,436,432,433,433,433,433,432,775,795,773,781,863,957,1249,1406,1483,1573,1571,1547,1527,1450,1471,1447,1406,1396,1377,1349,1320,1295,1272,1255,1228,1204,1176,1148,1113,1051,928,824,801,815,807,769,805,769,743,741,747,752,753,751,752,752,750,755,756,750,756,753,758,761,757,761,757,756,763,761,764,763,763,763,759,217,217,218,219,242,281,319,355,394,432,445,438,431,424,416,410,402,396,388,381,374,367,359,353,345,338,332,324,317,310,303,295,289,281,275,243,243,244,189,185,186,185,189,192,188,193,188,192,191,190,192,190,193,192,191,191,191,192,193,189,190,190,190,190,189,635,647,639,641,669,765,983,1093,1215,1258,1260,1242,1199,1206,1185,1161,1137,1107,1119,1092,1080,1064,1030,1020,1002,988,946,935,909,861,842,692,710,678,648,645,666,632,552,552,552,552,552,552,552,552,552,552,552,552,552,552,552,552,551,551,552,552,552,552,552,552,552,552,551,1139,1112,1125,1143,1279,1592,1931,2043,2151,2202,2227,2182,2123,2114,2087,2027,1993,1985,1920,1886,1850,1807,1802,1729,1714,1715,1624,1544,1510,1307,1277,1242,1159,1133,1147,1126,1137,1132,1137,1128,1132,1141,1129,1128,1140,1141,1139,1135,1146,1143,1146,1145,1145,1150,1150,1148,1146,1144,1147,1148,1150,1150,1150,1150,1149,403,404,405,406,384,489,536,641,705,753,764,754,744,732,721,709,696,684,672,660,661,649,640,630,573,565,555,545,535,525,528,515,431,462,388,408,409,410,387,374,375,375,388,383,384,386,384,383,388,388,395,392,393,393,394,390,389,406,393,389,386,386,386,386,385,690,695,694,705,734,904,1090,1223,1326,1399,1398,1375,1370,1329,1320,1285,1268,1240,1218,1194,1180,1159,1146,1106,1088,1064,1031,1024,1008,985,826,875,766,719,713,710,709,709,669,670,667,683,687,685,686,691,688,686,689,691,690,686,687,688,688,687,688,688,685,686,685,687,688,686,683,318,319,319,320,332,434,498,533,583,636,647,661,626,640,603,595,586,598,564,576,545,534,527,535,524,518,503,469,481,451,441,363,440,346,352,349,333,332,271,271,271,271,271,271,271,271,271,271,271,271,271,271,271,271,270,270,271,271,271,271,271,271,271,271,270,998,998,975,977,1043,1434,1706,1899,1997,2061,2059,2037,1996,1957,1937,1911,1875,1844,1814,1776,1752,1721,1690,1617,1584,1511,1493,1454,1416,1355,1175,1163,1029,1025,1011,1007,1012,994,1010,1005,1009,1008,1020,1010,1017,1020,1020,1020,1020,1020,1020,1020,1020,1020,1019,1019,1020,1016,1016,1015,1014,1020,1012,1015,1013,534,536,537,539,541,611,794,886,980,1060,1075,1059,1041,1024,1007,991,973,955,939,921,905,887,870,853,836,819,806,785,767,751,733,601,586,558,546,542,544,521,490,494,494,497,499,496,493,496,494,496,496,497,495,497,497,498,495,494,498,496,499,498,497,499,495,498,496,405,407,408,410,411,486,596,667,737,804,823,810,805,784,771,757,748,731,718,705,697,678,665,653,645,633,613,605,592,574,566,552,495,426,438,412,413,414,379,382,376,379,386,394,384,399,382,390,383,380,385,386,389,395,392,388,385,384,385,392,382,382,382,382,381,966,969,972,978,1008,1274,1542,1733,1854,1916,1918,1887,1852,1825,1788,1763,1733,1697,1671,1640,1607,1575,1545,1514,1483,1454,1431,1399,1367,1197,1135,1090,1015,995,984,981,957,942,893,899,899,902,902,902,902,902,902,902,902,902,902,902,902,902,901,901,902,902,902,902,902,902,902,902,901,606,608,608,612,625,658,939,1051,1158,1219,1218,1199,1187,1167,1139,1119,1099,1079,1066,1041,1021,1001,982,965,946,927,906,885,832,766,722,705,678,630,619,613,615,591,564,568,575,570,572,573,574,571,572,574,576,575,579,585,582,576,576,579,579,577,579,575,580,579,578,580,576,537,539,540,541,544,690,800,892,986,1067,1081,1064,1048,1029,1013,996,977,961,944,926,909,892,875,858,840,823,810,788,772,754,737,720,648,560,549,545,547,548,520,514,520,516,528,521,513,528,523,520,527,528,524,528,528,528,525,521,521,524,523,520,524,522,521,520,519,750,752,756,780,781,1154,1322,1490,1616,1671,1640,1632,1621,1564,1601,1505,1508,1509,1476,1443,1412,1338,1344,1312,1241,1210,1182,1149,1127,1114,1081,949,805,807,793,785,778,777,772,769,771,775,779,780,781,788,776,781,782,788,788,802,802,799,809,785,785,782,782,793,782,797,786,811,811,706,709,711,715,746,914,1101,1251,1339,1424,1412,1405,1392,1343,1321,1302,1279,1253,1224,1215,1192,1134,1140,1125,1091,1081,1057,1015,1019,987,905,848,776,721,720,717,708,713,673,680,688,686,691,682,684,695,692,690,693,695,694,690,691,692,692,691,692,685,688,690,682,682,682,682,680,489,490,492,493,500,577,722,805,887,951,952,941,930,918,907,896,884,873,858,846,819,816,793,776,761,746,730,718,703,688,673,608,587,521,512,502,503,504,417,417,417,417,417,417,417,417,417,417,417,417,417,417,417,417,416,416,417,417,417,417,417,417,417,417,416,1100,1105,1108,1122,1203,1578,1845,2021,2123,2174,2160,2126,2106,2074,2022,1988,1968,1920,1891,1866,1833,1783,1749,1722,1696,1663,1616,1589,1308,1296,1229,1194,1151,1131,1131,1124,1114,1109,1079,1082,1074,1088,1089,1089,1086,1087,1089,1087,1083,1088,1086,1088,1087,1086,1090,1090,1090,1086,1089,1088,1083,1083,1083,1083,1082,577,578,580,582,591,699,862,962,1068,1128,1127,1113,1107,1084,1070,1060,1041,1028,1012,997,968,959,936,915,897,881,861,846,828,810,790,653,622,646,600,593,593,583,504,498,510,510,506,510,507,510,507,508,509,506,510,509,510,510,509,509,510,510,510,509,510,510,510,510,509,673,675,677,680,685,815,1022,1146,1263,1340,1348,1327,1306,1283,1262,1241,1219,1197,1177,1155,1134,1112,1091,1069,1048,1027,1009,943,919,897,877,738,721,703,687,684,685,632,605,611,612,614,614,609,610,608,614,611,609,614,611,614,614,614,612,613,611,613,614,614,614,614,612,614,613,510,521,513,514,533,621,782,870,962,1010,1016,1001,971,981,964,944,924,891,915,882,877,862,832,833,819,802,767,764,734,705,705,558,547,556,522,518,519,542,475,471,475,474,476,478,473,484,483,480,480,478,481,483,483,486,483,485,485,484,484,484,485,485,485,485,484,316,317,318,319,321,417,466,527,573,632,643,633,623,606,601,592,574,571,561,545,535,531,521,505,499,489,473,469,459,448,438,429,418,409,397,330,331,375,288,289,288,294,295,294,292,320,287,295,294,289,291,310,294,294,294,295,294,294,303,295,293,293,292,294,292,718,732,733,737,773,865,1138,1288,1407,1459,1457,1422,1396,1366,1355,1324,1290,1292,1264,1249,1198,1198,1168,1161,1116,1104,1088,1056,1029,1005,888,867,771,755,743,740,728,699,678,680,692,688,687,689,693,687,688,690,691,690,694,693,696,695,691,691,694,693,688,691,697,696,696,693,689,536,543,540,548,545,676,818,888,977,1055,1067,1075,1044,1016,1002,982,970,948,930,922,904,889,873,845,839,809,794,775,785,750,753,680,566,579,544,536,538,502,473,469,471,472,471,478,477,481,483,478,483,480,479,480,476,487,481,479,477,484,478,479,484,484,484,484,483,654,659,658,669,679,781,1027,1150,1246,1325,1326,1303,1299,1262,1251,1218,1202,1177,1156,1133,1120,1100,1060,1049,1033,1010,979,971,958,859,761,836,729,683,709,664,672,664,635,635,637,641,642,643,644,649,643,641,644,642,645,641,642,643,643,642,643,643,640,641,640,642,643,641,638,520,522,522,525,548,587,799,893,984,1047,1051,1034,1025,1008,983,963,949,930,920,900,880,862,848,835,816,801,782,762,736,719,605,591,586,563,531,528,527,497,472,473,477,475,478,478,477,476,475,479,481,476,478,490,506,479,479,485,480,480,481,481,482,482,480,482,478,386,387,389,389,391,506,577,643,710,771,794,774,762,750,743,724,710,699,685,674,664,647,635,623,609,598,584,572,560,553,535,522,513,438,396,393,394,395,346,335,342,344,337,366,342,366,358,344,363,346,348,349,357,363,347,345,350,354,347,346,347,352,347,356,349,740,744,744,750,783,947,1182,1293,1451,1510,1472,1455,1425,1444,1416,1344,1370,1299,1294,1243,1268,1235,1140,1167,1170,1121,1096,1072,1055,1032,1002,848,829,788,756,753,755,759,722,712,721,720,720,722,722,722,722,722,722,722,722,722,722,722,722,722,722,722,722,722,722,722,722,722,722,920,924,927,930,949,1289,1459,1630,1784,1833,1833,1799,1769,1751,1719,1683,1656,1626,1595,1565,1537,1507,1477,1448,1427,1396,1360,1331,1307,1258,1017,1013,1002,949,937,936,937,955,873,878,875,894,890,883,888,902,888,902,902,902,894,895,885,892,893,902,881,886,876,885,880,881,881,882,881,804,801,805,805,825,1031,1227,1380,1539,1579,1601,1556,1532,1521,1497,1465,1430,1412,1392,1359,1336,1306,1299,1262,1238,1216,1192,1159,1133,1107,1001,912,855,831,813,817,804,774,701,706,710,711,714,711,714,712,711,712,711,713,714,723,721,718,718,717,716,715,718,719,716,716,716,717,716,529,531,532,535,542,693,782,876,989,1036,1057,1044,1032,1017,997,980,966,949,935,915,897,881,864,849,830,814,796,778,762,744,690,581,567,557,541,541,547,528,455,456,459,461,463,464,464,463,463,465,464,465,467,480,474,472,472,471,472,471,476,474,472,473,471,472,471,0,0,0,0,0,0,0,0,0,0,0,0,0,0,0,0,0,0,0,0,0,0,0,0,0,0,0,0,0,0,0,0,0,0,0,0,0,0,0,0,0,0,0,0,0,0,0,0,0,0,0,0,0,0,0,0,0,0,0,0,0,0,0,0,0,513,517,516,519,545,579,746,834,981,1049,1017,1002,986,996,1001,925,962,895,885,856,875,844,776,811,796,780,779,745,716,693,679,609,596,532,526,523,551,535,495,495,495,495,495,495,495,495,495,495,495,495,495,495,495,495,495,495,495,495,495,495,495,495,495,495,495,325,326,328,329,330,418,471,527,587,642,665,654,647,632,628,615,601,590,579,569,558,547,537,530,515,506,495,484,474,463,455,442,431,343,334,331,332,333,268,266,270,275,276,277,276,276,275,275,278,279,280,297,286,282,277,278,281,275,272,282,275,276,276,277,276,164,164,165,165,166,171,235,262,290,317,336,331,325,320,314,310,304,299,293,288,282,277,271,267,261,256,250,245,239,234,228,224,218,213,170,166,167,167,135,136,137,139,139,139,137,139,135,139,137,137,137,140,140,142,140,140,140,139,143,142,140,143,137,136,136,1075,1065,1087,1066,1201,1508,1803,1950,2043,2079,2107,2065,2039,1991,1952,1920,1917,1857,1807,1795,1781,1727,1645,1675,1640,1597,1536,1417,1468,1222,1217,1163,1143,1102,1075,1062,1075,1078,1047,1039,1046,1050,1050,1070,1061,1070,1070,1070,1070,1060,1061,1064,1059,1070,1070,1060,1064,1065,1056,1060,1061,1070,1059,1070,1063,184,185,186,186,187,189,262,293,324,354,384,371,366,359,359,347,342,335,330,324,322,312,305,300,293,288,281,276,269,264,257,251,203,196,190,187,188,189,154,154,156,158,157,156,157,160,156,156,157,157,158,159,161,159,158,157,157,161,161,156,157,163,157,159,158,813,818,819,838,841,1129,1296,1441,1563,1617,1625,1598,1583,1556,1534,1505,1475,1451,1433,1397,1378,1354,1316,1291,1255,1229,1214,1182,1170,967,948,928,893,849,829,826,829,812,747,737,743,745,739,770,744,771,763,746,768,747,750,751,748,757,749,747,749,756,748,747,748,753,749,758,751,661,663,664,664,680,776,989,1102,1261,1317,1336,1312,1269,1249,1233,1203,1214,1164,1146,1157,1102,1113,1071,1049,1033,1034,1015,972,947,951,910,807,729,714,693,681,671,668,595,595,598,613,609,602,605,620,610,605,619,619,624,624,624,624,604,602,612,610,606,608,607,608,608,609,608,1127,1129,1135,1180,1290,1787,2065,2265,2390,2407,2428,2341,2299,2256,2271,2170,2127,2084,2041,1998,1971,1927,1870,1827,1800,1741,1724,1656,1613,1427,1250,1215,1180,1164,1169,1138,1136,1152,1144,1140,1142,1152,1166,1133,1142,1147,1162,1166,1166,1166,1166,1166,1166,1166,1166,1166,1166,1166,1166,1166,1166,1166,1166,1166,1166,961,964,966,970,1002,1316,1538,1678,1814,1871,1866,1837,1816,1779,1750,1723,1694,1668,1635,1607,1578,1546,1521,1503,1463,1434,1405,1385,1361,1234,1144,1031,1026,989,977,972,954,953,884,876,884,891,893,891,895,887,895,909,895,888,908,904,902,889,887,911,893,917,888,888,922,922,922,922,922,541,544,546,555,559,681,823,913,1006,1082,1095,1077,1064,1043,1033,1012,991,971,957,939,927,904,886,866,852,833,814,803,779,724,701,686,615,565,556,561,567,527,462,452,458,460,454,482,459,487,478,461,481,462,465,466,463,472,464,462,464,471,463,462,463,468,464,473,466,930,932,934,954,1038,1431,1668,1871,1991,2032,2015,1994,1941,1904,1882,1830,1788,1755,1719,1681,1659,1608,1570,1534,1510,1459,1423,1386,1349,1309,1181,1041,980,957,947,947,972,959,964,957,956,963,958,963,986,986,959,981,976,961,961,986,986,986,986,986,986,986,986,986,986,986,967,966,966,472,474,475,477,478,629,712,794,876,940,962,939,929,913,900,878,863,850,832,821,810,787,775,756,744,729,711,695,680,671,651,631,619,495,484,480,481,482,440,427,437,442,432,460,437,454,453,441,458,441,447,450,460,457,444,442,444,453,444,444,441,450,444,454,447,907,910,913,916,937,1225,1395,1559,1731,1800,1798,1767,1743,1713,1685,1656,1628,1600,1570,1540,1512,1490,1458,1428,1400,1371,1344,1315,1285,1170,1096,1002,960,937,924,921,923,927,861,863,855,854,872,876,876,885,876,875,878,875,874,879,875,884,883,880,880,880,877,878,874,882,872,880,879,1142,1144,1151,1203,1343,1851,2107,2273,2428,2485,2453,2428,2375,2337,2292,2227,2200,2155,2092,2065,2050,1987,1933,1896,1866,1791,1730,1685,1654,1468,1268,1249,1196,1197,1184,1164,1184,1179,1150,1158,1165,1177,1170,1174,1159,1168,1178,1195,1181,1180,1185,1193,1190,1192,1191,1187,1184,1184,1185,1204,1192,1190,1203,1203,1202,872,884,882,888,928,1231,1413,1599,1691,1742,1762,1724,1692,1666,1670,1642,1567,1544,1527,1506,1473,1446,1420,1386,1369,1354,1288,1282,1224,1108,1021,942,918,916,908,882,908,886,821,811,817,819,813,830,818,838,837,820,842,821,824,825,822,831,823,821,823,830,822,821,822,827,823,832,825,113,114,114,114,140,143,161,180,199,217,232,228,224,221,217,213,210,206,202,199,195,191,188,184,180,177,173,169,166,162,158,155,151,147,144,140,140,141,71,71,72,72,72,73,73,73,73,73,73,73,73,74,75,75,76,74,73,74,74,73,74,75,75,76,75,891,885,886,898,950,1192,1444,1584,1723,1783,1733,1712,1679,1696,1671,1588,1608,1535,1509,1469,1475,1453,1355,1379,1378,1338,1322,1266,1211,1183,976,952,946,929,897,895,897,912,863,863,863,863,863,863,863,863,863,863,863,863,863,863,863,863,863,863,863,863,863,863,863,863,863,863,863,87,107,107,107,107,110,124,138,154,168,179,176,173,170,168,165,161,159,156,154,150,148,145,141,139,136,134,130,127,125,122,119,116,114,111,108,108,108,73,74,74,76,76,76,74,76,73,76,74,74,74,77,77,78,77,77,77,76,79,78,77,78,74,76,76,1042,1046,1048,1058,1099,1449,1671,1841,2005,2067,2061,2025,1996,1963,1929,1896,1863,1830,1798,1763,1730,1704,1668,1643,1600,1568,1535,1502,1469,1214,1187,1121,1096,1091,1061,1058,1040,1058,989,982,993,1007,1004,1006,1001,1010,1010,1015,1012,1003,1019,1021,1021,1006,1006,1019,996,1021,1005,1003,1000,1008,1006,1009,1008,90,90,90,99,112,114,128,144,158,172,185,182,180,176,172,170,167,165,161,159,156,152,149,146,144,141,138,135,132,129,126,123,121,117,114,112,113,113,54,54,54,54,54,54,54,54,54,54,54,54,54,54,54,54,54,54,54,54,54,54,54,54,54,54,54,759,763,764,767,772,978,1165,1330,1467,1526,1521,1508,1467,1447,1428,1394,1370,1349,1322,1298,1275,1251,1238,1202,1196,1161,1136,1110,1084,1042,932,844,806,786,774,773,775,768,703,701,697,709,710,708,710,708,713,708,709,712,717,724,715,716,718,720,715,713,705,711,712,713,713,714,713,453,454,455,457,460,490,700,781,861,929,900,886,872,883,885,871,855,826,781,773,774,745,731,716,702,689,674,660,676,632,618,603,571,492,463,460,461,468,437,437,437,437,437,437,437,437,437,437,437,437,437,437,437,437,437,437,437,437,437,437,437,437,437,437,437,591,593,610,611,622,728,907,1009,1126,1183,1199,1171,1153,1135,1123,1096,1077,1058,1039,1026,1004,987,962,947,924,909,890,870,832,839,718,665,666,615,620,600,602,572,507,497,503,505,499,524,504,526,518,506,525,507,510,511,508,517,509,507,509,516,508,507,508,513,509,518,511,780,782,783,793,796,1071,1228,1366,1487,1542,1553,1528,1514,1488,1468,1441,1410,1386,1363,1336,1317,1275,1259,1235,1200,1175,1161,1131,1121,1027,910,854,859,831,793,789,793,761,696,686,692,694,688,719,693,721,712,695,717,696,699,700,697,706,698,696,698,705,697,696,697,702,698,707,700,386,387,389,389,391,506,577,643,710,771,794,774,762,750,743,724,710,699,685,674,664,647,635,623,609,598,584,572,560,553,535,522,513,438,396,393,394,395,346,335,342,344,337,366,342,366,358,344,363,346,348,349,357,363,347,345,350,354,347,346,347,352,347,356,349,373,389,391,392,373,497,562,626,689,747,760,747,735,723,711,698,687,675,663,652,638,618,606,594,589,578,567,554,541,530,518,505,495,482,398,374,375,396,356,353,354,357,362,368,357,366,357,362,361,364,359,365,367,377,374,375,366,363,364,369,368,371,354,366,359,368,369,369,371,372,485,549,611,673,734,746,734,722,711,699,687,675,663,651,640,628,616,603,591,580,568,556,544,532,521,509,497,485,387,378,373,374,375,369,360,360,360,388,360,361,364,365,372,375,377,369,389,373,363,458,374,366,370,370,395,369,365,372,374,372,1027,1025,1004,1051,1168,1461,1733,1877,1935,2024,1991,1985,1950,1915,1891,1883,1860,1807,1790,1689,1688,1669,1661,1606,1509,1541,1518,1464,1311,1232,1246,1101,1046,1058,1037,1041,1051,1044,1031,1027,1058,1041,1045,1045,1054,1056,1042,1054,1050,1059,1061,1068,1075,1066,1061,1055,1056,1057,1048,1055,1071,1057,1064,1064,1064,965,968,944,997,1064,1293,1589,1758,1828,1920,1912,1886,1855,1824,1794,1734,1729,1701,1686,1594,1613,1598,1555,1522,1449,1455,1425,1314,1259,1177,1156,1084,993,999,985,982,951,955,945,935,943,945,957,958,955,947,944,945,951,952,945,952,957,958,962,964,958,960,958,959,957,957,943,953,948,907,905,914,922,933,1193,1468,1627,1762,1808,1788,1750,1743,1690,1697,1644,1609,1581,1573,1539,1492,1494,1434,1424,1386,1385,1345,1295,1165,1134,1048,989,949,941,916,909,866,822,803,790,798,805,813,814,815,811,805,809,814,817,808,814,815,819,821,827,819,823,818,820,820,816,804,814,809,573,581,576,591,599,796,896,997,1107,1155,1211,1141,1123,1097,1084,1068,1054,1035,1006,997,980,961,942,919,896,886,867,845,821,773,755,734,719,608,596,585,586,579,566,562,567,569,576,568,570,576,572,572,574,572,574,576,570,575,577,577,579,579,577,579,582,581,581,578,578,0,0,0,0,0,0,0,0,0,0,0,0,0,0,0,0,0,0,0,0,0,0,0,0,0,0,0,0,0,0,0,0,0,0,0,0,0,0,0,0,0,0,0,0,0,0,0,0,0,0,0,0,0,0,0,0,0,0,0,0,0,0,0,0,0,705,705,709,711,720,900,1118,1248,1361,1412,1415,1391,1375,1345,1322,1304,1302,1255,1244,1208,1185,1177,1142,1118,1096,1072,1050,1027,978,902,882,778,753,733,725,720,718,621,596,588,591,604,610,609,606,605,609,606,610,614,600,608,613,616,614,627,612,616,616,617,623,613,602,612,607,559,581,563,576,577,769,858,955,1072,1119,1183,1107,1095,1071,1095,1041,1017,1041,982,1002,965,955,929,901,874,902,839,821,803,793,784,738,740,707,578,567,569,563,550,549,553,555,555,554,555,556,553,558,559,559,561,563,561,560,562,564,566,570,567,565,573,567,568,566,566,685,711,690,724,746,948,1082,1237,1377,1375,1424,1354,1418,1335,1314,1291,1244,1222,1233,1202,1180,1184,1168,1090,1068,1082,1047,1002,972,990,936,875,891,737,699,696,740,732,714,708,715,720,718,731,718,725,730,728,722,722,716,725,720,716,718,729,724,727,718,756,728,752,723,738,723,595,601,603,603,607,825,929,1033,1138,1203,1206,1187,1167,1147,1123,1109,1108,1072,1058,1037,1015,1000,976,959,927,911,902,873,860,842,823,779,741,625,612,607,606,572,547,541,541,540,548,560,548,558,552,554,555,558,555,557,559,563,568,569,561,564,556,567,563,560,549,560,557,810,812,785,821,882,1090,1312,1456,1567,1617,1615,1589,1563,1548,1524,1511,1466,1453,1420,1323,1357,1340,1314,1279,1206,1234,1173,1148,1123,1099,1057,881,824,850,821,830,825,813,805,803,806,806,815,818,813,821,818,820,817,819,817,821,821,827,839,830,819,826,816,820,819,832,822,826,816,1173,1182,1179,1210,1272,1680,2008,2180,2294,2299,2289,2252,2219,2176,2152,2122,2078,2029,2004,1955,1940,1910,1854,1823,1785,1748,1638,1605,1528,1342,1319,1267,1233,1218,1199,1167,1128,1084,1064,1051,1059,1066,1074,1075,1076,1072,1066,1070,1075,1078,1069,1076,1077,1080,1082,1088,1080,1084,1079,1081,1081,1077,1065,1075,1070,1565,1568,1584,1663,2171,2683,3026,3147,3210,3215,3185,3125,3070,2995,2948,2884,2849,2774,2740,2691,2614,2553,2443,2357,2168,2174,1875,1831,1785,1748,1682,1664,1611,1605,1571,1575,1592,1591,1623,1616,1617,1628,1637,1634,1646,1640,1635,1649,1640,1645,1650,1656,1659,1654,1655,1662,1672,1684,1660,1663,1657,1656,1651,1650,1650,1389,1388,1401,1436,1554,2012,2413,2561,2679,2697,2677,2643,2600,2558,2520,2445,2428,2390,2349,2308,2266,2229,2181,2142,2097,2054,2010,1829,1602,1532,1497,1463,1446,1423,1410,1377,1352,1308,1282,1277,1287,1289,1300,1301,1298,1297,1291,1296,1299,1304,1295,1303,1302,1304,1309,1313,1308,1311,1305,1309,1305,1304,1291,1301,1296,581,583,555,585,618,714,903,1004,1045,1166,1170,1196,1133,1121,1103,1054,1058,1054,1038,953,988,980,951,927,864,889,871,852,845,827,799,777,591,605,594,590,592,589,580,576,579,590,583,589,601,588,583,580,583,589,602,590,592,597,596,592,585,604,603,592,594,593,594,594,594,1375,1365,1374,1420,1831,2331,2617,2764,2838,2851,2812,2774,2726,2655,2613,2556,2524,2456,2428,2354,2331,2258,2245,2165,2116,2071,2026,1975,1758,1545,1482,1447,1478,1396,1389,1392,1399,1407,1400,1398,1404,1404,1443,1421,1434,1426,1435,1490,1429,1442,1434,1443,1455,1452,1441,1450,1450,1459,1448,1453,1466,1454,1475,1485,1448,379,380,381,383,385,504,572,638,705,757,770,757,745,733,720,708,696,684,672,660,647,635,622,610,598,586,574,562,550,537,524,512,500,488,389,385,386,387,380,372,373,373,379,382,377,386,379,379,382,383,381,384,388,388,389,384,385,389,385,387,390,392,387,388,389,1391,1391,1404,1445,1582,2018,2420,2567,2685,2703,2683,2648,2605,2563,2524,2449,2432,2394,2353,2313,2270,2233,2185,2145,2100,2058,1973,1613,1605,1535,1500,1466,1449,1426,1413,1407,1372,1328,1308,1296,1314,1313,1320,1329,1322,1321,1319,1323,1327,1330,1321,1328,1330,1331,1332,1340,1331,1333,1329,1333,1331,1326,1314,1324,1319,1363,1376,1361,1436,1840,2133,2565,2694,2757,2792,2797,2702,2696,2657,2611,2570,2524,2465,2425,2342,2280,2271,2264,2182,2062,2074,2024,1903,1677,1527,1523,1460,1415,1405,1376,1384,1397,1393,1390,1379,1384,1395,1398,1403,1400,1407,1409,1408,1410,1418,1410,1415,1411,1418,1412,1427,1416,1423,1422,1418,1416,1420,1408,1418,1413,901,920,897,932,968,1262,1469,1665,1726,1779,1750,1781,1759,1686,1662,1689,1651,1629,1576,1561,1522,1467,1454,1449,1355,1394,1364,1319,1306,1260,1135,1023,918,958,898,927,938,935,931,927,931,938,944,946,941,946,946,942,944,949,946,952,956,956,960,951,951,950,947,953,953,952,957,956,946,682,690,690,707,704,937,1083,1205,1296,1345,1400,1326,1299,1307,1284,1239,1218,1196,1192,1152,1159,1109,1115,1063,1061,1024,1003,1002,974,928,890,811,815,702,715,683,681,650,637,634,639,641,649,641,643,649,645,645,647,645,648,651,645,651,651,650,653,653,650,653,657,656,656,653,653,518,509,510,512,519,606,766,851,938,1008,1016,1001,984,990,952,936,920,904,888,872,856,840,825,808,793,776,761,744,728,712,716,700,615,578,564,527,516,517,518,501,501,505,521,522,521,511,512,525,531,525,524,526,525,534,519,524,529,533,528,533,524,522,528,526,519,581,581,585,594,596,797,945,1052,1111,1157,1220,1144,1125,1106,1092,1069,1055,1037,1061,998,981,1006,943,920,902,887,869,886,866,812,799,634,719,608,622,590,592,588,581,581,586,588,588,583,590,584,600,588,590,591,593,605,603,604,595,598,596,610,600,598,616,596,600,594,594,1292,1297,1289,1351,1677,1995,2421,2547,2625,2660,2666,2573,2543,2508,2473,2414,2387,2344,2297,2182,2170,2141,2114,2043,1934,1968,1920,1756,1611,1449,1428,1386,1333,1327,1304,1316,1325,1334,1325,1298,1294,1334,1319,1335,1334,1334,1323,1332,1332,1341,1335,1353,1342,1341,1359,1355,1347,1361,1343,1354,1337,1343,1329,1339,1334,527,539,531,555,544,723,815,909,1015,1058,1116,1048,1030,1014,1017,980,967,950,928,916,898,882,864,843,827,814,796,775,759,745,733,710,674,568,546,535,536,532,517,517,519,522,520,520,520,521,522,525,524,526,526,527,524,525,528,529,532,531,529,531,533,532,531,530,530,921,933,900,941,993,1228,1511,1674,1745,1832,1834,1799,1796,1751,1722,1655,1650,1625,1612,1529,1537,1527,1495,1463,1378,1403,1368,1242,1188,1108,1093,1025,946,954,938,937,931,935,917,910,918,918,937,932,929,943,933,927,937,937,933,944,934,946,948,951,945,939,941,943,946,948,936,944,939,198,198,199,199,200,253,284,317,349,382,400,393,388,381,375,369,363,356,350,344,337,332,325,319,313,306,300,294,288,281,276,269,262,257,250,246,246,247,256,183,184,184,189,194,186,193,186,186,189,193,188,190,194,197,198,199,189,194,191,194,197,196,198,198,198,546,548,549,580,590,660,844,940,1035,1097,1103,1086,1068,1056,1039,1021,1003,980,968,944,930,913,895,878,856,842,824,807,789,771,753,737,585,599,587,584,598,540,529,525,538,529,538,539,535,544,531,534,535,540,536,538,545,547,547,544,538,542,539,544,546,544,548,548,548,774,777,749,783,843,1033,1243,1379,1491,1545,1543,1519,1494,1469,1456,1430,1401,1390,1357,1262,1296,1282,1256,1223,1151,1181,1149,1106,1062,1059,1008,917,810,800,785,785,788,770,764,771,776,762,774,774,769,779,774,784,773,775,772,776,778,783,785,784,778,781,775,774,774,785,780,783,773,373,389,391,392,373,497,562,626,689,747,760,747,735,723,711,698,687,675,663,652,638,618,606,594,589,578,567,554,541,530,518,505,495,482,398,374,375,396,356,353,354,357,362,368,357,366,357,362,361,364,359,365,367,377,374,375,366,363,364,369,368,371,354,366,359,387,389,391,392,393,442,563,640,708,773,792,779,766,751,740,727,715,703,688,677,666,651,638,626,614,601,586,574,540,528,473,464,451,441,397,396,395,401,320,320,320,320,320,320,320,320,320,320,320,320,320,320,320,320,320,320,320,320,320,320,320,320,320,320,320,749,747,749,745,774,932,1138,1333,1450,1477,1500,1448,1433,1411,1398,1369,1361,1307,1298,1274,1245,1227,1208,1186,1149,1140,1115,1101,1071,1043,939,901,845,771,772,747,759,740,696,696,696,696,696,696,696,696,696,696,696,696,696,696,696,696,696,696,696,696,696,696,696,696,696,696,696,657,659,661,664,688,916,1038,1158,1264,1318,1320,1307,1299,1257,1243,1214,1201,1178,1151,1130,1108,1087,1067,1046,1029,1003,982,961,940,919,903,827,793,700,670,667,669,671,649,654,648,670,662,656,658,670,657,670,670,670,663,659,651,660,662,670,651,658,651,654,648,653,655,653,653,534,540,544,545,550,686,825,920,1022,1069,1063,1052,1038,1017,1021,990,968,957,948,930,920,900,873,867,848,820,804,796,779,750,729,697,626,583,554,552,553,527,496,491,493,499,491,508,503,508,503,501,516,497,495,500,496,515,500,509,497,500,500,500,504,503,501,498,498,344,345,342,346,347,372,459,473,493,514,522,518,516,510,506,501,497,495,488,484,483,478,489,484,479,467,469,460,457,452,382,378,373,368,365,348,342,349,287,295,288,296,295,301,292,296,291,290,295,289,288,302,297,301,301,303,300,299,308,299,300,305,288,295,295,278,284,279,280,281,297,410,458,506,551,564,555,546,536,528,519,510,501,492,484,475,465,456,447,438,437,421,412,403,394,385,371,362,293,286,339,282,283,241,241,241,241,241,241,241,241,241,241,241,241,241,241,241,241,241,241,241,241,241,241,241,241,241,241,241,659,662,664,643,651,796,982,1127,1214,1301,1320,1300,1215,1252,1233,1214,1193,1173,1154,1131,1111,1087,1068,1050,1027,963,980,961,922,897,838,789,714,686,673,671,650,645,592,592,592,592,592,592,592,592,592,592,592,592,592,592,592,592,592,592,592,592,592,592,592,592,592,592,592,0,0,0,0,0,0,0,0,0,0,0,0,0,0,0,0,0,0,0,0,0,0,0,0,0,0,0,0,0,0,0,0,0,0,0,0,0,0,0,0,0,0,0,0,0,0,0,0,0,0,0,0,0,0,0,0,0,0,0,0,0,0,0,0,0,435,439,440,442,447,468,660,735,810,877,886,873,861,839,826,813,798,785,776,756,748,734,718,698,691,674,656,648,629,618,605,581,560,490,446,444,449,430,376,376,376,376,376,376,376,376,376,376,376,376,376,376,376,376,376,376,376,376,376,376,376,376,376,376,376,1005,1009,1042,1053,1065,1372,1673,1896,1968,2014,1988,2006,1936,1901,1870,1884,1795,1825,1758,1705,1720,1647,1622,1620,1590,1536,1520,1396,1374,1284,1186,1108,1066,1046,1053,1019,1033,1024,1015,1015,1015,1015,1015,1015,1015,1015,1015,1015,1015,1015,1015,1015,1015,1015,1015,1015,1015,1015,1015,1015,1015,1015,1015,1015,1015,218,219,220,220,232,240,320,357,396,421,435,437,433,421,423,411,404,397,390,382,376,368,375,369,365,341,333,326,319,312,304,298,290,246,237,233,233,234,200,200,200,200,200,200,200,200,200,200,200,200,200,200,200,200,200,200,200,200,200,200,200,200,200,200,200,629,635,635,656,648,749,972,1080,1182,1264,1270,1247,1226,1216,1189,1174,1145,1124,1118,1091,1064,1047,1025,1006,991,965,942,934,909,882,748,726,744,666,644,641,641,644,602,602,602,602,602,602,602,602,602,602,602,602,602,602,602,602,602,602,602,602,602,602,602,602,602,602,602,532,553,535,547,575,675,812,913,991,1024,1021,1006,1000,983,996,974,963,947,929,905,896,897,865,848,829,806,797,778,796,605,736,615,579,588,569,550,562,536,507,500,505,507,512,512,512,512,512,512,512,512,512,507,512,512,512,512,512,512,508,512,512,512,512,512,512,1179,1160,1201,1244,1414,1931,2096,2288,2382,2440,2438,2386,2349,2311,2278,2241,2205,2168,2123,2089,2049,2011,1939,1916,1827,1795,1765,1708,1591,1475,1394,1267,1232,1203,1216,1209,1208,1215,1166,1168,1188,1182,1174,1190,1173,1195,1193,1178,1194,1202,1195,1199,1216,1213,1197,1198,1188,1215,1219,1204,1243,1201,1208,1209,1209,814,818,817,820,829,1083,1247,1356,1468,1506,1481,1463,1439,1420,1400,1383,1360,1339,1319,1299,1279,1255,1237,1218,1197,1177,1157,1137,1118,1097,879,865,848,850,826,824,803,788,736,740,740,752,745,753,744,744,742,741,744,738,739,754,747,751,748,754,747,752,760,750,765,755,744,748,748,359,360,361,362,374,465,525,587,649,710,730,719,708,697,683,674,663,649,636,625,618,606,588,583,570,559,544,532,520,513,492,485,399,390,389,365,366,377,317,317,317,317,317,317,317,317,317,317,317,317,317,317,317,317,317,317,317,317,317,317,317,317,317,317,317,1160,1164,1163,1229,1268,1705,1970,2117,2230,2300,2282,2256,2197,2180,2142,2105,2073,2026,1990,1944,1917,1909,1848,1837,1764,1737,1716,1661,1339,1339,1270,1261,1219,1228,1174,1178,1162,1158,1141,1146,1146,1146,1146,1146,1146,1146,1146,1146,1146,1146,1146,1146,1146,1146,1146,1146,1146,1146,1146,1146,1146,1146,1146,1146,1146,474,476,477,479,480,538,693,789,872,946,961,947,930,911,900,884,869,853,837,822,808,790,774,762,745,731,713,698,647,632,567,580,565,529,485,483,484,481,414,414,414,414,414,414,414,414,414,414,414,414,414,414,414,414,414,414,414,414,414,414,414,414,414,414,414,778,781,783,786,811,1059,1199,1338,1467,1512,1487,1469,1445,1426,1405,1388,1365,1345,1323,1304,1283,1260,1242,1222,1202,1181,1158,1134,1109,1084,954,935,828,808,793,790,792,804,756,766,759,773,761,773,770,773,766,772,775,767,770,775,775,775,775,775,775,775,775,775,775,775,766,771,771,936,939,962,967,1119,1488,1710,1844,1995,2022,2018,1983,1948,1911,1876,1905,1805,1757,1788,1750,1661,1643,1591,1588,1538,1479,1447,1402,1388,1300,1096,1093,1028,984,967,968,978,967,926,932,942,949,941,947,929,940,948,962,953,949,952,959,957,959,961,955,953,956,959,973,960,960,968,969,969,660,662,664,667,693,901,1024,1146,1261,1306,1336,1296,1275,1260,1233,1229,1191,1178,1157,1135,1115,1093,1052,1051,1029,995,988,981,960,930,825,857,784,688,672,670,664,665,633,629,654,654,654,639,639,646,654,654,654,654,654,654,654,654,654,654,652,654,654,642,630,654,653,654,654,272,273,274,274,276,351,398,444,491,537,555,546,537,529,519,511,502,493,485,476,467,458,449,440,432,423,414,405,396,387,378,369,360,352,280,287,278,278,243,246,247,248,248,248,248,248,244,252,246,247,248,248,252,252,252,250,252,248,249,250,251,252,249,252,252,1001,1004,1003,1012,1074,1315,1606,1828,1942,1973,1976,1942,1909,1879,1845,1808,1791,1754,1714,1683,1660,1621,1598,1564,1544,1507,1465,1449,1416,1361,1205,1102,1082,1026,1025,1012,1016,1003,953,953,953,953,953,953,953,953,953,953,953,953,953,953,953,953,953,953,953,953,953,953,953,953,953,953,953,360,361,362,363,365,407,536,599,661,720,733,721,709,698,688,674,663,651,639,628,616,605,592,580,569,557,545,534,522,510,499,487,476,391,369,366,367,368,314,314,314,314,314,314,314,314,314,314,314,314,314,314,314,314,314,314,314,314,314,314,314,314,314,314,314,880,882,884,891,969,1279,1450,1627,1746,1778,1750,1727,1699,1674,1650,1628,1602,1578,1552,1528,1503,1476,1455,1429,1405,1376,1307,1288,1264,1232,986,980,951,906,890,903,900,903,853,858,857,871,858,870,856,869,857,854,861,854,863,883,869,868,867,867,864,869,877,867,882,872,861,865,865,315,321,317,318,320,411,471,527,582,632,643,633,622,611,601,592,581,572,561,551,540,530,520,509,499,496,479,468,458,448,437,427,417,333,324,331,322,322,286,286,286,286,286,286,286,286,286,286,286,286,286,286,286,286,286,286,286,286,286,286,286,286,286,286,286,497,527,500,501,509,668,756,844,938,1001,1008,993,969,952,946,931,905,897,873,856,847,831,809,794,777,762,745,730,713,699,682,667,577,519,524,504,504,500,479,482,470,489,490,481,488,486,486,482,485,491,490,488,481,484,487,492,485,485,480,480,480,479,491,477,477,598,587,600,603,605,719,878,1014,1116,1192,1203,1185,1165,1119,1104,1105,1066,1042,1025,1030,1012,965,973,955,912,897,894,859,836,817,755,708,666,623,610,598,598,596,522,522,522,522,522,522,522,522,522,522,522,522,522,522,522,522,522,522,522,522,522,522,522,522,522,522,522,429,427,426,429,431,500,622,702,801,844,861,848,832,828,806,793,786,765,751,737,723,709,694,682,675,654,641,627,619,599,593,570,511,456,461,431,432,412,362,362,362,362,362,362,362,362,362,362,362,362,362,362,362,362,362,362,362,362,362,362,362,362,362,362,362,593,594,599,605,608,787,909,1052,1105,1188,1196,1174,1155,1126,1120,1107,1078,1059,1052,1045,1003,987,973,949,936,917,889,881,852,832,807,796,726,612,608,606,604,606,551,551,551,551,551,551,551,551,551,551,551,551,551,551,551,551,551,551,551,551,551,551,551,551,551,551,551,387,389,391,392,393,442,563,640,708,773,792,779,766,751,740,727,715,703,688,677,666,651,638,626,614,601,586,574,540,528,473,464,451,441,397,396,395,401,320,320,320,320,320,320,320,320,320,320,320,320,320,320,320,320,320,320,320,320,320,320,320,320,320,320,320,450,463,464,453,458,578,688,769,850,896,911,900,877,866,860,839,823,812,795,778,786,746,737,718,712,720,687,661,651,631,619,605,531,475,463,456,454,454,426,424,423,423,429,433,430,434,434,435,436,437,436,448,453,438,434,439,457,439,440,453,441,445,446,444,442,704,705,711,711,729,996,1139,1266,1367,1411,1427,1402,1365,1338,1320,1298,1272,1248,1245,1207,1185,1177,1140,1143,1125,1089,1050,1027,1005,1002,960,867,835,733,718,715,717,685,703,701,713,723,712,707,705,713,719,733,726,727,727,734,761,747,733,724,721,734,723,717,711,736,724,734,726,1013,1006,1021,1024,1058,1472,1638,1821,1959,2008,2016,1966,1938,1907,1875,1842,1810,1777,1744,1713,1692,1664,1626,1593,1553,1528,1500,1458,1368,1258,1114,1109,1062,1066,1051,1028,1032,1033,985,981,999,999,991,994,1016,996,1019,1026,1026,1003,997,999,1003,1004,1025,996,1001,988,994,992,992,992,992,992,992,891,885,896,897,917,1178,1418,1584,1711,1763,1759,1733,1703,1675,1648,1621,1600,1570,1541,1515,1485,1468,1438,1409,1371,1347,1312,1282,1249,1113,1071,1012,944,940,914,904,881,867,810,814,817,820,823,819,823,820,820,821,822,823,824,834,830,828,826,827,829,829,829,831,827,827,827,827,827,620,623,624,627,631,774,948,1058,1157,1222,1234,1223,1204,1184,1164,1145,1126,1105,1086,1069,1049,1027,1008,994,968,953,929,908,891,872,850,723,665,659,648,630,631,621,564,565,566,571,572,570,572,572,573,574,574,576,582,587,584,582,580,583,585,587,584,587,584,584,584,584,584,143,143,144,144,144,145,201,224,247,270,290,286,281,276,271,267,262,258,254,249,244,239,235,231,226,222,217,213,207,203,199,247,240,235,148,144,145,145,144,144,144,145,156,145,148,163,145,159,147,145,149,148,147,149,156,150,166,150,148,149,147,168,166,164,162,477,495,480,482,486,616,729,774,957,949,955,958,926,972,895,881,884,911,851,882,806,805,775,777,787,749,716,700,686,647,633,618,613,596,488,485,553,453,506,507,511,515,513,518,511,512,514,513,516,510,514,513,514,519,526,518,513,518,517,557,514,542,515,525,518,415,405,405,421,423,498,610,680,759,825,848,812,820,807,778,779,750,753,724,727,709,700,684,671,641,628,631,604,585,573,539,526,448,436,435,423,424,425,376,374,377,384,385,384,385,385,384,385,388,389,390,401,395,392,386,389,394,387,384,395,387,387,387,387,387,0,0,0,0,0,0,0,0,0,0,0,0,0,0,0,0,0,0,0,0,0,0,0,0,0,0,0,0,0,0,0,0,0,0,0,0,0,0,0,0,0,0,0,0,0,0,0,0,0,0,0,0,0,0,0,0,0,0,0,0,0,0,0,0,0,1037,1045,1033,1054,1225,1529,1818,1928,2002,2054,2081,2027,1977,1940,1911,1915,1873,1808,1795,1782,1755,1694,1646,1630,1610,1567,1520,1467,1487,1379,1257,1127,1131,1087,1059,1049,1061,1031,1051,1054,1075,1075,1083,1064,1066,1078,1071,1085,1076,1078,1075,1081,1109,1111,1088,1082,1078,1086,1072,1076,1109,1087,1098,1085,1077,262,263,263,280,281,312,377,422,460,511,528,530,521,513,504,490,486,478,469,452,445,436,434,426,417,409,395,392,377,374,341,334,325,317,309,304,276,276,248,241,240,242,248,248,245,248,247,250,250,249,250,250,247,249,245,249,267,251,248,266,252,253,252,248,247,889,900,893,917,958,1224,1428,1611,1730,1787,1777,1753,1724,1702,1653,1638,1605,1587,1562,1510,1496,1452,1435,1393,1376,1351,1321,1287,1170,1086,1023,960,972,929,905,903,917,855,828,825,824,824,830,835,832,836,836,837,837,839,838,839,837,840,836,838,859,840,841,856,842,847,848,846,844,752,754,755,769,772,904,1192,1303,1451,1501,1483,1478,1437,1424,1401,1367,1373,1319,1297,1271,1248,1262,1218,1180,1156,1169,1113,1091,1062,1046,967,881,856,797,785,760,756,759,703,703,705,722,718,709,714,729,719,715,729,729,742,742,755,764,713,713,725,722,718,721,719,719,719,719,719,1012,1014,1016,1040,1153,1618,1878,2068,2168,2192,2172,2194,2126,2053,2047,1975,1936,1953,1856,1831,1777,1738,1698,1658,1620,1580,1541,1513,1461,1422,1153,1098,1067,1040,1028,1030,1017,1024,1071,1073,1072,1081,1084,1085,1113,1144,1084,1106,1103,1091,1086,1107,1123,1186,1284,1190,1179,1112,1116,1110,1098,1097,1089,1089,1084,1015,1017,1035,1038,1061,1437,1627,1824,1988,2050,1992,1975,1943,1911,1879,1848,1816,1784,1774,1720,1668,1676,1645,1574,1559,1527,1496,1464,1432,1349,1245,1140,1067,1045,1063,1030,1033,1035,990,987,994,996,1003,998,1002,997,1004,1020,1003,1000,1018,1015,1009,998,999,1020,1008,1028,999,1017,1028,1029,1023,1023,1023,616,619,631,625,643,780,940,1050,1167,1235,1248,1232,1211,1188,1158,1152,1127,1107,1083,1059,1043,1019,1005,985,969,955,929,908,894,827,787,769,735,644,634,629,642,570,543,540,539,539,545,550,547,551,551,552,552,554,553,554,552,555,551,553,574,555,556,571,557,562,563,561,559,815,817,819,825,892,1266,1482,1673,1782,1812,1794,1765,1732,1698,1787,1631,1598,1564,1531,1497,1464,1532,1397,1362,1329,1295,1262,1228,1195,1161,1012,983,868,842,829,829,835,840,862,850,849,851,856,889,879,879,870,882,976,883,884,882,880,938,970,879,889,892,893,1005,893,893,967,967,959,549,549,548,554,574,701,822,919,1019,1092,1106,1080,1077,1059,1033,1009,1008,985,972,947,933,893,897,875,841,848,818,812,795,773,737,713,625,572,562,553,548,548,518,519,520,518,523,528,527,529,531,530,531,536,537,549,537,535,531,533,556,536,538,548,539,542,544,542,540,939,942,959,958,974,1308,1479,1663,1834,1898,1860,1830,1800,1771,1741,1712,1683,1653,1646,1595,1545,1556,1527,1458,1447,1417,1388,1358,1328,1080,1081,1044,990,970,998,954,955,958,948,937,951,950,960,962,949,968,967,969,958,960,957,962,966,983,974,969,952,968,961,962,956,965,958,968,955,1026,1049,1031,1129,1177,1683,1960,2186,2244,2369,2280,2201,2159,2152,2075,2068,2026,1983,1908,1866,1824,1813,1772,1721,1687,1615,1657,1613,1490,1448,1151,1116,1082,1055,1044,1045,1065,1078,1109,1108,1117,1115,1115,1109,1120,1133,1116,1121,1126,1117,1147,1152,1139,1129,1141,1119,1119,1137,1142,1132,1119,1120,1117,1142,1125,945,966,961,981,1023,1337,1561,1742,1830,1885,1891,1865,1831,1810,1780,1753,1698,1684,1653,1635,1585,1573,1520,1486,1458,1439,1428,1390,1243,1183,1082,1040,1038,976,984,959,975,929,902,899,898,898,904,909,906,910,910,911,911,913,912,913,911,914,910,912,933,914,915,930,916,921,922,920,918,204,205,205,206,207,262,296,330,364,397,416,410,403,397,390,383,377,370,364,357,350,344,337,331,324,317,311,304,298,291,284,278,271,270,258,207,207,208,179,179,179,181,181,180,182,182,182,183,183,183,183,184,184,185,185,185,186,186,186,186,186,186,186,186,186,855,846,864,859,877,1213,1399,1556,1639,1678,1691,1682,1620,1607,1584,1540,1530,1499,1492,1434,1408,1409,1368,1356,1333,1305,1270,1222,1184,1158,1150,1014,891,874,860,857,859,828,844,840,850,878,874,867,852,860,868,903,879,898,890,901,902,904,883,887,908,898,903,872,868,906,876,881,873,87,88,88,88,108,110,124,138,152,168,179,177,173,170,168,165,162,159,156,154,150,148,145,143,139,136,134,130,128,125,122,119,116,114,111,108,108,108,73,73,73,74,74,74,74,73,73,74,74,73,74,77,76,76,77,74,74,74,74,77,74,76,74,74,74,1022,1024,1026,1059,1132,1540,1744,1945,2105,2164,2120,2086,2053,2019,1985,1951,1918,1884,1873,1816,1764,1769,1738,1673,1653,1611,1569,1531,1506,1344,1146,1112,1078,1083,1039,1041,1065,1055,1072,1067,1075,1084,1092,1077,1080,1089,1093,1087,1096,1088,1122,1128,1124,1115,1113,1092,1082,1102,1089,1093,1093,1078,1091,1092,1081,103,104,104,127,128,130,147,165,182,199,213,210,206,202,199,195,192,189,185,182,179,175,171,168,165,162,158,155,151,147,145,141,138,135,132,128,129,129,91,88,86,86,91,93,90,92,93,93,92,92,93,93,93,93,91,93,93,92,93,94,93,97,97,95,93,855,844,857,862,872,1122,1354,1509,1643,1702,1704,1658,1637,1621,1585,1560,1532,1502,1475,1448,1430,1410,1378,1348,1323,1293,1271,1231,1198,1042,1040,967,911,915,880,864,860,863,809,801,812,818,816,818,817,820,819,817,820,825,826,829,827,829,829,830,828,817,820,824,824,824,824,824,824,415,416,418,419,421,556,629,702,775,829,838,842,811,798,785,771,757,744,748,718,705,707,678,689,681,657,625,612,599,586,573,572,546,533,425,422,423,467,414,415,418,422,421,423,418,420,420,430,423,423,425,425,434,479,432,429,433,427,431,476,428,481,425,432,429,667,668,684,689,701,804,1050,1166,1268,1336,1344,1330,1308,1286,1257,1243,1214,1195,1174,1147,1124,1106,1083,1060,1043,1025,999,979,965,903,870,775,734,719,696,692,705,615,588,585,584,584,590,595,592,596,596,597,597,599,598,599,597,600,596,598,619,600,601,616,602,607,608,606,604,853,864,857,869,916,1147,1358,1534,1645,1711,1705,1683,1655,1624,1598,1580,1540,1513,1501,1449,1414,1395,1379,1337,1321,1297,1269,1236,1209,1072,985,922,935,895,869,866,881,804,777,774,773,773,779,784,781,785,785,786,786,788,787,788,786,789,785,787,808,789,790,805,791,796,797,795,793,450,463,464,453,458,578,688,769,850,896,911,900,877,866,860,839,823,812,795,778,786,746,737,718,712,720,687,661,651,631,619,605,531,475,463,456,454,454,426,424,423,423,429,433,430,434,434,435,436,437,436,448,453,438,434,439,457,439,440,453,441,445,446,444,442,686,664,712,701,791,981,1069,1189,1302,1337,1381,1316,1295,1274,1287,1270,1242,1191,1159,1197,1109,1105,1084,1053,1041,1028,1000,968,955,934,937,938,715,702,694,683,679,682,662,659,672,711,669,672,670,680,681,669,677,666,678,689,701,718,684,678,666,690,676,670,670,726,676,687,669,414,414,416,417,420,554,627,698,770,821,887,816,804,790,777,842,751,739,726,712,749,686,673,661,647,634,621,651,595,583,569,556,543,433,423,420,542,422,420,418,416,420,423,431,423,423,432,427,422,425,423,427,425,423,430,432,429,427,427,430,435,495,493,500,493,938,941,944,959,1089,1249,1595,1772,1864,1901,1886,1862,1825,1802,1747,1741,1703,1679,1648,1618,1587,1557,1521,1495,1466,1434,1404,1364,1338,1194,1171,1143,1011,981,971,963,986,957,960,978,972,990,987,983,995,1002,986,990,986,998,994,988,986,988,995,992,993,993,981,989,990,990,993,987,984,976,979,981,1011,1149,1487,1666,1953,1912,1944,1946,1902,1870,1840,1812,1782,1853,1715,1683,1662,1625,1594,1653,1531,1498,1469,1438,1406,1459,1335,1195,1052,1143,1008,1070,993,963,967,976,984,986,1001,994,997,992,1005,997,1000,995,999,1002,1011,1018,998,1006,1003,1003,1002,998,1006,1002,1007,1004,1005,1004,1073,1076,1080,1119,1209,1647,1870,2138,2094,2123,2109,2074,2091,2082,1974,1944,2016,1875,1842,1809,1772,1738,1800,1670,1637,1641,1569,1535,1519,1202,1174,1146,1170,1100,1131,1087,1026,1027,1041,1064,1059,1069,1058,1073,1067,1082,1065,1080,1081,1087,1087,1076,1081,1078,1085,1084,1066,1057,1077,1080,1077,1087,1066,1073,1065,897,927,945,938,1057,1369,1510,1656,1779,1840,1834,1744,1720,1688,1694,1664,1686,1575,1541,1577,1482,1461,1428,1403,1380,1357,1324,1296,1258,1239,1166,1155,941,921,927,907,905,931,923,931,934,937,948,945,945,945,932,945,939,936,944,951,948,954,962,954,949,951,948,946,950,981,944,951,945,710,729,749,756,795,1043,1173,1272,1378,1413,1474,1437,1426,1345,1353,1350,1336,1256,1233,1248,1186,1217,1144,1122,1100,1091,1089,1057,1041,1027,979,873,819,739,723,720,722,721,712,712,717,725,735,729,734,739,731,732,734,739,734,731,737,736,739,728,742,736,731,738,743,759,745,746,727,929,942,946,940,1025,1398,1557,1810,1867,1858,1850,1831,1805,1774,1744,1713,1751,1653,1622,1623,1550,1526,1562,1481,1449,1448,1392,1314,1327,1270,1037,1019,1015,994,956,954,901,875,882,878,909,932,910,921,909,928,925,918,928,907,909,916,927,919,916,920,910,911,924,925,916,933,920,935,917,934,959,1017,980,1113,1435,1584,1730,1852,1899,1910,1813,1788,1744,1758,1734,1755,1636,1598,1636,1532,1520,1490,1459,1434,1410,1376,1347,1314,1289,1267,1240,973,956,965,945,942,972,963,972,964,978,975,985,980,1000,985,993,978,983,979,975,969,973,981,987,974,976,968,973,974,1020,992,1002,970,0,0,0,0,0,0,0,0,0,0,0,0,0,0,0,0,0,0,0,0,0,0,0,0,0,0,0,0,0,0,0,0,0,0,0,0,0,0,0,0,0,0,0,0,0,0,0,0,0,0,0,0,0,0,0,0,0,0,0,0,0,0,0,0,0,898,894,920,923,1079,1361,1496,1661,1754,1791,1815,1755,1725,1707,1678,1678,1637,1573,1562,1533,1498,1466,1446,1407,1387,1358,1321,1293,1271,1205,1134,1082,974,931,914,907,913,873,850,846,855,878,861,863,862,875,873,863,872,862,870,881,896,916,877,873,867,882,875,865,863,897,870,885,867,767,696,698,700,726,916,1105,1239,1424,1468,1467,1443,1420,1397,1272,1351,1303,1305,1282,1259,1236,1212,1202,1167,1144,1121,1098,1075,1030,918,763,877,857,767,756,704,706,694,710,713,704,734,710,732,710,735,718,724,721,720,728,723,738,736,738,740,732,734,744,733,744,746,744,785,765,1359,1370,1371,1427,1684,2180,2433,2686,2640,2658,2650,2608,2582,2572,2465,2418,2477,2340,2314,2268,2206,2178,2234,2099,2037,1985,1922,1835,1819,1523,1473,1446,1467,1399,1403,1349,1288,1289,1302,1325,1320,1330,1319,1334,1328,1343,1326,1341,1342,1348,1349,1338,1343,1339,1346,1345,1327,1318,1338,1341,1338,1348,1327,1334,1326,1571,1582,1639,1717,2293,2807,3116,3332,3302,3278,3267,3217,3148,3107,3015,2972,3015,2877,2785,2731,2698,2641,2406,2046,2318,1997,1945,1882,1871,1764,1740,1700,1624,1629,1623,1626,1618,1640,1655,1649,1680,1650,1665,1662,1679,1673,1675,1692,1675,1671,1684,1689,1686,1695,1693,1686,1672,1701,1682,1691,1694,1680,1686,1686,1685,1427,1435,1451,1533,1911,2378,2714,2977,2913,2919,2896,2839,2793,2744,2692,2655,2698,2565,2513,2463,2401,2362,2404,2259,2207,1971,1902,1789,1854,1612,1571,1571,1485,1467,1454,1452,1458,1443,1454,1451,1465,1453,1458,1478,1484,1470,1469,1490,1470,1470,1478,1512,1481,1510,1480,1479,1469,1507,1499,1504,1485,1467,1465,1473,1472,693,703,706,699,740,1003,1119,1327,1402,1406,1404,1382,1359,1337,1342,1292,1362,1247,1225,1234,1180,1144,1195,1113,1114,1095,1072,1049,1053,999,955,795,796,746,715,712,714,716,701,715,715,721,722,723,719,730,716,732,715,714,716,727,734,752,746,731,724,717,732,747,730,753,718,725,717,1507,1514,1531,1647,2214,2868,3271,3477,3550,3474,3458,3341,3364,3289,3166,3086,2998,2954,2884,2908,2715,2641,2616,2437,2367,2330,2182,1978,1945,1653,1660,1535,1525,1568,1476,1489,1481,1497,1627,1634,1634,1639,1644,1636,1648,1653,1642,1645,1652,1656,1678,1687,1666,1658,1670,1692,1702,1712,1669,1665,1698,1686,1713,1718,1718,554,549,574,576,666,793,860,973,1056,1115,1150,1101,1082,1064,1047,1058,1040,993,975,957,939,913,904,876,867,849,823,806,796,778,752,763,689,579,566,557,564,626,554,551,560,580,560,563,553,563,557,552,558,560,556,562,563,572,569,576,566,569,568,573,575,648,595,605,600,1546,1552,1580,1679,2013,2592,2821,3061,3005,3015,2979,2947,2899,2848,2806,2767,2807,2670,2610,2552,2510,2473,2507,2374,2241,1881,1871,1776,1860,1725,1676,1634,1612,1587,1586,1564,1504,1511,1529,1542,1533,1528,1537,1535,1528,1538,1539,1561,1540,1542,1542,1545,1580,1533,1539,1538,1533,1571,1533,1532,1534,1537,1538,1539,1538,1350,1366,1371,1444,1807,2287,2580,2864,2789,2806,2777,2727,2680,2630,2581,2562,2614,2484,2414,2374,2324,2266,2314,2168,2111,2063,2020,1943,1864,1561,1512,1471,1422,1395,1386,1386,1393,1383,1389,1364,1369,1394,1383,1396,1399,1397,1399,1451,1398,1394,1410,1411,1417,1412,1420,1406,1415,1418,1399,1424,1408,1410,1385,1393,1392,761,763,765,770,807,991,1216,1342,1542,1583,1581,1555,1530,1505,1380,1456,1427,1405,1378,1354,1328,1290,1278,1253,1229,1202,1178,1141,1094,973,950,929,848,826,811,749,812,776,811,783,789,797,790,821,796,820,813,801,870,801,797,804,806,817,806,801,810,810,804,807,803,815,795,814,803,1001,997,1024,1030,1182,1535,1701,1844,1959,1987,2009,1924,1892,1886,1859,1858,1813,1732,1723,1701,1662,1628,1596,1543,1539,1506,1466,1434,1410,1115,1087,1171,1052,1032,1018,1010,976,980,963,962,977,999,971,976,994,983,984,975,985,971,985,996,1021,1028,988,988,976,1007,985,979,984,1004,984,993,975,542,544,546,548,549,709,787,892,1030,1016,1100,1006,990,974,1029,1012,994,909,961,943,881,908,829,812,797,781,765,749,732,717,752,684,547,533,656,550,552,553,519,520,521,523,524,525,526,528,528,530,530,528,528,526,528,530,531,527,531,526,527,530,530,532,530,537,530,897,927,980,938,1057,1370,1512,1659,1828,1842,1843,1746,1722,1690,1695,1768,1694,1576,1597,1578,1483,1463,1434,1404,1381,1357,1324,1337,1265,1240,1166,1173,941,925,927,945,904,935,933,940,942,956,947,944,955,956,954,952,960,952,953,954,955,960,967,968,953,961,956,948,958,965,957,967,955,1292,1296,1303,1350,1667,2110,2443,2715,2655,2673,2650,2599,2553,2505,2457,2424,2471,2342,2295,2249,2191,2153,2203,2059,2011,1965,1916,1863,1827,1472,1434,1398,1344,1326,1317,1320,1327,1312,1319,1319,1332,1322,1326,1345,1348,1334,1334,1352,1336,1331,1343,1351,1347,1389,1341,1345,1334,1373,1367,1368,1352,1334,1332,1340,1339,846,877,930,883,1008,1282,1413,1577,1684,1759,1764,1653,1631,1599,1607,1612,1575,1492,1479,1498,1403,1384,1358,1329,1321,1298,1254,1228,1196,1174,1132,1133,891,874,877,856,854,883,871,878,872,884,882,890,886,891,889,897,885,897,885,882,876,880,889,908,882,883,875,880,879,912,896,906,877,953,962,937,956,1078,1397,1590,1859,1828,1873,1854,1815,1785,1756,1727,1697,1773,1639,1653,1579,1551,1521,1595,1461,1470,1403,1373,1344,1398,1285,1245,1075,1085,959,1019,945,942,947,968,970,968,969,964,967,962,969,966,989,966,971,972,980,997,969,973,972,974,999,967,970,969,975,973,974,973,625,628,644,647,675,886,997,1107,1214,1251,1280,1257,1238,1193,1173,1171,1159,1114,1094,1083,1052,1053,1014,994,974,969,954,915,908,887,841,848,684,655,639,635,637,629,620,620,624,632,642,634,642,647,637,643,641,645,640,638,644,638,645,635,648,643,639,644,650,668,651,653,634,599,601,603,604,621,838,950,1137,1201,1204,1205,1186,1167,1148,1128,1109,1157,1070,1051,1068,1013,993,1035,1018,936,962,928,908,911,839,819,795,819,645,611,608,610,612,617,615,631,636,629,648,635,694,648,636,686,639,644,648,700,714,637,634,642,689,643,635,640,698,630,691,646,733,738,741,742,797,1009,1196,1367,1431,1473,1470,1448,1425,1401,1372,1359,1407,1312,1290,1269,1245,1221,1294,1175,1157,1129,1107,1040,1103,995,914,897,877,764,749,747,749,724,732,734,746,724,738,738,733,741,737,753,740,732,740,740,737,766,743,739,735,750,735,766,738,736,735,742,741,686,664,712,701,791,981,1069,1189,1302,1337,1381,1316,1295,1274,1287,1270,1242,1191,1159,1197,1109,1105,1084,1053,1041,1028,1000,968,955,934,937,938,715,702,694,683,679,682,662,659,672,711,669,672,670,680,681,669,677,666,678,689,701,718,684,678,666,690,676,670,670,726,676,687,669,274,275,276,277,278,356,408,456,519,549,575,552,557,547,524,516,519,499,501,480,482,476,467,457,435,426,430,409,408,399,390,380,369,362,353,279,279,280,253,252,253,254,251,254,252,251,250,251,252,254,250,252,282,282,252,250,262,252,253,254,255,255,250,252,251,653,656,664,666,672,853,1010,1118,1300,1311,1325,1291,1294,1273,1226,1217,1200,1179,1166,1119,1112,1076,1066,1060,1029,1007,996,943,930,940,891,808,710,711,678,675,696,648,629,629,632,630,634,635,641,641,635,645,636,638,633,637,653,667,644,635,646,633,632,638,639,643,632,649,635,811,814,808,815,840,1063,1281,1410,1559,1586,1623,1598,1552,1525,1531,1492,1448,1383,1413,1334,1364,1321,1313,1295,1279,1266,1192,1167,1140,1130,1005,966,917,830,807,804,839,808,828,815,817,820,842,839,841,838,837,839,842,830,841,827,827,837,841,834,839,828,824,838,837,841,839,839,826,689,687,688,691,708,847,1071,1189,1307,1364,1364,1339,1310,1289,1293,1274,1234,1194,1197,1141,1152,1135,1113,1113,1069,1063,1017,994,970,909,899,780,769,712,691,688,716,658,663,673,665,685,675,679,680,678,677,676,687,683,681,671,674,680,683,684,680,669,680,684,690,671,663,681,660,481,482,484,485,494,537,705,756,809,849,860,853,841,831,821,811,805,793,784,803,763,774,755,752,756,731,717,707,695,667,613,605,561,507,521,489,494,479,454,451,455,468,462,458,451,454,456,479,480,462,470,471,468,466,485,469,462,469,467,467,464,460,469,469,461,131,132,132,133,133,136,188,210,231,253,267,262,258,254,249,246,242,237,233,229,225,221,216,212,209,204,200,195,191,188,183,179,143,139,136,134,134,134,129,124,122,125,127,126,128,128,128,134,128,142,183,140,128,143,134,127,127,131,181,196,193,193,192,179,144,545,548,550,552,553,630,817,906,1048,1089,1107,1071,1072,1054,1023,1007,1001,973,967,942,931,921,896,887,856,839,796,803,794,757,630,717,595,586,572,556,566,567,525,523,521,524,528,529,525,526,526,526,528,529,524,530,542,545,534,528,538,529,529,536,535,537,531,535,532,193,194,194,195,239,249,282,315,348,382,397,391,385,378,371,365,359,332,346,320,333,327,321,314,308,302,295,289,282,276,270,264,257,250,244,239,240,242,187,182,184,188,188,183,186,187,182,188,188,186,186,187,184,184,186,188,188,189,186,184,189,188,187,186,187,292,293,294,297,298,307,417,472,514,572,589,586,570,565,552,544,532,526,516,509,497,490,483,473,460,455,441,435,420,410,404,394,337,327,306,300,301,301,264,260,259,264,266,265,265,267,263,273,265,279,285,279,268,279,274,267,267,270,271,279,272,269,282,278,269,963,960,966,954,1043,1300,1538,1745,1860,1881,1885,1841,1869,1802,1733,1718,1739,1696,1668,1649,1611,1561,1545,1491,1472,1435,1435,1295,1237,1249,1047,1075,1035,979,964,948,999,975,954,956,957,960,964,965,971,978,965,978,966,968,963,967,983,1001,979,965,976,963,962,968,969,973,962,979,965,0,0,0,0,0,0,0,0,0,0,0,0,0,0,0,0,0,0,0,0,0,0,0,0,0,0,0,0,0,0,0,0,0,0,0,0,0,0,0,0,0,0,0,0,0,0,0,0,0,0,0,0,0,0,0,0,0,0,0,0,0,0,0,0,0,678,675,675,701,705,840,1075,1133,1304,1398,1349,1341,1302,1281,1275,1251,1216,1197,1177,1137,1128,1112,1090,1065,1047,1051,1001,985,958,931,912,790,708,697,687,722,687,728,654,654,654,655,653,655,654,653,652,653,654,655,652,654,682,681,654,652,661,654,654,655,656,656,652,654,653,611,615,634,628,632,715,923,1029,1131,1243,1242,1219,1174,1171,1137,1133,1113,1076,1073,1056,1064,1005,986,1002,944,929,949,890,882,881,845,674,670,670,642,634,623,596,593,590,594,614,600,596,592,609,603,606,611,603,603,606,603,605,607,600,602,608,597,601,599,594,605,604,598,1255,1258,1267,1299,1399,1923,2218,2386,2522,2590,2629,2546,2493,2458,2418,2378,2340,2289,2245,2196,2174,2105,2066,2011,1951,1900,1872,1718,1595,1521,1388,1350,1306,1295,1278,1257,1265,1271,1273,1264,1264,1277,1299,1259,1270,1275,1290,1308,1304,1316,1327,1348,1320,1331,1375,1328,1319,1337,1341,1355,1348,1345,1358,1354,1340,913,915,918,922,954,1271,1462,1605,1720,1783,1775,1769,1740,1694,1665,1637,1612,1582,1555,1542,1513,1474,1446,1419,1391,1365,1349,1309,1287,1168,1149,983,960,940,946,925,905,890,886,871,880,898,892,885,882,878,888,904,920,885,922,894,896,883,906,908,883,908,879,881,919,879,890,885,871,400,401,402,403,440,461,579,648,747,813,807,799,781,768,760,745,730,720,703,689,677,664,657,640,630,633,605,588,576,566,553,487,431,420,453,416,417,498,369,369,369,370,368,370,369,368,367,368,369,370,367,369,384,382,369,367,376,369,369,370,371,371,367,369,368,1057,1060,1063,1071,1147,1567,1856,2081,2237,2272,2247,2205,2165,2129,2088,2048,2010,1966,1925,1884,1842,1802,1762,1721,1680,1640,1599,1558,1514,1206,1174,1141,1108,1096,1078,1076,1082,1088,1093,1081,1078,1088,1085,1089,1132,1144,1087,1115,1104,1103,1115,1134,1130,1137,1126,1117,1120,1124,1148,1156,1138,1145,1121,1116,1111,360,361,362,363,365,461,534,596,684,721,744,719,721,709,684,673,673,649,650,625,625,614,602,590,568,561,555,533,528,510,499,488,477,462,450,366,367,368,347,344,348,352,346,348,347,348,345,348,347,349,349,353,372,369,349,347,356,351,350,352,349,353,347,350,349,859,862,864,868,887,1152,1319,1470,1620,1711,1707,1679,1655,1625,1599,1571,1545,1516,1489,1466,1435,1411,1381,1354,1328,1301,1289,1246,1221,1170,1030,947,909,890,874,873,875,877,860,861,851,851,871,870,870,879,869,883,866,870,868,875,876,878,883,879,876,872,871,877,872,871,868,881,875,1086,1085,1108,1123,1255,1603,1956,2161,2275,2285,2290,2254,2206,2170,2158,2117,2107,2040,2018,1904,1930,1854,1835,1790,1750,1738,1650,1598,1569,1424,1279,1177,1166,1111,1092,1125,1123,1103,1109,1114,1114,1119,1126,1124,1112,1126,1129,1150,1139,1132,1138,1134,1138,1144,1138,1131,1141,1133,1140,1152,1132,1147,1140,1155,1141,750,758,754,739,768,911,1144,1279,1416,1502,1495,1475,1447,1386,1403,1337,1357,1290,1286,1289,1253,1206,1211,1159,1163,1155,1089,1097,1070,1026,927,792,773,776,765,772,751,796,728,728,728,729,727,729,728,727,726,727,728,729,726,728,751,755,728,726,735,728,728,729,730,730,726,728,727,140,140,141,141,173,178,201,225,248,271,287,281,277,272,268,264,259,255,250,245,240,236,232,227,223,218,213,209,204,200,195,191,187,182,177,173,174,174,135,136,135,136,138,136,138,173,135,138,135,135,136,139,139,138,139,138,135,135,140,138,135,135,135,138,135,913,909,910,922,943,1241,1451,1608,1790,1794,1810,1758,1757,1728,1670,1656,1626,1606,1580,1542,1516,1474,1448,1442,1408,1373,1326,1295,1277,1272,1014,1001,967,948,933,918,940,911,886,888,892,893,897,898,900,904,898,911,899,901,896,900,916,932,910,898,909,896,895,901,902,906,895,912,898,214,215,216,216,216,246,312,348,385,421,446,431,431,416,410,403,403,389,382,375,368,361,354,347,341,333,326,319,318,313,298,291,233,226,221,217,218,218,202,198,196,201,203,202,202,204,201,210,202,216,228,216,205,221,211,204,204,207,216,229,225,228,228,223,220,994,997,1001,1010,1047,1372,1575,1753,1898,1980,1970,1948,1909,1875,1844,1812,1782,1749,1717,1689,1659,1625,1591,1560,1530,1499,1485,1435,1405,1286,1153,1087,1064,1026,1033,1010,992,994,980,980,989,1004,1003,1002,994,1001,1000,1016,1004,998,1031,1026,1018,1000,1025,1018,992,1012,996,998,998,996,1002,1002,987,169,169,170,170,171,217,245,274,303,331,347,342,336,330,324,319,313,309,303,298,292,286,280,275,269,264,258,254,247,242,236,231,225,220,177,174,174,175,160,153,155,163,162,161,150,155,159,169,168,163,168,162,165,162,168,163,153,166,154,162,155,152,165,161,152,646,644,655,648,658,775,984,1098,1221,1277,1295,1283,1246,1225,1230,1190,1163,1112,1129,1063,1082,1073,1040,1042,1011,1012,960,938,916,897,887,775,764,699,643,639,667,637,643,646,647,649,655,655,650,651,651,654,654,650,652,654,665,666,662,659,661,659,660,659,657,651,652,660,647,485,473,488,483,490,626,721,805,927,969,989,959,962,942,912,898,894,871,842,840,831,822,806,792,750,746,743,713,708,690,676,660,609,564,511,492,503,481,455,458,460,469,464,463,463,467,461,464,463,464,464,468,482,483,468,462,468,466,466,461,465,470,464,468,462,465,467,467,475,476,511,679,759,883,946,937,938,908,893,882,865,848,836,816,810,786,771,764,743,731,739,703,688,673,658,529,512,499,487,480,504,484,513,414,414,414,415,413,415,414,413,412,413,414,415,412,414,433,425,414,412,421,414,414,415,416,416,412,414,413,642,644,639,647,649,787,983,1063,1228,1288,1277,1303,1232,1212,1195,1173,1162,1133,1109,1075,1067,1035,1028,1018,992,996,947,925,907,885,873,751,671,661,643,654,651,701,603,603,603,604,602,604,603,602,601,602,603,604,601,603,631,630,603,601,610,603,603,604,605,605,601,603,602,274,275,276,277,278,356,408,456,519,549,575,552,557,547,524,516,519,499,501,480,482,476,467,457,435,426,430,409,408,399,390,380,369,362,353,279,279,280,253,252,253,254,251,254,252,251,250,251,252,254,250,252,282,282,252,250,262,252,253,254,255,255,250,252,251,540,542,544,545,547,621,807,948,1033,1087,1093,1080,1058,1045,1023,1005,988,971,956,936,918,900,883,868,848,830,816,795,778,762,739,594,579,565,553,549,550,543,491,491,491,491,491,491,491,491,491,491,491,491,491,491,491,491,491,491,491,491,491,491,491,491,491,491,491,657,659,661,663,677,835,1047,1134,1270,1316,1318,1298,1277,1274,1246,1231,1212,1189,1150,1139,1124,1103,1065,1061,1024,1003,991,961,953,918,870,750,700,683,682,666,668,682,637,637,637,637,637,637,637,637,637,637,637,637,637,637,637,637,637,637,637,637,637,637,637,637,637,637,637,463,461,466,468,472,561,692,771,859,931,940,925,909,895,880,864,850,834,819,805,789,774,760,744,729,715,699,684,651,619,605,592,578,486,475,470,468,469,438,438,438,438,438,438,438,438,438,438,438,438,438,438,438,438,438,438,438,438,438,438,438,438,438,438,438,609,611,591,616,623,763,923,1032,1137,1224,1230,1211,1190,1129,1152,1132,1112,1053,1073,1015,1032,1014,993,938,919,933,914,865,847,858,818,738,758,638,625,602,623,592,574,564,568,573,575,575,571,577,574,567,567,567,567,567,567,567,567,567,567,567,567,567,567,567,567,567,567,705,707,687,712,721,901,1093,1218,1330,1413,1413,1390,1366,1306,1324,1299,1281,1219,1237,1175,1186,1162,1143,1084,1066,1074,1051,997,1012,939,906,744,759,741,719,693,724,656,641,640,643,645,644,645,645,645,646,646,645,645,645,645,645,645,645,645,645,645,645,645,645,645,645,645,645,766,763,771,783,791,989,1218,1392,1506,1516,1537,1471,1488,1455,1457,1417,1391,1363,1360,1286,1287,1265,1237,1191,1185,1170,1151,1121,1072,990,971,916,825,799,785,793,776,779,702,702,702,702,702,702,702,702,702,702,702,702,702,702,702,702,702,702,702,702,702,702,702,702,702,702,702,765,786,783,785,795,953,1229,1354,1505,1556,1550,1530,1506,1466,1433,1418,1392,1368,1359,1310,1295,1271,1262,1214,1182,1185,1135,1012,973,982,959,877,857,810,791,784,786,781,721,721,721,721,721,721,721,721,721,721,721,721,721,721,721,721,721,721,721,721,721,721,721,721,721,721,721,569,571,573,576,578,693,855,995,1092,1145,1151,1132,1114,1095,1081,1058,1040,1021,1006,984,965,946,929,910,892,872,855,836,818,799,782,740,630,595,591,578,581,546,506,506,506,506,506,506,506,506,506,506,506,506,506,506,506,506,506,506,506,506,506,506,506,506,506,506,506,890,889,905,910,956,1175,1434,1653,1745,1771,1776,1708,1721,1683,1643,1641,1623,1578,1539,1502,1487,1467,1441,1383,1382,1348,1317,1296,1250,1133,1100,1072,958,934,911,917,898,875,816,816,816,816,816,816,816,816,816,816,816,816,816,816,816,816,816,816,816,816,816,816,816,816,816,816,816,728,734,736,738,768,989,1141,1271,1416,1460,1482,1437,1436,1390,1367,1344,1321,1298,1271,1251,1228,1204,1181,1158,1135,1112,1141,1065,1042,929,907,918,776,758,746,742,744,758,736,736,736,736,736,736,736,736,736,736,736,736,736,736,736,736,736,736,736,736,736,736,736,736,736,736,736,670,673,674,690,674,819,998,1155,1257,1298,1306,1290,1270,1249,1226,1206,1185,1164,1139,1131,1095,1096,1051,1026,1008,988,970,951,944,924,873,878,777,686,686,673,690,664,605,605,605,605,605,605,605,605,605,605,605,605,605,605,605,605,605,605,605,605,605,605,605,605,605,605,605,0,0,0,0,0,0,0,0,0,0,0,0,0,0,0,0,0,0,0,0,0,0,0,0,0,0,0,0,0,0,0,0,0,0,0,0,0,0,0,0,0,0,0,0,0,0,0,0,0,0,0,0,0,0,0,0,0,0,0,0,0,0,0,0,0,998,977,982,1005,1065,1378,1630,1781,1893,1961,1959,1925,1907,1841,1822,1788,1770,1693,1700,1640,1647,1615,1575,1524,1501,1499,1465,1344,1309,1262,1097,1058,1060,1049,1016,988,982,918,903,901,904,906,905,906,906,906,908,908,906,906,906,906,906,906,906,906,906,906,906,906,906,906,906,906,906,1150,1152,1161,1208,1319,1817,2176,2407,2444,2517,2471,2440,2384,2338,2289,2295,2202,2156,2110,2064,1985,1973,1929,1882,1829,1784,1745,1696,1588,1291,1343,1241,1183,1165,1171,1184,1179,1197,1196,1196,1196,1196,1196,1196,1196,1196,1196,1196,1196,1196,1196,1196,1196,1196,1196,1196,1196,1196,1196,1196,1196,1196,1196,1196,1196,989,992,990,1021,1114,1459,1736,1955,2068,2091,2082,2048,2012,1974,1932,1897,1864,1827,1783,1755,1716,1678,1646,1609,1565,1526,1494,1460,1421,1346,1095,1068,1048,1013,1004,1007,1002,1005,1007,1007,1007,1007,1007,1007,1007,1007,1007,1007,1007,1007,1007,1007,1007,1007,1007,1007,1007,1007,1007,1007,1007,1007,1007,1007,1007,333,334,335,336,337,373,477,557,616,666,678,667,657,646,635,624,613,602,591,581,570,559,548,537,526,515,506,495,480,469,459,447,432,379,372,338,339,340,309,309,309,309,309,309,309,309,309,309,309,309,309,309,309,309,309,309,309,309,309,309,309,309,309,309,309,1359,1364,1375,1464,1671,2150,2488,2685,2780,2793,2765,2725,2676,2633,2576,2537,2485,2437,2390,2343,2293,2242,2201,2162,2105,2055,2012,1807,1712,1526,1494,1455,1420,1391,1383,1350,1346,1352,1350,1350,1350,1350,1350,1350,1350,1350,1350,1350,1350,1350,1350,1350,1350,1350,1350,1350,1350,1350,1350,1350,1350,1350,1350,1350,1350,490,492,494,495,497,580,725,796,961,968,1022,960,945,930,915,899,926,869,856,848,862,829,801,785,772,765,749,762,744,703,711,660,597,547,529,499,499,501,463,463,463,463,463,463,463,463,463,463,463,463,463,463,463,463,463,463,463,463,463,463,463,463,463,463,463,1115,1118,1122,1144,1285,1673,1993,2172,2273,2325,2322,2274,2237,2175,2149,2113,2074,2033,1991,1954,1912,1869,1832,1799,1746,1703,1604,1567,1526,1480,1229,1197,1170,1145,1136,1129,1142,1129,1121,1114,1127,1127,1123,1130,1129,1126,1130,1130,1123,1123,1123,1123,1123,1123,1123,1123,1123,1123,1123,1123,1123,1123,1123,1123,1123,934,918,932,938,1038,1389,1603,1822,1947,1966,1960,1973,1890,1855,1816,1810,1815,1717,1725,1700,1614,1624,1587,1511,1502,1433,1433,1395,1357,1251,1060,1034,1012,934,960,937,937,943,950,943,944,950,951,951,951,951,951,951,951,951,951,951,951,951,951,951,951,951,951,951,951,951,951,951,951,289,290,291,292,293,338,445,497,547,595,609,574,565,556,547,537,529,520,510,501,492,484,474,465,456,446,437,429,419,410,343,336,341,321,313,294,295,296,287,294,285,291,294,299,294,299,295,291,299,295,293,290,291,295,291,291,293,293,290,291,287,294,290,293,285,775,768,770,781,790,978,1192,1386,1499,1540,1550,1518,1495,1485,1462,1431,1394,1381,1341,1309,1297,1262,1250,1222,1197,1172,1148,1124,1041,1019,996,944,857,804,782,784,785,772,713,713,713,713,713,713,713,713,713,713,713,713,713,713,713,713,713,713,713,713,713,713,713,713,713,713,713,954,957,951,940,1002,1271,1493,1702,1823,1851,1859,1827,1796,1732,1695,1674,1645,1617,1632,1552,1530,1501,1492,1444,1434,1404,1350,1328,1298,1162,1156,1003,1042,962,936,947,950,967,900,900,900,900,900,900,900,900,900,900,900,900,900,900,900,900,900,900,900,900,900,900,900,900,900,900,900,858,847,859,874,891,1117,1353,1571,1676,1683,1705,1631,1649,1609,1588,1573,1545,1513,1479,1426,1428,1404,1372,1325,1315,1295,1272,1242,1185,1081,1061,1015,920,882,877,877,849,834,775,775,775,775,775,775,775,775,775,775,775,775,775,775,775,775,775,775,775,775,775,775,775,775,775,775,775,850,852,855,864,952,1232,1468,1679,1807,1829,1824,1791,1758,1725,1688,1661,1628,1595,1562,1532,1498,1464,1432,1401,1360,1325,1299,1269,1234,1201,1117,924,901,877,867,859,870,874,876,876,876,876,876,876,876,876,876,876,876,876,876,876,876,876,876,876,876,876,876,876,876,876,876,876,876,769,765,775,783,805,974,1198,1398,1498,1528,1548,1483,1500,1466,1426,1428,1407,1373,1330,1296,1292,1270,1246,1200,1194,1165,1146,1122,1078,996,977,921,866,803,789,789,781,758,699,699,699,699,699,699,699,699,699,699,699,699,699,699,699,699,699,699,699,699,699,699,699,699,699,699,699,566,567,547,571,585,698,845,943,1049,1142,1158,1130,1113,1053,1067,1048,1030,973,994,938,958,939,921,869,851,866,849,798,782,794,776,683,702,599,583,552,576,571,557,553,555,557,557,557,557,557,557,557,554,554,554,554,554,554,554,554,554,554,554,554,554,554,554,554,554,680,702,699,699,690,904,1085,1194,1341,1395,1392,1374,1353,1315,1274,1261,1240,1218,1221,1156,1152,1131,1128,1087,1055,1063,1016,997,879,970,868,742,743,725,708,699,701,695,636,636,636,636,636,636,636,636,636,636,636,636,636,636,636,636,636,636,636,636,636,636,636,636,636,636,636,318,320,321,321,337,360,471,517,592,639,651,641,631,620,610,600,588,578,570,562,550,540,530,519,510,507,497,478,475,465,454,435,376,366,357,338,339,353,273,273,273,273,273,273,273,273,273,273,273,273,273,273,273,273,273,273,273,273,273,273,273,273,273,273,273,156,157,157,193,193,199,224,250,276,302,319,314,309,304,299,293,289,283,279,273,269,264,258,254,248,244,238,234,228,223,218,213,209,203,199,194,194,195,145,145,145,145,145,145,145,145,145,145,145,145,145,145,145,145,145,145,145,145,145,145,145,145,145,145,145,540,542,544,545,547,621,807,948,1033,1087,1093,1080,1058,1045,1023,1005,988,971,956,936,918,900,883,868,848,830,816,795,778,762,739,594,579,565,553,549,550,543,491,491,491,491,491,491,491,491,491,491,491,491,491,491,491,491,491,491,491,491,491,491,491,491,491,491,491,864,867,870,882,937,1230,1389,1544,1642,1681,1677,1650,1623,1603,1574,1563,1540,1510,1487,1450,1402,1401,1383,1331,1304,1271,1264,1203,1183,1049,1009,919,930,892,879,892,848,825,790,790,790,790,790,790,790,790,790,790,790,790,790,790,790,790,790,790,790,790,790,790,790,790,790,790,790,1192,1199,1224,1234,1461,1813,2052,2211,2291,2318,2284,2263,2226,2205,2155,2135,2091,2058,2031,1983,1921,1919,1878,1818,1784,1753,1745,1684,1530,1336,1318,1263,1251,1234,1206,1217,1196,1178,1141,1141,1141,1141,1141,1141,1141,1141,1141,1141,1141,1141,1141,1141,1141,1141,1141,1141,1141,1141,1141,1141,1141,1141,1141,1141,1141,1049,1053,1056,1077,1289,1567,1736,1923,2011,2040,2036,1999,1966,1947,1903,1887,1859,1818,1794,1752,1694,1708,1660,1605,1574,1543,1542,1486,1348,1259,1146,1127,1107,1080,1066,1081,1070,1042,1006,1006,1006,1006,1006,1006,1006,1006,1006,1006,1006,1006,1006,1006,1006,1006,1006,1006,1006,1006,1006,1006,1006,1006,1006,1006,1006,655,657,672,660,685,884,1023,1119,1206,1245,1251,1225,1212,1226,1174,1157,1138,1122,1102,1078,1064,1047,1023,1006,992,969,954,937,914,899,879,863,789,673,673,664,666,663,645,645,645,645,645,645,645,645,645,645,645,645,645,645,645,645,645,645,645,645,645,645,645,645,645,645,645,444,446,447,453,460,579,639,698,763,804,818,807,795,784,773,762,751,739,731,718,706,696,686,674,662,658,646,634,623,608,597,588,563,466,461,450,472,459,417,417,417,417,417,417,417,417,417,417,417,417,417,417,417,417,417,417,417,417,417,417,417,417,417,417,417,738,742,744,751,769,1027,1168,1293,1397,1436,1435,1413,1390,1377,1349,1342,1319,1288,1274,1241,1192,1205,1179,1133,1111,1090,1099,1045,1057,997,816,809,782,765,752,749,754,747,706,706,706,706,706,706,706,706,706,706,706,706,706,706,706,706,706,706,706,706,706,706,706,706,706,706,706,1138,1117,1146,1165,1324,1665,1910,2081,2161,2195,2122,2149,2092,2086,2049,2026,1944,1914,1932,1886,1806,1773,1780,1701,1687,1637,1589,1561,1329,1294,1256,1211,1203,1166,1120,1157,1120,1096,1058,1058,1058,1058,1058,1058,1058,1058,1058,1058,1058,1058,1058,1058,1058,1058,1058,1058,1058,1058,1058,1058,1058,1058,1058,1058,1058,554,557,564,571,582,762,866,952,1027,1072,1078,1063,1046,1038,1015,1014,996,969,964,936,892,910,891,850,832,816,836,786,802,749,640,613,609,589,572,562,573,527,494,494,494,494,494,494,494,494,494,494,494,494,494,494,494,494,494,494,494,494,494,494,494,494,494,494,494,762,777,766,769,814,1009,1205,1347,1442,1479,1480,1456,1436,1417,1414,1361,1354,1325,1307,1301,1315,1237,1203,1181,1161,1157,1116,1095,1069,1043,926,891,870,787,777,779,781,736,702,702,702,702,702,702,702,702,702,702,702,702,702,702,702,702,702,702,702,702,702,702,702,702,702,702,702,1455,1491,1488,1630,1961,2374,2556,2742,2789,2836,2793,2764,2701,2680,2639,2590,2562,2534,2450,2395,2345,2316,2307,2218,2088,1728,1736,1703,1701,1622,1573,1537,1510,1490,1487,1517,1482,1499,1450,1450,1450,1450,1450,1450,1450,1450,1450,1450,1450,1450,1450,1450,1450,1450,1450,1450,1450,1450,1450,1450,1450,1450,1450,1450,1450,679,686,684,690,714,934,1067,1180,1279,1319,1321,1305,1280,1269,1243,1238,1216,1187,1174,1144,1096,1110,1086,1043,1028,1007,1014,969,958,924,849,724,762,703,698,688,694,702,644,644,644,644,644,644,644,644,644,644,644,644,644,644,644,644,644,644,644,644,644,644,644,644,644,644,644,1038,1039,1050,1092,1168,1542,1749,1912,1985,2029,2025,1989,1943,1941,1890,1879,1835,1811,1771,1743,1686,1674,1648,1592,1567,1528,1537,1484,1321,1206,1138,1124,1107,1074,1061,1077,1061,1034,993,993,993,993,993,993,993,993,993,993,993,993,993,993,993,993,993,993,993,993,993,993,993,993,993,993,993,0,0,0,0,0,0,0,0,0,0,0,0,0,0,0,0,0,0,0,0,0,0,0,0,0,0,0,0,0,0,0,0,0,0,0,0,0,0,0,0,0,0,0,0,0,0,0,0,0,0,0,0,0,0,0,0,0,0,0,0,0,0,0,0,0,1030,1037,1040,1057,1141,1504,1689,1818,1948,1932,1934,1904,1874,1885,1821,1794,1769,1741,1718,1687,1660,1636,1607,1580,1570,1447,1429,1400,1379,1170,1203,1117,1088,1072,1047,1045,1025,1013,1009,1021,1008,1010,999,1025,1008,1014,1032,1030,1032,1032,1032,1032,1029,1022,1032,1031,1025,1021,1032,1032,1032,1032,1028,1032,1028,622,624,618,629,636,858,985,1086,1189,1248,1250,1230,1211,1190,1172,1150,1130,1105,1091,1080,1067,1031,1012,992,972,951,931,911,892,861,852,844,732,648,635,632,634,636,611,603,614,625,617,617,611,612,620,623,628,616,623,632,644,644,642,628,614,629,617,620,609,629,629,629,629,749,753,755,763,820,1053,1180,1314,1412,1458,1459,1436,1413,1400,1370,1364,1341,1309,1295,1262,1213,1226,1199,1154,1129,1106,1117,1069,1078,1012,943,816,817,778,763,778,765,742,704,704,704,704,704,704,704,704,704,704,704,704,704,704,704,704,704,704,704,704,704,704,704,704,704,704,704,918,927,949,942,1041,1308,1469,1604,1726,1724,1729,1699,1672,1650,1625,1597,1577,1547,1522,1498,1476,1452,1426,1400,1372,1350,1326,1306,1282,1250,1026,981,968,971,961,936,911,909,868,868,868,868,868,868,868,868,868,868,868,868,868,868,868,868,868,868,868,868,868,868,868,868,868,868,868,951,954,957,966,1027,1388,1551,1718,1809,1846,1838,1810,1780,1758,1726,1712,1688,1657,1631,1588,1541,1536,1515,1461,1431,1396,1366,1305,1222,1054,1055,1012,1014,978,967,977,942,917,885,885,885,885,885,885,885,885,885,885,885,885,885,885,885,885,885,885,885,885,885,885,885,885,885,885,885,510,511,513,514,519,684,772,862,950,1015,1021,1005,990,973,957,941,925,909,893,876,860,844,829,812,796,781,764,749,732,716,700,684,668,552,521,517,519,520,503,495,498,502,508,513,510,515,511,500,506,517,512,502,503,512,511,505,505,509,503,509,506,511,511,511,506,907,901,907,916,965,1316,1507,1654,1746,1791,1791,1769,1727,1711,1660,1635,1629,1609,1562,1530,1502,1471,1449,1431,1404,1369,1343,1311,1280,1208,1053,983,1020,929,922,919,913,892,872,870,875,875,885,894,891,894,890,892,891,892,890,882,886,894,894,888,891,890,879,894,889,893,893,893,893,1052,1056,1042,1094,1263,1597,1764,1934,1997,2041,2027,1998,1980,1959,1905,1902,1862,1806,1778,1755,1661,1699,1645,1608,1577,1537,1548,1481,1443,1210,1167,1141,1120,1083,1069,1078,1065,1038,1003,1003,1003,1003,1003,1003,1003,1003,1003,1003,1003,1003,1003,1003,1003,1003,1003,1003,1003,1003,1003,1003,1003,1003,1003,1003,1003,641,656,645,648,671,829,994,1102,1195,1236,1243,1224,1207,1189,1193,1142,1133,1114,1101,1079,1114,1041,1011,993,976,978,940,924,900,853,800,702,687,665,654,656,657,622,588,588,588,588,588,588,588,588,588,588,588,588,588,588,588,588,588,588,588,588,588,588,588,588,588,588,588,1446,1453,1467,1555,1880,2302,2542,2701,2767,2781,2760,2719,2670,2643,2585,2557,2520,2468,2432,2378,2308,2298,2250,2184,2048,1727,1716,1669,1722,1602,1556,1526,1508,1488,1469,1480,1458,1441,1404,1404,1404,1404,1404,1404,1404,1404,1404,1404,1404,1404,1404,1404,1404,1404,1404,1404,1404,1404,1404,1404,1404,1404,1404,1404,1404,732,747,736,739,799,963,1152,1285,1381,1420,1421,1398,1378,1357,1359,1306,1292,1272,1257,1229,1260,1188,1155,1133,1115,1113,1072,1052,1027,1007,923,790,784,756,745,748,751,708,674,674,674,674,674,674,674,674,674,674,674,674,674,674,674,674,674,674,674,674,674,674,674,674,674,674,674,683,684,687,689,714,952,1094,1205,1310,1367,1367,1345,1323,1301,1289,1258,1236,1224,1193,1180,1164,1127,1105,1084,1062,1040,1018,997,975,953,931,854,843,709,696,693,710,675,652,653,647,683,683,649,657,685,660,683,683,668,683,659,651,653,659,666,652,653,645,651,647,651,651,651,651,777,786,790,790,829,1081,1248,1384,1488,1518,1522,1499,1464,1450,1420,1422,1389,1366,1347,1315,1265,1267,1240,1193,1169,1155,1163,1107,1102,1055,937,835,827,811,796,794,779,782,740,740,740,740,740,740,740,740,740,740,740,740,740,740,740,740,740,740,740,740,740,740,740,740,740,740,740,696,698,713,703,731,944,1093,1199,1286,1324,1329,1302,1287,1300,1246,1228,1208,1191,1170,1145,1131,1112,1087,1069,1053,1029,1013,995,971,955,882,841,734,715,716,706,708,678,660,660,660,660,660,660,660,660,660,660,660,660,660,660,660,660,660,660,660,660,660,660,660,660,660,660,660,1075,1077,1083,1103,1234,1600,1789,1962,2049,2082,2048,2020,1981,1976,1933,1908,1880,1862,1833,1768,1738,1706,1681,1633,1611,1569,1560,1492,1344,1246,1193,1140,1126,1103,1093,1090,1050,1031,997,997,997,997,997,997,997,997,997,997,997,997,997,997,997,997,997,997,997,997,997,997,997,997,997,997,997,887,890,893,895,978,1266,1401,1565,1664,1698,1700,1678,1641,1627,1620,1583,1553,1521,1502,1489,1442,1428,1390,1340,1313,1307,1288,1239,1233,1008,994,951,927,902,902,906,864,838,792,792,792,792,792,792,792,792,792,792,792,792,792,792,792,792,792,792,792,792,792,792,792,792,792,792,792,1002,1003,1011,1031,1152,1478,1675,1830,1910,1956,1944,1917,1875,1874,1828,1815,1771,1748,1710,1669,1627,1617,1603,1538,1513,1475,1485,1357,1350,1192,1100,1088,1071,1038,1023,1050,1016,1000,958,958,958,958,958,958,958,958,958,958,958,958,958,958,958,958,958,958,958,958,958,958,958,958,958,958,958,864,867,870,882,937,1230,1389,1544,1642,1681,1677,1650,1623,1603,1574,1563,1540,1510,1487,1450,1402,1401,1383,1331,1304,1271,1264,1203,1183,1049,1009,919,930,892,879,892,848,825,790,790,790,790,790,790,790,790,790,790,790,790,790,790,790,790,790,790,790,790,790,790,790,790,790,790,790,1263,1267,1271,1291,1474,1941,2264,2607,2665,2715,2649,2651,2578,2536,2477,2437,2389,2344,2295,2244,2167,2146,2098,2050,1999,1951,1903,1816,1527,1522,1428,1343,1311,1296,1284,1276,1260,1267,1272,1278,1273,1262,1298,1285,1277,1291,1284,1299,1309,1289,1301,1320,1308,1306,1308,1312,1314,1319,1314,1308,1297,1307,1304,1307,1281,1455,1458,1463,1557,1831,2327,2660,2955,3005,3049,2977,2936,2898,2844,2791,2736,2678,2634,2594,2525,2445,2409,2361,2306,2167,2173,2106,2007,1668,1624,1607,1523,1521,1487,1476,1467,1438,1437,1418,1424,1439,1443,1447,1435,1439,1443,1436,1453,1455,1452,1447,1466,1454,1452,1454,1458,1460,1465,1460,1454,1462,1455,1450,1455,1451,1011,1014,1017,1025,1297,1502,1761,2120,2186,2236,2186,2146,2141,2092,2041,2008,1967,1926,1889,1847,1778,1761,1719,1678,1636,1596,1554,1513,1471,1430,1389,1098,1053,1053,1028,1029,1035,1042,1023,1034,1046,1074,1044,1050,1039,1059,1043,1053,1041,1037,1038,1051,1056,1105,1104,1081,1046,1043,1059,1092,1058,1061,1048,1058,1049,793,793,795,801,857,1119,1379,1674,1752,1846,1826,1733,1743,1690,1650,1626,1594,1554,1524,1512,1426,1419,1382,1354,1313,1276,1265,1210,1195,1140,1103,923,892,821,808,808,812,819,800,802,817,828,816,821,811,824,812,819,818,812,829,826,832,828,822,828,831,833,832,830,828,849,831,828,830,1018,1022,1023,1026,1119,1489,1785,1955,2013,2036,2008,2007,1947,1944,1914,1870,1851,1794,1806,1732,1767,1661,1665,1634,1579,1549,1519,1488,1448,1423,1292,1092,1089,1048,1035,1052,1025,1022,1000,986,1003,1001,1036,992,992,1001,1002,1027,1028,1020,1009,1035,1028,1018,1034,1016,1022,1015,1027,1020,1012,1019,1035,1031,1029,1259,1251,1259,1342,1417,2057,2313,2487,2570,2580,2634,2569,2497,2450,2428,2328,2342,2235,2193,2151,2155,2091,2008,1993,1951,1908,1905,1841,1656,1452,1432,1315,1280,1273,1242,1247,1293,1299,1316,1312,1305,1314,1338,1306,1335,1335,1332,1345,1341,1338,1344,1348,1343,1357,1345,1343,1344,1341,1355,1359,1359,1357,1356,1357,1351,1535,1517,1551,1602,1930,2476,2789,3116,3166,3135,3129,3069,3047,2999,2938,2887,2831,2775,2669,2612,2577,2549,2495,2364,2274,2009,1859,1819,1782,1721,1692,1619,1586,1572,1561,1542,1522,1521,1502,1508,1523,1527,1531,1519,1523,1527,1520,1537,1539,1536,1531,1550,1538,1536,1538,1542,1544,1549,1544,1538,1546,1539,1534,1539,1535,1154,1158,1159,1167,1364,1731,2082,2367,2411,2429,2393,2356,2319,2284,2246,2244,2200,2158,2109,2062,1992,1958,1929,1881,1835,1789,1756,1702,1588,1458,1310,1231,1210,1185,1172,1163,1171,1167,1157,1146,1163,1165,1174,1150,1163,1156,1167,1178,1179,1179,1170,1193,1177,1176,1193,1187,1174,1178,1186,1186,1175,1169,1192,1185,1183,1138,1108,1114,1158,1470,1815,2079,2253,2341,2355,2395,2350,2250,2240,2223,2125,2142,2041,1999,1961,1947,1874,1832,1817,1749,1709,1712,1669,1581,1481,1394,1193,1158,1133,1121,1124,1166,1174,1171,1156,1160,1166,1181,1161,1176,1188,1187,1196,1195,1191,1195,1192,1193,1192,1195,1195,1195,1194,1195,1195,1195,1195,1194,1195,1194,1534,1538,1554,1670,1961,2491,2791,3095,3141,3186,3122,3065,3027,2979,2906,2858,2822,2752,2716,2639,2557,2526,2488,2412,2381,2189,2148,1831,1751,1737,1683,1602,1578,1563,1552,1544,1554,1558,1545,1561,1558,1569,1561,1560,1577,1572,1565,1561,1571,1573,1565,1582,1590,1604,1585,1576,1590,1595,1600,1590,1587,1619,1588,1601,1585,1340,1326,1346,1367,1535,2036,2400,2579,2648,2655,2638,2595,2576,2534,2471,2452,2414,2374,2315,2272,2220,2182,2149,2101,2052,1991,1963,1834,1586,1530,1489,1418,1398,1371,1337,1358,1360,1356,1347,1351,1364,1361,1367,1346,1354,1362,1374,1387,1384,1390,1379,1400,1376,1379,1400,1391,1375,1378,1382,1391,1378,1378,1399,1380,1378,1053,1038,1041,1051,1139,1525,1839,2169,2234,2282,2233,2204,2176,2142,2097,2051,2008,1966,1929,1886,1831,1801,1770,1714,1672,1630,1604,1546,1484,1485,1209,1127,1078,1065,1053,1054,1061,1066,1063,1056,1071,1066,1081,1078,1067,1071,1074,1073,1090,1080,1080,1084,1088,1093,1086,1086,1074,1091,1078,1083,1089,1090,1085,1093,1077,1006,1009,1012,1040,1149,1514,1788,1869,1912,1969,2022,1933,1870,1839,1883,1836,1753,1722,1692,1664,1685,1604,1625,1573,1518,1488,1519,1430,1400,1389,1144,1073,1050,1031,1062,1020,1014,1025,1038,1034,1046,1048,1042,1055,1043,1051,1044,1061,1062,1054,1060,1063,1065,1065,1064,1064,1062,1063,1064,1059,1064,1064,1062,1064,1063,0,0,0,0,0,0,0,0,0,0,0,0,0,0,0,0,0,0,0,0,0,0,0,0,0,0,0,0,0,0,0,0,0,0,0,0,0,0,0,0,0,0,0,0,0,0,0,0,0,0,0,0,0,0,0,0,0,0,0,0,0,0,0,0,0,555,548,549,550,590,754,854,907,1004,1026,1034,1018,1004,988,974,974,944,929,915,899,938,859,855,840,826,810,796,781,756,763,737,737,622,609,549,546,554,596,544,542,548,565,544,555,548,557,557,546,556,544,549,549,549,555,551,551,552,556,553,556,551,560,549,565,552,1038,1037,1039,1062,1139,1538,1824,2172,2230,2279,2229,2187,2173,2129,2087,2058,2008,1966,1927,1884,1814,1795,1753,1717,1670,1631,1587,1545,1504,1207,1188,1111,1116,1065,1064,1080,1050,1054,1036,1045,1052,1065,1062,1053,1053,1058,1051,1078,1066,1068,1062,1091,1072,1069,1070,1071,1078,1082,1075,1095,1070,1072,1066,1071,1067,626,624,626,627,649,810,955,1052,1148,1186,1216,1178,1162,1131,1115,1097,1080,1069,1046,1028,1012,999,982,960,948,925,908,891,873,876,839,672,658,644,637,630,632,627,608,609,609,614,613,608,611,612,613,617,619,619,620,632,620,620,632,623,625,627,627,629,627,626,631,632,630,1271,1270,1283,1297,1421,1939,2278,2594,2646,2697,2649,2600,2612,2526,2468,2443,2376,2328,2282,2251,2156,2157,2108,2040,1996,1962,1897,1855,1668,1605,1478,1375,1362,1308,1295,1286,1264,1263,1244,1250,1265,1269,1273,1261,1265,1269,1262,1279,1281,1278,1273,1292,1280,1278,1280,1284,1286,1291,1286,1280,1288,1281,1276,1281,1277,623,625,627,629,647,860,1009,1053,1138,1174,1180,1180,1146,1128,1112,1094,1078,1060,1043,1026,1059,992,975,959,941,925,907,891,873,856,839,822,658,645,635,631,633,635,624,630,627,636,631,640,631,641,632,649,633,633,627,634,649,621,636,636,632,638,627,627,640,639,626,638,627,453,454,456,458,500,608,686,801,842,898,907,893,878,864,850,836,875,808,794,779,765,751,737,722,708,695,680,666,652,638,623,609,595,580,506,459,501,475,448,441,452,469,445,452,446,457,446,452,452,449,448,446,451,457,452,452,449,446,449,449,451,451,445,457,450,1038,1018,1044,1044,1130,1489,1787,2115,2192,2261,2169,2170,2165,2122,2086,2015,2000,1936,1906,1859,1819,1776,1758,1684,1675,1611,1578,1518,1490,1419,1211,1091,1068,1055,1055,1017,1062,1069,1081,1070,1067,1078,1068,1084,1078,1091,1086,1098,1089,1093,1105,1103,1092,1110,1113,1090,1086,1084,1107,1094,1102,1113,1112,1113,1112,1321,1303,1352,1392,1479,2096,2347,2440,2510,2521,2505,2466,2448,2408,2348,2332,2294,2255,2197,2157,2169,2082,2073,2002,1983,1923,1853,1829,1668,1450,1417,1388,1361,1328,1325,1296,1307,1309,1345,1337,1340,1348,1352,1343,1359,1367,1356,1371,1373,1373,1375,1373,1373,1373,1374,1375,1371,1373,1375,1371,1368,1372,1369,1372,1359,1726,1723,1788,1895,2277,2860,3179,3425,3511,3507,3468,3383,3371,3286,3217,3161,3082,3037,2999,2939,2817,2750,2583,2302,2137,2143,2078,2027,2002,1907,1901,1805,1783,1745,1722,1734,1701,1700,1681,1687,1702,1706,1710,1698,1702,1706,1699,1716,1718,1715,1710,1729,1717,1715,1717,1721,1723,1728,1723,1717,1725,1718,1713,1718,1714,1203,1173,1222,1238,1510,1962,2209,2380,2509,2520,2516,2469,2367,2355,2337,2275,2252,2148,2104,2100,2048,1973,1962,1912,1842,1834,1802,1757,1667,1377,1293,1259,1249,1198,1188,1190,1232,1241,1245,1230,1234,1240,1251,1234,1250,1262,1260,1270,1272,1267,1271,1269,1267,1266,1269,1269,1272,1268,1271,1269,1269,1269,1268,1269,1268,522,562,525,527,535,706,834,862,938,979,986,973,959,944,930,916,903,888,874,860,899,837,818,804,789,775,761,748,733,719,705,690,637,542,532,529,531,531,527,525,525,529,527,527,531,531,529,530,528,530,534,533,535,536,531,531,536,535,534,538,535,536,533,532,536,1219,1211,1224,1285,1367,1978,2242,2412,2498,2508,2564,2500,2433,2383,2365,2263,2278,2175,2131,2090,2073,1998,1954,1936,1895,1853,1852,1791,1677,1349,1332,1320,1241,1235,1204,1201,1248,1251,1257,1247,1253,1256,1273,1254,1269,1280,1279,1286,1288,1284,1288,1283,1286,1285,1287,1288,1289,1287,1292,1292,1290,1288,1287,1288,1282,788,790,792,796,866,1112,1358,1662,1736,1824,1753,1719,1721,1679,1636,1616,1582,1543,1512,1503,1415,1405,1371,1337,1303,1269,1255,1201,1186,1133,1098,855,842,815,802,802,808,813,811,808,813,823,819,828,826,839,824,826,833,827,820,822,823,843,824,821,826,829,827,819,821,829,820,829,819,1470,1449,1485,1566,1800,2354,2673,2980,3034,3079,3014,2944,2931,2874,2776,2747,2697,2661,2593,2535,2456,2433,2390,2340,2204,2128,2128,1976,1764,1657,1629,1543,1515,1496,1485,1470,1437,1436,1417,1423,1438,1442,1446,1434,1438,1442,1435,1452,1454,1451,1446,1465,1453,1451,1453,1457,1459,1464,1459,1453,1461,1454,1449,1454,1450,1098,1096,1125,1140,1223,1643,1949,2294,2348,2392,2344,2301,2283,2235,2182,2153,2107,2065,2024,1985,1911,1899,1856,1808,1768,1724,1679,1626,1587,1481,1239,1179,1172,1138,1137,1107,1074,1073,1054,1060,1075,1079,1083,1071,1075,1079,1072,1089,1091,1088,1083,1102,1090,1088,1090,1094,1096,1101,1096,1090,1098,1091,1086,1091,1087,999,1002,1008,1012,1095,1461,1767,2108,2161,2220,2162,2123,2124,2069,2019,1987,1945,1909,1868,1827,1774,1742,1702,1659,1619,1578,1537,1497,1455,1414,1286,1114,1042,1029,1017,1017,1021,1026,1011,1018,1024,1024,1028,1027,1035,1035,1026,1022,1038,1033,1030,1032,1055,1059,1061,1062,1037,1038,1046,1032,1034,1037,1044,1045,1030,1263,1267,1271,1291,1474,1941,2264,2607,2665,2715,2649,2651,2578,2536,2477,2437,2389,2344,2295,2244,2167,2146,2098,2050,1999,1951,1903,1816,1527,1522,1428,1343,1311,1296,1284,1276,1260,1267,1272,1278,1273,1262,1298,1285,1277,1291,1284,1299,1309,1289,1301,1320,1308,1306,1308,1312,1314,1319,1314,1308,1297,1307,1304,1307,1281,1044,1047,1080,1087,1161,1632,1856,1960,2040,2099,2059,2026,1998,2007,1928,1897,1867,1880,1798,1765,1734,1700,1663,1657,1597,1549,1516,1483,1387,1202,1190,1117,1123,1095,1061,1062,1028,1017,1020,1021,1017,1030,1035,1056,1042,1039,1031,1047,1055,1040,1051,1060,1033,1050,1061,1040,1043,1039,1035,1045,1041,1045,1048,1058,1036,1314,1306,1322,1400,1554,2070,2341,2528,2647,2689,2674,2627,2585,2524,2496,2444,2405,2357,2306,2249,2234,2168,2111,2089,2020,1998,1928,1681,1672,1536,1428,1397,1387,1336,1341,1330,1293,1301,1273,1276,1286,1284,1283,1286,1279,1283,1279,1291,1282,1280,1285,1286,1289,1319,1290,1289,1290,1283,1285,1291,1291,1288,1277,1281,1277,871,873,875,895,1039,1272,1476,1672,1803,1867,1870,1839,1804,1771,1738,1704,1672,1638,1606,1560,1538,1505,1461,1438,1394,1372,1339,1295,1272,1239,1208,1112,932,900,893,892,890,912,872,886,889,885,900,896,896,913,890,901,906,890,906,904,911,912,913,909,914,903,908,902,900,898,901,911,882,653,656,656,680,695,931,1069,1222,1357,1430,1440,1412,1388,1370,1336,1309,1310,1254,1229,1196,1179,1153,1116,1098,1072,1045,1025,987,971,943,870,846,794,680,674,670,667,677,654,655,662,669,673,673,660,673,663,676,665,658,671,671,676,690,678,673,675,669,672,675,675,678,668,672,668,536,538,555,541,552,739,861,936,1028,1076,1082,1065,1078,1049,1013,996,979,980,984,927,909,892,875,858,840,822,806,788,782,753,737,719,701,567,564,552,546,547,547,544,542,552,557,588,590,560,552,567,598,562,561,554,554,587,583,560,563,558,554,563,559,565,566,589,558,1002,1003,1018,1025,1139,1457,1691,1849,1934,1968,1962,1935,1918,1902,1859,1825,1803,1766,1734,1719,1689,1637,1606,1571,1541,1510,1478,1445,1377,1223,1185,1097,1056,1033,1031,1029,986,975,982,988,968,985,992,999,1008,990,988,1000,1011,996,994,991,990,1012,1008,994,998,994,986,996,992,998,999,999,990,1296,1300,1336,1418,1570,2145,2344,2479,2556,2603,2532,2515,2479,2432,2340,2357,2322,2325,2234,2198,2161,2117,2072,2053,1984,1936,1839,1592,1524,1473,1461,1399,1401,1370,1305,1339,1300,1288,1288,1291,1294,1305,1308,1331,1318,1314,1307,1322,1329,1318,1314,1312,1315,1328,1337,1317,1319,1321,1315,1327,1322,1328,1329,1339,1317,740,743,774,749,787,1094,1255,1350,1443,1511,1482,1459,1435,1459,1388,1365,1340,1361,1293,1269,1246,1222,1197,1191,1150,1127,1103,1080,1079,1031,1026,984,802,767,755,752,745,736,732,730,727,741,749,761,765,748,744,758,769,754,751,747,746,768,765,751,755,751,743,753,749,755,756,763,747,1003,1007,1010,1026,1090,1483,1670,1829,1918,1974,1967,1933,1902,1894,1860,1805,1796,1769,1717,1705,1689,1640,1590,1558,1525,1495,1461,1430,1399,1341,1271,1070,1044,1024,1023,1019,996,971,994,973,975,977,985,984,1002,1017,989,1012,1000,985,992,1009,1011,1011,1009,1011,1017,1010,1008,1015,1016,1002,991,984,977,1376,1381,1413,1528,1758,2265,2496,2671,2786,2831,2808,2759,2723,2664,2613,2568,2520,2478,2442,2383,2348,2287,2234,2213,2141,2083,1980,1871,1590,1630,1534,1466,1482,1411,1406,1411,1444,1433,1388,1400,1394,1408,1395,1401,1403,1398,1396,1408,1402,1396,1398,1407,1407,1436,1406,1403,1411,1406,1417,1423,1420,1443,1412,1416,1412,927,943,959,925,1000,1355,1566,1672,1759,1824,1792,1764,1736,1758,1678,1651,1622,1640,1579,1535,1526,1499,1425,1421,1372,1346,1320,1304,1270,1053,1042,997,987,955,919,940,943,925,921,920,931,940,940,950,961,939,938,955,972,957,953,947,947,964,964,949,969,951,943,949,945,951,952,955,943,895,898,907,931,974,1323,1523,1722,1851,1915,1933,1884,1850,1815,1781,1747,1713,1680,1646,1600,1578,1544,1513,1476,1431,1408,1386,1329,1283,1274,1227,991,984,943,936,917,951,943,906,910,918,914,913,919,908,922,910,920,914,911,914,914,924,949,921,916,916,913,914,916,917,921,908,912,908,540,541,543,545,557,692,838,927,1016,1061,1067,1050,1034,1015,1001,984,970,951,935,918,933,915,918,852,836,819,803,786,770,687,677,663,657,563,551,549,549,550,548,540,540,544,559,558,559,600,551,560,554,554,558,549,549,561,560,553,558,555,545,568,555,556,558,562,557,552,554,556,557,558,640,789,904,978,1043,1030,1016,1002,988,1026,959,944,930,915,901,887,872,858,843,828,814,800,715,700,687,673,660,647,634,563,559,561,542,512,516,519,531,525,527,529,546,530,523,540,533,545,545,540,546,520,522,529,538,533,519,528,538,528,535,527,0,0,0,0,0,0,0,0,0,0,0,0,0,0,0,0,0,0,0,0,0,0,0,0,0,0,0,0,0,0,0,0,0,0,0,0,0,0,0,0,0,0,0,0,0,0,0,0,0,0,0,0,0,0,0,0,0,0,0,0,0,0,0,0,0,898,897,903,940,1006,1304,1530,1708,1805,1848,1845,1809,1782,1755,1726,1697,1668,1657,1609,1578,1549,1523,1497,1469,1429,1403,1371,1326,1302,1189,1015,988,983,935,947,917,905,918,891,897,899,906,898,904,893,898,894,907,893,896,900,903,907,936,906,902,908,900,900,925,899,905,893,897,893,435,437,440,440,442,508,639,743,818,871,878,865,851,842,823,809,800,782,771,753,743,726,711,698,684,669,656,647,637,614,600,535,522,496,484,442,443,444,424,400,405,407,423,417,416,413,417,412,432,433,439,431,432,443,441,418,419,436,441,441,441,445,437,445,438,1124,1130,1140,1162,1268,1682,1989,2127,2206,2260,2219,2183,2152,2145,2079,2044,2010,2021,1939,1905,1870,1831,1797,1784,1723,1661,1619,1550,1504,1316,1257,1203,1227,1168,1148,1144,1119,1109,1099,1102,1112,1110,1109,1112,1105,1109,1105,1117,1108,1106,1111,1112,1115,1145,1116,1115,1116,1109,1111,1117,1117,1114,1103,1107,1103,162,162,162,162,200,205,232,259,286,312,328,323,317,313,308,302,298,292,287,282,277,271,266,261,256,280,246,240,235,231,225,220,215,210,204,200,201,201,153,153,152,154,153,155,156,159,154,153,154,159,154,153,153,155,154,154,153,155,153,153,152,153,154,153,152,407,389,410,414,393,441,590,638,713,767,781,764,756,740,728,716,704,691,679,710,655,643,668,654,648,607,594,610,596,546,539,485,498,443,421,394,430,430,357,362,364,369,370,373,363,374,361,378,367,362,367,370,375,375,372,369,371,367,372,374,372,373,362,364,361,878,900,890,896,950,1316,1512,1678,1828,1874,1896,1862,1809,1817,1744,1723,1664,1644,1648,1602,1567,1526,1499,1478,1388,1399,1350,1283,1307,1257,1213,1007,959,927,920,896,883,916,896,898,898,908,913,915,909,913,908,921,911,909,913,912,920,952,918,913,915,909,913,915,915,918,908,912,908,870,873,888,889,923,1263,1427,1582,1678,1738,1735,1705,1678,1675,1644,1594,1588,1542,1515,1505,1493,1431,1402,1373,1346,1319,1290,1261,1204,1176,1150,944,921,900,898,895,882,857,880,859,863,865,873,872,890,905,877,901,889,874,881,898,900,900,898,901,907,900,898,905,906,892,882,875,868,1585,1589,1618,1732,1973,2572,2886,3046,3127,3149,3131,3072,3024,2955,2928,2875,2825,2760,2725,2673,2621,2424,2330,2127,2077,1960,1891,1877,1803,1773,1747,1652,1655,1624,1623,1608,1556,1564,1536,1539,1549,1547,1546,1549,1542,1546,1542,1554,1545,1543,1548,1549,1552,1582,1553,1552,1553,1546,1548,1554,1554,1551,1540,1544,1540,960,963,979,991,1050,1427,1608,1768,1858,1916,1909,1876,1846,1840,1807,1753,1744,1695,1666,1655,1641,1573,1542,1512,1481,1450,1418,1388,1358,1313,1275,1038,1013,992,992,997,968,943,966,945,947,949,957,956,974,989,961,984,972,957,964,981,983,983,981,983,989,982,980,987,988,974,963,956,949,144,144,144,178,178,183,206,231,254,277,292,288,282,278,273,269,265,260,256,250,246,242,237,233,228,224,218,214,210,205,201,196,191,187,182,179,179,180,111,115,117,118,117,119,113,117,112,125,115,113,117,116,124,135,122,117,119,113,117,119,119,122,112,116,112,1035,1028,1057,1063,1148,1535,1770,1929,2006,2043,2036,2002,1969,1971,1930,1887,1846,1832,1799,1733,1741,1684,1651,1633,1586,1553,1520,1463,1432,1284,1159,1110,1096,1078,1060,1041,1029,1017,1021,1016,1014,1022,1031,1030,1048,1036,1033,1046,1046,1034,1040,1041,1038,1058,1057,1043,1046,1046,1038,1048,1044,1046,1034,1027,1020,647,650,651,675,688,921,1056,1207,1342,1415,1426,1401,1374,1349,1323,1297,1297,1246,1219,1185,1195,1146,1108,1090,1064,1038,1015,980,963,936,801,778,728,675,667,666,662,673,647,642,646,649,657,659,652,653,650,664,655,653,657,656,664,684,662,657,659,653,657,659,659,662,652,656,652,1253,1258,1292,1314,1474,2027,2274,2367,2443,2463,2428,2396,2355,2353,2269,2231,2220,2219,2119,2102,2066,2020,1970,1962,1888,1850,1809,1769,1670,1478,1407,1332,1306,1304,1274,1262,1230,1223,1227,1236,1230,1239,1246,1272,1253,1252,1242,1257,1269,1256,1254,1250,1249,1262,1267,1254,1256,1246,1245,1260,1255,1261,1259,1269,1247,951,956,981,1018,1097,1419,1645,1838,1963,2028,2028,1992,1961,1919,1883,1851,1814,1774,1743,1704,1677,1643,1601,1575,1520,1500,1466,1418,1385,1277,1081,1061,1043,1007,997,992,929,937,909,912,922,920,919,922,915,919,915,927,918,916,921,922,925,955,926,925,926,919,921,927,927,924,913,917,913,871,862,863,882,931,1251,1451,1656,1777,1855,1848,1813,1782,1747,1715,1683,1649,1616,1585,1540,1518,1486,1442,1420,1377,1354,1322,1279,1256,1225,1181,978,947,888,904,881,896,901,854,858,859,863,861,865,859,861,858,869,860,856,861,862,868,895,865,861,863,856,861,863,863,868,857,861,857,1044,1047,1080,1087,1161,1632,1856,1960,2040,2099,2059,2026,1998,2007,1928,1897,1867,1880,1798,1765,1734,1700,1663,1657,1597,1549,1516,1483,1387,1202,1190,1117,1123,1095,1061,1062,1028,1017,1020,1021,1017,1030,1035,1056,1042,1039,1031,1047,1055,1040,1051,1060,1033,1050,1061,1040,1043,1039,1035,1045,1041,1045,1048,1058,1036,270,263,264,265,266,343,389,440,480,524,537,529,520,512,519,495,486,477,468,460,452,443,434,425,416,409,400,391,382,374,365,357,348,339,331,267,267,312,246,241,239,241,249,250,245,241,238,248,253,246,248,250,258,261,262,248,247,255,272,255,245,246,255,247,240,538,560,562,543,553,626,841,946,1032,1081,1093,1068,1050,1068,1016,998,1000,963,953,935,911,894,877,864,842,826,808,790,773,774,604,590,576,603,549,546,548,534,519,515,517,522,517,530,524,552,527,523,549,518,523,519,523,527,524,527,526,531,524,521,525,529,523,534,526,549,556,552,554,565,733,830,926,1031,1114,1108,1090,1075,1054,1046,1019,1002,986,966,978,930,913,903,877,860,856,825,809,789,777,760,656,641,573,566,562,560,560,561,558,547,569,566,561,563,571,562,562,567,564,564,560,553,563,566,566,561,562,555,558,555,560,565,560,560,471,472,472,474,489,637,713,804,876,951,962,933,926,900,913,886,868,849,825,823,803,791,775,757,742,726,703,688,680,665,650,634,586,495,477,480,484,453,438,442,444,444,456,443,449,448,449,442,451,450,445,452,452,464,465,460,464,461,455,445,457,446,460,452,446,418,420,421,422,430,485,625,706,776,839,852,836,823,809,796,780,771,757,743,730,716,702,686,674,661,645,634,617,604,591,577,503,491,439,428,424,425,399,343,337,342,351,346,348,345,350,347,352,352,349,368,372,370,349,347,347,349,353,342,340,348,347,343,348,341,503,484,486,481,498,576,747,840,912,993,1012,977,943,909,934,933,895,891,863,856,817,817,788,787,752,732,747,726,711,708,612,592,517,529,522,500,502,526,476,452,457,465,472,472,468,474,461,468,484,480,484,479,484,483,481,474,477,482,482,475,471,475,473,474,471,543,537,538,540,543,675,803,896,988,1065,1070,1048,1036,1024,1022,985,969,952,938,918,906,881,867,851,834,817,797,785,767,750,691,677,661,558,547,543,544,546,512,512,511,512,517,521,514,518,515,532,516,516,517,522,524,534,539,525,520,522,534,527,524,525,523,527,523,287,287,288,289,294,311,388,466,518,567,587,578,569,559,549,540,530,520,511,504,493,485,480,467,461,452,439,429,419,384,331,323,315,333,300,295,309,297,235,236,233,235,233,240,233,239,235,240,240,238,242,238,244,242,240,236,235,239,239,243,235,231,236,232,233,622,615,617,613,631,741,943,1071,1158,1235,1255,1211,1183,1146,1162,1141,1118,1107,1078,1046,1033,1030,995,991,944,927,924,904,871,876,755,735,653,634,627,637,637,625,573,576,569,584,598,587,591,606,577,586,587,599,583,576,583,591,579,583,586,599,584,582,584,605,603,607,603,798,831,832,835,844,1167,1370,1500,1557,1598,1653,1582,1603,1574,1535,1465,1494,1481,1442,1384,1350,1315,1277,1305,1285,1258,1183,1201,1077,1065,1041,956,870,833,854,841,854,845,827,835,843,846,840,833,834,848,849,833,835,839,837,845,839,847,845,847,847,857,845,855,853,858,853,854,851,398,383,400,400,411,460,537,620,672,735,762,749,730,725,714,695,688,677,664,652,652,648,620,617,577,568,560,549,539,531,513,502,508,398,412,407,422,422,362,359,364,376,365,369,368,380,364,374,374,383,373,369,375,378,369,371,373,385,376,365,374,388,373,374,371,408,427,410,412,414,534,651,696,759,821,864,826,812,863,776,767,750,737,754,710,697,687,671,685,671,621,624,636,597,575,561,548,543,462,465,414,415,448,422,424,422,425,423,430,424,431,425,425,429,422,423,425,427,430,431,430,427,427,431,448,424,449,425,443,429,696,706,715,700,716,913,1104,1243,1338,1402,1401,1386,1360,1343,1331,1307,1260,1243,1216,1193,1180,1181,1147,1107,1101,1059,1063,1020,934,888,899,870,782,748,728,731,720,661,605,599,603,612,607,609,606,611,608,613,613,610,629,633,632,611,609,608,610,614,603,601,609,608,604,609,602,1087,1109,1091,1132,1174,1721,2015,2303,2364,2418,2369,2312,2317,2264,2215,2183,2162,2071,2051,1981,1964,1918,1850,1806,1784,1732,1654,1620,1580,1470,1215,1217,1184,1156,1117,1102,1128,1110,1128,1117,1129,1141,1123,1121,1145,1189,1154,1152,1148,1150,1157,1158,1155,1169,1168,1168,1145,1142,1167,1171,1149,1166,1153,1164,1159,888,891,893,896,942,1220,1446,1607,1753,1774,1757,1733,1725,1701,1676,1641,1592,1565,1537,1526,1496,1453,1440,1397,1382,1354,1312,1284,1269,1137,1117,1052,936,916,904,923,880,880,829,822,829,840,832,835,832,835,833,838,839,834,846,845,845,836,833,835,835,842,830,827,837,832,831,835,828,0,0,0,0,0,0,0,0,0,0,0,0,0,0,0,0,0,0,0,0,0,0,0,0,0,0,0,0,0,0,0,0,0,0,0,0,0,0,0,0,0,0,0,0,0,0,0,0,0,0,0,0,0,0,0,0,0,0,0,0,0,0,0,0,0,1321,1322,1326,1348,1475,2010,2316,2468,2594,2602,2568,2531,2509,2474,2435,2391,2324,2282,2240,2216,2176,2122,2096,2038,2013,1971,1915,1716,1593,1467,1452,1449,1377,1353,1336,1312,1301,1283,1234,1229,1234,1243,1238,1240,1237,1242,1239,1244,1244,1241,1260,1264,1263,1242,1240,1239,1241,1245,1234,1232,1240,1239,1235,1240,1233,348,349,359,352,352,458,514,600,573,620,708,623,686,603,647,652,627,565,618,607,596,584,517,562,542,532,544,468,506,495,498,468,457,462,443,353,324,355,330,328,327,331,331,331,330,332,325,334,329,328,328,333,336,352,352,334,332,332,352,331,331,332,328,333,330,891,893,896,899,946,1225,1452,1613,1758,1780,1763,1739,1730,1707,1680,1646,1598,1569,1542,1530,1500,1457,1445,1401,1387,1358,1315,1288,1273,1106,1080,1046,938,918,907,925,906,910,849,848,848,869,857,855,863,864,857,869,870,863,878,883,884,866,860,858,863,866,852,854,862,858,853,858,851,867,869,870,890,911,1323,1486,1729,1845,1901,1892,1847,1821,1778,1757,1739,1690,1657,1668,1589,1556,1529,1489,1478,1448,1415,1372,1335,1283,1249,1170,961,922,938,878,899,895,885,881,877,892,895,890,889,897,911,898,906,913,890,908,917,913,912,918,934,902,908,908,918,918,916,894,916,895,445,447,448,450,430,466,664,740,817,894,902,887,873,859,844,829,815,800,786,733,720,743,729,697,700,699,672,657,643,629,614,579,566,467,456,452,453,454,446,434,439,459,441,450,434,444,446,450,481,448,456,446,450,451,479,451,441,456,439,448,441,437,454,447,447,493,498,495,496,500,570,731,814,921,980,1002,992,958,950,943,930,908,885,892,854,831,828,812,796,781,763,748,732,717,648,637,621,579,520,552,500,502,502,470,464,469,480,471,474,475,486,473,479,480,485,479,485,490,483,482,477,481,487,483,469,485,483,477,478,475,790,792,801,801,809,1003,1288,1426,1532,1571,1579,1543,1519,1529,1469,1444,1434,1394,1369,1345,1320,1295,1270,1243,1221,1195,1171,1146,1122,1108,1037,945,921,836,805,801,804,797,782,778,780,781,786,794,789,819,795,792,813,781,789,782,792,792,790,790,788,792,789,788,791,795,788,797,789,586,567,569,588,593,696,882,975,1082,1162,1179,1142,1103,1069,1095,1084,1051,1045,1007,986,957,953,921,923,886,862,871,851,822,825,703,683,631,597,599,591,586,584,532,526,529,541,544,543,542,547,537,542,547,554,545,536,544,551,541,544,547,560,546,544,549,549,549,550,547,810,812,813,815,821,1165,1354,1544,1697,1766,1758,1712,1689,1648,1630,1597,1565,1534,1490,1469,1438,1395,1375,1347,1307,1265,1237,1196,1180,1148,1088,988,864,856,820,822,829,825,819,818,827,837,834,829,839,847,837,834,836,832,829,843,840,845,868,856,832,832,839,841,836,845,833,843,837,496,489,490,486,503,569,732,837,906,984,1010,971,955,921,941,924,905,891,873,837,827,827,797,796,761,740,741,733,700,708,618,598,628,506,499,505,507,508,456,459,452,467,481,466,465,493,459,467,469,482,466,458,465,472,461,464,469,481,466,463,465,495,487,492,487,426,436,450,431,433,566,643,727,800,862,874,849,844,822,822,809,784,766,744,742,726,726,698,684,671,668,636,622,616,602,588,575,525,448,478,433,436,431,425,423,419,427,428,431,428,431,428,432,430,426,432,429,432,441,436,433,433,432,429,432,428,436,429,431,418,481,459,476,477,480,614,706,793,870,946,952,937,921,911,911,870,862,840,834,816,778,786,771,756,741,726,706,697,658,665,646,635,620,495,484,480,481,483,442,447,450,457,453,455,452,459,450,471,451,451,457,460,464,472,473,459,450,459,471,452,454,458,456,460,453,233,234,234,234,235,261,341,381,394,460,477,469,462,454,446,446,431,423,416,409,401,400,386,354,347,339,362,347,339,282,275,269,274,267,261,253,256,256,188,185,182,185,182,197,207,212,182,206,192,183,183,214,213,215,214,210,206,207,213,209,197,190,185,185,182,372,409,375,411,378,485,594,628,683,745,754,752,740,786,707,699,683,710,698,646,634,627,646,599,587,565,569,557,545,524,511,500,500,460,382,378,378,380,384,384,382,383,386,382,384,386,384,382,382,383,387,387,388,388,388,387,387,387,390,407,388,399,387,387,390,270,263,264,265,266,343,389,440,480,524,537,529,520,512,519,495,486,477,468,460,452,443,434,425,416,409,400,391,382,374,365,357,348,339,331,267,267,312,246,241,239,241,249,250,245,241,238,248,253,246,248,250,258,261,262,248,247,255,272,255,245,246,255,247,240,1358,1332,1351,1452,1840,2318,2546,2759,2808,2819,2768,2804,2689,2647,2616,2524,2473,2465,2415,2326,2284,2278,2199,2135,2080,2037,1981,1863,1686,1560,1467,1424,1394,1435,1348,1349,1335,1340,1378,1374,1376,1388,1383,1383,1390,1400,1377,1397,1391,1398,1412,1416,1399,1394,1422,1410,1388,1390,1404,1400,1384,1393,1403,1402,1394,1613,1603,1647,1852,2255,2772,3054,3235,3285,3302,3187,3266,3124,3105,3043,2946,2890,2868,2762,2671,2667,2673,2538,2321,1961,1916,1912,1904,1865,1769,1723,1686,1654,1695,1586,1600,1619,1625,1684,1667,1668,1662,1658,1667,1717,1727,1685,1712,1699,1688,1706,1723,1724,1716,1744,1748,1710,1712,1724,1717,1703,1708,1690,1686,1685,1272,1275,1282,1323,1718,2082,2398,2615,2708,2724,2699,2651,2603,2557,2526,2457,2407,2357,2307,2298,2207,2157,2107,2099,2007,2011,1963,1856,1792,1535,1396,1367,1331,1307,1288,1290,1352,1305,1348,1355,1314,1313,1363,1345,1347,1355,1349,1352,1370,1362,1372,1389,1391,1379,1376,1382,1378,1390,1377,1368,1366,1376,1376,1370,1365,1044,1046,1052,1076,1313,1697,1989,2176,2278,2308,2290,2249,2207,2174,2138,2081,2037,1994,1982,1946,1862,1820,1776,1771,1690,1699,1660,1559,1530,1430,1247,1153,1099,1074,1065,1088,1118,1087,1095,1100,1106,1138,1111,1138,1113,1118,1107,1107,1138,1105,1116,1151,1149,1155,1151,1151,1108,1106,1120,1143,1106,1115,1115,1115,1115,1052,1048,1053,1074,1144,1491,1751,1911,2027,2072,2062,2059,2015,1992,1972,1897,1892,1831,1798,1777,1732,1686,1666,1633,1600,1598,1534,1501,1296,1282,1235,1120,1086,1124,1062,1061,1063,1066,1080,1078,1091,1095,1086,1097,1086,1093,1088,1095,1107,1101,1096,1104,1107,1106,1100,1106,1093,1104,1107,1109,1092,1104,1104,1104,1104,1080,1025,1025,1058,1316,1673,1963,2126,2257,2207,2197,2214,2114,2114,2114,1991,1991,1971,1947,1874,1800,1810,1713,1678,1634,1598,1562,1522,1557,1412,1379,1113,1080,1155,1038,1037,1043,1047,1095,1089,1098,1100,1098,1112,1102,1105,1100,1114,1118,1106,1106,1131,1121,1114,1107,1130,1112,1109,1125,1111,1104,1102,1121,1122,1114,1385,1374,1391,1475,1866,2279,2603,2792,2853,2878,2768,2827,2713,2700,2711,2563,2513,2499,2399,2314,2316,2319,2202,2169,2147,2025,1992,1880,1839,1533,1493,1453,1420,1464,1390,1368,1386,1422,1474,1467,1467,1473,1464,1466,1494,1504,1475,1495,1486,1471,1473,1518,1501,1493,1521,1525,1487,1489,1501,1497,1480,1489,1482,1478,1477,1251,1254,1278,1312,1455,1878,2150,2342,2420,2464,2446,2446,2403,2328,2325,2250,2211,2172,2153,2094,2077,2024,1995,1957,1889,1814,1771,1596,1547,1449,1433,1345,1321,1316,1288,1260,1224,1235,1247,1239,1243,1240,1258,1253,1243,1255,1245,1260,1269,1277,1288,1295,1298,1278,1258,1269,1253,1281,1257,1267,1269,1262,1258,1261,1256,936,903,905,920,1092,1454,1702,1888,2004,1983,1973,1994,1900,1860,1888,1788,1752,1771,1736,1643,1610,1624,1534,1498,1461,1425,1392,1356,1317,1281,1245,989,959,1011,916,915,923,927,965,952,954,955,953,954,1035,1041,959,985,972,958,959,1007,1013,1106,1121,1050,1011,1044,1046,1006,986,986,964,960,964,1482,1504,1550,1756,2572,3060,3379,3535,3610,3653,3604,3471,3395,3325,3242,3260,3096,3014,2938,2908,2785,2715,2648,2563,2390,2375,2227,1974,1784,1718,1650,1592,1542,1545,1519,1547,1541,1552,1690,1688,1688,1754,1699,1746,1696,1714,1698,1714,1713,1705,1714,1716,1720,1792,1807,1720,1707,1709,1715,1789,1713,1708,1700,1782,1697,1184,1160,1163,1217,1491,1917,2207,2365,2456,2443,2419,2438,2328,2289,2317,2195,2186,2169,2141,2032,1991,1998,1896,1857,1807,1769,1728,1679,1648,1342,1267,1247,1215,1304,1173,1155,1157,1157,1195,1194,1195,1203,1198,1197,1203,1215,1191,1209,1205,1200,1206,1227,1210,1204,1232,1224,1196,1198,1215,1208,1190,1197,1208,1207,1199,1288,1336,1327,1353,1763,2130,2457,2667,2754,2781,2743,2694,2647,2600,2549,2498,2447,2409,2385,2337,2302,2194,2142,2135,2093,2057,1973,1869,1807,1462,1458,1416,1343,1320,1360,1315,1366,1331,1373,1357,1353,1356,1376,1387,1383,1385,1380,1382,1391,1382,1382,1399,1392,1397,1394,1389,1388,1397,1391,1385,1389,1383,1383,1383,1383,889,898,922,933,974,1294,1465,1647,1772,1816,1763,1794,1767,1720,1667,1663,1642,1606,1538,1549,1519,1490,1426,1398,1370,1377,1361,1300,1291,1243,1024,960,965,917,941,926,903,905,886,887,885,882,892,886,899,897,900,886,891,889,895,895,902,893,897,918,899,926,924,889,921,887,894,894,882,673,675,677,679,706,888,987,1086,1172,1217,1223,1205,1188,1270,1152,1135,1117,1100,1082,1064,1047,1029,1012,995,977,960,942,925,907,889,872,854,770,670,660,694,657,666,656,659,655,665,670,662,660,666,661,661,662,666,661,664,663,661,666,668,668,664,664,670,670,664,664,664,664,541,543,545,546,557,630,817,913,1009,1083,1090,1072,1054,1038,1020,1003,985,969,951,933,916,885,882,864,847,830,812,795,777,761,656,649,635,619,553,549,551,552,549,544,543,545,560,549,556,561,556,553,555,557,553,561,557,552,557,562,554,554,553,556,556,552,552,552,552,1287,1310,1319,1365,1733,2141,2442,2657,2758,2776,2741,2693,2652,2595,2545,2494,2450,2395,2344,2335,2242,2191,2139,2128,2043,2041,1996,1888,1750,1474,1431,1384,1343,1355,1323,1301,1354,1317,1346,1338,1341,1330,1361,1361,1346,1351,1350,1360,1376,1368,1371,1382,1380,1383,1380,1378,1375,1383,1400,1367,1373,1368,1368,1368,1368,0,0,0,0,0,0,0,0,0,0,0,0,0,0,0,0,0,0,0,0,0,0,0,0,0,0,0,0,0,0,0,0,0,0,0,0,0,0,0,0,0,0,0,0,0,0,0,0,0,0,0,0,0,0,0,0,0,0,0,0,0,0,0,0,0,1465,1436,1441,1572,1996,2491,2728,2921,2997,2976,2952,2954,2839,2794,2774,2684,2647,2612,2583,2483,2436,2434,2328,2277,2225,2117,1977,1793,1668,1616,1585,1523,1485,1534,1451,1443,1427,1435,1476,1469,1470,1483,1480,1478,1487,1495,1472,1496,1492,1502,1496,1513,1496,1488,1521,1507,1486,1484,1502,1497,1482,1491,1501,1500,1492,647,649,651,653,675,862,990,1122,1218,1296,1337,1270,1249,1246,1252,1205,1168,1148,1127,1107,1102,1067,1046,1026,1005,985,964,944,924,904,876,863,842,673,660,666,658,660,644,631,637,644,659,630,635,638,640,658,659,657,655,668,658,646,674,663,656,663,665,663,658,658,657,657,657,719,720,723,726,744,869,1111,1236,1361,1446,1462,1437,1401,1379,1394,1369,1293,1298,1288,1251,1218,1196,1173,1136,1138,1091,1068,1046,1006,1007,959,850,763,745,732,750,765,733,732,734,733,739,738,740,735,745,739,739,735,743,739,745,754,751,750,750,744,744,746,753,748,746,748,748,741,1285,1289,1297,1339,1634,2107,2423,2626,2732,2726,2698,2680,2626,2580,2517,2479,2413,2385,2348,2318,2247,2196,2146,2116,2032,2031,1984,1898,1772,1515,1404,1369,1346,1310,1315,1323,1345,1310,1370,1362,1357,1370,1381,1388,1382,1391,1387,1379,1389,1376,1380,1395,1389,1395,1391,1391,1384,1396,1390,1383,1386,1383,1383,1383,1383,1122,1087,1103,1131,1374,1799,2077,2291,2316,2333,2314,2348,2251,2185,2213,2103,2083,2073,2039,1940,1898,1941,1811,1769,1728,1691,1663,1626,1581,1424,1231,1176,1143,1199,1100,1100,1094,1106,1131,1133,1136,1135,1135,1126,1167,1172,1142,1144,1155,1143,1143,1170,1193,1183,1181,1137,1173,1162,1187,1186,1157,1172,1150,1146,1145,1584,1591,1665,1841,2557,2955,3263,3466,3552,3504,3430,3428,3371,3287,3219,3153,3111,3019,2954,2873,2817,2741,2683,2613,2290,2258,2117,1912,1868,1809,1782,1692,1642,1617,1598,1638,1630,1629,1699,1683,1675,1711,1761,1739,1720,1753,1748,1800,1777,1755,1796,1759,1800,1792,1760,1712,1755,1737,1731,1760,1744,1783,1783,1783,1749,1000,991,971,993,1173,1574,1834,2017,2130,2107,2095,2114,2018,1976,2003,1900,1862,1879,1881,1786,1713,1725,1633,1596,1557,1519,1483,1478,1404,1367,1293,1055,1025,1119,981,981,989,992,1027,1026,1028,1029,1027,1027,1054,1031,1033,1051,1046,1035,1035,1045,1051,1043,1058,1059,1053,1038,1044,1056,1052,1045,1038,1034,1033,601,603,604,607,623,810,916,1024,1131,1203,1175,1188,1169,1149,1101,1111,1092,1073,1053,1035,1015,996,976,958,938,919,899,881,861,842,823,804,642,610,613,594,612,593,587,584,584,599,586,592,586,595,591,583,593,585,584,599,593,599,595,595,588,600,594,587,590,587,587,587,587,1028,985,988,1012,1257,1605,1886,2050,2182,2138,2125,2143,2048,2006,2047,1929,1925,1906,1883,1774,1739,1751,1658,1620,1581,1542,1507,1468,1454,1388,1349,1124,1041,1136,999,998,1000,1004,1024,1023,1038,1048,1032,1042,1031,1044,1034,1051,1049,1044,1045,1055,1056,1048,1058,1062,1042,1044,1056,1052,1035,1044,1049,1053,1045,1040,1043,1046,1064,1231,1676,1965,2161,2264,2294,2277,2236,2196,2179,2118,2069,2025,1982,1963,1937,1853,1810,1767,1762,1719,1692,1676,1552,1461,1361,1179,1143,1094,1070,1062,1078,1113,1102,1110,1106,1106,1108,1107,1108,1122,1133,1112,1122,1123,1110,1113,1139,1133,1139,1135,1135,1123,1121,1134,1127,1121,1127,1127,1127,1127,1322,1300,1323,1395,1794,2225,2486,2681,2740,2768,2719,2751,2608,2596,2550,2461,2413,2401,2355,2271,2226,2227,2159,2080,2032,1985,1940,1929,1889,1671,1430,1390,1358,1401,1325,1316,1325,1335,1383,1374,1375,1378,1371,1374,1410,1433,1382,1408,1399,1383,1393,1422,1426,1432,1444,1445,1426,1428,1428,1418,1413,1406,1393,1389,1388,1346,1377,1397,1454,1857,2266,2561,2771,2871,2885,2849,2799,2758,2703,2648,2597,2551,2488,2441,2436,2344,2286,2230,2225,2138,2133,2077,1963,1767,1546,1504,1462,1419,1414,1403,1325,1373,1335,1361,1361,1355,1351,1379,1383,1367,1372,1370,1385,1396,1389,1390,1400,1399,1403,1403,1396,1394,1404,1402,1395,1392,1388,1388,1388,1388,1252,1279,1275,1308,1616,2055,2382,2590,2683,2712,2675,2628,2595,2535,2486,2449,2387,2336,2325,2279,2231,2153,2088,2081,2018,2008,1947,1841,1784,1424,1395,1359,1307,1299,1305,1277,1325,1291,1321,1298,1302,1308,1325,1338,1324,1332,1329,1328,1336,1329,1330,1343,1338,1341,1339,1338,1331,1343,1338,1331,1336,1332,1332,1332,1332,1358,1332,1351,1452,1840,2318,2546,2759,2808,2819,2768,2804,2689,2647,2616,2524,2473,2465,2415,2326,2284,2278,2199,2135,2080,2037,1981,1863,1686,1560,1467,1424,1394,1435,1348,1349,1335,1340,1378,1374,1376,1388,1383,1383,1390,1400,1377,1397,1391,1398,1412,1416,1399,1394,1422,1410,1388,1390,1404,1400,1384,1393,1403,1402,1394,163,163,164,164,165,209,237,265,292,321,336,331,325,320,314,309,337,332,292,287,282,277,271,266,260,255,249,244,238,233,228,223,217,236,229,165,166,166,161,160,161,162,160,213,162,205,159,163,162,161,161,162,162,163,162,163,163,166,206,204,162,161,160,161,160,338,339,340,342,342,432,503,558,614,668,687,676,665,654,643,632,621,610,599,589,578,567,556,545,534,523,512,501,490,479,468,457,446,348,347,343,344,345,303,303,305,305,305,306,306,306,306,307,307,307,308,308,308,309,309,309,309,309,309,309,310,310,310,309,309,732,733,740,738,741,947,1126,1317,1400,1428,1474,1425,1402,1369,1351,1325,1317,1280,1279,1262,1235,1212,1191,1164,1134,1111,1087,1061,1013,998,927,793,775,773,741,743,745,748,716,722,719,728,747,731,725,728,724,735,731,748,724,725,726,755,732,727,731,731,725,732,726,750,727,730,725,689,678,680,698,715,810,1045,1192,1289,1322,1387,1309,1287,1265,1247,1221,1205,1183,1196,1175,1140,1128,1092,1074,1065,1030,1005,987,954,856,906,760,730,689,676,703,691,660,655,657,661,659,649,676,664,673,664,670,669,666,659,658,669,673,672,673,670,672,672,678,666,662,668,675,654,631,641,643,650,652,745,954,1103,1200,1264,1269,1256,1237,1219,1197,1172,1158,1129,1087,1067,1051,1031,1004,984,972,950,931,911,892,768,808,750,736,690,650,648,650,589,567,560,564,568,566,574,568,577,573,578,576,586,586,587,574,568,572,572,576,573,566,568,572,574,573,570,569,437,438,456,458,480,557,629,702,859,875,864,902,853,872,792,795,828,814,771,767,743,755,676,727,712,673,683,668,654,623,602,588,574,573,446,460,461,485,445,449,452,462,449,459,452,462,459,450,459,448,456,452,455,461,452,455,452,465,457,452,455,465,455,461,453,396,396,397,399,400,388,535,661,657,783,826,708,697,686,675,730,652,641,630,619,608,596,585,574,563,552,540,529,518,507,544,532,387,378,369,444,402,403,381,383,382,386,391,391,397,400,389,393,391,400,398,391,390,392,390,390,391,393,386,387,386,390,391,390,381,458,460,460,463,465,539,649,755,851,913,934,915,900,878,869,840,835,824,776,763,765,750,734,720,691,676,664,648,651,508,597,568,486,481,468,467,468,425,374,376,374,375,396,389,395,396,384,396,388,385,387,379,381,392,390,378,391,380,381,388,387,396,388,389,385,533,534,536,535,539,653,792,885,966,1056,1078,1052,1036,1024,1002,984,968,950,939,913,905,893,867,855,831,819,797,781,755,746,729,681,664,633,541,536,542,539,514,517,516,519,538,539,529,558,530,539,541,535,532,522,527,539,533,522,544,531,522,531,538,534,535,538,532,625,654,624,651,646,880,950,1077,1168,1274,1249,1277,1216,1189,1221,1186,1136,1116,1148,1102,1082,1037,1049,1021,1024,949,929,909,897,777,855,829,729,650,633,630,631,633,633,633,635,635,635,636,636,636,636,637,637,637,638,638,638,639,639,639,639,639,639,639,640,640,640,639,639,343,344,345,346,347,455,515,576,636,688,698,687,676,665,654,643,631,620,609,580,587,576,565,553,542,531,520,509,498,487,475,464,453,442,352,348,350,351,332,333,340,350,335,344,336,345,348,338,347,339,341,342,341,348,344,345,344,348,344,344,347,370,371,374,365,490,491,493,495,497,631,741,848,931,991,998,968,966,939,935,920,909,894,873,863,842,828,804,797,763,765,740,680,666,652,683,533,543,505,499,497,499,501,470,475,467,476,497,482,477,481,474,481,478,499,473,474,479,500,482,495,482,477,477,481,479,514,478,480,476,908,910,935,929,963,1225,1451,1632,1763,1795,1805,1777,1748,1715,1690,1659,1627,1608,1553,1515,1493,1465,1444,1422,1380,1360,1337,1218,1204,1120,1120,999,991,974,922,933,914,851,829,821,825,829,827,835,829,838,834,839,837,847,847,848,836,830,833,833,837,834,827,829,833,835,834,831,830,1290,1294,1301,1358,1528,2065,2445,2679,2778,2742,2745,2667,2638,2513,2554,2469,2420,2399,2348,2289,2231,2206,2129,2117,2042,2001,1933,1863,1618,1500,1471,1404,1337,1325,1298,1341,1324,1333,1336,1340,1347,1334,1343,1352,1349,1372,1364,1356,1369,1369,1366,1368,1382,1374,1360,1363,1360,1373,1389,1370,1380,1388,1370,1377,1373,1109,1113,1117,1127,1201,1452,1818,2042,2138,2182,2177,2137,2111,2100,2064,2008,1974,1947,1886,1837,1804,1781,1748,1713,1679,1633,1601,1567,1469,1348,1277,1236,1170,1150,1143,1109,1088,1075,1051,1047,1053,1054,1053,1061,1053,1063,1059,1065,1061,1070,1063,1071,1061,1054,1060,1058,1064,1061,1053,1057,1057,1062,1060,1057,1056,305,305,318,319,328,294,445,455,503,538,620,553,543,534,525,517,508,499,529,520,510,501,492,482,462,464,455,446,436,427,422,415,297,290,283,330,331,331,289,291,292,294,293,293,292,294,295,294,294,293,295,297,295,297,298,294,294,293,298,301,295,296,295,297,295,1340,1347,1354,1427,1805,2135,2521,2674,2759,2803,2778,2737,2679,2629,2580,2526,2481,2431,2386,2335,2295,2255,2175,2137,2088,2033,1992,1898,1685,1508,1473,1431,1417,1391,1367,1367,1374,1394,1363,1366,1365,1368,1391,1394,1378,1382,1379,1403,1390,1392,1414,1371,1376,1388,1382,1371,1431,1380,1371,1402,1387,1391,1395,1387,1382,0,0,0,0,0,0,0,0,0,0,0,0,0,0,0,0,0,0,0,0,0,0,0,0,0,0,0,0,0,0,0,0,0,0,0,0,0,0,0,0,0,0,0,0,0,0,0,0,0,0,0,0,0,0,0,0,0,0,0,0,0,0,0,0,0,1112,1116,1120,1130,1225,1457,1825,2049,2144,2188,2183,2143,2117,2105,2069,2013,1978,1952,1890,1842,1808,1786,1752,1718,1682,1636,1605,1570,1413,1316,1236,1213,1189,1153,1146,1128,1118,1095,1078,1066,1082,1079,1073,1092,1082,1087,1090,1096,1090,1102,1099,1096,1091,1081,1083,1086,1089,1083,1080,1082,1083,1084,1083,1080,1079,1069,1072,1096,1090,1168,1612,1921,2161,2252,2254,2279,2170,2131,2104,2075,2057,2038,1988,1963,1921,1876,1842,1786,1758,1717,1661,1623,1596,1552,1463,1265,1176,1112,1112,1078,1098,1099,1105,1086,1091,1065,1069,1110,1083,1091,1103,1088,1099,1127,1116,1091,1099,1105,1120,1094,1111,1103,1116,1100,1104,1099,1123,1105,1088,1084,602,603,605,608,611,760,914,1070,1148,1205,1208,1173,1170,1139,1133,1115,1097,1081,1055,1044,1025,1003,985,966,928,932,896,872,873,854,840,745,693,673,611,611,612,613,592,603,597,608,611,612,605,612,599,609,609,631,603,606,610,640,611,609,615,609,611,612,612,632,602,615,606,445,447,448,450,454,603,684,763,843,895,903,887,872,859,844,829,864,800,786,755,759,744,729,715,700,686,672,657,643,628,614,599,586,554,455,452,453,455,451,445,449,450,456,452,452,451,457,455,455,456,475,457,479,458,477,478,458,478,458,455,477,492,474,457,451,590,592,594,595,601,769,891,992,1094,1163,1179,1160,1141,1123,1104,1085,1067,1048,1029,1012,993,974,955,937,918,899,881,862,843,826,807,788,689,614,632,598,601,602,566,566,568,568,568,569,569,569,569,570,570,570,571,571,571,572,572,572,572,572,572,572,573,573,573,572,572,496,497,499,500,502,609,735,821,907,985,1009,996,968,958,936,919,904,888,877,861,845,834,811,801,786,765,759,728,712,696,678,631,624,534,508,504,505,507,472,475,474,477,504,491,487,496,488,501,499,505,514,480,485,497,491,480,505,489,480,489,496,498,502,496,491,1013,1014,1018,1022,1067,1459,1748,2017,2066,2118,2143,2038,2000,1948,1949,1894,1853,1854,1835,1799,1752,1713,1674,1647,1604,1548,1526,1470,1450,1381,1199,1164,1035,1034,1018,1029,1035,1042,1015,1021,1014,1009,1050,1026,1040,1050,1025,1034,1033,1038,1028,1032,1045,1051,1042,1032,1042,1035,1074,1049,1036,1064,1029,1035,1031,432,433,434,450,440,540,639,713,810,891,876,862,848,834,803,806,792,778,781,733,737,722,686,694,680,690,652,639,624,636,609,565,551,539,419,439,440,441,421,424,423,426,442,438,436,442,437,439,438,441,441,429,434,444,439,429,446,438,429,442,444,448,439,441,440,646,634,666,664,676,735,962,1111,1200,1238,1307,1217,1208,1189,1170,1148,1133,1112,1128,1097,1063,1053,1020,1036,1005,963,949,924,882,785,858,691,662,642,630,678,644,639,626,632,635,647,645,649,634,649,635,649,641,635,644,648,651,658,655,650,653,647,642,647,646,648,638,644,629,311,320,322,360,360,293,405,514,498,618,629,547,539,530,521,579,503,496,487,478,469,460,452,443,434,425,416,408,399,390,431,421,297,290,283,372,373,373,297,299,290,293,298,298,306,307,297,299,299,307,304,297,297,299,300,299,298,299,293,295,292,297,298,295,288,243,244,245,246,246,316,359,402,444,486,499,491,484,475,467,459,452,443,435,427,419,411,403,396,387,379,371,364,355,347,339,331,323,315,252,247,248,249,234,235,236,243,242,237,236,238,239,242,248,245,246,245,245,251,243,242,243,243,242,243,242,243,243,246,243,454,456,457,459,461,579,682,780,855,915,923,894,893,869,866,852,843,823,809,800,781,767,753,738,706,715,687,663,624,611,643,495,504,492,463,461,463,464,427,434,435,446,453,438,433,437,432,437,434,452,429,429,434,457,438,434,436,436,432,440,433,453,431,438,433,163,163,164,164,165,209,237,265,292,321,336,331,325,320,314,309,337,332,292,287,282,277,271,266,260,255,249,244,238,233,228,223,217,236,229,165,166,166,161,160,161,162,160,213,162,205,159,163,162,161,161,162,162,163,162,163,163,166,206,204,162,161,160,161,160,1024,1029,1031,1062,1140,1521,1796,1920,2039,2030,2044,2025,1962,1926,1899,1871,1870,1798,1843,1734,1703,1673,1631,1609,1573,1520,1506,1490,1349,1155,1141,1122,1119,1053,1053,1041,1016,998,997,1002,993,1003,1002,1016,999,1011,1010,1018,1001,1005,1010,1032,1011,992,1014,1009,1005,1010,1000,1003,1011,1009,1004,1007,999,1376,1360,1374,1391,1657,2213,2415,2559,2625,2644,2637,2590,2534,2529,2451,2413,2384,2343,2392,2254,2216,2191,2147,2103,2067,1955,1928,1788,1538,1522,1481,1493,1424,1400,1381,1354,1371,1344,1343,1336,1343,1351,1346,1361,1347,1358,1355,1358,1350,1350,1345,1350,1355,1340,1353,1356,1348,1355,1344,1341,1349,1349,1342,1348,1340,992,994,997,1003,1130,1432,1658,1989,2075,2103,2087,2052,2014,1978,1940,1904,1866,1829,1792,1755,1717,1680,1636,1606,1570,1551,1509,1463,1446,1399,1111,1083,1053,1022,1010,1017,1022,1026,1001,1003,1009,1005,1020,1011,1015,1031,1013,1020,1030,1017,1031,1028,1044,1036,1086,1038,1031,1031,1031,1019,1020,1015,1029,1051,1008,723,777,731,731,771,1045,1178,1314,1415,1456,1449,1426,1410,1387,1364,1340,1316,1293,1370,1247,1224,1200,1177,1153,1130,1102,1079,1094,1037,1014,991,987,893,753,741,738,740,742,742,738,738,751,765,793,756,765,774,777,780,777,775,777,772,775,766,767,769,779,761,770,775,795,774,781,794,517,518,530,522,531,709,804,898,988,1069,1045,1028,1012,994,977,961,972,941,1013,894,877,873,844,828,810,794,777,818,744,728,710,694,645,540,536,524,526,528,524,525,518,525,524,538,523,532,531,538,525,527,520,526,532,513,526,529,525,529,519,521,529,529,522,529,521,932,947,937,940,976,1355,1556,1706,1797,1854,1854,1832,1791,1763,1738,1728,1677,1647,1618,1588,1557,1527,1498,1485,1438,1408,1399,1369,1325,1203,1221,1099,984,965,949,945,916,915,903,907,910,913,905,910,914,926,919,925,918,914,928,921,927,930,928,928,936,927,924,927,933,957,930,952,947,1297,1281,1308,1352,1549,2024,2285,2450,2553,2527,2530,2478,2443,2389,2359,2333,2324,2243,2267,2167,2127,2088,2038,2005,1962,1892,1839,1705,1496,1456,1423,1380,1375,1329,1296,1318,1288,1269,1265,1272,1270,1278,1275,1291,1275,1286,1286,1293,1275,1283,1273,1284,1293,1270,1290,1286,1281,1292,1280,1285,1292,1292,1285,1288,1280,721,724,726,729,765,1028,1194,1311,1404,1445,1467,1423,1400,1377,1354,1331,1306,1283,1336,1237,1214,1191,1168,1145,1122,1098,1094,1086,1029,1006,999,902,833,747,747,732,738,717,709,711,703,714,716,726,716,720,723,729,715,719,710,719,724,704,717,720,717,722,708,711,719,719,712,718,710,919,936,940,946,1042,1336,1537,1689,1799,1834,1834,1848,1777,1749,1718,1710,1659,1631,1600,1571,1541,1511,1482,1469,1420,1392,1382,1358,1327,1266,1046,1009,1017,954,941,948,901,900,888,892,895,898,890,895,899,911,904,910,903,899,913,906,912,915,913,913,921,912,909,912,918,942,915,937,932,1497,1502,1535,1634,1869,2425,2694,2993,3039,3086,3043,3031,2917,2881,2830,2760,2707,2665,2603,2564,2499,2450,2411,2354,2194,2189,1829,1950,1731,1704,1661,1607,1563,1544,1528,1541,1540,1558,1517,1518,1511,1524,1517,1521,1524,1522,1519,1518,1526,1523,1519,1531,1522,1524,1522,1527,1531,1534,1540,1540,1540,1560,1540,1539,1538,870,887,877,880,941,1253,1439,1586,1680,1738,1740,1717,1685,1657,1629,1617,1573,1546,1517,1489,1461,1434,1395,1369,1343,1317,1310,1271,1217,1189,1141,1099,921,903,889,885,875,864,851,856,859,867,858,864,865,880,882,881,877,873,887,880,884,886,885,883,893,885,881,883,883,903,891,900,897,1016,1019,1030,1029,1085,1486,1705,2037,2123,2188,2134,2164,2058,2021,1984,1945,1908,1869,1831,1794,1756,1721,1680,1659,1605,1586,1543,1496,1459,1170,1265,1108,1096,1093,1035,1042,1046,1079,1035,1028,1035,1030,1035,1039,1029,1046,1033,1030,1038,1038,1035,1038,1039,1037,1037,1040,1036,1041,1037,1033,1037,1038,1036,1035,1034,485,486,487,519,495,656,744,889,976,1082,1029,1013,997,982,965,950,933,918,902,841,920,854,845,822,852,790,775,759,699,684,668,691,521,509,497,522,493,495,497,493,497,501,501,493,504,504,499,500,502,501,505,501,504,506,506,507,503,504,504,506,504,502,504,507,504,625,627,628,630,632,824,941,1031,1117,1197,1184,1168,1154,1133,1115,1097,1081,1063,1046,1028,1020,1003,985,959,941,925,907,824,798,783,768,688,674,648,637,633,634,617,586,597,598,607,606,601,608,614,598,606,605,611,614,623,621,644,630,606,611,621,623,601,614,616,607,641,606,203,203,204,205,205,258,290,324,357,389,412,405,399,392,386,379,372,366,360,354,347,341,334,327,321,314,308,302,295,289,282,276,269,262,256,206,253,253,171,168,171,174,170,174,173,176,175,173,176,172,173,171,172,174,173,173,171,172,171,171,173,173,173,174,174,910,914,917,920,1013,1327,1520,1686,1764,1801,1800,1772,1731,1722,1675,1662,1635,1606,1680,1546,1519,1498,1468,1439,1408,1375,1339,1350,1288,1259,1171,1070,959,945,927,924,940,907,906,901,897,911,907,922,918,914,921,921,905,912,906,915,926,905,914,914,909,914,911,903,911,911,904,910,902,505,507,509,511,514,691,780,867,953,1014,1025,1003,986,971,954,938,928,906,889,879,858,841,825,808,796,776,760,744,728,711,696,679,663,529,517,534,561,516,479,475,477,478,484,490,506,507,487,506,490,485,485,483,480,489,487,486,508,484,481,488,486,514,489,488,487,1110,1116,1120,1147,1262,1669,1970,2090,2204,2193,2204,2181,2116,2082,2049,2020,2016,1941,1984,1873,1839,1807,1761,1735,1697,1646,1609,1537,1391,1296,1230,1189,1206,1141,1140,1129,1110,1090,1092,1100,1088,1097,1097,1113,1094,1108,1105,1113,1100,1106,1104,1108,1108,1089,1108,1108,1102,1108,1094,1101,1108,1107,1102,1105,1097,0,0,0,0,0,0,0,0,0,0,0,0,0,0,0,0,0,0,0,0,0,0,0,0,0,0,0,0,0,0,0,0,0,0,0,0,0,0,0,0,0,0,0,0,0,0,0,0,0,0,0,0,0,0,0,0,0,0,0,0,0,0,0,0,0,491,493,494,495,479,531,730,835,913,974,989,973,937,922,907,892,876,882,865,831,816,817,804,788,773,734,718,725,711,689,632,619,600,523,494,490,491,480,457,456,459,463,470,469,462,458,465,464,467,459,462,463,464,460,462,468,462,465,458,462,466,466,472,481,460,1000,1017,1012,994,1071,1476,1716,2014,2082,2129,2112,2057,2060,2024,1952,1925,1889,1848,1834,1792,1697,1699,1676,1633,1596,1563,1529,1499,1451,1425,1114,1116,1067,1049,1018,1038,1031,1041,1025,1016,1015,1024,1035,1035,1030,1037,1031,1031,1035,1036,1034,1036,1035,1034,1034,1037,1035,1037,1036,1032,1035,1035,1036,1035,1034,799,815,805,813,848,1135,1296,1441,1534,1596,1601,1577,1551,1525,1499,1495,1448,1423,1397,1370,1345,1319,1294,1284,1241,1216,1211,1187,1107,1081,1058,1038,850,830,828,812,787,786,774,778,781,786,778,783,787,799,792,799,792,788,802,795,801,804,802,803,811,802,799,802,808,832,806,828,823,1608,1614,1648,1712,2119,2708,2906,3035,3094,3106,3086,3035,2973,2958,2877,2840,2793,2742,2800,2641,2599,2424,2064,2252,1983,1925,1931,1903,1804,1783,1737,1747,1663,1656,1641,1617,1633,1607,1606,1599,1606,1614,1609,1624,1610,1621,1618,1621,1613,1613,1608,1613,1618,1603,1616,1619,1611,1618,1607,1604,1612,1612,1605,1611,1603,890,906,896,912,1016,1284,1477,1627,1714,1775,1777,1747,1721,1693,1664,1656,1607,1579,1548,1521,1493,1463,1434,1423,1376,1349,1339,1315,1265,1218,1162,978,941,922,909,917,873,872,860,864,867,870,862,867,871,883,876,882,875,871,885,878,884,887,885,885,893,884,881,884,890,914,887,909,904,266,266,267,268,269,346,391,436,481,525,539,531,522,513,504,497,488,479,470,463,454,445,436,429,420,411,402,394,386,377,369,360,352,343,274,270,270,271,240,233,234,234,239,239,234,241,235,235,239,240,238,240,239,238,238,241,239,241,240,236,239,239,240,239,238,970,985,976,987,1086,1424,1644,1790,1874,1934,1940,1906,1863,1839,1818,1796,1755,1713,1692,1652,1620,1589,1559,1544,1502,1464,1455,1415,1359,1100,1184,1095,1028,1010,989,985,948,946,932,935,942,943,936,941,945,956,953,958,949,948,961,954,955,962,961,961,970,957,954,957,965,986,958,980,975,764,771,773,775,800,1084,1238,1395,1495,1534,1526,1503,1485,1461,1436,1411,1386,1362,1413,1314,1290,1264,1240,1215,1190,1161,1138,1151,1094,977,951,947,827,796,784,789,755,757,757,753,753,765,779,779,771,777,773,774,779,780,778,780,779,778,778,781,779,781,776,776,779,779,780,779,778,1234,1241,1245,1295,1453,1907,2215,2334,2440,2426,2418,2395,2336,2287,2240,2206,2223,2144,2166,2070,2032,1973,1937,1917,1877,1821,1799,1776,1613,1390,1359,1317,1319,1266,1266,1242,1218,1204,1204,1217,1206,1212,1213,1232,1210,1224,1221,1228,1215,1221,1213,1222,1227,1204,1220,1223,1218,1217,1210,1218,1225,1225,1215,1218,1210,1034,1037,1052,1060,1156,1561,1758,1932,2024,2042,2033,2002,1956,1961,1894,1878,1845,1813,1885,1747,1722,1703,1671,1625,1597,1569,1513,1519,1453,1389,1149,1125,1098,1079,1067,1061,1028,1001,993,996,990,996,1002,1015,1004,1015,1009,1021,1005,1006,1000,1002,1019,994,1005,1006,1009,1007,998,1005,1013,1013,1006,1012,1004,992,983,985,990,1041,1411,1633,1963,2063,2109,2063,2069,1990,1955,1932,1880,1844,1821,1771,1734,1698,1664,1618,1591,1551,1533,1492,1446,1434,1379,1160,1071,1057,1038,1018,1006,1008,1026,983,976,976,979,983,985,980,985,981,979,984,983,982,986,983,983,981,985,983,984,984,980,983,985,985,984,983,1024,1029,1031,1062,1140,1521,1796,1920,2039,2030,2044,2025,1962,1926,1899,1871,1870,1798,1843,1734,1703,1673,1631,1609,1573,1520,1506,1490,1349,1155,1141,1122,1119,1053,1053,1041,1016,998,997,1002,993,1003,1002,1016,999,1011,1010,1018,1001,1005,1010,1032,1011,992,1014,1009,1005,1010,1000,1003,1011,1009,1004,1007,999,1155,1159,1189,1192,1368,1817,2091,2279,2386,2411,2448,2350,2307,2265,2278,2230,2146,2102,2060,2076,1978,1988,1893,1851,1810,1810,1733,1656,1556,1430,1312,1244,1213,1188,1175,1175,1147,1154,1158,1174,1186,1182,1175,1185,1180,1190,1198,1203,1201,1195,1203,1211,1204,1203,1204,1212,1200,1197,1203,1215,1194,1202,1190,1200,1200,1335,1346,1355,1443,1657,2203,2462,2638,2729,2747,2739,2676,2676,2592,2566,2488,2442,2394,2384,2301,2255,2208,2169,2114,2068,2043,1943,1894,1755,1500,1462,1424,1393,1369,1367,1343,1321,1324,1326,1329,1334,1328,1339,1348,1337,1355,1348,1349,1355,1349,1357,1357,1357,1360,1350,1358,1365,1355,1349,1361,1368,1359,1356,1355,1353,904,906,909,924,1019,1364,1581,1784,1900,1932,1921,1887,1853,1819,1785,1751,1717,1683,1648,1614,1580,1546,1512,1478,1444,1426,1376,1342,1307,1273,1226,986,958,934,919,918,924,928,945,921,932,930,963,960,940,940,944,954,982,978,980,981,989,975,975,974,965,983,998,987,975,973,985,966,966,684,686,690,692,764,926,1168,1333,1459,1530,1497,1469,1478,1423,1388,1358,1367,1304,1279,1252,1225,1197,1171,1163,1123,1090,1062,1035,1008,981,915,890,804,713,699,698,702,705,697,698,693,703,731,736,708,702,706,714,713,707,714,711,713,713,740,713,710,715,706,718,723,762,742,714,712,829,832,827,836,876,1072,1347,1515,1587,1656,1639,1612,1586,1578,1534,1508,1481,1455,1428,1403,1377,1350,1324,1334,1272,1246,1219,1193,1181,1140,1115,981,869,865,837,842,837,855,849,850,851,855,859,856,865,862,862,873,873,874,868,868,860,873,871,870,867,872,865,868,858,890,873,913,857,1208,1213,1217,1247,1322,1815,2091,2260,2386,2416,2395,2333,2294,2280,2220,2203,2149,2111,2073,2033,1994,1957,1917,1880,1842,1803,1784,1734,1551,1528,1371,1290,1267,1243,1241,1228,1193,1200,1212,1213,1214,1226,1218,1225,1215,1231,1209,1218,1217,1220,1219,1249,1229,1226,1225,1227,1230,1221,1260,1258,1217,1226,1217,1223,1218,1427,1434,1455,1507,1718,2346,2628,2791,2895,2912,2883,2830,2725,2734,2727,2657,2599,2541,2496,2451,2346,2364,2296,2245,2081,2037,1998,1699,1672,1696,1592,1520,1490,1465,1452,1421,1405,1408,1410,1413,1418,1412,1423,1432,1421,1439,1432,1433,1439,1433,1441,1441,1441,1444,1434,1442,1449,1439,1433,1445,1452,1443,1440,1439,1437,1047,1034,1052,1060,1111,1428,1763,1930,2018,2024,2055,1997,1965,1932,1899,1867,1855,1822,1795,1739,1730,1673,1658,1645,1575,1563,1529,1496,1445,1347,1206,1117,1076,1069,1063,1055,1013,1016,1026,1035,1031,1039,1045,1037,1042,1051,1053,1048,1065,1043,1045,1055,1051,1058,1056,1062,1060,1061,1055,1051,1048,1078,1062,1084,1046,1095,1099,1104,1112,1371,1597,1904,2205,2366,2396,2379,2316,2302,2247,2200,2162,2115,2077,2032,2035,1939,1895,1851,1805,1762,1719,1674,1637,1587,1558,1357,1192,1157,1130,1147,1112,1124,1126,1127,1115,1119,1121,1127,1131,1137,1140,1140,1145,1149,1154,1152,1148,1147,1159,1152,1155,1145,1155,1153,1154,1154,1185,1152,1188,1179,1426,1433,1446,1575,1831,2368,2609,2796,2867,2903,2876,2819,2840,2721,2719,2622,2574,2524,2572,2423,2392,2318,2323,2222,2185,2195,1980,1918,1812,1603,1538,1504,1467,1455,1443,1441,1441,1443,1437,1453,1449,1475,1445,1461,1473,1461,1460,1457,1472,1460,1481,1469,1483,1477,1471,1478,1476,1482,1487,1480,1493,1530,1485,1493,1474,1148,1151,1156,1184,1292,1713,1973,2141,2269,2302,2285,2225,2189,2174,2115,2100,2043,2012,1974,1940,1902,1864,1827,1791,1754,1717,1658,1607,1493,1465,1282,1231,1205,1181,1183,1165,1152,1148,1161,1162,1168,1160,1172,1176,1166,1185,1172,1174,1176,1179,1178,1208,1186,1182,1180,1187,1182,1180,1196,1206,1181,1186,1173,1179,1174,945,948,933,967,1048,1439,1645,1834,1949,1995,1967,1933,1979,1863,1898,1794,1772,1737,1779,1654,1619,1585,1604,1530,1480,1501,1410,1376,1319,1287,1068,1011,982,958,945,944,962,953,955,963,973,981,978,975,967,978,974,969,977,975,990,1007,1010,990,986,995,984,994,986,973,979,977,977,985,966,770,773,775,780,829,1030,1259,1402,1498,1603,1554,1594,1491,1466,1442,1417,1392,1408,1343,1318,1294,1269,1245,1221,1196,1171,1157,1148,1097,1072,1018,994,817,798,785,782,784,786,787,783,785,792,781,790,787,791,794,835,793,797,800,798,802,844,801,803,801,802,804,802,800,804,799,811,801,547,549,550,552,554,610,782,892,956,1026,1043,1028,1014,999,1036,968,953,939,922,907,893,877,862,847,832,816,801,715,700,686,672,594,582,569,558,555,556,538,504,495,500,513,510,502,513,520,509,514,522,529,537,535,533,543,516,510,518,536,530,520,528,540,530,531,523,319,321,322,323,324,333,462,515,568,617,647,638,628,617,607,597,586,576,566,555,545,535,525,514,504,495,484,474,464,453,443,433,422,412,329,324,325,326,315,315,320,333,325,320,327,352,321,321,327,333,344,337,340,342,318,322,326,341,332,318,327,353,326,327,326,926,929,932,963,1041,1405,1631,1836,1945,1978,1966,1930,1904,1868,1832,1789,1755,1719,1690,1653,1618,1585,1555,1513,1478,1444,1408,1372,1337,1308,1247,1022,993,957,955,979,933,941,944,950,947,950,954,966,951,971,963,970,966,968,972,974,975,1001,966,971,983,972,964,992,977,989,972,971,971,567,569,571,572,576,681,850,950,1047,1125,1140,1134,1117,1085,1068,1049,1031,1013,995,977,959,941,922,905,886,869,850,842,831,805,787,760,682,634,579,576,577,573,558,564,557,572,579,581,572,588,568,577,581,578,574,579,582,586,583,578,589,580,584,584,581,588,576,584,583,1159,1156,1176,1195,1402,1820,2088,2319,2367,2402,2384,2337,2317,2304,2232,2183,2123,2081,2052,2009,1977,1927,1908,1868,1801,1818,1718,1595,1431,1397,1284,1289,1220,1201,1182,1187,1147,1150,1152,1155,1160,1154,1165,1174,1163,1181,1174,1175,1181,1175,1183,1183,1183,1186,1176,1184,1191,1181,1175,1187,1194,1185,1182,1181,1179,388,390,391,392,394,517,583,650,716,768,779,767,755,743,731,719,706,694,682,669,657,645,633,621,609,597,585,573,561,547,535,523,418,408,398,395,396,396,387,387,395,397,407,402,391,391,395,406,389,393,399,391,395,403,389,391,391,391,394,394,389,395,394,401,389,0,0,0,0,0,0,0,0,0,0,0,0,0,0,0,0,0,0,0,0,0,0,0,0,0,0,0,0,0,0,0,0,0,0,0,0,0,0,0,0,0,0,0,0,0,0,0,0,0,0,0,0,0,0,0,0,0,0,0,0,0,0,0,0,0,922,910,936,970,1008,1439,1632,1791,1951,1982,1970,1936,1940,1824,1817,1796,1761,1705,1654,1641,1622,1575,1533,1460,1464,1430,1381,1360,1349,1309,1250,1191,985,947,911,945,951,955,959,951,959,967,955,966,962,967,978,983,970,977,974,990,983,987,984,984,975,979,987,982,980,988,972,986,986,1076,1079,1087,1123,1210,1596,1828,1999,2131,2164,2151,2092,2061,2046,1989,1977,1923,1909,1855,1841,1787,1753,1718,1685,1650,1616,1600,1516,1482,1410,1185,1157,1130,1110,1107,1094,1064,1071,1083,1084,1087,1099,1091,1098,1088,1104,1082,1092,1091,1094,1093,1123,1103,1100,1099,1102,1105,1096,1135,1133,1092,1101,1093,1099,1094,1625,1605,1682,1864,2037,2736,2964,3163,3227,3242,3184,3149,3109,3022,2989,2924,2868,2808,2776,2722,2664,2587,2387,2273,2008,2053,1912,1880,1917,1851,1752,1715,1688,1657,1638,1606,1584,1587,1589,1592,1597,1591,1602,1611,1600,1618,1611,1612,1618,1612,1620,1620,1620,1623,1613,1621,1628,1618,1612,1624,1631,1622,1619,1618,1616,1161,1164,1170,1184,1283,1760,2014,2179,2308,2338,2322,2260,2225,2209,2148,2133,2079,2063,2005,1987,1931,1893,1857,1820,1783,1744,1727,1675,1640,1469,1280,1250,1223,1196,1213,1178,1150,1157,1169,1170,1171,1183,1175,1182,1172,1188,1166,1175,1174,1177,1176,1206,1186,1183,1182,1184,1187,1178,1217,1215,1174,1183,1174,1180,1175,265,266,267,268,269,334,391,437,482,528,543,534,525,517,508,500,491,482,474,465,456,447,438,430,421,413,404,396,387,378,369,360,352,342,333,270,328,329,261,257,261,261,259,267,263,273,269,264,312,261,263,262,262,266,266,264,262,264,263,262,263,265,264,291,267,1176,1181,1187,1203,1272,1744,2071,2337,2468,2492,2478,2405,2365,2349,2295,2279,2215,2185,2137,2096,2056,2018,1973,1924,1878,1862,1786,1747,1557,1486,1402,1275,1240,1233,1237,1189,1201,1204,1213,1202,1203,1208,1219,1208,1224,1227,1223,1231,1227,1236,1245,1239,1240,1247,1244,1239,1239,1248,1247,1246,1246,1254,1245,1251,1246,680,682,684,686,758,844,1155,1319,1445,1515,1482,1455,1456,1468,1375,1348,1347,1294,1268,1240,1214,1188,1160,1157,1106,1080,1053,1076,999,973,846,822,799,708,693,692,696,700,712,702,701,701,699,706,707,710,705,706,706,703,707,704,708,707,741,712,706,707,711,733,705,757,710,729,727,1358,1365,1369,1453,1707,2224,2497,2681,2755,2782,2733,2711,2661,2626,2577,2491,2465,2407,2370,2320,2260,2241,2193,2150,2089,1943,2004,1878,1737,1639,1525,1457,1419,1388,1375,1373,1320,1323,1325,1328,1333,1327,1338,1347,1336,1354,1347,1348,1354,1348,1356,1356,1356,1359,1349,1357,1364,1354,1348,1360,1367,1358,1355,1354,1352,986,988,1016,1044,1148,1514,1759,1958,2063,2092,2079,2038,2017,1978,1941,1897,1858,1822,1786,1751,1715,1686,1656,1616,1569,1539,1503,1464,1420,1357,1225,1097,1071,1036,1023,1026,957,960,962,965,970,964,975,984,973,991,984,985,991,985,993,993,993,996,986,994,1001,991,985,997,1004,995,992,991,989,904,894,897,929,1003,1372,1557,1758,1875,1908,1897,1863,1910,1810,1798,1729,1695,1662,1675,1595,1560,1526,1518,1475,1426,1414,1359,1340,1291,1258,1213,1069,946,937,908,907,910,911,903,911,914,930,925,924,918,924,925,918,923,920,937,947,936,936,930,941,934,940,938,925,936,925,930,938,919,1155,1159,1189,1192,1368,1817,2091,2279,2386,2411,2448,2350,2307,2265,2278,2230,2146,2102,2060,2076,1978,1988,1893,1851,1810,1810,1733,1656,1556,1430,1312,1244,1213,1188,1175,1175,1147,1154,1158,1174,1186,1182,1175,1185,1180,1190,1198,1203,1201,1195,1203,1211,1204,1203,1204,1212,1200,1197,1203,1215,1194,1202,1190,1200,1200,627,630,631,633,656,770,939,1049,1195,1258,1265,1245,1224,1203,1184,1163,1144,1136,1101,1082,1073,1051,1026,1008,998,969,949,920,900,890,791,780,710,654,641,639,639,627,583,588,584,588,595,591,590,594,594,590,592,592,593,593,593,597,591,597,594,601,597,598,595,600,596,594,592,781,783,785,788,808,1023,1200,1365,1497,1560,1570,1548,1522,1495,1458,1434,1409,1395,1359,1345,1310,1284,1270,1244,1219,1194,1169,1126,1109,1055,995,925,827,832,812,793,795,773,736,735,730,734,741,737,736,740,740,736,738,738,739,739,739,743,737,743,740,747,743,744,741,746,746,740,738,209,210,211,211,212,265,301,336,371,407,430,423,416,409,402,396,389,381,375,368,361,354,347,341,334,326,320,313,306,299,292,286,279,271,265,213,214,214,198,266,207,269,197,197,197,205,210,271,195,195,198,197,309,198,211,193,202,207,208,194,216,215,195,209,202,522,523,523,526,530,674,789,881,974,1043,1054,1038,1021,1004,987,971,949,937,925,903,886,869,852,836,818,801,785,767,751,734,717,700,683,572,537,530,531,531,518,520,517,522,524,520,526,529,529,524,524,524,529,527,531,526,536,523,526,525,528,531,531,558,524,529,525,693,696,699,698,718,900,1090,1169,1326,1382,1389,1367,1356,1325,1304,1277,1259,1237,1214,1192,1164,1144,1122,1103,1078,1056,1033,1011,989,967,812,755,765,719,707,703,706,645,609,618,615,628,614,622,620,625,627,629,625,645,650,648,631,630,625,627,632,628,629,627,628,631,631,632,633,856,853,856,865,903,1148,1367,1519,1666,1657,1663,1639,1653,1595,1595,1573,1522,1521,1495,1442,1413,1400,1385,1335,1321,1292,1269,1245,1191,1120,1077,941,918,899,873,874,881,856,800,802,799,816,824,813,809,814,817,819,821,821,822,822,822,826,820,823,823,830,826,822,819,822,824,817,815,878,889,891,893,944,1178,1406,1532,1709,1724,1730,1704,1709,1622,1610,1624,1587,1541,1513,1512,1458,1421,1415,1373,1371,1342,1284,1160,1135,1099,1037,995,961,922,876,882,895,857,820,819,814,818,825,821,820,824,824,820,822,822,823,823,823,827,821,827,824,831,827,828,825,830,830,824,822,657,648,650,658,679,730,992,1082,1251,1287,1297,1281,1254,1235,1216,1213,1174,1151,1132,1110,1107,1067,1049,1046,1029,1008,987,875,826,808,790,771,707,686,668,671,673,616,585,587,581,591,587,593,587,593,590,589,593,594,598,593,594,600,596,595,591,599,604,596,590,607,592,591,587,985,991,986,999,1064,1344,1589,1766,1912,1910,1903,1876,1881,1823,1819,1802,1723,1732,1686,1655,1622,1589,1583,1527,1514,1472,1448,1428,1291,1261,1097,1066,1037,1020,1006,1004,997,952,915,914,909,913,920,916,915,919,919,915,917,917,918,918,918,922,916,922,919,926,922,923,920,925,925,919,917,763,766,768,770,821,1068,1250,1369,1467,1521,1520,1496,1472,1448,1423,1399,1374,1350,1327,1302,1277,1253,1229,1204,1179,1157,1119,1116,1093,1068,1036,1018,835,795,799,795,798,767,750,757,763,787,763,767,760,763,757,754,764,764,761,764,765,800,767,769,764,769,821,771,834,833,766,840,769,746,766,767,756,797,970,1143,1255,1417,1476,1469,1455,1434,1404,1385,1359,1332,1313,1291,1280,1238,1243,1202,1162,1157,1126,1106,1076,1066,1020,972,802,801,771,781,770,762,741,704,703,698,702,709,705,704,708,708,704,706,706,707,707,707,711,705,711,708,715,711,712,709,714,714,708,706,295,295,296,298,299,346,427,477,543,590,603,595,584,574,565,554,546,536,525,516,508,498,488,478,469,459,449,440,430,421,365,357,348,340,332,323,330,330,268,268,271,275,275,275,273,275,270,280,276,278,273,274,280,284,277,276,281,278,276,277,281,281,275,277,276,971,973,993,991,1047,1378,1627,1742,1889,1930,1935,1902,1900,1860,1823,1771,1748,1711,1677,1657,1613,1597,1544,1528,1507,1449,1431,1358,1286,1279,1107,1071,1049,1026,1001,999,969,907,871,879,876,889,875,883,881,886,888,890,886,906,911,909,893,892,886,888,893,889,890,888,889,892,892,893,894,1059,1061,1064,1087,1151,1691,1988,2207,2268,2294,2308,2288,2223,2159,2137,2114,2051,1989,1984,1904,1879,1818,1793,1745,1690,1664,1621,1586,1550,1426,1198,1198,1093,1089,1056,1070,1095,1090,1084,1083,1081,1082,1088,1091,1085,1088,1088,1091,1088,1097,1108,1109,1091,1095,1093,1086,1089,1090,1095,1108,1095,1108,1106,1108,1095,890,896,905,909,998,1314,1555,1747,1880,1914,1914,1879,1850,1811,1757,1740,1707,1672,1633,1607,1565,1551,1495,1464,1435,1399,1365,1333,1296,1265,1226,1010,952,922,914,914,908,912,906,906,901,916,922,918,918,922,922,925,922,931,942,943,925,929,927,920,923,924,929,933,929,924,940,932,926,372,374,375,376,378,407,537,599,678,739,758,746,734,721,710,697,686,672,660,650,636,624,613,601,589,577,565,553,541,531,517,504,403,393,383,378,380,381,348,352,348,355,354,359,351,358,354,351,353,354,350,355,354,360,355,360,356,360,361,361,356,396,354,357,354,1264,1271,1278,1339,1566,2069,2305,2483,2599,2620,2609,2561,2519,2470,2413,2377,2336,2285,2254,2204,2156,2128,2055,2024,1981,1930,1884,1838,1694,1469,1440,1366,1328,1301,1290,1263,1252,1259,1252,1247,1260,1263,1269,1269,1266,1269,1269,1272,1269,1278,1289,1290,1272,1276,1274,1267,1270,1271,1276,1288,1276,1277,1287,1288,1276,597,599,601,609,622,663,920,977,1111,1175,1241,1167,1148,1148,1112,1093,1125,1064,1037,1018,998,979,971,944,926,908,889,877,875,841,781,680,721,675,613,606,608,599,562,561,556,560,567,563,562,566,566,562,564,564,565,565,565,569,563,569,566,573,569,570,567,572,572,566,564,1018,1027,1030,1046,1185,1540,1806,1991,2121,2150,2146,2108,2074,2033,1983,1956,1917,1880,1845,1810,1768,1747,1685,1655,1619,1581,1476,1438,1403,1366,1325,1109,1079,1054,1042,1041,1046,1036,1032,1028,1034,1040,1046,1045,1043,1046,1046,1048,1046,1055,1066,1067,1049,1053,1051,1044,1047,1048,1053,1061,1050,1052,1064,1058,1052,815,818,840,848,887,1249,1482,1664,1745,1786,1788,1759,1724,1734,1648,1643,1610,1579,1533,1514,1520,1450,1448,1385,1356,1342,1306,1271,1236,1194,1145,1051,889,843,854,850,837,842,832,836,840,855,848,861,842,852,846,842,853,861,864,870,864,868,860,859,862,863,868,873,868,864,879,873,860,0,0,0,0,0,0,0,0,0,0,0,0,0,0,0,0,0,0,0,0,0,0,0,0,0,0,0,0,0,0,0,0,0,0,0,0,0,0,0,0,0,0,0,0,0,0,0,0,0,0,0,0,0,0,0,0,0,0,0,0,0,0,0,0,0,862,861,863,867,905,1125,1346,1508,1657,1722,1697,1680,1662,1639,1618,1567,1541,1515,1489,1466,1440,1409,1388,1355,1335,1307,1280,1251,1169,1149,1045,970,923,891,875,868,875,849,812,811,806,810,817,813,812,816,816,812,814,814,815,815,815,819,813,819,816,823,819,820,817,822,822,816,814,1058,1061,1065,1064,1127,1458,1705,1867,2047,2062,2044,2028,1988,1978,1945,1912,1888,1824,1795,1760,1725,1696,1662,1617,1592,1559,1532,1475,1341,1276,1146,1134,1106,1087,1066,1060,1079,1036,999,998,993,997,1004,1000,999,1003,1003,999,1001,1001,1002,1002,1002,1006,1000,1006,1003,1010,1006,1007,1004,1009,1009,1003,1001,939,943,955,962,1027,1290,1517,1683,1833,1827,1823,1799,1814,1754,1751,1727,1667,1669,1627,1582,1548,1533,1515,1469,1451,1419,1394,1367,1304,1211,1140,1028,1000,986,966,959,954,911,874,873,868,872,879,875,874,878,878,874,876,876,877,877,877,881,875,881,878,885,881,882,879,884,884,878,876,753,761,763,766,799,1086,1291,1471,1609,1647,1652,1622,1596,1562,1520,1501,1471,1442,1411,1384,1351,1333,1281,1261,1230,1201,1171,1140,1111,1081,1042,1020,810,786,774,772,776,781,775,771,779,785,791,786,785,791,791,793,791,800,811,812,794,798,796,789,792,793,798,801,793,791,809,799,793,861,857,859,871,908,1133,1347,1515,1669,1668,1675,1651,1660,1606,1606,1582,1518,1523,1479,1452,1423,1394,1388,1344,1328,1300,1277,1252,1197,1126,1110,940,909,892,879,876,880,835,798,797,792,796,803,799,798,802,802,798,800,800,801,801,801,805,799,805,802,809,805,806,803,808,808,802,800,515,517,518,520,529,652,759,844,929,996,1010,995,979,970,948,932,917,902,891,870,854,839,823,807,792,776,774,757,741,724,708,660,645,539,527,523,524,521,510,516,515,509,522,529,516,515,517,528,531,533,538,528,521,529,532,525,520,528,520,528,524,525,533,528,514,793,804,807,788,852,1046,1271,1366,1541,1604,1557,1582,1556,1472,1495,1454,1444,1417,1362,1375,1324,1290,1284,1246,1246,1218,1191,1124,1041,1124,1012,919,862,830,792,799,829,772,735,734,729,733,740,736,735,739,739,735,737,737,738,738,738,742,736,742,739,746,742,743,740,745,745,739,737,431,434,435,435,448,507,641,714,804,865,880,868,852,838,825,811,796,781,768,753,739,725,715,701,694,681,658,652,637,623,598,514,502,532,459,449,450,409,372,371,366,370,377,373,372,376,376,372,374,374,375,375,375,379,373,379,376,383,379,380,377,382,382,376,374,203,204,205,206,206,210,291,323,358,391,414,408,401,396,389,382,376,369,363,356,349,343,336,330,323,316,310,303,297,290,283,277,270,239,213,207,207,207,189,184,184,187,193,193,190,191,191,196,190,201,199,203,196,223,195,188,191,193,223,207,202,231,197,203,198,627,630,631,633,656,770,939,1049,1195,1258,1265,1245,1224,1203,1184,1163,1144,1136,1101,1082,1073,1051,1026,1008,998,969,949,920,900,890,791,780,710,654,641,639,639,627,583,588,584,588,595,591,590,594,594,590,592,592,593,593,593,597,591,597,594,601,597,598,595,600,596,594,592,380,381,383,384,385,416,558,642,709,768,777,762,748,738,727,712,700,688,675,663,651,639,625,613,600,589,576,562,551,539,526,514,446,435,390,387,387,388,338,336,344,348,337,346,342,347,342,342,343,340,341,340,350,377,340,341,344,340,341,338,340,341,337,342,341,758,768,755,773,778,969,1152,1376,1484,1537,1509,1478,1480,1445,1432,1397,1383,1349,1335,1296,1265,1261,1240,1205,1177,1144,1136,1100,1082,1046,928,869,835,793,776,778,774,747,714,712,722,724,720,727,726,735,726,726,727,724,724,725,722,734,732,726,728,721,720,722,724,729,719,739,725,809,813,816,818,835,1111,1257,1403,1581,1616,1623,1603,1564,1536,1511,1485,1459,1434,1421,1381,1356,1344,1304,1279,1252,1227,1212,1186,1149,1124,898,1007,892,836,824,821,824,851,802,807,803,822,818,810,815,843,815,850,863,834,821,821,810,817,817,866,808,812,802,812,808,807,810,812,797,692,690,691,698,693,891,1061,1182,1325,1368,1374,1344,1323,1300,1280,1258,1239,1224,1202,1186,1161,1152,1111,1100,1073,1047,1025,998,980,954,899,788,729,720,700,697,699,675,630,631,636,640,640,642,640,641,638,639,638,640,641,649,646,643,642,643,643,641,644,646,644,641,640,644,642,416,417,419,420,424,550,621,696,771,814,837,822,813,801,788,784,762,749,735,722,711,697,684,671,657,643,630,617,606,589,579,562,548,441,458,427,424,433,384,385,387,389,391,391,391,390,390,392,391,392,394,407,399,397,396,397,399,397,402,401,400,398,395,399,397,239,239,240,239,240,310,349,390,431,471,485,477,469,462,455,447,440,432,424,416,409,401,393,386,378,370,363,355,347,339,332,324,316,306,301,294,295,295,269,228,229,229,228,230,230,231,229,230,231,228,230,230,230,229,234,232,231,230,231,232,230,235,234,235,235,651,654,656,635,659,813,977,1130,1238,1305,1305,1281,1260,1241,1219,1202,1179,1157,1136,1119,1098,1077,1052,1037,1015,947,973,904,933,907,878,838,705,713,668,662,630,661,610,607,612,618,614,621,615,622,618,617,619,615,615,618,613,619,622,619,620,617,617,620,620,623,618,625,622,214,215,216,216,216,275,310,347,383,420,438,433,424,418,411,404,397,390,383,377,369,363,355,348,341,334,327,319,313,305,299,291,284,278,221,217,218,218,197,195,198,203,204,204,203,203,202,202,205,206,207,234,211,207,201,204,208,201,198,209,203,202,199,208,201,273,274,275,276,294,350,397,442,489,535,558,550,540,531,522,513,504,496,487,478,469,460,451,442,433,424,415,407,398,389,380,371,363,353,302,295,296,297,250,243,252,261,258,256,247,249,255,263,260,258,261,264,263,265,263,261,250,262,253,254,245,260,253,263,250,1057,1077,1070,1060,1102,1415,1670,1963,2052,2079,2091,2011,2012,1993,1939,1902,1878,1844,1826,1777,1751,1736,1691,1661,1603,1561,1532,1403,1459,1284,1234,1169,1104,1073,1063,1059,1071,1075,1039,1038,1048,1054,1050,1057,1056,1071,1056,1055,1057,1054,1054,1055,1052,1068,1067,1056,1058,1051,1050,1052,1054,1059,1049,1069,1055,178,179,179,180,180,228,259,289,320,349,370,359,353,347,342,336,330,324,319,312,306,301,295,289,283,278,271,266,260,255,248,243,237,231,225,180,181,181,170,172,172,174,174,174,174,173,172,174,174,174,229,233,232,178,175,174,177,177,178,174,177,175,172,173,173,701,703,713,707,738,939,1135,1261,1364,1400,1408,1388,1362,1342,1330,1297,1274,1252,1245,1212,1183,1163,1137,1115,1080,1057,1047,1013,1004,987,959,773,745,736,726,711,714,715,685,695,699,716,715,716,699,732,694,724,717,736,707,710,735,743,714,716,719,735,721,715,709,724,697,706,702,550,551,550,582,568,633,828,922,1013,1117,1112,1094,1079,1046,1029,1012,994,1006,949,943,951,926,919,866,856,870,850,806,782,801,757,755,627,611,579,553,575,551,524,524,526,541,537,529,532,547,537,532,546,546,559,558,571,579,528,528,539,536,532,535,535,532,531,534,534,1237,1240,1248,1281,1381,1899,2118,2288,2395,2468,2501,2416,2379,2340,2331,2293,2241,2186,2175,2127,2084,2046,1996,1960,1854,1818,1782,1718,1502,1399,1361,1370,1289,1276,1261,1239,1247,1253,1259,1247,1257,1274,1289,1250,1252,1257,1282,1290,1291,1290,1290,1291,1290,1292,1290,1290,1290,1290,1289,1290,1284,1290,1290,1290,1289,848,851,854,857,890,1173,1361,1499,1603,1655,1665,1625,1600,1593,1549,1527,1498,1485,1459,1422,1397,1371,1346,1321,1294,1269,1251,1218,1202,1127,1068,916,893,879,883,861,839,824,813,805,812,819,821,818,822,814,822,836,822,815,835,830,827,814,811,837,820,843,814,815,861,817,816,815,807,429,430,431,442,446,556,662,733,807,865,872,859,845,829,816,802,788,774,761,746,732,718,704,690,677,661,648,634,621,611,598,583,464,459,456,439,446,441,400,404,405,413,409,417,407,439,410,421,421,436,409,410,417,458,413,415,418,436,418,411,413,419,405,412,408,1040,1042,1045,1053,1129,1574,1831,2053,2191,2239,2218,2179,2139,2097,2057,2013,1971,1937,1897,1856,1816,1798,1756,1716,1655,1614,1575,1531,1439,1401,1156,1166,1091,1068,1061,1058,1064,1070,1079,1064,1066,1071,1077,1080,1088,1088,1079,1086,1087,1082,1085,1087,1086,1088,1086,1086,1086,1086,1086,1086,1086,1086,1083,1086,1078,466,468,468,471,471,531,688,798,878,940,946,927,911,896,886,867,852,837,822,807,792,777,766,748,732,717,702,687,635,621,608,595,540,488,477,473,475,476,432,428,439,446,432,440,437,444,437,439,438,435,440,441,454,443,437,438,438,439,438,436,434,439,434,440,439,794,796,799,804,832,1081,1221,1363,1492,1582,1581,1556,1531,1507,1485,1469,1444,1419,1381,1356,1331,1306,1281,1256,1230,1206,1181,1156,1130,1106,940,864,843,824,809,806,808,810,790,792,783,782,800,803,803,812,803,802,805,802,801,805,800,809,807,806,807,806,803,805,802,809,798,810,807,1089,1091,1115,1107,1212,1696,1924,2085,2207,2275,2257,2226,2185,2147,2105,2091,2049,2010,1998,1909,1906,1861,1829,1778,1767,1728,1694,1623,1574,1414,1319,1203,1188,1117,1127,1109,1114,1121,1079,1085,1094,1094,1097,1101,1086,1096,1106,1114,1109,1106,1110,1121,1116,1116,1116,1113,1110,1110,1110,1131,1120,1114,1123,1128,1123,778,759,783,772,796,1041,1252,1397,1476,1562,1560,1535,1511,1464,1459,1435,1412,1345,1342,1334,1308,1260,1258,1206,1196,1182,1137,1132,1109,1052,1029,830,828,828,797,790,770,775,753,761,771,779,773,763,761,793,778,791,780,807,770,776,784,817,777,774,790,788,784,766,763,788,768,770,766,0,0,0,0,0,0,0,0,0,0,0,0,0,0,0,0,0,0,0,0,0,0,0,0,0,0,0,0,0,0,0,0,0,0,0,0,0,0,0,0,0,0,0,0,0,0,0,0,0,0,0,0,0,0,0,0,0,0,0,0,0,0,0,0,0,1014,1021,1012,1005,1072,1357,1601,1878,1976,2009,1985,1955,1947,1898,1876,1840,1813,1772,1751,1707,1671,1655,1623,1580,1548,1485,1486,1420,1423,1273,1199,1107,1069,1042,1032,1029,1015,1010,971,972,983,984,983,990,989,1000,989,994,990,987,987,988,985,999,998,989,991,984,983,985,987,992,982,1002,988,197,197,198,198,198,253,287,320,354,387,402,396,389,383,377,370,364,357,350,345,338,332,325,319,312,306,300,293,287,280,273,268,261,255,203,199,200,200,188,181,189,198,195,193,184,186,193,201,197,195,198,234,234,237,235,198,187,199,189,190,182,195,190,205,187,929,934,935,947,1011,1301,1472,1647,1770,1855,1845,1817,1787,1757,1731,1726,1684,1640,1625,1581,1552,1522,1492,1464,1434,1404,1375,1346,1316,1286,1064,1039,981,960,945,943,925,927,918,911,921,935,932,933,928,937,937,942,939,930,946,962,949,931,930,945,923,949,931,930,928,934,932,932,923,282,283,284,284,286,367,416,464,517,564,578,574,546,538,540,530,521,512,493,493,484,475,466,456,438,438,430,411,402,401,392,383,366,363,356,286,287,281,254,252,253,253,254,261,256,263,263,256,272,257,257,259,257,262,254,257,259,260,260,254,254,257,257,259,255,648,649,652,655,658,821,975,1089,1248,1304,1317,1291,1279,1238,1227,1195,1177,1156,1134,1114,1100,1082,1050,1029,1019,988,977,957,926,905,832,771,781,673,661,657,659,655,626,630,625,635,639,635,639,635,638,638,634,638,643,650,640,641,642,646,642,639,631,638,640,633,643,636,618,590,579,593,595,596,727,880,1017,1117,1186,1189,1167,1147,1104,1092,1094,1059,1030,1010,1017,999,957,960,943,900,882,885,855,847,812,801,727,704,654,594,599,601,588,540,542,551,563,550,555,553,563,553,555,554,550,555,556,553,557,556,553,550,554,554,545,550,556,551,558,552,494,498,501,498,500,606,773,857,943,998,1002,987,972,954,938,922,906,890,874,857,841,825,815,792,777,759,744,728,675,703,644,626,611,544,516,502,503,483,443,449,452,462,458,461,451,483,447,470,462,487,452,455,466,487,461,460,466,479,464,459,460,469,449,454,450,671,667,677,671,682,885,1067,1186,1288,1325,1335,1316,1293,1273,1252,1241,1200,1187,1167,1150,1122,1089,1080,1059,1025,1003,994,962,953,930,861,842,708,700,675,675,677,679,634,641,644,653,650,653,645,672,644,666,658,680,653,656,669,692,664,665,671,682,671,667,668,679,658,667,663,380,381,383,384,385,416,558,642,709,768,777,762,748,738,727,712,700,688,675,663,651,639,625,613,600,589,576,562,551,539,526,514,446,435,390,387,387,388,338,336,344,348,337,346,342,347,342,342,343,340,341,340,350,377,340,341,344,340,341,338,340,341,337,342,341,664,666,668,670,673,928,1046,1157,1265,1324,1323,1307,1287,1261,1241,1213,1191,1180,1152,1136,1112,1095,1074,1045,1030,1010,988,967,946,925,902,883,764,692,679,674,678,657,609,612,610,612,619,621,655,647,619,621,620,650,622,637,622,632,622,624,620,623,619,622,619,619,621,620,608,402,403,404,406,407,541,610,679,748,808,818,805,792,778,765,753,740,727,713,700,687,674,662,648,635,621,608,596,582,570,556,543,529,423,414,409,411,412,387,389,388,394,402,402,404,412,395,434,405,409,397,412,398,404,397,398,405,412,398,404,400,436,400,396,394,1230,1240,1257,1281,1341,1905,2149,2299,2409,2440,2423,2387,2367,2300,2287,2220,2174,2171,2105,2042,2040,1998,1969,1930,1867,1812,1779,1705,1530,1380,1360,1332,1305,1282,1269,1246,1248,1252,1216,1232,1231,1243,1228,1224,1240,1237,1239,1254,1227,1224,1229,1243,1248,1235,1246,1234,1242,1243,1238,1231,1252,1254,1227,1240,1232,1166,1178,1183,1224,1296,1815,2045,2188,2275,2317,2336,2286,2248,2202,2172,2120,2075,2025,2009,1960,1937,1903,1872,1840,1790,1752,1674,1619,1542,1313,1314,1256,1233,1246,1228,1173,1162,1169,1130,1135,1151,1156,1158,1158,1189,1158,1162,1184,1151,1137,1148,1174,1157,1158,1177,1164,1144,1141,1155,1154,1140,1154,1155,1157,1138,1142,1135,1150,1159,1207,1806,1967,2134,2223,2263,2249,2227,2164,2160,2098,2056,2046,1994,1966,1932,1894,1857,1823,1772,1733,1717,1655,1571,1432,1398,1269,1243,1200,1240,1163,1133,1084,1104,1046,1056,1058,1063,1065,1079,1094,1074,1066,1074,1074,1087,1072,1086,1066,1079,1072,1077,1079,1076,1072,1073,1071,1069,1069,1070,1058,887,887,889,896,908,1308,1473,1631,1728,1767,1761,1740,1716,1681,1648,1621,1592,1564,1541,1511,1479,1453,1424,1393,1368,1339,1312,1279,1251,1227,1197,1110,949,911,900,900,903,934,855,860,867,894,867,880,877,870,865,860,873,870,863,898,874,884,870,881,879,890,891,877,877,902,863,874,868,541,535,537,539,554,734,831,950,1027,1069,1074,1063,1040,1023,1006,968,972,960,943,920,903,886,874,852,834,822,800,767,756,750,737,722,684,546,566,541,543,543,538,540,542,549,547,543,547,544,547,547,546,549,550,603,588,555,548,547,553,551,548,544,549,549,549,548,549,967,955,970,979,1004,1447,1599,1770,1867,1904,1881,1902,1823,1829,1775,1771,1736,1686,1676,1647,1603,1584,1555,1519,1466,1461,1392,1311,1215,1218,1112,1049,1021,1032,989,983,919,897,844,853,855,860,860,870,888,878,863,870,871,879,865,884,864,872,872,870,872,874,869,876,868,867,867,868,856,924,927,926,933,952,1373,1544,1704,1801,1839,1828,1810,1785,1747,1705,1685,1656,1626,1602,1572,1537,1501,1480,1452,1422,1394,1368,1335,1305,1117,1089,1059,986,953,941,938,941,977,901,900,904,913,915,913,928,911,917,920,921,926,935,955,936,946,928,928,923,942,925,912,934,911,919,922,905,539,546,549,544,555,743,843,942,1049,1084,1087,1070,1054,1037,1019,1004,984,966,949,932,915,897,891,862,844,828,816,793,775,757,740,724,706,558,551,547,556,549,540,542,540,548,546,549,548,554,549,552,549,548,554,552,554,556,556,554,556,557,555,547,556,559,563,565,562,888,890,893,896,915,1314,1477,1628,1732,1774,1768,1742,1715,1693,1663,1635,1595,1560,1543,1520,1492,1462,1425,1404,1375,1347,1318,1290,1260,1228,1162,1082,945,926,906,901,907,848,797,799,793,798,811,812,841,821,811,815,815,835,814,829,811,827,815,819,821,815,818,817,812,814,815,818,806,1005,1011,1012,1017,1048,1469,1658,1828,1972,2007,1975,1950,1933,1883,1875,1834,1807,1778,1749,1711,1673,1638,1610,1567,1543,1472,1432,1412,1380,1300,1146,1081,1058,1036,1023,1023,1002,1005,964,980,978,997,979,976,991,989,986,1005,975,973,980,994,995,1002,1009,980,989,991,992,983,1002,1006,978,991,983,1412,1411,1428,1473,1697,2341,2525,2665,2755,2775,2743,2731,2650,2632,2572,2519,2481,2441,2423,2363,2322,2279,2249,2163,2127,2018,1670,1679,1641,1610,1563,1545,1485,1514,1440,1395,1346,1365,1307,1317,1319,1324,1326,1340,1355,1335,1327,1335,1335,1348,1333,1348,1328,1340,1333,1338,1340,1337,1333,1334,1332,1330,1330,1331,1319,1703,1737,1807,1959,2641,3309,3498,3580,3677,3693,3616,3591,3493,3422,3374,3301,3231,3163,3091,2971,2845,2760,2595,2568,2362,2260,2164,2072,2008,1953,1901,1832,1813,1781,1786,1746,1759,1788,1807,1824,1806,1848,1814,1845,1854,1883,1843,1860,1865,1848,1857,1883,1866,1859,1850,1853,1877,1880,1884,1886,1855,1879,1863,1870,1864,1618,1635,1649,1738,1957,2745,2898,3050,3127,3155,3126,3095,3015,2977,2902,2848,2817,2765,2716,2686,2623,2411,2396,2036,1964,2052,1885,1899,1838,1809,1773,1742,1689,1705,1628,1598,1570,1583,1533,1545,1542,1550,1552,1562,1580,1560,1553,1559,1561,1574,1560,1573,1552,1567,1558,1566,1567,1563,1561,1558,1559,1556,1556,1557,1545,784,786,792,798,819,1151,1291,1415,1528,1574,1582,1557,1521,1490,1475,1445,1405,1399,1370,1345,1320,1294,1276,1250,1220,1194,1187,1144,1122,895,874,854,833,892,848,799,801,803,769,770,766,805,792,774,794,792,777,791,793,792,793,799,772,781,780,790,774,774,768,771,770,771,781,775,754,1502,1530,1563,1687,2420,3077,3327,3451,3499,3514,3459,3408,3364,3290,3228,3165,3104,3040,2983,2920,2841,2789,2695,2576,2509,2300,1940,1878,1795,1753,1703,1633,1667,1579,1601,1554,1575,1601,1683,1684,1681,1691,1712,1749,1701,1734,1729,1759,1776,1743,1724,1737,1726,1779,1715,1726,1739,1734,1718,1800,1735,1797,1732,1797,1785,544,545,547,549,551,752,847,940,1034,1098,1103,1088,1068,1050,1032,1015,997,980,962,944,927,909,891,873,855,838,820,803,785,767,698,682,585,648,558,553,556,558,505,509,508,512,546,550,545,540,528,549,536,533,542,537,520,543,530,519,543,520,518,550,537,543,541,536,524,1621,1638,1651,1742,1963,2750,2904,3056,3132,3161,3131,3100,3019,2981,2907,2852,2823,2770,2721,2690,2463,2103,2400,2040,1968,2028,1888,1902,1841,1812,1776,1746,1692,1718,1654,1628,1590,1609,1552,1572,1567,1570,1579,1586,1604,1588,1580,1588,1587,1600,1585,1600,1579,1590,1586,1590,1589,1587,1583,1584,1581,1579,1579,1580,1568,1564,1578,1601,1850,2199,2753,2991,3100,3168,3192,3172,3136,3022,3014,2979,2903,2854,2789,2736,2658,2625,2559,2533,2393,2241,2192,1927,1836,1818,1790,1719,1674,1639,1637,1625,1608,1604,1610,1559,1573,1573,1616,1571,1598,1598,1607,1618,1618,1593,1599,1606,1623,1613,1618,1607,1619,1612,1614,1612,1608,1613,1614,1586,1599,1591,1121,1119,1111,1132,1282,1593,1875,2009,2129,2211,2181,2095,2084,2046,2026,2016,1953,1930,1878,1866,1813,1786,1763,1721,1703,1657,1610,1570,1489,1354,1256,1173,1157,1151,1118,1115,1121,1120,1094,1110,1110,1122,1107,1107,1116,1117,1117,1123,1106,1103,1111,1129,1119,1116,1122,1112,1123,1122,1120,1117,1124,1140,1108,1121,1113,990,985,982,989,1031,1474,1676,1835,1913,1970,1962,1932,1890,1879,1815,1789,1757,1735,1696,1678,1632,1624,1567,1541,1527,1479,1463,1431,1399,1297,1185,1053,1042,1022,1010,994,974,955,910,915,915,919,921,925,950,929,922,927,928,944,929,944,947,934,926,934,930,940,928,931,933,921,929,926,914,0,0,0,0,0,0,0,0,0,0,0,0,0,0,0,0,0,0,0,0,0,0,0,0,0,0,0,0,0,0,0,0,0,0,0,0,0,0,0,0,0,0,0,0,0,0,0,0,0,0,0,0,0,0,0,0,0,0,0,0,0,0,0,0,0,887,890,889,896,911,1310,1475,1633,1731,1789,1819,1787,1719,1683,1651,1622,1595,1566,1542,1523,1480,1453,1425,1397,1369,1341,1312,1284,1256,1227,1067,958,949,915,903,900,903,934,861,873,876,892,896,896,908,900,892,893,894,901,894,911,895,905,900,898,898,901,898,902,901,904,911,906,894,1496,1501,1528,1646,2012,2611,2853,2964,3031,3061,3042,3002,2897,2889,2851,2752,2701,2645,2608,2545,2493,2449,2382,2246,2050,2055,1826,1767,1718,1696,1634,1596,1572,1568,1559,1548,1528,1543,1505,1519,1517,1537,1508,1547,1537,1542,1531,1543,1530,1532,1542,1561,1543,1539,1542,1538,1549,1549,1549,1552,1535,1558,1533,1543,1537,838,838,840,846,860,1223,1378,1532,1632,1689,1668,1648,1626,1599,1562,1535,1509,1481,1459,1440,1400,1375,1348,1322,1295,1268,1241,1215,1188,1161,1132,1047,899,873,862,850,853,891,805,816,818,823,820,820,832,824,816,817,818,825,818,838,819,829,824,826,822,825,822,826,825,830,826,832,827,1129,1141,1149,1171,1214,1738,1990,2097,2181,2238,2248,2202,2164,2115,2102,2042,1999,1959,1951,1886,1865,1833,1804,1782,1725,1688,1602,1548,1473,1368,1270,1251,1186,1198,1180,1158,1142,1164,1123,1116,1119,1126,1125,1128,1153,1145,1133,1152,1144,1131,1137,1162,1150,1155,1158,1149,1152,1151,1156,1152,1150,1145,1128,1126,1115,531,534,536,538,536,735,827,919,1011,1076,1050,1034,1047,1029,1013,995,977,960,942,926,908,892,874,857,838,821,799,786,769,688,671,655,573,558,547,540,581,540,482,485,487,487,493,493,514,499,489,503,494,498,490,510,495,497,492,494,496,496,496,496,496,495,494,493,491,778,771,770,786,779,1121,1267,1405,1488,1549,1536,1547,1492,1486,1461,1436,1397,1364,1347,1336,1311,1287,1240,1238,1211,1186,1143,1118,1097,1069,1029,1005,828,873,783,791,795,784,740,745,751,754,756,767,775,771,766,761,770,764,758,782,761,781,758,757,766,762,761,777,763,786,755,762,756,970,975,976,981,1007,1385,1582,1751,1898,1934,1911,1881,1865,1816,1804,1771,1744,1717,1688,1653,1614,1579,1553,1531,1480,1474,1390,1371,1340,1262,1193,1044,1024,1000,987,986,959,964,929,950,934,949,935,932,949,945,942,961,931,929,935,951,950,941,953,939,944,950,946,938,955,958,935,948,940,664,666,668,670,673,928,1046,1157,1265,1324,1323,1307,1287,1261,1241,1213,1191,1180,1152,1136,1112,1095,1074,1045,1030,1010,988,967,946,925,902,883,764,692,679,674,678,657,609,612,610,612,619,621,655,647,619,621,620,650,622,637,622,632,622,624,620,623,619,622,619,619,621,620,608,440,441,441,442,450,571,649,725,801,871,878,872,858,843,838,808,800,785,773,772,746,734,724,710,696,673,666,653,631,624,602,596,574,454,445,449,447,430,412,401,406,409,403,420,407,420,413,412,417,414,416,415,424,424,413,411,419,421,412,419,416,417,413,421,414,757,765,765,778,838,1095,1248,1378,1479,1544,1516,1490,1481,1450,1439,1395,1394,1347,1323,1299,1295,1250,1226,1202,1178,1153,1082,1143,1036,1057,1024,903,883,802,777,771,739,777,751,743,750,780,763,735,742,744,761,778,779,771,783,787,764,782,783,769,766,773,776,771,767,774,777,788,779,967,971,973,982,1016,1304,1577,1753,1874,1919,1925,1883,1854,1831,1810,1775,1745,1713,1678,1640,1623,1579,1548,1518,1487,1463,1425,1410,1368,1239,1125,1053,1020,996,984,986,985,992,939,944,939,959,956,949,953,981,953,991,1002,975,962,966,952,963,959,978,950,954,941,958,949,946,947,947,946,826,830,832,828,875,1066,1351,1516,1620,1677,1677,1621,1590,1570,1582,1557,1496,1463,1471,1413,1389,1361,1334,1287,1276,1288,1208,1230,1201,988,1016,941,906,874,842,855,834,816,768,772,774,776,780,778,779,776,776,779,778,781,782,795,788,789,783,782,785,785,782,791,784,781,782,782,781,550,553,554,560,583,699,853,973,1060,1133,1155,1095,1076,1059,1089,1060,1005,987,1004,952,934,920,898,885,863,882,828,845,827,775,783,650,650,606,563,592,561,570,522,523,523,527,529,529,528,528,529,532,530,534,540,548,542,543,537,538,541,543,537,547,541,536,537,537,536,161,161,162,162,162,205,232,258,284,311,326,321,315,311,305,300,295,290,284,280,275,270,265,259,255,249,244,239,234,228,224,218,213,209,203,162,163,163,152,149,153,160,155,153,153,156,155,156,157,157,179,180,180,182,162,155,154,162,156,153,156,160,156,161,154,531,577,558,547,546,699,793,874,1010,1084,1114,1043,1081,1015,1020,981,964,948,949,914,897,881,864,848,830,814,749,816,717,724,709,663,647,625,587,540,509,550,532,534,540,578,536,551,535,544,536,531,540,534,529,548,538,544,542,552,547,553,581,545,546,577,533,547,541,376,378,378,380,380,431,549,612,677,740,766,755,741,729,717,709,698,679,667,659,647,631,619,606,594,581,572,557,547,534,524,472,444,433,386,382,383,384,334,332,334,340,342,343,341,341,340,343,344,347,348,378,353,353,343,344,350,343,337,355,344,341,342,342,341,78,78,78,96,96,97,111,124,136,149,159,157,155,152,149,147,145,141,139,137,134,132,129,126,124,122,119,116,114,112,108,106,104,101,99,96,96,97,62,62,63,63,63,63,63,63,62,63,63,63,63,63,63,64,63,63,63,63,64,64,63,65,63,63,63,1077,1115,1111,1119,1258,1670,1877,2028,2131,2184,2150,2113,2096,2038,2030,2016,1981,1908,1874,1871,1844,1769,1734,1718,1666,1630,1522,1500,1487,1379,1182,1186,1207,1117,1118,1106,1097,1122,1099,1096,1110,1105,1116,1092,1103,1109,1108,1125,1124,1118,1120,1130,1117,1110,1138,1126,1123,1121,1121,1130,1130,1125,1125,1137,1128,238,237,238,238,243,248,340,380,418,457,470,470,463,455,448,433,433,425,418,416,407,399,380,385,371,364,362,356,341,340,325,324,311,243,240,243,241,242,216,216,216,216,223,222,222,225,220,224,223,222,226,221,224,230,224,223,226,225,225,229,226,228,223,224,223,864,867,865,873,915,1188,1369,1532,1672,1715,1714,1694,1666,1644,1609,1574,1555,1533,1508,1480,1449,1413,1402,1369,1337,1305,1283,1256,1170,1037,1017,954,922,902,877,878,879,831,813,803,807,810,805,821,809,822,815,814,819,815,818,817,815,826,815,813,818,823,813,820,817,818,815,823,816,700,683,705,718,727,800,1104,1226,1321,1390,1401,1363,1350,1335,1314,1293,1238,1245,1213,1175,1178,1118,1128,1075,1090,1103,1010,1031,1014,989,915,762,740,737,691,718,720,706,661,661,662,678,675,668,670,685,675,673,685,687,700,701,702,713,670,668,681,678,671,681,676,673,674,674,673,1041,1043,1094,1083,1183,1677,1941,2127,2258,2332,2249,2237,2145,2159,2119,2024,1983,1942,1903,1892,1821,1856,1827,1784,1661,1620,1645,1540,1575,1459,1161,1136,1095,1069,1058,1060,1047,1053,1071,1066,1068,1076,1096,1057,1068,1071,1089,1098,1102,1100,1099,1170,1115,1110,1301,1124,1115,1130,1125,1174,1127,1126,1152,1152,1152,963,965,968,976,1004,1259,1547,1721,1874,1931,1909,1878,1849,1817,1787,1756,1711,1722,1665,1621,1604,1574,1531,1506,1482,1452,1422,1392,1360,1260,1190,1067,1014,992,980,976,968,983,950,942,948,956,959,957,960,952,960,978,961,956,976,976,967,960,953,975,962,984,953,961,985,980,983,985,958,591,594,598,600,603,727,897,995,1112,1174,1184,1173,1153,1130,1114,1088,1077,1058,1035,1029,1009,987,969,951,931,909,891,877,851,795,768,758,635,621,607,604,607,546,528,518,522,525,520,536,524,537,530,529,534,530,533,532,530,541,530,528,533,538,528,535,532,533,530,538,531,843,845,897,855,931,1321,1544,1733,1837,1866,1852,1818,1784,1750,1714,1680,1646,1607,1577,1543,1509,1474,1526,1488,1371,1336,1302,1268,1234,1199,1120,922,896,870,858,859,864,870,891,883,882,887,882,887,942,942,886,915,902,887,887,931,940,959,987,942,938,955,957,928,913,917,893,893,891,527,528,530,530,535,694,784,876,967,1043,1045,1037,1019,1002,995,966,952,935,918,918,888,872,861,845,825,801,793,778,751,742,717,704,681,541,532,536,534,524,504,496,503,504,497,515,504,515,510,507,512,513,517,519,524,521,510,505,515,518,510,513,514,515,510,519,512,887,890,892,899,916,1136,1399,1561,1716,1778,1761,1731,1705,1676,1647,1620,1592,1591,1536,1509,1480,1453,1425,1398,1369,1342,1313,1287,1258,1170,1067,1042,937,917,904,900,903,906,891,884,883,876,892,896,898,897,902,914,904,899,894,902,895,909,908,907,900,900,900,900,898,906,894,910,903,1055,1057,1109,1096,1273,1744,2024,2205,2297,2317,2360,2252,2209,2167,2124,2082,2039,1996,2014,1911,1900,1882,1901,1847,1727,1655,1612,1569,1527,1462,1179,1144,1110,1083,1073,1075,1100,1089,1132,1131,1125,1135,1134,1147,1151,1151,1149,1147,1154,1141,1155,1154,1164,1154,1158,1164,1140,1151,1159,1155,1143,1149,1149,1157,1139,920,944,935,940,981,1262,1518,1686,1785,1841,1831,1824,1773,1761,1747,1721,1648,1639,1614,1605,1551,1537,1480,1470,1447,1394,1382,1357,1282,1179,1030,1011,1005,979,956,934,959,905,887,877,881,884,879,887,883,896,889,888,893,889,892,891,889,900,889,887,892,897,887,894,891,892,889,897,890,162,163,163,164,164,170,235,262,289,315,333,327,322,317,312,306,301,295,291,286,280,275,269,264,259,254,248,243,237,233,227,181,177,172,169,165,165,166,137,137,136,137,138,139,138,138,138,141,139,141,141,145,142,146,142,140,142,142,139,146,143,140,141,141,140,908,906,916,928,994,1333,1504,1656,1750,1810,1778,1768,1734,1700,1705,1658,1632,1581,1553,1525,1518,1468,1456,1412,1400,1356,1281,1338,1224,1255,1135,999,947,957,930,913,882,925,892,882,887,908,925,895,889,891,905,960,927,938,935,956,940,911,940,932,959,948,967,926,924,958,929,937,926,0,0,0,0,0,0,0,0,0,0,0,0,0,0,0,0,0,0,0,0,0,0,0,0,0,0,0,0,0,0,0,0,0,0,0,0,0,0,0,0,0,0,0,0,0,0,0,0,0,0,0,0,0,0,0,0,0,0,0,0,0,0,0,0,0,1023,1026,1029,1039,1076,1356,1664,1842,1998,2046,2022,1989,1958,1925,1893,1861,1829,1822,1764,1732,1699,1667,1635,1603,1570,1538,1505,1475,1442,1285,1221,1100,1074,1053,1041,1037,1020,1023,1013,1008,1021,1029,1024,1019,1023,1024,1031,1035,1042,1027,1074,1061,1055,1065,1054,1046,1018,1040,1028,1025,1024,1023,1028,1046,1037,158,158,159,159,161,227,258,289,318,348,325,320,315,309,303,299,293,289,283,279,273,267,262,257,253,247,242,237,190,187,182,177,172,169,164,161,162,162,153,150,146,146,147,150,153,155,147,156,155,147,144,156,156,157,154,156,156,155,157,158,156,159,149,147,145,812,809,810,817,830,993,1293,1441,1557,1613,1623,1600,1553,1540,1523,1499,1463,1437,1408,1373,1350,1323,1306,1271,1255,1227,1196,1179,1150,917,999,873,857,836,822,822,814,812,768,767,761,774,776,774,775,772,777,775,776,780,785,795,782,787,784,785,784,781,770,784,781,778,779,779,769,470,472,473,484,479,638,740,806,888,965,947,932,935,903,909,872,858,842,827,812,797,782,767,752,738,722,707,728,677,662,647,632,618,493,481,477,519,486,476,477,481,485,484,486,481,481,482,493,486,486,490,487,485,486,487,493,488,484,494,540,494,484,479,490,477,645,647,660,663,659,766,979,1114,1217,1285,1282,1272,1248,1229,1218,1180,1166,1146,1124,1118,1087,1065,1050,1030,1007,985,972,909,865,847,826,732,731,697,668,656,668,591,573,563,567,570,565,581,569,582,575,574,579,575,578,577,575,586,575,573,578,583,573,580,577,578,575,583,576,828,827,833,837,873,1076,1301,1455,1581,1640,1642,1624,1597,1566,1548,1520,1490,1464,1430,1419,1390,1354,1346,1313,1284,1251,1232,1205,1179,1093,936,943,885,864,841,841,843,780,762,752,756,759,754,770,758,771,764,763,768,764,767,766,764,775,764,762,767,772,762,769,766,767,764,772,765,440,441,441,442,450,571,649,725,801,871,878,872,858,843,838,808,800,785,773,772,746,734,724,710,696,673,666,653,631,624,602,596,574,454,445,449,447,430,412,401,406,409,403,420,407,420,413,412,417,414,416,415,424,424,413,411,419,421,412,419,416,417,413,421,414,994,997,1000,1031,1194,1545,1816,2018,2068,2164,2093,2055,2019,1981,1943,1908,1870,1832,1848,1762,1767,1736,1655,1666,1578,1543,1517,1467,1431,1323,1245,1081,1060,1027,1037,1010,1002,1020,1010,1013,1018,1028,1031,1030,1028,1022,1034,1033,1039,1040,1038,1040,1040,1051,1043,1042,1034,1034,1032,1038,1032,1039,1029,1039,1023,1184,1177,1222,1202,1376,1872,2119,2315,2413,2448,2426,2384,2380,2301,2252,2233,2174,2132,2105,2049,2006,1967,1922,1881,1839,1796,1774,1726,1667,1384,1327,1263,1256,1207,1199,1191,1180,1168,1163,1160,1164,1174,1177,1176,1175,1168,1180,1179,1185,1187,1184,1189,1190,1197,1189,1188,1180,1180,1178,1184,1178,1185,1175,1185,1169,742,745,757,749,958,1098,1281,1457,1574,1623,1615,1587,1557,1527,1499,1469,1441,1430,1382,1371,1324,1294,1265,1236,1206,1178,1175,1119,1090,1061,1031,1002,933,773,756,754,766,771,837,755,761,759,768,762,766,779,766,769,773,769,773,775,779,777,944,775,782,779,779,774,780,868,783,867,857,525,531,526,529,543,748,877,1017,1126,1185,1184,1162,1140,1115,1094,1072,1052,1037,1005,983,960,963,919,896,874,852,842,808,784,764,671,651,656,557,555,533,545,567,556,549,563,551,555,565,553,556,561,560,607,560,565,567,567,621,607,565,554,613,559,591,565,563,560,601,591,639,642,644,646,668,903,1023,1144,1240,1285,1285,1311,1245,1224,1204,1202,1162,1142,1148,1101,1106,1072,1039,1019,998,977,957,959,916,895,875,875,755,666,663,659,651,661,641,649,658,687,659,669,653,692,652,703,661,652,658,664,693,712,670,666,666,659,688,698,663,666,656,666,658,1096,1087,1091,1136,1276,1617,1853,2009,2111,2151,2145,2106,2093,2036,2002,1967,1933,1899,1886,1830,1796,1766,1733,1694,1663,1628,1590,1572,1481,1220,1201,1161,1152,1118,1114,1098,1066,1068,1076,1074,1081,1091,1083,1094,1089,1106,1088,1091,1093,1086,1091,1101,1120,1136,1091,1086,1100,1095,1099,1091,1089,1099,1086,1097,1090,1255,1272,1277,1312,1577,2058,2293,2527,2580,2650,2591,2543,2501,2399,2412,2367,2324,2227,2265,2183,2153,2095,2065,2038,1971,1816,1786,1709,1573,1542,1537,1359,1336,1289,1285,1254,1264,1252,1247,1244,1248,1258,1261,1260,1259,1252,1264,1263,1269,1271,1268,1273,1274,1281,1273,1272,1264,1264,1262,1268,1262,1269,1259,1269,1253,845,847,850,880,931,1259,1417,1571,1676,1689,1684,1701,1630,1602,1600,1567,1522,1516,1468,1441,1414,1387,1360,1333,1330,1279,1274,1248,1199,1153,1038,918,892,873,861,857,851,850,826,835,843,871,851,857,846,880,844,891,851,844,848,857,876,895,861,857,858,852,875,884,853,856,846,855,847,1085,1100,1108,1123,1261,1572,1831,1991,2095,2137,2169,2088,2073,2019,1984,1949,1918,1881,1869,1812,1778,1749,1716,1680,1647,1614,1578,1560,1510,1312,1180,1152,1149,1107,1105,1115,1051,1053,1066,1059,1066,1076,1068,1079,1077,1091,1074,1076,1087,1079,1115,1101,1114,1117,1076,1071,1085,1080,1084,1076,1074,1084,1071,1082,1077,1259,1251,1306,1299,1500,2038,2267,2458,2577,2611,2561,2541,2560,2429,2459,2359,2308,2263,2261,2165,2121,2087,2041,1997,1944,1900,1875,1722,1654,1425,1386,1350,1345,1292,1278,1277,1285,1287,1277,1288,1287,1301,1288,1289,1322,1337,1294,1288,1291,1302,1290,1294,1309,1301,1298,1298,1302,1316,1315,1331,1325,1335,1326,1338,1325,1031,1026,1031,1030,1136,1510,1729,1891,1991,2002,1985,1994,1928,1896,1888,1860,1806,1798,1750,1720,1693,1648,1587,1558,1550,1498,1490,1450,1402,1251,1132,1100,1080,1054,1026,1023,1025,1016,1015,1023,1035,1044,1037,1045,1042,1060,1038,1047,1049,1047,1050,1057,1077,1091,1046,1046,1052,1052,1055,1041,1049,1052,1042,1051,1043,766,786,802,794,816,1140,1326,1507,1622,1672,1663,1649,1687,1573,1599,1513,1497,1453,1475,1407,1362,1346,1303,1273,1243,1213,1194,1153,1138,1074,1063,1015,828,797,799,778,791,809,794,800,805,809,808,803,818,809,818,804,805,813,809,808,808,815,814,814,810,818,814,819,811,829,822,830,810,648,646,648,649,688,872,1037,1133,1260,1305,1271,1251,1305,1212,1192,1225,1152,1133,1113,1093,1073,1053,1034,1014,994,975,955,936,963,884,869,851,725,668,657,653,659,661,657,656,655,655,657,658,655,653,658,664,656,663,659,663,663,659,658,663,664,663,661,659,666,680,675,680,676,563,564,566,568,578,585,797,907,974,1045,1074,1066,1045,1028,1031,998,981,965,950,934,918,903,887,872,856,839,825,730,716,702,692,679,647,628,575,571,572,554,474,470,475,488,483,474,485,493,481,482,490,495,501,506,502,509,486,483,486,502,502,493,501,504,500,499,499,138,139,139,171,171,176,199,221,244,266,280,276,271,267,262,258,254,249,245,240,236,232,227,223,218,214,210,205,201,198,193,189,184,180,176,171,172,172,132,131,131,135,132,133,131,132,133,136,136,135,138,134,139,135,178,134,133,139,134,135,134,132,136,133,133,765,772,769,771,828,1132,1318,1503,1620,1670,1661,1631,1610,1570,1540,1510,1487,1450,1419,1398,1359,1333,1304,1274,1241,1212,1193,1158,1129,1092,1062,1032,828,796,780,778,801,780,781,777,786,797,800,791,793,782,795,801,816,798,810,827,832,862,805,804,793,798,796,797,834,792,792,801,785,507,512,511,513,515,656,783,870,1046,1024,1023,1012,990,973,964,941,925,908,893,876,865,843,828,811,795,778,763,751,730,713,698,684,544,531,519,515,516,518,479,475,477,478,476,487,480,483,485,488,491,488,492,485,521,495,521,488,488,528,490,497,490,487,515,485,485,997,1005,996,1044,1042,1506,1732,1957,2058,2092,2085,2049,2021,1963,1944,1909,1881,1818,1781,1753,1726,1676,1646,1627,1568,1536,1526,1468,1446,1296,1210,1216,1097,1029,1024,1006,1006,994,989,986,990,1000,1003,1002,1001,994,1006,1005,1011,1013,1010,1015,1016,1023,1015,1014,1006,1006,1004,1010,1004,1011,1001,1011,995,264,265,265,266,267,280,386,430,473,515,529,520,512,503,496,504,479,471,463,455,446,438,430,422,414,405,398,389,381,305,298,292,285,288,271,268,269,270,274,255,257,257,255,259,259,259,259,258,260,255,257,257,256,257,260,259,258,257,258,258,256,260,257,261,259,285,286,287,288,288,370,416,464,510,555,569,561,552,608,534,599,517,508,499,490,481,539,464,455,446,437,429,420,411,402,393,385,376,367,358,289,355,355,279,285,279,285,289,286,285,286,282,283,284,287,279,286,286,288,284,284,288,284,286,288,285,289,280,284,284,734,771,773,741,802,1142,1306,1509,1624,1674,1641,1635,1581,1560,1553,1501,1486,1416,1425,1375,1329,1300,1285,1276,1252,1183,1197,1145,1126,1065,1049,979,831,800,770,768,793,798,796,813,793,810,808,788,830,807,806,818,832,828,789,807,838,826,841,799,810,831,833,804,806,813,810,794,793,964,954,958,981,1088,1406,1586,1747,1855,1901,1936,1860,1852,1800,1768,1738,1710,1678,1668,1616,1586,1558,1529,1498,1468,1437,1407,1340,1316,1301,1077,1128,1046,983,981,966,937,939,952,945,954,964,956,967,965,979,962,965,976,968,1007,990,1006,1008,965,961,975,970,974,966,964,974,962,973,968,1461,1465,1471,1639,1786,2400,2652,2840,2927,2952,2905,2864,2816,2766,2686,2667,2617,2563,2508,2470,2441,2337,2303,2257,2114,2125,1934,1703,1701,1621,1634,1562,1506,1499,1455,1476,1443,1431,1426,1423,1427,1437,1440,1439,1438,1431,1443,1442,1448,1450,1447,1452,1453,1460,1452,1451,1443,1443,1441,1447,1441,1448,1438,1448,1432,1055,1045,1078,1087,1221,1567,1769,1931,2033,2079,2106,2031,2018,1964,1931,1897,1866,1831,1819,1764,1730,1702,1669,1635,1603,1567,1535,1519,1469,1336,1149,1122,1118,1075,1061,1058,1023,1025,1038,1031,1038,1048,1040,1051,1049,1063,1046,1048,1059,1051,1085,1073,1085,1086,1048,1043,1057,1052,1056,1048,1046,1056,1043,1054,1049,0,0,0,0,0,0,0,0,0,0,0,0,0,0,0,0,0,0,0,0,0,0,0,0,0,0,0,0,0,0,0,0,0,0,0,0,0,0,0,0,0,0,0,0,0,0,0,0,0,0,0,0,0,0,0,0,0,0,0,0,0,0,0,0,0,1134,1126,1139,1163,1319,1701,1946,2087,2193,2237,2219,2189,2163,2117,2071,2040,1999,1973,1950,1894,1863,1828,1794,1751,1729,1686,1643,1592,1481,1341,1242,1223,1188,1164,1142,1131,1098,1099,1110,1102,1113,1121,1114,1125,1123,1140,1123,1124,1136,1128,1138,1144,1168,1164,1124,1119,1132,1125,1129,1121,1121,1128,1114,1125,1120,520,521,522,523,531,738,865,994,1111,1170,1170,1148,1126,1105,1083,1061,1039,1017,995,973,952,954,908,886,864,842,832,799,777,755,600,582,588,547,546,576,539,558,540,554,549,563,570,580,568,571,572,575,596,575,580,567,582,634,591,568,569,584,573,586,580,578,575,596,580,1195,1204,1181,1218,1437,1899,2174,2367,2460,2497,2464,2431,2378,2328,2288,2255,2189,2139,2123,2064,2033,1968,1955,1912,1873,1824,1692,1747,1635,1438,1428,1296,1264,1215,1200,1214,1179,1167,1162,1159,1163,1173,1176,1175,1174,1167,1179,1178,1184,1186,1183,1188,1189,1196,1188,1187,1179,1179,1177,1183,1177,1184,1174,1184,1168,825,832,828,859,930,1227,1444,1628,1739,1788,1775,1744,1722,1674,1650,1619,1595,1553,1522,1499,1460,1423,1405,1375,1334,1308,1288,1253,1221,1175,1143,1072,904,869,847,861,816,804,799,796,800,810,813,812,811,804,816,815,821,823,820,825,826,833,825,824,816,816,814,820,814,821,811,821,805,731,733,763,738,772,1087,1257,1431,1562,1598,1590,1562,1562,1504,1532,1447,1419,1390,1408,1332,1303,1289,1246,1217,1189,1159,1142,1102,1073,1060,1016,987,848,761,744,742,755,757,741,748,753,766,751,750,760,779,757,755,754,759,754,755,756,759,760,758,761,765,757,766,759,782,771,783,770,994,997,1000,1031,1194,1545,1816,2018,2068,2164,2093,2055,2019,1981,1943,1908,1870,1832,1848,1762,1767,1736,1655,1666,1578,1543,1517,1467,1431,1323,1245,1081,1060,1027,1037,1010,1002,1020,1010,1013,1018,1028,1031,1030,1028,1022,1034,1033,1039,1040,1038,1040,1040,1051,1043,1042,1034,1034,1032,1038,1032,1039,1029,1039,1023,409,419,416,414,414,512,609,681,754,818,825,820,807,793,779,762,753,740,729,707,694,681,672,659,646,632,615,605,592,580,566,550,538,434,421,420,418,424,354,352,355,355,355,358,358,359,359,359,360,361,360,361,371,387,360,361,367,364,364,364,366,367,366,365,365,668,671,672,684,693,944,1083,1216,1296,1339,1340,1320,1340,1277,1251,1239,1213,1134,1185,1160,1141,1105,1089,1068,1041,1020,996,977,955,935,911,792,711,698,682,677,684,684,668,665,676,683,669,673,671,679,682,686,686,682,686,684,678,686,685,686,686,686,686,686,683,686,685,684,684,980,960,972,981,1016,1358,1585,1785,1849,1907,1888,1856,1855,1821,1793,1736,1709,1679,1665,1658,1602,1555,1559,1545,1502,1459,1449,1377,1275,1258,1136,1037,1088,1008,995,990,969,999,944,943,945,945,946,948,949,950,950,950,951,951,951,952,951,952,951,952,954,955,952,954,953,957,952,952,952,865,842,853,857,884,1076,1336,1517,1610,1681,1642,1615,1612,1611,1560,1512,1487,1478,1471,1432,1414,1371,1368,1356,1321,1280,1250,1214,1169,1042,999,989,917,892,861,864,819,849,773,778,781,783,786,786,786,785,782,784,784,785,786,797,794,794,790,790,789,790,793,792,788,792,787,787,787,610,613,612,614,621,740,918,1042,1135,1173,1199,1189,1168,1152,1123,1127,1104,1088,1074,1048,1041,1009,990,970,961,930,911,894,873,853,802,666,649,636,631,621,620,609,527,529,530,534,535,537,535,537,535,537,536,538,544,550,548,548,544,546,545,548,548,548,545,547,542,542,542,85,86,86,86,106,107,122,135,148,162,172,170,167,165,162,159,157,154,151,148,146,144,140,138,135,133,129,127,125,122,119,116,114,111,108,106,106,106,71,72,71,72,72,74,72,74,71,73,72,72,72,73,73,76,73,74,73,73,76,74,73,76,71,72,72,441,443,444,455,449,486,643,712,823,877,885,871,900,896,881,816,801,730,789,772,764,732,719,705,733,677,663,650,635,598,585,486,475,463,489,449,450,450,445,449,450,459,463,463,463,463,463,463,463,463,463,463,463,463,462,462,463,463,463,463,463,463,462,461,461,352,354,357,356,360,464,524,585,646,707,721,702,696,689,672,662,648,643,626,616,605,592,581,569,554,543,535,523,505,495,492,477,477,454,362,359,360,360,324,324,319,324,324,351,324,329,346,348,324,326,323,325,331,318,325,328,324,328,323,325,330,330,324,328,328,126,126,126,156,156,160,172,201,211,242,255,251,247,243,228,225,221,217,213,220,205,212,207,203,200,195,183,188,183,171,176,171,168,163,160,157,157,157,117,117,117,117,117,117,121,126,118,118,119,118,117,117,118,118,119,118,119,117,118,118,119,119,118,120,119,1001,1009,1037,1028,1156,1477,1727,1866,1984,1984,2026,1940,1952,1877,1840,1843,1835,1692,1727,1737,1704,1622,1595,1574,1524,1486,1489,1417,1450,1338,1185,1090,1096,1048,1042,1017,1025,1035,1016,1018,1034,1032,1034,1030,1032,1034,1034,1033,1032,1029,1034,1031,1031,1034,1033,1034,1034,1034,1034,1034,1034,1034,1033,1032,1032,211,212,213,213,256,265,298,334,364,404,416,420,411,405,398,386,384,378,371,355,350,343,343,337,330,315,312,311,297,296,289,278,275,270,258,258,212,212,175,170,172,174,175,172,173,173,172,174,175,172,174,174,172,172,171,174,174,177,172,172,177,174,172,169,169,836,853,848,874,864,1155,1337,1497,1616,1680,1671,1640,1614,1592,1557,1539,1515,1492,1480,1427,1409,1386,1352,1326,1290,1263,1248,1210,1170,1008,967,942,898,876,849,849,851,825,755,754,756,756,757,759,760,761,761,761,762,762,762,763,762,763,762,763,766,766,765,765,767,768,768,767,767,740,744,745,750,760,859,1150,1287,1408,1477,1458,1459,1415,1392,1382,1346,1351,1307,1284,1273,1247,1209,1185,1167,1188,1132,1101,1074,1043,1030,1001,884,813,794,783,750,743,729,666,667,669,685,681,676,677,694,681,678,691,691,704,705,719,730,677,676,685,683,682,682,680,684,679,679,679,1131,1133,1142,1188,1294,1778,2050,2269,2379,2434,2411,2379,2303,2281,2238,2193,2149,2087,2063,2021,1976,1934,1873,1849,1804,1758,1718,1658,1632,1367,1286,1258,1195,1170,1149,1135,1152,1157,1147,1142,1144,1153,1174,1134,1145,1148,1168,1176,1179,1178,1178,1211,1193,1189,1210,1204,1195,1209,1204,1211,1208,1211,1207,1209,1203,1041,1046,1046,1052,1079,1422,1667,1857,1960,2028,2018,1991,1955,1927,1896,1862,1839,1807,1775,1734,1696,1672,1640,1611,1579,1548,1518,1489,1459,1346,1142,1115,1089,1071,1058,1053,1026,1024,955,948,955,963,965,965,965,961,966,983,965,960,980,978,973,965,960,983,968,989,964,962,989,996,990,990,990,563,571,581,577,582,711,861,960,1059,1128,1141,1119,1101,1078,1062,1050,1029,1014,1003,969,961,941,919,901,887,867,849,831,812,749,716,700,683,592,585,583,586,540,470,469,471,471,472,474,475,476,476,476,477,477,477,478,477,478,477,478,481,481,480,480,482,483,483,482,482,933,935,940,962,1042,1426,1654,1874,1993,2038,2035,1982,1944,1924,1885,1849,1812,1760,1737,1700,1664,1625,1574,1555,1514,1475,1439,1389,1364,1327,1123,1044,997,969,949,954,969,982,967,959,958,964,960,964,997,1005,965,993,979,965,966,999,998,1012,1008,997,1008,1009,1009,1008,994,1007,986,985,981,495,505,502,504,501,623,743,831,918,987,994,982,969,951,935,920,903,888,876,851,839,823,807,792,778,762,744,728,712,696,682,659,646,522,516,502,514,515,448,444,450,453,450,452,453,455,454,455,455,460,461,465,471,463,457,455,463,461,462,458,464,465,463,463,463,967,972,973,974,996,1310,1518,1737,1878,1921,1912,1900,1850,1839,1791,1758,1731,1698,1662,1631,1574,1575,1522,1514,1480,1452,1427,1395,1367,1170,1143,1108,1018,998,983,979,983,987,932,935,926,926,944,950,948,959,947,948,950,947,946,952,948,960,956,954,953,953,953,952,947,958,943,950,950,1145,1147,1157,1207,1333,1843,2132,2348,2454,2489,2480,2432,2367,2341,2295,2248,2205,2140,2115,2068,2029,1978,1915,1887,1839,1794,1749,1688,1657,1509,1280,1266,1210,1199,1164,1183,1187,1201,1208,1207,1200,1213,1212,1224,1228,1228,1228,1225,1231,1219,1234,1233,1242,1233,1237,1237,1220,1230,1238,1235,1224,1239,1235,1249,1229,892,916,913,916,950,1268,1482,1651,1734,1778,1779,1755,1729,1709,1674,1679,1605,1585,1569,1540,1507,1487,1438,1421,1385,1388,1338,1309,1095,1133,1005,1008,980,936,928,905,930,899,829,828,830,830,831,833,834,835,835,835,836,836,836,837,836,837,836,837,840,840,839,839,841,842,842,841,841,194,195,195,196,197,249,281,314,346,378,397,391,383,378,371,365,358,353,346,339,333,327,321,321,308,302,295,289,283,277,270,270,258,251,251,197,234,242,142,143,143,144,144,147,145,147,144,146,145,145,145,147,148,151,149,148,146,147,150,147,147,151,146,146,146,809,811,826,830,841,1161,1323,1494,1568,1626,1604,1579,1612,1529,1499,1482,1466,1370,1416,1387,1363,1325,1304,1279,1249,1223,1221,1172,1147,1088,1089,939,918,839,824,835,837,838,809,804,813,827,827,827,818,826,827,827,827,827,827,827,827,827,826,827,827,827,827,827,827,827,826,825,825,90,90,90,111,111,113,127,143,157,172,183,180,178,174,171,169,166,162,160,157,155,151,148,146,143,139,137,134,130,128,125,122,119,116,113,111,111,112,76,76,76,77,78,77,77,77,79,78,77,78,79,79,78,79,79,80,80,79,79,80,81,90,93,92,90,1103,1108,1112,1118,1156,1559,1784,2017,2152,2186,2173,2160,2103,2088,2035,2002,1965,1929,1887,1853,1791,1788,1731,1719,1680,1648,1619,1582,1506,1330,1229,1182,1154,1144,1120,1098,1100,1104,1060,1054,1064,1079,1076,1080,1073,1084,1081,1088,1082,1075,1091,1109,1095,1082,1079,1092,1069,1096,1081,1077,1073,1084,1077,1079,1079,0,0,0,0,0,0,0,0,0,0,0,0,0,0,0,0,0,0,0,0,0,0,0,0,0,0,0,0,0,0,0,0,0,0,0,0,0,0,0,0,0,0,0,0,0,0,0,0,0,0,0,0,0,0,0,0,0,0,0,0,0,0,0,0,0,819,798,829,808,838,1052,1263,1447,1528,1594,1597,1548,1525,1532,1483,1449,1436,1413,1404,1370,1341,1310,1307,1297,1262,1217,1191,1150,1118,1045,945,941,869,846,826,814,803,828,773,773,768,781,782,782,782,781,783,780,782,784,789,797,788,792,791,793,788,786,781,785,785,789,784,784,784,379,381,382,399,385,506,572,654,704,757,766,754,786,730,718,706,694,682,686,673,645,633,621,609,597,585,573,561,548,536,524,512,500,488,389,386,387,387,384,377,381,382,382,390,389,402,386,392,392,387,384,381,382,387,386,383,386,383,382,382,381,387,382,400,386,613,624,639,639,638,728,939,1078,1170,1229,1232,1217,1198,1177,1157,1138,1117,1097,1081,1051,1038,1016,997,980,963,943,923,903,883,863,804,752,725,665,640,638,639,585,515,514,516,516,517,519,520,521,521,521,522,522,522,523,522,523,522,523,526,526,525,525,527,528,528,527,527,800,817,812,821,818,1078,1269,1420,1540,1604,1599,1570,1545,1514,1502,1478,1450,1427,1409,1366,1349,1312,1295,1270,1235,1209,1195,1159,1112,1068,949,945,861,846,813,812,815,774,704,703,705,705,706,708,709,710,710,710,711,711,711,712,711,712,711,712,715,715,714,714,716,717,717,716,716,409,419,416,414,414,512,609,681,754,818,825,820,807,793,779,762,753,740,729,707,694,681,672,659,646,632,615,605,592,580,566,550,538,434,421,420,418,424,354,352,355,355,355,358,358,359,359,359,360,361,360,361,371,387,360,361,367,364,364,364,366,367,366,365,365,593,595,597,599,612,776,915,1016,1117,1182,1199,1179,1160,1147,1128,1108,1090,1070,1054,1035,1014,995,978,958,920,906,887,869,850,831,811,702,685,618,606,602,604,585,516,516,515,516,522,519,517,520,517,523,519,522,519,516,517,518,518,517,520,518,516,519,518,522,519,518,518,859,870,873,884,931,1248,1406,1580,1673,1729,1730,1707,1683,1645,1630,1598,1569,1542,1515,1494,1460,1432,1406,1395,1326,1323,1280,1252,1242,1199,1018,978,949,894,882,880,876,864,816,816,815,816,822,819,817,820,817,823,819,822,819,816,817,818,818,817,820,818,816,819,818,822,819,818,818,538,540,542,544,546,612,807,898,989,1058,1077,1061,1043,1026,1010,993,977,960,943,927,910,907,876,858,843,814,797,781,776,758,741,623,608,568,557,558,556,557,515,512,516,526,522,521,533,519,518,526,551,518,527,540,526,525,544,552,521,521,518,523,517,528,549,525,524,63,63,63,63,63,64,73,82,91,100,107,105,104,102,101,99,96,95,93,92,90,89,86,84,83,81,80,78,77,74,72,71,69,68,66,64,64,64,29,29,28,29,36,32,30,33,30,36,32,33,33,29,30,31,31,29,33,31,29,32,31,36,33,32,31,357,360,361,362,363,392,523,581,662,713,734,720,708,698,685,674,665,652,641,631,618,606,597,584,554,551,540,528,517,505,494,405,395,386,408,364,365,366,244,243,244,248,253,248,247,250,247,255,251,255,274,271,272,255,251,247,251,251,246,248,249,252,248,250,250,750,751,754,756,778,933,1156,1332,1436,1475,1482,1460,1439,1418,1397,1384,1360,1337,1312,1288,1265,1245,1216,1195,1149,1133,1110,1093,1030,888,914,864,814,778,780,759,762,711,614,630,639,625,633,629,624,630,618,638,623,625,627,630,633,634,635,628,630,623,627,630,629,634,625,630,630,867,868,873,876,927,1190,1396,1545,1654,1695,1702,1675,1661,1619,1557,1551,1509,1538,1471,1461,1455,1391,1352,1325,1330,1309,1274,1251,1222,1075,922,939,921,893,884,879,882,851,787,788,787,792,799,793,793,797,793,800,795,799,798,793,796,801,799,797,800,798,800,803,802,806,803,802,802,470,472,474,475,481,587,709,789,872,920,936,924,911,899,887,883,868,853,837,823,809,798,778,763,728,721,707,691,676,655,640,605,544,492,481,477,479,470,375,380,378,384,389,386,380,387,376,394,381,383,385,387,389,390,391,385,387,380,384,387,385,391,380,386,386,884,892,898,898,927,1173,1387,1596,1696,1733,1726,1706,1690,1665,1637,1631,1611,1562,1553,1526,1476,1473,1425,1416,1361,1342,1287,1285,1136,995,982,969,962,917,925,903,894,846,750,767,775,764,772,766,763,765,757,775,760,762,767,770,775,774,775,768,769,766,769,770,772,771,764,769,769,1043,1054,1049,1070,1145,1491,1717,1892,2013,2052,2055,2027,1994,1971,1923,1896,1864,1831,1793,1765,1750,1714,1664,1633,1603,1571,1532,1488,1378,1280,1214,1125,1103,1105,1098,1071,1077,1069,1029,1036,1035,1040,1051,1041,1040,1050,1039,1039,1043,1043,1039,1039,1054,1043,1044,1047,1045,1054,1056,1061,1057,1080,1080,1056,1055,657,635,651,668,656,723,968,1092,1192,1238,1251,1238,1220,1204,1187,1176,1158,1137,1118,1110,1092,1062,1054,991,953,943,926,910,893,886,782,751,728,681,668,656,667,646,564,566,568,571,587,582,573,583,567,583,588,592,583,589,591,592,590,588,585,592,589,592,592,596,593,592,592,562,564,566,580,571,718,847,948,1040,1107,1125,1108,1091,1089,1055,1038,1021,1003,986,969,949,946,915,911,880,850,833,816,810,792,718,651,621,635,622,599,580,582,544,541,544,547,557,555,554,562,561,559,560,562,555,550,551,560,555,550,557,555,550,558,550,579,553,558,557,589,590,596,597,615,748,903,1002,1106,1175,1190,1174,1143,1135,1118,1097,1079,1057,1038,1022,1004,991,970,955,929,910,888,874,854,835,771,663,639,633,612,608,610,574,506,505,505,506,512,509,507,510,507,513,509,512,509,506,507,508,508,507,510,508,506,509,508,512,509,508,508,784,786,765,789,854,1196,1346,1590,1710,1757,1802,1766,1718,1684,1650,1615,1556,1546,1488,1478,1444,1410,1340,1350,1273,1251,1238,1192,1149,1105,1012,883,821,795,798,810,779,804,790,789,790,789,801,794,796,804,803,826,818,807,810,797,830,817,823,811,799,817,812,816,812,809,806,809,801,618,621,626,630,648,853,1014,1142,1282,1368,1369,1351,1323,1305,1277,1252,1227,1205,1182,1151,1123,1101,1076,1051,1023,1000,972,948,925,891,862,784,768,720,639,640,644,632,595,600,598,602,607,604,603,605,601,608,604,606,603,602,603,605,603,601,606,603,604,606,604,606,603,605,605,423,425,426,428,431,530,633,703,776,842,862,850,836,823,810,796,782,769,755,743,728,714,702,708,655,651,636,623,610,597,584,563,533,492,433,430,432,432,403,400,398,403,409,402,402,407,402,410,403,406,405,403,404,404,405,404,407,405,403,406,405,409,406,405,405,995,994,1001,1009,1138,1440,1781,1901,2028,2087,2082,2050,2018,1977,1944,1908,1876,1835,1799,1761,1727,1689,1653,1613,1579,1546,1504,1466,1430,1297,1167,1134,1071,1033,1014,1009,987,976,958,959,962,972,972,974,982,976,979,974,983,988,986,1007,995,1009,975,978,1011,982,989,985,980,1008,973,976,974,671,683,652,686,675,798,1045,1162,1213,1333,1317,1271,1289,1285,1242,1235,1171,1184,1181,1161,1092,1091,1070,1049,1035,980,960,940,960,842,897,740,688,721,693,690,692,669,603,603,602,603,609,606,604,607,604,610,606,609,606,603,604,605,605,604,607,605,603,606,605,609,606,605,605,693,695,697,698,702,881,1082,1199,1321,1388,1402,1381,1343,1321,1299,1292,1266,1247,1224,1188,1180,1158,1135,1113,1090,1068,1034,1022,1000,966,956,849,737,729,706,703,705,702,625,620,624,621,632,627,623,634,630,639,635,635,632,633,634,635,632,628,630,631,628,628,631,632,629,627,627,541,542,544,570,585,760,890,1021,1150,1239,1258,1226,1203,1180,1157,1134,1112,1089,1137,1101,1019,1020,1021,998,969,942,888,860,828,821,776,768,751,597,553,576,580,566,552,553,550,556,559,563,560,569,558,560,564,568,564,558,562,576,564,562,562,559,559,562,560,565,564,577,555,549,552,553,558,561,702,841,945,1001,1064,1111,1095,1066,1049,1031,1025,1009,1005,966,956,949,914,918,863,883,796,803,786,781,795,764,613,650,641,584,578,559,570,543,544,552,546,548,553,551,552,546,557,558,555,555,557,553,570,554,565,546,552,547,547,549,546,547,549,548,743,746,748,751,779,931,1160,1326,1427,1466,1473,1453,1430,1410,1389,1376,1353,1329,1304,1281,1258,1238,1210,1186,1142,1126,1108,1083,1059,1030,967,857,828,772,759,755,757,713,621,627,626,630,637,634,628,631,630,640,628,631,633,647,648,649,641,637,635,629,634,638,637,640,632,631,631,1125,1124,1130,1140,1246,1684,1900,2073,2164,2206,2206,2174,2138,2097,2069,2034,1999,1966,1930,1897,1859,1824,1792,1766,1695,1688,1634,1532,1322,1305,1262,1196,1205,1149,1138,1136,1145,1127,1079,1079,1078,1079,1085,1082,1080,1083,1080,1086,1082,1085,1082,1079,1080,1081,1081,1080,1083,1081,1079,1082,1081,1085,1082,1081,1081,831,834,837,840,877,1069,1303,1509,1605,1641,1645,1622,1598,1573,1550,1534,1507,1481,1453,1428,1401,1378,1347,1320,1273,1255,1235,1208,1152,1007,1003,971,925,861,847,844,835,784,688,704,713,701,709,703,700,703,694,712,697,699,704,707,711,711,712,705,706,702,705,707,707,708,701,706,706,484,485,488,489,495,654,770,889,1006,1097,1109,1089,1072,1047,1026,1005,984,966,946,920,899,882,858,837,816,795,774,753,732,701,687,668,601,583,499,493,496,500,480,482,486,491,487,492,499,493,488,489,494,495,501,499,499,504,487,490,494,492,493,493,493,491,487,487,489,760,765,745,771,785,982,1166,1345,1449,1490,1498,1481,1469,1448,1420,1418,1394,1357,1341,1329,1273,1273,1230,1233,1173,1165,1116,1109,1100,1011,965,876,845,790,801,775,777,756,661,669,667,671,675,671,671,683,664,683,669,672,678,677,683,682,685,679,679,671,679,682,681,688,676,680,680,0,0,0,0,0,0,0,0,0,0,0,0,0,0,0,0,0,0,0,0,0,0,0,0,0,0,0,0,0,0,0,0,0,0,0,0,0,0,0,0,0,0,0,0,0,0,0,0,0,0,0,0,0,0,0,0,0,0,0,0,0,0,0,0,0,805,792,810,813,871,1093,1284,1423,1535,1591,1601,1578,1550,1521,1507,1468,1450,1436,1395,1387,1357,1312,1309,1283,1220,1219,1178,1163,1139,1112,1024,897,845,831,821,816,818,781,722,727,731,728,733,731,733,732,731,735,730,738,735,732,733,734,733,727,736,734,725,733,734,738,735,732,732,560,553,564,551,579,738,849,955,1055,1121,1109,1090,1073,1056,1039,1038,1004,1017,995,963,959,936,923,881,866,856,839,807,804,786,729,650,636,608,579,569,571,531,480,480,479,480,486,483,481,484,481,487,483,486,483,480,481,482,482,481,484,482,480,483,482,486,483,482,482,534,528,530,540,534,685,787,874,963,1043,1052,1035,1019,1018,986,970,954,937,921,905,888,886,856,839,838,796,779,764,758,742,738,663,570,582,568,547,544,543,497,494,497,499,499,500,501,501,502,500,502,504,505,507,508,508,503,509,505,506,508,517,502,525,501,506,505,593,595,597,599,612,776,915,1016,1117,1182,1199,1179,1160,1147,1128,1108,1090,1070,1054,1035,1014,995,978,958,920,906,887,869,850,831,811,702,685,618,606,602,604,585,516,516,515,516,522,519,517,520,517,523,519,522,519,516,517,518,518,517,520,518,516,519,518,522,519,518,518,196,201,202,203,243,249,280,313,346,377,402,396,388,383,375,370,363,357,350,345,339,331,326,319,314,306,300,294,288,280,275,270,262,257,250,244,245,245,169,170,170,173,173,174,171,173,171,176,172,171,174,175,177,180,176,176,177,173,177,178,178,178,174,176,176,307,308,309,310,311,404,457,511,564,612,625,616,606,596,586,576,566,556,546,536,526,515,506,496,486,476,466,456,446,436,426,416,407,397,387,312,382,383,297,297,298,301,301,305,298,300,300,308,303,303,304,304,310,338,308,307,310,306,307,308,312,383,306,308,306,848,851,848,860,915,1178,1374,1488,1600,1694,1678,1700,1626,1597,1555,1549,1547,1504,1482,1471,1432,1381,1368,1343,1288,1278,1249,1229,1194,951,970,908,895,911,898,856,871,887,849,844,853,875,857,855,852,870,860,856,869,861,868,873,876,884,869,863,859,867,863,858,860,877,862,869,862,788,790,791,795,848,1040,1244,1363,1491,1579,1574,1548,1527,1496,1468,1445,1428,1407,1374,1367,1331,1302,1274,1259,1221,1199,1189,1146,1039,1053,962,946,912,819,810,801,785,769,749,755,754,759,767,767,765,765,755,762,761,762,757,762,764,766,762,767,767,771,767,771,768,767,765,763,762,722,729,726,744,758,926,1128,1271,1380,1464,1450,1440,1406,1393,1361,1339,1324,1275,1267,1253,1203,1193,1166,1170,1139,1089,1072,1054,1030,997,871,789,827,749,767,751,727,681,615,607,612,623,620,622,624,621,619,623,625,625,622,625,626,624,623,626,630,632,630,631,629,630,624,624,624,422,423,424,425,494,567,665,742,792,843,845,832,826,811,798,785,771,782,744,754,711,704,685,676,657,650,635,617,609,595,577,586,512,499,432,438,425,430,418,429,425,431,441,430,435,431,424,434,423,429,430,437,436,466,454,452,436,435,434,428,429,430,459,439,427,104,105,105,105,129,130,146,160,176,191,203,200,196,194,191,188,185,182,179,177,173,170,168,165,161,158,156,152,149,147,144,140,138,135,132,129,129,130,92,92,92,93,93,93,95,93,92,94,92,93,94,94,93,93,98,94,93,94,93,92,94,93,93,95,93,539,542,543,546,548,624,798,895,1001,1082,1086,1068,1060,1042,1014,998,987,971,950,936,917,899,878,861,844,831,805,792,757,746,647,634,579,572,561,550,552,493,410,404,408,418,421,418,419,411,423,420,421,423,413,418,424,422,416,426,423,425,428,428,432,428,421,422,422,459,459,461,462,482,607,741,811,866,917,925,910,895,881,866,851,837,845,807,816,778,763,749,733,710,705,689,675,661,645,610,634,574,480,468,479,467,468,467,470,465,468,473,477,493,495,469,476,477,499,478,469,473,513,480,476,477,473,471,473,471,478,477,502,470,657,663,660,663,652,879,1028,1189,1276,1328,1306,1300,1278,1256,1235,1221,1137,1146,1150,1137,1064,1087,1073,1053,1031,1048,982,916,886,918,897,684,808,650,670,666,637,638,648,645,659,682,670,672,664,677,674,676,698,676,728,681,680,691,688,672,669,687,676,661,664,684,669,722,665,430,432,433,435,435,516,627,700,782,855,855,861,847,833,818,806,791,777,763,749,734,721,707,699,679,671,657,638,624,610,596,584,530,514,442,437,440,441,360,358,357,356,359,366,362,365,366,368,366,366,370,367,369,369,371,369,372,374,369,377,373,371,369,370,370,630,634,632,630,684,843,1011,1067,1179,1269,1270,1251,1230,1210,1184,1163,1154,1136,1128,1086,1079,1034,1041,994,998,953,941,897,879,859,840,796,665,766,652,649,652,654,621,620,622,622,629,625,628,630,629,633,628,626,629,631,627,630,646,641,630,632,625,631,632,636,631,648,631,985,994,1011,1016,1075,1394,1627,1819,1928,1991,1955,1942,1890,1889,1829,1825,1802,1739,1706,1675,1648,1612,1589,1580,1522,1509,1479,1349,1331,1295,1104,1080,1063,1031,1019,1030,983,943,877,868,873,884,881,883,885,882,880,884,886,886,883,886,888,886,884,887,891,893,891,892,890,891,885,885,885,1425,1394,1432,1475,1864,2334,2675,2848,2923,2979,2946,2934,2783,2805,2690,2643,2635,2549,2527,2466,2408,2350,2327,2246,2191,2141,2007,1647,1686,1550,1557,1524,1490,1463,1432,1441,1436,1462,1433,1438,1444,1433,1450,1451,1454,1465,1460,1453,1465,1474,1466,1467,1486,1474,1458,1460,1465,1488,1491,1473,1497,1467,1472,1471,1471,1204,1214,1220,1246,1325,1736,2029,2196,2308,2382,2345,2313,2274,2260,2200,2166,2140,2095,2061,2024,1988,1952,1919,1889,1840,1802,1756,1733,1577,1355,1314,1283,1280,1245,1229,1205,1190,1167,1094,1094,1101,1102,1107,1109,1109,1107,1105,1110,1110,1112,1109,1113,1113,1110,1111,1112,1119,1120,1117,1120,1114,1118,1111,1111,1111,404,405,406,407,418,535,603,658,727,811,820,806,808,780,767,760,748,734,728,700,705,681,661,655,654,629,621,608,595,581,568,549,531,528,505,417,410,454,394,393,393,396,410,393,396,416,392,397,395,394,398,415,400,398,400,398,396,396,420,417,397,397,398,399,397,1276,1278,1278,1354,1712,2089,2399,2610,2653,2665,2638,2591,2559,2498,2464,2393,2368,2326,2254,2250,2175,2125,2075,2022,1982,1934,1896,1809,1732,1424,1397,1372,1327,1300,1297,1305,1299,1319,1312,1309,1316,1324,1326,1356,1359,1328,1351,1339,1325,1325,1357,1349,1361,1362,1359,1361,1362,1361,1361,1349,1353,1363,1332,1341,1328,202,202,203,204,250,259,293,327,361,396,411,404,398,392,386,379,372,366,359,353,346,339,333,326,320,314,308,301,294,288,281,275,268,261,255,250,251,251,189,189,189,189,190,190,191,193,193,193,193,193,193,194,194,194,194,194,196,195,194,193,196,196,197,197,196,1206,1216,1223,1250,1328,1741,2036,2202,2315,2387,2350,2319,2280,2265,2205,2170,2145,2099,2067,2028,1993,1956,1922,1894,1844,1807,1761,1738,1498,1427,1316,1286,1278,1248,1232,1232,1220,1187,1121,1113,1130,1127,1127,1134,1136,1131,1133,1137,1139,1138,1135,1138,1140,1137,1134,1140,1143,1142,1141,1142,1140,1140,1134,1134,1134,1184,1189,1199,1231,1498,1840,2145,2342,2427,2467,2446,2433,2343,2343,2297,2253,2222,2164,2140,2107,2052,2009,1970,1929,1888,1838,1793,1745,1632,1317,1369,1295,1240,1227,1229,1194,1200,1215,1193,1199,1197,1200,1217,1208,1210,1209,1214,1227,1223,1222,1225,1225,1226,1221,1221,1217,1231,1229,1231,1235,1227,1225,1228,1228,1228,722,725,743,742,768,1013,1177,1269,1388,1478,1433,1404,1422,1406,1326,1320,1342,1288,1304,1266,1255,1180,1166,1158,1131,1123,1098,1083,1051,993,1025,775,779,780,750,749,734,776,749,744,754,748,753,756,759,756,756,756,756,756,759,762,762,759,762,767,755,766,756,764,761,757,757,764,755,530,519,535,538,539,631,785,879,981,1064,1063,1052,1043,1024,1008,958,971,950,905,921,898,887,864,855,829,814,772,781,771,722,667,642,604,593,546,541,536,501,467,471,473,478,480,476,475,499,474,479,478,479,479,482,484,505,478,480,487,483,494,487,487,492,476,484,484,477,479,480,482,486,610,712,792,872,939,957,942,927,911,897,882,866,852,837,821,807,792,776,762,746,731,717,710,686,671,656,624,609,500,488,485,486,487,484,460,458,462,545,504,486,484,478,539,500,488,505,483,486,499,489,480,505,485,479,501,498,547,506,501,493,450,423,423,425,442,568,666,744,842,847,854,841,884,869,854,786,826,783,745,802,718,752,690,677,664,650,636,622,650,596,581,586,527,442,492,441,429,430,429,427,432,448,439,435,437,442,436,437,438,438,441,456,463,471,450,441,436,449,441,436,436,470,439,450,437,1112,1116,1120,1141,1360,1712,2002,2204,2270,2332,2314,2302,2214,2190,2134,2109,2101,2043,2008,1978,1938,1889,1840,1784,1762,1717,1663,1622,1509,1251,1244,1235,1164,1160,1152,1134,1141,1153,1134,1136,1115,1111,1150,1129,1142,1148,1141,1140,1148,1143,1150,1152,1165,1151,1144,1162,1158,1160,1168,1153,1159,1147,1151,1144,1142,372,373,374,375,391,496,584,669,694,746,756,744,732,720,724,696,699,711,675,686,650,623,611,613,587,575,563,551,539,526,514,521,412,391,381,391,378,383,376,365,372,374,379,373,367,378,374,368,376,383,374,378,387,401,388,386,373,387,381,388,412,391,407,401,400,745,747,749,751,797,975,1189,1280,1407,1494,1493,1470,1439,1411,1392,1364,1347,1329,1298,1290,1266,1232,1205,1190,1151,1131,1125,1093,967,1029,893,878,846,793,763,776,756,749,735,726,729,734,740,747,739,739,750,751,743,748,742,750,754,743,750,753,755,756,745,751,748,749,754,754,731,0,0,0,0,0,0,0,0,0,0,0,0,0,0,0,0,0,0,0,0,0,0,0,0,0,0,0,0,0,0,0,0,0,0,0,0,0,0,0,0,0,0,0,0,0,0,0,0,0,0,0,0,0,0,0,0,0,0,0,0,0,0,0,0,0,369,370,371,401,403,475,537,599,663,741,752,739,727,715,703,697,685,673,661,649,636,623,612,599,588,576,564,551,540,527,515,503,492,479,451,403,404,401,345,342,348,355,345,348,346,351,348,345,349,346,349,348,348,351,350,349,348,349,348,349,349,349,349,353,350,595,597,596,594,643,822,947,998,1102,1195,1196,1179,1178,1141,1116,1096,1089,1071,1039,1025,1018,974,983,937,918,899,887,882,837,801,800,648,628,719,652,613,605,611,580,588,592,578,585,585,584,589,588,598,584,582,584,586,584,586,587,603,589,587,584,585,587,589,589,608,588,196,201,202,203,243,249,280,313,346,377,402,396,388,383,375,370,363,357,350,345,339,331,326,319,314,306,300,294,288,280,275,270,262,257,250,244,245,245,169,170,170,173,173,174,171,173,171,176,172,171,174,175,177,180,176,176,177,173,177,178,178,178,174,176,176,252,252,253,260,262,280,369,412,455,487,515,515,507,497,490,481,474,458,450,441,434,431,424,416,408,398,384,376,374,365,351,291,284,278,270,262,264,256,218,208,208,210,217,218,213,211,209,216,224,217,219,223,223,221,220,217,217,226,226,226,214,215,224,215,209,394,390,391,393,416,507,587,652,717,779,789,785,764,751,739,727,713,701,688,676,663,658,646,625,613,600,588,575,589,551,545,525,518,409,423,395,396,416,364,365,363,365,365,370,369,371,366,366,368,364,367,365,368,371,366,367,368,369,365,367,369,373,367,368,366,594,596,598,606,626,817,948,1060,1172,1183,1205,1178,1175,1173,1109,1101,1090,1060,1083,1025,1003,1025,964,962,948,928,891,877,879,830,807,736,629,619,611,607,609,606,604,602,601,614,636,618,619,617,613,614,624,622,620,615,617,640,620,618,636,621,613,637,617,635,619,617,617,541,541,543,542,561,681,834,930,1039,1084,1092,1141,1125,1050,1028,1005,984,967,955,933,952,908,884,866,847,865,811,794,777,713,744,682,672,567,554,550,554,520,520,520,526,537,536,516,536,527,537,528,528,530,530,527,536,536,543,529,530,527,535,532,528,533,531,533,530,510,515,516,520,530,566,791,866,951,1023,1031,1013,1001,985,968,953,938,921,901,887,873,857,836,824,804,790,771,754,759,720,710,649,604,540,529,520,525,465,447,444,450,460,454,455,453,461,455,461,464,475,469,473,468,471,452,459,465,462,451,454,459,457,456,457,451,489,480,482,485,485,523,722,799,887,967,986,973,928,884,908,913,873,867,857,835,789,781,763,774,749,727,727,726,689,689,594,568,581,507,504,486,493,495,447,424,424,429,464,464,441,449,442,457,471,456,470,453,452,462,461,445,464,454,446,469,451,460,456,459,448,459,465,462,464,458,507,688,765,843,910,920,906,892,877,872,858,843,819,805,790,760,762,757,732,718,704,698,675,670,498,517,505,493,481,495,467,468,493,448,451,456,458,456,452,454,452,454,452,453,454,457,456,455,464,457,457,457,457,457,457,457,457,457,457,457,341,343,344,351,347,412,487,543,597,678,697,666,654,665,653,642,630,619,612,598,586,574,563,552,542,530,518,507,496,431,459,431,362,387,373,353,353,354,263,265,263,267,298,296,275,291,279,301,287,280,292,273,273,289,282,272,297,271,267,296,288,299,290,292,281,608,606,615,618,618,688,913,1017,1136,1212,1229,1205,1168,1121,1136,1117,1097,1093,1058,1023,1005,993,970,973,936,924,904,891,868,837,755,711,714,662,626,619,626,611,543,548,536,548,573,576,564,576,558,575,568,560,568,550,551,570,559,554,573,552,545,576,564,574,572,575,572,679,675,683,685,703,916,1034,1172,1271,1351,1320,1343,1314,1293,1255,1255,1178,1212,1174,1158,1155,1073,1102,1081,1059,1034,1023,991,935,857,848,828,771,667,670,702,728,705,669,670,668,684,675,682,674,683,682,675,674,679,675,676,673,671,677,680,678,680,673,676,679,701,686,701,680,381,382,383,383,386,438,533,596,648,709,728,715,704,693,682,671,658,647,634,623,630,620,598,601,573,563,573,563,553,510,497,485,485,462,391,387,387,366,332,331,331,340,357,361,341,359,345,363,355,344,358,343,343,357,349,342,360,341,337,359,354,360,356,359,348,411,351,352,353,415,445,522,589,652,704,713,737,690,679,667,688,676,633,653,610,629,588,576,635,553,610,531,519,522,496,542,513,480,451,388,355,356,357,345,350,355,378,352,351,349,351,349,347,350,349,348,349,348,350,350,351,350,351,349,352,350,354,350,353,352,787,804,788,816,844,962,1267,1399,1514,1578,1569,1556,1513,1504,1478,1452,1425,1401,1373,1335,1308,1288,1282,1249,1223,1194,1172,1157,1051,1031,1008,936,863,819,812,792,778,727,709,705,711,721,715,716,714,722,716,722,725,736,730,734,730,733,713,720,726,723,712,715,720,718,717,718,712,1179,1159,1151,1203,1376,1817,2227,2426,2541,2517,2494,2477,2427,2361,2353,2296,2211,2186,2159,2112,2064,2011,1962,1915,1876,1807,1784,1725,1587,1456,1395,1230,1234,1191,1176,1184,1184,1212,1200,1196,1219,1226,1209,1206,1207,1225,1228,1216,1226,1229,1227,1228,1246,1247,1214,1214,1213,1239,1243,1254,1237,1223,1228,1239,1236,993,996,993,1003,1044,1304,1610,1765,1915,1952,1949,1912,1893,1844,1813,1805,1749,1721,1707,1677,1668,1631,1569,1540,1532,1478,1469,1417,1425,1298,1137,1084,1064,1027,1004,1008,973,946,933,928,937,949,940,942,940,946,941,947,951,957,956,960,957,958,937,947,951,951,939,941,948,942,944,944,938,205,154,155,155,156,196,223,249,275,301,316,311,306,301,297,291,287,281,276,271,266,261,256,250,246,240,236,231,226,221,215,211,205,201,195,156,192,192,145,144,144,145,146,147,146,149,153,179,150,153,147,148,148,148,148,150,153,152,148,153,149,149,149,150,150,1389,1377,1387,1485,1620,2119,2480,2621,2748,2772,2753,2698,2665,2609,2566,2544,2481,2431,2404,2368,2342,2289,2212,2177,2122,2075,1978,1807,1697,1558,1490,1467,1466,1406,1412,1369,1375,1349,1338,1333,1342,1352,1346,1347,1345,1353,1347,1353,1356,1367,1361,1365,1361,1364,1344,1351,1357,1354,1343,1346,1351,1349,1348,1349,1343,211,212,213,213,214,272,307,314,344,374,389,383,378,371,366,360,355,348,343,337,332,326,320,314,309,303,322,314,308,301,294,288,280,273,267,215,215,216,190,189,192,195,191,190,192,192,189,191,192,191,190,192,191,191,190,190,190,190,190,190,190,190,190,190,190,996,998,996,1006,1094,1309,1616,1771,1921,1959,1954,1917,1897,1850,1818,1810,1754,1725,1711,1681,1672,1636,1574,1544,1536,1482,1473,1422,1404,1172,1140,1126,1068,1030,1007,1011,1003,976,953,954,956,978,965,962,971,975,965,978,982,986,987,991,987,988,964,970,979,975,961,968,973,968,966,967,961,936,938,948,962,1007,1404,1706,1853,1970,2021,1982,1973,1912,1918,1882,1871,1804,1789,1725,1697,1689,1643,1566,1571,1527,1457,1450,1448,1387,1317,1181,1028,989,971,973,956,959,965,960,960,966,970,971,963,963,970,977,982,980,976,984,988,989,985,978,971,978,982,983,999,984,982,988,999,998,460,461,527,464,468,567,705,822,866,918,925,985,895,881,866,852,837,822,808,794,778,764,750,792,720,773,691,674,693,690,638,566,596,482,468,467,535,469,476,474,478,483,483,480,486,478,480,487,490,480,487,510,513,489,505,505,484,485,483,486,479,489,486,491,483,477,477,478,479,480,546,711,792,897,954,968,960,932,918,908,906,872,855,849,825,810,804,789,764,749,743,727,713,697,648,612,597,560,499,487,487,489,486,440,436,436,444,463,466,448,461,454,468,461,454,463,459,458,473,462,448,468,460,444,463,465,464,460,463,452,640,642,645,647,653,863,975,1086,1197,1277,1278,1271,1250,1230,1197,1178,1157,1137,1117,1096,1076,1057,1036,1016,996,985,955,935,941,895,874,838,683,666,678,650,684,673,627,625,626,628,624,637,633,636,633,634,637,628,630,630,631,635,631,630,633,632,628,632,632,637,633,634,630,571,567,575,577,580,643,855,952,1059,1136,1153,1133,1096,1044,1069,1060,1029,1021,1007,963,929,921,902,910,883,857,851,848,814,790,703,659,613,591,599,578,582,568,502,498,496,505,531,534,515,522,518,531,528,522,530,510,512,530,521,515,532,513,507,536,529,532,530,533,524,879,864,867,878,922,1247,1532,1711,1831,1882,1848,1840,1785,1790,1754,1700,1679,1648,1604,1578,1562,1511,1449,1442,1382,1349,1320,1318,1284,1216,1114,1030,1003,891,896,878,899,887,891,894,912,926,910,900,909,908,909,904,909,898,905,913,923,923,951,931,906,908,919,920,914,903,907,917,908,482,485,487,489,490,516,712,795,884,961,986,962,940,896,915,900,884,873,853,814,799,790,772,778,753,736,721,718,697,665,600,557,553,512,499,492,493,494,426,431,419,431,459,458,438,467,440,456,450,443,451,432,433,451,441,435,456,434,427,457,445,464,456,462,456,522,497,498,497,507,608,767,855,944,998,1007,1039,1058,980,943,918,904,888,876,856,877,831,808,793,776,809,755,738,724,641,692,613,604,589,506,503,504,500,497,496,497,501,507,495,506,497,501,498,495,499,503,510,506,509,514,514,504,513,503,501,504,500,536,505,499,376,381,378,379,353,409,556,620,683,743,759,746,734,722,719,707,696,675,663,651,594,627,614,602,590,578,567,555,551,404,519,414,405,395,416,381,382,435,363,361,363,365,363,359,363,360,363,359,360,360,363,363,362,366,367,367,367,367,367,367,367,367,367,367,367,0,0,0,0,0,0,0,0,0,0,0,0,0,0,0,0,0,0,0,0,0,0,0,0,0,0,0,0,0,0,0,0,0,0,0,0,0,0,0,0,0,0,0,0,0,0,0,0,0,0,0,0,0,0,0,0,0,0,0,0,0,0,0,0,0,315,315,377,317,318,414,468,523,578,628,639,672,618,608,598,588,577,567,557,547,536,526,517,577,497,554,476,466,522,470,492,465,415,405,323,319,320,321,319,324,322,326,349,324,326,326,322,322,324,324,324,326,362,364,322,324,365,326,364,353,325,370,322,325,325,252,252,253,260,262,280,369,412,455,487,515,515,507,497,490,481,474,458,450,441,434,431,424,416,408,398,384,376,374,365,351,291,284,278,270,262,264,256,218,208,208,210,217,218,213,211,209,216,224,217,219,223,223,221,220,217,217,226,226,226,214,215,224,215,209,486,486,488,489,490,562,723,806,891,971,982,966,950,935,919,904,887,872,856,840,825,809,793,779,762,746,730,715,699,683,651,602,584,548,501,492,494,485,435,435,435,437,460,446,445,447,444,465,444,440,443,440,439,448,441,438,446,439,438,445,443,462,443,442,442,601,603,604,606,623,782,962,1018,1146,1219,1208,1189,1170,1150,1131,1112,1093,1074,1054,1035,1016,996,977,985,938,919,899,906,871,864,845,749,711,626,613,610,632,613,581,582,581,583,595,592,591,593,590,597,590,586,589,586,585,594,587,584,592,585,584,591,589,608,589,588,588,316,317,318,319,320,362,468,521,576,629,645,635,625,614,605,594,584,574,563,553,536,535,522,511,501,491,484,470,459,396,387,379,369,360,353,321,322,323,293,292,292,292,299,294,293,292,291,292,299,299,296,295,296,292,298,294,293,295,298,293,292,293,297,296,292,513,518,518,509,526,625,781,873,961,1021,1025,1009,1000,984,961,944,927,906,890,883,867,851,834,818,790,784,764,751,732,718,702,614,591,540,530,514,515,512,503,473,480,484,474,504,481,502,491,486,510,485,486,487,490,492,491,484,484,484,484,484,484,484,484,484,484,648,651,632,632,664,842,1010,1121,1213,1298,1305,1280,1218,1242,1222,1162,1139,1118,1098,1081,1097,1041,1064,997,1023,957,976,917,928,887,829,751,668,674,639,636,644,576,569,585,577,596,573,592,579,594,588,596,592,605,603,602,600,598,595,594,594,594,589,594,594,594,594,594,594,711,707,715,721,734,926,1108,1186,1354,1402,1424,1361,1396,1361,1344,1314,1294,1269,1248,1191,1192,1192,1147,1112,1093,1086,1070,1043,1029,972,891,819,746,747,727,716,719,710,648,646,650,666,689,669,663,667,665,694,673,669,672,669,668,677,668,667,675,668,667,671,667,679,667,665,665,709,729,716,723,736,804,1137,1261,1373,1421,1441,1424,1401,1377,1362,1331,1304,1286,1259,1224,1201,1200,1170,1147,1093,1100,1076,930,892,901,832,816,769,753,742,727,729,723,665,666,665,667,690,676,675,677,674,695,674,670,673,670,669,678,671,668,676,669,668,675,673,692,673,672,672,514,515,517,520,521,627,761,860,952,1027,1040,1022,1006,988,972,956,938,922,906,889,871,855,840,822,807,789,778,762,748,719,704,650,634,542,525,522,524,488,451,449,452,470,485,471,467,467,474,501,475,465,465,461,463,474,472,468,463,460,461,469,464,481,464,462,462,835,833,849,854,892,1097,1326,1495,1599,1658,1668,1601,1607,1587,1556,1538,1524,1484,1448,1407,1405,1378,1351,1304,1290,1263,1251,1219,1199,1115,1034,902,898,880,860,862,841,806,760,758,760,762,785,771,770,772,769,790,769,765,768,765,764,773,766,763,771,764,763,770,768,787,768,767,767,675,676,679,682,707,900,1058,1169,1295,1349,1350,1329,1307,1287,1265,1244,1222,1201,1190,1158,1136,1112,1103,1072,1050,1028,1043,985,964,900,843,824,719,701,689,706,708,710,684,682,688,699,696,702,688,699,712,694,696,697,692,697,697,711,704,710,695,701,698,702,713,724,715,715,715,615,606,618,630,617,756,917,1002,1116,1177,1193,1180,1151,1140,1111,1103,1088,1066,1049,1038,1004,986,989,938,924,906,894,877,863,847,806,676,664,630,636,617,634,595,549,550,549,551,574,560,559,561,558,579,558,554,557,554,553,562,555,552,560,553,552,559,557,576,557,556,556,141,142,142,143,143,146,203,227,251,276,291,286,281,277,272,267,262,258,254,249,244,239,235,231,225,221,216,212,206,202,198,193,188,183,146,143,144,144,136,135,135,135,143,143,135,142,136,138,140,142,140,141,144,155,147,150,139,144,142,146,152,147,151,153,152,936,921,926,926,1008,1304,1547,1688,1776,1847,1855,1817,1736,1777,1750,1652,1628,1595,1564,1545,1572,1502,1497,1422,1458,1386,1395,1274,1224,1207,1071,1005,967,970,938,920,886,838,831,846,838,857,834,853,840,855,849,857,853,866,865,864,862,860,856,855,855,855,850,855,855,855,855,855,855,1053,1054,1041,1087,1196,1651,1993,2169,2282,2309,2300,2244,2208,2187,2128,2030,2023,1984,1941,1909,1871,1820,1746,1744,1670,1620,1598,1570,1524,1426,1194,1142,1088,1064,1056,1049,1069,1052,1051,1049,1049,1049,1056,1051,1050,1049,1049,1050,1057,1056,1054,1053,1055,1051,1057,1053,1052,1054,1057,1052,1051,1052,1056,1055,1051,890,891,891,901,966,1347,1551,1742,1863,1897,1888,1842,1827,1797,1753,1706,1682,1652,1598,1591,1559,1506,1493,1459,1406,1388,1349,1319,1286,1251,1117,976,946,921,909,892,893,896,869,883,881,883,885,885,880,883,883,884,891,890,888,887,889,885,891,887,886,888,891,886,885,886,890,889,885,277,278,279,279,280,314,394,452,500,547,566,556,547,539,530,520,511,502,493,485,475,466,457,448,440,430,421,412,399,388,381,372,367,354,315,281,310,310,253,245,245,246,271,256,255,257,253,273,253,251,253,251,249,259,251,249,256,249,248,255,253,264,253,251,251,1263,1262,1266,1343,1527,2053,2302,2478,2582,2607,2584,2525,2498,2456,2401,2342,2311,2267,2217,2188,2142,2090,2058,2013,1954,1917,1869,1807,1519,1476,1395,1357,1321,1295,1284,1252,1240,1240,1215,1230,1225,1230,1234,1232,1231,1230,1230,1231,1238,1237,1235,1234,1236,1232,1238,1234,1233,1235,1238,1233,1232,1233,1237,1236,1232,434,436,437,439,440,521,642,703,774,888,871,894,843,829,817,803,789,817,763,750,764,761,709,695,683,678,664,685,658,622,609,589,491,489,478,442,442,443,407,408,407,409,432,418,417,419,416,437,416,412,415,412,411,420,413,410,418,411,410,417,415,434,415,414,414,1018,1015,1018,1032,1189,1573,1800,1986,2104,2137,2122,2073,2052,2019,1971,1921,1892,1857,1809,1794,1756,1706,1685,1648,1592,1568,1461,1424,1389,1359,1237,1100,1075,1049,1037,1020,1032,1020,995,1007,1004,1007,1013,1009,1006,1007,1007,1008,1015,1014,1012,1011,1013,1009,1015,1011,1010,1012,1015,1010,1009,1010,1014,1013,1009,816,812,840,817,879,1235,1420,1609,1733,1773,1762,1719,1707,1697,1637,1594,1636,1542,1498,1540,1453,1468,1391,1365,1314,1296,1258,1258,1226,1169,939,923,888,842,846,825,821,834,806,797,805,806,829,824,823,822,822,823,830,814,827,813,817,824,827,817,817,817,817,817,817,817,817,817,817,189,189,189,215,231,244,275,305,336,367,378,372,367,360,355,349,344,337,332,326,357,314,309,302,297,291,284,279,273,268,261,256,250,244,238,232,232,235,181,180,180,180,180,180,180,180,180,180,180,180,181,184,182,181,183,181,186,182,186,190,183,188,182,183,186,719,712,714,723,733,915,1102,1243,1361,1419,1438,1408,1376,1376,1347,1335,1296,1282,1251,1218,1203,1183,1152,1137,1109,1087,1067,1045,1008,951,920,863,797,747,728,721,723,703,657,658,657,659,682,668,667,669,666,687,666,662,665,662,661,670,663,660,668,661,660,667,665,683,665,664,664,877,880,887,890,945,1175,1399,1563,1690,1708,1735,1708,1680,1653,1625,1598,1570,1543,1515,1488,1503,1433,1405,1378,1350,1323,1295,1268,1216,1107,1101,960,907,905,893,897,893,884,844,845,844,846,869,855,854,856,853,869,853,849,852,849,848,857,850,847,855,848,847,854,852,871,852,851,851,803,791,803,816,834,1040,1261,1352,1528,1569,1594,1521,1548,1522,1499,1470,1448,1419,1388,1331,1333,1318,1283,1246,1223,1210,1197,1168,1144,1063,982,853,831,838,819,811,793,765,719,717,719,721,744,730,729,731,728,749,728,724,727,724,723,732,725,722,730,723,722,729,727,746,727,726,726,753,749,751,752,803,1116,1285,1466,1592,1634,1626,1584,1573,1548,1508,1466,1446,1416,1376,1365,1336,1295,1280,1252,1203,1187,1156,1126,1097,1067,1038,1001,809,781,768,751,761,765,738,752,749,752,754,753,747,752,752,753,760,759,757,756,758,754,760,756,755,757,760,755,754,755,759,758,754,714,712,719,726,747,911,1104,1241,1348,1414,1435,1373,1382,1366,1339,1325,1304,1279,1239,1201,1202,1179,1156,1121,1102,1080,1073,1048,1023,978,897,798,750,754,733,721,724,689,643,641,643,645,668,654,653,655,652,673,652,648,651,648,647,656,649,646,654,647,646,653,651,670,651,650,650,509,511,491,505,519,609,750,834,918,974,980,966,957,953,921,905,890,874,860,843,835,811,806,790,763,749,733,718,725,710,693,585,523,536,519,503,504,492,474,487,478,498,475,497,480,498,488,495,490,482,496,488,499,495,494,492,492,492,492,492,492,492,492,492,492,624,645,631,639,633,706,987,1101,1206,1258,1282,1266,1246,1225,1214,1184,1160,1140,1119,1058,1067,1061,1036,1019,966,980,957,938,798,901,774,725,705,688,656,642,644,637,580,581,580,582,605,591,590,592,589,610,589,585,588,585,584,593,586,583,591,584,583,590,588,607,588,587,587,262,264,264,265,280,297,388,424,468,513,542,532,524,515,507,498,490,481,472,464,454,447,438,429,421,420,412,394,394,384,315,311,300,293,285,277,278,279,217,218,217,219,242,228,227,229,226,247,226,222,225,222,221,230,223,220,228,221,220,227,225,244,225,224,224,0,0,0,0,0,0,0,0,0,0,0,0,0,0,0,0,0,0,0,0,0,0,0,0,0,0,0,0,0,0,0,0,0,0,0,0,0,0,0,0,0,0,0,0,0,0,0,0,0,0,0,0,0,0,0,0,0,0,0,0,0,0,0,0,0,486,486,488,489,490,562,723,806,891,971,982,966,950,935,919,904,887,872,856,840,825,809,793,779,762,746,730,715,699,683,651,602,584,548,501,492,494,485,435,435,435,437,460,446,445,447,444,465,444,440,443,440,439,448,441,438,446,439,438,445,443,462,443,442,442,0,0,0,0,0,0,0,0,0,0,0,0,0,0,0,0,0,0,0,0,0,0,0,0,0,0,0,0,0,0,0,0,0,0,0,0,0,0,0,0,0,0,0,0,0,0,0,0,0,0,0,0,0,0,0,0,0,0,0,0,0,0,0,0,0,440,441,442,443,447,535,654,726,810,865,889,875,861,847,832,818,816,802,788,774,760,746,730,716,702,688,673,659,645,584,569,558,472,460,450,446,447,436,397,395,400,403,400,400,401,403,401,404,402,402,407,409,412,409,409,406,403,408,406,407,404,409,408,411,409,747,747,751,750,793,1018,1197,1330,1424,1434,1477,1478,1446,1428,1389,1368,1342,1321,1290,1303,1269,1233,1209,1244,1164,1129,1139,1078,1057,1025,995,918,870,776,765,764,749,764,750,747,755,751,760,758,756,775,764,760,773,765,771,773,775,782,770,764,761,772,767,757,763,782,764,771,764,688,689,694,694,711,821,1050,1202,1319,1327,1363,1351,1320,1303,1277,1260,1234,1216,1217,1173,1170,1149,1130,1099,1079,1059,1033,1007,954,861,910,822,731,716,711,711,722,671,661,666,665,667,675,674,673,674,662,672,671,671,666,672,673,674,672,676,673,679,675,676,673,670,671,669,664,592,616,622,627,632,707,940,1080,1160,1209,1194,1183,1167,1153,1114,1150,1125,1082,1040,1043,1023,982,972,976,955,933,913,867,885,871,669,696,659,644,634,635,611,589,527,519,523,536,532,534,536,534,526,534,535,535,531,535,535,532,533,535,536,540,538,536,534,533,530,530,528,385,369,370,371,390,441,600,650,722,761,765,753,741,710,726,752,650,726,696,684,643,631,631,607,595,583,570,557,584,566,509,510,396,439,378,374,392,376,377,377,377,379,379,379,379,381,376,380,379,379,377,380,379,377,379,380,379,380,380,379,379,377,377,379,377,326,306,307,308,309,409,469,501,552,600,627,617,594,584,574,577,555,545,536,556,518,508,498,515,479,469,460,451,466,432,422,435,403,393,315,310,311,312,300,301,307,310,313,314,312,307,307,317,303,306,311,305,303,305,303,305,304,304,306,306,311,306,306,312,305,392,397,398,401,403,449,595,665,734,792,797,785,776,763,750,772,727,711,698,686,673,659,646,635,622,609,595,583,570,559,544,466,453,442,411,401,402,396,321,317,318,320,338,332,328,329,320,338,332,331,328,327,329,330,330,328,336,333,331,334,331,336,327,328,326,441,442,445,445,449,575,659,738,802,877,897,883,869,849,834,826,811,788,783,770,754,740,718,707,698,684,664,651,641,622,605,598,559,466,451,461,449,450,417,417,417,419,419,419,419,421,416,420,419,419,417,420,419,417,419,420,419,420,420,419,419,417,417,419,417,731,761,731,758,755,983,1101,1276,1436,1444,1464,1431,1400,1377,1354,1331,1314,1325,1288,1272,1273,1216,1199,1201,1160,1114,1090,1067,936,928,985,819,771,780,746,739,735,756,727,725,730,733,730,730,731,733,731,734,732,732,737,739,742,739,739,736,733,738,736,737,734,739,738,741,739,320,321,322,323,363,305,421,515,520,567,579,570,561,552,542,533,524,514,506,558,487,477,510,459,449,441,431,422,413,403,448,385,307,300,292,365,365,367,272,270,268,269,271,278,274,278,273,279,276,276,279,277,278,277,281,278,278,282,277,282,278,274,275,276,276,542,536,538,540,550,703,825,909,1003,1066,1081,1063,1032,1038,1020,994,976,962,942,933,904,898,895,863,846,817,809,757,742,726,709,678,722,558,596,551,573,564,525,526,515,526,527,528,532,535,526,526,529,540,541,526,528,528,535,542,530,532,525,527,524,530,534,526,519,865,865,875,878,897,975,1383,1545,1668,1702,1691,1676,1650,1625,1597,1599,1544,1519,1490,1460,1467,1406,1378,1366,1342,1309,1285,1173,1175,1166,1032,955,941,902,890,898,852,851,789,780,784,797,793,795,797,795,787,795,796,796,792,796,797,794,794,796,797,801,799,797,795,794,791,791,789,1306,1297,1335,1383,1593,2030,2485,2690,2778,2744,2746,2723,2643,2591,2589,2495,2444,2425,2356,2345,2249,2222,2179,2143,2074,2005,1965,1863,1665,1488,1444,1403,1379,1371,1331,1335,1332,1340,1339,1343,1352,1342,1352,1361,1358,1378,1367,1364,1375,1380,1375,1377,1395,1382,1368,1369,1371,1396,1399,1378,1400,1370,1378,1377,1375,1086,1108,1116,1121,1190,1434,1815,2028,2113,2143,2118,2100,2087,2055,2016,2013,1941,1923,1861,1844,1799,1761,1729,1722,1664,1631,1611,1566,1469,1236,1268,1184,1150,1111,1121,1109,1060,1075,1006,1006,1012,1015,1019,1021,1021,1020,1012,1021,1020,1022,1018,1023,1022,1018,1021,1021,1024,1028,1025,1025,1019,1021,1017,1017,1015,306,307,308,309,310,398,450,500,551,544,625,616,606,596,586,575,565,555,545,535,525,515,506,496,486,476,466,456,445,435,425,419,410,396,315,311,312,313,295,296,297,302,310,296,300,315,296,301,299,298,301,316,303,301,301,299,298,301,317,307,300,303,300,301,299,1250,1257,1263,1337,1697,2051,2332,2511,2595,2624,2619,2564,2535,2462,2414,2368,2325,2278,2230,2194,2151,2102,2049,2015,1973,1927,1873,1812,1619,1527,1378,1346,1302,1295,1273,1292,1282,1300,1266,1266,1266,1268,1268,1268,1268,1270,1265,1269,1268,1268,1266,1269,1268,1266,1268,1269,1268,1269,1269,1268,1268,1266,1266,1268,1266,106,107,107,107,132,134,151,168,185,203,215,212,209,205,202,199,195,192,189,185,182,179,174,171,168,165,161,158,155,151,148,145,141,138,135,132,132,133,94,92,95,98,95,94,95,97,95,97,95,95,99,101,104,100,100,97,94,99,97,98,94,99,98,99,97,1089,1111,1115,1121,1148,1439,1830,2034,2123,2149,2124,2106,2092,2060,2026,2018,1945,1928,1865,1849,1805,1765,1734,1727,1667,1634,1615,1569,1404,1240,1223,1187,1152,1114,1125,1122,1090,1095,1033,1025,1041,1040,1039,1046,1048,1044,1040,1048,1049,1048,1044,1048,1049,1045,1044,1049,1049,1050,1049,1047,1045,1043,1040,1040,1038,1062,1087,1102,1130,1221,1602,1926,2172,2282,2260,2277,2231,2171,2151,2132,2086,2076,2030,1969,1933,1918,1848,1811,1777,1749,1690,1649,1604,1557,1424,1269,1157,1150,1111,1128,1115,1097,1098,1099,1107,1106,1109,1119,1118,1114,1123,1122,1138,1133,1128,1134,1135,1135,1129,1131,1126,1137,1137,1139,1140,1132,1128,1134,1134,1127,626,628,633,651,664,840,1028,1093,1212,1225,1273,1233,1186,1223,1200,1139,1118,1138,1111,1131,1062,1063,1007,1003,1011,974,961,925,895,885,854,799,710,667,662,665,644,622,647,647,645,654,658,657,660,648,651,654,658,659,652,657,659,663,659,658,657,652,655,657,657,659,655,661,649,377,378,379,380,382,483,585,687,742,775,784,772,759,746,734,720,708,697,684,671,658,646,619,621,609,611,584,570,558,546,534,521,494,482,469,451,384,385,379,383,384,388,392,388,387,413,381,390,388,389,388,392,393,409,388,389,393,391,390,392,392,395,382,390,384,691,685,687,690,692,877,1042,1160,1300,1339,1354,1352,1317,1295,1274,1247,1213,1204,1183,1161,1145,1118,1102,1075,1054,1032,1012,991,969,926,905,838,722,717,704,702,703,699,660,654,660,666,663,663,664,666,664,667,665,665,670,672,675,672,672,669,666,671,669,670,667,672,671,674,672,405,405,408,408,411,531,602,674,743,806,835,814,827,782,768,761,748,735,721,709,695,682,668,650,642,629,611,598,589,572,563,550,510,453,414,429,412,413,375,375,375,377,377,377,377,379,374,378,377,377,375,378,377,375,377,378,377,378,378,377,377,375,375,377,375,1006,1019,1021,1040,1121,1424,1784,2031,2094,2124,2147,2099,2041,2022,2000,1956,1921,1854,1835,1806,1756,1737,1681,1667,1610,1554,1543,1479,1455,1149,1127,1097,1075,1054,1051,1035,1030,1035,1040,1041,1019,1017,1053,1032,1046,1055,1045,1044,1058,1049,1053,1062,1069,1059,1045,1063,1061,1068,1076,1052,1062,1050,1057,1046,1044,355,356,357,367,369,462,523,586,646,711,729,716,713,687,676,671,658,646,635,623,611,600,589,572,566,553,537,525,519,502,491,484,397,462,364,360,361,366,324,324,324,326,326,326,326,328,323,327,326,326,324,327,326,324,326,327,326,327,327,326,326,324,324,326,324,644,647,656,650,672,739,967,1117,1231,1244,1283,1260,1255,1226,1191,1175,1151,1135,1148,1095,1092,1074,1058,1029,1009,985,969,953,882,790,858,754,719,667,661,663,695,651,646,638,640,647,651,651,650,652,657,653,653,646,651,659,657,651,659,658,656,661,649,650,651,655,653,656,633,222,223,224,224,225,286,323,359,397,433,448,442,434,427,420,413,407,399,392,386,378,371,364,357,350,343,336,330,322,315,308,301,294,287,280,276,276,277,215,216,216,223,220,221,217,224,216,223,217,220,220,217,225,270,220,220,222,223,223,217,222,270,217,218,216,273,273,274,304,305,349,396,441,487,534,561,552,543,535,525,516,508,499,490,481,472,462,453,444,436,427,417,409,400,391,381,373,365,354,309,306,306,307,246,245,252,261,248,251,250,256,252,249,253,250,252,249,251,254,251,250,250,254,252,248,252,255,251,255,252,506,501,502,504,514,674,761,840,926,990,1006,991,983,954,951,927,910,897,878,870,842,838,836,805,789,763,756,740,700,685,669,549,657,522,513,515,529,509,482,485,483,496,483,485,499,506,484,482,485,497,501,481,483,485,491,484,484,491,480,486,478,485,487,484,476,0,0,0,0,0,0,0,0,0,0,0,0,0,0,0,0,0,0,0,0,0,0,0,0,0,0,0,0,0,0,0,0,0,0,0,0,0,0,0,0,0,0,0,0,0,0,0,0,0,0,0,0,0,0,0,0,0,0,0,0,0,0,0,0,0 ]);
