n = 10;
D = [170,286,271,67,207,273,202,130,209,234 ];
q = 0;
prec = array2d(1..0,1..2,[]);
steps = 64;
l = 360;
r = 0;
which = [];
interval = array2d(1..0,1..2,[]);
T = array3d(1..11,1..11,0..64,[0,0,0,0,0,0,0,0,0,0,0,0,0,0,0,0,0,0,0,0,0,0,0,0,0,0,0,0,0,0,0,0,0,0,0,0,0,0,0,0,0,0,0,0,0,0,0,0,0,0,0,0,0,0,0,0,0,0,0,0,0,0,0,0,0,418,419,421,422,424,440,499,557,616,700,745,685,721,640,630,640,608,618,586,671,565,574,562,551,522,511,518,507,496,484,473,462,482,467,414,410,411,427,412,415,417,426,412,420,415,423,429,414,423,414,416,418,417,423,418,422,418,426,420,426,419,431,418,427,424,635,662,639,641,656,679,804,899,986,989,993,977,961,992,975,1004,898,882,866,907,834,818,802,864,771,785,739,723,781,780,735,659,733,652,614,645,647,648,654,649,647,648,647,649,652,652,653,648,653,647,652,649,652,653,656,656,651,652,653,657,652,667,654,660,657,248,249,250,251,251,261,294,326,359,391,405,399,393,386,380,374,368,362,355,349,343,337,331,324,318,312,306,300,293,287,281,275,269,262,256,252,253,253,235,235,231,236,239,258,235,240,247,243,238,240,233,238,240,231,238,239,240,240,236,238,243,242,236,241,236,1361,1344,1370,1389,1599,1783,1964,2155,2194,2152,2190,2178,2088,2011,2010,2003,1980,1941,1841,1894,1842,1741,1737,1699,1697,1653,1572,1539,1589,1555,1439,1441,1373,1379,1383,1351,1389,1339,1427,1430,1433,1443,1443,1489,1444,1479,1473,1482,1472,1480,1470,1479,1467,1494,1457,1463,1473,1463,1458,1493,1473,1501,1471,1484,1478,707,709,725,697,719,837,957,1064,1149,1186,1208,1156,1181,1169,1088,1082,1127,1032,1030,1050,1001,992,952,972,902,907,865,830,871,852,793,786,753,750,789,715,717,753,730,741,739,753,741,751,749,754,751,749,752,741,753,747,761,768,763,770,760,756,768,756,755,760,760,768,759,1144,1148,1147,1161,1278,1435,1643,1801,1893,1881,1905,1851,1842,1774,1715,1718,1721,1648,1617,1632,1565,1540,1538,1485,1448,1427,1400,1315,1358,1309,1282,1227,1198,1160,1207,1167,1169,1169,1181,1173,1193,1214,1215,1196,1179,1200,1187,1231,1219,1204,1207,1335,1226,1226,1342,1220,1219,1214,1227,1227,1221,1223,1220,1228,1228,755,685,760,736,810,809,1019,1098,1202,1155,1193,1217,1091,1184,1165,1043,1118,1016,998,980,953,1051,999,907,990,963,884,901,871,798,790,778,748,779,705,731,780,701,725,726,769,1037,779,713,759,852,794,731,830,804,749,756,832,812,808,720,748,741,785,782,731,763,739,740,752,570,518,520,522,527,638,650,726,802,922,971,925,897,895,880,865,850,835,820,794,847,764,750,745,744,715,700,685,670,655,620,625,602,595,582,525,572,571,565,559,556,561,596,587,598,594,579,606,584,576,590,564,568,583,579,570,590,567,561,585,585,600,591,591,584,707,705,709,749,783,824,914,1044,1130,1206,1198,1186,1121,1133,1142,1066,1103,1029,1011,993,974,975,937,913,941,929,866,846,827,804,790,804,750,769,717,794,781,722,740,745,762,789,778,778,779,758,768,767,802,790,756,763,800,795,812,755,753,763,786,756,749,756,768,756,737,0,0,0,0,0,0,0,0,0,0,0,0,0,0,0,0,0,0,0,0,0,0,0,0,0,0,0,0,0,0,0,0,0,0,0,0,0,0,0,0,0,0,0,0,0,0,0,0,0,0,0,0,0,0,0,0,0,0,0,0,0,0,0,0,0,239,240,241,241,242,252,286,319,352,385,400,393,387,380,374,368,361,355,349,342,336,330,323,317,311,304,298,292,285,279,272,266,260,253,247,243,243,244,232,228,243,323,250,226,246,272,251,235,243,241,241,236,245,241,246,235,235,232,242,248,232,241,234,236,241,0,0,0,0,0,0,0,0,0,0,0,0,0,0,0,0,0,0,0,0,0,0,0,0,0,0,0,0,0,0,0,0,0,0,0,0,0,0,0,0,0,0,0,0,0,0,0,0,0,0,0,0,0,0,0,0,0,0,0,0,0,0,0,0,0,884,820,823,827,945,963,1176,1352,1304,1397,1442,1410,1411,1327,1290,1232,1211,1189,1168,1146,1125,1217,1082,1061,1039,1137,1035,1060,977,965,943,889,868,847,868,902,867,856,853,869,851,864,868,870,877,889,867,864,864,871,867,863,864,868,874,873,871,866,867,870,869,889,882,896,873,292,293,294,294,295,309,348,360,393,427,439,433,427,420,414,408,401,395,388,382,376,369,363,356,350,344,359,352,345,337,330,323,315,308,300,296,297,298,284,286,284,289,301,307,295,316,304,304,314,307,301,293,294,304,294,292,303,301,291,295,294,304,297,301,289,1089,1089,1085,1150,1254,1394,1520,1714,1702,1817,1764,1734,1701,1720,1651,1688,1576,1550,1538,1539,1498,1465,1459,1438,1369,1333,1349,1308,1256,1216,1166,1172,1176,1114,1076,1082,1097,1105,1122,1111,1114,1119,1169,1150,1157,1156,1142,1210,1151,1136,1152,1123,1128,1144,1141,1134,1153,1131,1123,1149,1146,1168,1156,1159,1152,486,455,456,458,516,499,633,645,712,856,799,810,742,757,746,706,694,736,778,645,633,621,669,597,608,586,617,548,558,524,565,538,488,476,465,460,476,463,471,467,467,472,473,465,478,470,469,470,470,467,477,475,469,472,500,481,468,468,468,470,470,476,475,472,471,886,901,896,939,982,1060,1235,1370,1420,1487,1503,1481,1387,1441,1385,1348,1331,1309,1278,1214,1207,1171,1207,1172,1136,1100,1101,1080,1091,1023,1048,1028,958,910,940,880,892,913,914,923,923,940,939,938,939,952,927,942,931,925,939,947,942,945,973,953,938,932,947,943,934,961,960,969,955,465,466,467,469,486,511,578,646,735,761,768,756,711,723,719,707,695,711,663,658,646,634,622,583,597,579,573,561,536,536,490,483,519,495,476,472,473,474,464,463,464,467,472,477,468,473,476,471,472,473,473,477,477,483,484,485,477,481,480,487,490,507,509,516,509,674,680,682,684,713,777,881,999,1072,1114,1119,1108,1079,1095,1062,1054,1020,1008,990,955,939,916,901,884,881,848,830,812,834,768,759,770,724,706,695,688,690,692,691,695,700,701,709,695,712,708,706,700,706,707,707,707,720,730,753,740,717,716,724,712,707,702,718,720,707,484,456,457,456,461,498,563,628,694,739,749,788,806,720,708,688,678,666,658,642,665,625,607,595,583,604,559,546,536,519,512,503,520,479,465,461,462,464,458,458,457,462,468,457,468,460,461,460,457,462,463,469,462,468,494,493,465,470,463,460,463,463,478,468,462,239,240,241,241,242,252,286,319,352,385,400,393,387,380,374,368,361,355,349,342,336,330,323,317,311,304,298,292,285,279,272,266,260,253,247,243,243,244,232,228,243,323,250,226,246,272,251,235,243,241,241,236,245,241,246,235,235,232,242,248,232,241,234,236,241,715,717,786,749,746,824,964,1043,1242,1192,1194,1156,1137,1118,1099,1081,1062,1043,1116,1006,1023,968,981,931,912,893,874,946,874,818,839,781,762,743,796,726,755,729,735,740,743,772,748,758,747,747,740,739,753,746,755,762,760,753,759,764,751,747,761,748,744,754,739,751,745,880,883,886,922,943,1048,1188,1321,1406,1478,1469,1416,1427,1385,1362,1324,1301,1292,1254,1244,1238,1185,1172,1139,1116,1093,1070,1047,1024,1001,978,955,955,910,897,917,904,899,913,917,905,919,915,912,923,934,916,907,915,924,925,912,915,921,922,921,916,922,912,923,914,932,921,919,912,0,0,0,0,0,0,0,0,0,0,0,0,0,0,0,0,0,0,0,0,0,0,0,0,0,0,0,0,0,0,0,0,0,0,0,0,0,0,0,0,0,0,0,0,0,0,0,0,0,0,0,0,0,0,0,0,0,0,0,0,0,0,0,0,0,733,795,737,776,765,844,954,1064,1152,1193,1194,1175,1156,1137,1118,1100,1081,1062,1126,1073,1006,987,968,982,930,911,893,874,855,836,817,799,780,761,747,744,746,748,730,731,743,759,746,749,741,753,741,767,747,745,761,763,783,793,772,761,762,766,764,762,769,787,762,771,758,1829,1930,1937,2161,2235,2567,2826,2852,2950,2888,2841,2812,2799,2793,2827,2646,2607,2589,2529,2533,2424,2369,2291,2269,2310,2211,2197,2057,2092,1967,1940,1978,1875,1885,1898,1865,1844,1860,2156,2175,2185,2200,2225,2254,2222,2247,2244,2255,2284,2280,2300,2338,2307,2325,2323,2349,2384,2386,2408,2370,2400,2433,2437,2440,2422,1212,1257,1203,1327,1376,1571,1704,1833,1941,1945,1902,1905,1920,1856,1929,1769,1734,1739,1765,1734,1615,1638,1554,1551,1616,1520,1511,1414,1409,1321,1308,1277,1231,1251,1213,1194,1229,1273,1277,1251,1262,1275,1289,1296,1275,1275,1277,1290,1333,1305,1309,1296,1307,1312,1322,1300,1298,1320,1315,1321,1309,1305,1330,1348,1330,1663,1684,1691,1927,2000,2352,2410,2515,2591,2584,2585,2559,2550,2451,2548,2391,2319,2295,2332,2242,2191,2167,2083,2048,2070,2016,1957,1922,1895,1781,1762,1747,1665,1679,1688,1629,1652,1639,1822,1830,1868,2140,1894,1832,1881,1983,1900,1862,1952,1931,1869,1872,1947,1935,1922,1833,1863,1856,1903,1902,1841,1887,1850,1849,1851,1153,1182,1187,1272,1334,1527,1702,1807,1883,1965,1952,1885,1840,1771,1780,1756,1742,1683,1662,1646,1639,1579,1577,1537,1497,1470,1414,1348,1353,1356,1309,1273,1233,1211,1198,1210,1221,1164,1245,1223,1221,1233,1364,1335,1276,1295,1277,1366,1337,1318,1364,1290,1315,1327,1353,1280,1352,1334,1338,1376,1334,1398,1398,1440,1332,863,845,877,853,884,1036,1144,1307,1355,1395,1388,1400,1333,1311,1289,1252,1241,1191,1201,1165,1170,1162,1134,1091,1041,1059,1013,1055,987,989,949,957,915,892,897,856,903,903,875,868,882,891,892,900,889,905,884,913,904,884,892,889,896,900,896,896,899,888,892,898,893,900,893,916,896,1193,1186,1191,1286,1357,1561,1707,1848,1929,1974,1941,1897,1865,1893,1778,1776,1732,1727,1660,1630,1652,1566,1592,1506,1540,1496,1418,1402,1357,1373,1308,1277,1237,1247,1228,1200,1211,1204,1259,1257,1260,1268,1284,1329,1271,1300,1298,1304,1318,1313,1306,1312,1296,1320,1291,1292,1302,1297,1289,1333,1307,1335,1305,1319,1321,715,717,786,749,746,824,964,1043,1242,1192,1194,1156,1137,1118,1099,1081,1062,1043,1116,1006,1023,968,981,931,912,893,874,946,874,818,839,781,762,743,796,726,755,729,735,740,743,772,748,758,747,747,740,739,753,746,755,762,760,753,759,764,751,747,761,748,744,754,739,751,745,194,194,195,195,196,203,229,256,283,309,324,318,313,308,303,298,293,288,283,277,272,267,262,257,252,247,241,236,231,226,221,216,211,205,200,197,197,198,186,182,184,185,185,184,185,185,182,184,184,184,184,185,185,184,184,186,185,185,185,185,182,184,185,184,184,289,290,290,291,292,308,349,390,432,471,483,476,468,460,452,445,437,429,421,414,406,398,390,383,375,367,360,352,344,336,329,321,313,305,298,293,294,295,281,288,289,294,292,293,289,296,284,302,287,287,293,292,304,311,300,293,294,288,297,295,295,301,288,293,287,779,781,783,786,821,910,1031,1152,1240,1318,1278,1358,1237,1274,1196,1265,1155,1134,1132,1214,1141,1053,1032,1043,991,971,950,930,909,916,869,913,894,807,794,856,828,795,804,822,816,821,841,815,824,841,821,822,833,817,836,829,845,851,1000,947,858,833,830,823,822,817,832,858,813,0,0,0,0,0,0,0,0,0,0,0,0,0,0,0,0,0,0,0,0,0,0,0,0,0,0,0,0,0,0,0,0,0,0,0,0,0,0,0,0,0,0,0,0,0,0,0,0,0,0,0,0,0,0,0,0,0,0,0,0,0,0,0,0,0,1243,1218,1263,1338,1406,1576,1822,1905,1985,2054,2057,1910,1884,1961,1909,1841,1844,1766,1697,1653,1724,1668,1648,1577,1583,1526,1530,1426,1418,1387,1340,1366,1324,1329,1284,1259,1317,1256,1328,1327,1332,1334,1346,1336,1337,1350,1328,1359,1350,1389,1371,1375,1352,1384,1363,1397,1359,1361,1358,1383,1387,1359,1368,1363,1404,650,652,654,666,693,686,830,882,966,996,1012,1022,1023,1010,949,933,918,940,852,837,821,819,803,774,759,766,754,751,696,680,680,664,685,682,619,646,661,650,636,632,639,631,626,639,636,632,636,664,662,648,640,653,641,651,647,648,638,640,639,646,644,644,636,666,649,1040,1043,1054,1062,1200,1270,1434,1600,1691,1716,1689,1697,1688,1663,1552,1540,1518,1497,1442,1420,1390,1378,1341,1294,1298,1274,1291,1213,1210,1171,1173,1153,1142,1100,1094,1078,1097,1050,1113,1105,1105,1115,1103,1107,1176,1173,1112,1138,1126,1108,1110,1158,1166,1180,1175,1183,1165,1181,1181,1158,1138,1144,1118,1119,1115,631,642,644,621,661,672,761,928,1006,1113,1032,1024,1055,1049,919,903,888,872,936,911,895,868,887,794,830,762,797,781,776,749,712,674,616,657,649,641,642,673,640,651,651,663,670,668,672,662,647,674,656,648,657,661,666,668,691,672,652,647,655,654,649,661,659,663,646,602,612,606,608,620,675,765,853,952,987,1054,983,995,939,923,908,892,876,860,845,840,813,801,782,766,750,793,719,712,687,702,685,643,633,611,611,613,634,611,617,608,639,613,638,610,639,621,628,626,623,632,625,641,647,639,641,636,638,645,633,645,648,647,660,655,638,626,628,646,643,679,773,864,947,991,1052,980,959,948,932,915,901,885,889,875,861,840,875,811,792,778,808,749,733,718,715,683,675,633,619,680,635,652,630,641,636,669,630,657,638,662,649,655,651,639,653,644,655,655,652,652,659,654,663,648,652,662,654,666,668,194,194,195,195,196,203,229,256,283,309,324,318,313,308,303,298,293,288,283,277,272,267,262,257,252,247,241,236,231,226,221,216,211,205,200,197,197,198,186,182,184,185,185,184,185,185,182,184,184,184,184,185,185,184,184,186,185,185,185,185,182,184,185,184,184,1363,1352,1327,1405,1570,1731,1967,2096,2110,2193,2195,2299,2041,2000,2016,1988,1914,1915,1844,1859,1780,1792,1769,1674,1696,1614,1580,1542,1512,1543,1441,1438,1380,1356,1330,1357,1341,1420,1412,1389,1404,1402,1410,1421,1413,1412,1417,1430,1459,1443,1445,1450,1450,1461,1453,1453,1443,1468,1476,1473,1468,1457,1482,1493,1498,1230,1205,1198,1209,1403,1511,1652,1828,1792,1921,1911,1881,1814,1784,1769,1760,1724,1723,1677,1686,1577,1544,1581,1512,1504,1424,1394,1361,1361,1326,1274,1269,1247,1214,1247,1178,1181,1209,1257,1259,1260,1264,1290,1334,1279,1309,1302,1314,1327,1317,1295,1307,1298,1330,1284,1289,1306,1295,1283,1317,1304,1325,1294,1310,1307,1957,1983,2086,2269,2551,2824,3008,3009,3039,3126,3094,3044,2915,2825,2881,2865,2769,2691,2774,2697,2613,2596,2466,2360,2389,2332,2250,2250,2126,2195,2108,2096,1967,1977,1927,1956,1935,2016,2379,2375,2387,2469,2405,2410,2405,2409,2417,2522,2405,2401,2425,2438,2500,2451,2444,2429,2427,2428,2397,2400,2413,2436,2423,2442,2399,1286,1329,1244,1307,1463,1622,1788,1964,1981,2066,2113,2007,1935,1882,1901,1887,1803,1806,1737,1710,1701,1690,1671,1590,1603,1582,1529,1490,1465,1462,1362,1360,1312,1278,1253,1279,1285,1360,1333,1330,1348,1361,1357,1373,1353,1373,1350,1394,1375,1355,1368,1364,1382,1401,1382,1378,1387,1365,1375,1384,1384,1395,1374,1402,1379,0,0,0,0,0,0,0,0,0,0,0,0,0,0,0,0,0,0,0,0,0,0,0,0,0,0,0,0,0,0,0,0,0,0,0,0,0,0,0,0,0,0,0,0,0,0,0,0,0,0,0,0,0,0,0,0,0,0,0,0,0,0,0,0,0,821,792,824,798,871,938,1055,1148,1168,1275,1285,1235,1231,1213,1230,1177,1163,1145,1096,1123,1048,1065,1052,1036,1017,999,976,956,914,897,886,855,867,821,813,823,828,806,820,822,817,838,860,841,847,847,840,829,848,852,844,868,864,869,839,846,851,840,823,878,837,841,836,877,836,355,347,357,358,350,372,434,471,546,589,600,591,605,573,554,544,535,525,503,494,497,478,466,469,459,433,440,431,421,402,403,383,384,374,356,360,361,353,350,356,347,349,356,355,366,378,351,356,357,362,356,351,355,360,360,355,358,354,355,355,354,358,356,364,350,1326,1300,1282,1361,1499,1675,1817,1985,1942,2046,2060,1996,1981,2017,1930,1907,1874,1842,1792,1800,1730,1697,1698,1658,1602,1570,1527,1496,1471,1441,1414,1370,1366,1345,1334,1310,1316,1317,1374,1378,1419,1692,1438,1372,1421,1524,1451,1389,1491,1468,1412,1418,1497,1481,1467,1373,1415,1405,1453,1453,1394,1437,1395,1402,1412,1331,1374,1345,1384,1473,1669,1856,2026,2055,2169,2235,2035,2058,1963,1947,2042,1887,1884,1845,1744,1735,1700,1743,1684,1658,1607,1517,1539,1492,1480,1394,1391,1355,1415,1349,1308,1339,1433,1379,1421,1387,1389,1421,1403,1406,1417,1415,1417,1433,1410,1418,1426,1429,1435,1442,1443,1447,1441,1453,1444,1458,1471,1486,1466,1466,1024,992,972,1011,1074,1208,1319,1501,1473,1580,1633,1545,1521,1527,1474,1479,1453,1432,1365,1380,1319,1312,1304,1271,1247,1239,1198,1141,1136,1114,1097,1041,1048,1021,1014,1003,1010,1009,1015,1013,1031,1032,1044,1081,1038,1054,1052,1053,1081,1054,1054,1062,1059,1068,1044,1047,1050,1062,1046,1049,1058,1070,1053,1065,1068,1363,1352,1327,1405,1570,1731,1967,2096,2110,2193,2195,2299,2041,2000,2016,1988,1914,1915,1844,1859,1780,1792,1769,1674,1696,1614,1580,1542,1512,1543,1441,1438,1380,1356,1330,1357,1341,1420,1412,1389,1404,1402,1410,1421,1413,1412,1417,1430,1459,1443,1445,1450,1450,1461,1453,1453,1443,1468,1476,1473,1468,1457,1482,1493,1498,731,727,747,778,758,838,934,1055,1136,1145,1137,1180,1104,1088,1072,1056,1039,1023,1007,991,974,1060,953,936,989,900,927,848,910,816,800,784,768,806,738,735,737,739,761,776,752,761,749,769,760,775,777,822,767,798,792,797,784,850,807,761,762,755,784,798,787,814,797,804,778,585,581,583,584,577,685,724,821,868,908,904,873,853,866,822,880,804,816,780,768,778,744,774,730,728,703,703,678,666,643,623,629,616,587,590,571,572,573,555,555,557,560,560,561,563,564,562,567,568,569,569,570,570,571,573,576,576,579,579,580,582,583,585,584,585,1377,1310,1411,1596,1503,1730,1873,2053,2075,2068,2045,2108,2047,1988,2014,1936,1907,1857,1880,1795,1833,1849,1728,1653,1812,1617,1622,1508,1618,1481,1542,1385,1427,1417,1411,1360,1328,1357,1417,1461,1418,1436,1451,1429,1437,1450,1443,1449,1455,1440,1455,1443,1451,1452,1463,1461,1463,1460,1488,1435,1461,1466,1482,1463,1457,705,709,709,711,735,810,956,1011,1087,1125,1117,1102,1125,1110,1060,1039,1055,1005,1020,972,955,969,923,905,891,872,888,839,822,807,815,773,810,739,719,717,716,720,731,725,731,729,731,725,730,736,733,735,726,733,737,749,741,743,738,743,738,736,735,753,741,744,730,735,738,668,656,657,659,677,789,856,944,1045,1096,1047,1077,1067,1052,992,935,965,925,948,894,923,899,902,851,851,834,785,816,786,742,708,737,692,677,684,691,669,713,675,686,684,697,698,700,690,708,683,715,697,721,694,699,715,729,710,706,707,708,709,706,707,712,691,699,689,0,0,0,0,0,0,0,0,0,0,0,0,0,0,0,0,0,0,0,0,0,0,0,0,0,0,0,0,0,0,0,0,0,0,0,0,0,0,0,0,0,0,0,0,0,0,0,0,0,0,0,0,0,0,0,0,0,0,0,0,0,0,0,0,0,466,464,465,470,473,563,574,650,680,737,738,711,730,717,709,677,691,655,645,613,669,593,622,611,581,554,560,549,538,547,513,492,496,485,494,472,490,493,478,473,475,480,480,473,487,478,477,479,478,476,485,484,478,481,509,491,477,478,477,479,479,486,485,483,481,674,684,704,674,686,769,869,967,1062,1072,1065,1028,1043,1028,1005,990,982,960,945,911,915,900,878,880,855,830,790,797,783,758,753,738,705,694,694,677,698,675,683,691,683,694,698,694,690,706,682,691,689,687,685,699,698,695,692,694,695,691,705,705,686,697,686,694,690,735,737,781,741,769,850,966,1070,1150,1184,1179,1161,1220,1155,1107,1151,1072,1114,1071,1076,1001,1060,965,1014,929,911,923,925,858,840,909,805,787,794,747,745,747,749,758,754,753,768,798,802,802,805,776,812,805,794,791,770,772,808,807,776,798,779,768,792,786,807,797,822,784,373,369,370,371,372,396,435,494,539,550,552,545,539,532,525,518,512,505,498,492,487,478,483,475,460,459,445,425,419,412,405,399,392,386,376,372,373,374,361,361,363,366,366,364,368,368,363,365,364,366,368,371,372,372,366,364,373,371,376,378,372,378,366,369,371,731,727,747,778,758,838,934,1055,1136,1145,1137,1180,1104,1088,1072,1056,1039,1023,1007,991,974,1060,953,936,989,900,927,848,910,816,800,784,768,806,738,735,737,739,761,776,752,761,749,769,760,775,777,822,767,798,792,797,784,850,807,761,762,755,784,798,787,814,797,804,778,1133,1138,1159,1258,1344,1427,1637,1729,1810,1832,1915,1767,1765,1742,1685,1760,1685,1715,1586,1548,1518,1501,1520,1440,1390,1361,1384,1332,1406,1278,1239,1269,1203,1183,1152,1184,1155,1214,1235,1219,1228,1226,1228,1225,1302,1299,1226,1268,1253,1234,1230,1291,1297,1313,1298,1307,1302,1325,1322,1290,1271,1265,1234,1233,1236,987,991,994,1042,1102,1187,1408,1463,1550,1576,1622,1557,1521,1527,1473,1474,1412,1392,1366,1354,1328,1315,1264,1270,1194,1189,1197,1148,1184,1120,1084,1118,1063,1018,1003,1043,1033,1020,1052,1029,1057,1047,1059,1044,1042,1049,1045,1116,1124,1060,1077,1078,1069,1068,1058,1084,1037,1053,1043,1051,1051,1045,1039,1069,1069,1790,1763,1883,2173,2231,2379,2585,2811,2767,2763,2932,2633,2651,2722,2593,2609,2637,2568,2402,2300,2256,2267,2228,2136,2143,2103,2121,1971,2118,1976,1836,1856,1823,1771,1851,1775,1748,1899,2067,2056,2071,2169,2087,2100,2086,2118,2123,2175,2099,2113,2113,2116,2131,2127,2167,2141,2123,2123,2127,2145,2134,2142,2132,2152,2148,1127,1117,1141,1165,1291,1431,1577,1720,1774,1763,1789,1806,1767,1677,1713,1659,1637,1657,1587,1515,1503,1473,1471,1423,1383,1355,1398,1366,1321,1288,1232,1236,1185,1170,1159,1173,1188,1157,1223,1234,1216,1241,1275,1271,1246,1245,1257,1290,1253,1285,1282,1273,1234,1253,1253,1274,1276,1239,1277,1322,1280,1279,1284,1261,1257,288,289,290,291,292,307,348,389,429,469,482,474,466,459,451,443,436,428,420,412,405,397,389,412,374,366,373,351,343,336,328,320,313,305,297,293,293,294,274,276,282,294,278,281,276,280,277,277,278,277,277,279,280,280,279,281,280,279,280,281,280,282,279,281,280,594,579,581,614,585,662,729,790,870,899,898,898,895,867,859,846,833,821,810,795,783,762,764,733,726,682,700,695,682,669,652,639,631,618,607,601,588,619,596,595,599,610,599,603,603,610,605,601,605,596,609,611,618,613,611,607,599,616,607,600,601,622,608,617,605,0,0,0,0,0,0,0,0,0,0,0,0,0,0,0,0,0,0,0,0,0,0,0,0,0,0,0,0,0,0,0,0,0,0,0,0,0,0,0,0,0,0,0,0,0,0,0,0,0,0,0,0,0,0,0,0,0,0,0,0,0,0,0,0,0,1090,1094,1115,1159,1234,1339,1539,1656,1739,1739,1827,1678,1677,1676,1628,1607,1560,1529,1507,1489,1460,1419,1412,1369,1313,1280,1318,1282,1279,1231,1193,1224,1150,1119,1094,1140,1111,1130,1139,1138,1138,1152,1165,1149,1164,1167,1159,1157,1167,1169,1244,1242,1252,1211,1162,1157,1164,1166,1160,1165,1167,1161,1158,1183,1160,1174,1147,1178,1231,1282,1574,1623,1743,1826,1848,1849,1904,1919,1730,1771,1720,1691,1665,1681,1560,1623,1513,1564,1527,1500,1391,1428,1371,1434,1307,1275,1323,1208,1175,1295,1282,1194,1242,1281,1288,1259,1275,1271,1317,1280,1300,1310,1375,1291,1335,1320,1330,1302,1369,1332,1288,1288,1282,1311,1341,1333,1361,1337,1341,1309,775,778,780,794,862,926,1024,1131,1242,1228,1312,1210,1190,1178,1164,1150,1131,1116,1093,1077,1030,1042,1024,1005,952,932,969,922,920,886,856,897,821,803,789,825,790,803,808,799,809,806,814,818,817,818,813,818,825,824,828,822,822,836,824,825,812,829,812,825,820,815,814,824,838,1133,1138,1159,1258,1344,1427,1637,1729,1810,1832,1915,1767,1765,1742,1685,1760,1685,1715,1586,1548,1518,1501,1520,1440,1390,1361,1384,1332,1406,1278,1239,1269,1203,1183,1152,1184,1155,1214,1235,1219,1228,1226,1228,1225,1302,1299,1226,1268,1253,1234,1230,1291,1297,1313,1298,1307,1302,1325,1322,1290,1271,1265,1234,1233,1236,610,610,612,614,636,649,763,821,972,957,1018,939,920,957,941,909,909,872,857,861,802,829,797,781,765,750,734,718,717,670,655,655,652,609,596,626,628,629,607,610,608,616,616,614,618,628,616,651,617,615,622,621,618,621,624,622,630,624,617,611,619,626,624,626,625,394,396,397,398,393,424,483,554,597,644,653,642,642,621,611,610,604,593,583,582,548,530,520,509,499,512,486,473,472,450,444,427,430,412,402,394,395,396,392,391,392,397,397,395,401,396,394,400,404,397,417,418,418,399,414,408,402,406,397,396,407,401,401,399,396,1136,1139,1143,1178,1289,1443,1606,1741,1817,1847,1937,1807,1778,1771,1719,1690,1641,1631,1602,1572,1571,1533,1560,1474,1425,1414,1384,1337,1353,1278,1265,1205,1191,1168,1141,1153,1172,1159,1180,1182,1196,1221,1202,1219,1202,1214,1192,1204,1215,1193,1193,1211,1204,1229,1262,1245,1203,1208,1212,1206,1199,1197,1210,1235,1202,663,651,653,669,654,754,857,921,946,990,1045,1064,1017,997,981,918,949,887,872,901,891,826,811,796,781,765,750,735,775,704,782,674,707,690,630,645,639,648,646,644,653,668,664,657,653,656,656,667,670,661,664,701,720,702,693,669,660,674,666,661,653,676,662,676,656,1215,1164,1254,1245,1302,1483,1717,1914,1944,1989,2001,1937,1885,1900,1870,1756,1752,1718,1661,1603,1613,1626,1542,1525,1544,1462,1411,1479,1426,1353,1336,1277,1232,1221,1222,1273,1200,1218,1294,1283,1298,1302,1291,1310,1298,1311,1321,1304,1335,1305,1323,1314,1315,1320,1305,1314,1302,1323,1298,1307,1312,1325,1300,1317,1315,620,622,633,625,634,697,803,899,969,1012,1028,975,962,949,1002,947,917,912,902,869,866,837,821,818,788,771,756,739,726,706,691,678,662,646,633,638,631,632,653,611,617,619,616,639,619,631,624,629,647,632,624,631,629,649,645,639,626,634,631,639,644,640,640,669,641,983,989,1033,1023,1058,1217,1427,1556,1666,1673,1691,1651,1603,1583,1559,1509,1450,1469,1407,1372,1387,1398,1295,1312,1303,1241,1177,1237,1205,1166,1110,1084,1041,1017,1004,1054,1023,1026,1038,1040,1054,1075,1050,1077,1053,1069,1050,1061,1073,1050,1049,1062,1061,1078,1074,1063,1054,1063,1069,1065,1061,1053,1050,1090,1059,0,0,0,0,0,0,0,0,0,0,0,0,0,0,0,0,0,0,0,0,0,0,0,0,0,0,0,0,0,0,0,0,0,0,0,0,0,0,0,0,0,0,0,0,0,0,0,0,0,0,0,0,0,0,0,0,0,0,0,0,0,0,0,0,0,1003,1006,1004,1018,1100,1253,1387,1527,1658,1623,1616,1590,1577,1539,1564,1491,1485,1502,1439,1384,1368,1332,1307,1281,1298,1232,1203,1181,1161,1135,1100,1074,1119,1029,1044,1027,1025,1079,1070,1060,1049,1055,1116,1160,1078,1085,1096,1119,1089,1113,1115,1111,1085,1108,1098,1106,1119,1087,1107,1179,1151,1164,1169,1120,1113,416,417,418,420,421,453,512,571,630,677,686,676,665,654,643,632,621,611,600,589,578,567,556,546,535,561,513,502,491,481,470,459,448,437,427,422,423,424,411,425,415,444,414,433,418,441,422,432,425,416,430,424,433,430,429,427,432,427,440,425,424,431,425,434,435,610,610,612,614,636,649,763,821,972,957,1018,939,920,957,941,909,909,872,857,861,802,829,797,781,765,750,734,718,717,670,655,655,652,609,596,626,628,629,607,610,608,616,616,614,618,628,616,651,617,615,622,621,618,621,624,622,630,624,617,611,619,626,624,626,625,765,757,736,723,763,846,983,1094,1156,1238,1198,1178,1159,1135,1102,1105,1086,1079,1047,1060,1026,980,952,949,961,911,887,879,853,834,842,796,791,763,744,758,757,760,740,754,752,755,778,749,759,777,756,761,763,751,760,762,782,786,935,879,790,772,764,758,756,754,771,786,751,776,797,747,837,849,936,996,1164,1260,1304,1252,1216,1262,1237,1222,1198,1166,1186,1147,1115,1080,1041,1020,991,1004,972,934,889,915,901,880,871,818,804,819,776,810,768,809,790,795,817,802,800,800,810,805,805,814,809,877,878,898,837,815,807,802,821,807,797,800,821,806,822,805,902,875,895,885,954,1073,1311,1359,1394,1516,1574,1403,1380,1358,1335,1348,1324,1290,1267,1221,1253,1175,1174,1181,1107,1143,1061,1038,1060,1037,1001,964,954,919,981,928,951,891,923,915,912,917,974,981,951,960,950,1003,974,957,973,944,945,986,983,947,990,957,952,1003,975,1005,993,1030,983,624,636,618,620,654,720,799,887,972,1032,1035,1003,1003,957,940,954,926,906,877,889,858,830,815,824,807,773,778,736,719,726,710,677,656,641,647,645,635,636,652,634,632,632,638,644,705,695,647,674,659,641,645,692,700,709,697,715,698,714,701,680,675,662,647,645,637,1151,1158,1196,1229,1288,1471,1802,1738,1920,1933,1970,1968,1771,1839,1844,1721,1690,1721,1751,1609,1562,1555,1603,1473,1498,1547,1419,1369,1389,1390,1300,1230,1241,1168,1171,1209,1160,1175,1245,1243,1242,1259,1245,1241,1253,1258,1260,1277,1280,1262,1249,1251,1269,1256,1266,1282,1272,1283,1287,1266,1277,1268,1269,1330,1291,839,853,838,860,855,1049,1151,1235,1299,1363,1366,1350,1291,1320,1277,1272,1250,1251,1192,1170,1161,1106,1119,1064,1026,1020,998,1009,973,948,943,910,878,865,880,846,835,870,866,866,852,859,908,955,882,886,890,899,885,889,879,883,881,892,882,889,911,884,878,917,899,912,919,888,885,1085,1072,1076,1126,1160,1335,1531,1651,1698,1728,1763,1736,1663,1629,1652,1622,1595,1559,1510,1452,1446,1450,1388,1367,1370,1323,1302,1281,1226,1251,1217,1136,1118,1109,1061,1084,1097,1081,1120,1110,1100,1106,1122,1165,1144,1150,1139,1160,1166,1179,1182,1174,1156,1191,1192,1146,1161,1166,1181,1223,1184,1199,1202,1261,1193,1112,1050,1028,1039,1108,1237,1398,1522,1600,1639,1656,1600,1607,1550,1530,1534,1518,1523,1434,1401,1382,1344,1325,1299,1273,1253,1216,1185,1170,1144,1118,1098,1062,1084,1045,1053,1027,1108,1063,1061,1069,1080,1062,1074,1078,1090,1081,1070,1081,1072,1077,1076,1082,1087,1087,1087,1075,1087,1093,1083,1077,1098,1078,1085,1080,0,0,0,0,0,0,0,0,0,0,0,0,0,0,0,0,0,0,0,0,0,0,0,0,0,0,0,0,0,0,0,0,0,0,0,0,0,0,0,0,0,0,0,0,0,0,0,0,0,0,0,0,0,0,0,0,0,0,0,0,0,0,0,0,0,960,960,945,974,1000,1217,1326,1417,1477,1511,1550,1526,1458,1495,1449,1427,1403,1378,1353,1385,1306,1259,1256,1213,1172,1163,1137,1131,1107,1052,1057,1035,979,986,1001,955,944,992,986,989,986,1000,1000,1004,993,1013,985,993,992,989,991,1017,1005,1004,1003,1009,1007,1008,1027,1023,1000,1013,994,1003,999,765,757,736,723,763,846,983,1094,1156,1238,1198,1178,1159,1135,1102,1105,1086,1079,1047,1060,1026,980,952,949,961,911,887,879,853,834,842,796,791,763,744,758,757,760,740,754,752,755,778,749,759,777,756,761,763,751,760,762,782,786,935,879,790,772,764,758,756,754,771,786,751,684,686,688,690,711,785,889,994,1083,1123,1125,1107,1089,1071,1053,1035,1017,999,1042,963,945,927,965,891,927,855,837,819,801,784,766,748,730,712,698,756,696,698,694,693,699,709,702,703,698,716,702,722,703,701,713,698,709,710,712,716,700,718,709,710,712,709,722,713,705,521,556,574,526,550,602,682,804,841,886,865,889,837,823,806,820,782,792,814,763,749,734,730,685,692,677,663,658,635,620,635,600,577,563,550,558,531,549,542,534,536,538,564,561,571,567,555,578,560,549,562,541,544,555,553,546,561,541,538,555,555,568,560,563,556,1355,1303,1305,1413,1442,1673,1823,2151,2096,2048,2112,2001,2092,1936,1939,1900,1867,1806,1803,1741,1747,1676,1640,1640,1632,1545,1547,1617,1448,1415,1522,1375,1344,1362,1286,1406,1339,1291,1355,1346,1349,1353,1349,1374,1368,1368,1372,1380,1389,1383,1388,1384,1383,1405,1415,1392,1395,1411,1405,1418,1410,1399,1428,1424,1433,691,730,695,698,760,826,982,1035,1123,1112,1186,1147,1129,1164,1111,1028,1107,993,1036,1017,999,967,949,943,952,905,877,868,849,830,812,803,774,756,705,803,741,743,763,735,729,729,764,784,752,746,744,761,781,762,767,774,772,777,745,755,769,774,787,790,760,771,794,752,748,851,870,872,821,926,990,1220,1289,1443,1459,1473,1456,1360,1399,1338,1371,1266,1258,1239,1223,1179,1202,1127,1063,1147,1140,1063,1004,987,974,960,942,917,849,894,890,854,852,859,879,867,901,864,885,874,896,883,890,878,875,884,882,894,896,896,900,892,886,901,891,898,905,894,902,901,267,310,316,269,318,282,317,353,374,394,407,403,399,395,392,388,384,380,376,373,369,365,355,349,342,335,383,337,315,341,302,295,338,282,275,318,319,320,284,280,284,286,294,296,282,293,286,282,289,291,291,291,295,307,299,301,286,296,293,302,303,300,303,312,302,624,650,642,627,675,741,824,898,1089,1112,1126,1120,1048,1074,1039,1039,975,956,940,956,928,948,886,826,878,867,808,774,727,720,742,715,681,656,665,661,650,659,640,653,644,670,642,666,646,669,656,664,660,653,667,659,671,671,668,668,674,670,679,667,672,679,675,684,685,538,534,542,543,539,601,680,759,813,829,835,819,806,816,782,770,758,737,753,741,730,726,718,711,701,670,638,648,634,620,590,591,551,549,533,536,537,539,530,531,527,575,540,533,563,540,537,539,541,544,541,539,532,538,537,544,540,537,536,537,538,537,542,542,533,1031,959,962,986,1036,1156,1340,1490,1577,1543,1536,1579,1490,1468,1483,1468,1406,1381,1356,1360,1306,1306,1257,1232,1207,1182,1181,1162,1130,1104,1058,1084,1008,1005,973,970,995,976,1011,997,1003,1000,1004,1004,1012,1007,1014,1005,1007,1008,1019,1019,1023,1017,1009,1019,1012,1020,1020,1022,1017,1026,1012,1009,1013,0,0,0,0,0,0,0,0,0,0,0,0,0,0,0,0,0,0,0,0,0,0,0,0,0,0,0,0,0,0,0,0,0,0,0,0,0,0,0,0,0,0,0,0,0,0,0,0,0,0,0,0,0,0,0,0,0,0,0,0,0,0,0,0,0,684,686,688,690,711,785,889,994,1083,1123,1125,1107,1089,1071,1053,1035,1017,999,1042,963,945,927,965,891,927,855,837,819,801,784,766,748,730,712,698,756,696,698,694,693,699,709,702,703,698,716,702,722,703,701,713,698,709,710,712,716,700,718,709,710,712,709,722,713,705,0,0,0,0,0,0,0,0,0,0,0,0,0,0,0,0,0,0,0,0,0,0,0,0,0,0,0,0,0,0,0,0,0,0,0,0,0,0,0,0,0,0,0,0,0,0,0,0,0,0,0,0,0,0,0,0,0,0,0,0,0,0,0,0,0,418,419,421,422,424,440,499,557,616,700,745,685,721,640,630,640,608,618,586,671,565,574,562,551,522,511,518,507,496,484,473,462,482,467,414,410,411,427,412,415,417,426,412,420,415,423,429,414,423,414,416,418,417,423,418,422,418,426,420,426,419,431,418,427,424,635,662,639,641,656,679,804,899,986,989,993,977,961,992,975,1004,898,882,866,907,834,818,802,864,771,785,739,723,781,780,735,659,733,652,614,645,647,648,654,649,647,648,647,649,652,652,653,648,653,647,652,649,652,653,656,656,651,652,653,657,652,667,654,660,657,248,249,250,251,251,261,294,326,359,391,405,399,393,386,380,374,368,362,355,349,343,337,331,324,318,312,306,300,293,287,281,275,269,262,256,252,253,253,235,235,231,236,239,258,235,240,247,243,238,240,233,238,240,231,238,239,240,240,236,238,243,242,236,241,236,1361,1344,1370,1389,1599,1783,1964,2155,2194,2152,2190,2178,2088,2011,2010,2003,1980,1941,1841,1894,1842,1741,1737,1699,1697,1653,1572,1539,1589,1555,1439,1441,1373,1379,1383,1351,1389,1339,1427,1430,1433,1443,1443,1489,1444,1479,1473,1482,1472,1480,1470,1479,1467,1494,1457,1463,1473,1463,1458,1493,1473,1501,1471,1484,1478,707,709,725,697,719,837,957,1064,1149,1186,1208,1156,1181,1169,1088,1082,1127,1032,1030,1050,1001,992,952,972,902,907,865,830,871,852,793,786,753,750,789,715,717,753,730,741,739,753,741,751,749,754,751,749,752,741,753,747,761,768,763,770,760,756,768,756,755,760,760,768,759,1144,1148,1147,1161,1278,1435,1643,1801,1893,1881,1905,1851,1842,1774,1715,1718,1721,1648,1617,1632,1565,1540,1538,1485,1448,1427,1400,1315,1358,1309,1282,1227,1198,1160,1207,1167,1169,1169,1181,1173,1193,1214,1215,1196,1179,1200,1187,1231,1219,1204,1207,1335,1226,1226,1342,1220,1219,1214,1227,1227,1221,1223,1220,1228,1228,755,685,760,736,810,809,1019,1098,1202,1155,1193,1217,1091,1184,1165,1043,1118,1016,998,980,953,1051,999,907,990,963,884,901,871,798,790,778,748,779,705,731,780,701,725,726,769,1037,779,713,759,852,794,731,830,804,749,756,832,812,808,720,748,741,785,782,731,763,739,740,752,570,518,520,522,527,638,650,726,802,922,971,925,897,895,880,865,850,835,820,794,847,764,750,745,744,715,700,685,670,655,620,625,602,595,582,525,572,571,565,559,556,561,596,587,598,594,579,606,584,576,590,564,568,583,579,570,590,567,561,585,585,600,591,591,584,707,705,709,749,783,824,914,1044,1130,1206,1198,1186,1121,1133,1142,1066,1103,1029,1011,993,974,975,937,913,941,929,866,846,827,804,790,804,750,769,717,794,781,722,740,745,762,789,778,778,779,758,768,767,802,790,756,763,800,795,812,755,753,763,786,756,749,756,768,756,737,0,0,0,0,0,0,0,0,0,0,0,0,0,0,0,0,0,0,0,0,0,0,0,0,0,0,0,0,0,0,0,0,0,0,0,0,0,0,0,0,0,0,0,0,0,0,0,0,0,0,0,0,0,0,0,0,0,0,0,0,0,0,0,0,0 ]);
