n = 20;
D = [73,182,255,184,64,243,200,249,232,150,170,99,101,184,200,113,122,111,142,106 ];
q = 0;
prec = array2d(1..0,1..2,[]);
steps = 64;
l = 360;
r = 0;
which = [];
interval = array2d(1..0,1..2,[]);
T = array3d(1..21,1..21,0..64,[0,0,0,0,0,0,0,0,0,0,0,0,0,0,0,0,0,0,0,0,0,0,0,0,0,0,0,0,0,0,0,0,0,0,0,0,0,0,0,0,0,0,0,0,0,0,0,0,0,0,0,0,0,0,0,0,0,0,0,0,0,0,0,0,0,249,251,252,252,252,383,445,496,548,600,628,618,608,598,592,578,567,558,548,537,528,522,507,502,487,476,468,456,438,431,420,414,400,391,257,253,254,255,219,217,220,224,225,226,225,225,225,225,227,228,229,252,234,230,224,227,231,224,222,232,225,225,225,225,225,198,199,199,200,269,305,350,391,431,470,494,487,478,471,463,456,447,438,429,424,414,409,400,393,385,378,369,362,354,345,338,330,322,314,307,270,271,271,175,174,174,175,174,180,177,184,193,177,182,175,177,177,177,181,178,178,178,182,177,178,177,177,177,177,177,246,246,248,248,249,331,440,491,541,592,618,608,595,590,574,570,555,546,536,526,518,510,498,488,478,468,457,448,439,428,418,410,399,333,324,250,251,250,224,220,221,224,224,226,224,225,224,225,225,225,223,225,225,223,224,226,226,226,225,222,224,224,224,224,224,533,535,536,538,540,915,1039,1155,1263,1316,1318,1312,1289,1256,1234,1213,1201,1171,1150,1141,1116,1087,1065,1044,1023,1002,980,960,938,896,770,752,673,555,544,540,543,525,508,501,504,510,511,531,516,540,535,511,535,512,516,521,511,528,534,534,519,527,514,509,513,516,533,525,515,939,938,956,946,1001,1501,1972,2194,2276,2290,2279,2260,2190,2153,2156,2114,2084,2044,1957,1980,1911,1858,1852,1795,1757,1556,1540,1546,1311,1174,1143,1031,993,969,967,949,928,941,932,920,936,938,927,953,939,947,956,938,962,947,949,950,946,952,947,946,950,954,944,948,948,952,948,956,950,384,385,387,387,391,578,694,775,856,931,955,941,926,910,895,879,865,849,835,819,804,790,774,758,745,727,713,697,681,666,597,584,566,404,393,390,392,411,332,333,334,336,337,338,339,339,339,340,339,341,342,348,346,343,342,344,344,342,344,347,344,344,344,344,344,486,487,489,503,500,659,923,1028,1147,1200,1204,1199,1178,1146,1127,1107,1097,1068,1056,1047,1024,996,976,958,939,918,899,827,752,783,683,532,536,522,522,493,514,495,433,424,429,430,425,452,429,453,441,431,447,432,435,435,432,440,432,432,435,440,433,433,434,437,434,441,436,1040,1066,1063,1079,1208,1948,2295,2435,2496,2534,2517,2482,2426,2393,2349,2379,2344,2224,2226,2145,2174,2065,2085,2004,1982,1749,1481,1454,1431,1192,1135,1265,1096,1108,1091,1066,1099,1081,1073,1066,1074,1072,1073,1102,1082,1104,1104,1091,1105,1082,1083,1085,1080,1100,1092,1082,1086,1086,1078,1083,1084,1090,1081,1101,1085,449,451,452,446,455,726,857,950,1030,1104,1113,1092,1090,1057,1024,1017,1012,969,967,949,928,915,883,866,851,833,815,808,773,755,638,622,607,469,452,448,456,458,442,435,439,445,455,463,455,479,466,461,461,462,464,454,455,466,459,449,465,467,451,462,464,466,464,468,462,693,696,699,701,705,999,1375,1516,1638,1692,1687,1680,1643,1564,1585,1561,1551,1504,1480,1464,1441,1400,1372,1345,1324,1299,1264,1233,1209,1186,1069,929,714,752,716,706,703,708,672,665,674,681,671,693,678,699,693,679,696,681,684,683,682,691,683,682,686,690,682,684,684,688,684,692,686,473,470,478,478,477,657,895,994,1094,1167,1173,1167,1146,1125,1096,1083,1070,1049,1023,1007,995,973,953,934,914,897,877,858,830,793,751,730,584,496,496,489,489,484,439,430,430,435,431,449,435,437,432,437,455,438,441,441,438,446,438,438,441,446,439,439,440,443,440,446,442,618,616,617,625,626,922,1203,1326,1449,1502,1508,1500,1474,1453,1426,1393,1373,1349,1323,1310,1285,1265,1233,1210,1171,1147,1135,1111,1008,885,830,674,684,653,660,636,634,640,577,568,573,574,569,593,573,594,587,575,589,576,579,579,576,584,576,576,579,584,577,577,578,581,578,585,580,325,326,327,328,329,530,602,672,741,800,811,812,798,772,759,746,742,720,708,705,690,668,655,643,630,616,603,590,578,565,552,538,477,342,333,330,331,332,318,306,309,311,316,333,314,347,334,324,336,338,336,344,323,331,329,323,329,331,328,342,335,337,332,340,333,696,698,707,712,760,1142,1325,1498,1599,1676,1662,1660,1638,1585,1568,1548,1519,1498,1459,1434,1408,1382,1368,1345,1306,1294,1255,1236,1172,1044,1010,893,817,728,708,728,708,731,691,692,692,700,703,708,710,710,708,708,708,709,708,705,705,714,713,704,708,704,697,709,703,703,703,703,703,1074,1073,1074,1158,1441,2278,2628,2742,2820,2856,2834,2788,2729,2696,2641,2667,2591,2505,2478,2417,2402,2359,2308,2254,2145,1901,1721,1590,1581,1454,1199,1152,1120,1103,1104,1109,1110,1124,1153,1138,1151,1166,1172,1166,1178,1175,1173,1174,1182,1167,1217,1214,1204,1184,1194,1174,1219,1175,1160,1186,1168,1220,1222,1230,1164,815,818,819,823,856,1239,1595,1752,1878,1934,1941,1910,1880,1859,1818,1790,1764,1734,1704,1674,1648,1614,1592,1561,1524,1494,1464,1434,1408,1142,1094,877,856,839,828,826,808,794,767,759,766,773,774,773,776,769,776,788,776,770,788,783,782,770,767,791,775,796,770,771,811,811,811,811,810,426,427,429,429,460,596,801,890,979,1039,1046,1044,1030,997,980,963,956,931,915,910,890,865,849,832,816,800,783,766,750,734,718,635,600,510,436,461,433,434,417,408,414,415,410,435,415,432,427,416,427,418,422,422,419,429,419,419,421,427,420,420,422,426,421,428,423,727,737,731,733,744,1278,1473,1624,1728,1773,1768,1754,1724,1684,1655,1628,1608,1571,1545,1529,1496,1460,1432,1403,1377,1348,1320,1199,1153,1073,806,965,768,768,740,737,734,736,728,721,725,720,712,752,728,763,748,730,758,735,740,733,739,739,744,728,734,748,732,729,737,730,739,738,732,127,128,128,128,128,132,225,250,277,303,320,315,310,304,300,295,290,284,279,274,270,264,259,254,249,243,238,234,229,223,218,142,139,135,132,129,129,130,120,120,120,123,217,216,133,140,132,224,136,131,217,126,127,139,132,124,212,126,124,215,137,207,207,137,132,0,0,0,0,0,0,0,0,0,0,0,0,0,0,0,0,0,0,0,0,0,0,0,0,0,0,0,0,0,0,0,0,0,0,0,0,0,0,0,0,0,0,0,0,0,0,0,0,0,0,0,0,0,0,0,0,0,0,0,0,0,0,0,0,0,285,286,287,288,289,321,517,576,636,696,711,700,688,678,672,655,644,632,621,609,598,586,576,565,558,542,530,525,440,496,420,345,325,318,293,289,306,291,233,233,233,233,233,233,233,233,233,233,233,233,233,233,233,233,233,233,233,233,233,233,233,233,233,233,233,0,0,0,0,0,0,0,0,0,0,0,0,0,0,0,0,0,0,0,0,0,0,0,0,0,0,0,0,0,0,0,0,0,0,0,0,0,0,0,0,0,0,0,0,0,0,0,0,0,0,0,0,0,0,0,0,0,0,0,0,0,0,0,0,0,193,193,194,195,221,302,342,380,420,460,470,462,466,447,451,444,435,428,421,412,405,398,390,382,375,367,360,352,344,337,327,321,308,307,284,222,222,190,158,158,158,158,158,158,158,158,158,158,158,158,158,158,158,158,158,158,158,158,158,158,158,158,158,158,158,122,122,123,123,178,190,214,238,264,288,303,298,294,289,284,279,274,270,265,261,256,252,247,242,237,232,228,223,218,213,208,204,199,194,189,178,187,187,96,96,96,96,96,96,96,96,96,96,96,96,96,96,96,96,96,96,96,96,96,96,96,96,96,96,96,508,510,512,514,520,662,950,1060,1173,1248,1260,1238,1216,1198,1180,1158,1137,1117,1095,1079,1058,1038,1015,997,983,955,936,915,902,808,796,584,586,530,553,516,517,499,456,456,456,456,456,456,456,456,456,456,456,456,456,456,456,456,456,456,456,456,456,456,456,456,456,456,456,980,978,985,975,1040,1430,2100,2266,2326,2376,2382,2341,2257,2278,2251,2186,2141,2095,2061,2014,2009,1945,1921,1878,1849,1634,1750,1405,1197,1121,1130,1084,1034,1014,993,1003,981,968,928,928,928,928,928,928,928,928,928,928,928,928,928,928,928,928,928,928,928,928,928,928,928,928,928,928,928,288,282,283,314,284,368,471,501,530,559,570,564,558,552,546,540,534,528,522,517,511,505,499,496,487,481,475,469,402,397,391,385,351,345,285,284,284,284,242,250,249,257,249,247,245,247,243,242,245,245,244,247,245,245,245,247,245,245,248,245,244,248,244,243,243,381,379,379,381,383,445,686,766,874,921,939,925,908,903,879,865,857,835,819,804,789,774,757,744,737,714,699,684,675,654,576,551,480,412,422,383,384,378,323,323,323,323,323,323,323,323,323,323,323,323,323,323,323,323,323,323,323,323,323,323,323,323,323,323,323,1060,1081,1084,1115,1172,1689,2289,2444,2578,2601,2616,2501,2456,2438,2409,2415,2385,2343,2235,2189,2141,2106,2131,2052,1995,1749,1555,1361,1296,1316,1228,1202,1131,1131,1127,1103,1096,1106,1069,1069,1069,1069,1069,1069,1069,1069,1069,1069,1069,1069,1069,1069,1069,1069,1069,1069,1069,1069,1069,1069,1069,1069,1069,1069,1069,469,471,472,475,478,528,866,966,1099,1153,1169,1140,1120,1102,1084,1066,1047,1029,1011,993,974,956,944,919,909,887,864,853,763,744,600,535,536,490,488,476,479,480,438,438,438,438,438,438,438,438,438,438,438,438,438,438,438,438,438,438,438,438,438,438,438,438,438,438,438,734,737,739,721,747,951,1440,1588,1691,1781,1793,1766,1666,1701,1676,1647,1620,1597,1561,1532,1506,1479,1451,1425,1398,1336,1332,1306,1027,1004,991,829,781,763,751,748,748,720,668,668,668,668,668,668,668,668,668,668,668,668,668,668,668,668,668,668,668,668,668,668,668,668,668,668,668,352,353,351,356,357,451,637,711,787,857,870,864,848,835,821,807,793,780,765,751,736,723,706,694,689,667,652,639,630,610,591,561,517,367,366,354,355,359,324,324,324,324,324,324,324,324,324,324,324,324,324,324,324,324,324,324,324,324,324,324,324,324,324,324,324,484,483,487,488,491,714,900,1018,1113,1172,1202,1163,1145,1133,1108,1105,1071,1069,1034,1015,1002,977,976,946,927,916,889,872,865,837,782,720,590,506,494,491,492,484,460,452,466,467,467,467,466,467,467,467,467,467,467,467,467,467,467,467,464,467,467,467,464,467,467,467,467,366,367,368,369,370,405,664,741,819,895,916,901,885,867,856,842,827,812,796,783,769,752,736,724,709,695,678,663,569,554,487,475,458,402,375,373,373,375,313,313,313,313,313,313,313,313,313,313,313,313,313,313,313,313,313,313,313,313,313,313,313,313,313,313,313,579,581,580,583,599,713,1053,1146,1273,1298,1318,1287,1274,1250,1232,1244,1226,1219,1174,1148,1131,1111,1121,1072,1074,1062,1041,997,942,887,736,698,707,601,591,586,589,592,559,553,552,557,560,562,563,565,561,564,568,568,569,573,571,574,564,573,572,576,576,576,570,578,575,569,569,1201,1222,1231,1278,1445,2010,2630,2794,2808,2904,2916,2807,2748,2753,2701,2661,2633,2579,2472,2461,2385,2389,2328,2292,2145,1785,1425,1586,1406,1339,1340,1273,1273,1251,1245,1229,1218,1245,1209,1209,1209,1209,1209,1209,1209,1209,1209,1209,1209,1209,1209,1209,1209,1209,1209,1209,1209,1209,1209,1209,1209,1209,1209,1209,1209,723,727,726,729,737,910,1360,1511,1602,1643,1615,1597,1571,1550,1527,1504,1481,1459,1436,1416,1391,1369,1350,1328,1306,1284,1263,1240,1220,1082,781,769,754,759,734,732,736,701,658,657,658,669,662,670,661,661,657,659,662,656,657,671,664,668,665,671,664,668,676,667,680,672,661,665,665,467,468,469,471,475,513,858,956,1054,1134,1150,1132,1112,1090,1077,1059,1042,1022,1005,986,969,948,928,913,895,877,856,838,740,723,655,641,499,510,476,476,476,477,413,413,413,413,413,413,413,413,413,413,413,413,413,413,413,413,413,413,413,413,413,413,413,413,413,413,413,702,706,706,709,724,996,1373,1531,1642,1713,1718,1697,1653,1626,1600,1581,1555,1527,1491,1474,1438,1410,1382,1358,1359,1302,1276,1193,1140,898,853,761,760,726,731,712,716,712,669,669,669,669,669,669,669,669,669,669,669,669,669,669,669,669,669,669,669,669,669,669,669,669,669,669,669,320,321,322,323,324,384,585,654,722,786,800,787,774,762,751,735,723,710,697,685,672,660,646,633,621,608,595,583,570,556,544,475,464,354,328,325,326,327,279,279,279,279,279,279,279,279,279,279,279,279,279,279,279,279,279,279,279,279,279,279,279,279,279,279,279,285,286,287,288,289,321,517,576,636,696,711,700,688,678,672,655,644,632,621,609,598,586,576,565,558,542,530,525,440,496,420,345,325,318,293,289,306,291,233,233,233,233,233,233,233,233,233,233,233,233,233,233,233,233,233,233,233,233,233,233,233,233,233,233,233,261,262,263,264,266,282,461,516,570,622,656,645,637,627,614,603,594,583,572,562,552,541,531,520,510,500,489,478,469,458,447,438,284,277,269,267,268,268,232,214,214,215,222,220,220,215,215,219,232,220,225,228,230,227,219,219,223,232,230,230,218,218,231,216,214,219,220,220,221,221,281,388,433,478,525,550,542,532,524,516,506,498,489,480,471,463,453,445,435,427,418,408,400,392,382,374,312,305,297,273,222,223,268,189,190,190,191,192,194,189,194,190,192,190,192,191,196,194,195,194,196,195,195,195,198,195,199,192,193,193,0,0,0,0,0,0,0,0,0,0,0,0,0,0,0,0,0,0,0,0,0,0,0,0,0,0,0,0,0,0,0,0,0,0,0,0,0,0,0,0,0,0,0,0,0,0,0,0,0,0,0,0,0,0,0,0,0,0,0,0,0,0,0,0,0,214,215,216,216,217,283,379,423,466,509,534,525,517,508,500,492,483,475,466,458,450,441,433,424,416,408,399,391,382,374,366,303,298,290,282,217,279,279,197,200,201,204,214,212,209,212,209,211,211,212,210,207,213,216,212,207,216,208,208,231,215,232,212,215,214,601,603,606,608,613,750,1146,1280,1415,1475,1484,1456,1432,1420,1386,1370,1336,1314,1292,1266,1242,1220,1195,1172,1148,1124,1101,1077,986,964,820,768,636,683,612,614,611,594,570,569,569,572,585,583,584,592,583,586,585,583,589,582,583,593,590,583,596,587,580,583,592,607,621,603,610,1065,1073,1071,1068,1162,1721,2258,2431,2523,2594,2591,2529,2466,2452,2412,2379,2352,2309,2238,2209,2168,2124,2093,2048,1916,1806,1765,1491,1437,1294,1186,1158,1118,1108,1088,1067,1081,1055,1037,1043,1047,1057,1060,1067,1057,1050,1064,1066,1072,1070,1070,1065,1065,1078,1069,1067,1071,1065,1061,1076,1066,1068,1069,1066,1062,288,289,290,290,292,458,531,592,654,710,721,709,699,686,675,663,651,640,628,618,605,594,583,571,561,547,537,553,514,502,491,478,467,304,296,292,293,294,265,268,269,271,271,270,270,271,268,272,269,270,271,273,272,271,271,273,271,271,271,275,269,272,269,272,271,470,472,474,474,478,531,871,986,1085,1156,1166,1146,1135,1117,1099,1077,1065,1034,1016,997,987,960,951,922,913,885,875,827,649,742,621,548,520,504,480,476,480,461,435,437,440,444,449,454,447,457,447,458,452,452,452,444,449,453,455,444,457,447,442,449,456,471,452,452,451,1167,1175,1181,1208,1267,1921,2530,2679,2788,2824,2820,2714,2674,2659,2631,2592,2574,2487,2402,2416,2325,2298,2263,2222,2092,1749,1415,1379,1354,1372,1362,1246,1240,1208,1212,1193,1190,1204,1181,1180,1186,1187,1194,1198,1198,1198,1198,1202,1198,1196,1201,1196,1197,1199,1203,1197,1206,1197,1188,1198,1202,1206,1202,1207,1197,576,564,571,568,576,781,1058,1196,1310,1376,1382,1365,1338,1323,1305,1286,1264,1227,1206,1195,1175,1140,1129,1096,1074,1082,1030,1009,917,960,861,664,628,612,573,571,574,571,550,547,547,550,558,562,560,563,559,565,559,557,564,557,559,563,565,557,566,558,552,559,567,577,564,576,565,808,830,817,814,847,972,1595,1826,1902,1978,2004,1971,1886,1903,1880,1847,1816,1781,1731,1688,1684,1652,1611,1592,1567,1534,1502,1369,1190,1164,1076,872,874,859,844,813,823,802,778,787,792,795,799,806,801,797,798,799,806,805,805,799,801,814,805,803,807,801,796,812,802,804,805,802,798,445,446,448,448,452,630,820,916,1012,1090,1105,1086,1068,1057,1033,1019,997,979,962,944,926,909,891,873,856,838,820,798,727,768,694,621,558,545,454,452,452,451,450,427,426,429,448,451,444,441,438,447,455,444,455,446,447,457,451,440,455,449,445,464,449,462,456,462,441,588,586,599,588,601,830,1128,1245,1361,1432,1444,1406,1399,1387,1353,1337,1316,1299,1261,1238,1215,1201,1158,1147,1136,1101,1088,1066,982,1010,860,782,627,626,605,596,603,602,581,583,582,587,591,595,593,598,593,596,594,591,597,592,612,599,596,590,602,595,604,595,600,617,596,608,598,458,458,461,462,466,572,846,947,1047,1124,1139,1118,1102,1083,1065,1048,1030,1010,996,973,954,936,918,900,887,864,851,828,810,790,770,605,527,485,468,460,466,447,426,420,419,423,428,433,429,433,435,435,431,429,435,429,431,433,435,427,437,428,425,431,437,448,434,445,434,608,632,609,597,638,859,1188,1295,1416,1471,1443,1454,1402,1381,1390,1374,1316,1293,1257,1239,1228,1188,1171,1188,1168,1114,1116,1062,1040,955,935,788,634,643,607,604,628,608,608,614,620,623,614,630,625,630,626,633,640,632,618,623,634,642,634,635,638,630,634,638,630,626,635,628,628,1190,1185,1205,1282,1628,2251,2859,2979,3085,3138,3078,3020,2977,2964,2922,2878,2796,2738,2672,2643,2599,2559,2500,2425,2145,1843,1853,1721,1505,1363,1317,1284,1244,1233,1215,1226,1232,1243,1255,1237,1237,1238,1245,1243,1243,1238,1238,1242,1255,1243,1248,1251,1253,1250,1242,1242,1246,1255,1253,1253,1241,1241,1254,1239,1237,640,641,644,646,670,997,1245,1390,1500,1567,1575,1550,1525,1500,1474,1449,1424,1399,1358,1350,1324,1299,1274,1249,1209,1198,1173,1148,1123,1065,973,833,767,665,653,649,651,652,647,642,652,644,661,669,648,651,657,666,665,664,662,683,669,670,664,665,654,668,656,683,665,683,664,667,667,559,560,563,564,568,739,1045,1171,1288,1358,1370,1346,1326,1304,1282,1262,1241,1219,1199,1174,1152,1131,1108,1086,1073,1050,1029,1003,944,923,705,693,639,581,571,563,569,546,526,526,527,534,537,540,538,536,535,536,540,540,543,538,538,545,541,537,542,538,534,541,541,542,542,538,535,795,798,801,806,817,1158,1570,1746,1880,1927,1942,1896,1882,1844,1804,1786,1758,1713,1683,1650,1620,1590,1559,1544,1499,1468,1379,1349,1258,1176,1036,858,846,833,809,807,810,805,783,788,785,796,799,804,798,810,803,803,804,799,803,802,802,811,813,810,817,809,806,809,816,832,821,829,816,280,280,282,282,284,379,496,554,613,671,704,692,684,674,658,648,636,625,614,602,591,580,568,558,547,535,524,512,501,490,478,468,423,412,288,285,286,287,256,238,238,239,246,244,244,239,239,243,256,244,249,252,254,251,243,243,247,256,254,254,242,242,255,240,238,261,262,263,264,266,282,461,516,570,622,656,645,637,627,614,603,594,583,572,562,552,541,531,520,510,500,489,478,469,458,447,438,284,277,269,267,268,268,232,214,214,215,222,220,220,215,215,219,232,220,225,228,230,227,219,219,223,232,230,230,218,218,231,216,214,336,336,324,324,337,401,504,636,697,770,780,771,760,751,738,726,714,701,693,682,670,634,632,610,601,538,529,520,511,502,494,453,459,366,370,316,366,336,270,264,275,285,281,278,269,272,278,286,281,278,280,275,277,280,281,276,276,276,276,276,276,276,276,276,276,83,83,89,123,123,124,142,158,175,192,206,203,201,197,194,190,187,184,181,177,174,171,167,164,162,157,154,150,148,145,139,136,134,130,126,123,124,125,38,39,39,40,50,45,43,46,42,51,44,43,45,40,41,43,43,39,39,39,39,39,39,39,39,39,39,218,219,220,220,281,306,383,427,472,516,538,529,521,513,504,494,486,478,470,462,452,444,436,428,422,410,402,395,386,376,366,358,350,342,306,282,283,283,186,186,186,191,188,188,187,193,185,189,188,187,187,189,188,186,186,187,187,187,187,187,187,187,187,187,187,0,0,0,0,0,0,0,0,0,0,0,0,0,0,0,0,0,0,0,0,0,0,0,0,0,0,0,0,0,0,0,0,0,0,0,0,0,0,0,0,0,0,0,0,0,0,0,0,0,0,0,0,0,0,0,0,0,0,0,0,0,0,0,0,0,474,463,473,467,468,595,851,947,1043,1124,1134,1116,1098,1072,1062,1044,1035,1009,997,970,952,936,915,898,879,861,852,825,802,789,689,674,529,486,487,468,465,447,415,414,414,415,422,418,422,427,418,420,420,420,423,425,424,431,425,426,427,425,427,424,421,421,421,421,421,922,922,921,923,986,1368,1910,2056,2232,2255,2237,2181,2161,2140,2117,2048,2038,1965,1938,1902,1886,1850,1821,1759,1721,1556,1510,1405,1100,1096,999,1066,996,979,962,942,941,940,887,881,895,897,889,893,897,889,898,898,904,903,903,905,907,904,907,906,904,904,901,903,901,901,901,901,901,260,260,261,262,263,391,475,530,585,637,650,639,630,619,609,598,588,578,567,556,547,536,525,516,505,494,484,474,463,428,419,409,400,343,334,264,264,265,260,264,257,260,269,267,277,284,262,269,268,279,270,261,264,270,268,264,269,264,262,266,262,270,269,285,260,325,331,328,335,330,356,590,657,727,800,821,801,788,778,770,756,743,723,717,697,684,670,665,644,640,619,612,592,584,573,368,360,352,365,334,331,336,332,282,282,283,289,284,289,283,295,284,290,288,289,286,289,290,289,290,289,286,287,289,289,285,285,285,285,285,1018,1030,1032,1063,1156,1660,2083,2322,2420,2478,2476,2466,2356,2318,2307,2282,2284,2240,2125,2098,2062,2011,1993,1958,1944,1749,1450,1340,1206,1227,1132,1093,1074,1068,1050,1063,1044,1040,1028,1023,1026,1031,1029,1034,1032,1037,1029,1037,1034,1032,1036,1038,1038,1035,1036,1038,1038,1036,1035,1034,1033,1033,1033,1033,1033,427,420,420,430,439,499,762,849,937,1028,1034,1024,1007,987,971,958,946,936,910,902,870,861,853,820,819,791,785,754,668,653,600,526,516,471,437,440,425,424,397,390,391,394,392,398,396,401,394,398,397,393,397,401,399,397,400,400,398,396,398,398,394,394,394,394,394,676,679,682,669,690,896,1284,1445,1587,1650,1646,1620,1603,1587,1549,1524,1506,1468,1442,1419,1399,1366,1340,1312,1292,1259,1233,1203,1009,929,909,788,732,712,698,689,688,691,627,626,633,640,633,633,636,641,635,639,638,637,638,638,643,643,643,642,640,640,639,639,637,637,637,637,637,297,298,303,304,304,320,544,606,668,734,744,739,727,710,702,691,679,667,655,637,631,619,607,595,583,571,566,547,531,523,434,424,414,325,317,305,311,312,283,272,271,272,285,283,282,279,273,281,283,281,284,290,286,284,286,283,284,286,286,292,278,278,278,278,278,451,447,454,450,456,531,827,922,1000,1070,1092,1080,1064,1040,1035,1014,988,976,958,963,918,907,893,880,872,839,828,805,781,769,666,653,507,464,456,456,452,455,426,428,427,430,428,430,431,436,428,430,429,428,431,435,452,435,431,433,433,433,442,436,429,429,429,429,429,308,309,310,312,313,358,555,618,683,748,772,758,745,734,721,709,697,684,672,660,649,634,622,611,598,586,573,561,475,465,452,440,427,324,316,314,320,321,272,265,264,266,265,268,267,270,264,274,267,265,269,272,271,269,270,270,268,267,268,271,266,266,266,266,266,564,561,559,560,574,751,1047,1119,1231,1245,1267,1269,1218,1200,1183,1195,1178,1160,1158,1131,1113,1088,1081,1071,1033,1022,997,979,966,897,752,710,705,652,569,567,565,567,549,552,558,558,558,565,556,568,565,558,567,562,563,565,562,568,565,569,569,569,567,571,569,572,573,573,567,1159,1175,1179,1226,1393,1837,2428,2685,2697,2796,2790,2722,2662,2626,2608,2574,2509,2491,2378,2355,2328,2273,2268,2208,2145,1785,1579,1577,1330,1310,1280,1235,1176,1184,1192,1189,1162,1183,1168,1164,1163,1172,1168,1175,1173,1180,1170,1178,1175,1173,1177,1179,1179,1176,1177,1179,1179,1177,1176,1175,1174,1174,1174,1174,1174,764,767,769,772,803,1142,1503,1669,1777,1835,1821,1797,1771,1746,1712,1690,1648,1641,1602,1573,1546,1516,1490,1471,1432,1404,1376,1345,1319,1092,920,890,877,788,793,776,757,754,692,696,697,709,712,715,704,707,702,710,706,699,702,711,705,711,708,710,710,710,710,710,710,710,710,710,710,409,410,412,414,424,466,741,825,909,989,1008,990,974,958,942,926,912,895,879,865,850,832,816,800,784,768,753,738,651,636,569,541,482,468,419,416,423,426,372,369,371,374,372,372,373,376,372,376,374,374,376,377,380,381,379,379,375,377,377,375,375,375,375,375,375,651,652,654,669,672,948,1230,1370,1505,1588,1586,1560,1535,1504,1486,1461,1445,1410,1396,1384,1336,1311,1284,1260,1235,1210,1195,1103,1049,1025,956,854,690,683,663,672,662,657,628,627,630,630,636,639,636,638,638,637,639,636,637,645,643,647,648,653,648,647,653,650,645,645,645,645,645,357,358,358,360,363,455,584,715,779,860,868,861,844,834,821,811,790,779,769,736,727,706,702,679,669,605,595,584,577,568,560,433,499,388,356,363,365,377,316,311,321,333,329,326,315,320,323,334,327,324,326,323,325,329,328,324,324,324,324,324,324,324,324,324,324,336,336,324,324,337,401,504,636,697,770,780,771,760,751,738,726,714,701,693,682,670,634,632,610,601,538,529,520,511,502,494,453,459,366,370,316,366,336,270,264,275,285,281,278,269,272,278,286,281,278,280,275,277,280,281,276,276,276,276,276,276,276,276,276,276,624,619,618,629,636,818,1169,1320,1395,1532,1509,1448,1423,1447,1433,1395,1381,1360,1331,1267,1253,1247,1219,1195,1163,1155,1040,970,913,862,785,810,686,637,634,632,636,620,555,536,538,549,561,562,549,557,556,561,564,563,563,563,560,565,565,554,566,566,554,567,561,564,564,564,558,429,430,431,432,433,537,771,860,964,1039,1064,1045,1030,1011,994,978,961,942,926,909,891,875,859,844,828,812,795,780,682,657,560,557,510,476,463,435,435,424,353,352,353,360,366,365,356,364,360,374,371,362,366,360,361,367,375,364,366,364,362,368,363,363,363,363,362,524,525,527,527,536,691,969,1081,1209,1291,1293,1273,1252,1230,1212,1191,1170,1149,1128,1107,1087,1066,1045,1030,1006,986,966,945,876,819,731,703,561,548,536,533,535,525,472,475,474,479,478,479,478,480,480,480,481,480,480,480,481,482,482,482,483,483,477,484,483,485,483,484,483,378,379,381,382,386,509,681,760,840,932,940,925,910,894,882,866,852,837,822,807,792,777,762,747,732,717,702,687,673,656,543,531,519,507,388,385,387,388,335,337,339,342,341,342,341,343,343,343,344,343,343,343,341,345,345,344,346,345,336,347,346,348,346,347,346,0,0,0,0,0,0,0,0,0,0,0,0,0,0,0,0,0,0,0,0,0,0,0,0,0,0,0,0,0,0,0,0,0,0,0,0,0,0,0,0,0,0,0,0,0,0,0,0,0,0,0,0,0,0,0,0,0,0,0,0,0,0,0,0,0,922,921,921,926,972,1365,1930,2115,2218,2235,2236,2181,2163,2145,2090,2011,2037,1965,1939,1888,1876,1845,1794,1782,1735,1556,1422,1543,1364,1151,1078,1006,974,938,941,930,923,922,909,918,917,937,911,909,910,919,921,942,908,907,911,910,935,910,926,909,917,921,921,909,939,943,909,923,917,494,495,497,498,501,646,902,1037,1166,1222,1226,1206,1186,1166,1147,1151,1107,1086,1066,1048,1027,1007,992,973,951,933,913,894,870,775,740,543,530,516,505,503,503,502,460,462,462,465,466,466,467,472,464,474,471,476,465,468,470,474,470,474,473,479,472,470,471,471,471,471,470,150,150,151,151,228,236,267,298,330,362,379,373,367,360,354,348,342,336,330,324,318,312,306,300,294,288,282,276,270,264,256,250,244,238,232,229,229,230,140,139,142,147,139,138,138,142,145,139,139,138,139,140,138,140,139,140,139,144,139,143,141,140,139,141,143,799,798,805,817,863,1206,1613,1781,1905,1923,1951,1920,1857,1857,1826,1790,1761,1764,1696,1670,1639,1605,1550,1545,1529,1483,1469,1432,1364,1122,1010,986,904,840,814,828,813,816,817,810,814,831,818,828,824,824,822,824,826,822,819,820,821,821,824,828,826,824,820,816,824,829,830,828,811,267,268,268,269,270,359,486,541,597,649,662,652,642,631,621,610,685,589,579,568,558,548,537,526,517,506,495,537,475,464,517,444,368,265,350,271,345,345,266,265,264,264,267,264,267,264,267,264,264,266,267,269,268,270,283,284,268,288,268,267,269,268,283,271,268,653,673,657,676,680,789,1296,1436,1549,1594,1610,1567,1558,1533,1507,1466,1494,1412,1390,1380,1341,1312,1291,1312,1253,1227,1190,1228,1107,904,948,792,774,676,665,663,664,666,666,674,674,684,668,666,667,676,678,689,665,664,668,667,690,667,683,666,674,678,678,666,692,694,666,680,674,184,184,196,196,196,205,315,349,387,423,448,440,434,426,419,412,406,398,390,384,377,370,364,356,348,341,335,328,321,315,306,299,211,206,200,197,198,198,138,138,138,139,139,140,139,141,140,141,141,142,141,142,142,144,143,144,144,144,145,145,146,146,146,146,145,129,129,130,130,186,201,226,250,276,300,316,312,307,302,297,292,288,283,278,273,268,264,259,254,249,244,240,235,230,225,220,216,211,206,201,196,198,198,120,120,120,120,120,120,120,121,121,121,123,123,123,124,124,124,123,124,125,124,125,124,124,124,125,124,125,282,282,284,284,287,443,502,559,619,695,706,695,685,672,662,651,640,628,621,609,595,586,576,561,549,538,526,516,505,493,482,472,459,448,291,288,288,289,247,246,251,254,246,245,246,249,251,250,246,244,246,247,245,248,246,247,246,251,246,250,248,247,246,248,247,619,620,622,617,632,713,1095,1197,1305,1365,1370,1351,1335,1312,1294,1300,1294,1267,1253,1234,1220,1198,1175,1149,1126,1121,1068,985,965,962,831,732,693,633,629,633,621,613,590,581,583,591,587,607,587,610,589,599,595,584,588,593,599,607,598,594,591,589,603,601,589,593,588,599,592,863,861,850,864,917,1334,1738,1914,1963,2055,2047,1963,1969,1990,1900,1904,1851,1842,1807,1773,1741,1707,1673,1645,1638,1588,1560,1502,1318,973,962,941,925,908,887,896,889,870,868,871,869,868,883,873,880,894,885,887,893,892,887,894,896,895,899,899,895,893,901,897,898,903,887,900,890,784,786,784,853,867,1419,1721,1925,2046,2070,2054,2018,1972,1941,1903,1870,1837,1790,1758,1725,1684,1651,1606,1574,1541,1525,1467,1431,1401,1236,876,854,832,809,798,794,802,797,799,798,811,821,817,799,817,845,815,812,813,818,817,820,823,839,819,810,823,813,869,863,813,869,810,814,813,383,384,386,386,390,454,668,730,801,868,837,885,853,840,826,831,799,786,736,777,746,698,736,706,693,680,667,654,639,626,613,600,391,440,373,370,371,372,358,353,358,365,357,357,355,359,360,354,356,353,357,357,355,360,358,359,358,363,358,362,360,359,358,360,359,328,329,330,331,332,376,602,670,740,798,840,799,786,772,760,747,735,722,736,697,684,672,658,670,633,644,630,595,605,485,474,462,445,435,336,349,334,352,327,334,330,332,335,336,335,339,330,334,334,335,335,337,337,337,335,338,336,340,339,334,335,333,332,337,331,657,654,662,662,671,888,1247,1402,1485,1620,1592,1531,1506,1527,1512,1461,1458,1435,1384,1339,1325,1317,1286,1262,1232,1222,1210,1180,945,933,823,808,742,692,670,663,677,652,586,582,581,593,592,593,592,594,594,594,595,594,594,593,593,596,596,596,597,597,589,598,597,599,597,598,597,624,619,618,629,636,818,1169,1320,1395,1532,1509,1448,1423,1447,1433,1395,1381,1360,1331,1267,1253,1247,1219,1195,1163,1155,1040,970,913,862,785,810,686,637,634,632,636,620,555,536,538,549,561,562,549,557,556,561,564,563,563,563,560,565,565,554,566,566,554,567,561,564,564,564,558,886,890,888,891,938,1512,1833,2001,2152,2147,2148,2141,2068,2077,2020,2002,1968,1918,1887,1861,1829,1782,1744,1699,1687,1626,1607,1456,1411,1178,1120,1053,940,904,902,896,890,892,888,883,890,899,892,901,896,894,897,905,913,906,909,912,913,914,909,903,901,909,901,904,912,900,901,908,899,987,987,999,997,1047,1800,2112,2239,2360,2351,2386,2328,2290,2289,2228,2176,2142,2108,2099,2032,2020,1980,1889,1913,1837,1759,1667,1519,1384,1228,1156,1051,1075,1008,1018,1007,946,904,893,890,911,918,893,923,901,909,915,913,933,903,904,909,906,933,942,910,908,919,908,922,912,931,912,943,916,1056,1056,1074,1069,1256,1957,2279,2402,2526,2512,2540,2483,2442,2441,2374,2320,2281,2246,2236,2164,2150,2110,2016,2040,1960,1951,1724,1373,1435,1340,1187,1126,1130,1079,1088,1077,1045,1005,992,992,1005,1019,995,1027,1002,1003,1016,1012,1032,1005,1007,1013,1005,1034,1039,1012,1009,1016,1006,1019,1010,1030,1011,1042,1015,910,911,925,919,955,1623,1919,2049,2177,2171,2210,2154,2119,2123,2063,2014,1982,1951,1947,1881,1873,1837,1746,1774,1701,1702,1640,1582,1400,1245,1097,972,996,932,941,930,908,867,857,850,861,873,853,877,860,859,873,872,888,864,864,866,863,895,900,870,868,875,865,873,867,902,883,914,887,917,920,906,931,990,1476,1823,2120,2196,2266,2199,2183,2125,2094,2059,2019,1988,1953,1917,1892,1865,1821,1793,1750,1711,1668,1636,1526,1314,1287,1172,973,950,935,920,918,914,899,877,880,892,903,878,892,889,891,915,881,879,884,884,901,891,903,887,898,897,897,887,903,910,908,906,919,899,0,0,0,0,0,0,0,0,0,0,0,0,0,0,0,0,0,0,0,0,0,0,0,0,0,0,0,0,0,0,0,0,0,0,0,0,0,0,0,0,0,0,0,0,0,0,0,0,0,0,0,0,0,0,0,0,0,0,0,0,0,0,0,0,0,1086,1085,1098,1101,1173,2022,2361,2477,2595,2584,2615,2552,2511,2507,2438,2383,2346,2308,2295,2223,2211,2170,2072,2095,2013,2008,1789,1482,1334,1308,1204,1152,1159,1109,1117,1107,1069,1026,1016,1012,1026,1037,1016,1045,1027,1026,1039,1038,1057,1031,1031,1033,1030,1060,1063,1037,1035,1042,1032,1040,1036,1054,1035,1066,1039,880,869,879,908,998,1454,1804,2014,2081,2141,2081,2107,2072,2038,2001,1935,1932,1897,1832,1826,1764,1737,1722,1693,1644,1582,1549,1516,1335,1259,980,991,909,908,902,894,879,874,861,865,868,851,876,879,871,870,873,887,885,871,871,875,891,889,873,872,870,875,875,884,873,875,884,882,879,431,432,433,435,440,675,831,930,1024,1098,1095,1072,1054,1038,1020,1019,985,967,966,950,915,897,896,862,846,843,799,798,776,684,669,652,730,515,448,448,441,440,435,434,440,444,445,444,443,457,446,457,446,446,449,455,451,456,459,457,447,446,446,447,447,455,446,453,446,766,780,780,789,825,1199,1505,1738,1855,1930,1860,1841,1806,1804,1767,1706,1707,1657,1630,1601,1575,1553,1521,1496,1449,1435,1387,1357,1293,1145,848,936,834,793,781,792,790,782,753,757,769,789,757,769,773,765,785,776,771,770,772,780,816,771,764,770,767,767,765,768,773,795,777,791,773,402,403,404,405,408,664,750,835,921,1029,986,970,956,940,925,895,894,878,862,848,832,817,801,786,770,754,740,712,697,693,678,610,554,414,404,408,408,410,403,407,402,408,412,415,412,427,412,408,426,415,408,412,412,525,411,410,468,412,412,428,411,473,408,414,408,901,893,903,899,993,1497,1799,2069,2139,2179,2128,2146,2112,2082,2040,1927,1975,1936,1832,1855,1808,1750,1720,1714,1673,1623,1590,1440,1388,1279,1084,1046,904,908,902,891,906,903,885,882,894,877,884,899,891,884,894,887,893,886,886,887,888,890,891,892,892,887,890,885,897,904,898,911,891,1043,1037,1034,1059,1146,1756,2125,2416,2480,2518,2464,2460,2397,2364,2324,2227,2245,2204,2120,2135,2086,2027,1986,1985,1941,1876,1707,1349,1184,1163,1132,1106,1065,1063,1048,1047,1034,1019,997,1000,1012,1023,998,1013,1010,1012,1038,1004,1002,1008,1008,1025,1014,1027,1011,1022,1022,1021,1011,1027,1035,1032,1031,1044,1024,719,707,698,715,752,1184,1414,1614,1688,1754,1701,1733,1704,1677,1646,1587,1590,1563,1504,1505,1449,1422,1413,1391,1348,1293,1266,1262,1228,1126,782,865,745,752,717,704,731,726,713,713,714,703,727,727,719,721,721,738,735,722,722,723,744,753,724,722,721,726,725,734,724,722,733,731,728,1300,1305,1352,1421,1745,2491,2878,3043,3116,3119,3083,3093,3048,3036,2982,2902,2851,2833,2771,2738,2653,2617,2412,2052,1917,1872,1871,1547,1650,1528,1452,1450,1360,1396,1325,1301,1314,1326,1318,1322,1324,1338,1319,1351,1324,1323,1336,1335,1354,1328,1328,1330,1327,1357,1360,1334,1332,1339,1329,1337,1333,1351,1332,1363,1336,480,476,483,480,488,586,934,1029,1148,1201,1191,1173,1154,1153,1116,1096,1078,1059,1040,1021,1003,984,964,962,941,908,889,870,850,850,813,590,579,560,491,482,484,485,480,481,481,488,473,492,480,645,488,495,493,480,484,485,494,487,492,484,488,492,488,482,488,494,484,499,488,1317,1326,1365,1530,2154,3157,3477,3656,3747,3719,3674,3650,3574,3454,3388,3290,3231,3176,3103,2912,2855,2495,2135,2137,2085,1995,1820,1737,1572,1540,1457,1414,1359,1361,1369,1360,1375,1375,1444,1439,1517,1478,1509,1538,1458,1515,1454,1463,1536,1464,1476,1522,1518,1537,1551,1529,1463,1471,1481,1480,1527,1479,1470,1556,1529,764,768,756,774,815,1176,1494,1724,1820,1881,1827,1825,1794,1772,1737,1697,1678,1648,1619,1584,1558,1533,1503,1473,1444,1394,1364,1346,1321,1187,993,908,806,782,773,764,775,742,718,717,727,762,732,737,733,735,758,745,741,742,731,734,730,739,732,738,734,731,732,735,740,760,749,758,740,729,730,731,744,748,1094,1376,1634,1736,1833,1760,1728,1680,1656,1652,1616,1575,1547,1536,1488,1514,1433,1447,1378,1361,1324,1317,1272,1258,1153,793,808,756,752,744,739,722,731,731,717,720,727,723,737,727,739,734,741,741,743,746,744,742,753,748,744,737,747,752,750,751,771,756,761,755,862,866,864,867,899,1462,1775,1946,2088,2093,2092,2062,2016,2026,1970,1948,1919,1872,1849,1789,1785,1732,1678,1656,1638,1585,1564,1516,1449,1192,1034,1019,916,880,874,872,880,886,882,880,887,890,884,891,883,887,891,900,910,897,896,899,918,910,909,899,893,910,888,899,904,897,895,905,893,886,890,888,891,938,1512,1833,2001,2152,2147,2148,2141,2068,2077,2020,2002,1968,1918,1887,1861,1829,1782,1744,1699,1687,1626,1607,1456,1411,1178,1120,1053,940,904,902,896,890,892,888,883,890,899,892,901,896,894,897,905,913,906,909,912,913,914,909,903,901,909,901,904,912,900,901,908,899,469,468,472,474,476,504,836,970,1106,1159,1164,1145,1128,1114,1090,1071,1052,1033,1014,996,976,958,940,926,862,846,831,780,792,686,641,550,525,514,483,474,480,459,401,401,410,434,414,415,410,417,408,415,417,415,410,408,412,417,412,411,416,416,411,413,412,417,413,413,413,184,184,185,186,187,195,331,370,410,448,464,457,450,442,435,427,420,412,405,398,390,382,375,368,361,352,345,338,331,322,315,205,200,196,190,187,188,188,168,169,168,173,180,178,174,180,172,180,180,180,175,173,176,179,175,175,180,180,176,178,176,180,177,175,175,346,368,348,349,351,461,664,720,794,852,887,873,834,819,833,819,778,765,751,738,748,710,697,682,692,656,642,628,635,621,581,526,373,364,355,352,352,378,326,327,334,340,338,338,334,340,332,338,340,340,333,333,336,339,335,336,340,340,336,338,336,340,337,335,335,231,232,232,232,233,385,417,465,513,560,574,565,556,547,538,529,520,511,502,493,483,475,465,457,447,439,429,421,411,402,393,384,375,390,318,234,235,236,228,236,228,235,237,236,236,238,231,236,234,236,234,229,230,233,232,232,236,232,230,241,230,241,234,235,230,500,495,491,505,507,704,940,1052,1166,1207,1212,1191,1173,1154,1135,1112,1115,1074,1056,1037,1017,997,978,960,940,920,902,880,862,740,738,720,565,564,499,508,497,479,464,463,467,474,470,469,471,474,475,472,483,482,476,479,478,482,476,478,477,483,480,484,484,484,482,484,482,1018,1055,1054,1059,1110,1696,2181,2438,2521,2528,2512,2475,2435,2396,2346,2293,2232,2262,2153,2182,2059,2096,1977,1921,1890,1717,1610,1405,1361,1268,1144,1149,1093,1085,1065,1044,1055,1051,1012,1018,1023,1035,1030,1039,1028,1032,1037,1057,1046,1045,1043,1043,1044,1046,1046,1042,1047,1050,1048,1047,1038,1057,1043,1044,1040,0,0,0,0,0,0,0,0,0,0,0,0,0,0,0,0,0,0,0,0,0,0,0,0,0,0,0,0,0,0,0,0,0,0,0,0,0,0,0,0,0,0,0,0,0,0,0,0,0,0,0,0,0,0,0,0,0,0,0,0,0,0,0,0,0,370,374,372,373,376,612,694,746,820,882,891,908,894,879,864,819,835,827,805,763,748,767,753,730,716,676,694,672,657,620,627,613,528,375,379,376,376,364,329,326,327,326,328,327,331,332,330,331,332,332,334,334,333,335,334,333,338,335,334,332,337,338,352,338,338,1040,1037,1063,1093,1267,1898,2245,2435,2599,2553,2557,2482,2416,2393,2364,2365,2342,2288,2238,2147,2162,2066,2090,2009,1995,1732,1658,1464,1183,1268,1292,1132,1095,1090,1104,1094,1070,1072,1088,1087,1091,1093,1093,1103,1107,1108,1106,1098,1108,1095,1091,1093,1092,1111,1097,1094,1097,1094,1095,1093,1092,1099,1091,1111,1095,449,451,452,453,460,723,854,954,1111,1104,1110,1092,1075,1057,1039,1022,1004,982,969,951,933,916,898,880,864,846,828,811,793,769,756,655,639,470,544,456,457,456,462,461,460,460,467,470,474,475,468,465,469,475,472,465,468,478,472,468,465,478,463,472,466,468,468,481,472,761,792,791,796,813,994,1552,1771,1886,1931,1923,1897,1858,1828,1795,1737,1673,1704,1644,1644,1570,1582,1495,1467,1451,1458,1428,1330,1101,1093,996,953,832,819,804,804,802,800,753,763,768,773,770,778,774,779,771,791,780,781,779,780,780,782,782,778,783,786,784,783,774,793,779,780,776,324,324,325,326,328,515,600,670,704,811,820,794,781,769,756,756,729,717,704,703,690,666,652,639,627,614,601,588,576,562,549,536,458,443,332,328,329,330,324,325,326,325,328,326,331,327,329,326,328,328,328,329,332,354,333,354,331,354,333,328,331,328,354,354,328,413,414,415,414,419,616,786,853,935,1046,1021,998,1001,963,969,953,936,921,887,867,873,857,823,808,788,793,776,760,743,712,703,690,587,527,424,420,420,421,405,408,416,425,420,425,411,425,411,425,418,411,424,425,425,425,425,424,423,425,425,425,423,425,417,425,415,420,422,422,424,426,595,760,892,985,1039,1045,1031,1011,994,978,961,944,928,911,894,878,861,844,827,811,794,777,759,725,724,707,574,532,477,430,426,434,426,392,388,387,398,396,398,394,402,391,405,401,396,398,399,399,401,400,397,404,403,406,403,395,410,398,400,397,412,412,414,415,418,453,740,782,840,887,898,888,876,864,853,846,830,848,836,823,811,803,790,783,760,728,725,727,710,702,643,572,472,452,424,424,421,408,371,371,371,371,371,371,371,371,371,371,371,371,371,371,371,371,371,371,371,371,371,371,371,371,371,371,371,1181,1202,1210,1259,1550,2220,2624,2790,2896,2871,2778,2788,2719,2696,2616,2647,2602,2528,2481,2419,2389,2315,2286,2210,2145,1785,1613,1628,1548,1430,1307,1276,1238,1231,1234,1212,1208,1216,1228,1225,1226,1234,1234,1240,1244,1245,1243,1239,1245,1236,1232,1234,1233,1248,1238,1235,1238,1235,1236,1234,1233,1240,1232,1251,1236,608,617,613,614,617,660,1179,1320,1426,1504,1501,1478,1454,1430,1407,1398,1372,1350,1339,1305,1283,1256,1232,1194,1171,1159,1124,1092,1078,1044,816,744,657,632,629,624,626,630,556,556,556,556,556,556,556,556,556,556,556,556,556,556,556,556,556,556,556,556,556,556,556,556,556,556,556,521,494,524,526,528,720,932,1095,1225,1275,1278,1172,1238,1218,1176,1156,1081,1137,1098,1078,1077,1040,1021,1015,982,975,954,934,857,839,737,628,614,615,532,528,548,502,503,495,494,506,507,510,503,512,500,511,511,505,509,509,509,513,512,507,514,514,520,515,505,520,508,511,508,682,684,685,690,724,1126,1361,1517,1691,1664,1660,1634,1607,1598,1556,1528,1564,1476,1450,1425,1398,1372,1346,1334,1328,1300,1241,1157,1133,1106,1005,740,722,705,695,692,694,689,680,686,690,698,692,703,695,702,690,699,694,691,693,704,701,707,710,709,698,700,705,696,690,692,701,703,692,504,505,507,509,511,594,910,1037,1196,1248,1251,1231,1212,1192,1170,1150,1130,1109,1090,1070,1050,1028,1008,989,929,912,895,882,858,844,650,643,619,538,518,512,514,505,448,447,458,482,462,461,458,462,456,461,463,461,458,456,461,464,460,460,464,466,461,462,461,463,461,461,461,469,468,472,474,476,504,836,970,1106,1159,1164,1145,1128,1114,1090,1071,1052,1033,1014,996,976,958,940,926,862,846,831,780,792,686,641,550,525,514,483,474,480,459,401,401,410,434,414,415,410,417,408,415,417,415,410,408,412,417,412,411,416,416,411,413,412,417,413,413,413,474,469,467,478,479,533,868,959,1065,1150,1170,1149,1088,1056,1087,1077,1045,1037,1023,998,941,937,914,923,869,871,865,699,715,645,514,607,623,491,488,480,478,463,415,397,396,401,433,432,411,419,412,426,438,425,438,423,422,431,429,414,432,423,415,436,420,429,425,428,418,303,305,306,312,308,385,531,593,672,740,761,727,714,725,712,700,688,676,667,652,639,627,615,603,591,578,565,553,521,410,456,409,324,344,334,313,313,314,233,235,233,237,264,263,243,258,248,267,254,248,259,243,243,256,250,242,264,241,237,263,255,265,257,259,249,374,375,376,376,380,480,678,756,836,912,929,914,900,885,870,855,840,826,810,796,781,766,752,736,722,706,691,676,661,632,572,558,522,393,384,380,425,382,332,336,332,339,357,358,345,360,349,361,355,347,358,345,346,358,349,343,360,343,338,357,353,358,355,357,345,228,229,230,231,232,332,408,454,502,547,570,561,552,543,534,525,516,507,498,489,480,471,462,453,444,435,426,417,408,399,390,381,349,342,334,271,284,284,195,198,197,197,218,218,203,212,207,217,212,207,214,204,203,213,207,204,220,201,197,219,212,218,212,219,216,192,193,193,194,195,302,341,382,421,462,484,477,469,462,453,446,438,430,422,415,406,399,392,384,376,368,361,352,345,337,330,321,314,306,298,196,196,283,167,172,169,171,171,174,172,172,169,172,170,170,171,175,173,176,192,175,172,173,188,172,172,172,170,173,171,806,804,811,818,846,1181,1594,1787,1920,1966,1965,1931,1899,1893,1840,1761,1746,1734,1732,1680,1636,1630,1596,1565,1524,1503,1196,1179,1201,1067,942,867,875,828,830,823,819,823,794,797,793,795,803,803,799,803,800,803,803,800,801,797,797,801,799,797,802,798,795,800,798,803,800,800,797,376,377,378,379,382,476,712,788,856,926,947,933,906,903,889,861,846,843,823,801,786,771,767,741,737,717,707,681,677,651,647,609,487,476,384,381,383,384,356,354,355,354,354,358,356,359,358,363,361,356,357,363,357,359,359,363,359,358,356,358,357,358,356,364,359,0,0,0,0,0,0,0,0,0,0,0,0,0,0,0,0,0,0,0,0,0,0,0,0,0,0,0,0,0,0,0,0,0,0,0,0,0,0,0,0,0,0,0,0,0,0,0,0,0,0,0,0,0,0,0,0,0,0,0,0,0,0,0,0,0,777,745,765,766,874,1117,1433,1670,1805,1881,1869,1825,1816,1762,1696,1687,1669,1674,1640,1544,1515,1512,1510,1454,1466,1418,1372,1340,1230,1018,920,947,831,828,800,804,778,769,776,773,775,777,783,782,781,786,781,785,785,782,783,779,779,783,781,779,784,780,777,782,780,785,782,782,779,154,154,155,155,234,241,272,302,333,364,381,375,369,363,357,351,345,339,333,327,322,316,310,304,298,292,286,280,342,268,262,256,250,244,238,234,235,235,143,142,145,151,142,145,144,145,145,143,145,143,144,143,143,145,144,144,143,144,143,143,144,144,144,145,144,546,541,560,561,559,671,1001,1114,1228,1326,1329,1307,1285,1265,1246,1213,1196,1195,1186,1153,1110,1112,1092,1070,1063,1028,1007,986,990,778,702,635,620,611,551,566,566,568,541,548,548,552,553,552,554,556,551,558,551,549,555,554,554,558,556,554,559,555,552,557,555,560,557,557,554,131,131,132,132,199,205,231,259,285,313,330,324,304,314,308,303,297,292,288,282,277,272,266,261,256,250,246,230,235,230,224,219,214,208,204,199,200,200,124,124,125,127,126,125,127,125,128,127,125,125,126,124,125,124,124,127,125,124,125,125,124,125,124,126,124,247,248,248,280,250,326,446,496,548,596,610,601,591,582,572,562,553,543,534,524,514,505,496,544,477,528,458,448,494,429,469,453,336,329,323,251,318,318,240,245,245,279,245,245,244,248,244,242,246,243,242,241,241,242,242,243,243,243,241,242,240,246,242,244,241,132,132,133,133,201,207,235,261,289,316,333,327,322,318,312,307,301,296,291,285,280,274,270,264,259,254,248,243,237,232,226,222,217,211,206,201,202,202,107,107,109,111,107,107,108,107,106,111,107,106,107,107,107,108,107,107,107,107,107,107,107,107,107,107,107,623,624,622,618,633,791,1177,1199,1350,1398,1407,1380,1359,1340,1320,1307,1280,1297,1240,1221,1234,1218,1212,1171,1150,1142,1087,1053,1035,901,951,742,726,709,629,627,622,630,617,621,623,630,630,629,628,634,628,633,630,635,635,640,638,642,627,631,635,635,626,628,632,632,628,632,626,903,867,906,913,961,1359,1754,1975,2162,2180,2169,2143,2127,2061,1999,1983,1961,1967,1854,1812,1788,1771,1758,1723,1707,1596,1615,1502,1328,1168,986,996,942,941,916,900,921,931,913,913,916,918,922,921,922,925,923,926,926,923,924,920,920,924,922,920,925,921,918,923,921,926,923,923,920,882,885,883,892,928,1248,1757,1924,2091,2130,2126,2086,2060,2011,1978,1965,1908,1877,1850,1826,1798,1747,1708,1680,1665,1612,1603,1531,1364,1191,1035,964,946,913,892,896,873,859,831,824,830,845,838,836,836,840,835,842,844,845,850,854,851,852,836,841,843,848,835,835,843,838,835,842,833,233,234,235,235,236,369,415,432,471,512,526,519,512,504,496,489,481,474,465,458,451,442,435,427,420,412,430,422,414,404,396,387,378,369,240,236,237,238,218,214,216,219,218,219,217,217,215,215,217,215,218,217,217,220,219,219,219,219,219,219,219,219,219,219,219,386,387,388,389,392,559,716,797,880,939,965,933,917,903,888,873,858,844,828,814,800,784,770,755,740,725,710,695,632,615,602,588,575,404,402,392,392,388,376,381,383,392,380,392,382,394,383,395,387,382,388,388,398,396,393,392,395,388,396,394,393,396,388,394,390,508,504,511,513,515,598,944,1040,1155,1239,1258,1234,1171,1139,1167,1156,1123,1114,1099,1051,1013,1007,984,990,942,935,929,921,885,852,656,625,545,525,532,513,517,507,446,443,439,449,472,474,456,464,460,472,468,463,471,453,455,470,463,457,473,455,450,477,469,473,471,474,466,474,469,467,478,479,533,868,959,1065,1150,1170,1149,1088,1056,1087,1077,1045,1037,1023,998,941,937,914,923,869,871,865,699,715,645,514,607,623,491,488,480,478,463,415,397,396,401,433,432,411,419,412,426,438,425,438,423,422,431,429,414,432,423,415,436,420,429,425,428,418,882,881,879,885,906,1497,1820,1993,2093,2166,2130,2095,2071,2059,2018,1957,1961,1903,1861,1849,1795,1750,1731,1714,1653,1626,1581,1461,1101,1133,1033,963,943,933,893,891,888,881,824,827,832,847,850,858,840,864,859,855,868,849,842,849,844,860,842,849,858,864,854,850,850,850,850,850,850,922,928,926,935,970,1620,1861,2095,2163,2234,2244,2166,2171,2100,2061,2060,1998,1965,1956,1892,1855,1842,1810,1776,1735,1686,1532,1436,1099,1261,1025,1000,975,970,939,939,882,856,794,799,803,809,824,830,830,852,837,845,846,837,823,816,815,830,825,818,830,830,815,829,829,829,829,829,829,994,998,999,1008,1101,1769,2078,2259,2367,2394,2400,2351,2321,2279,2234,2203,2161,2130,2096,2049,2017,1977,1937,1903,1867,1829,1712,1619,1326,1289,1094,1072,1046,1040,1012,1009,981,957,893,899,900,909,927,932,935,946,940,944,945,939,925,918,917,931,923,919,930,929,912,924,924,924,924,924,924,848,852,849,857,875,1447,1714,1904,2019,2052,2065,2022,1998,1960,1923,1896,1861,1832,1802,1762,1734,1701,1667,1637,1608,1575,1545,1476,1116,1260,963,926,904,898,864,863,844,819,758,762,753,764,784,786,788,802,794,804,801,797,783,773,772,790,781,782,790,786,772,780,780,780,780,780,780,691,692,692,724,734,844,1329,1485,1617,1685,1687,1664,1638,1636,1579,1556,1544,1526,1495,1448,1437,1394,1366,1354,1312,1300,1258,1231,1217,1164,966,760,730,711,702,698,700,684,664,661,662,695,669,675,665,670,675,669,668,668,665,670,668,670,669,676,673,673,670,672,673,693,678,702,679,288,313,290,291,292,506,573,597,685,766,720,762,726,686,702,716,656,639,628,616,606,594,630,571,602,548,535,523,518,540,489,464,312,442,296,296,368,294,295,299,304,311,308,321,299,312,298,316,304,301,306,308,318,321,318,308,314,304,314,319,311,319,299,306,300,1002,1004,994,1014,1039,1801,2065,2281,2360,2402,2405,2358,2346,2287,2240,2219,2167,2133,2112,2053,2014,2002,1951,1909,1890,1803,1734,1593,1425,1290,1111,1094,1048,1044,1011,1010,1005,978,917,921,915,929,947,951,958,969,961,970,970,966,950,940,939,957,946,945,957,953,939,947,947,947,947,947,947,708,709,712,742,753,1060,1369,1530,1661,1732,1732,1705,1677,1694,1622,1594,1591,1563,1534,1483,1472,1428,1414,1387,1345,1338,1288,1261,1247,1208,918,898,748,731,720,717,740,721,702,705,709,715,731,737,727,729,724,735,728,728,728,725,723,747,723,719,732,731,720,732,727,735,739,742,726,0,0,0,0,0,0,0,0,0,0,0,0,0,0,0,0,0,0,0,0,0,0,0,0,0,0,0,0,0,0,0,0,0,0,0,0,0,0,0,0,0,0,0,0,0,0,0,0,0,0,0,0,0,0,0,0,0,0,0,0,0,0,0,0,0,576,576,580,609,612,857,1077,1202,1325,1403,1413,1390,1368,1371,1323,1300,1293,1280,1257,1210,1202,1166,1143,1133,1099,1088,1053,1032,1020,971,931,815,684,597,587,584,585,587,572,575,575,590,585,591,588,597,591,585,592,594,596,589,591,600,583,585,592,598,588,584,589,592,587,592,586,371,372,373,374,377,515,678,757,833,898,914,901,886,872,859,845,829,814,800,786,771,758,744,729,715,700,686,674,657,643,628,543,530,517,381,378,379,380,354,353,358,353,354,360,380,360,354,364,378,376,363,362,364,383,362,366,361,359,357,356,356,356,356,356,356,753,757,760,788,786,1107,1470,1640,1790,1851,1855,1822,1789,1757,1727,1697,1668,1654,1613,1583,1564,1524,1492,1461,1441,1408,1381,1348,1322,1227,991,938,800,784,772,763,764,767,709,718,714,728,734,730,729,752,740,742,745,735,727,718,717,732,724,721,731,730,715,726,726,726,726,726,726,816,818,819,856,865,1094,1608,1790,1918,1986,1977,1949,1918,1913,1850,1828,1812,1783,1747,1696,1681,1637,1604,1589,1541,1526,1478,1349,1273,1204,1130,942,863,839,830,828,820,804,784,781,782,815,789,795,786,791,796,792,791,791,789,794,792,793,793,800,797,798,794,796,797,818,802,827,804,627,630,631,633,636,993,1209,1356,1475,1539,1547,1521,1497,1470,1445,1421,1400,1375,1349,1325,1300,1273,1249,1227,1203,1178,1156,1129,1103,974,951,861,685,674,643,638,640,619,561,563,561,569,608,602,592,609,608,605,607,598,599,576,580,606,589,576,598,584,572,605,605,605,605,605,605,1259,1247,1240,1277,1328,1958,2509,2685,2810,2850,2829,2790,2740,2730,2662,2661,2586,2576,2542,2497,2450,2420,2354,2234,2172,1857,1566,1507,1381,1391,1352,1330,1290,1264,1236,1251,1247,1258,1213,1216,1220,1223,1250,1246,1238,1263,1257,1253,1256,1249,1247,1233,1236,1254,1243,1240,1254,1244,1233,1244,1244,1244,1244,1244,1244,299,300,259,260,260,442,466,541,616,674,667,672,661,609,639,589,618,568,559,548,538,547,518,508,558,488,472,463,492,447,453,423,447,268,426,261,383,262,259,258,261,271,266,262,267,271,264,264,264,265,267,270,273,272,267,265,265,272,269,264,266,293,267,272,266,1280,1340,1336,1455,1917,2769,3273,3453,3527,3552,3530,3457,3414,3329,3269,3230,3191,3145,3083,2834,2474,2297,2332,2140,2041,1854,1787,1773,1684,1497,1448,1446,1371,1327,1325,1322,1328,1338,1407,1415,1411,1419,1440,1444,1432,1458,1439,1446,1455,1432,1441,1429,1427,1448,1435,1436,1448,1443,1431,1435,1435,1435,1435,1435,1435,620,622,624,626,629,971,1185,1327,1445,1510,1518,1493,1470,1443,1420,1396,1377,1352,1327,1303,1280,1254,1230,1209,1185,1161,1140,1113,1089,1051,938,917,827,666,636,632,634,606,549,551,551,556,598,589,581,594,593,591,595,586,587,563,564,589,576,562,590,571,560,583,583,583,583,583,583,514,501,512,523,523,564,915,1042,1150,1206,1245,1203,1184,1210,1145,1168,1131,1155,1109,1061,1041,1030,1007,990,982,954,915,912,902,839,727,592,554,532,509,520,517,513,510,500,498,504,500,508,502,507,501,505,504,500,500,500,505,508,507,508,505,504,506,509,502,515,502,508,504,853,857,855,861,879,1447,1725,1913,2037,2090,2076,2043,2010,1969,1936,1908,1876,1841,1814,1774,1740,1706,1681,1645,1611,1582,1577,1521,1161,1074,1048,919,897,899,869,867,869,867,809,818,820,837,856,853,848,871,863,865,867,857,850,840,843,859,850,844,855,855,842,853,853,853,853,853,853,882,881,879,885,906,1497,1820,1993,2093,2166,2130,2095,2071,2059,2018,1957,1961,1903,1861,1849,1795,1750,1731,1714,1653,1626,1581,1461,1101,1133,1033,963,943,933,893,891,888,881,824,827,832,847,850,858,840,864,859,855,868,849,842,849,844,860,842,849,858,864,854,850,850,850,850,850,850,487,492,493,479,517,801,950,1046,1117,1213,1174,1204,1143,1153,1135,1148,1068,1050,1062,1049,1030,994,955,966,940,928,908,856,832,819,533,732,512,499,511,482,484,479,474,475,478,480,480,478,480,477,482,482,495,481,488,504,497,486,488,496,486,482,482,487,482,487,486,487,483,528,523,530,541,543,602,1010,1146,1244,1318,1304,1283,1261,1240,1234,1157,1145,1139,1137,1117,1094,1073,1053,995,1012,992,973,928,812,718,643,631,587,551,539,542,532,482,451,437,442,450,456,453,454,446,457,455,462,458,454,456,460,459,454,460,458,465,482,477,467,459,466,470,465,596,608,600,612,614,717,1153,1311,1419,1483,1470,1447,1422,1398,1397,1349,1325,1301,1281,1257,1232,1209,1185,1156,1140,1116,1094,1085,992,892,734,724,640,621,610,616,618,581,550,536,542,547,556,553,557,551,549,558,561,555,556,558,562,561,555,558,559,565,581,574,562,559,565,569,564,452,462,454,468,476,558,850,966,1053,1127,1117,1100,1081,1064,1066,1025,1006,989,975,957,938,921,903,878,870,852,835,831,799,772,557,497,489,473,463,468,491,445,412,401,405,400,411,410,411,404,407,412,421,415,414,416,417,416,414,416,422,425,438,434,418,415,421,441,436,374,376,376,378,380,557,700,780,867,973,933,919,903,889,873,859,843,829,813,799,784,769,754,785,724,709,694,679,664,649,674,657,593,420,410,380,381,382,363,368,363,367,369,373,369,375,369,373,368,367,365,366,373,372,374,372,372,369,375,372,368,370,367,372,368,655,665,667,663,689,909,1306,1410,1544,1632,1602,1584,1556,1530,1538,1480,1401,1395,1412,1406,1320,1346,1297,1271,1257,1218,1193,1114,1079,1060,912,858,837,679,692,678,667,694,668,664,675,684,680,673,674,671,673,679,684,677,683,682,683,687,681,687,683,691,687,681,683,698,682,689,682,621,605,608,609,615,825,1196,1317,1436,1502,1486,1467,1438,1422,1390,1339,1333,1304,1291,1281,1260,1225,1201,1153,1154,1141,1106,1083,992,956,846,689,677,627,623,617,615,605,573,560,564,562,576,574,574,572,574,579,587,581,583,583,584,583,581,581,585,592,605,601,585,582,590,593,588,360,360,350,363,365,507,662,740,817,903,897,883,868,828,840,825,811,796,782,744,753,739,724,710,696,661,646,652,638,604,609,596,560,429,368,365,366,367,356,358,354,360,363,355,374,359,360,365,364,362,362,361,365,368,361,363,360,364,376,363,360,364,361,364,360,629,591,616,655,640,876,1161,1368,1418,1561,1521,1495,1508,1447,1402,1336,1383,1351,1338,1315,1292,1196,1246,1150,1218,1178,1131,1159,1137,1018,658,829,821,695,661,639,661,648,634,631,633,639,641,637,641,641,636,649,642,644,643,643,647,655,652,652,642,647,646,648,648,645,652,643,641,0,0,0,0,0,0,0,0,0,0,0,0,0,0,0,0,0,0,0,0,0,0,0,0,0,0,0,0,0,0,0,0,0,0,0,0,0,0,0,0,0,0,0,0,0,0,0,0,0,0,0,0,0,0,0,0,0,0,0,0,0,0,0,0,0,392,452,454,463,466,430,729,812,895,954,962,948,932,916,902,886,872,856,937,826,812,796,782,766,862,736,721,706,691,648,440,431,576,411,520,397,399,468,424,416,421,428,418,433,428,435,432,427,433,425,426,426,423,430,427,430,424,426,424,424,428,429,427,452,432,358,360,450,361,364,491,722,747,867,898,885,878,925,850,909,854,840,825,844,759,802,788,772,702,687,679,711,696,636,616,579,594,505,468,480,360,364,366,363,363,365,368,368,375,375,397,396,372,391,371,366,368,368,375,368,368,371,369,370,366,368,373,364,374,368,500,502,502,505,511,783,944,1062,1177,1248,1233,1213,1194,1174,1154,1136,1114,1094,1071,1052,1036,1017,997,982,958,939,920,904,884,864,823,804,606,527,511,508,510,501,483,488,483,487,489,493,490,496,490,496,491,490,489,490,497,495,498,497,496,494,499,496,492,495,491,497,493,230,231,232,233,320,359,409,455,503,563,577,568,558,550,542,532,524,514,505,496,487,477,468,459,450,440,432,422,412,404,394,385,375,367,346,339,340,340,216,217,212,212,217,213,228,218,219,229,213,213,212,212,216,216,214,216,213,216,229,215,214,218,214,215,213,856,867,860,862,894,1183,1645,1851,1909,2021,1918,1927,1927,1833,1855,1823,1784,1763,1725,1714,1697,1660,1630,1607,1572,1503,1516,1358,1237,950,919,917,899,907,861,862,882,870,867,856,863,867,872,864,873,873,871,875,876,871,874,874,872,877,878,875,876,877,874,877,877,879,877,877,875,749,732,757,782,808,1144,1482,1658,1761,1849,1816,1795,1802,1758,1708,1639,1680,1647,1619,1560,1563,1468,1501,1444,1436,1388,1363,1364,1142,1113,808,836,802,783,784,757,784,755,769,771,774,772,780,776,784,780,784,788,793,784,787,788,790,786,787,786,787,786,781,790,789,782,787,783,781,1117,1118,1125,1143,1200,1891,2430,2555,2625,2690,2620,2608,2567,2510,2498,2416,2374,2330,2339,2256,2226,2177,2139,2098,2048,2028,1851,1721,1475,1229,1236,1171,1173,1144,1130,1113,1100,1084,1059,1050,1058,1058,1066,1068,1067,1064,1063,1069,1075,1071,1073,1074,1073,1071,1072,1070,1076,1083,1081,1088,1073,1073,1080,1083,1078,223,224,225,226,226,347,392,435,479,532,547,538,529,521,514,506,498,489,481,472,464,456,447,439,430,422,414,405,397,388,380,371,363,355,346,339,341,341,203,205,200,202,204,199,216,203,204,221,199,201,200,199,203,200,200,203,199,204,223,203,200,203,201,200,199,348,315,316,316,317,567,640,712,785,843,855,842,747,814,801,788,774,761,748,735,682,669,657,615,668,654,641,628,615,566,556,364,356,368,322,353,356,357,334,332,334,340,333,352,340,343,344,340,358,343,340,340,340,363,350,344,339,344,340,344,347,344,344,360,348,487,452,454,456,492,780,884,991,1059,1113,1119,1170,1163,1072,1106,1100,1018,1000,1030,964,946,928,910,936,868,898,894,816,798,780,675,658,644,567,461,458,459,484,467,462,464,464,464,460,465,467,466,463,462,464,468,470,472,470,469,467,468,468,470,496,470,481,468,467,472,487,492,493,479,517,801,950,1046,1117,1213,1174,1204,1143,1153,1135,1148,1068,1050,1062,1049,1030,994,955,966,940,928,908,856,832,819,533,732,512,499,511,482,484,479,474,475,478,480,480,478,480,477,482,482,495,481,488,504,497,486,488,496,486,482,482,487,482,487,486,487,483,639,616,642,641,637,883,1244,1402,1501,1541,1544,1533,1507,1483,1416,1432,1394,1343,1382,1319,1305,1269,1256,1219,1202,1147,1145,1107,1076,908,904,774,755,656,657,644,637,636,608,612,609,615,627,619,619,619,611,618,611,613,617,623,623,648,643,637,623,623,621,647,617,621,646,628,628,667,685,695,690,711,961,1351,1477,1606,1676,1675,1649,1577,1578,1568,1542,1546,1488,1461,1433,1410,1402,1347,1329,1264,1274,1224,1106,999,985,855,744,729,708,697,694,710,626,581,572,574,587,590,586,586,584,592,586,590,588,584,586,591,592,590,595,590,592,595,632,600,595,592,592,592,751,755,766,766,787,1089,1517,1675,1795,1837,1835,1810,1764,1750,1720,1691,1693,1632,1601,1571,1545,1534,1481,1457,1425,1395,1371,1298,1176,1171,1021,816,801,779,768,767,780,725,682,671,676,681,691,688,690,685,686,687,689,687,686,689,695,691,691,692,692,693,692,730,697,693,691,691,691,606,609,623,615,638,819,1179,1313,1436,1489,1492,1469,1429,1421,1397,1373,1381,1326,1301,1277,1256,1251,1203,1185,1161,1136,1113,1089,1060,1024,850,738,699,632,621,618,633,588,544,536,534,537,545,546,540,543,542,544,549,543,545,546,548,549,552,553,550,552,551,589,551,550,563,563,563,530,532,533,535,550,858,1028,1133,1249,1306,1311,1291,1269,1249,1227,1252,1233,1165,1143,1123,1101,1081,1059,1039,1017,997,975,955,933,913,594,580,566,552,541,538,540,522,522,508,515,517,509,531,519,523,525,525,528,522,520,520,519,542,528,523,517,528,520,524,523,520,523,534,526,527,530,530,552,536,816,1009,1129,1245,1344,1328,1329,1305,1284,1218,1198,1228,1155,1177,1171,1094,1072,1052,1052,1047,1026,1004,948,927,919,886,842,786,632,538,535,537,538,532,536,541,553,554,616,552,604,548,559,552,547,549,547,550,559,545,543,548,551,550,547,549,549,547,558,538,748,767,768,771,801,1148,1516,1681,1788,1860,1859,1829,1767,1770,1737,1715,1694,1656,1618,1590,1568,1552,1487,1464,1448,1411,1381,1279,1238,1108,1011,895,802,791,778,775,787,749,703,695,696,702,709,709,708,710,709,710,715,712,712,713,715,716,717,716,717,719,718,756,718,719,715,715,715,515,516,507,520,520,808,986,1099,1184,1269,1276,1256,1236,1214,1194,1173,1170,1132,1112,1092,1048,1028,1030,1014,968,969,949,928,889,888,790,758,605,588,526,523,512,514,508,508,508,518,511,517,510,518,520,513,516,510,513,518,512,518,516,519,516,522,515,519,523,524,518,526,518,630,623,614,647,624,974,1122,1277,1402,1498,1502,1480,1524,1503,1413,1356,1407,1345,1322,1227,1261,1261,1226,1188,1112,1190,1132,1132,1129,1074,957,852,793,604,626,650,652,610,620,619,618,631,646,648,651,628,640,649,627,637,656,626,630,618,627,628,627,626,625,626,634,632,632,639,622,390,410,392,393,396,417,728,815,915,931,982,968,954,940,926,912,898,884,843,828,813,828,803,766,773,775,704,706,674,660,660,613,528,409,400,396,397,418,398,398,394,401,400,405,398,404,400,401,399,402,400,411,407,411,404,405,399,404,396,399,402,405,400,404,398,0,0,0,0,0,0,0,0,0,0,0,0,0,0,0,0,0,0,0,0,0,0,0,0,0,0,0,0,0,0,0,0,0,0,0,0,0,0,0,0,0,0,0,0,0,0,0,0,0,0,0,0,0,0,0,0,0,0,0,0,0,0,0,0,0,528,516,517,519,534,847,982,1110,1207,1266,1272,1251,1231,1204,1190,1216,1197,1129,1108,1089,1069,1086,1056,1030,1035,961,988,926,926,904,865,702,549,536,525,522,579,569,528,538,534,544,536,540,539,553,536,532,539,537,538,534,533,540,537,537,537,541,532,535,531,539,536,542,531,656,658,663,662,684,1090,1280,1433,1554,1605,1606,1580,1554,1529,1504,1525,1500,1427,1402,1375,1342,1324,1297,1276,1251,1225,1201,1174,1149,1123,810,791,772,690,669,666,668,642,642,628,635,637,629,651,640,644,646,648,651,645,644,644,643,665,652,647,641,653,644,648,647,645,647,659,651,382,384,384,385,393,555,718,800,881,944,956,940,925,909,893,879,863,848,832,816,802,785,771,755,741,724,709,694,678,662,618,573,560,506,396,392,393,394,370,367,366,370,372,374,370,376,371,369,372,370,368,372,375,367,373,374,372,374,368,371,376,378,371,377,371,982,1016,1004,1029,1118,1601,1979,2167,2283,2355,2344,2308,2225,2200,2230,2202,2161,2108,2073,2031,2017,1978,1906,1876,1863,1788,1763,1597,1431,1191,1188,1062,1068,1012,1002,1010,1044,1044,1003,997,1008,1000,1010,1012,1014,1007,1006,1007,1012,1009,1009,1010,1012,1013,1014,1013,1014,1016,1015,1035,1015,1016,1012,1012,1012,764,761,755,779,800,1242,1422,1612,1789,1831,1830,1801,1813,1779,1732,1659,1677,1620,1608,1509,1542,1513,1491,1437,1369,1423,1347,1365,1157,1018,935,923,812,745,776,778,775,753,756,759,767,778,799,793,802,796,783,796,794,782,813,799,812,783,774,776,785,779,769,781,785,788,777,778,761,1257,1277,1278,1322,1611,2270,2722,2889,2977,3029,3012,2956,2884,2858,2841,2760,2744,2690,2630,2560,2545,2480,2397,2284,2098,2019,1850,1617,1415,1384,1412,1348,1315,1275,1266,1261,1255,1236,1191,1184,1193,1196,1204,1202,1201,1199,1198,1200,1203,1202,1202,1204,1204,1204,1208,1205,1209,1210,1208,1245,1206,1210,1205,1205,1205,378,380,381,383,385,538,698,776,855,918,931,916,902,888,873,859,846,830,816,801,787,772,758,742,728,714,699,685,670,656,640,560,547,534,486,384,386,387,357,360,354,361,359,371,357,364,370,375,358,362,356,359,363,351,359,361,358,362,355,359,363,363,358,362,357,383,384,385,387,398,629,710,791,872,929,962,927,911,897,902,867,852,838,824,808,794,796,765,749,735,720,706,690,676,676,647,632,617,603,392,388,390,385,378,386,381,394,388,394,384,388,382,383,387,384,390,468,465,394,390,394,393,395,469,394,392,390,381,389,386,612,592,592,595,611,954,1194,1341,1402,1456,1460,1474,1473,1448,1365,1400,1344,1294,1347,1247,1258,1199,1177,1153,1130,1105,1082,1089,1036,967,901,772,717,632,621,611,600,621,598,591,595,610,605,604,600,609,602,600,604,601,607,620,626,626,619,608,603,615,608,623,604,628,609,618,618,639,616,642,641,637,883,1244,1402,1501,1541,1544,1533,1507,1483,1416,1432,1394,1343,1382,1319,1305,1269,1256,1219,1202,1147,1145,1107,1076,908,904,774,755,656,657,644,637,636,608,612,609,615,627,619,619,619,611,618,611,613,617,623,623,648,643,637,623,623,621,647,617,621,646,628,628,468,460,464,479,489,603,836,963,1074,1155,1119,1149,1088,1061,1093,1086,1055,1040,1010,1000,934,946,945,910,862,850,833,700,715,646,502,536,500,488,499,483,489,475,430,409,411,412,425,425,418,416,416,420,435,431,431,434,431,429,431,425,424,433,429,430,420,421,419,424,420,248,250,251,252,253,334,434,501,552,604,624,616,605,596,585,575,566,555,544,536,525,514,505,495,484,475,463,455,447,428,386,377,347,338,263,253,254,256,215,214,215,221,227,225,217,223,220,233,230,220,225,218,219,223,232,220,222,220,217,223,219,226,225,224,224,374,375,376,385,389,515,682,760,839,917,942,928,911,898,880,867,850,836,818,807,780,767,752,737,722,707,692,677,663,632,567,523,510,435,387,389,390,390,347,348,347,350,354,357,352,359,353,357,352,353,352,356,355,358,351,354,353,353,352,354,353,356,349,354,347,229,230,231,240,235,360,412,458,505,552,582,573,563,555,545,536,527,517,510,496,480,472,462,454,444,436,427,418,410,400,391,382,373,333,315,240,241,242,210,210,212,208,210,211,210,209,211,213,209,213,208,215,212,211,209,215,214,211,211,213,212,210,206,228,228,241,241,242,242,245,275,425,475,540,566,595,586,577,567,557,548,538,530,519,509,501,490,481,471,462,452,441,435,427,304,297,291,270,250,256,252,253,254,174,171,174,179,175,176,176,177,176,178,174,185,186,185,177,186,180,175,175,175,175,175,175,175,175,175,175,847,852,856,863,902,1298,1688,1926,2028,2074,2066,2029,2006,1974,1939,1854,1840,1840,1826,1742,1750,1672,1670,1648,1602,1556,1268,1407,1255,1092,1084,933,963,896,874,860,839,868,827,827,827,827,827,827,828,828,827,827,827,827,827,827,827,828,828,827,827,827,827,827,827,827,827,827,827,332,332,337,335,336,443,600,668,760,818,828,814,801,788,775,808,748,735,722,709,696,682,669,656,684,630,616,603,590,577,564,550,450,439,461,336,338,420,322,324,324,326,327,326,328,332,324,332,330,332,324,326,328,330,327,330,329,332,327,325,327,328,325,329,326,92,92,92,92,140,142,162,181,200,219,234,229,225,222,218,214,211,207,204,200,195,192,188,184,181,177,174,170,165,162,158,154,151,147,144,140,140,141,33,33,33,33,33,33,34,34,33,33,33,33,33,33,33,34,34,33,33,33,33,33,33,33,33,33,33,781,784,809,798,912,1239,1515,1800,1914,1966,1976,1876,1920,1819,1796,1799,1768,1694,1744,1701,1602,1645,1549,1602,1532,1499,1431,1340,1209,1018,995,1000,911,826,796,849,795,797,809,809,809,809,809,809,810,810,809,809,809,809,809,809,809,810,810,809,809,809,809,809,809,809,809,809,809,198,198,199,200,272,313,354,394,434,475,492,483,476,468,460,453,445,438,429,422,414,406,399,391,384,375,364,361,352,345,337,330,321,314,307,273,276,303,176,176,176,176,176,176,177,177,176,176,176,176,176,176,176,177,177,176,176,176,176,176,176,176,176,176,176,584,604,604,606,610,743,1083,1278,1378,1437,1440,1404,1392,1370,1346,1325,1301,1311,1255,1234,1210,1179,1165,1177,1120,1096,1070,1052,1008,800,777,716,697,682,618,611,594,613,574,574,574,574,574,574,575,575,574,574,574,574,574,574,574,575,575,574,574,574,574,574,574,574,574,574,574,0,0,0,0,0,0,0,0,0,0,0,0,0,0,0,0,0,0,0,0,0,0,0,0,0,0,0,0,0,0,0,0,0,0,0,0,0,0,0,0,0,0,0,0,0,0,0,0,0,0,0,0,0,0,0,0,0,0,0,0,0,0,0,0,0,212,212,212,213,214,211,357,404,445,507,522,514,506,498,470,482,474,465,457,450,448,433,424,417,409,400,392,385,376,368,360,352,297,291,244,215,215,216,188,187,188,190,190,191,191,193,190,191,191,193,195,205,197,197,190,190,190,190,190,190,190,190,190,190,190,176,176,177,178,250,270,315,352,388,424,444,436,429,422,415,408,400,393,386,380,373,366,358,351,344,337,330,322,316,309,283,276,270,264,257,251,254,254,140,140,140,140,140,140,141,141,140,140,140,140,140,140,140,141,141,140,140,140,140,140,140,140,140,140,140,555,574,575,577,572,680,1007,1096,1186,1250,1257,1239,1227,1210,1197,1180,1160,1144,1160,1095,1126,1107,1089,1071,1088,1035,1021,902,885,884,846,696,666,633,591,580,581,592,549,539,546,553,546,558,545,559,546,559,553,545,551,548,559,559,559,553,556,549,556,551,556,559,545,556,548,922,925,950,958,1006,1486,1836,2143,2259,2266,2176,2194,2231,2112,2099,2095,2060,1981,1989,1945,1874,1856,1828,1808,1767,1728,1694,1502,1361,1145,1047,1020,985,988,938,978,950,941,946,946,946,946,946,946,947,947,946,946,946,946,946,946,946,947,947,946,946,946,946,946,946,946,946,946,946,813,815,823,823,839,1278,1668,1850,2010,2044,2047,2000,1970,1942,1911,1875,1844,1810,1784,1742,1726,1693,1650,1627,1602,1552,1528,1462,1369,1209,954,931,867,844,828,829,835,821,777,762,762,762,762,762,762,762,762,762,762,762,762,762,762,762,762,762,762,762,762,762,762,762,762,762,762,277,278,279,280,280,359,475,525,574,622,637,627,618,608,598,628,580,571,561,552,542,532,524,514,505,495,512,501,490,481,470,459,448,438,273,281,282,283,251,251,251,251,251,251,252,252,251,251,251,251,251,251,251,252,252,251,251,251,251,251,251,251,251,251,251,430,431,440,441,448,528,848,945,1058,1096,1055,1038,1022,1005,989,972,956,939,938,906,890,873,856,840,824,807,790,773,704,582,570,558,545,504,440,436,437,433,409,409,409,409,409,409,410,410,409,409,409,409,409,409,409,410,410,409,409,409,409,409,409,409,409,409,409,506,495,505,514,518,668,910,1044,1166,1244,1207,1241,1171,1144,1173,1166,1133,1117,1086,1061,1006,1016,1008,977,932,916,897,884,870,846,644,651,629,560,521,525,519,510,461,455,454,460,469,468,463,461,464,466,465,469,464,464,464,468,465,468,466,465,464,472,469,467,467,472,468,468,460,464,479,489,603,836,963,1074,1155,1119,1149,1088,1061,1093,1086,1055,1040,1010,1000,934,946,945,910,862,850,833,700,715,646,502,536,500,488,499,483,489,475,430,409,411,412,425,425,418,416,416,420,435,431,431,434,431,429,431,425,424,433,429,430,420,421,419,424,420,625,617,622,632,638,822,1200,1284,1460,1497,1497,1452,1443,1458,1455,1412,1386,1344,1338,1283,1285,1270,1247,1200,1159,1145,1040,985,903,862,772,798,670,676,646,640,639,624,555,542,543,547,559,558,555,557,552,557,563,563,562,558,559,564,559,559,562,560,560,562,558,559,559,558,558,405,407,409,410,412,534,735,822,910,995,1010,993,977,961,944,929,913,895,880,864,846,831,817,800,784,776,751,736,702,657,589,575,463,427,416,412,414,411,347,347,347,356,364,361,354,364,356,370,370,362,365,355,356,366,369,358,362,358,355,363,357,358,358,357,357,531,533,534,535,548,700,996,1119,1233,1297,1314,1292,1279,1255,1236,1207,1194,1171,1140,1128,1104,1084,1062,1041,1025,1000,983,962,941,848,796,662,647,564,550,543,554,533,472,473,471,475,476,475,476,480,476,476,480,480,479,475,476,481,476,476,479,477,477,479,477,480,478,478,478,386,387,389,389,394,480,706,785,868,937,961,946,937,921,905,884,875,860,833,828,809,794,779,763,747,732,718,703,688,672,513,501,479,412,403,400,400,405,335,336,334,338,339,338,339,343,339,339,343,343,342,338,339,344,339,339,342,340,340,342,340,343,341,341,341,120,120,120,120,121,124,208,236,261,286,302,297,292,288,283,278,273,268,264,259,254,249,244,240,235,230,225,220,216,207,205,200,195,190,124,121,121,122,120,108,108,108,156,115,114,110,110,112,155,121,121,121,152,120,158,117,117,152,160,123,113,114,186,117,112,967,967,972,979,1090,1518,2027,2196,2315,2342,2326,2287,2182,2219,2127,2115,2097,2088,2040,1952,1947,1924,1882,1860,1814,1556,1465,1543,1355,1142,1114,1012,993,998,978,976,977,968,934,935,933,937,938,937,938,942,938,938,942,942,941,937,938,943,938,938,941,939,939,941,939,942,940,940,940,476,477,479,480,482,700,892,1001,1105,1206,1182,1162,1144,1151,1105,1085,1067,1048,1028,1011,1026,974,957,938,919,919,882,891,859,778,759,680,655,515,506,500,497,499,454,457,456,461,464,462,465,472,460,470,470,476,464,463,465,473,464,468,469,473,465,465,465,466,466,465,465,183,184,184,197,198,284,331,360,398,436,463,455,449,441,434,427,419,412,403,398,389,382,375,368,360,362,354,338,339,332,324,307,300,293,286,198,257,258,140,141,139,143,144,143,144,148,144,144,148,148,147,143,144,149,144,144,147,145,145,147,145,148,146,146,146,820,819,837,829,884,1227,1649,1822,1951,2018,1966,1968,1935,1903,1899,1836,1807,1800,1764,1683,1652,1647,1588,1584,1547,1495,1488,1455,1172,1146,1066,884,882,854,835,832,851,841,839,833,836,856,841,849,846,847,839,842,845,846,843,840,842,843,847,850,848,847,840,838,843,856,854,862,844,312,313,314,316,349,375,574,630,706,764,775,763,712,739,726,714,702,690,678,632,652,627,628,616,603,591,579,567,555,542,530,481,320,329,320,317,318,319,283,284,282,286,287,286,287,291,287,287,291,291,290,286,287,292,287,287,290,288,288,290,288,291,289,289,289,704,719,720,722,757,1090,1375,1523,1654,1700,1701,1674,1611,1625,1593,1567,1539,1546,1504,1426,1432,1405,1378,1348,1324,1298,1270,1258,1138,982,928,869,724,723,712,714,711,713,681,682,680,684,685,684,685,689,685,685,689,689,688,684,685,690,685,685,688,686,686,688,686,689,687,687,687,157,157,158,158,159,247,279,313,345,378,394,388,382,376,369,363,357,351,344,338,332,326,320,313,307,301,295,288,282,276,270,262,256,250,244,191,191,191,132,133,132,135,137,136,137,141,136,137,140,142,140,137,137,143,137,138,140,138,138,140,140,141,141,140,140,0,0,0,0,0,0,0,0,0,0,0,0,0,0,0,0,0,0,0,0,0,0,0,0,0,0,0,0,0,0,0,0,0,0,0,0,0,0,0,0,0,0,0,0,0,0,0,0,0,0,0,0,0,0,0,0,0,0,0,0,0,0,0,0,0,315,316,317,330,337,448,566,644,710,767,790,777,767,753,741,728,715,703,688,678,663,652,639,627,614,610,602,579,575,564,475,464,453,441,341,338,371,346,247,248,246,250,251,250,251,255,251,251,255,255,254,250,251,256,251,251,254,252,252,254,252,255,253,253,253,594,602,604,605,613,704,1085,1185,1267,1350,1318,1306,1293,1317,1253,1235,1235,1203,1220,1202,1221,1149,1145,1125,1140,1119,1036,987,969,965,909,722,688,642,632,622,629,607,584,576,577,587,591,604,589,602,586,605,594,584,587,588,594,598,595,588,592,583,595,594,585,594,585,597,588,865,876,867,898,946,1355,1755,1955,2013,2126,2102,2064,2019,1990,1948,1927,1936,1895,1875,1809,1760,1747,1692,1659,1668,1627,1599,1502,1329,1180,988,951,938,906,908,900,914,907,900,896,891,892,908,900,907,917,909,911,912,917,917,915,922,922,922,924,918,921,923,919,917,926,909,919,911,778,780,783,794,868,1410,1708,1907,2017,2050,2034,1999,1961,1930,1893,1994,1819,1782,1743,1835,1674,1638,1598,1558,1529,1493,1458,1414,1385,1236,1081,973,843,804,825,797,796,785,785,779,795,792,786,798,789,795,799,804,840,810,803,811,808,841,807,809,802,809,809,808,849,811,806,835,823,382,382,383,407,407,445,692,756,831,946,924,960,896,883,869,854,839,858,811,799,805,790,756,742,729,724,710,757,749,668,681,629,453,429,420,409,404,401,358,359,357,361,362,361,362,366,362,362,366,366,365,361,362,367,362,362,365,363,363,365,363,366,364,364,364,348,350,351,352,353,397,643,716,790,849,862,878,835,822,808,794,781,768,753,740,727,712,724,686,673,658,645,632,618,521,429,420,410,367,358,354,355,356,350,349,352,356,357,356,352,359,353,352,353,357,357,357,359,360,361,360,358,364,359,356,358,354,358,364,354,663,652,663,667,676,925,1282,1372,1551,1585,1582,1535,1526,1548,1529,1490,1470,1419,1388,1355,1355,1340,1308,1267,1225,1209,1184,1162,1121,1004,817,797,721,695,680,673,675,655,586,587,585,589,590,589,590,594,590,590,594,594,593,589,590,595,590,590,593,591,591,593,591,594,592,592,592,625,617,622,632,638,822,1200,1284,1460,1497,1497,1452,1443,1458,1455,1412,1386,1344,1338,1283,1285,1270,1247,1200,1159,1145,1040,985,903,862,772,798,670,676,646,640,639,624,555,542,543,547,559,558,555,557,552,557,563,563,562,558,559,564,559,559,562,560,560,562,558,559,559,558,558,419,403,421,386,428,522,762,805,932,1029,1005,1028,973,956,928,924,895,893,911,861,879,829,820,804,765,748,757,744,715,523,561,525,549,422,436,408,415,424,381,371,374,375,385,385,382,376,376,380,392,392,392,394,394,393,396,384,387,397,399,393,380,384,397,391,378,328,331,331,332,333,383,522,659,729,806,822,810,795,771,768,742,734,734,720,694,694,667,668,654,640,627,613,601,563,401,446,399,374,374,349,347,341,341,265,267,265,266,283,277,283,281,271,282,275,274,275,268,270,277,277,269,278,269,270,276,274,282,275,275,272,398,398,401,402,410,472,673,802,886,979,989,973,957,941,924,909,893,882,865,849,833,819,803,784,770,754,737,721,708,632,544,532,513,475,417,414,415,408,364,368,364,367,375,378,382,380,372,376,376,373,372,370,370,376,372,370,376,371,369,372,372,376,373,374,368,254,254,255,262,262,324,403,499,552,613,630,620,610,600,590,580,570,563,553,542,534,524,514,501,493,484,473,462,454,398,389,381,340,332,323,266,318,260,227,230,229,226,234,232,243,238,230,235,233,233,230,229,230,234,234,231,236,229,230,234,231,237,230,236,235,240,240,240,241,242,379,429,487,538,588,602,592,582,572,562,553,543,534,524,514,505,495,486,476,466,457,447,438,428,418,409,399,390,380,247,243,244,244,216,220,218,220,223,227,220,242,219,222,220,218,220,240,225,224,229,222,221,222,310,239,220,223,219,222,221,746,760,748,765,758,1231,1521,1680,1807,1861,1842,1814,1762,1753,1728,1693,1641,1615,1605,1566,1558,1507,1476,1459,1419,1388,1196,1058,1201,1053,987,935,806,788,760,758,778,745,734,736,746,765,743,750,760,744,741,753,758,756,753,761,749,757,757,756,759,778,750,753,758,761,761,758,751,404,406,408,408,413,468,703,855,920,995,1021,991,974,958,951,926,910,894,891,876,846,836,813,798,781,765,750,733,717,652,637,596,478,424,414,411,412,418,388,389,388,387,395,396,397,398,397,403,399,399,399,396,397,401,401,396,401,396,397,401,398,404,399,403,397,161,161,162,239,239,254,288,321,356,390,406,400,393,387,380,374,368,361,355,348,342,334,328,321,315,309,302,296,289,283,276,270,264,256,250,246,246,247,148,148,152,157,148,152,149,152,152,149,152,149,150,149,149,152,151,150,149,150,149,149,150,150,149,153,151,829,806,812,849,928,1223,1519,1794,1921,1955,1983,1912,1840,1809,1777,1790,1750,1758,1658,1695,1593,1636,1532,1552,1476,1492,1389,1294,1271,1018,982,1008,905,823,804,856,828,863,821,816,817,821,821,823,819,822,819,823,822,822,818,822,819,816,819,823,823,823,819,817,822,822,819,819,818,200,225,226,200,288,318,358,438,441,454,471,464,456,448,441,434,427,420,412,404,397,390,382,397,368,361,352,345,338,331,324,316,309,200,196,288,289,291,188,188,190,193,192,191,193,196,190,191,192,192,192,193,196,194,191,192,194,196,197,192,194,199,192,193,193,496,497,499,518,503,748,938,1038,1158,1212,1215,1234,1162,1158,1135,1120,1101,1068,1050,1030,1024,993,993,968,954,918,916,897,861,800,764,711,663,610,507,504,504,500,482,488,488,506,501,495,496,503,496,502,508,498,513,493,495,508,499,499,507,499,496,494,507,506,501,506,504,185,186,250,248,184,294,333,372,411,385,466,459,451,444,436,429,422,414,450,441,385,385,376,369,362,355,348,339,332,325,318,310,302,290,288,283,284,186,175,177,174,182,174,178,175,179,177,179,178,177,180,177,180,180,179,180,181,180,181,178,180,181,180,182,182,331,332,332,342,344,492,633,679,748,740,816,802,792,777,778,751,739,720,712,700,687,675,680,649,637,624,610,616,585,572,556,547,530,492,336,336,372,373,336,335,336,335,336,333,336,335,338,335,335,336,340,340,340,341,343,339,340,340,341,348,344,347,340,340,344,0,0,0,0,0,0,0,0,0,0,0,0,0,0,0,0,0,0,0,0,0,0,0,0,0,0,0,0,0,0,0,0,0,0,0,0,0,0,0,0,0,0,0,0,0,0,0,0,0,0,0,0,0,0,0,0,0,0,0,0,0,0,0,0,0,652,667,669,660,677,948,1169,1335,1422,1479,1470,1448,1428,1466,1386,1365,1344,1359,1336,1315,1261,1270,1267,1234,1204,1183,1161,1138,1117,892,783,732,717,669,661,675,667,680,659,655,657,662,660,665,662,666,662,667,664,661,659,663,661,657,665,663,665,666,661,660,664,666,663,662,662,941,947,953,977,1009,1481,1840,2137,2277,2255,2262,2230,2152,2115,2080,2086,2042,2023,1894,1949,1865,1868,1826,1809,1756,1713,1678,1502,1347,1168,1032,1022,999,972,980,955,982,941,958,957,958,962,962,964,960,963,960,964,963,963,959,963,960,957,960,964,964,964,960,958,963,963,960,960,959,920,928,922,926,965,1280,1748,2074,2158,2203,2196,2145,2110,2102,2065,2007,1974,1948,1905,1868,1834,1799,1765,1729,1695,1662,1630,1596,1361,1144,1025,1012,949,945,922,933,919,895,869,858,864,873,868,873,870,872,871,876,875,870,880,883,878,871,871,874,875,876,870,867,874,870,873,869,869,166,167,168,168,253,261,292,325,357,388,405,399,393,387,381,375,368,362,356,350,344,338,332,325,319,313,307,301,295,289,283,276,270,264,258,253,254,254,152,153,153,154,154,154,155,155,156,156,156,156,156,157,157,158,158,160,160,160,160,160,161,161,162,162,162,432,434,436,436,449,649,813,923,999,1055,1062,1046,1029,1012,995,978,962,946,929,912,896,879,862,845,865,813,809,792,706,597,675,660,645,456,443,440,440,436,432,438,436,443,442,441,441,448,433,436,441,437,441,443,441,440,436,447,437,437,445,439,433,440,442,442,437,437,438,444,421,451,492,805,883,1004,1088,1092,1076,1057,1039,1008,1005,973,973,956,934,920,900,884,865,831,816,818,799,779,741,492,484,472,457,456,444,457,435,418,418,417,423,431,428,427,424,421,426,427,430,426,427,424,428,426,427,429,426,426,429,427,430,431,432,426,419,403,421,386,428,522,762,805,932,1029,1005,1028,973,956,928,924,895,893,911,861,879,829,820,804,765,748,757,744,715,523,561,525,549,422,436,408,415,424,381,371,374,375,385,385,382,376,376,380,392,392,392,394,394,393,396,384,387,397,399,393,380,384,397,391,378,730,732,735,737,781,1112,1477,1633,1735,1769,1765,1747,1750,1733,1658,1631,1644,1578,1548,1519,1492,1465,1438,1368,1342,1358,1254,1265,1226,1108,1008,821,814,757,742,760,739,677,669,678,690,678,690,678,681,684,684,685,678,677,678,678,685,690,690,690,690,690,683,680,687,680,686,686,681,444,445,447,448,488,669,841,937,1029,1081,1087,1112,1095,1089,1018,1002,1027,969,950,933,916,900,883,865,848,872,814,798,806,763,678,659,647,464,453,468,452,444,438,436,441,444,454,442,444,448,449,448,443,442,443,442,448,456,459,459,459,455,448,445,450,444,448,449,444,606,608,610,612,623,955,1173,1296,1404,1458,1470,1436,1452,1448,1372,1348,1337,1318,1292,1269,1243,1225,1202,1173,1150,1156,1104,1081,959,939,909,750,644,628,645,626,627,602,591,568,571,573,569,581,574,606,580,576,603,572,574,574,573,577,577,576,576,577,575,574,574,577,575,581,577,490,492,493,495,520,783,937,1042,1141,1190,1194,1218,1200,1192,1119,1101,1124,1064,1045,1027,1008,990,1012,952,933,956,896,878,885,841,762,662,661,511,500,522,499,500,499,502,491,503,500,506,501,507,499,503,502,497,502,502,504,499,507,504,503,503,500,504,499,501,499,504,494,682,682,685,685,692,920,1288,1450,1528,1593,1551,1530,1507,1482,1464,1442,1420,1398,1376,1351,1333,1308,1288,1268,1245,1225,1217,1179,1112,995,916,861,712,753,692,689,691,691,651,648,641,647,650,672,649,657,655,679,683,673,673,656,680,683,683,659,663,678,661,678,659,660,679,663,662,1321,1344,1340,1389,1696,2345,2917,3033,3069,3037,3004,3005,2967,2872,2850,2768,2709,2735,2630,2644,2584,2302,2391,2136,1843,1593,1596,1508,1538,1489,1426,1423,1388,1367,1330,1318,1313,1320,1291,1286,1294,1297,1309,1312,1307,1313,1312,1312,1312,1312,1312,1312,1312,1312,1312,1312,1312,1312,1312,1312,1312,1312,1312,1312,1312,364,364,372,367,436,534,674,750,825,879,889,918,904,902,834,820,849,793,778,765,751,738,723,710,696,723,668,655,667,627,537,526,477,465,372,437,370,371,368,366,369,370,370,368,372,373,369,369,368,372,372,375,376,375,372,372,376,376,380,389,376,389,373,375,377,646,651,654,652,678,941,1259,1396,1450,1478,1503,1448,1428,1440,1393,1395,1348,1317,1303,1276,1269,1243,1215,1202,1205,1185,1138,1126,1017,982,820,705,692,664,665,656,662,636,617,598,594,597,609,615,609,615,605,624,621,624,619,614,619,638,629,609,616,624,620,628,619,638,617,621,614,1349,1353,1383,1450,1549,2411,2961,3126,3117,3074,3034,2995,2967,2938,2925,2841,2801,2713,2738,2619,2581,2333,1973,1674,1687,1690,1688,1636,1562,1492,1471,1457,1413,1397,1369,1391,1381,1383,1368,1354,1350,1356,1373,1370,1369,1383,1364,1383,1374,1384,1378,1383,1386,1389,1389,1383,1381,1387,1387,1389,1384,1389,1373,1381,1375,739,742,743,745,756,1051,1459,1583,1667,1696,1681,1659,1635,1611,1587,1565,1540,1517,1492,1469,1450,1420,1398,1374,1349,1325,1301,1277,1117,988,984,939,772,758,753,749,751,752,736,718,723,740,742,729,743,757,735,749,746,754,753,748,757,757,757,736,741,750,751,757,745,757,746,746,745,1081,1082,1085,1093,1193,1720,2292,2407,2480,2437,2414,2431,2395,2332,2305,2233,2193,2219,2130,2147,2117,2019,1986,2002,1953,1927,1602,1244,1273,1188,1133,1161,1138,1108,1069,1066,1075,1060,1036,1024,1037,1040,1049,1057,1057,1058,1057,1057,1057,1057,1057,1057,1057,1057,1057,1057,1057,1057,1057,1057,1057,1057,1057,1057,1057,616,615,606,620,621,870,1172,1276,1361,1395,1389,1369,1350,1329,1310,1291,1274,1218,1198,1180,1202,1158,1125,1138,1118,1099,1056,1045,935,918,872,734,644,636,623,613,622,625,595,586,582,609,596,597,595,598,597,606,603,609,607,603,602,616,613,594,601,611,604,615,608,616,612,616,606,572,572,574,576,577,808,1053,1160,1245,1317,1279,1261,1244,1227,1209,1192,1176,1158,1141,1124,1106,1089,1072,1056,1038,1021,1004,986,968,917,819,676,600,646,581,578,580,581,543,554,533,554,538,558,539,547,543,551,567,557,558,541,565,565,566,548,546,565,549,577,545,573,564,546,545,711,713,714,717,725,884,1395,1517,1605,1629,1615,1597,1574,1550,1528,1507,1482,1458,1436,1414,1396,1367,1345,1322,1298,1275,1250,1228,1101,949,888,822,778,729,721,720,721,697,666,648,658,665,674,687,677,685,678,687,687,687,687,685,687,687,687,678,684,687,687,687,687,684,683,687,687,0,0,0,0,0,0,0,0,0,0,0,0,0,0,0,0,0,0,0,0,0,0,0,0,0,0,0,0,0,0,0,0,0,0,0,0,0,0,0,0,0,0,0,0,0,0,0,0,0,0,0,0,0,0,0,0,0,0,0,0,0,0,0,0,0,1410,1439,1472,1506,1870,2576,3066,3262,3253,3336,3216,3234,3114,3117,3050,3015,2985,2918,2884,2816,2472,2112,1752,2048,1815,1763,1754,1708,1620,1560,1563,1550,1492,1482,1471,1453,1462,1474,1439,1427,1421,1438,1438,1463,1453,1453,1454,1463,1479,1474,1475,1463,1479,1479,1479,1466,1467,1479,1468,1479,1471,1458,1479,1459,1458,527,528,535,528,552,829,1024,1119,1146,1195,1206,1189,1172,1155,1164,1122,1105,1088,1071,1054,1044,1020,1003,994,969,952,936,919,902,885,820,793,773,544,547,540,536,525,514,516,524,527,530,527,525,524,522,522,522,522,522,522,522,522,522,522,522,522,522,522,522,522,522,522,522,812,810,786,799,848,985,1544,1677,1810,1777,1772,1805,1714,1724,1665,1640,1671,1642,1620,1550,1577,1500,1519,1492,1479,1396,1413,1388,1109,865,881,914,853,828,795,817,800,796,773,755,766,774,783,794,787,794,782,794,794,794,794,794,794,794,794,788,794,794,794,794,794,794,794,794,794,920,919,916,927,951,1355,1829,2006,2082,2136,2091,2055,2025,1994,1964,1938,1904,1885,1844,1813,1783,1753,1723,1694,1663,1651,1513,1485,1306,1100,987,1046,961,968,925,924,925,927,892,886,883,888,894,910,887,897,895,904,924,914,915,900,925,926,926,906,904,924,905,929,899,905,928,902,901,765,767,770,772,819,1184,1563,1723,1823,1855,1849,1829,1830,1812,1736,1708,1719,1654,1622,1593,1562,1533,1504,1435,1408,1422,1357,1331,1272,1182,1022,913,824,792,778,794,779,723,716,724,737,726,737,724,729,729,732,731,724,723,726,726,734,737,737,737,737,737,733,729,736,726,734,734,729,730,732,735,737,781,1112,1477,1633,1735,1769,1765,1747,1750,1733,1658,1631,1644,1578,1548,1519,1492,1465,1438,1368,1342,1358,1254,1265,1226,1108,1008,821,814,757,742,760,739,677,669,678,690,678,690,678,681,684,684,685,678,677,678,678,685,690,690,690,690,690,683,680,687,680,686,686,681,1075,1101,1115,1118,1132,2032,2291,2484,2600,2611,2623,2559,2502,2461,2454,2398,2360,2325,2288,2239,2220,2159,2116,2095,2054,1951,1821,1621,1503,1375,1203,1160,1160,1130,1134,1099,1091,1092,1094,1096,1094,1097,1099,1107,1103,1106,1104,1108,1102,1098,1107,1107,1104,1092,1106,1105,1107,1109,1100,1105,1105,1103,1105,1105,1105,1126,1116,1135,1130,1195,2100,2410,2553,2627,2673,2653,2590,2591,2552,2503,2481,2434,2383,2340,2285,2268,2223,2189,2120,2080,1892,1796,1607,1288,1291,1248,1211,1191,1169,1149,1115,1065,1063,1053,1054,1070,1065,1066,1068,1066,1076,1071,1072,1077,1062,1069,1070,1066,1068,1074,1069,1071,1076,1069,1077,1067,1071,1067,1067,1067,1197,1187,1208,1221,1430,2304,2576,2739,2808,2854,2840,2767,2750,2703,2666,2646,2577,2536,2484,2442,2414,2350,2315,2258,2229,2072,1999,1740,1380,1380,1351,1279,1262,1241,1228,1218,1164,1164,1152,1156,1164,1166,1168,1172,1167,1170,1172,1171,1176,1164,1172,1174,1165,1169,1171,1171,1172,1173,1167,1174,1165,1170,1166,1166,1166,1051,1045,1060,1068,1160,1939,2221,2391,2466,2520,2511,2443,2432,2391,2359,2347,2282,2247,2200,2160,2138,2080,2050,1999,1976,1917,1836,1632,1272,1275,1230,1132,1120,1094,1079,1074,1027,1026,1017,1014,1020,1020,1026,1022,1025,1026,1029,1031,1032,1023,1029,1027,1023,1030,1032,1029,1031,1032,1026,1028,1022,1036,1032,1032,1032,805,808,811,812,823,1388,1619,1795,1881,1943,1955,1904,1893,1871,1831,1807,1774,1751,1706,1677,1664,1608,1601,1550,1536,1487,1473,1441,1410,1261,1107,884,863,845,822,819,800,803,781,776,784,785,789,791,792,790,790,792,798,787,791,790,793,795,790,790,792,794,790,790,789,794,790,790,790,573,553,568,597,599,950,1103,1202,1360,1397,1362,1388,1330,1356,1287,1314,1231,1236,1234,1166,1161,1140,1100,1131,1104,1075,1036,992,1017,988,835,782,617,600,586,560,562,577,572,574,575,581,581,577,585,582,578,580,577,581,584,589,589,587,602,582,586,588,592,587,583,612,583,582,581,1200,1194,1210,1222,1323,2300,2599,2745,2819,2862,2849,2785,2760,2730,2671,2652,2582,2546,2500,2452,2430,2364,2325,2263,2163,2106,1953,1677,1388,1372,1354,1286,1264,1252,1225,1220,1188,1185,1176,1176,1183,1184,1189,1190,1192,1193,1194,1196,1201,1190,1195,1194,1190,1195,1194,1193,1196,1198,1193,1195,1191,1194,1190,1190,1190,822,834,828,830,842,1429,1678,1839,1923,1986,2008,1963,1942,1910,1870,1892,1811,1787,1742,1712,1699,1647,1635,1582,1582,1518,1504,1472,1388,1260,924,903,880,871,842,836,839,840,828,823,829,829,834,836,837,835,834,837,843,832,836,835,833,840,835,834,837,839,835,836,834,839,835,835,835,285,285,339,340,341,490,506,621,626,750,708,769,685,680,733,658,647,628,618,606,657,591,579,568,556,545,533,523,557,499,489,470,305,493,290,342,288,288,277,283,281,283,288,286,287,286,281,295,283,282,285,286,300,299,297,287,290,284,290,289,288,293,285,285,285,691,694,696,697,707,1157,1350,1502,1592,1661,1724,1633,1624,1610,1571,1555,1527,1510,1464,1443,1432,1385,1378,1332,1322,1278,1269,1241,1215,1171,963,939,867,729,718,708,704,711,681,682,683,682,687,689,690,688,688,689,696,685,689,688,686,692,688,687,690,692,688,689,686,692,686,686,686,608,610,612,614,606,955,1194,1220,1341,1416,1437,1399,1391,1416,1347,1369,1345,1379,1256,1234,1251,1188,1165,1219,1158,1135,1111,1075,1027,1019,884,700,647,632,620,617,639,641,603,607,615,624,627,630,616,633,612,656,625,630,623,623,656,660,632,624,651,627,631,645,631,647,619,619,619,875,887,882,884,908,1522,1787,1968,2031,2090,2110,2082,2052,2008,1967,1956,1920,1878,1850,1801,1786,1748,1735,1665,1663,1597,1595,1561,1440,1300,1076,948,934,916,895,890,892,893,870,871,872,871,876,878,879,877,877,879,885,874,878,877,875,882,877,876,879,881,877,878,876,881,877,877,877,932,935,939,944,975,1654,1922,2095,2177,2230,2242,2185,2171,2142,2099,2070,2031,2008,1958,1925,1909,1852,1840,1780,1763,1708,1688,1653,1410,1061,1240,1019,995,973,951,947,920,923,901,896,904,905,909,912,913,911,913,915,921,911,915,914,916,919,914,914,917,918,914,914,914,918,915,915,915,829,833,836,868,902,1444,1677,1851,1972,1996,1995,1959,1944,1923,1881,1858,1823,1798,1754,1723,1707,1655,1644,1609,1582,1528,1504,1464,1166,990,931,904,888,869,849,843,832,833,815,816,819,823,827,832,829,826,826,828,834,823,827,826,824,831,826,825,828,830,826,827,825,830,826,826,826,1211,1214,1286,1352,1574,2527,2821,3028,3050,3090,3092,3037,3030,2983,2945,2886,2845,2806,2748,2695,2636,2574,2527,2417,2196,2099,2002,1782,1422,1380,1399,1296,1301,1280,1234,1206,1214,1223,1259,1256,1262,1264,1267,1257,1273,1283,1266,1271,1274,1278,1375,1370,1295,1278,1298,1318,1313,1364,1358,1283,1316,1356,1367,1367,1307,0,0,0,0,0,0,0,0,0,0,0,0,0,0,0,0,0,0,0,0,0,0,0,0,0,0,0,0,0,0,0,0,0,0,0,0,0,0,0,0,0,0,0,0,0,0,0,0,0,0,0,0,0,0,0,0,0,0,0,0,0,0,0,0,0,1358,1364,1433,1584,2379,3193,3654,3730,3822,3773,3716,3640,3565,3489,3418,3343,3377,3190,3109,2834,2745,2692,2454,2304,2183,1856,1806,1631,1581,1536,1487,1440,1406,1402,1381,1381,1390,1400,1487,1485,1498,1516,1496,1508,1505,1511,1509,1551,1517,1501,1528,1552,1560,1525,1584,1518,1498,1525,1505,1503,1515,1604,1512,1512,1512,822,826,828,829,841,1421,1648,1821,1942,1967,1968,1932,1917,1898,1857,1835,1800,1776,1732,1703,1688,1636,1626,1592,1566,1512,1488,1450,1411,1266,923,896,880,862,842,835,819,821,803,806,806,809,814,817,814,811,811,813,819,808,812,811,809,816,811,810,813,815,811,812,810,815,811,811,811,599,603,603,613,616,947,1137,1300,1397,1463,1455,1431,1423,1394,1390,1354,1317,1301,1282,1279,1233,1229,1187,1156,1148,1123,1112,1077,1048,1026,880,967,784,685,621,608,610,615,595,598,599,598,603,605,606,604,604,606,610,601,605,604,602,609,604,603,606,608,604,605,603,608,604,604,604,1051,1066,1089,1065,1104,1967,2235,2428,2510,2551,2568,2502,2488,2410,2368,2323,2276,2258,2241,2176,2140,2110,2073,2058,1992,1969,1881,1680,1412,1236,1165,1136,1112,1120,1101,1080,1072,1073,1083,1079,1086,1085,1090,1092,1093,1091,1091,1093,1099,1088,1092,1091,1089,1096,1091,1090,1093,1095,1091,1092,1090,1095,1091,1091,1091,1075,1101,1115,1118,1132,2032,2291,2484,2600,2611,2623,2559,2502,2461,2454,2398,2360,2325,2288,2239,2220,2159,2116,2095,2054,1951,1821,1621,1503,1375,1203,1160,1160,1130,1134,1099,1091,1092,1094,1096,1094,1097,1099,1107,1103,1106,1104,1108,1102,1098,1107,1107,1104,1092,1106,1105,1107,1109,1100,1105,1105,1103,1105,1105,1105,835,838,852,847,949,1450,1707,1877,1980,2043,2038,2002,1972,1965,1930,1872,1864,1809,1775,1762,1747,1680,1647,1616,1582,1550,1515,1483,1420,1196,1122,904,882,864,864,860,836,814,835,816,818,820,827,826,842,855,831,851,840,827,832,848,850,850,848,850,855,849,847,853,854,842,832,826,820,658,660,688,666,700,1099,1369,1473,1574,1644,1617,1592,1566,1583,1514,1489,1462,1485,1411,1384,1359,1333,1306,1299,1255,1230,1203,1178,1177,1097,942,877,716,682,671,668,670,654,651,650,647,659,666,676,680,665,662,674,684,671,668,664,663,683,680,668,671,668,660,669,666,671,672,678,664,640,642,670,647,667,1101,1246,1393,1504,1575,1578,1552,1527,1528,1501,1452,1451,1401,1376,1372,1365,1300,1275,1250,1225,1201,1176,1150,1125,1100,1056,745,727,666,653,660,652,647,664,648,646,649,655,656,672,676,659,666,665,656,660,677,676,676,699,676,672,730,728,686,675,672,661,657,651,705,707,734,715,755,1192,1473,1585,1683,1751,1723,1696,1669,1684,1614,1586,1558,1580,1503,1477,1449,1422,1394,1390,1339,1311,1284,1257,1240,1114,1071,889,757,750,718,716,717,709,712,708,706,717,719,741,725,722,717,726,732,723,723,720,720,727,729,723,724,724,720,725,724,728,731,741,722,790,794,795,813,876,1425,1654,1867,2010,2079,2083,2045,2010,1972,1935,1897,1861,1824,1784,1737,1724,1673,1644,1599,1554,1528,1489,1443,1417,1179,888,864,876,818,812,811,838,840,789,792,794,794,795,795,790,794,787,801,791,787,793,793,800,823,799,794,796,791,795,795,800,797,791,793,790,1370,1367,1396,1499,2343,2933,3531,3638,3685,3729,3662,3601,3546,3505,3404,3355,3292,3175,3019,2901,2677,2556,2341,2113,2097,2031,1696,1645,1604,1565,1492,1450,1396,1379,1390,1386,1389,1424,1451,1448,1448,1484,1488,1471,1477,1501,1476,1495,1496,1486,1494,1490,1496,1501,1496,1490,1474,1480,1472,1469,1461,1487,1478,1492,1455,578,580,607,584,605,936,1185,1269,1375,1464,1425,1402,1380,1402,1334,1311,1302,1312,1243,1220,1197,1174,1152,1129,1106,1083,1060,1038,1040,992,908,861,753,600,590,587,588,578,580,576,575,585,593,609,599,598,585,603,609,597,594,587,590,604,603,594,598,590,586,594,593,597,600,608,589,845,850,868,894,975,1566,1809,2002,2137,2208,2213,2170,2134,2090,2050,2019,1976,1935,1898,1857,1827,1793,1743,1704,1663,1634,1599,1547,1512,1189,961,943,927,895,886,882,836,835,809,810,813,821,816,819,814,817,813,824,815,814,819,818,827,845,825,819,824,817,819,822,822,827,813,815,812,1466,1472,1473,1648,1895,3146,3386,3514,3662,3673,3651,3584,3513,3461,3404,3334,3265,2962,2711,2534,2490,2223,2052,1890,1888,1864,1806,1734,1691,1693,1594,1550,1533,1460,1485,1478,1484,1523,1517,1532,1527,1536,1530,1530,1526,1528,1526,1536,1527,1523,1527,1526,1539,1565,1538,1532,1531,1519,1531,1542,1541,1549,1525,1528,1525,985,988,975,1011,1136,1874,2128,2331,2443,2484,2476,2430,2393,2334,2316,2277,2237,2180,2150,2118,2039,2000,1946,1930,1885,1843,1667,1609,1493,1303,1211,1047,1044,1014,1017,1017,979,978,952,953,956,964,959,962,957,960,956,967,958,957,962,961,970,988,968,962,967,960,962,965,965,970,956,958,955,1319,1305,1348,1390,1778,2607,2918,3052,3131,3155,3107,3064,3018,2981,2866,2866,2821,2812,2718,2682,2626,2512,2195,2136,2111,1947,1587,1522,1512,1476,1461,1404,1379,1370,1338,1338,1297,1291,1296,1303,1295,1305,1314,1335,1321,1317,1311,1324,1333,1318,1320,1315,1314,1330,1336,1320,1320,1319,1314,1324,1321,1325,1327,1335,1316,810,809,825,855,932,1480,1727,1935,2078,2113,2118,2080,2043,2002,1963,1929,1889,1849,1813,1772,1745,1706,1658,1630,1582,1553,1518,1468,1442,1147,1088,891,882,878,839,828,828,827,802,802,806,812,809,813,806,810,806,817,808,807,812,812,818,839,814,812,816,810,813,815,817,815,807,809,806,682,683,685,696,736,1194,1389,1582,1731,1805,1816,1781,1752,1717,1684,1651,1619,1587,1555,1512,1489,1457,1414,1393,1350,1327,1297,1252,1231,1199,1064,749,786,707,700,699,728,739,681,684,686,687,686,688,682,686,682,693,684,682,686,685,692,735,690,686,688,682,686,688,688,690,682,685,682,948,952,981,965,1094,1724,2075,2187,2275,2339,2294,2258,2224,2222,2146,2112,2078,2082,2002,1969,1933,1894,1858,1845,1780,1667,1630,1432,1328,1130,1060,1012,1004,993,965,965,943,928,916,917,920,928,923,926,921,924,920,931,922,921,926,925,934,952,932,926,931,924,926,929,929,934,920,922,919,552,548,550,557,575,702,1023,1143,1284,1287,1338,1318,1298,1278,1257,1237,1257,1197,1226,1173,1136,1115,1027,1008,1045,1035,1016,981,967,945,837,635,660,678,557,560,578,543,527,533,536,537,536,538,532,536,532,543,534,532,536,535,542,562,540,536,538,532,536,538,538,540,532,535,532,1170,1172,1176,1285,2088,2700,3372,3541,3592,3605,3524,3446,3370,3290,3213,3126,3057,2971,2901,2815,2737,2659,2515,2341,2308,2214,2001,1816,1577,1522,1311,1260,1224,1205,1197,1202,1228,1242,1263,1258,1247,1253,1299,1329,1280,1311,1295,1310,1317,1307,1316,1303,1285,1315,1312,1298,1311,1296,1313,1331,1328,1330,1321,1325,1314,0,0,0,0,0,0,0,0,0,0,0,0,0,0,0,0,0,0,0,0,0,0,0,0,0,0,0,0,0,0,0,0,0,0,0,0,0,0,0,0,0,0,0,0,0,0,0,0,0,0,0,0,0,0,0,0,0,0,0,0,0,0,0,0,0,1044,1050,1056,1068,1129,1948,2270,2418,2505,2563,2516,2475,2437,2432,2353,2316,2278,2280,2197,2163,2122,2080,2040,2025,1956,1838,1711,1576,1479,1186,1172,1116,1127,1084,1067,1064,1042,1034,1027,1028,1031,1039,1034,1037,1032,1035,1031,1042,1033,1032,1037,1036,1045,1063,1043,1037,1042,1035,1037,1040,1040,1045,1031,1033,1030,1022,1025,1028,1049,1222,1969,2221,2425,2566,2613,2606,2562,2533,2472,2426,2382,2336,2292,2246,2198,2162,2115,2054,2020,1982,1840,1796,1555,1495,1343,1147,1100,1125,1051,1045,1054,1078,1088,1027,1035,1041,1041,1039,1037,1034,1039,1031,1046,1038,1036,1042,1042,1053,1075,1048,1043,1049,1037,1040,1040,1043,1052,1038,1035,1032,853,856,870,865,933,1528,1756,1925,2027,2090,2083,2047,2015,2008,1972,1913,1904,1849,1814,1801,1783,1716,1683,1650,1616,1582,1547,1514,1451,1254,1133,923,900,882,882,886,860,838,859,840,842,844,851,850,866,879,855,875,864,851,856,872,874,874,872,874,879,873,871,877,878,866,856,850,844,835,838,852,847,949,1450,1707,1877,1980,2043,2038,2002,1972,1965,1930,1872,1864,1809,1775,1762,1747,1680,1647,1616,1582,1550,1515,1483,1420,1196,1122,904,882,864,864,860,836,814,835,816,818,820,827,826,842,855,831,851,840,827,832,848,850,850,848,850,855,849,847,853,854,842,832,826,820,441,459,444,462,477,581,814,916,1039,1114,1112,1114,1056,1078,985,1005,987,1000,936,918,947,934,869,898,849,858,839,802,715,631,616,594,577,488,421,463,487,430,417,420,424,433,421,430,424,433,430,422,430,420,427,424,426,433,423,425,424,436,427,423,426,436,425,430,430,422,424,423,425,427,528,705,873,964,1030,1056,1033,1015,992,980,948,944,929,875,860,860,845,828,814,780,764,752,732,640,500,604,526,453,444,431,429,430,398,335,336,335,336,354,348,352,354,344,354,346,344,345,338,340,350,347,339,349,339,340,346,345,354,345,345,345,490,491,493,495,503,686,844,1022,1131,1197,1220,1194,1175,1154,1134,1101,1097,1076,1055,1033,1013,994,975,959,937,924,905,886,866,710,694,678,520,544,524,500,501,502,434,437,434,437,446,449,452,453,445,448,447,443,442,440,440,449,442,440,447,441,439,442,443,448,443,444,444,346,347,347,350,351,462,566,700,771,838,865,846,832,819,805,778,778,764,742,729,715,702,688,675,662,654,641,627,613,562,549,537,469,394,352,352,353,354,297,299,299,296,305,303,312,311,303,307,304,303,300,299,300,307,304,301,307,299,300,304,302,309,300,306,306,256,257,258,259,260,409,469,524,579,632,645,634,624,614,603,594,583,572,562,552,541,531,520,511,500,489,480,469,459,448,438,428,417,408,392,260,287,316,222,227,221,225,232,228,227,230,224,230,227,232,223,224,227,233,230,227,230,227,226,228,227,232,223,227,227,759,760,774,766,834,884,1516,1677,1716,1842,1786,1773,1761,1733,1704,1671,1623,1615,1561,1522,1543,1484,1461,1436,1401,1334,1196,886,1201,889,828,808,758,776,755,743,771,770,728,727,735,739,743,730,744,744,744,745,745,745,746,746,746,747,746,740,747,747,747,747,748,748,747,745,745,497,499,501,502,507,613,884,1037,1176,1219,1231,1220,1200,1180,1152,1132,1118,1093,1050,1030,1011,992,973,954,934,915,913,886,772,739,745,677,630,534,508,505,531,508,458,458,458,457,461,467,465,470,469,469,470,463,465,465,464,469,467,466,465,466,465,463,465,466,465,473,473,231,232,232,232,233,320,418,468,518,565,579,571,561,552,542,534,524,514,505,496,487,477,468,459,450,440,432,422,412,403,394,385,329,322,238,234,235,236,210,210,212,218,217,213,212,214,214,217,222,219,220,219,219,225,217,217,218,218,217,218,217,218,217,219,219,706,708,734,729,759,1058,1366,1589,1692,1799,1791,1753,1729,1716,1632,1603,1596,1581,1530,1564,1512,1437,1463,1381,1417,1359,1313,1295,1330,1018,828,1022,777,759,772,752,809,720,724,723,725,725,725,726,726,726,726,727,727,727,728,728,728,729,728,729,729,729,729,729,730,730,729,730,730,117,117,118,118,119,182,205,229,252,274,290,285,280,277,272,267,262,259,254,249,246,241,236,231,228,223,218,213,210,205,200,195,192,187,182,119,148,148,98,95,98,102,101,100,98,98,100,102,101,100,102,116,119,164,117,102,98,102,98,98,96,102,99,102,102,509,509,511,512,480,538,934,991,1089,1190,1183,1176,1157,1139,1120,1059,1083,1063,1005,1027,1023,951,970,915,939,879,895,865,858,800,640,626,502,509,479,476,522,518,482,485,486,493,487,488,501,490,487,499,498,495,490,495,486,493,492,499,492,489,489,490,490,488,491,493,493,278,279,284,342,278,270,453,550,567,605,701,621,612,601,591,582,571,561,601,572,561,550,540,529,518,507,498,487,500,465,478,466,273,263,260,377,403,328,245,246,244,252,245,249,245,252,250,251,249,247,250,247,250,253,249,250,252,250,251,248,251,253,250,252,252,384,384,385,386,388,481,712,793,873,940,940,926,918,885,888,874,865,843,828,819,799,782,769,754,738,723,708,694,679,664,649,633,503,472,393,389,389,391,342,347,341,345,352,348,347,351,345,351,350,355,346,348,351,357,353,351,354,351,351,352,351,356,348,351,351,93,93,93,94,94,145,163,182,201,220,235,231,226,223,219,216,212,208,205,201,198,193,189,186,182,178,175,171,168,164,160,156,152,148,145,94,142,142,70,69,70,70,71,71,70,73,73,72,71,70,70,70,70,73,70,70,71,70,70,70,71,72,70,70,70,740,742,748,740,756,1109,1334,1517,1623,1693,1690,1675,1654,1659,1605,1581,1556,1567,1507,1482,1459,1428,1423,1381,1356,1328,1318,1280,1131,1042,943,888,823,773,763,751,746,755,726,724,727,732,731,736,732,739,735,739,735,731,729,733,731,730,735,733,736,736,731,730,735,738,733,732,732,846,849,875,876,927,1326,1687,1902,2025,2110,2091,2046,2047,1979,1938,1906,1888,1868,1813,1804,1766,1709,1648,1665,1653,1564,1569,1502,1323,1168,935,933,920,912,891,876,903,864,865,864,866,866,866,867,867,867,867,868,868,868,869,869,869,870,869,870,870,870,870,870,871,871,870,871,871,1000,1003,1010,1014,1059,1425,1980,2245,2352,2408,2393,2368,2327,2314,2266,2200,2173,2145,2070,2049,2024,1957,1934,1896,1845,1820,1781,1721,1407,1242,1092,1067,1061,1036,1032,1014,990,969,936,929,937,940,937,944,938,946,944,949,944,953,947,954,945,939,944,942,948,945,939,939,941,945,943,939,939,0,0,0,0,0,0,0,0,0,0,0,0,0,0,0,0,0,0,0,0,0,0,0,0,0,0,0,0,0,0,0,0,0,0,0,0,0,0,0,0,0,0,0,0,0,0,0,0,0,0,0,0,0,0,0,0,0,0,0,0,0,0,0,0,0,431,432,434,434,436,502,845,900,1037,1078,1056,1072,1023,1006,1067,1002,957,1013,954,908,919,910,857,840,851,870,817,799,693,527,705,559,477,485,475,472,472,468,430,427,431,431,431,432,432,432,432,433,433,433,434,434,434,435,434,435,435,435,435,435,436,436,435,436,436,454,456,458,459,461,631,828,924,1021,1131,1127,1107,1089,1077,1062,1036,1017,1000,987,971,951,927,920,901,873,867,837,836,801,678,652,640,624,483,456,462,463,467,422,423,423,426,440,436,435,436,436,447,446,438,438,429,433,436,437,429,436,436,429,436,436,435,437,440,434,441,459,444,462,477,581,814,916,1039,1114,1112,1114,1056,1078,985,1005,987,1000,936,918,947,934,869,898,849,858,839,802,715,631,616,594,577,488,421,463,487,430,417,420,424,433,421,430,424,433,430,422,430,420,427,424,426,433,423,425,424,436,427,423,426,436,425,430,430,676,691,717,671,719,1108,1328,1515,1626,1675,1663,1681,1620,1581,1567,1573,1539,1495,1490,1418,1358,1392,1306,1352,1320,1285,1283,1170,1165,1020,919,721,859,752,702,699,703,687,690,686,692,692,690,691,691,691,691,691,691,690,689,689,689,689,689,689,689,689,689,689,689,689,689,689,689,710,716,714,708,747,1064,1443,1568,1689,1740,1736,1712,1680,1662,1596,1611,1564,1553,1527,1498,1454,1444,1413,1387,1357,1331,1284,1142,1050,1070,852,830,762,740,728,717,720,646,643,646,645,645,645,645,645,645,645,645,645,645,645,645,645,645,645,645,645,645,645,645,645,645,645,645,645,783,787,790,791,823,1203,1600,1757,1853,1916,1911,1870,1865,1824,1791,1769,1734,1699,1667,1636,1605,1580,1544,1516,1486,1453,1424,1352,1230,1125,1017,852,829,810,800,799,796,745,744,745,747,747,747,747,747,747,747,747,747,747,747,747,747,747,747,747,747,747,747,747,747,747,747,747,747,639,641,644,646,677,917,1266,1392,1498,1568,1569,1534,1535,1500,1468,1450,1424,1393,1367,1342,1317,1297,1268,1245,1221,1195,1171,1139,1109,1017,885,699,680,662,654,650,652,608,606,610,605,605,605,605,605,605,605,605,605,605,605,605,605,605,605,605,605,605,605,605,605,605,605,605,605,382,384,384,386,388,648,713,828,884,973,955,939,924,908,894,878,862,843,852,817,801,786,794,756,740,726,706,691,679,661,645,555,412,402,392,388,389,388,361,361,361,361,361,361,361,361,361,361,361,361,361,361,361,361,361,361,361,361,361,361,361,361,361,361,361,765,753,765,767,781,1103,1529,1708,1795,1866,1864,1804,1777,1746,1717,1689,1660,1633,1573,1600,1557,1532,1485,1464,1438,1414,1369,1354,1159,1134,1106,813,901,784,773,748,776,779,770,763,764,767,767,767,767,767,767,767,767,767,767,767,767,767,767,767,767,767,767,767,767,767,767,767,767,789,790,793,792,870,1276,1630,1794,1861,1936,1930,1879,1873,1835,1778,1774,1741,1711,1657,1648,1618,1585,1565,1529,1495,1459,1440,1335,1287,1118,863,926,862,816,802,801,799,769,765,769,767,767,767,767,767,767,767,767,767,767,767,767,767,767,767,767,767,767,767,767,767,767,767,767,767,412,412,414,416,420,699,777,868,979,1016,1024,1027,1010,975,976,943,926,910,894,877,861,844,828,812,795,778,763,746,729,714,709,664,590,432,421,418,419,420,418,415,417,418,418,418,418,418,418,418,418,418,418,418,418,418,418,418,418,418,418,418,418,418,418,418,418,564,566,580,583,628,1000,1104,1234,1340,1390,1393,1371,1348,1326,1304,1281,1260,1237,1265,1213,1170,1173,1125,1104,1081,1078,1081,1014,992,969,968,895,860,587,576,586,574,576,572,559,565,571,570,572,572,572,572,572,572,572,572,572,572,572,572,572,572,572,572,572,572,572,572,572,572,280,281,282,283,284,451,510,568,627,681,696,685,674,663,651,640,630,619,608,597,586,574,564,553,542,531,520,510,498,487,476,465,454,444,433,284,285,286,280,280,277,279,280,280,280,280,280,280,280,280,280,280,280,280,280,280,280,280,280,280,280,280,280,280,280,551,551,555,555,558,720,1065,1181,1288,1341,1353,1333,1309,1288,1266,1245,1223,1203,1178,1159,1135,1114,1095,1070,1053,1031,1006,988,966,814,763,742,744,576,564,559,563,564,542,535,539,539,539,539,539,539,539,539,539,539,539,539,539,539,539,539,539,539,539,539,539,539,539,539,539,464,465,467,468,468,788,886,991,1088,1144,1152,1150,1132,1096,1076,1059,1041,1022,1004,986,967,949,931,912,894,876,856,838,806,801,795,644,600,485,475,463,464,465,462,462,462,462,462,462,462,462,462,462,462,462,462,462,462,462,462,462,462,462,462,462,462,462,462,462,462,509,510,512,513,520,871,963,1119,1193,1276,1253,1234,1214,1193,1174,1155,1133,1116,1115,1074,1054,1035,1037,994,975,954,941,921,898,879,792,631,618,532,520,516,518,508,481,481,481,481,481,481,481,481,481,481,481,481,481,481,481,481,481,481,481,481,481,481,481,481,481,481,481,417,418,420,422,427,693,784,860,962,1029,1039,1021,1006,976,972,955,938,921,906,888,874,856,842,823,808,791,773,757,740,725,709,638,623,438,429,424,426,427,403,405,400,404,407,407,405,409,409,408,406,406,404,406,406,405,402,402,402,402,402,402,402,402,402,402,402,930,932,941,951,1019,1672,1831,2022,2147,2158,2127,2093,2063,2032,2038,1962,1973,1961,1922,1883,1839,1818,1815,1755,1723,1593,1580,1506,1420,1374,1021,1010,980,949,958,942,951,930,918,920,921,921,921,921,921,921,921,921,921,921,921,921,921,921,921,921,921,921,921,921,921,921,921,921,921,628,635,628,640,668,1079,1280,1401,1483,1552,1552,1528,1482,1467,1454,1408,1394,1380,1336,1324,1305,1272,1246,1231,1198,1179,1158,1130,1108,898,1056,799,668,696,645,638,644,646,644,637,644,644,644,644,644,644,644,644,644,644,644,644,644,644,644,644,644,644,644,644,644,644,644,644,644,1164,1161,1171,1191,1264,2230,2633,2885,2930,2978,2911,2873,2818,2772,2720,2668,2612,2558,2530,2460,2398,2360,2332,2261,2207,2047,1914,1834,1596,1324,1283,1252,1221,1200,1183,1188,1184,1184,1159,1159,1159,1159,1159,1159,1159,1159,1159,1159,1159,1159,1159,1159,1159,1159,1159,1159,1159,1159,1159,1159,1159,1159,1159,1159,1159,410,411,413,415,419,676,764,836,931,999,1009,992,977,949,945,930,914,898,883,866,852,836,820,804,790,772,756,741,725,711,694,677,660,475,429,417,418,415,390,393,388,394,394,393,392,394,394,393,392,394,392,393,393,389,388,388,388,388,388,388,388,388,388,388,388,0,0,0,0,0,0,0,0,0,0,0,0,0,0,0,0,0,0,0,0,0,0,0,0,0,0,0,0,0,0,0,0,0,0,0,0,0,0,0,0,0,0,0,0,0,0,0,0,0,0,0,0,0,0,0,0,0,0,0,0,0,0,0,0,0,640,641,679,647,691,1125,1275,1412,1614,1620,1634,1599,1567,1503,1515,1489,1538,1422,1466,1371,1312,1346,1262,1279,1243,1209,1261,1159,1125,1137,930,696,886,816,652,649,666,668,672,672,672,672,672,672,672,672,672,672,672,672,672,672,672,672,672,672,672,672,672,672,672,672,672,672,672,676,691,717,671,719,1108,1328,1515,1626,1675,1663,1681,1620,1581,1567,1573,1539,1495,1490,1418,1358,1392,1306,1352,1320,1285,1283,1170,1165,1020,919,721,859,752,702,699,703,687,690,686,692,692,690,691,691,691,691,691,691,690,689,689,689,689,689,689,689,689,689,689,689,689,689,689,689,87,87,87,132,132,134,151,169,186,202,216,213,210,206,202,199,196,193,189,186,182,178,176,172,169,165,162,159,156,152,148,145,141,139,135,132,133,133,77,77,76,77,78,78,77,77,77,80,78,80,80,84,80,84,80,78,80,80,77,84,80,77,78,78,77,334,336,336,338,338,418,599,668,739,808,835,823,808,795,782,774,761,741,728,719,706,688,675,661,648,634,624,608,587,575,562,469,430,420,343,340,341,341,296,294,296,301,303,304,302,302,302,305,305,308,309,336,314,314,304,305,311,304,299,316,305,302,303,303,302,220,256,220,221,222,340,442,441,487,531,608,538,530,522,512,504,495,541,478,469,460,452,444,434,426,417,409,400,391,382,374,366,357,348,317,223,223,224,215,216,219,214,212,217,216,214,216,253,251,216,215,219,215,220,221,221,216,217,217,217,217,216,216,234,218,331,333,333,334,340,410,590,659,727,794,820,811,800,782,770,760,747,732,715,708,694,681,667,655,642,626,614,600,590,576,561,473,423,413,340,340,342,337,301,297,297,301,302,304,301,302,301,305,303,305,303,309,305,307,304,304,306,306,302,306,304,301,302,302,301,620,622,623,625,630,1006,1173,1311,1442,1511,1510,1494,1468,1444,1428,1387,1374,1348,1324,1314,1280,1256,1237,1215,1186,1154,1140,1119,1025,869,782,763,683,636,628,631,630,613,585,578,580,587,589,597,593,598,591,591,594,592,596,600,591,610,614,612,599,606,591,593,593,593,611,603,592,833,872,838,855,927,1486,1772,1930,1999,2047,2038,2044,2020,2002,1945,1863,1878,1825,1814,1791,1768,1720,1645,1658,1601,1550,1521,1528,1264,951,925,939,932,907,898,852,839,852,870,856,864,868,877,869,880,874,888,880,897,890,891,888,898,886,893,905,902,907,908,894,902,906,887,890,885,443,445,446,470,474,588,837,945,1041,1144,1156,1083,1065,1047,1082,1051,994,977,998,941,924,907,889,872,853,876,819,838,819,766,745,645,637,499,453,472,452,454,409,410,410,413,415,416,416,416,416,419,418,421,422,432,426,427,422,421,424,423,421,430,425,422,423,423,422,573,575,587,589,586,694,1099,1215,1328,1400,1399,1387,1362,1341,1328,1287,1273,1250,1227,1218,1186,1162,1146,1124,1098,1068,1054,902,999,827,807,677,662,619,594,583,594,553,510,501,505,507,503,518,506,518,512,511,516,512,515,514,512,522,512,510,515,519,510,517,514,514,512,519,513,1028,1051,1092,1095,1233,2023,2258,2420,2438,2572,2520,2485,2392,2406,2369,2344,2273,2248,2217,2166,2136,2094,2093,2031,1994,1749,1459,1358,1229,1215,1152,1182,1124,1106,1098,1061,1047,1092,1078,1062,1076,1084,1104,1069,1085,1067,1080,1094,1093,1089,1094,1112,1089,1088,1118,1101,1094,1099,1102,1098,1108,1088,1099,1106,1096,536,538,535,539,545,836,994,1094,1216,1300,1284,1290,1267,1230,1235,1197,1185,1162,1129,1135,1092,1072,1059,1038,1019,989,974,951,919,906,778,767,726,544,543,546,536,545,519,512,515,522,533,541,532,545,534,541,539,538,537,533,535,536,539,527,545,543,528,542,544,543,541,546,539,620,626,625,640,688,1082,1233,1360,1470,1544,1518,1503,1483,1452,1458,1398,1397,1350,1326,1302,1300,1270,1246,1222,1182,1158,1082,1151,1036,1063,987,912,660,692,663,644,603,638,613,605,609,614,629,603,608,608,613,628,631,627,625,641,628,618,646,631,626,631,634,632,632,628,633,642,632,555,563,562,561,569,766,1045,1179,1285,1361,1371,1356,1335,1300,1291,1259,1246,1218,1189,1186,1161,1138,1119,1094,1076,1053,1026,980,984,900,841,725,674,593,565,570,572,558,503,501,505,513,509,520,507,514,513,517,518,518,521,520,518,528,518,516,521,525,516,523,520,520,518,524,519,702,703,704,710,724,1042,1343,1537,1639,1704,1712,1684,1663,1630,1607,1571,1546,1520,1492,1476,1449,1412,1395,1353,1336,1303,1285,1235,1008,896,879,819,752,738,715,715,717,697,654,645,649,651,647,662,650,662,656,655,660,656,659,658,656,666,656,654,659,663,654,661,658,658,656,663,657,412,413,414,414,419,589,748,834,922,1000,1006,1000,982,967,960,926,918,902,885,884,858,841,831,815,796,772,765,749,723,716,691,590,577,424,416,420,418,419,395,383,385,388,394,399,391,405,400,404,407,401,409,403,403,413,409,401,409,405,405,414,411,408,401,418,399,776,757,756,784,811,1192,1524,1666,1779,1853,1872,1789,1761,1764,1761,1728,1698,1617,1642,1554,1526,1498,1480,1442,1440,1433,1384,1389,1190,1082,906,916,811,794,768,787,784,792,768,769,768,777,781,786,787,787,785,788,786,789,788,789,785,798,793,782,788,784,774,793,783,780,781,781,780,947,945,946,1030,1278,2281,2570,2752,2826,2852,2814,2703,2696,2674,2572,2480,2452,2400,2332,2272,2218,2143,2188,2036,1965,1903,1757,1766,1636,1437,1241,1034,995,975,972,980,981,996,1033,1018,1031,1043,1048,1056,1047,1035,1041,1052,1049,1036,1041,1088,1091,1085,1192,1050,1035,1049,1036,1032,1031,1056,1043,1103,1032,856,858,860,867,892,1253,1688,1878,2052,2106,2083,2049,2017,1982,1950,1916,1867,1879,1816,1768,1750,1717,1670,1643,1617,1584,1551,1519,1442,1218,1147,949,901,882,871,868,868,872,844,836,842,850,852,851,853,846,853,868,854,850,868,867,862,854,847,869,855,876,847,855,882,868,876,875,852,513,514,516,517,522,631,942,1050,1157,1236,1240,1229,1209,1189,1178,1142,1130,1111,1092,1090,1057,1036,1023,1004,981,954,944,925,895,886,769,646,632,528,519,522,521,522,495,485,490,493,488,502,492,504,498,496,501,498,502,501,499,511,499,497,501,506,497,504,503,503,499,506,500,814,823,818,820,834,1389,1587,1771,1912,1962,1954,1930,1898,1867,1844,1802,1778,1746,1715,1698,1667,1637,1601,1575,1536,1506,1413,1328,1348,1166,898,880,854,845,824,828,821,823,805,798,801,797,790,814,805,821,804,810,817,815,820,812,819,821,824,806,814,827,809,813,817,807,817,816,809,0,0,0,0,0,0,0,0,0,0,0,0,0,0,0,0,0,0,0,0,0,0,0,0,0,0,0,0,0,0,0,0,0,0,0,0,0,0,0,0,0,0,0,0,0,0,0,0,0,0,0,0,0,0,0,0,0,0,0,0,0,0,0,0,0,87,87,87,132,132,134,151,169,186,202,216,213,210,206,202,199,196,193,189,186,182,178,176,172,169,165,162,159,156,152,148,145,141,139,135,132,133,133,77,77,76,77,78,78,77,77,77,80,78,80,80,84,80,84,80,78,80,80,77,84,80,77,78,78,77,0,0,0,0,0,0,0,0,0,0,0,0,0,0,0,0,0,0,0,0,0,0,0,0,0,0,0,0,0,0,0,0,0,0,0,0,0,0,0,0,0,0,0,0,0,0,0,0,0,0,0,0,0,0,0,0,0,0,0,0,0,0,0,0,0,249,251,252,252,252,383,445,496,548,600,628,618,608,598,592,578,567,558,548,537,528,522,507,502,487,476,468,456,438,431,420,414,400,391,257,253,254,255,219,217,220,224,225,226,225,225,225,225,227,228,229,252,234,230,224,227,231,224,222,232,225,225,225,225,225,198,199,199,200,269,305,350,391,431,470,494,487,478,471,463,456,447,438,429,424,414,409,400,393,385,378,369,362,354,345,338,330,322,314,307,270,271,271,175,174,174,175,174,180,177,184,193,177,182,175,177,177,177,181,178,178,178,182,177,178,177,177,177,177,177,246,246,248,248,249,331,440,491,541,592,618,608,595,590,574,570,555,546,536,526,518,510,498,488,478,468,457,448,439,428,418,410,399,333,324,250,251,250,224,220,221,224,224,226,224,225,224,225,225,225,223,225,225,223,224,226,226,226,225,222,224,224,224,224,224,533,535,536,538,540,915,1039,1155,1263,1316,1318,1312,1289,1256,1234,1213,1201,1171,1150,1141,1116,1087,1065,1044,1023,1002,980,960,938,896,770,752,673,555,544,540,543,525,508,501,504,510,511,531,516,540,535,511,535,512,516,521,511,528,534,534,519,527,514,509,513,516,533,525,515,939,938,956,946,1001,1501,1972,2194,2276,2290,2279,2260,2190,2153,2156,2114,2084,2044,1957,1980,1911,1858,1852,1795,1757,1556,1540,1546,1311,1174,1143,1031,993,969,967,949,928,941,932,920,936,938,927,953,939,947,956,938,962,947,949,950,946,952,947,946,950,954,944,948,948,952,948,956,950,384,385,387,387,391,578,694,775,856,931,955,941,926,910,895,879,865,849,835,819,804,790,774,758,745,727,713,697,681,666,597,584,566,404,393,390,392,411,332,333,334,336,337,338,339,339,339,340,339,341,342,348,346,343,342,344,344,342,344,347,344,344,344,344,344,486,487,489,503,500,659,923,1028,1147,1200,1204,1199,1178,1146,1127,1107,1097,1068,1056,1047,1024,996,976,958,939,918,899,827,752,783,683,532,536,522,522,493,514,495,433,424,429,430,425,452,429,453,441,431,447,432,435,435,432,440,432,432,435,440,433,433,434,437,434,441,436,1040,1066,1063,1079,1208,1948,2295,2435,2496,2534,2517,2482,2426,2393,2349,2379,2344,2224,2226,2145,2174,2065,2085,2004,1982,1749,1481,1454,1431,1192,1135,1265,1096,1108,1091,1066,1099,1081,1073,1066,1074,1072,1073,1102,1082,1104,1104,1091,1105,1082,1083,1085,1080,1100,1092,1082,1086,1086,1078,1083,1084,1090,1081,1101,1085,449,451,452,446,455,726,857,950,1030,1104,1113,1092,1090,1057,1024,1017,1012,969,967,949,928,915,883,866,851,833,815,808,773,755,638,622,607,469,452,448,456,458,442,435,439,445,455,463,455,479,466,461,461,462,464,454,455,466,459,449,465,467,451,462,464,466,464,468,462,693,696,699,701,705,999,1375,1516,1638,1692,1687,1680,1643,1564,1585,1561,1551,1504,1480,1464,1441,1400,1372,1345,1324,1299,1264,1233,1209,1186,1069,929,714,752,716,706,703,708,672,665,674,681,671,693,678,699,693,679,696,681,684,683,682,691,683,682,686,690,682,684,684,688,684,692,686,473,470,478,478,477,657,895,994,1094,1167,1173,1167,1146,1125,1096,1083,1070,1049,1023,1007,995,973,953,934,914,897,877,858,830,793,751,730,584,496,496,489,489,484,439,430,430,435,431,449,435,437,432,437,455,438,441,441,438,446,438,438,441,446,439,439,440,443,440,446,442,618,616,617,625,626,922,1203,1326,1449,1502,1508,1500,1474,1453,1426,1393,1373,1349,1323,1310,1285,1265,1233,1210,1171,1147,1135,1111,1008,885,830,674,684,653,660,636,634,640,577,568,573,574,569,593,573,594,587,575,589,576,579,579,576,584,576,576,579,584,577,577,578,581,578,585,580,325,326,327,328,329,530,602,672,741,800,811,812,798,772,759,746,742,720,708,705,690,668,655,643,630,616,603,590,578,565,552,538,477,342,333,330,331,332,318,306,309,311,316,333,314,347,334,324,336,338,336,344,323,331,329,323,329,331,328,342,335,337,332,340,333,696,698,707,712,760,1142,1325,1498,1599,1676,1662,1660,1638,1585,1568,1548,1519,1498,1459,1434,1408,1382,1368,1345,1306,1294,1255,1236,1172,1044,1010,893,817,728,708,728,708,731,691,692,692,700,703,708,710,710,708,708,708,709,708,705,705,714,713,704,708,704,697,709,703,703,703,703,703,1074,1073,1074,1158,1441,2278,2628,2742,2820,2856,2834,2788,2729,2696,2641,2667,2591,2505,2478,2417,2402,2359,2308,2254,2145,1901,1721,1590,1581,1454,1199,1152,1120,1103,1104,1109,1110,1124,1153,1138,1151,1166,1172,1166,1178,1175,1173,1174,1182,1167,1217,1214,1204,1184,1194,1174,1219,1175,1160,1186,1168,1220,1222,1230,1164,815,818,819,823,856,1239,1595,1752,1878,1934,1941,1910,1880,1859,1818,1790,1764,1734,1704,1674,1648,1614,1592,1561,1524,1494,1464,1434,1408,1142,1094,877,856,839,828,826,808,794,767,759,766,773,774,773,776,769,776,788,776,770,788,783,782,770,767,791,775,796,770,771,811,811,811,811,810,426,427,429,429,460,596,801,890,979,1039,1046,1044,1030,997,980,963,956,931,915,910,890,865,849,832,816,800,783,766,750,734,718,635,600,510,436,461,433,434,417,408,414,415,410,435,415,432,427,416,427,418,422,422,419,429,419,419,421,427,420,420,422,426,421,428,423,727,737,731,733,744,1278,1473,1624,1728,1773,1768,1754,1724,1684,1655,1628,1608,1571,1545,1529,1496,1460,1432,1403,1377,1348,1320,1199,1153,1073,806,965,768,768,740,737,734,736,728,721,725,720,712,752,728,763,748,730,758,735,740,733,739,739,744,728,734,748,732,729,737,730,739,738,732,127,128,128,128,128,132,225,250,277,303,320,315,310,304,300,295,290,284,279,274,270,264,259,254,249,243,238,234,229,223,218,142,139,135,132,129,129,130,120,120,120,123,217,216,133,140,132,224,136,131,217,126,127,139,132,124,212,126,124,215,137,207,207,137,132,0,0,0,0,0,0,0,0,0,0,0,0,0,0,0,0,0,0,0,0,0,0,0,0,0,0,0,0,0,0,0,0,0,0,0,0,0,0,0,0,0,0,0,0,0,0,0,0,0,0,0,0,0,0,0,0,0,0,0,0,0,0,0,0,0 ]);
