n = 20;
D = [85,215,287,243,81,119,208,259,177,112,92,256,182,111,245,149,124,67,208,159 ];
q = 0;
prec = array2d(1..0,1..2,[]);
steps = 64;
l = 360;
r = 0;
which = [];
interval = array2d(1..0,1..2,[]);
T = array3d(1..21,1..21,0..64,[0,0,0,0,0,0,0,0,0,0,0,0,0,0,0,0,0,0,0,0,0,0,0,0,0,0,0,0,0,0,0,0,0,0,0,0,0,0,0,0,0,0,0,0,0,0,0,0,0,0,0,0,0,0,0,0,0,0,0,0,0,0,0,0,0,887,896,897,900,940,1460,1862,2020,2090,2133,2121,2081,2053,2012,1984,1955,1924,1891,1858,1829,1796,1747,1724,1690,1668,1628,1595,1395,1411,1262,1085,1037,930,913,906,905,907,884,872,874,869,880,870,884,880,885,878,883,882,877,880,882,882,889,886,882,880,882,881,880,880,877,880,887,882,501,511,493,494,505,832,936,1039,1134,1180,1182,1164,1146,1126,1108,1090,1072,1054,1036,1018,1000,981,963,945,927,909,892,896,855,837,839,684,632,509,500,497,513,517,486,469,474,475,474,491,479,494,487,483,488,478,483,480,482,487,483,482,482,486,483,477,479,483,481,488,481,455,457,458,460,468,711,824,963,1065,1119,1125,1107,1089,1071,1053,1036,1019,1000,982,964,946,928,910,893,875,858,839,822,781,756,739,722,706,551,466,463,464,465,427,434,432,439,441,437,433,437,431,437,434,433,435,437,441,443,437,436,442,434,440,439,438,465,436,439,438,670,686,673,684,720,1068,1274,1454,1526,1572,1578,1560,1528,1510,1474,1462,1439,1425,1389,1365,1339,1317,1293,1271,1261,1226,1206,1167,1144,1099,1044,853,714,704,684,679,680,691,654,642,646,648,644,658,650,680,658,650,680,647,650,649,648,654,650,649,650,653,649,647,648,652,650,657,650,1110,1120,1117,1148,1344,1942,2379,2522,2608,2628,2612,2549,2508,2495,2430,2389,2374,2328,2295,2253,2212,2152,2128,2080,2044,2000,1793,1580,1443,1437,1212,1185,1149,1136,1125,1124,1121,1110,1088,1082,1095,1096,1095,1109,1104,1111,1107,1108,1114,1101,1108,1109,1109,1113,1108,1107,1102,1111,1110,1107,1107,1111,1109,1116,1109,884,894,888,898,932,1439,1842,2006,2074,2109,2098,2067,2035,2007,1972,1940,1912,1878,1845,1812,1778,1745,1711,1678,1650,1610,1578,1535,1307,1241,1137,1047,923,907,897,896,899,898,886,871,886,886,885,896,893,915,892,888,896,885,891,889,887,898,893,892,889,893,889,885,885,889,887,894,887,760,775,761,778,772,1323,1471,1682,1766,1805,1789,1770,1732,1715,1682,1658,1630,1605,1575,1545,1518,1492,1464,1436,1407,1386,1293,1332,1241,1145,902,815,797,800,772,768,769,750,717,711,732,709,711,727,716,730,722,720,723,713,718,716,719,725,720,717,718,722,718,712,715,719,717,724,717,519,520,580,520,532,903,986,1101,1191,1244,1244,1225,1207,1247,1228,1149,1130,1111,1093,1066,1054,1069,1016,1053,979,1003,940,921,902,883,865,744,730,535,579,526,524,525,523,522,525,530,527,530,532,536,534,531,531,527,534,536,545,537,536,535,528,547,535,528,531,533,539,542,534,555,565,547,548,561,933,1050,1165,1263,1308,1306,1286,1267,1246,1226,1207,1186,1166,1147,1126,1106,1087,1066,1046,1026,1031,986,989,946,910,894,591,759,564,554,552,564,569,547,534,535,546,535,553,541,573,550,538,572,539,538,538,540,547,542,545,542,546,543,544,540,557,541,553,542,799,806,819,828,845,1269,1669,1831,1906,1932,1938,1905,1874,1842,1792,1790,1759,1732,1681,1669,1662,1609,1579,1526,1530,1471,1456,1435,1399,1273,1033,999,851,847,824,823,811,823,804,799,804,800,798,816,811,818,814,809,818,806,810,805,811,819,810,806,812,813,809,811,812,816,814,821,814,549,576,576,578,566,803,1033,1135,1236,1282,1282,1264,1245,1226,1208,1188,1171,1151,1133,1114,1096,1077,1057,1084,1021,1002,983,965,885,868,828,758,710,592,583,580,581,544,535,527,539,540,531,542,539,544,545,539,543,540,539,539,538,565,544,546,542,543,543,543,546,547,544,553,550,700,708,702,696,709,1223,1370,1526,1645,1663,1657,1630,1600,1579,1554,1524,1498,1473,1450,1422,1396,1400,1347,1315,1323,1293,1166,1164,1117,1061,978,788,784,711,716,701,710,701,682,668,675,676,674,689,681,696,690,682,691,676,681,681,681,686,683,687,683,685,682,680,682,687,683,692,682,894,905,895,893,923,1633,1840,2007,2114,2112,2109,2055,2034,2010,1968,1948,1914,1871,1851,1810,1772,1768,1714,1681,1671,1641,1566,1556,1350,990,989,964,935,917,892,892,908,901,885,869,876,877,876,891,883,898,892,884,894,877,883,882,883,888,884,889,884,886,884,881,884,888,885,893,883,795,784,786,789,862,1441,1570,1760,1847,1884,1872,1833,1814,1784,1754,1705,1689,1647,1620,1607,1582,1610,1526,1542,1459,1537,1410,1362,1351,1272,1177,1104,823,806,795,784,792,786,778,784,806,813,799,782,807,813,808,802,810,815,852,821,821,812,807,797,809,796,799,819,801,841,809,803,802,434,435,436,437,440,590,785,912,1020,1072,1080,1062,1046,1028,1011,994,976,959,940,924,912,888,871,854,837,820,802,786,771,746,730,633,637,455,444,440,442,425,373,381,381,387,390,390,381,392,379,393,383,381,383,388,393,394,389,384,389,381,391,391,390,410,388,391,390,408,408,411,502,506,626,759,835,949,972,975,982,968,932,918,927,913,900,885,840,849,811,796,782,771,753,741,723,740,733,666,535,552,426,417,414,416,416,400,405,410,431,406,411,404,408,407,403,407,407,403,408,408,412,410,417,413,413,414,417,415,441,424,447,425,477,479,480,481,490,764,865,1016,1118,1171,1179,1158,1140,1120,1101,1083,1064,1046,1028,1009,990,972,952,934,915,897,877,862,848,830,696,680,528,498,488,484,485,465,444,429,429,435,448,440,442,438,439,437,450,445,445,448,447,448,450,442,446,447,449,450,446,482,446,448,447,708,718,711,705,719,1243,1392,1547,1666,1684,1677,1651,1621,1599,1573,1543,1518,1491,1470,1440,1413,1417,1366,1332,1340,1310,1184,1180,1133,1077,994,752,747,720,710,711,719,701,682,668,675,676,674,689,681,696,690,682,691,676,681,681,681,686,683,687,683,685,682,680,682,687,683,692,682,1391,1406,1404,1480,1604,2641,3088,3218,3266,3281,3244,3186,3146,3075,3044,2996,2947,2889,2834,2697,2474,2320,2352,2039,1985,1710,1679,1630,1556,1611,1471,1457,1441,1422,1418,1411,1397,1395,1384,1369,1384,1384,1383,1394,1391,1413,1390,1386,1394,1383,1389,1387,1385,1396,1391,1390,1387,1391,1387,1383,1383,1387,1385,1392,1385,0,0,0,0,0,0,0,0,0,0,0,0,0,0,0,0,0,0,0,0,0,0,0,0,0,0,0,0,0,0,0,0,0,0,0,0,0,0,0,0,0,0,0,0,0,0,0,0,0,0,0,0,0,0,0,0,0,0,0,0,0,0,0,0,0,757,750,758,760,813,1137,1477,1651,1776,1845,1851,1809,1797,1771,1745,1714,1685,1663,1635,1590,1574,1504,1495,1474,1427,1425,1375,1354,1296,1143,889,869,799,781,761,768,778,738,702,697,698,701,700,699,703,703,703,713,704,709,711,714,708,713,714,704,704,708,718,716,711,712,706,713,711,0,0,0,0,0,0,0,0,0,0,0,0,0,0,0,0,0,0,0,0,0,0,0,0,0,0,0,0,0,0,0,0,0,0,0,0,0,0,0,0,0,0,0,0,0,0,0,0,0,0,0,0,0,0,0,0,0,0,0,0,0,0,0,0,0,476,478,480,482,484,568,878,1024,1122,1180,1183,1163,1144,1125,1106,1088,1069,1049,1034,1011,991,973,955,935,916,896,879,848,724,708,692,552,538,499,488,484,486,458,420,418,421,436,427,431,428,431,436,437,436,429,425,428,431,435,439,435,426,427,427,427,427,427,427,426,426,635,608,638,616,706,1122,1294,1491,1615,1657,1642,1598,1588,1558,1521,1479,1461,1431,1389,1377,1347,1305,1287,1256,1226,1196,1166,1136,1106,1075,1045,886,785,636,624,636,626,630,633,632,633,641,636,640,646,641,639,671,645,637,637,644,648,644,641,672,645,670,670,645,645,645,644,638,634,673,675,677,684,693,1001,1293,1504,1615,1653,1644,1632,1606,1578,1553,1526,1499,1464,1440,1411,1384,1357,1331,1308,1297,1223,1229,1172,1054,1032,761,744,724,703,691,688,692,667,619,620,619,620,619,622,622,626,622,622,622,620,619,622,623,625,624,622,624,621,621,621,621,621,621,621,621,428,430,432,432,438,453,778,865,952,1052,1004,1041,1024,1008,992,975,958,942,900,883,887,870,854,837,821,808,792,775,736,741,635,609,476,449,439,436,436,437,420,413,415,415,434,435,429,420,421,430,437,437,439,442,456,442,439,432,437,433,429,431,430,436,425,433,430,406,408,407,408,414,450,732,823,918,997,1004,988,973,956,940,925,909,892,877,905,813,819,813,766,795,765,750,746,718,702,457,447,436,425,416,412,413,415,381,382,381,382,381,384,384,388,384,384,384,382,381,384,385,387,386,384,386,383,383,383,383,383,383,383,383,686,688,699,710,710,899,1341,1556,1676,1675,1684,1625,1651,1638,1597,1570,1546,1511,1498,1423,1426,1402,1371,1314,1291,1266,1126,1075,1020,900,905,790,752,728,716,714,698,675,614,614,617,628,627,628,621,628,627,630,630,628,627,630,631,633,632,630,632,629,629,629,629,629,628,627,627,452,452,454,456,463,694,854,944,1036,1095,1094,1077,1066,1062,1024,1008,990,973,967,934,933,920,900,867,860,849,831,823,796,778,762,640,607,472,461,458,468,451,441,443,444,451,443,461,449,465,459,456,459,449,456,453,462,461,460,456,463,458,460,456,456,463,455,464,461,398,400,401,402,404,515,725,837,921,983,992,976,959,943,925,912,897,880,862,849,834,816,801,793,770,753,739,690,596,583,570,501,489,464,456,404,405,407,371,373,373,377,377,378,380,388,375,380,379,386,373,377,381,385,379,379,382,387,382,380,380,379,378,377,377,192,193,237,244,195,294,348,388,429,470,486,478,470,463,454,447,439,432,464,416,408,400,392,385,376,369,361,387,378,338,330,322,314,307,294,196,196,197,181,183,181,187,180,184,182,186,183,185,184,183,186,184,187,186,185,186,186,184,184,184,184,184,184,184,184,464,487,458,465,473,675,868,910,999,1083,1102,1071,1076,1056,1044,1027,1010,993,976,942,943,908,892,894,860,860,843,868,772,709,603,695,543,484,465,471,472,473,459,458,459,468,468,465,466,465,466,470,473,472,480,481,482,481,474,469,473,469,470,476,468,470,469,479,468,433,434,436,437,439,554,790,916,1011,1069,1075,1058,1040,1023,1008,991,972,955,938,920,903,886,868,842,835,817,800,784,765,730,663,635,608,453,443,439,440,418,371,372,371,372,371,374,374,378,374,374,374,372,371,374,375,377,376,374,376,373,373,373,373,373,373,373,373,611,612,616,616,622,750,1144,1342,1448,1498,1497,1474,1450,1426,1406,1380,1357,1330,1306,1284,1262,1236,1212,1189,1164,1138,1117,1094,1070,912,806,784,712,647,623,619,621,590,543,544,543,544,543,546,546,550,546,546,546,544,543,546,547,549,548,546,548,545,545,545,545,545,545,545,545,588,589,592,593,614,824,1150,1284,1400,1448,1449,1426,1402,1380,1357,1333,1310,1287,1263,1240,1218,1195,1171,1148,1125,1101,1078,1056,1032,908,838,832,689,611,600,596,598,600,590,587,592,591,592,594,592,592,592,593,592,593,593,593,597,594,596,594,594,592,594,594,595,595,592,593,592,755,751,760,768,867,1431,1641,1853,1969,2005,1986,1936,1920,1888,1840,1792,1768,1733,1688,1670,1634,1587,1567,1635,1491,1455,1417,1381,1346,1114,961,930,803,781,769,768,753,746,745,746,754,752,757,757,754,757,757,771,777,778,780,775,768,765,780,775,770,778,779,784,785,770,782,783,782,822,818,820,828,896,1333,1610,1797,1937,1970,2006,1973,1941,1926,1855,1854,1828,1760,1725,1717,1706,1656,1598,1585,1568,1545,1470,1269,1242,1163,997,914,883,852,831,834,852,799,775,780,781,790,777,785,785,787,787,793,788,804,810,811,798,792,793,789,795,788,792,788,789,792,791,795,794,939,936,944,947,1152,1859,2095,2295,2405,2434,2407,2350,2327,2289,2234,2179,2147,2105,2053,2037,1990,1939,1911,1970,1821,1779,1734,1487,1235,1201,1045,1016,989,971,954,954,938,931,928,943,937,953,946,941,937,950,951,966,965,966,966,966,963,967,969,966,967,965,967,967,968,968,965,966,965,442,444,445,446,448,561,808,937,1034,1090,1096,1078,1062,1044,1029,1012,991,974,956,939,921,904,886,860,852,834,817,800,761,642,627,613,568,468,452,449,449,418,371,372,371,372,371,374,374,378,374,374,374,372,371,374,375,377,376,374,376,373,373,373,373,373,373,373,373,905,909,912,916,998,1359,1839,2022,2137,2198,2192,2178,2097,2082,2004,2011,1970,1961,1932,1868,1824,1806,1767,1722,1682,1666,1634,1326,1232,1152,983,970,936,929,927,916,922,912,879,880,879,880,879,882,882,886,882,882,882,880,879,882,883,885,884,882,884,881,881,881,881,881,881,881,881,757,750,758,760,813,1137,1477,1651,1776,1845,1851,1809,1797,1771,1745,1714,1685,1663,1635,1590,1574,1504,1495,1474,1427,1425,1375,1354,1296,1143,889,869,799,781,761,768,778,738,702,697,698,701,700,699,703,703,703,713,704,709,711,714,708,713,714,704,704,708,718,716,711,712,706,713,711,486,489,488,490,490,706,863,936,1012,1064,1046,1037,1020,1008,995,982,968,955,941,929,916,904,891,877,866,852,840,827,816,801,756,664,509,541,494,492,494,487,440,441,438,446,443,450,441,443,438,440,442,438,437,451,443,449,447,450,445,447,455,447,447,454,440,445,445,532,533,537,539,545,767,1000,1110,1215,1306,1315,1291,1270,1237,1231,1216,1184,1164,1156,1131,1102,1084,1062,1042,1029,979,967,942,926,901,749,725,698,548,544,541,542,543,497,497,497,497,497,497,497,497,497,497,497,497,497,497,497,497,497,497,497,497,497,497,497,497,497,497,497,0,0,0,0,0,0,0,0,0,0,0,0,0,0,0,0,0,0,0,0,0,0,0,0,0,0,0,0,0,0,0,0,0,0,0,0,0,0,0,0,0,0,0,0,0,0,0,0,0,0,0,0,0,0,0,0,0,0,0,0,0,0,0,0,0,760,762,765,773,880,1345,1639,1859,1970,2000,1999,1964,1928,1892,1856,1820,1784,1737,1701,1665,1636,1600,1563,1528,1497,1461,1425,1398,1292,1227,904,878,824,784,769,794,779,783,760,737,753,760,743,769,747,778,758,747,768,749,749,753,753,767,761,764,751,758,755,755,761,763,758,775,775,264,264,265,266,267,304,474,529,590,648,657,656,640,630,616,606,595,589,574,564,553,543,532,522,512,501,489,481,470,459,330,321,317,306,298,268,268,297,240,240,240,240,240,240,240,240,240,240,240,240,240,240,240,240,240,240,240,240,240,240,240,240,240,240,240,717,719,714,723,733,970,1394,1542,1660,1718,1746,1719,1684,1637,1617,1591,1558,1536,1508,1498,1462,1430,1408,1368,1347,1332,1294,1277,1162,802,800,776,774,752,738,727,729,718,674,674,674,674,674,674,674,674,674,674,674,674,674,674,674,674,674,674,674,674,674,674,674,674,674,674,674,492,494,496,498,502,556,913,1018,1157,1208,1224,1194,1173,1155,1136,1117,1098,1078,1059,1040,1021,1002,988,963,951,952,906,893,822,804,737,624,588,514,512,500,502,503,464,464,464,464,464,464,464,464,464,464,464,464,464,464,464,464,464,464,464,464,464,464,464,464,464,464,464,285,286,287,288,289,321,517,576,636,696,711,700,688,678,672,655,644,632,621,609,598,586,576,565,558,542,530,525,440,496,420,345,325,318,293,289,306,291,233,233,233,233,233,233,233,233,233,233,233,233,233,233,233,233,233,233,233,233,233,233,233,233,233,233,233,477,492,488,488,499,604,910,1018,1111,1195,1206,1184,1155,1118,1127,1109,1078,1069,1033,1022,994,975,950,946,927,908,890,876,816,835,658,531,593,504,500,492,492,471,450,454,442,465,461,457,462,459,460,458,462,464,461,459,452,461,460,466,459,453,457,454,456,457,464,453,453,192,197,198,199,200,225,340,378,417,455,481,469,465,459,450,443,436,427,420,412,406,397,390,382,375,368,356,353,345,338,329,241,236,229,219,200,217,217,172,171,165,167,172,172,172,172,172,172,172,172,172,172,172,172,172,172,172,172,172,172,172,172,172,172,172,424,423,422,424,427,585,772,861,983,1029,1044,1027,1011,994,978,961,953,928,910,896,879,860,842,835,817,793,784,762,750,733,719,621,467,440,438,426,428,428,388,388,388,388,388,388,388,388,388,388,388,388,388,388,388,388,388,388,388,388,388,388,388,388,388,388,388,325,327,328,328,330,348,577,635,693,749,765,756,745,734,721,711,700,690,679,668,655,645,632,624,612,601,590,579,567,556,468,457,348,341,334,331,331,332,311,305,304,306,311,315,307,312,308,307,311,307,312,315,313,330,330,316,312,314,317,330,314,317,313,330,330,274,275,276,276,277,309,489,545,604,665,689,678,666,652,642,631,620,612,597,590,579,568,554,543,532,522,510,499,406,396,329,321,312,306,299,280,296,296,228,228,228,228,228,228,228,228,228,228,228,228,228,228,228,228,228,228,228,228,228,228,228,228,228,228,228,466,469,469,474,476,595,862,976,1078,1140,1155,1147,1126,1105,1087,1072,1060,1027,1008,985,972,953,931,921,898,880,861,835,806,788,720,641,552,510,476,476,476,472,428,428,428,428,428,428,428,428,428,428,428,428,428,428,428,428,428,428,428,428,428,428,428,428,428,428,428,699,704,705,708,750,1169,1380,1576,1693,1737,1740,1712,1683,1646,1617,1598,1558,1530,1513,1483,1454,1425,1396,1369,1333,1314,1293,1257,1221,1106,990,807,880,724,731,737,714,716,681,680,692,701,688,697,681,693,685,680,686,686,682,709,694,700,695,699,708,694,714,709,698,703,690,695,695,846,842,850,869,911,1316,1675,1859,2008,2078,2065,2032,1996,1960,1921,1892,1851,1838,1795,1753,1729,1706,1665,1639,1597,1556,1534,1417,1316,993,978,925,902,884,870,858,881,861,821,823,826,829,829,829,826,824,829,822,823,825,823,829,829,829,829,829,829,829,829,829,829,829,829,829,829,424,460,427,428,460,483,782,884,959,1038,1077,1024,1002,1003,969,986,984,928,911,889,880,882,847,825,817,793,791,762,783,729,641,540,454,469,467,430,447,455,434,433,436,436,436,435,437,437,435,437,436,437,437,437,437,437,437,437,437,437,437,437,437,437,437,437,437,884,888,885,920,942,1394,1774,1944,2117,2160,2148,2123,2068,2056,2012,1976,1953,1908,1875,1831,1807,1789,1738,1733,1660,1636,1620,1322,1216,1013,976,964,941,930,895,897,900,891,869,870,872,872,872,872,872,872,872,872,872,872,872,872,872,872,872,872,872,872,872,872,872,872,872,872,872,284,284,284,286,287,324,506,564,625,687,711,699,688,673,662,651,639,632,616,609,598,584,572,560,551,538,526,516,424,412,345,337,328,322,291,288,288,289,228,228,228,228,228,228,228,228,228,228,228,228,228,228,228,228,228,228,228,228,228,228,228,228,228,228,228,1000,1002,1006,1014,1093,1547,2077,2274,2389,2420,2416,2371,2329,2291,2258,2211,2194,2145,2071,2069,2029,1983,1951,1915,1871,1843,1692,1504,1230,1220,1116,1092,1074,1024,1030,1011,1020,1001,962,962,962,962,962,962,962,962,962,962,962,962,962,962,962,962,962,962,962,962,962,962,962,962,962,962,962,486,489,488,490,490,706,863,936,1012,1064,1046,1037,1020,1008,995,982,968,955,941,929,916,904,891,877,866,852,840,827,816,801,756,664,509,541,494,492,494,487,440,441,438,446,443,450,441,443,438,440,442,438,437,451,443,449,447,450,445,447,455,447,447,454,440,445,445,692,694,696,708,742,1097,1323,1472,1602,1664,1675,1650,1626,1598,1573,1547,1520,1494,1469,1442,1417,1391,1365,1338,1313,1287,1261,1236,1209,1184,1012,757,740,724,712,710,712,714,684,695,673,673,693,693,685,686,688,694,708,698,704,707,711,706,717,712,709,704,737,713,708,711,700,711,703,681,683,684,720,721,1252,1447,1641,1766,1818,1809,1777,1744,1711,1678,1646,1672,1671,1549,1516,1484,1452,1476,1387,1353,1321,1288,1256,1224,1191,1049,960,859,708,693,692,696,699,696,699,705,707,707,703,707,711,707,711,707,704,711,714,711,719,716,718,717,712,712,716,716,714,706,714,708,815,809,819,826,882,1325,1783,1955,2070,2109,2096,2072,2030,1993,1963,1927,1882,1830,1808,1772,1736,1731,1663,1625,1587,1549,1512,1476,1292,1195,1019,983,882,860,828,827,823,819,820,824,830,823,823,834,838,830,849,838,826,833,825,850,861,834,837,840,833,863,831,833,836,849,840,831,828,0,0,0,0,0,0,0,0,0,0,0,0,0,0,0,0,0,0,0,0,0,0,0,0,0,0,0,0,0,0,0,0,0,0,0,0,0,0,0,0,0,0,0,0,0,0,0,0,0,0,0,0,0,0,0,0,0,0,0,0,0,0,0,0,0,891,899,903,956,999,1507,1802,2027,2111,2192,2179,2145,2132,2076,2089,2020,1971,1936,1922,1867,1844,1796,1762,1747,1693,1658,1624,1632,1505,1332,1010,972,950,944,912,929,962,941,915,912,908,933,939,930,925,949,937,928,924,937,938,928,917,921,931,935,927,925,917,926,928,935,935,935,935,931,935,938,1017,986,1776,2064,2241,2379,2409,2401,2325,2284,2242,2228,2186,2207,2191,2058,2032,1987,1928,1951,1850,1797,1777,1724,1661,1448,1221,1027,1011,1012,965,937,947,952,956,963,954,972,969,964,965,972,976,983,988,965,981,968,1006,976,988,988,1006,981,980,981,987,995,977,976,972,971,922,933,912,945,1129,1727,2041,2192,2317,2380,2365,2325,2281,2239,2167,2134,2105,2039,2029,1980,1945,1865,1832,1801,1760,1726,1686,1658,1414,1175,1164,1020,997,951,937,920,927,909,905,903,903,914,914,909,908,933,903,911,908,907,909,930,917,911,938,915,917,916,932,936,911,913,912,913,907,1031,1040,1038,1114,1176,1704,2127,2306,2447,2514,2498,2464,2444,2383,2342,2302,2261,2241,2179,2140,2100,2060,2025,1984,1944,1902,1785,1770,1501,1325,1221,1110,1096,1079,1067,1052,1016,1023,997,1003,1008,1013,1017,1012,1012,1022,1009,1011,1011,1016,1017,1027,1017,1017,1022,1026,1023,1024,1019,1018,1020,1019,1019,1019,1019,524,525,537,521,542,796,1098,1237,1347,1444,1424,1399,1372,1346,1320,1293,1284,1242,1215,1189,1148,1124,1111,1084,1058,1033,1006,1003,954,928,792,622,604,548,534,532,536,529,525,532,521,518,545,522,536,533,535,527,546,544,534,543,552,555,548,525,548,547,582,551,535,552,544,533,532,823,777,780,790,889,1433,1770,2002,1990,2037,2107,1990,1954,1995,1942,1846,1810,1774,1740,1704,1668,1632,1687,1602,1524,1443,1409,1380,1344,1204,929,896,824,803,812,788,792,795,809,804,797,808,818,814,815,817,821,823,823,826,828,835,832,833,874,834,830,834,835,834,827,843,828,844,822,708,709,712,732,799,1300,1515,1711,1834,1884,1875,1842,1808,1774,1740,1706,1682,1645,1621,1572,1538,1504,1485,1437,1404,1370,1336,1303,1269,1236,924,897,886,735,720,719,723,713,708,711,710,722,719,715,719,738,709,715,712,712,713,748,724,721,741,722,719,718,742,743,715,718,721,723,717,685,670,688,674,720,1072,1403,1578,1694,1750,1745,1715,1688,1661,1631,1602,1572,1533,1515,1453,1437,1428,1397,1341,1312,1281,1251,1250,1205,1092,952,868,732,696,682,708,681,658,654,661,650,647,659,651,663,662,664,656,664,665,663,663,681,659,669,654,667,676,663,661,664,681,667,662,661,918,896,898,904,1107,1702,1974,2226,2271,2315,2299,2255,2217,2182,2196,2102,2060,2019,1979,1938,1888,1854,1857,1777,1729,1698,1694,1646,1431,1352,1052,970,944,917,909,908,877,881,872,869,875,879,882,879,879,880,881,889,885,888,889,898,896,893,928,898,900,898,903,900,901,903,902,903,897,1097,1075,1076,1084,1255,2103,2409,2651,2684,2719,2700,2652,2602,2564,2570,2472,2425,2378,2329,2285,2237,2186,2190,2094,2053,2007,1992,1719,1595,1356,1203,1152,1124,1103,1090,1088,1049,1053,1044,1040,1046,1060,1057,1068,1054,1071,1062,1073,1066,1062,1065,1077,1075,1068,1100,1077,1073,1078,1078,1091,1073,1075,1074,1075,1069,616,618,620,621,645,1086,1276,1453,1581,1636,1620,1603,1574,1516,1504,1486,1458,1514,1399,1345,1341,1312,1282,1254,1225,1196,1167,1137,1108,1080,1028,993,806,642,628,625,628,632,624,619,621,622,631,625,628,629,631,637,632,644,651,641,638,648,644,639,640,644,658,660,710,720,720,720,720,210,211,212,212,213,334,379,423,469,513,529,520,512,504,495,487,478,470,462,453,445,436,428,420,411,402,393,385,376,368,360,351,343,334,326,214,214,322,199,197,198,200,199,198,198,201,197,200,200,200,200,200,200,199,199,200,200,201,200,198,200,198,199,199,198,791,793,796,836,858,1197,1585,1740,1866,1928,1961,1900,1898,1839,1808,1786,1747,1722,1685,1658,1629,1592,1563,1531,1500,1474,1444,1417,1263,903,882,898,841,850,811,811,836,839,798,804,809,815,809,817,803,815,813,816,813,811,821,827,828,830,823,817,820,821,814,816,822,828,828,828,828,433,435,436,450,456,499,769,878,971,1042,1063,1047,1030,1030,997,979,962,946,944,912,896,878,862,844,828,824,795,777,761,627,461,601,500,466,456,452,453,433,394,396,397,392,391,398,398,395,397,400,400,393,396,400,397,401,402,401,399,399,400,402,400,399,399,399,399,927,905,907,914,1124,1721,1995,2248,2291,2335,2319,2275,2237,2202,2215,2120,2080,2038,1997,1954,1906,1871,1874,1794,1744,1714,1684,1571,1403,1312,1067,986,953,926,917,917,877,881,872,869,875,879,882,879,879,880,881,889,885,888,889,898,896,893,928,898,900,898,903,900,901,903,902,903,897,1424,1426,1438,1521,1920,2957,3285,3396,3487,3512,3448,3405,3326,3291,3208,3191,3140,3044,3015,2877,2746,2438,2372,2090,1917,1723,1718,1648,1605,1636,1592,1504,1470,1455,1445,1433,1425,1407,1403,1401,1401,1412,1412,1407,1406,1431,1401,1409,1406,1405,1407,1428,1415,1409,1436,1413,1415,1414,1430,1434,1409,1411,1410,1411,1405,692,694,696,708,742,1097,1323,1472,1602,1664,1675,1650,1626,1598,1573,1547,1520,1494,1469,1442,1417,1391,1365,1338,1313,1287,1261,1236,1209,1184,1012,757,740,724,712,710,712,714,684,695,673,673,693,693,685,686,688,694,708,698,704,707,711,706,717,712,709,704,737,713,708,711,700,711,703,526,528,544,544,550,640,990,1101,1210,1267,1268,1249,1228,1234,1196,1174,1152,1131,1132,1110,1078,1054,1035,1015,996,999,946,972,910,807,790,647,639,623,541,539,540,533,527,514,522,529,517,524,522,528,526,523,526,518,521,519,520,524,526,525,520,519,521,519,523,523,523,523,516,642,633,643,642,650,960,1221,1363,1490,1562,1564,1540,1515,1485,1465,1440,1428,1390,1365,1340,1315,1300,1252,1228,1203,1171,1147,1120,1048,935,906,739,677,661,659,641,649,656,622,626,629,632,633,637,634,644,637,643,640,636,638,640,645,656,645,642,647,641,643,652,644,651,641,651,651,230,231,232,232,233,335,410,457,505,554,579,570,561,552,542,532,524,514,505,495,487,477,468,458,450,440,430,422,412,403,393,388,375,327,318,233,318,319,203,203,204,207,209,209,207,208,205,208,207,209,210,229,215,214,208,208,213,207,210,226,207,209,207,211,211,836,838,840,858,954,1475,1670,1854,1975,2041,2035,2006,1970,1938,1909,1880,1840,1808,1776,1747,1711,1678,1646,1616,1592,1549,1516,1484,1461,1146,1038,981,881,864,919,848,850,852,863,843,848,847,844,867,852,863,861,873,868,866,871,873,870,871,877,869,861,873,871,866,864,864,864,864,864,0,0,0,0,0,0,0,0,0,0,0,0,0,0,0,0,0,0,0,0,0,0,0,0,0,0,0,0,0,0,0,0,0,0,0,0,0,0,0,0,0,0,0,0,0,0,0,0,0,0,0,0,0,0,0,0,0,0,0,0,0,0,0,0,0,821,823,819,832,838,1242,1631,1796,1944,1977,1997,1966,1929,1877,1843,1836,1782,1750,1752,1708,1674,1649,1602,1569,1531,1518,1492,1450,1214,1203,1104,921,864,846,844,833,840,824,799,798,798,804,815,808,812,823,809,811,813,810,810,813,817,823,815,810,842,811,817,814,811,816,839,817,817,596,599,600,603,632,916,1128,1274,1394,1460,1464,1446,1417,1394,1376,1356,1340,1302,1290,1255,1231,1228,1185,1161,1152,1116,1103,1064,979,1022,916,771,648,633,617,606,608,608,587,587,592,591,594,596,599,600,595,596,595,595,595,600,599,601,598,598,600,596,595,603,597,597,594,601,601,255,255,261,256,256,355,459,512,571,621,633,625,615,604,595,585,574,565,554,544,535,524,514,504,494,484,474,464,452,444,388,379,370,361,281,258,258,259,235,224,223,223,229,231,229,227,227,230,242,231,232,235,236,236,225,230,236,236,242,242,228,230,244,226,225,651,655,654,660,659,925,1241,1410,1551,1587,1599,1565,1546,1509,1490,1470,1431,1412,1390,1358,1334,1313,1294,1267,1237,1219,1164,1162,1106,907,808,730,731,691,673,664,665,644,606,608,609,613,615,614,618,613,620,617,619,619,618,620,622,622,622,625,623,622,622,625,625,621,626,620,620,366,366,369,364,366,469,659,742,819,891,899,885,872,857,838,837,814,799,784,770,753,742,733,714,699,682,677,663,649,633,533,520,511,470,428,366,427,387,336,337,331,333,344,347,341,346,339,348,342,345,348,350,349,351,348,344,347,344,355,353,348,352,350,350,350,525,525,528,542,535,730,981,1096,1220,1290,1297,1282,1255,1234,1213,1192,1172,1153,1143,1110,1090,1089,1048,1027,1008,985,964,940,872,902,763,675,560,547,554,555,533,535,513,515,514,520,521,522,521,541,520,523,524,517,518,523,523,527,521,520,523,521,526,526,518,522,518,524,524,501,502,503,500,503,616,903,1000,1095,1178,1183,1169,1147,1130,1112,1107,1081,1059,1045,1026,1005,987,975,952,933,916,892,888,858,727,707,668,621,609,506,503,504,505,465,463,464,466,465,469,469,471,470,471,472,471,472,473,474,475,478,477,476,477,478,479,477,477,477,477,477,378,379,381,381,383,496,681,763,850,926,943,929,915,900,884,869,853,840,820,806,790,775,764,746,730,716,700,688,672,655,574,528,442,431,387,384,388,372,351,352,353,358,359,360,360,359,356,361,362,357,359,361,359,363,359,360,360,356,360,366,358,363,360,360,358,560,565,568,576,580,777,1044,1166,1321,1391,1392,1386,1334,1318,1291,1293,1252,1230,1203,1201,1173,1158,1129,1112,1088,1050,1047,1022,1004,980,816,747,617,586,582,579,581,572,549,538,537,537,543,545,543,541,541,544,565,545,546,549,550,550,539,544,550,550,562,567,542,544,562,540,539,873,874,878,879,900,1418,1784,1976,2090,2145,2147,2111,2060,2034,1990,1966,1921,1893,1859,1825,1790,1750,1723,1681,1658,1618,1572,1554,1360,1167,1018,1001,916,914,887,884,888,889,844,847,851,852,856,860,853,856,850,848,851,850,877,862,863,867,865,883,857,878,878,872,876,861,861,864,864,770,790,781,798,836,1364,1549,1718,1843,1909,1907,1878,1842,1818,1786,1756,1707,1676,1646,1633,1604,1556,1526,1507,1483,1452,1421,1384,1361,1316,1011,947,816,804,804,788,765,774,778,775,776,782,787,784,782,792,786,787,794,793,788,793,808,799,789,790,795,789,783,798,789,789,789,789,786,364,366,367,368,369,418,642,698,730,771,784,775,765,756,746,736,727,717,729,698,688,697,686,675,664,654,643,633,622,534,522,511,504,415,370,369,370,371,363,356,360,361,352,375,362,364,365,368,408,365,364,364,363,408,403,365,360,370,363,368,368,363,365,412,368,816,829,816,835,924,1432,1648,1803,1926,1994,1977,1946,1924,1917,1886,1854,1821,1766,1735,1725,1663,1640,1609,1597,1566,1533,1501,1322,1189,1202,986,974,949,839,843,839,819,806,826,823,822,828,831,842,828,829,828,835,824,831,829,835,833,828,838,839,834,834,830,843,841,842,842,842,842,387,389,390,391,393,512,699,782,871,948,964,946,935,920,904,888,873,859,840,824,808,793,781,763,747,732,717,704,690,671,590,542,457,445,396,394,396,372,351,352,353,358,359,360,360,359,356,361,362,357,359,361,359,363,359,360,360,356,360,366,358,363,360,360,358,1104,1106,1113,1119,1205,1958,2361,2516,2626,2654,2640,2604,2558,2511,2494,2453,2404,2349,2325,2271,2217,2199,2138,2096,2065,1917,1715,1548,1516,1228,1203,1200,1160,1146,1128,1128,1108,1106,1085,1085,1090,1089,1092,1094,1097,1098,1093,1094,1093,1093,1093,1098,1097,1099,1096,1096,1098,1094,1093,1101,1095,1095,1092,1099,1099,526,528,544,544,550,640,990,1101,1210,1267,1268,1249,1228,1234,1196,1174,1152,1131,1132,1110,1078,1054,1035,1015,996,999,946,972,910,807,790,647,639,623,541,539,540,533,527,514,522,529,517,524,522,528,526,523,526,518,521,519,520,524,526,525,520,519,521,519,523,523,523,523,516,910,912,914,919,983,1415,1933,2085,2177,2207,2198,2222,2189,2093,2058,2019,1996,1964,1928,1890,1854,1809,1785,1750,1714,1679,1643,1656,1413,1069,1036,1028,961,936,925,922,918,868,860,852,854,854,861,860,861,860,861,865,873,871,874,873,873,875,878,875,876,883,889,897,881,879,901,920,892,428,430,431,432,434,638,815,902,989,1056,1065,1049,1034,1017,1001,983,966,950,933,918,895,885,870,854,837,820,711,696,682,666,652,638,640,450,442,435,436,436,399,401,407,416,401,403,401,404,407,402,404,403,404,405,403,405,411,408,406,410,406,412,409,427,427,427,427,596,606,600,603,605,716,1172,1305,1439,1473,1472,1468,1443,1418,1395,1369,1345,1323,1297,1272,1250,1213,1192,1184,1146,1137,1115,1000,950,978,808,749,655,632,617,614,618,557,545,537,540,566,571,553,567,560,592,565,557,568,575,560,580,564,551,586,552,568,569,567,577,572,565,559,553,898,901,903,907,951,1584,2025,2192,2317,2352,2322,2282,2253,2212,2169,2128,2086,2045,2002,1961,1919,1868,1835,1794,1752,1711,1665,1627,1548,1315,1000,990,963,948,923,911,922,928,885,884,893,903,903,907,892,904,903,919,913,901,917,923,933,931,912,921,914,924,915,916,918,937,922,936,933,748,751,752,753,763,1180,1506,1680,1780,1831,1826,1796,1767,1737,1710,1681,1650,1623,1596,1563,1539,1514,1482,1452,1423,1358,1365,1301,1280,1162,1012,899,792,776,767,760,768,731,720,717,725,741,760,743,738,739,769,743,739,753,757,745,759,745,733,756,732,749,746,747,756,752,746,731,725,0,0,0,0,0,0,0,0,0,0,0,0,0,0,0,0,0,0,0,0,0,0,0,0,0,0,0,0,0,0,0,0,0,0,0,0,0,0,0,0,0,0,0,0,0,0,0,0,0,0,0,0,0,0,0,0,0,0,0,0,0,0,0,0,0,313,314,316,316,317,508,574,640,706,764,777,765,753,741,728,716,704,692,679,667,655,643,631,618,606,610,582,568,556,544,532,520,507,495,322,318,319,320,304,301,303,304,303,304,303,303,301,303,303,304,301,303,309,308,303,301,304,303,303,303,304,304,301,303,301,734,744,719,729,795,1198,1426,1621,1743,1773,1782,1755,1686,1693,1664,1642,1592,1618,1560,1538,1475,1507,1412,1407,1353,1363,1262,1201,1167,855,834,772,778,736,742,787,751,739,706,700,704,731,733,721,728,724,732,734,734,734,730,732,738,737,724,730,733,732,732,731,733,733,730,728,722,647,643,637,640,668,1016,1275,1431,1545,1562,1580,1685,1683,1495,1470,1444,1420,1395,1370,1329,1305,1296,1270,1245,1220,1182,1170,1258,1120,1095,995,818,680,664,653,657,659,631,626,616,619,624,630,626,630,625,634,632,643,637,640,641,645,645,645,645,644,653,662,668,654,646,652,660,653,518,520,520,522,525,588,992,1102,1227,1284,1277,1266,1247,1216,1200,1179,1159,1142,1121,1098,1077,1057,1036,1016,996,985,956,945,915,904,726,630,555,553,530,526,527,526,508,503,503,503,510,510,513,514,527,514,509,510,532,518,526,515,512,537,512,530,511,512,522,514,510,511,505,281,282,283,284,285,456,517,577,638,692,705,694,684,672,661,649,638,626,615,604,592,582,570,559,547,536,525,513,502,490,480,469,457,446,391,354,385,385,273,273,273,274,273,276,276,278,277,300,279,278,279,280,280,279,280,283,280,284,280,283,283,284,284,285,285,657,611,612,615,634,841,1173,1303,1408,1458,1459,1541,1517,1392,1370,1347,1398,1392,1281,1338,1330,1214,1192,1170,1148,1125,1104,1086,997,1036,804,777,760,632,620,618,620,621,628,608,613,612,614,622,614,620,616,626,636,633,628,634,635,651,635,640,628,638,640,640,642,640,661,663,646,506,510,510,512,515,686,962,1082,1191,1252,1255,1234,1216,1196,1174,1154,1135,1117,1097,1076,1057,1034,1016,996,976,957,937,915,895,839,705,690,633,531,520,517,518,483,470,464,465,466,473,470,472,473,488,472,471,471,499,480,487,474,471,496,471,490,472,472,481,472,467,468,462,552,562,555,557,572,940,1062,1174,1298,1352,1356,1334,1312,1291,1269,1249,1218,1228,1219,1182,1141,1130,1098,1076,1054,1033,1011,990,968,946,925,751,588,573,580,590,601,603,549,548,548,549,548,549,548,548,546,548,548,549,546,548,554,553,548,546,549,548,548,548,549,549,546,548,546,854,857,864,866,941,1384,1886,1995,2084,2121,2109,2177,2102,2004,1963,1935,1889,1865,1830,1796,1758,1790,1696,1663,1628,1594,1564,1582,1317,1202,1172,925,898,884,874,872,870,876,872,880,876,893,883,885,886,896,883,901,885,878,913,891,894,893,896,915,909,909,913,885,905,928,892,892,892,1042,1045,1051,1059,1132,1914,2391,2546,2654,2689,2653,2606,2563,2524,2478,2429,2384,2340,2291,2243,2198,2140,2101,2054,2009,1963,1914,1689,1460,1339,1150,1208,1108,1093,1067,1069,1038,1043,1011,1011,1020,1035,1020,1016,1030,1040,1022,1022,1024,1024,1025,1030,1035,1038,1039,1027,1032,1031,1059,1052,1032,1069,1052,1054,1052,957,960,962,984,1025,1480,1996,2187,2284,2348,2296,2277,2238,2204,2157,2128,2093,2070,2016,1988,1943,1910,1880,1870,1794,1707,1617,1493,1440,1280,1083,1039,1029,996,980,975,973,947,938,946,943,954,944,946,952,963,953,948,951,974,975,970,950,952,952,952,950,949,942,950,945,971,971,976,945,1227,1230,1233,1268,1374,2318,2833,2975,3075,3104,3061,3007,2957,2911,2857,2801,2756,2705,2649,2594,2541,2476,2430,2288,2023,1771,1727,1699,1572,1392,1377,1335,1297,1278,1254,1225,1223,1226,1193,1194,1203,1223,1204,1199,1215,1229,1214,1213,1220,1211,1246,1225,1254,1227,1230,1254,1226,1229,1253,1241,1247,1257,1242,1244,1242,515,519,520,521,530,702,980,1102,1213,1274,1276,1256,1236,1216,1195,1174,1154,1136,1115,1096,1076,1052,1035,1013,993,974,954,882,835,816,692,678,552,540,529,526,528,483,470,464,465,466,473,470,472,473,488,472,471,471,499,480,487,474,471,496,471,490,472,472,481,472,467,468,462,638,642,632,647,651,969,1220,1405,1482,1591,1532,1544,1568,1470,1434,1419,1394,1371,1355,1342,1360,1296,1309,1224,1257,1208,1149,1125,1154,1086,1072,827,667,684,640,669,639,670,643,639,644,652,652,653,650,652,650,652,652,652,650,649,648,652,652,650,653,652,647,652,653,653,650,652,650,910,912,914,919,983,1415,1933,2085,2177,2207,2198,2222,2189,2093,2058,2019,1996,1964,1928,1890,1854,1809,1785,1750,1714,1679,1643,1656,1413,1069,1036,1028,961,936,925,922,918,868,860,852,854,854,861,860,861,860,861,865,873,871,874,873,873,875,878,875,876,883,889,897,881,879,901,920,892,852,879,884,885,925,1316,1801,1939,2063,2102,2089,2065,2033,1980,1947,1921,1881,1825,1826,1785,1756,1718,1685,1657,1619,1587,1530,1438,1296,1184,989,1018,941,876,891,886,880,870,810,810,810,810,810,810,810,810,810,810,810,810,810,810,810,810,810,810,810,810,810,810,810,810,810,810,810,535,534,539,552,547,705,1010,1140,1261,1317,1321,1300,1279,1259,1237,1202,1197,1176,1152,1131,1115,1089,1071,1054,1032,919,903,886,867,848,828,734,630,557,546,543,544,539,501,501,501,501,501,501,501,501,501,501,501,501,501,501,501,501,501,501,501,501,501,501,501,501,501,501,501,506,521,523,521,529,617,999,1109,1231,1304,1279,1254,1248,1213,1227,1179,1167,1146,1125,1070,1066,1060,1032,1009,1004,983,956,902,804,579,681,694,556,545,533,541,540,478,418,418,418,418,418,418,418,418,418,418,418,418,418,418,418,418,418,418,418,418,418,418,418,418,418,418,418,981,965,988,1008,1082,1616,2236,2436,2514,2508,2505,2409,2361,2379,2373,2296,2264,2151,2108,2087,2070,2048,1958,1928,1877,1821,1778,1740,1435,1330,1086,1072,1012,1034,1000,997,992,996,985,985,985,985,985,985,985,985,985,985,985,985,985,985,985,985,985,985,985,985,985,985,985,985,985,985,985,631,631,633,636,671,771,1240,1385,1521,1546,1548,1533,1519,1470,1446,1426,1431,1371,1369,1344,1291,1294,1266,1229,1218,1200,1202,1144,1022,909,879,688,686,666,654,666,646,650,580,580,580,580,580,580,580,580,580,580,580,580,580,580,580,580,580,580,580,580,580,580,580,580,580,580,580,463,464,477,479,487,740,899,1003,1105,1164,1145,1152,1134,1087,1096,1077,984,1040,1022,952,965,943,948,930,910,892,873,855,836,734,799,675,511,471,485,481,483,484,468,468,468,468,468,468,468,468,468,468,468,468,468,468,468,468,468,468,468,468,468,468,468,468,468,468,468,0,0,0,0,0,0,0,0,0,0,0,0,0,0,0,0,0,0,0,0,0,0,0,0,0,0,0,0,0,0,0,0,0,0,0,0,0,0,0,0,0,0,0,0,0,0,0,0,0,0,0,0,0,0,0,0,0,0,0,0,0,0,0,0,0,472,471,475,489,496,704,923,1025,1098,1185,1194,1184,1124,1106,1122,1095,1050,1071,1014,999,1013,957,968,957,902,884,892,847,821,835,755,793,619,547,482,476,478,474,459,459,459,459,459,459,459,459,459,459,459,459,459,459,459,459,459,459,459,459,459,459,459,459,459,459,459,707,713,709,719,756,1084,1408,1591,1707,1778,1742,1707,1686,1694,1660,1575,1626,1538,1519,1481,1457,1436,1408,1366,1333,1287,1292,1261,1067,1121,799,802,759,754,719,721,716,699,694,694,694,694,694,694,694,694,694,694,694,694,694,694,694,694,694,694,694,694,694,694,694,694,694,694,694,426,439,441,441,445,579,830,899,1015,1091,1088,1065,1059,1030,1014,997,979,967,948,904,921,867,876,859,841,824,811,774,778,733,580,634,566,446,447,444,445,446,400,400,400,400,400,400,400,400,400,400,400,400,400,400,400,400,400,400,400,400,400,400,400,400,400,400,400,389,389,390,404,406,558,725,810,895,957,966,950,934,919,903,888,872,856,842,826,811,795,780,764,748,733,717,703,687,672,656,640,416,406,396,406,407,408,376,376,376,376,376,376,376,376,376,376,376,376,376,376,376,376,376,376,376,376,376,376,376,376,376,376,376,570,598,601,605,601,883,1100,1229,1320,1383,1371,1351,1332,1311,1291,1275,1250,1204,1192,1166,1173,1148,1128,1107,1087,1066,1021,1027,987,997,738,789,746,592,612,599,600,612,568,568,568,568,568,568,568,568,568,568,568,568,568,568,568,568,568,568,568,568,568,568,568,568,568,568,568,328,329,330,331,332,433,608,680,751,823,822,810,793,843,838,811,740,727,714,700,688,678,662,649,636,622,609,596,583,570,537,527,368,345,336,345,347,335,268,268,268,268,268,268,268,268,268,268,268,268,268,268,268,268,268,268,268,268,268,268,268,268,268,268,268,308,312,312,313,314,390,565,629,694,754,766,754,742,730,718,705,693,681,669,657,645,633,621,609,597,585,573,560,548,536,524,512,500,338,330,313,314,329,288,288,288,288,288,288,288,288,288,288,288,288,288,288,288,288,288,288,288,288,288,288,288,288,288,288,288,922,924,929,932,1000,1391,1989,2165,2255,2283,2258,2222,2166,2178,2157,2073,2101,1999,1970,1933,1896,1881,1821,1772,1731,1680,1673,1647,1376,1054,1040,1031,965,975,940,936,939,944,928,928,928,928,928,928,928,928,928,928,928,928,928,928,928,928,928,928,928,928,928,928,928,928,928,928,928,1125,1110,1132,1151,1412,1956,2592,2753,2852,2844,2830,2734,2684,2692,2684,2597,2560,2441,2397,2374,2322,2314,2224,2189,2128,2056,1887,1624,1302,1299,1235,1217,1157,1180,1145,1125,1110,1113,1113,1113,1113,1113,1113,1113,1113,1113,1113,1113,1113,1113,1113,1113,1113,1113,1113,1113,1113,1113,1113,1113,1113,1113,1113,1113,1113,878,880,883,902,924,1331,1846,2000,2107,2137,2124,2086,2050,2030,2029,1946,1931,1919,1874,1806,1783,1720,1743,1727,1646,1591,1520,1321,1303,1141,998,974,930,902,918,893,913,889,832,832,832,832,832,832,832,832,832,832,832,832,832,832,832,832,832,832,832,832,832,832,832,832,832,832,832,1245,1248,1256,1366,1479,2355,2951,3078,3155,3152,3120,3063,3016,2969,2912,2849,2809,2758,2692,2645,2596,2540,2289,2138,2033,1963,1887,1706,1433,1399,1362,1327,1300,1286,1267,1266,1273,1287,1239,1239,1239,1239,1239,1239,1239,1239,1239,1239,1239,1239,1239,1239,1239,1239,1239,1239,1239,1239,1239,1239,1239,1239,1239,1239,1239,336,338,339,339,342,413,602,671,742,814,839,825,815,806,792,778,761,748,735,720,708,697,681,668,655,639,626,613,601,585,551,542,384,358,349,350,351,350,254,254,254,254,254,254,254,254,254,254,254,254,254,254,254,254,254,254,254,254,254,254,254,254,254,254,254,530,528,516,532,539,609,983,1129,1207,1298,1302,1285,1260,1258,1236,1197,1177,1153,1131,1114,1093,1077,1052,1051,1010,990,969,945,927,907,630,591,616,561,536,539,577,537,498,498,498,498,498,498,498,498,498,498,498,498,498,498,498,498,498,498,498,498,498,498,498,498,498,498,498,852,879,884,885,925,1316,1801,1939,2063,2102,2089,2065,2033,1980,1947,1921,1881,1825,1826,1785,1756,1718,1685,1657,1619,1587,1530,1438,1296,1184,989,1018,941,876,891,886,880,870,810,810,810,810,810,810,810,810,810,810,810,810,810,810,810,810,810,810,810,810,810,810,810,810,810,810,810,577,579,580,584,602,755,1085,1173,1288,1366,1381,1359,1338,1327,1296,1275,1255,1233,1213,1192,1173,1150,1135,1114,1087,1066,1045,1024,1009,983,889,765,767,599,635,585,587,580,549,542,546,550,555,553,556,551,557,569,556,552,568,563,561,551,549,570,556,574,549,551,577,577,577,577,577,654,652,654,661,671,970,1278,1422,1545,1597,1600,1591,1567,1541,1511,1483,1456,1437,1410,1395,1362,1320,1306,1280,1240,1207,1183,1158,1129,969,939,769,710,690,681,673,674,677,607,599,604,605,600,630,604,628,623,606,628,607,610,610,606,614,607,607,610,615,608,608,609,612,609,616,611,249,251,252,252,252,383,445,496,548,600,628,618,608,598,592,578,567,558,548,537,528,522,507,502,487,476,468,456,438,431,420,414,400,391,257,253,254,255,219,217,220,224,225,226,225,225,225,225,227,228,229,252,234,230,224,227,231,224,222,232,225,225,225,225,225,955,958,961,967,1039,1590,1936,2157,2294,2383,2368,2325,2289,2254,2225,2179,2142,2101,2070,2028,1999,1952,1915,1878,1844,1801,1761,1623,1397,1183,1100,1028,1007,1007,972,966,970,982,917,922,936,930,944,943,959,946,937,964,934,936,933,942,949,949,946,948,939,937,933,948,949,949,949,949,949,184,184,185,186,186,280,330,407,405,442,459,511,502,438,430,478,470,409,402,394,437,380,373,366,358,351,344,337,328,321,314,307,300,330,281,252,253,253,176,178,177,178,178,179,179,180,180,180,180,180,181,181,184,184,184,184,184,184,186,185,185,185,186,187,187,741,744,740,737,760,1309,1510,1633,1767,1787,1808,1768,1746,1696,1666,1662,1619,1590,1557,1562,1533,1474,1445,1417,1386,1360,1329,1318,1240,977,954,930,784,765,755,752,754,743,723,718,721,731,734,751,736,759,753,732,756,733,736,741,736,746,759,761,744,745,737,728,734,736,756,745,735,472,474,475,469,478,768,905,1008,1088,1159,1168,1148,1143,1110,1076,1074,1063,1018,1017,997,975,961,928,909,894,875,857,850,818,801,795,717,505,493,553,472,480,474,468,459,467,465,466,497,475,501,497,490,499,475,476,478,473,506,493,475,479,479,471,476,477,483,474,500,478,0,0,0,0,0,0,0,0,0,0,0,0,0,0,0,0,0,0,0,0,0,0,0,0,0,0,0,0,0,0,0,0,0,0,0,0,0,0,0,0,0,0,0,0,0,0,0,0,0,0,0,0,0,0,0,0,0,0,0,0,0,0,0,0,0,671,680,682,679,684,935,1276,1455,1594,1666,1659,1636,1609,1575,1537,1534,1501,1466,1455,1411,1386,1370,1351,1311,1306,1263,1241,1197,1184,956,849,736,732,716,691,689,690,671,627,629,625,636,638,637,641,636,643,640,641,641,641,648,643,644,642,646,644,640,634,641,645,645,645,645,645,386,388,389,390,391,461,694,781,862,938,961,940,930,915,899,886,869,853,838,823,808,789,775,762,746,730,716,700,580,668,496,485,489,408,397,392,393,395,352,351,347,350,360,364,359,363,359,365,362,364,367,370,368,367,364,363,365,361,367,366,366,366,366,366,366,541,542,549,546,548,771,1039,1153,1267,1337,1343,1331,1308,1286,1259,1235,1220,1197,1174,1158,1134,1111,1088,1065,1042,1021,1000,978,953,856,836,710,663,566,572,560,561,563,498,489,494,495,490,515,494,525,506,496,512,497,500,500,497,505,497,497,500,505,498,498,499,502,499,506,501,522,522,524,525,528,704,938,1039,1138,1226,1243,1224,1204,1186,1167,1156,1130,1112,1099,1079,1056,1036,1018,998,983,961,946,925,906,807,790,740,671,578,531,529,529,531,486,484,486,489,488,493,492,494,493,492,494,492,495,501,499,497,498,498,498,496,497,502,497,497,497,497,497,233,234,235,235,236,373,423,472,522,570,584,590,579,556,547,537,537,519,510,510,500,482,472,463,454,445,435,426,416,408,398,388,379,370,320,236,237,238,232,223,228,229,224,256,228,259,255,230,256,231,234,234,231,239,231,231,234,239,232,232,233,236,233,240,235,445,426,431,429,437,590,831,896,1004,1058,1051,1078,1017,1000,985,981,968,934,908,907,890,859,850,835,818,801,795,768,742,745,717,633,542,451,435,432,453,440,432,426,429,431,428,443,430,440,438,432,448,434,435,436,432,441,433,432,436,440,433,434,434,438,434,442,436,893,894,898,904,951,1388,1849,2015,2133,2191,2195,2151,2116,2090,2054,2025,1970,1945,1914,1878,1836,1799,1763,1726,1700,1655,1628,1591,1368,1244,1131,964,953,949,912,909,909,916,860,861,873,875,872,877,871,873,870,865,871,869,896,883,882,883,881,904,875,895,894,885,896,896,896,896,896,913,917,938,944,996,1479,1812,2045,2162,2241,2239,2203,2163,2135,2082,2050,2023,1987,1960,1912,1883,1838,1812,1777,1736,1706,1664,1535,1319,1143,1038,1053,960,960,948,927,918,921,887,891,895,901,905,903,902,918,912,909,919,912,919,919,927,923,909,911,916,912,902,919,910,910,910,910,910,500,501,501,504,540,582,908,1010,1158,1165,1172,1156,1176,1124,1106,1093,1099,1062,1044,1048,1060,1015,986,1020,984,948,930,871,796,778,766,729,589,576,508,528,532,531,483,487,486,501,490,499,489,496,493,490,493,491,491,502,499,498,496,502,500,498,502,503,499,499,499,499,499,921,925,924,936,1018,1547,1913,2134,2272,2336,2343,2269,2241,2242,2164,2127,2101,2060,2021,1980,1945,1925,1888,1856,1796,1759,1682,1322,1225,1210,1028,995,969,947,938,937,943,950,937,949,949,953,959,970,962,975,954,970,962,969,957,963,987,975,974,988,969,985,972,965,963,963,963,963,963,243,243,244,244,245,388,440,492,544,592,607,612,600,578,567,558,558,538,529,530,518,500,490,481,471,462,452,442,433,423,414,404,393,384,335,246,252,253,232,223,228,229,224,243,228,245,241,230,242,231,234,234,231,239,231,231,234,239,232,232,233,236,233,240,235,980,987,989,995,1087,1756,2101,2258,2328,2355,2364,2323,2299,2259,2209,2187,2154,2094,2059,2019,1979,1955,1905,1864,1830,1790,1633,1406,1374,1232,1076,1159,1021,1009,986,995,994,972,966,957,965,963,964,991,973,999,995,984,992,973,974,976,971,994,986,973,977,977,969,974,975,981,972,995,976,577,579,580,584,602,755,1085,1173,1288,1366,1381,1359,1338,1327,1296,1275,1255,1233,1213,1192,1173,1150,1135,1114,1087,1066,1045,1024,1009,983,889,765,767,599,635,585,587,580,549,542,546,550,555,553,556,551,557,569,556,552,568,563,561,551,549,570,556,574,549,551,577,577,577,577,577,336,336,337,339,340,366,619,685,755,822,844,831,817,803,790,778,754,750,737,724,711,698,685,671,658,644,630,618,604,591,579,371,362,353,344,340,341,342,289,289,289,289,289,289,289,289,289,289,289,289,289,289,289,289,289,289,289,289,289,289,289,289,289,289,289,500,500,503,504,517,628,925,1034,1142,1222,1237,1218,1198,1178,1159,1138,1119,1100,1080,1060,1048,1021,1000,996,962,942,922,902,883,864,692,613,581,523,520,508,518,519,469,469,473,477,476,478,474,478,476,478,476,475,476,476,478,480,479,481,481,478,481,482,478,504,475,481,480,392,393,393,394,400,491,648,805,888,940,955,945,930,916,903,900,884,864,853,837,824,811,790,774,758,742,669,657,644,621,588,502,422,412,402,399,400,400,308,308,308,308,308,308,308,308,308,308,308,308,308,308,308,308,308,308,308,308,308,308,308,308,308,308,308,431,432,434,433,440,707,833,959,1087,1191,1206,1183,1172,1138,1116,1093,1070,1047,1024,1002,979,956,933,919,888,866,843,810,798,775,742,729,649,598,441,439,442,444,426,424,428,431,426,437,430,433,430,436,448,429,429,433,432,440,434,435,435,432,434,434,435,436,431,453,436,613,612,612,616,632,885,1082,1316,1428,1486,1483,1492,1440,1430,1411,1386,1366,1344,1322,1282,1272,1240,1237,1198,1164,1145,1106,1050,975,951,688,664,682,632,621,619,639,635,521,521,521,521,521,521,521,521,521,521,521,521,521,521,521,521,521,521,521,521,521,521,521,521,521,521,521,746,750,749,752,787,1095,1462,1607,1738,1834,1808,1803,1750,1746,1719,1687,1672,1641,1590,1570,1555,1491,1462,1434,1424,1408,1359,1318,1288,1143,1032,826,784,776,783,764,783,778,726,728,731,746,740,744,739,740,741,746,740,740,733,742,740,753,753,749,747,746,753,746,740,755,744,746,745,574,576,577,579,600,895,1091,1220,1356,1405,1424,1389,1368,1345,1329,1300,1278,1255,1239,1210,1195,1165,1143,1120,1098,1076,1053,1030,1009,972,941,800,612,597,587,611,612,587,545,545,545,545,545,545,545,545,545,545,545,545,545,545,545,545,545,545,545,545,545,545,545,545,545,545,545,678,680,681,683,707,908,1235,1501,1599,1640,1643,1623,1602,1571,1547,1532,1505,1473,1451,1423,1400,1376,1344,1276,1252,1232,1111,1129,1067,948,894,788,740,705,691,690,691,633,541,541,541,541,541,541,541,541,541,541,541,541,541,541,541,541,541,541,541,541,541,541,541,541,541,541,541,0,0,0,0,0,0,0,0,0,0,0,0,0,0,0,0,0,0,0,0,0,0,0,0,0,0,0,0,0,0,0,0,0,0,0,0,0,0,0,0,0,0,0,0,0,0,0,0,0,0,0,0,0,0,0,0,0,0,0,0,0,0,0,0,0,365,366,367,368,372,428,664,742,836,890,909,895,884,866,852,837,823,808,798,782,768,750,735,721,706,692,678,663,649,634,610,447,394,384,375,372,408,374,327,327,327,327,327,327,327,327,327,327,327,327,327,327,327,327,327,327,327,327,327,327,327,327,327,327,327,489,505,491,507,551,677,945,1084,1162,1210,1242,1213,1194,1190,1180,1156,1131,1098,1095,1060,1056,1041,988,1000,981,950,925,900,885,861,792,647,574,572,513,500,508,500,471,471,471,471,471,471,471,471,471,471,471,471,471,471,471,471,471,471,471,471,471,471,471,471,471,471,471,181,181,182,183,183,276,305,333,360,388,410,405,399,394,388,382,378,371,367,360,356,350,345,339,334,328,324,318,312,307,301,295,290,285,186,184,184,184,129,129,129,129,129,129,129,129,129,129,129,129,129,129,129,129,129,129,129,129,129,129,129,129,129,129,129,483,484,485,486,490,707,905,1010,1110,1180,1198,1177,1159,1139,1126,1104,1082,1065,1050,1015,1008,987,969,950,931,912,895,868,854,835,744,691,602,505,495,491,493,470,408,408,408,408,408,408,408,408,408,408,408,408,408,408,408,408,408,408,408,408,408,408,408,408,408,408,408,660,662,664,665,670,1038,1283,1431,1546,1611,1619,1590,1563,1542,1523,1496,1465,1438,1418,1394,1367,1334,1315,1285,1263,1233,1212,1182,1155,1118,908,763,745,685,674,672,673,642,580,580,580,580,580,580,580,580,580,580,580,580,580,580,580,580,580,580,580,580,580,580,580,580,580,580,580,366,367,359,369,372,581,657,734,809,884,898,896,882,867,853,838,824,810,795,781,766,752,738,723,709,694,680,666,651,637,622,608,560,472,377,373,374,376,352,350,358,371,360,359,356,366,360,365,367,368,368,368,366,414,371,362,362,371,363,355,360,369,361,370,359,574,574,579,578,644,972,1133,1304,1449,1547,1560,1531,1503,1469,1440,1411,1382,1354,1328,1303,1275,1246,1214,1186,1158,1132,1101,1065,1043,1016,852,828,719,601,587,607,610,560,544,547,552,557,553,559,577,560,553,555,558,557,575,560,564,573,556,556,560,555,558,558,557,558,549,552,550,489,492,489,491,500,642,924,1023,1126,1193,1209,1190,1170,1151,1132,1113,1083,1075,1056,1034,1018,995,978,971,942,923,904,884,866,776,718,657,636,507,496,493,495,494,448,448,448,448,448,448,448,448,448,448,448,448,448,448,448,448,448,448,448,448,448,448,448,448,448,448,448,758,759,762,763,830,1231,1624,1751,1891,1980,1981,1950,1912,1876,1841,1805,1769,1733,1704,1669,1638,1603,1567,1528,1494,1462,1425,1382,1259,1195,938,899,808,788,772,770,754,745,714,714,714,714,714,714,714,714,714,714,714,714,714,714,714,714,714,714,714,714,714,714,714,714,714,714,714,492,493,494,496,500,723,923,1030,1133,1202,1220,1197,1179,1159,1147,1123,1102,1084,1069,1033,1028,1005,986,967,949,928,912,883,870,850,759,705,535,520,504,500,501,470,408,408,408,408,408,408,408,408,408,408,408,408,408,408,408,408,408,408,408,408,408,408,408,408,408,408,408,1078,1082,1089,1099,1193,1937,2301,2463,2566,2613,2601,2563,2482,2480,2441,2397,2344,2302,2262,2227,2189,2137,2098,2056,2013,1956,1596,1553,1298,1256,1176,1150,1111,1108,1119,1129,1112,1085,1043,1043,1043,1043,1043,1043,1043,1043,1043,1043,1043,1043,1043,1043,1043,1043,1043,1043,1043,1043,1043,1043,1043,1043,1043,1043,1043,336,336,337,339,340,366,619,685,755,822,844,831,817,803,790,778,754,750,737,724,711,698,685,671,658,644,630,618,604,591,579,371,362,353,344,340,341,342,289,289,289,289,289,289,289,289,289,289,289,289,289,289,289,289,289,289,289,289,289,289,289,289,289,289,289,438,445,440,448,456,570,825,917,1009,1056,1064,1086,1034,1018,1004,988,992,958,943,928,913,898,884,894,854,834,817,800,783,766,750,652,499,548,456,444,452,444,425,424,424,428,435,430,429,432,427,435,432,433,429,429,429,431,430,429,434,431,429,432,432,436,431,431,431,434,436,438,431,440,618,820,903,997,1070,1076,1055,1057,1022,1008,987,971,957,936,922,901,872,866,868,831,820,810,781,764,749,642,609,509,496,436,439,440,436,421,412,429,418,421,415,420,424,418,433,435,422,434,437,466,428,421,437,417,424,437,419,425,436,417,435,427,109,109,110,110,110,113,128,212,235,257,276,272,267,263,258,254,249,244,240,236,232,228,223,218,214,210,205,201,195,128,125,122,119,116,113,111,111,112,64,65,64,64,65,65,65,68,64,65,64,64,65,67,67,67,67,65,64,64,68,68,64,63,62,62,61,643,644,646,648,666,1168,1389,1549,1678,1736,1725,1696,1704,1633,1602,1569,1538,1507,1474,1431,1412,1385,1354,1320,1274,1257,1222,1190,1161,1126,1029,952,688,667,679,653,681,662,672,643,651,677,648,665,658,672,663,659,678,655,657,654,656,698,657,659,658,660,657,652,660,687,657,684,662,373,373,375,376,377,417,602,741,825,905,931,915,903,890,874,858,840,828,814,800,785,771,755,740,726,711,694,647,665,587,455,443,407,397,406,379,379,382,304,305,305,306,307,307,308,312,307,311,310,310,312,315,314,314,315,310,309,316,319,319,334,334,338,338,337,650,653,654,669,685,960,1286,1422,1525,1568,1570,1540,1540,1515,1468,1443,1442,1392,1369,1363,1317,1312,1345,1242,1235,1210,1185,1161,1118,930,925,841,759,675,662,660,674,650,635,648,639,656,644,658,644,669,649,660,654,647,658,650,665,661,656,654,667,654,671,653,655,662,656,655,655,426,428,428,430,435,539,805,898,991,1046,1052,1035,1018,1002,986,969,952,936,919,902,885,868,901,836,819,802,786,769,752,735,692,685,536,446,436,432,433,435,427,426,430,427,432,432,445,436,436,442,448,436,437,439,452,449,440,445,440,439,448,444,440,451,440,451,444,394,395,397,398,399,430,569,788,871,960,979,969,952,930,921,906,890,876,861,845,830,779,799,766,769,702,689,676,566,624,539,467,444,430,406,400,404,381,297,296,306,325,299,302,301,305,300,300,301,299,300,302,303,304,305,302,299,300,304,303,299,300,298,300,298,360,368,368,362,364,479,684,771,852,907,916,894,889,872,850,838,805,820,806,790,748,750,735,706,706,692,678,674,662,634,622,495,484,486,376,372,365,374,341,345,344,358,355,351,350,364,345,354,349,353,348,348,353,366,350,351,354,353,355,352,353,371,349,353,350,0,0,0,0,0,0,0,0,0,0,0,0,0,0,0,0,0,0,0,0,0,0,0,0,0,0,0,0,0,0,0,0,0,0,0,0,0,0,0,0,0,0,0,0,0,0,0,0,0,0,0,0,0,0,0,0,0,0,0,0,0,0,0,0,0,367,356,361,353,373,436,688,742,846,908,916,901,886,872,865,813,786,813,805,748,744,758,711,726,709,675,670,667,636,637,470,468,456,372,362,363,354,360,349,352,353,365,369,362,368,380,364,368,373,369,372,361,368,375,364,362,374,372,360,361,372,374,371,372,370,209,210,210,211,295,326,360,393,427,460,477,471,464,458,451,445,439,432,426,420,412,406,400,393,387,380,374,368,361,355,349,342,336,328,300,295,295,297,202,202,202,204,205,204,205,258,203,204,205,208,204,208,207,209,211,205,208,208,209,206,205,211,203,205,205,244,243,244,244,245,294,432,481,534,589,607,597,588,578,567,563,549,540,530,520,511,501,490,481,471,462,452,445,433,423,414,404,308,299,271,266,269,268,207,204,207,208,207,207,206,209,206,211,209,208,209,210,213,212,212,212,209,210,210,209,209,210,210,210,210,438,437,439,440,440,610,795,880,1008,1064,1078,1060,1044,1027,1010,1000,975,963,945,917,907,890,873,855,847,822,811,788,770,758,736,651,563,540,446,443,444,445,407,407,408,410,411,409,408,411,408,413,411,411,410,412,414,414,414,413,411,411,411,411,410,412,412,412,412,584,585,587,589,590,981,1158,1288,1409,1453,1462,1438,1414,1390,1361,1342,1308,1294,1265,1246,1226,1198,1174,1150,1126,1102,1070,1054,1030,1000,889,729,712,607,595,603,595,596,585,586,590,606,593,593,592,620,590,592,590,592,590,607,597,627,591,594,625,596,616,637,597,667,589,594,594,786,788,790,792,809,1330,1740,1911,2034,2086,2068,2033,1982,1958,1924,1882,1845,1808,1770,1721,1694,1666,1623,1590,1539,1511,1474,1417,1316,1121,1101,859,834,812,800,798,786,779,768,771,774,776,775,783,780,791,778,779,775,779,777,788,785,802,781,792,787,784,787,787,786,793,773,784,781,476,477,468,446,518,596,891,963,1065,1204,1123,1081,1089,1083,1011,1033,1034,1046,1018,982,976,980,963,879,882,868,853,837,760,685,658,575,573,585,485,482,449,484,474,468,464,472,474,483,472,476,480,484,473,478,468,476,476,465,476,480,479,478,472,473,484,489,482,484,479,912,921,918,931,1010,1408,1862,2053,2169,2195,2184,2186,2118,2084,2053,2020,2005,1957,1919,1886,1853,1820,1788,1777,1726,1686,1652,1423,1197,1044,1010,998,964,955,938,925,917,888,854,853,857,861,869,863,862,865,860,868,865,868,862,862,862,864,863,862,867,864,862,865,865,869,864,864,864,253,252,253,254,255,302,449,499,555,611,630,619,609,600,588,583,568,559,549,538,529,519,508,499,489,478,470,462,448,439,429,418,322,308,286,256,256,256,207,204,207,208,207,207,206,209,206,211,209,208,209,210,213,212,212,212,209,210,210,209,209,210,210,210,210,937,940,941,946,1027,1530,1916,2142,2237,2268,2270,2217,2178,2114,2109,2070,2049,2001,1965,1927,1901,1853,1868,1791,1755,1713,1596,1492,1312,1046,1113,998,974,956,947,944,948,933,925,924,928,925,930,930,936,934,934,940,944,934,935,937,950,947,938,943,938,937,946,942,938,949,938,949,942,438,445,440,448,456,570,825,917,1009,1056,1064,1086,1034,1018,1004,988,992,958,943,928,913,898,884,894,854,834,817,800,783,766,750,652,499,548,456,444,452,444,425,424,424,428,435,430,429,432,427,435,432,433,429,429,429,431,430,429,434,431,429,432,432,436,431,431,431,690,692,693,695,700,902,1348,1539,1644,1687,1707,1680,1608,1629,1587,1557,1533,1494,1481,1454,1426,1398,1372,1344,1297,1289,1269,1218,1191,996,972,818,723,714,704,700,695,674,631,631,631,637,638,642,632,652,629,645,632,629,633,639,645,649,641,638,634,632,644,646,632,633,630,636,631,185,185,186,186,206,214,182,298,325,351,366,360,355,350,345,340,334,330,325,320,315,309,304,300,295,290,284,186,183,180,176,172,169,231,213,206,207,208,161,153,153,155,164,161,163,159,161,170,164,163,166,166,164,163,163,165,165,167,162,164,163,163,163,163,163,405,409,410,411,412,498,733,815,904,987,976,963,940,924,944,927,915,900,883,868,851,835,819,806,789,771,756,740,640,624,561,492,488,436,435,414,423,415,334,327,328,334,341,340,331,340,334,347,345,336,340,334,335,341,350,339,339,338,334,340,336,336,336,337,336,617,632,620,623,722,1123,1376,1508,1615,1702,1717,1632,1602,1572,1540,1510,1480,1449,1419,1416,1358,1328,1286,1267,1237,1206,1176,1146,1114,1106,1038,950,855,759,629,642,632,649,632,629,644,704,639,651,635,652,635,667,645,635,644,643,670,716,668,649,650,640,651,651,651,653,638,653,644,568,568,571,572,574,848,1049,1190,1322,1381,1397,1375,1357,1330,1307,1284,1262,1239,1219,1198,1177,1154,1138,1110,1087,1065,1010,1021,966,954,863,691,606,600,582,576,578,578,520,522,527,528,528,529,528,531,529,528,530,529,529,529,530,531,532,532,531,532,531,531,531,533,531,533,532,343,333,334,346,348,397,630,702,771,800,830,836,804,810,796,788,752,738,750,713,700,702,688,670,662,634,640,603,590,584,582,568,426,396,352,348,349,377,324,321,321,322,343,329,332,331,330,327,330,330,328,328,330,341,329,328,330,330,328,329,330,332,332,332,332,250,251,252,252,253,262,475,495,547,596,620,610,601,591,572,598,588,552,542,532,523,537,526,517,476,466,457,476,465,456,445,416,406,248,257,254,399,400,248,255,255,257,258,259,254,257,251,288,252,254,257,257,286,284,287,259,260,252,260,259,260,264,253,260,253,596,591,590,601,604,746,1106,1272,1332,1447,1457,1417,1360,1382,1374,1337,1318,1299,1270,1244,1195,1189,1162,1157,1104,1083,1040,920,868,841,754,745,651,623,612,604,597,591,528,509,510,518,536,537,526,533,530,534,538,537,537,537,537,539,540,530,539,540,530,539,535,537,537,538,532,422,423,424,432,431,657,796,889,970,1026,1070,1054,991,1022,976,973,944,950,910,878,878,861,848,841,811,795,790,762,745,728,712,652,512,441,432,428,429,437,394,396,396,407,405,410,400,414,399,407,402,396,397,406,415,420,410,407,403,398,416,419,404,403,397,405,398,328,329,330,331,332,401,539,646,714,798,781,764,758,745,777,748,740,731,716,706,692,679,665,653,647,626,615,601,546,534,521,373,446,374,376,333,363,345,286,281,281,285,286,285,286,293,282,286,287,295,283,284,288,291,287,289,289,298,287,286,287,287,287,288,287,0,0,0,0,0,0,0,0,0,0,0,0,0,0,0,0,0,0,0,0,0,0,0,0,0,0,0,0,0,0,0,0,0,0,0,0,0,0,0,0,0,0,0,0,0,0,0,0,0,0,0,0,0,0,0,0,0,0,0,0,0,0,0,0,0,390,392,392,394,396,517,711,786,861,919,946,933,872,904,873,860,846,832,840,805,790,777,764,750,736,742,727,694,681,643,616,611,462,452,399,396,396,397,390,388,390,393,387,390,390,396,395,394,394,390,395,387,396,398,399,400,400,395,396,400,399,395,391,405,388,325,328,330,331,330,468,578,656,724,792,817,800,791,775,765,752,739,722,713,697,686,674,657,644,634,622,607,595,582,569,502,493,429,415,389,331,334,335,272,272,274,279,275,281,275,283,281,278,282,277,278,281,278,282,277,278,276,277,274,277,275,277,272,279,272,501,506,508,509,511,648,910,1042,1149,1228,1247,1232,1204,1180,1164,1148,1125,1105,1086,1066,1047,1026,1006,986,966,947,926,907,892,873,658,640,626,530,524,513,516,501,444,444,446,450,446,453,447,455,453,452,454,450,451,453,451,455,454,453,449,454,447,452,448,450,447,453,446,624,636,628,630,646,885,1221,1377,1521,1533,1531,1579,1483,1458,1423,1410,1384,1350,1336,1312,1306,1263,1239,1257,1190,1166,1142,1118,1093,1015,767,749,660,648,636,634,645,632,639,640,639,648,652,651,650,657,648,646,650,654,650,674,652,655,652,650,656,655,654,648,648,660,647,654,641,761,762,786,775,856,1429,1669,1874,1974,2019,2011,1969,1933,1900,1859,1823,1788,1751,1714,1681,1647,1609,1562,1537,1501,1468,1428,1391,1356,1114,1021,856,808,787,775,774,760,754,754,747,759,767,764,784,769,789,783,766,795,779,799,809,798,809,773,770,779,783,780,769,779,784,772,790,775,749,752,753,763,809,1136,1456,1639,1798,1830,1832,1808,1735,1742,1686,1687,1668,1630,1581,1552,1573,1536,1482,1442,1448,1405,1358,1257,1099,1116,915,824,808,770,768,758,776,764,715,713,716,716,716,713,718,716,718,717,718,736,741,744,727,721,723,723,720,719,717,719,721,724,722,719,720,945,947,950,952,1080,1839,2123,2316,2410,2448,2431,2384,2341,2301,2253,2210,2167,2123,2079,2041,2005,1961,1906,1874,1831,1792,1745,1487,1239,1208,1051,1048,995,977,960,960,944,939,937,929,942,950,952,971,952,974,972,958,991,975,1026,1020,993,1006,962,961,1006,977,978,963,968,1000,959,980,965,334,337,339,340,340,403,513,674,744,814,839,822,813,795,786,772,758,741,732,715,705,692,675,662,651,639,624,612,522,510,497,487,444,424,393,340,343,344,272,272,274,279,275,281,275,283,281,278,282,277,278,281,278,282,277,278,276,277,274,277,275,277,272,279,272,756,755,759,766,780,871,1581,1692,1797,1834,1854,1813,1783,1754,1714,1722,1690,1649,1603,1589,1548,1538,1544,1483,1422,1393,1364,1326,1246,1074,996,942,813,762,773,765,780,781,746,749,753,755,756,757,752,755,749,758,750,752,755,755,768,767,764,757,758,750,758,757,758,762,751,758,751,690,692,693,695,700,902,1348,1539,1644,1687,1707,1680,1608,1629,1587,1557,1533,1494,1481,1454,1426,1398,1372,1344,1297,1289,1269,1218,1191,996,972,818,723,714,704,700,695,674,631,631,631,637,638,642,632,652,629,645,632,629,633,639,645,649,641,638,634,632,644,646,632,633,630,636,631,420,439,414,415,419,520,762,859,921,982,1000,992,974,961,945,934,921,900,885,852,837,840,807,835,777,763,748,733,718,703,688,628,439,510,420,417,440,420,381,378,380,384,383,381,382,384,382,386,386,387,398,394,396,391,387,384,385,388,384,383,386,384,384,384,384,448,449,452,461,453,598,840,936,1009,1074,1075,1053,1042,1027,1003,1008,978,954,951,934,919,911,894,859,846,825,822,798,783,765,592,581,578,499,460,454,456,456,436,422,435,437,427,435,423,430,430,451,454,437,447,447,447,445,465,448,425,439,437,437,436,433,433,464,437,257,258,259,260,260,414,462,508,556,601,610,602,592,584,574,566,556,548,538,530,520,512,502,494,484,476,468,458,450,440,432,422,414,275,269,266,267,267,243,243,246,251,252,243,247,257,248,248,254,253,257,257,254,256,246,246,254,253,249,242,249,253,249,251,250,642,644,660,665,648,1130,1325,1492,1636,1684,1668,1644,1609,1585,1549,1588,1496,1482,1437,1408,1378,1350,1320,1297,1267,1237,1215,1173,1143,1105,1049,918,838,664,648,650,653,650,643,640,642,644,640,650,647,649,647,651,664,647,647,651,648,655,650,652,651,651,650,650,653,651,651,651,651,518,495,521,478,527,757,898,996,1089,1153,1137,1180,1102,1086,1082,1104,1047,1016,1012,994,978,961,942,925,907,878,860,854,866,770,658,643,630,492,483,480,488,517,472,472,473,475,476,476,480,480,479,482,481,482,485,486,486,485,492,491,491,493,492,491,496,495,495,500,500,664,665,668,706,722,1065,1368,1435,1531,1596,1564,1540,1540,1516,1471,1443,1419,1398,1374,1371,1345,1320,1296,1251,1246,1287,1197,1171,1152,1124,944,829,700,686,675,672,720,663,653,650,650,656,668,660,664,659,662,662,661,672,688,665,674,671,672,665,679,693,689,696,674,672,700,714,675,440,440,442,444,448,735,876,912,998,1048,1051,1035,1020,1003,987,972,956,940,924,908,892,877,861,912,829,859,798,782,765,750,734,759,642,558,448,445,447,448,444,437,443,445,436,464,447,452,450,449,470,444,444,447,444,470,448,449,447,447,445,444,449,448,447,507,452,542,544,546,548,549,803,1038,1144,1252,1309,1307,1287,1270,1256,1229,1210,1188,1166,1147,1128,1106,1088,1067,1049,987,970,952,898,895,853,770,718,705,593,558,555,548,534,476,475,488,512,486,480,483,494,484,483,491,488,492,492,490,494,483,482,490,489,484,477,485,490,485,489,487,314,315,335,316,314,418,570,628,687,738,745,727,723,712,694,730,716,697,657,639,636,618,652,602,585,580,570,553,578,536,520,435,426,417,321,318,319,316,307,309,305,309,318,315,314,318,311,321,315,315,316,311,314,317,317,312,318,315,310,316,315,320,315,316,311,231,232,232,232,233,368,409,450,490,530,541,534,525,518,510,502,494,487,478,471,463,456,448,440,433,424,417,478,402,393,386,379,370,363,236,234,234,235,223,230,231,228,225,223,229,229,228,235,232,224,236,224,230,229,241,237,239,230,232,236,233,229,224,234,224,367,384,385,362,368,631,684,751,854,876,919,867,888,841,830,846,835,820,781,754,747,730,748,736,697,674,668,679,646,658,592,596,585,380,376,431,375,368,364,360,364,364,360,366,367,365,367,368,371,366,366,369,366,373,369,371,369,369,368,368,372,371,370,429,374,0,0,0,0,0,0,0,0,0,0,0,0,0,0,0,0,0,0,0,0,0,0,0,0,0,0,0,0,0,0,0,0,0,0,0,0,0,0,0,0,0,0,0,0,0,0,0,0,0,0,0,0,0,0,0,0,0,0,0,0,0,0,0,0,0,348,349,350,352,353,515,616,681,747,827,832,834,808,796,786,771,759,747,734,728,708,702,685,670,660,646,634,621,609,597,583,572,559,364,356,353,354,356,308,307,308,313,312,309,310,312,311,315,313,313,312,310,312,312,314,314,311,317,313,316,314,313,311,314,313,525,527,529,533,537,655,989,1064,1168,1262,1263,1243,1221,1200,1187,1165,1146,1134,1108,1096,1070,1056,1030,1011,993,973,955,934,915,900,758,668,652,638,536,533,536,517,480,479,480,484,495,490,485,499,486,506,494,495,493,484,488,491,493,489,492,498,486,497,489,500,493,492,489,577,575,596,596,584,973,1100,1214,1329,1386,1384,1340,1318,1320,1278,1326,1260,1243,1218,1196,1174,1154,1132,1111,1069,1048,1062,1026,997,966,867,831,776,594,588,585,587,584,569,566,572,586,577,572,573,582,577,580,585,586,605,600,605,597,587,579,578,591,579,571,578,584,584,584,584,785,786,804,821,800,1271,1670,1854,1992,2023,2014,1978,1939,1907,1866,1873,1808,1787,1733,1697,1667,1630,1605,1564,1527,1490,1470,1417,1301,1086,974,957,824,809,793,795,809,766,761,759,765,769,767,762,767,763,767,769,767,770,783,786,786,776,771,769,766,773,769,768,771,769,769,769,769,472,497,479,476,484,576,878,1003,1093,1113,1168,1114,1100,1098,1050,1053,1024,1038,1031,967,958,979,918,947,918,887,893,846,800,751,598,555,559,490,500,496,484,506,434,431,433,437,436,434,435,437,435,439,439,440,458,459,461,444,440,437,438,441,437,436,439,437,437,437,437,894,914,891,898,913,1366,1810,2004,2090,2123,2120,2092,2061,2029,1996,1965,1933,1902,1868,1819,1785,1768,1718,1729,1651,1616,1585,1513,1179,1151,971,948,937,938,900,898,905,864,810,807,813,817,816,814,815,817,815,819,819,820,838,839,841,824,820,817,818,821,817,816,819,817,817,817,817,357,359,359,361,363,531,633,699,767,849,854,855,828,816,806,790,780,766,753,747,727,720,702,688,676,663,651,638,625,612,598,586,573,379,365,363,364,360,308,307,308,313,312,309,310,312,311,315,313,313,312,310,312,312,314,314,311,317,313,316,314,313,311,314,313,950,948,955,959,1040,1697,2071,2160,2244,2270,2260,2214,2179,2146,2112,2080,2034,2008,1970,1944,1899,1862,1826,1791,1765,1774,1596,1524,1385,1261,1311,1020,1097,967,957,954,964,946,942,935,941,943,934,953,945,950,948,947,959,942,942,945,942,968,946,947,945,945,943,942,947,946,945,1005,950,420,439,414,415,419,520,762,859,921,982,1000,992,974,961,945,934,921,900,885,852,837,840,807,835,777,763,748,733,718,703,688,628,439,510,420,417,440,420,381,378,380,384,383,381,382,384,382,386,386,387,398,394,396,391,387,384,385,388,384,383,386,384,384,384,384,630,630,633,634,651,887,1181,1334,1437,1510,1530,1508,1477,1457,1432,1410,1390,1366,1342,1322,1298,1281,1250,1231,1209,1180,1155,1131,1108,952,931,736,682,664,640,635,647,635,555,555,555,555,555,555,555,555,555,555,555,555,555,555,555,555,555,555,555,555,555,555,555,555,555,555,555,433,441,436,443,442,597,812,899,989,1054,1056,1051,1023,1013,995,978,969,945,929,915,896,875,868,854,844,818,778,763,747,731,620,589,464,460,442,437,445,440,375,375,375,375,375,375,375,375,375,375,375,375,375,375,375,375,375,375,375,375,375,375,375,375,375,375,375,252,255,254,259,264,302,444,500,555,611,636,628,614,604,595,585,576,566,554,545,534,523,512,504,493,482,470,463,453,444,432,423,310,302,271,265,265,266,163,163,163,163,163,163,163,163,163,163,163,163,163,163,163,163,163,163,163,163,163,163,163,163,163,163,163,816,819,820,828,865,1304,1728,1987,2098,2136,2139,2103,2072,2021,1992,1954,1924,1871,1827,1804,1753,1719,1668,1632,1603,1563,1519,1487,1393,1185,1055,929,870,852,847,841,846,858,774,774,774,774,774,774,774,774,774,774,774,774,774,774,774,774,774,774,774,774,774,774,774,774,774,774,774,394,393,396,398,399,441,704,786,868,961,977,962,946,931,914,899,886,874,855,840,824,808,793,777,762,751,730,684,699,539,553,510,449,422,404,400,402,402,337,337,337,337,337,337,337,337,337,337,337,337,337,337,337,337,337,337,337,337,337,337,337,337,337,337,337,508,510,511,502,524,827,954,1092,1161,1229,1226,1212,1212,1167,1171,1132,1113,1112,1074,1054,1052,1033,992,973,956,954,915,895,894,876,569,556,543,530,519,528,517,508,494,494,493,498,506,504,508,501,499,499,500,502,503,507,500,509,536,533,503,514,500,500,500,500,533,505,500,240,240,241,241,242,348,432,482,595,580,594,584,558,566,555,529,537,528,523,567,500,475,481,472,448,440,430,422,474,416,408,398,388,322,247,243,244,244,236,236,239,236,242,241,247,259,244,260,243,244,242,244,242,267,262,244,245,240,239,244,244,247,241,264,243,333,348,344,319,310,349,587,650,730,781,803,788,766,753,800,738,736,678,720,657,685,654,633,654,631,629,598,597,573,481,430,485,372,368,360,311,312,337,298,289,291,291,299,299,299,296,298,297,297,297,297,297,297,297,297,297,297,297,297,297,297,297,297,297,297,540,541,543,551,559,654,1017,1149,1258,1308,1339,1314,1290,1275,1253,1215,1211,1179,1168,1147,1116,1103,1065,1062,1041,1019,1014,985,903,826,773,672,611,572,568,556,559,545,479,479,479,479,479,479,479,479,479,479,479,479,479,479,479,479,479,479,479,479,479,479,479,479,479,479,479,192,193,193,195,195,247,339,377,416,456,481,474,466,458,451,444,435,428,421,412,405,398,390,382,375,367,360,352,344,337,330,321,314,307,199,203,203,196,146,146,146,146,146,146,146,146,146,146,146,146,146,146,146,146,146,146,146,146,146,146,146,146,146,146,146,319,320,320,322,323,416,587,652,716,775,793,775,772,760,738,726,720,701,689,677,664,673,645,628,624,604,592,580,567,555,448,438,428,415,327,324,324,325,266,266,266,266,266,266,266,266,266,266,266,266,266,266,266,266,266,266,266,266,266,266,266,266,266,266,266,375,376,377,379,380,437,663,731,800,868,890,877,864,850,837,824,811,798,786,772,759,746,733,720,706,694,681,668,655,642,628,615,564,393,384,381,382,383,333,333,333,333,333,333,333,333,333,333,333,333,333,333,333,333,333,333,333,333,333,333,333,333,333,333,333,0,0,0,0,0,0,0,0,0,0,0,0,0,0,0,0,0,0,0,0,0,0,0,0,0,0,0,0,0,0,0,0,0,0,0,0,0,0,0,0,0,0,0,0,0,0,0,0,0,0,0,0,0,0,0,0,0,0,0,0,0,0,0,0,0,230,231,234,232,280,286,408,455,502,547,572,562,554,544,536,526,518,513,500,490,482,477,464,454,446,436,428,418,410,400,392,382,374,293,285,280,280,281,200,203,201,202,204,202,202,202,202,202,202,203,201,202,201,202,202,201,202,201,201,202,201,202,201,202,201,758,759,762,770,822,1125,1498,1693,1814,1880,1888,1851,1815,1784,1762,1720,1692,1653,1630,1607,1571,1544,1511,1472,1451,1417,1384,1358,1330,1198,997,967,808,792,789,779,782,784,717,717,717,717,717,717,717,717,717,717,717,717,717,717,717,717,717,717,717,717,717,717,717,717,717,717,717,960,963,966,989,1057,1618,2085,2300,2446,2474,2472,2432,2397,2339,2305,2266,2217,2165,2117,2082,2034,1996,1941,1896,1864,1814,1766,1655,1446,1112,1074,1057,1017,997,992,987,961,967,902,902,902,902,902,902,902,902,902,902,902,902,902,902,902,902,902,902,902,902,902,902,902,902,902,902,902,623,624,624,627,637,685,1135,1286,1439,1500,1515,1501,1459,1436,1413,1391,1366,1344,1335,1294,1280,1246,1231,1216,1201,1179,1141,1030,897,872,740,699,659,664,632,634,644,636,574,574,574,574,574,574,574,574,574,574,574,574,574,574,574,574,574,574,574,574,574,574,574,574,574,574,574,1078,1077,1085,1100,1144,1849,2197,2389,2552,2626,2624,2570,2528,2477,2437,2397,2351,2312,2283,2238,2190,2139,2098,2064,2030,1965,1682,1449,1365,1215,1186,1159,1137,1125,1102,1086,1079,1060,986,986,986,986,986,986,986,986,986,986,986,986,986,986,986,986,986,986,986,986,986,986,986,986,986,986,986,15,15,15,15,15,15,16,19,20,22,24,24,24,22,22,22,21,21,21,21,20,20,20,19,19,19,19,18,18,18,16,16,16,16,15,15,15,15,0,0,0,0,0,0,0,0,0,0,0,0,0,0,0,0,0,0,0,0,0,0,0,0,0,0,0,747,751,754,755,764,926,1526,1679,1786,1834,1827,1800,1753,1742,1711,1664,1656,1624,1598,1562,1535,1479,1474,1462,1404,1376,1345,1203,1182,1020,824,810,791,768,767,759,760,755,734,734,737,734,740,739,745,752,742,755,741,742,740,742,740,755,755,742,743,738,737,742,742,745,739,755,741,630,630,633,634,651,887,1181,1334,1437,1510,1530,1508,1477,1457,1432,1410,1390,1366,1342,1322,1298,1281,1250,1231,1209,1180,1155,1131,1108,952,931,736,682,664,640,635,647,635,555,555,555,555,555,555,555,555,555,555,555,555,555,555,555,555,555,555,555,555,555,555,555,555,555,555,555,818,819,824,820,836,1179,1623,1811,1896,1976,1977,1946,1935,1907,1851,1819,1792,1769,1733,1704,1675,1637,1619,1581,1551,1507,1483,1367,1240,1095,1058,888,894,840,834,832,823,813,739,733,738,743,745,745,747,745,741,746,748,748,745,746,747,746,744,747,748,751,748,746,745,746,744,741,741,606,591,602,599,615,810,1126,1267,1391,1428,1476,1452,1408,1386,1382,1326,1329,1286,1263,1236,1240,1232,1189,1113,1143,1051,1030,1037,971,812,873,729,628,629,600,604,600,596,558,555,561,564,568,569,565,564,561,574,572,572,572,574,574,573,572,575,576,578,574,572,573,573,573,570,570,442,443,443,445,447,503,806,905,998,1092,1108,1088,1071,1053,1026,1011,991,973,957,938,921,903,886,867,849,830,815,799,755,716,599,543,537,465,452,448,451,412,346,341,343,344,360,352,349,350,345,359,354,353,351,348,350,352,350,350,357,354,351,353,351,358,350,348,348,987,992,997,1011,1337,1717,2231,2421,2511,2548,2506,2470,2436,2391,2361,2294,2256,2212,2164,2119,2070,2025,1985,1944,1894,1872,1804,1737,1377,1244,1100,1072,1048,1015,1015,1004,1007,1006,957,963,965,962,984,972,981,981,966,984,970,972,967,968,977,972,971,971,974,973,968,972,971,971,983,970,970,524,532,531,516,521,648,964,1108,1204,1264,1268,1299,1251,1225,1204,1166,1168,1148,1160,1086,1065,1083,1024,1060,1004,984,944,985,900,801,759,741,660,575,544,550,525,553,508,505,507,514,512,514,515,522,512,518,520,520,521,522,525,533,518,516,523,527,524,520,521,523,519,517,517,637,660,641,644,675,884,1243,1386,1507,1592,1603,1598,1539,1545,1490,1464,1435,1389,1363,1338,1328,1288,1284,1238,1231,1189,1181,1162,1132,1001,969,912,728,660,650,673,648,648,637,640,632,646,644,642,643,644,642,644,644,644,643,644,643,642,642,644,645,645,643,642,643,643,643,642,642,362,365,372,375,369,396,686,754,842,907,897,883,887,858,841,830,800,815,787,772,771,756,742,727,714,685,673,670,642,642,594,401,566,390,372,368,385,387,352,349,353,360,353,351,352,353,351,353,353,353,352,353,352,351,351,353,354,354,352,351,352,352,352,351,351,352,368,369,355,359,466,635,749,819,871,874,865,847,832,846,805,823,808,808,792,778,758,736,734,708,670,656,663,645,628,596,582,568,452,360,372,400,379,342,335,333,336,342,350,337,342,343,339,340,341,340,341,341,371,345,344,339,343,340,357,344,344,343,358,343,717,710,719,724,742,888,1437,1570,1711,1753,1744,1714,1689,1662,1644,1645,1591,1527,1513,1485,1462,1426,1404,1366,1350,1336,1294,1263,1078,1049,1004,799,821,736,741,720,727,702,662,651,655,665,666,670,666,665,672,675,671,673,664,671,678,666,671,676,674,677,672,672,676,676,676,673,673,380,382,382,384,385,468,709,790,871,937,978,964,948,931,888,872,855,841,825,810,795,780,765,750,734,720,705,690,675,660,645,552,569,400,390,387,388,388,329,324,326,329,336,339,336,337,332,340,343,343,339,333,336,342,340,334,341,342,335,341,338,340,339,334,334,458,470,461,463,475,628,858,958,1059,1132,1176,1157,1101,1119,1091,1071,1029,1010,992,974,990,938,919,901,883,865,847,857,810,792,727,608,594,479,468,481,467,494,449,444,446,452,456,454,452,461,444,454,456,453,454,458,459,455,453,456,457,460,456,453,454,454,453,450,450,563,565,566,568,570,682,1055,1174,1283,1330,1354,1334,1313,1293,1264,1244,1224,1204,1176,1156,1144,1117,1105,1077,1063,1044,1023,1002,981,961,848,788,746,640,575,571,573,564,516,508,511,513,519,515,517,518,514,519,521,521,518,519,520,519,517,520,521,524,521,519,518,519,517,514,514,247,248,248,249,250,314,450,502,555,604,651,642,631,620,580,570,560,550,541,530,520,511,501,490,481,471,462,451,441,432,422,405,388,378,274,269,270,271,197,192,194,195,198,195,198,195,193,198,200,199,196,198,199,198,196,199,200,202,198,196,197,197,197,194,194,0,0,0,0,0,0,0,0,0,0,0,0,0,0,0,0,0,0,0,0,0,0,0,0,0,0,0,0,0,0,0,0,0,0,0,0,0,0,0,0,0,0,0,0,0,0,0,0,0,0,0,0,0,0,0,0,0,0,0,0,0,0,0,0,0,928,948,938,940,991,1492,1956,2134,2258,2298,2261,2222,2201,2172,2139,2124,2038,2013,1974,1936,1887,1858,1826,1792,1766,1738,1675,1641,1523,1243,1210,996,975,956,952,943,938,947,900,902,902,907,915,906,915,910,899,904,907,905,913,909,910,906,906,916,910,919,915,909,914,903,904,902,902,1130,1144,1141,1159,1361,2045,2588,2771,2849,2875,2831,2789,2753,2703,2670,2596,2552,2501,2448,2398,2347,2295,2249,2205,2145,2072,1864,1674,1321,1276,1308,1252,1180,1160,1160,1132,1122,1130,1085,1086,1088,1094,1103,1094,1108,1098,1086,1089,1094,1092,1103,1097,1102,1096,1103,1105,1098,1103,1103,1098,1104,1086,1094,1089,1089,808,815,814,817,831,1217,1599,1800,1902,1992,1964,1933,1903,1871,1827,1809,1776,1738,1706,1691,1644,1620,1598,1579,1540,1502,1384,1257,1208,1058,906,903,890,836,829,825,822,825,759,755,764,766,772,769,772,765,760,772,767,764,769,770,773,772,770,773,774,776,772,770,771,771,769,768,768,1082,1085,1082,1091,1286,2107,2426,2654,2791,2789,2775,2724,2673,2622,2572,2522,2525,2474,2415,2371,2332,2278,2242,2178,2122,1965,1807,1645,1548,1374,1190,1156,1135,1108,1105,1101,1106,1113,1113,1113,1122,1160,1143,1133,1129,1165,1121,1126,1129,1125,1125,1140,1139,1179,1177,1141,1140,1139,1142,1179,1128,1132,1139,1156,1128,233,234,234,235,237,299,411,459,505,558,586,575,567,557,549,538,530,522,512,502,494,484,475,465,456,447,438,428,412,403,400,391,381,372,241,238,239,239,183,178,180,181,185,182,184,181,179,184,186,186,183,184,185,184,182,185,186,189,185,182,183,183,183,180,180,642,644,644,649,667,1083,1226,1371,1532,1578,1646,1562,1527,1514,1479,1458,1402,1401,1372,1380,1326,1300,1301,1250,1225,1200,1174,1149,1100,1099,1003,922,813,765,681,660,649,665,638,645,648,669,655,663,644,661,648,648,660,675,664,670,673,680,656,665,666,681,672,660,662,672,645,656,652,818,819,824,820,836,1179,1623,1811,1896,1976,1977,1946,1935,1907,1851,1819,1792,1769,1733,1704,1675,1637,1619,1581,1551,1507,1483,1367,1240,1095,1058,888,894,840,834,832,823,813,739,733,738,743,745,745,747,745,741,746,748,748,745,746,747,746,744,747,748,751,748,746,745,746,744,741,741,754,755,758,757,799,1121,1537,1689,1789,1840,1838,1810,1780,1749,1719,1690,1660,1639,1612,1582,1551,1520,1493,1462,1431,1396,1366,1343,1306,1096,1080,825,791,780,768,762,766,712,691,694,691,700,701,700,700,708,701,709,701,697,697,702,702,705,705,706,701,699,707,704,705,722,716,724,720,587,588,572,574,593,1019,1156,1314,1426,1483,1484,1460,1436,1418,1389,1365,1336,1310,1284,1257,1250,1206,1179,1153,1126,1100,1075,1048,1022,996,969,873,612,594,580,612,580,583,574,586,588,594,594,588,593,592,589,601,589,590,588,596,598,596,595,604,595,587,602,591,591,591,592,596,588,688,690,692,693,736,1168,1427,1619,1734,1785,1781,1750,1719,1687,1656,1625,1594,1561,1531,1499,1473,1444,1413,1382,1350,1320,1288,1258,1226,1123,980,870,736,716,701,700,703,688,680,688,708,712,704,676,693,714,711,690,722,720,692,712,724,736,723,678,708,705,724,711,684,713,703,687,686,612,600,601,602,678,1149,1394,1603,1692,1763,1774,1696,1681,1627,1639,1558,1575,1490,1512,1480,1386,1352,1342,1282,1238,1214,1170,1167,1111,1076,1041,857,648,625,623,604,608,619,610,616,620,632,647,645,631,681,624,701,640,682,641,633,649,693,648,639,686,643,643,686,649,700,640,645,638,912,908,911,916,1051,1639,1970,2149,2274,2298,2353,2248,2206,2180,2126,2087,2060,2020,1968,1939,1898,1898,1866,1786,1743,1741,1667,1588,1430,1340,1135,988,956,937,924,946,923,928,920,926,926,934,933,919,933,941,936,936,937,952,940,957,942,942,938,923,937,932,939,938,938,954,951,945,944,847,844,824,828,860,1543,1748,1926,2039,2062,2049,2041,2016,1983,1949,1909,1879,1834,1798,1742,1747,1692,1657,1621,1586,1550,1515,1482,1428,1329,1018,1155,868,841,835,867,836,828,837,837,830,828,852,848,853,851,855,865,857,859,852,865,851,865,860,869,859,856,864,856,853,848,860,858,848,819,817,814,828,876,1493,1698,1872,2009,1998,2024,1998,1985,1896,1917,1861,1824,1802,1744,1731,1695,1657,1594,1559,1556,1517,1490,1448,1411,1372,1172,1038,857,836,826,836,809,789,785,785,788,802,800,800,801,811,799,800,804,803,805,811,811,809,808,799,808,810,807,799,803,815,797,804,793,974,977,980,982,1137,1804,2131,2308,2419,2459,2436,2402,2359,2319,2277,2231,2192,2147,2107,2064,2028,1946,1909,1870,1794,1760,1681,1503,1556,1287,1166,1071,1026,1008,990,992,953,921,912,930,954,946,941,912,930,950,946,927,957,955,927,948,962,973,958,914,944,940,959,947,921,949,941,924,923,420,419,421,423,433,509,790,878,965,1029,1042,1026,1009,993,976,960,942,925,909,892,876,858,843,826,809,793,775,759,742,725,709,504,493,437,469,431,425,423,402,405,402,411,412,411,411,419,412,420,412,408,408,413,413,416,416,417,412,410,418,415,416,433,427,435,431,663,664,667,702,711,1164,1370,1550,1654,1795,1704,1676,1650,1695,1601,1568,1536,1506,1476,1447,1420,1408,1358,1354,1326,1269,1195,1169,1141,1045,1030,886,708,689,676,673,676,679,685,688,687,691,695,695,697,698,693,704,695,701,698,694,687,692,697,699,689,694,689,692,686,693,698,689,679,598,604,599,611,633,1074,1227,1384,1495,1555,1554,1526,1501,1481,1452,1426,1395,1369,1341,1314,1295,1274,1232,1204,1177,1149,1123,1101,1073,1040,1012,982,692,620,607,619,608,593,588,593,595,610,605,606,612,619,605,604,608,610,609,615,619,622,611,606,610,612,610,605,607,620,606,614,603,564,544,566,568,557,785,1089,1200,1294,1356,1365,1348,1326,1309,1290,1270,1250,1228,1203,1180,1164,1132,1113,1086,1063,1045,1022,1003,982,893,878,760,582,567,553,550,572,552,531,534,531,540,541,540,540,548,541,549,541,537,537,542,542,545,545,546,541,539,547,544,545,562,556,564,560,780,783,786,812,844,1388,1665,1847,1947,1990,1982,1951,1916,1890,1857,1826,1791,1756,1720,1687,1656,1616,1582,1548,1514,1480,1445,1410,1378,1189,1035,852,836,808,795,788,772,764,774,775,767,784,790,782,784,795,784,787,791,787,785,785,779,789,795,789,784,781,773,780,776,779,787,785,760,958,962,964,999,1021,1770,2104,2278,2362,2403,2386,2352,2313,2275,2236,2203,2159,2119,2078,2038,2002,1957,1914,1874,1831,1792,1749,1632,1478,1361,1153,1037,1017,990,976,974,944,936,946,946,938,960,962,955,963,973,961,960,964,960,958,960,961,966,968,961,964,956,952,955,963,960,959,960,936,0,0,0,0,0,0,0,0,0,0,0,0,0,0,0,0,0,0,0,0,0,0,0,0,0,0,0,0,0,0,0,0,0,0,0,0,0,0,0,0,0,0,0,0,0,0,0,0,0,0,0,0,0,0,0,0,0,0,0,0,0,0,0,0,0,742,743,745,774,831,1426,1687,1964,2046,2107,2059,2032,2016,1952,1957,1871,1882,1791,1808,1770,1672,1636,1593,1552,1502,1472,1425,1391,1351,1311,1273,1112,795,772,755,749,736,735,723,730,741,762,739,747,737,799,737,790,741,733,740,743,750,793,751,747,745,738,766,748,744,745,735,745,738,903,906,910,916,996,1426,1908,2061,2148,2193,2186,2152,2115,2076,2044,2009,1989,1950,1914,1879,1844,1820,1777,1740,1704,1660,1608,1471,1351,1238,1116,981,944,932,919,915,919,871,850,853,850,859,860,859,859,867,860,868,860,856,856,861,861,864,864,865,860,858,866,863,864,881,875,883,879,926,928,930,932,1047,1838,2141,2406,2481,2528,2480,2446,2423,2353,2351,2258,2261,2163,2173,2128,2029,1989,1935,1889,1832,1796,1742,1628,1433,1073,1043,1056,981,961,940,935,920,920,906,912,924,962,927,931,920,991,926,986,932,929,927,964,945,1006,940,938,972,932,998,942,933,961,922,935,928,790,792,795,821,855,1406,1688,1869,1968,2010,2002,1971,1936,1910,1876,1845,1810,1776,1738,1705,1672,1634,1599,1565,1531,1495,1461,1361,1328,1205,1028,868,845,818,804,797,772,764,774,775,767,784,790,782,784,795,784,787,791,787,785,785,779,789,795,789,784,781,773,780,776,779,787,785,760,1233,1226,1251,1367,1719,2724,2929,3088,3172,3175,3164,3100,3063,2992,2950,2894,2867,2794,2749,2716,2662,2601,2524,2474,2384,2046,1842,1807,1642,1407,1366,1299,1274,1244,1248,1246,1255,1277,1283,1283,1286,1300,1298,1298,1299,1309,1297,1298,1302,1301,1303,1309,1309,1307,1306,1297,1306,1308,1305,1297,1301,1313,1295,1302,1291,754,755,758,757,799,1121,1537,1689,1789,1840,1838,1810,1780,1749,1719,1690,1660,1639,1612,1582,1551,1520,1493,1462,1431,1396,1366,1343,1306,1096,1080,825,791,780,768,762,766,712,691,694,691,700,701,700,700,708,701,709,701,697,697,702,702,705,705,706,701,699,707,704,705,722,716,724,720,629,632,633,636,674,1084,1226,1364,1468,1518,1516,1494,1470,1447,1423,1400,1416,1353,1329,1306,1282,1260,1236,1213,1189,1166,1142,1119,1095,1072,1048,789,703,652,641,639,640,642,644,639,653,639,645,648,656,660,644,641,656,652,646,652,652,650,645,653,651,651,652,657,644,653,650,651,648,787,808,828,803,846,1425,1652,1873,2031,2108,2068,2018,1982,1945,1926,1873,1851,1800,1778,1726,1751,1667,1617,1581,1562,1508,1472,1435,1399,1295,1002,922,835,832,800,818,804,806,811,813,822,832,819,831,819,831,822,827,828,828,829,827,826,829,835,830,829,834,829,832,829,838,832,835,832,816,823,838,831,884,1343,1686,1848,1967,2033,1975,1980,1942,1880,1848,1816,1837,1753,1746,1713,1658,1627,1596,1584,1532,1501,1468,1439,1292,1144,940,888,868,856,830,840,796,798,798,809,799,823,814,808,817,836,816,826,823,824,823,820,813,820,823,827,818,822,809,816,814,825,834,836,812,246,270,271,241,242,308,430,480,529,578,608,598,574,566,570,547,537,528,531,510,500,490,496,472,477,453,444,435,435,338,331,323,314,307,299,242,243,244,236,240,236,240,243,245,245,252,244,241,252,252,241,240,241,252,241,240,244,241,240,240,240,243,239,242,236,776,802,787,792,838,1383,1629,1794,1854,1963,1957,1905,1851,1807,1777,1747,1716,1753,1695,1676,1645,1660,1596,1516,1507,1502,1413,1459,1404,1235,1082,872,852,804,797,788,823,792,809,804,802,800,802,824,810,818,822,834,836,835,831,823,844,842,879,831,835,846,834,842,834,831,878,844,832,1037,1068,1082,1059,1262,2015,2264,2476,2629,2692,2631,2590,2551,2472,2464,2403,2358,2292,2278,2200,2219,2138,2085,2040,2013,1948,1914,1596,1400,1225,1147,1117,1078,1100,1064,1073,1060,1064,1070,1080,1084,1089,1088,1092,1094,1109,1095,1095,1097,1086,1106,1086,1102,1101,1103,1098,1108,1100,1097,1094,1092,1106,1098,1099,1095,1037,1041,1050,1050,1127,1982,2269,2446,2568,2630,2605,2557,2512,2437,2408,2356,2311,2258,2224,2187,2160,2065,2024,2009,1961,1882,1789,1501,1414,1256,1120,1121,1062,1074,1056,1052,1020,1014,1013,1011,1018,1032,1015,1028,1021,1026,1019,1022,1023,1023,1017,1030,1027,1030,1040,1035,1030,1034,1035,1035,1025,1028,1020,1034,1023,917,930,923,938,1059,1690,1946,2079,2215,2262,2220,2186,2150,2137,2084,2069,2012,1975,1960,1942,1868,1832,1797,1761,1746,1689,1656,1622,1489,1339,1063,1039,963,945,932,930,893,896,892,897,908,922,909,913,905,919,906,906,907,908,907,916,927,956,928,923,922,917,925,916,911,906,916,918,906,630,624,653,655,666,974,1307,1464,1638,1713,1674,1644,1614,1584,1548,1524,1494,1464,1432,1402,1413,1369,1312,1270,1272,1222,1192,1162,1131,971,869,688,723,676,641,661,644,651,644,638,638,643,650,651,655,652,660,657,662,655,653,656,661,656,655,664,658,671,661,656,663,669,657,655,652,864,877,893,883,989,1451,1816,2014,2092,2157,2096,2098,2065,1995,1962,1929,1947,1888,1853,1819,1761,1728,1695,1681,1628,1594,1561,1512,1283,1037,992,929,923,908,879,895,879,867,868,870,875,886,881,870,880,897,871,886,884,879,881,878,873,879,886,887,878,882,876,877,888,885,899,897,873,813,818,828,833,879,1515,1752,1943,2099,2150,2131,2092,2054,2007,1977,1932,1894,1857,1821,1785,1805,1715,1672,1638,1600,1556,1519,1480,1443,1246,912,887,862,863,828,834,831,817,818,818,828,838,821,837,831,832,824,826,828,827,821,837,831,839,844,841,832,837,839,840,831,832,828,844,833,783,772,800,800,824,1275,1598,1802,1953,2012,1988,1963,1929,1879,1862,1828,1785,1764,1734,1699,1718,1633,1599,1538,1537,1471,1436,1395,1256,1092,991,845,833,833,782,823,785,773,771,767,767,772,776,775,784,781,782,776,782,783,782,785,790,785,784,785,787,787,790,785,787,791,786,783,777,1000,1002,1012,1031,1117,1766,2179,2337,2448,2498,2431,2423,2386,2331,2276,2236,2232,2164,2145,2105,2042,2006,1968,1943,1826,1768,1732,1642,1282,1227,1170,1076,1048,1028,1016,1024,985,1002,992,991,1005,1016,998,1010,999,1005,1004,1012,1013,1013,1007,1017,1012,1020,1020,1024,1013,1021,1012,1019,1015,1018,1010,1024,1013,1154,1137,1160,1221,1496,2164,2580,2776,2898,2941,2864,2849,2801,2739,2688,2631,2632,2548,2524,2473,2411,2367,2323,2268,2226,2071,1992,1689,1445,1401,1256,1243,1189,1186,1171,1169,1157,1169,1161,1158,1166,1165,1166,1190,1171,1177,1174,1177,1181,1185,1179,1192,1183,1189,1188,1190,1186,1196,1185,1197,1187,1190,1182,1193,1185,722,724,733,748,768,1258,1484,1684,1820,1931,1880,1846,1814,1753,1748,1714,1682,1648,1675,1582,1607,1516,1483,1450,1417,1384,1351,1318,1285,1232,1174,881,805,748,735,741,724,740,729,743,724,720,745,726,740,748,742,738,764,742,742,753,751,756,744,761,754,755,761,735,753,758,754,742,742,0,0,0,0,0,0,0,0,0,0,0,0,0,0,0,0,0,0,0,0,0,0,0,0,0,0,0,0,0,0,0,0,0,0,0,0,0,0,0,0,0,0,0,0,0,0,0,0,0,0,0,0,0,0,0,0,0,0,0,0,0,0,0,0,0,696,716,720,732,760,1178,1401,1560,1660,1711,1706,1678,1652,1624,1651,1569,1610,1555,1553,1460,1434,1406,1378,1389,1377,1297,1269,1278,1170,1052,773,839,737,720,746,706,708,719,725,729,719,724,727,725,733,748,727,747,745,729,724,736,743,749,746,738,752,737,736,746,748,741,736,732,731,317,316,321,263,264,348,540,598,659,722,744,733,720,708,705,682,670,658,652,639,634,617,605,593,581,566,558,546,530,520,500,369,359,416,323,264,265,266,261,248,250,250,268,261,256,253,255,258,270,264,261,266,272,263,262,262,263,260,262,274,264,266,266,269,266,1009,1011,1022,1041,1136,1785,2200,2359,2470,2518,2451,2442,2405,2350,2295,2256,2251,2182,2163,2122,2060,2024,1984,1960,1844,1786,1748,1658,1298,1143,1130,1084,1058,1037,1024,1033,985,1002,992,991,1005,1016,998,1010,999,1005,1004,1012,1013,1013,1007,1017,1012,1020,1020,1024,1013,1021,1012,1019,1015,1018,1010,1024,1013,1280,1284,1310,1442,1880,2911,3407,3588,3721,3738,3696,3610,3537,3436,3364,3311,3210,3159,3037,2877,2643,2386,2342,2090,2027,1983,1949,1692,1638,1493,1428,1374,1350,1315,1305,1308,1327,1357,1359,1383,1370,1384,1384,1382,1380,1388,1388,1385,1391,1384,1386,1385,1384,1388,1384,1384,1385,1388,1384,1383,1385,1385,1384,1386,1382,629,632,633,636,674,1084,1226,1364,1468,1518,1516,1494,1470,1447,1423,1400,1416,1353,1329,1306,1282,1260,1236,1213,1189,1166,1142,1119,1095,1072,1048,789,703,652,641,639,640,642,644,639,653,639,645,648,656,660,644,641,656,652,646,652,652,650,645,653,651,651,652,657,644,653,650,651,648,475,467,452,479,493,575,838,921,997,1050,1057,1042,1028,1014,994,985,966,951,937,926,912,897,895,868,849,836,847,834,796,665,650,775,685,598,484,465,456,460,463,463,464,468,464,469,468,469,470,466,468,462,466,464,466,468,469,468,467,468,469,468,467,476,468,473,469,849,849,872,863,1008,1412,1709,1876,1976,2041,2023,1980,1952,1909,1894,1873,1843,1799,1788,1747,1715,1667,1646,1620,1595,1567,1521,1332,1183,1120,962,985,952,880,866,852,857,833,808,827,819,828,831,828,838,827,839,844,832,830,835,841,837,836,844,837,833,835,832,837,834,833,848,844,839,452,448,464,458,469,516,825,929,1001,1066,1071,1038,1023,1006,1025,989,974,942,940,923,908,890,886,858,844,846,803,784,766,754,624,507,546,500,455,444,444,399,397,409,411,409,401,400,411,413,411,408,414,407,410,404,421,409,426,414,422,409,411,415,413,407,401,413,400,866,884,877,893,950,1398,1712,1907,1975,2016,2047,2017,2047,1958,1964,1894,1864,1834,1832,1774,1717,1688,1659,1656,1626,1596,1567,1511,1422,1146,1075,1066,911,896,896,896,898,887,888,886,884,905,898,886,896,900,897,900,902,897,905,904,895,893,904,906,892,910,892,891,892,900,906,906,885,360,367,362,364,409,554,647,731,790,857,946,882,855,841,882,810,795,782,769,772,741,734,715,708,693,679,661,652,633,620,607,618,579,377,374,365,366,367,348,346,346,348,361,360,360,362,358,364,360,356,362,354,352,362,356,354,366,352,350,362,361,385,362,365,357,1068,1067,1094,1111,1332,1806,2207,2385,2503,2545,2521,2449,2408,2392,2347,2310,2274,2242,2211,2173,2132,2072,2046,2016,1982,1938,1588,1444,1449,1330,1156,1144,1137,1084,1080,1059,1066,1050,1034,1028,1039,1053,1047,1053,1056,1045,1051,1053,1062,1051,1046,1056,1056,1057,1063,1062,1047,1057,1051,1060,1062,1062,1064,1060,1055,843,848,864,861,930,1325,1667,1858,1971,2022,2006,1966,1934,1904,1890,1855,1824,1779,1761,1730,1697,1665,1633,1608,1584,1554,1495,1453,1307,1264,919,927,912,868,859,842,851,839,822,828,829,840,844,842,845,836,841,839,847,837,829,837,840,838,844,845,840,837,838,841,839,848,850,849,844,544,551,547,548,601,777,1036,1168,1246,1315,1332,1316,1291,1270,1239,1219,1198,1178,1156,1148,1116,1095,1075,1063,1042,1017,992,994,950,930,779,721,649,564,560,565,553,536,514,510,516,520,514,515,516,521,518,516,520,516,521,528,532,535,520,518,516,523,520,517,517,538,517,525,520,632,635,639,644,673,870,1196,1311,1449,1488,1487,1457,1442,1401,1390,1374,1353,1364,1301,1285,1258,1237,1221,1198,1210,1170,1131,1116,1096,1030,700,686,680,657,648,630,647,621,624,627,623,632,659,660,659,645,657,659,657,649,648,642,640,652,650,645,654,642,635,656,650,660,661,657,648,506,507,523,512,522,757,937,1046,1132,1208,1208,1176,1158,1140,1144,1118,1100,1068,1063,1045,1026,1008,990,973,956,943,907,890,872,850,768,701,648,526,516,499,505,500,487,492,498,506,506,512,504,499,497,524,501,493,500,499,525,528,506,508,506,502,504,503,507,526,505,507,498,761,759,781,800,904,1184,1532,1655,1803,1864,1834,1807,1771,1730,1715,1705,1690,1633,1612,1615,1576,1503,1511,1456,1432,1402,1388,1317,1168,1101,827,871,867,792,786,756,778,762,745,747,756,751,757,764,763,752,755,760,758,752,755,756,760,757,759,766,762,758,758,758,762,765,767,766,761,535,536,553,540,550,779,974,1079,1160,1237,1237,1206,1188,1171,1171,1150,1133,1101,1095,1080,1062,1043,1025,1010,993,982,947,930,909,862,805,788,661,554,544,528,535,517,500,499,503,507,509,515,515,503,509,513,510,501,503,505,508,505,510,514,507,507,506,510,507,511,513,512,507,650,652,664,658,708,901,1242,1385,1499,1561,1554,1527,1494,1479,1473,1446,1419,1381,1368,1339,1322,1296,1267,1249,1226,1204,1085,1065,1012,944,760,716,746,675,663,644,661,608,603,617,620,617,609,608,620,620,622,621,622,616,621,619,633,623,629,624,628,619,621,624,626,619,608,621,608,839,843,855,856,962,1274,1657,1876,1973,2013,1994,1967,1928,1910,1896,1861,1829,1779,1762,1730,1706,1672,1637,1608,1578,1554,1415,1408,1361,1205,1010,911,909,875,863,842,858,808,806,818,822,821,811,810,822,822,824,823,825,817,823,820,835,825,830,826,829,820,823,825,828,820,810,822,809,895,899,906,909,1125,1407,1800,1975,2087,2116,2115,2053,2022,2002,1955,1949,1891,1922,1849,1794,1783,1756,1704,1683,1692,1647,1596,1440,1360,1211,983,970,938,925,915,898,901,885,881,888,890,893,908,904,913,897,900,906,908,897,910,908,912,908,912,909,908,911,904,911,906,902,913,910,901,775,806,791,820,844,1196,1584,1743,1772,1816,1800,1788,1821,1735,1825,1657,1657,1630,1660,1563,1551,1531,1485,1472,1425,1480,1394,1270,1184,968,883,841,824,809,820,796,800,822,803,799,805,797,799,829,810,817,817,811,829,816,817,820,815,841,817,820,814,829,816,822,821,826,813,825,824,0,0,0,0,0,0,0,0,0,0,0,0,0,0,0,0,0,0,0,0,0,0,0,0,0,0,0,0,0,0,0,0,0,0,0,0,0,0,0,0,0,0,0,0,0,0,0,0,0,0,0,0,0,0,0,0,0,0,0,0,0,0,0,0,0,749,768,753,784,795,1300,1491,1641,1675,1720,1719,1695,1731,1646,1736,1597,1572,1548,1580,1607,1474,1554,1425,1400,1376,1351,1327,1302,1158,964,838,802,786,771,783,759,758,783,769,767,764,792,766,782,768,786,776,781,784,778,781,781,784,784,786,788,783,789,802,780,787,777,794,778,773,659,661,668,668,723,918,1261,1406,1521,1582,1574,1547,1514,1499,1492,1466,1438,1400,1387,1358,1340,1314,1285,1266,1243,1220,1103,1083,1028,960,774,722,756,684,672,653,670,608,603,617,620,617,609,608,620,620,622,621,622,616,621,619,633,623,629,624,628,619,621,624,626,619,608,621,608,1351,1344,1381,1453,1786,2489,2902,3074,3162,3191,3156,3074,3039,2998,2965,2907,2881,2799,2764,2515,2288,2171,2205,1978,1902,1873,1710,1571,1544,1498,1458,1438,1422,1384,1372,1355,1349,1337,1320,1326,1327,1338,1342,1340,1343,1334,1339,1337,1345,1335,1327,1335,1338,1336,1342,1343,1338,1335,1336,1339,1337,1346,1348,1347,1342,475,467,452,479,493,575,838,921,997,1050,1057,1042,1028,1014,994,985,966,951,937,926,912,897,895,868,849,836,847,834,796,665,650,775,685,598,484,465,456,460,463,463,464,468,464,469,468,469,470,466,468,462,466,464,466,468,469,468,467,468,469,468,467,476,468,473,469,712,715,746,749,757,1255,1416,1570,1672,1717,1782,1687,1660,1634,1608,1581,1555,1528,1486,1474,1448,1422,1395,1369,1342,1316,1288,1262,1236,1204,1116,1074,753,736,725,723,724,726,721,720,714,716,726,732,729,730,738,747,740,744,740,742,739,751,738,744,743,744,741,739,734,748,742,765,765,954,959,960,977,1002,1768,2138,2324,2436,2466,2445,2414,2374,2332,2275,2245,2201,2146,2103,2071,2028,1976,1933,1902,1854,1824,1769,1724,1604,1387,1069,1037,1029,980,971,972,977,978,965,966,967,969,968,967,969,972,970,969,971,966,967,969,969,970,967,968,970,971,971,966,968,975,969,972,971,910,896,899,932,967,1672,1927,2053,2144,2179,2236,2159,2123,2085,2029,1994,1981,1945,1905,1875,1820,1786,1752,1762,1705,1647,1632,1598,1398,1130,1079,1026,936,919,939,906,891,916,897,896,907,913,900,915,901,908,906,910,940,916,915,917,918,949,919,922,912,919,918,920,922,920,914,935,935,408,412,411,412,416,664,769,858,945,1015,1011,994,979,963,946,931,915,898,883,867,850,835,819,802,787,771,754,739,722,700,691,674,648,509,470,415,416,417,406,407,413,415,413,414,412,417,412,415,416,410,412,414,417,419,413,415,414,413,419,418,412,414,408,416,412,915,894,930,927,1037,1652,1886,2020,2200,2179,2241,2132,2165,2129,2094,1994,2012,1956,1891,1894,1880,1786,1752,1718,1729,1693,1624,1620,1574,1378,1112,960,938,925,932,924,914,910,932,929,941,949,936,947,937,944,939,944,962,953,945,961,956,974,958,983,953,973,980,959,972,993,952,969,966,1206,1200,1215,1232,1435,2326,2755,2902,3003,3047,3016,2958,2924,2878,2819,2772,2725,2652,2595,2528,2490,2425,2394,2334,2111,2083,1956,1743,1637,1355,1385,1304,1297,1244,1225,1227,1236,1239,1225,1227,1235,1231,1233,1235,1232,1241,1238,1233,1240,1228,1240,1233,1244,1242,1237,1236,1241,1246,1242,1233,1231,1243,1233,1236,1235,1184,1200,1189,1234,1293,2375,2714,2875,2982,2991,2926,2945,2852,2827,2760,2700,2656,2607,2585,2480,2429,2381,2346,2319,2254,2008,1933,1759,1600,1327,1340,1280,1276,1225,1212,1226,1184,1184,1176,1175,1184,1183,1181,1182,1184,1186,1185,1182,1188,1182,1184,1186,1182,1189,1183,1188,1189,1188,1187,1185,1189,1189,1183,1186,1185,923,928,947,986,1072,1736,2088,2314,2408,2448,2449,2428,2432,2300,2311,2206,2184,2198,2078,2106,1987,1947,1899,1856,1866,1768,1794,1681,1474,1349,1183,1072,1002,970,956,937,942,957,967,976,982,991,987,999,992,1012,976,1005,990,978,978,996,1032,988,1005,1000,996,1002,999,1000,997,986,992,996,979,788,801,800,799,819,1421,1719,1940,2028,2084,2073,2034,2009,1976,1933,1909,1862,1815,1779,1737,1700,1670,1655,1588,1552,1534,1493,1444,1331,1158,1128,913,852,839,811,812,806,810,799,792,801,801,806,808,808,812,808,810,813,805,807,808,809,810,808,809,809,811,812,809,810,815,810,813,812,964,950,954,989,1098,1792,2055,2180,2269,2301,2358,2278,2240,2200,2143,2106,2090,2052,2012,1978,1923,1887,1850,1860,1801,1741,1723,1648,1301,1218,1100,1081,991,973,982,961,950,985,958,967,968,975,962,974,964,963,966,971,995,974,973,977,977,1008,979,982,972,986,979,994,982,985,975,1005,1005,980,985,988,994,1045,1875,2209,2396,2503,2530,2509,2476,2437,2393,2334,2304,2259,2203,2158,2115,2081,2028,1994,1951,1904,1868,1814,1770,1573,1241,1153,1064,1070,1015,1005,999,988,987,984,982,992,988,987,993,991,992,989,986,993,986,988,993,992,992,990,990,991,991,993,989,994,998,993,996,995,940,961,949,965,981,1739,1993,2152,2244,2278,2346,2230,2195,2159,2124,2090,2116,2019,2020,1951,1915,1880,1845,1809,1817,1723,1660,1607,1426,1066,1067,1043,1020,984,976,956,935,939,928,921,930,930,934,937,937,941,937,939,942,934,935,937,938,939,937,938,938,940,941,938,939,944,939,942,941,1109,1094,1104,1149,1241,2148,2415,2534,2616,2646,2694,2604,2561,2510,2462,2454,2387,2344,2304,2263,2202,2160,2121,2054,1979,1916,1894,1781,1513,1237,1186,1192,1140,1118,1128,1100,1087,1119,1098,1098,1107,1110,1101,1110,1100,1107,1107,1108,1138,1117,1114,1116,1118,1151,1120,1121,1110,1122,1121,1124,1124,1124,1115,1141,1141,1101,1084,1107,1152,1466,2124,2475,2715,2821,2811,2784,2733,2732,2676,2684,2536,2492,2475,2391,2380,2289,2248,2191,2180,2144,2073,2026,1788,1566,1502,1268,1185,1160,1135,1097,1097,1104,1109,1132,1144,1154,1162,1155,1180,1186,1188,1141,1172,1155,1148,1187,1196,1197,1198,1204,1198,1201,1198,1205,1180,1159,1152,1157,1161,1144,888,894,893,894,923,1616,1918,2109,2247,2290,2245,2247,2191,2141,2116,2064,2049,1998,1959,1894,1868,1808,1802,1773,1730,1672,1650,1594,1570,1376,1224,1009,940,902,892,892,908,899,896,896,898,899,897,897,900,902,900,898,903,897,898,898,899,901,897,899,901,901,902,896,900,905,900,903,902,308,310,311,312,312,411,568,635,702,760,772,760,747,735,723,711,698,686,674,661,649,637,624,612,600,588,574,562,550,537,447,436,426,416,317,313,314,316,278,278,279,280,281,281,282,283,283,285,285,285,286,287,287,287,289,289,290,291,291,292,293,293,293,298,298,809,843,816,831,870,1500,1714,1843,1940,1978,1993,1934,1932,1872,1872,1809,1798,1770,1704,1747,1653,1622,1594,1563,1528,1497,1466,1437,1313,1148,1030,931,909,836,848,824,825,828,833,831,836,846,834,841,834,839,846,844,842,842,841,844,843,844,842,846,848,848,844,844,850,862,871,874,861,0,0,0,0,0,0,0,0,0,0,0,0,0,0,0,0,0,0,0,0,0,0,0,0,0,0,0,0,0,0,0,0,0,0,0,0,0,0,0,0,0,0,0,0,0,0,0,0,0,0,0,0,0,0,0,0,0,0,0,0,0,0,0,0,0,1119,1104,1113,1155,1228,2170,2437,2556,2636,2667,2714,2625,2580,2529,2481,2473,2405,2362,2322,2280,2218,2176,2137,2072,1997,1932,1910,1695,1447,1252,1195,1188,1149,1128,1137,1100,1087,1119,1098,1098,1107,1110,1101,1110,1100,1107,1107,1108,1138,1117,1114,1116,1118,1151,1120,1121,1110,1122,1121,1124,1124,1124,1115,1141,1141,1226,1224,1274,1371,2046,2804,3298,3492,3570,3576,3523,3440,3367,3288,3219,3156,3109,3028,2928,2877,2746,2608,2450,2356,2276,2212,2122,2008,1669,1539,1372,1342,1278,1299,1245,1271,1280,1282,1375,1364,1375,1386,1384,1397,1386,1390,1388,1404,1428,1404,1412,1400,1404,1443,1421,1412,1413,1424,1418,1446,1447,1442,1439,1481,1425,712,715,746,749,757,1255,1416,1570,1672,1717,1782,1687,1660,1634,1608,1581,1555,1528,1486,1474,1448,1422,1395,1369,1342,1316,1288,1262,1236,1204,1116,1074,753,736,725,723,724,726,721,720,714,716,726,732,729,730,738,747,740,744,740,742,739,751,738,744,743,744,741,739,734,748,742,765,765,621,622,625,622,643,874,1165,1317,1419,1489,1509,1487,1458,1435,1413,1398,1369,1345,1323,1301,1286,1264,1233,1220,1194,1177,1149,1116,1093,938,922,723,666,648,640,632,632,620,555,556,555,560,565,564,561,566,562,562,562,562,562,562,562,562,562,562,562,562,563,564,562,563,561,561,560,424,426,428,428,427,592,796,882,971,1034,1032,1031,999,992,973,956,950,924,908,897,876,855,848,837,828,808,759,755,729,716,690,627,448,444,434,444,430,427,375,377,381,383,383,387,381,383,382,390,386,386,389,390,389,389,390,390,390,389,389,388,388,388,388,388,388,243,247,246,247,249,287,428,483,537,586,615,607,596,586,574,565,555,546,534,527,517,505,495,487,475,466,455,448,438,430,418,410,294,286,256,250,250,251,163,163,163,163,175,170,165,169,166,175,168,167,168,164,165,168,168,165,171,165,166,171,168,175,167,168,165,807,811,812,813,856,1291,1712,1970,2080,2115,2116,2083,2051,2001,1973,1935,1905,1852,1811,1786,1736,1703,1648,1625,1586,1548,1503,1472,1393,1275,1041,916,868,844,835,826,831,844,774,785,785,781,799,790,797,800,787,800,784,786,784,784,792,788,789,786,788,784,783,790,788,788,798,790,789,385,385,388,389,390,479,688,769,850,940,956,941,925,915,898,883,871,853,837,823,807,792,776,762,746,736,716,669,687,521,576,496,436,406,396,392,396,411,337,338,343,348,350,350,351,342,345,351,346,349,350,346,350,349,349,347,341,345,347,348,348,349,347,349,337,559,561,578,570,592,813,1042,1191,1270,1354,1350,1355,1331,1289,1267,1250,1229,1227,1186,1164,1161,1139,1096,1075,1056,1041,1011,989,986,929,657,642,627,588,587,584,586,587,508,508,507,512,517,517,520,515,513,513,514,515,516,520,514,522,531,520,517,527,513,512,512,512,512,512,512,291,291,307,308,303,336,520,581,675,694,713,711,682,688,676,647,653,643,635,613,603,581,585,574,548,538,526,516,531,479,470,460,450,333,315,304,312,305,250,250,253,250,255,254,261,269,258,267,257,257,255,258,256,280,273,258,259,253,252,256,256,256,256,256,256,318,336,329,304,340,387,571,634,711,761,779,781,775,765,781,727,716,685,702,636,677,688,613,637,649,612,601,579,557,466,416,470,411,388,398,324,341,342,298,281,283,284,307,294,290,285,285,290,307,302,304,303,310,300,311,297,298,310,310,305,291,296,309,304,291,531,533,535,536,548,706,1001,1132,1240,1287,1318,1294,1269,1255,1234,1196,1192,1161,1150,1129,1098,1087,1045,1046,1024,1004,1001,970,903,834,759,694,595,573,554,544,544,536,479,473,475,484,481,488,482,484,493,491,485,487,481,487,493,482,489,491,488,488,487,490,491,491,491,491,490,183,185,185,186,187,235,323,360,398,435,460,453,446,439,432,424,417,410,403,396,388,380,373,366,358,351,344,337,330,324,315,308,301,294,235,188,188,233,146,146,146,148,151,157,152,156,153,156,157,157,156,149,151,158,158,149,155,153,150,158,155,157,156,154,151,311,312,313,314,315,451,571,635,698,753,773,751,752,739,716,704,701,680,668,656,644,674,625,609,608,585,573,572,549,540,526,516,489,456,319,316,347,317,266,266,266,271,271,272,268,279,265,270,270,267,271,274,274,271,271,271,271,271,271,271,271,271,270,270,269,366,368,369,370,372,424,647,714,782,847,868,856,843,835,818,805,793,780,768,754,742,729,716,704,691,679,666,652,642,631,615,602,556,384,376,372,373,374,333,330,331,332,334,333,333,337,335,335,335,335,335,335,335,335,335,335,335,335,336,337,335,336,334,334,333,51,51,78,78,78,79,88,99,109,120,128,127,124,122,121,118,116,115,112,110,109,106,104,102,100,98,96,94,92,90,88,86,84,81,80,78,78,79,14,14,14,14,13,13,14,14,14,14,14,13,13,14,14,14,14,14,14,13,13,12,12,12,12,12,12,281,282,299,299,304,365,496,554,611,667,700,689,678,666,657,644,634,628,612,600,591,583,568,556,546,534,524,512,502,490,480,468,458,316,365,313,314,306,214,217,215,216,217,215,216,216,216,216,216,216,214,216,215,216,216,215,216,214,214,214,214,214,214,214,214,749,751,754,755,807,1112,1482,1676,1795,1859,1867,1831,1794,1764,1743,1701,1673,1634,1620,1589,1554,1528,1491,1466,1434,1402,1368,1343,1315,1188,1038,954,807,784,774,764,767,773,717,724,722,726,730,724,731,729,720,720,721,719,730,725,725,722,724,731,724,730,730,727,729,720,721,722,721,951,955,958,974,1048,1605,2069,2283,2428,2453,2448,2415,2376,2320,2286,2247,2198,2144,2101,2064,2018,1980,1921,1889,1847,1799,1750,1640,1431,1094,1107,1041,1037,989,980,972,946,959,902,908,908,913,918,912,924,917,907,905,908,906,920,913,917,912,921,920,912,914,918,916,921,903,911,909,908,614,616,617,618,628,670,1119,1269,1421,1479,1491,1488,1441,1418,1392,1383,1356,1323,1317,1276,1260,1228,1220,1200,1182,1173,1126,1016,897,856,726,686,656,648,652,626,629,621,574,577,580,588,587,587,588,587,584,587,583,579,580,587,588,588,588,588,588,587,587,586,586,586,586,586,586,1069,1069,1077,1091,1136,1843,2181,2372,2534,2605,2602,2551,2521,2459,2416,2383,2342,2294,2265,2223,2176,2130,2098,2056,2014,1949,1682,1445,1363,1197,1187,1161,1121,1109,1089,1086,1065,1045,986,988,988,993,999,997,994,1000,995,995,995,995,995,995,995,995,995,995,995,995,996,997,995,996,994,994,993,0,0,0,0,0,0,0,0,0,0,0,0,0,0,0,0,0,0,0,0,0,0,0,0,0,0,0,0,0,0,0,0,0,0,0,0,0,0,0,0,0,0,0,0,0,0,0,0,0,0,0,0,0,0,0,0,0,0,0,0,0,0,0,0,0,798,802,820,821,830,1142,1614,1778,1895,1949,1947,1927,1877,1864,1809,1782,1772,1739,1707,1670,1638,1585,1563,1551,1503,1474,1441,1185,1164,1093,912,896,853,843,831,833,831,823,748,748,751,748,753,752,759,767,756,765,755,755,753,756,754,769,769,756,757,751,750,754,754,754,754,754,754,621,622,625,622,643,874,1165,1317,1419,1489,1509,1487,1458,1435,1413,1398,1369,1345,1323,1301,1286,1264,1233,1220,1194,1177,1149,1116,1093,938,922,723,666,648,640,632,632,620,555,556,555,560,565,564,561,566,562,562,562,562,562,562,562,562,562,562,562,562,563,564,562,563,561,561,560,1303,1307,1311,1343,1466,2514,2857,2969,3060,3104,3101,3021,2974,2910,2850,2826,2774,2726,2692,2629,2578,2468,2303,2245,2173,2109,1845,1523,1484,1456,1417,1392,1348,1346,1319,1304,1275,1263,1248,1254,1259,1275,1272,1298,1279,1284,1284,1277,1305,1278,1269,1274,1279,1289,1274,1278,1284,1277,1277,1270,1275,1279,1270,1269,1259,944,941,949,983,1019,1526,1953,2120,2232,2339,2331,2251,2227,2172,2141,2110,2081,2033,2012,1977,1929,1893,1896,1726,1737,1669,1623,1429,1425,1180,1084,1014,992,972,980,976,962,943,936,933,933,943,942,941,948,937,940,943,947,936,944,944,947,941,945,958,942,946,936,945,943,943,943,943,943,956,961,959,967,1003,1682,2008,2174,2259,2318,2321,2242,2241,2167,2160,2093,2066,2054,2017,1970,1940,1907,1873,1804,1794,1720,1532,1436,1180,1151,1049,1038,1007,986,965,970,914,870,856,857,869,881,876,906,883,897,890,882,911,880,872,880,885,892,883,881,887,884,883,882,881,886,877,876,866,1312,1325,1406,1709,2116,2809,3259,3388,3454,3492,3462,3393,3346,3271,3220,3125,3066,3020,2961,2911,2835,2511,2463,2252,2066,1954,1918,1829,1596,1512,1459,1423,1432,1353,1351,1363,1376,1384,1421,1420,1435,1434,1433,1441,1444,1454,1449,1441,1454,1451,1437,1458,1449,1454,1449,1456,1451,1450,1445,1451,1453,1453,1453,1453,1453,1069,1094,1083,1106,1250,1997,2345,2476,2609,2634,2613,2573,2539,2444,2430,2380,2324,2282,2246,2219,2157,2119,2079,2044,2014,1948,1685,1561,1228,1232,1208,1152,1129,1108,1098,1095,1088,1033,1022,1028,1023,1036,1047,1076,1050,1057,1060,1049,1086,1062,1057,1059,1049,1063,1049,1056,1063,1044,1055,1050,1047,1054,1047,1045,1035,719,721,750,731,750,1085,1402,1565,1730,1756,1794,1706,1731,1657,1620,1629,1601,1537,1545,1518,1515,1460,1438,1394,1418,1358,1343,1270,1276,1214,1197,837,760,744,748,744,742,746,725,717,729,741,734,728,734,737,733,739,741,733,742,749,753,762,766,745,734,744,738,738,727,727,727,727,727,648,650,664,656,688,954,1246,1373,1511,1557,1558,1535,1510,1487,1463,1439,1417,1392,1369,1346,1323,1303,1280,1257,1232,1208,1186,1160,1141,1110,1004,900,699,672,673,668,670,645,635,633,635,657,647,668,659,665,664,655,670,657,644,649,656,668,647,658,653,649,656,649,661,661,655,650,640,913,924,912,917,939,1559,1893,2092,2179,2252,2243,2171,2166,2097,2090,2028,2028,1949,1921,1913,1884,1813,1793,1764,1705,1675,1629,1461,1429,1229,1084,1001,952,960,925,923,920,895,887,896,906,901,909,912,904,915,901,905,917,901,910,907,911,918,909,910,928,919,907,906,928,904,902,908,898,1144,1147,1164,1218,1422,2000,2445,2638,2739,2776,2745,2723,2646,2620,2552,2512,2447,2428,2359,2330,2290,2254,2215,2166,2126,1983,1870,1599,1320,1298,1236,1212,1208,1178,1164,1140,1136,1139,1119,1131,1131,1140,1138,1164,1160,1163,1170,1154,1153,1150,1153,1161,1159,1183,1157,1153,1161,1166,1164,1156,1152,1149,1135,1136,1126,875,875,864,880,884,1507,1812,1965,2066,2105,2121,2060,2055,1990,1964,1924,1896,1878,1849,1810,1776,1749,1708,1672,1643,1609,1581,1311,1206,1044,955,940,918,929,879,874,884,853,839,842,851,861,863,878,870,878,876,871,880,865,858,864,866,876,867,868,871,869,867,866,869,872,863,862,852,796,798,800,816,841,1232,1587,1760,1882,1994,1991,1927,1897,1852,1821,1790,1766,1724,1708,1677,1634,1603,1612,1540,1554,1489,1457,1416,1395,1225,988,861,897,822,832,827,834,817,810,808,807,834,830,817,824,832,822,823,843,826,834,836,833,835,828,831,826,826,821,816,815,815,815,815,815,1019,1023,1011,1024,1041,1791,2128,2257,2358,2416,2409,2339,2323,2273,2226,2213,2159,2138,2101,2063,2026,1996,1953,1917,1883,1831,1731,1552,1400,1230,1207,1107,1063,1081,1027,1019,1010,1009,995,1004,1007,1022,1019,1038,1032,1042,1040,1027,1043,1032,1022,1031,1031,1046,1022,1038,1029,1022,1029,1032,1036,1046,1029,1036,1026,762,765,768,769,777,1257,1526,1692,1830,1873,1873,1837,1806,1777,1745,1714,1685,1654,1624,1593,1563,1539,1508,1478,1447,1416,1386,1360,1330,1177,1121,827,807,789,780,775,762,721,707,708,708,724,724,755,731,736,736,729,757,729,721,726,731,741,726,730,734,727,727,722,726,732,723,722,712,744,748,752,752,758,1219,1480,1643,1786,1809,1804,1793,1763,1735,1704,1674,1650,1615,1587,1557,1532,1504,1474,1444,1415,1384,1355,1316,1302,1253,1020,983,790,772,762,758,753,739,728,733,735,742,740,758,748,755,752,741,759,745,743,747,746,758,739,765,748,766,763,745,763,748,738,750,740,1127,1128,1147,1227,1962,2528,2946,3124,3194,3272,3126,3063,3028,2965,3023,2839,2775,2861,2655,2586,2522,2458,2422,2331,2352,2211,1865,1787,1661,1301,1259,1216,1236,1155,1148,1156,1159,1174,1265,1223,1223,1237,1225,1248,1240,1239,1263,1387,1248,1264,1378,1261,1271,1403,1272,1258,1257,1264,1363,1364,1355,1355,1355,1307,1300,1382,1375,1448,1560,2419,3166,3593,3720,3781,3812,3774,3704,3648,3566,3499,3417,3348,3299,3231,3091,2834,2474,2490,2248,2168,2054,1963,1792,1616,1567,1541,1460,1405,1364,1370,1368,1384,1403,1500,1489,1509,1520,1560,1535,1544,1556,1536,1562,1568,1561,1565,1577,1553,1560,1571,1575,1583,1584,1559,1576,1562,1562,1562,1562,1562,1317,1321,1339,1374,1673,2564,2886,3036,3104,3116,3120,3043,3022,2947,2938,2842,2793,2777,2711,2691,2623,2415,2293,2124,2023,1853,1572,1547,1524,1505,1427,1432,1374,1350,1328,1326,1325,1284,1273,1282,1282,1298,1298,1324,1301,1309,1305,1294,1323,1303,1295,1300,1305,1315,1300,1304,1308,1301,1301,1296,1300,1306,1297,1296,1286,1274,1276,1326,1422,2330,2901,3478,3678,3690,3812,3686,3633,3496,3402,3331,3277,3181,3099,3032,2956,2883,2549,2585,2390,2153,2087,1972,1894,1842,1545,1396,1370,1310,1272,1273,1273,1288,1305,1421,1404,1404,1417,1417,1441,1420,1416,1442,1454,1428,1435,1444,1446,1449,1439,1476,1467,1445,1471,1433,1444,1494,1450,1446,1494,1442,771,774,776,783,793,1277,1550,1715,1852,1894,1888,1858,1827,1798,1764,1733,1705,1674,1642,1611,1581,1554,1524,1493,1461,1430,1404,1376,1346,1183,1135,843,816,799,791,786,762,707,693,694,694,711,711,741,717,722,722,715,744,716,707,712,717,727,712,716,721,714,713,708,712,718,709,708,698,0,0,0,0,0,0,0,0,0,0,0,0,0,0,0,0,0,0,0,0,0,0,0,0,0,0,0,0,0,0,0,0,0,0,0,0,0,0,0,0,0,0,0,0,0,0,0,0,0,0,0,0,0,0,0,0,0,0,0,0,0,0,0,0,0,1303,1307,1311,1343,1466,2514,2857,2969,3060,3104,3101,3021,2974,2910,2850,2826,2774,2726,2692,2629,2578,2468,2303,2245,2173,2109,1845,1523,1484,1456,1417,1392,1348,1346,1319,1304,1275,1263,1248,1254,1259,1275,1272,1298,1279,1284,1284,1277,1305,1278,1269,1274,1279,1289,1274,1278,1284,1277,1277,1270,1275,1279,1270,1269,1259,0,0,0,0,0,0,0,0,0,0,0,0,0,0,0,0,0,0,0,0,0,0,0,0,0,0,0,0,0,0,0,0,0,0,0,0,0,0,0,0,0,0,0,0,0,0,0,0,0,0,0,0,0,0,0,0,0,0,0,0,0,0,0,0,0,887,896,897,900,940,1460,1862,2020,2090,2133,2121,2081,2053,2012,1984,1955,1924,1891,1858,1829,1796,1747,1724,1690,1668,1628,1595,1395,1411,1262,1085,1037,930,913,906,905,907,884,872,874,869,880,870,884,880,885,878,883,882,877,880,882,882,889,886,882,880,882,881,880,880,877,880,887,882,501,511,493,494,505,832,936,1039,1134,1180,1182,1164,1146,1126,1108,1090,1072,1054,1036,1018,1000,981,963,945,927,909,892,896,855,837,839,684,632,509,500,497,513,517,486,469,474,475,474,491,479,494,487,483,488,478,483,480,482,487,483,482,482,486,483,477,479,483,481,488,481,455,457,458,460,468,711,824,963,1065,1119,1125,1107,1089,1071,1053,1036,1019,1000,982,964,946,928,910,893,875,858,839,822,781,756,739,722,706,551,466,463,464,465,427,434,432,439,441,437,433,437,431,437,434,433,435,437,441,443,437,436,442,434,440,439,438,465,436,439,438,670,686,673,684,720,1068,1274,1454,1526,1572,1578,1560,1528,1510,1474,1462,1439,1425,1389,1365,1339,1317,1293,1271,1261,1226,1206,1167,1144,1099,1044,853,714,704,684,679,680,691,654,642,646,648,644,658,650,680,658,650,680,647,650,649,648,654,650,649,650,653,649,647,648,652,650,657,650,1110,1120,1117,1148,1344,1942,2379,2522,2608,2628,2612,2549,2508,2495,2430,2389,2374,2328,2295,2253,2212,2152,2128,2080,2044,2000,1793,1580,1443,1437,1212,1185,1149,1136,1125,1124,1121,1110,1088,1082,1095,1096,1095,1109,1104,1111,1107,1108,1114,1101,1108,1109,1109,1113,1108,1107,1102,1111,1110,1107,1107,1111,1109,1116,1109,884,894,888,898,932,1439,1842,2006,2074,2109,2098,2067,2035,2007,1972,1940,1912,1878,1845,1812,1778,1745,1711,1678,1650,1610,1578,1535,1307,1241,1137,1047,923,907,897,896,899,898,886,871,886,886,885,896,893,915,892,888,896,885,891,889,887,898,893,892,889,893,889,885,885,889,887,894,887,760,775,761,778,772,1323,1471,1682,1766,1805,1789,1770,1732,1715,1682,1658,1630,1605,1575,1545,1518,1492,1464,1436,1407,1386,1293,1332,1241,1145,902,815,797,800,772,768,769,750,717,711,732,709,711,727,716,730,722,720,723,713,718,716,719,725,720,717,718,722,718,712,715,719,717,724,717,519,520,580,520,532,903,986,1101,1191,1244,1244,1225,1207,1247,1228,1149,1130,1111,1093,1066,1054,1069,1016,1053,979,1003,940,921,902,883,865,744,730,535,579,526,524,525,523,522,525,530,527,530,532,536,534,531,531,527,534,536,545,537,536,535,528,547,535,528,531,533,539,542,534,555,565,547,548,561,933,1050,1165,1263,1308,1306,1286,1267,1246,1226,1207,1186,1166,1147,1126,1106,1087,1066,1046,1026,1031,986,989,946,910,894,591,759,564,554,552,564,569,547,534,535,546,535,553,541,573,550,538,572,539,538,538,540,547,542,545,542,546,543,544,540,557,541,553,542,799,806,819,828,845,1269,1669,1831,1906,1932,1938,1905,1874,1842,1792,1790,1759,1732,1681,1669,1662,1609,1579,1526,1530,1471,1456,1435,1399,1273,1033,999,851,847,824,823,811,823,804,799,804,800,798,816,811,818,814,809,818,806,810,805,811,819,810,806,812,813,809,811,812,816,814,821,814,549,576,576,578,566,803,1033,1135,1236,1282,1282,1264,1245,1226,1208,1188,1171,1151,1133,1114,1096,1077,1057,1084,1021,1002,983,965,885,868,828,758,710,592,583,580,581,544,535,527,539,540,531,542,539,544,545,539,543,540,539,539,538,565,544,546,542,543,543,543,546,547,544,553,550,700,708,702,696,709,1223,1370,1526,1645,1663,1657,1630,1600,1579,1554,1524,1498,1473,1450,1422,1396,1400,1347,1315,1323,1293,1166,1164,1117,1061,978,788,784,711,716,701,710,701,682,668,675,676,674,689,681,696,690,682,691,676,681,681,681,686,683,687,683,685,682,680,682,687,683,692,682,894,905,895,893,923,1633,1840,2007,2114,2112,2109,2055,2034,2010,1968,1948,1914,1871,1851,1810,1772,1768,1714,1681,1671,1641,1566,1556,1350,990,989,964,935,917,892,892,908,901,885,869,876,877,876,891,883,898,892,884,894,877,883,882,883,888,884,889,884,886,884,881,884,888,885,893,883,795,784,786,789,862,1441,1570,1760,1847,1884,1872,1833,1814,1784,1754,1705,1689,1647,1620,1607,1582,1610,1526,1542,1459,1537,1410,1362,1351,1272,1177,1104,823,806,795,784,792,786,778,784,806,813,799,782,807,813,808,802,810,815,852,821,821,812,807,797,809,796,799,819,801,841,809,803,802,434,435,436,437,440,590,785,912,1020,1072,1080,1062,1046,1028,1011,994,976,959,940,924,912,888,871,854,837,820,802,786,771,746,730,633,637,455,444,440,442,425,373,381,381,387,390,390,381,392,379,393,383,381,383,388,393,394,389,384,389,381,391,391,390,410,388,391,390,408,408,411,502,506,626,759,835,949,972,975,982,968,932,918,927,913,900,885,840,849,811,796,782,771,753,741,723,740,733,666,535,552,426,417,414,416,416,400,405,410,431,406,411,404,408,407,403,407,407,403,408,408,412,410,417,413,413,414,417,415,441,424,447,425,477,479,480,481,490,764,865,1016,1118,1171,1179,1158,1140,1120,1101,1083,1064,1046,1028,1009,990,972,952,934,915,897,877,862,848,830,696,680,528,498,488,484,485,465,444,429,429,435,448,440,442,438,439,437,450,445,445,448,447,448,450,442,446,447,449,450,446,482,446,448,447,708,718,711,705,719,1243,1392,1547,1666,1684,1677,1651,1621,1599,1573,1543,1518,1491,1470,1440,1413,1417,1366,1332,1340,1310,1184,1180,1133,1077,994,752,747,720,710,711,719,701,682,668,675,676,674,689,681,696,690,682,691,676,681,681,681,686,683,687,683,685,682,680,682,687,683,692,682,1391,1406,1404,1480,1604,2641,3088,3218,3266,3281,3244,3186,3146,3075,3044,2996,2947,2889,2834,2697,2474,2320,2352,2039,1985,1710,1679,1630,1556,1611,1471,1457,1441,1422,1418,1411,1397,1395,1384,1369,1384,1384,1383,1394,1391,1413,1390,1386,1394,1383,1389,1387,1385,1396,1391,1390,1387,1391,1387,1383,1383,1387,1385,1392,1385,0,0,0,0,0,0,0,0,0,0,0,0,0,0,0,0,0,0,0,0,0,0,0,0,0,0,0,0,0,0,0,0,0,0,0,0,0,0,0,0,0,0,0,0,0,0,0,0,0,0,0,0,0,0,0,0,0,0,0,0,0,0,0,0,0 ]);
