n = 10;
D = [105,258,153,253,297,295,107,296,259,141 ];
q = 0;
prec = array2d(1..0,1..2,[]);
steps = 64;
l = 360;
r = 0;
which = [];
interval = array2d(1..0,1..2,[]);
T = array3d(1..11,1..11,0..64,[0,0,0,0,0,0,0,0,0,0,0,0,0,0,0,0,0,0,0,0,0,0,0,0,0,0,0,0,0,0,0,0,0,0,0,0,0,0,0,0,0,0,0,0,0,0,0,0,0,0,0,0,0,0,0,0,0,0,0,0,0,0,0,0,0,546,547,549,551,553,794,1026,1136,1268,1321,1351,1326,1308,1287,1273,1243,1222,1197,1178,1156,1132,1086,1089,1082,1047,1025,1003,982,880,875,778,681,664,557,562,543,556,542,517,517,515,520,522,521,520,527,515,528,522,528,520,519,523,526,526,524,524,530,521,524,521,522,521,523,522,87,87,87,87,87,88,100,111,122,133,144,141,139,136,134,132,129,128,126,123,121,118,116,115,112,110,108,105,103,102,99,97,94,92,90,88,88,88,43,41,43,44,41,45,43,47,46,44,49,44,44,44,44,45,44,44,44,44,44,43,44,44,44,47,44,505,508,509,522,524,652,961,1055,1162,1235,1258,1235,1220,1197,1177,1156,1140,1116,1095,1075,1061,1035,1016,995,976,964,943,914,903,840,761,639,617,579,531,525,526,513,445,444,443,444,444,445,443,445,442,448,445,443,444,444,444,444,447,446,445,445,445,448,444,447,444,447,446,753,754,757,760,823,1389,1594,1811,1962,1993,1978,1959,1943,1873,1847,1802,1766,1731,1696,1660,1626,1599,1555,1507,1500,1436,1413,1378,1330,1158,938,940,801,780,768,769,771,780,735,732,736,745,737,745,745,748,747,746,754,743,744,749,751,748,746,749,748,750,752,747,747,748,752,754,747,173,173,174,175,175,271,302,333,364,396,411,405,399,393,387,381,375,369,363,357,351,345,339,333,327,321,315,309,303,297,291,285,279,273,267,264,264,265,165,168,165,172,169,174,167,172,166,168,168,168,165,172,170,173,170,173,172,172,202,173,169,206,166,170,168,342,343,344,345,347,452,616,687,780,838,848,835,822,810,794,781,768,754,740,727,714,700,687,674,660,647,634,620,608,592,579,475,447,437,351,347,348,388,314,313,317,319,318,320,313,320,311,323,317,314,315,319,319,319,321,321,319,316,320,322,317,318,317,319,318,494,495,496,498,500,698,919,1017,1138,1191,1224,1201,1184,1166,1154,1127,1107,1084,1067,1048,1026,983,987,983,948,929,910,890,852,840,710,620,604,504,509,491,502,478,462,463,464,468,469,468,469,473,461,475,470,476,467,467,469,472,471,473,473,478,469,473,470,471,470,472,471,315,317,318,319,332,468,573,628,694,759,789,776,765,752,739,727,715,701,688,677,663,651,640,627,614,610,597,576,571,559,505,495,481,435,337,337,339,340,264,263,262,263,263,264,262,264,261,267,264,262,263,263,263,263,266,265,264,264,264,267,263,266,263,266,265,603,603,605,615,619,845,1139,1274,1440,1489,1487,1450,1447,1420,1399,1364,1352,1322,1304,1263,1247,1224,1192,1137,1116,1093,1074,1053,1041,994,878,742,645,642,620,616,616,585,541,540,539,540,540,541,539,541,538,544,541,539,540,540,540,540,543,542,541,541,541,544,540,543,540,543,542,0,0,0,0,0,0,0,0,0,0,0,0,0,0,0,0,0,0,0,0,0,0,0,0,0,0,0,0,0,0,0,0,0,0,0,0,0,0,0,0,0,0,0,0,0,0,0,0,0,0,0,0,0,0,0,0,0,0,0,0,0,0,0,0,0,503,500,498,508,519,750,974,1080,1164,1248,1230,1218,1195,1179,1154,1143,1138,1119,1081,1062,1052,1039,1002,984,958,939,920,907,902,765,848,744,643,536,514,511,566,512,491,496,506,511,505,511,494,511,505,511,506,495,503,507,511,511,511,508,511,508,511,511,511,511,498,510,504,0,0,0,0,0,0,0,0,0,0,0,0,0,0,0,0,0,0,0,0,0,0,0,0,0,0,0,0,0,0,0,0,0,0,0,0,0,0,0,0,0,0,0,0,0,0,0,0,0,0,0,0,0,0,0,0,0,0,0,0,0,0,0,0,0,477,473,472,481,483,614,922,1004,1103,1237,1171,1160,1138,1123,1099,1089,1084,1065,1028,1010,1002,990,953,920,934,892,874,861,843,631,820,615,598,509,487,484,505,484,469,479,478,488,487,489,475,489,473,489,482,474,480,488,489,489,489,489,489,482,489,489,489,489,477,488,479,478,480,481,483,484,582,903,1024,1126,1178,1182,1164,1144,1125,1107,1089,1069,1052,1033,1014,994,975,955,937,919,900,880,861,826,822,717,570,533,520,489,485,486,488,440,446,445,454,451,456,451,460,450,470,462,466,458,458,464,460,459,455,461,471,469,468,459,478,462,462,458,659,661,663,665,708,956,1426,1613,1729,1787,1773,1741,1708,1675,1642,1614,1578,1545,1515,1510,1483,1416,1382,1351,1318,1285,1244,1219,1124,764,749,728,706,697,666,669,673,662,674,649,652,655,657,678,667,674,677,671,680,673,680,678,673,679,677,673,677,679,677,680,679,682,680,680,680,413,414,415,414,419,616,786,853,935,1046,1021,998,1001,963,969,953,936,921,887,867,873,857,823,808,788,793,776,760,743,712,703,690,587,527,424,420,420,421,405,408,416,425,420,425,411,425,411,425,418,411,424,425,425,425,425,424,423,425,425,425,423,425,417,425,415,304,304,305,307,308,418,542,624,688,744,754,742,730,719,706,695,682,671,659,647,635,623,611,599,587,576,563,551,447,453,442,433,422,320,312,308,309,310,291,289,292,298,300,313,293,320,292,296,296,293,295,301,301,305,303,303,298,300,312,317,298,303,300,315,301,64,64,64,64,64,66,74,82,91,99,106,105,103,102,99,98,97,94,93,92,90,88,86,85,84,81,80,78,76,75,73,72,70,68,67,64,66,66,20,20,20,20,20,20,20,20,20,20,20,20,20,20,20,20,20,20,20,20,20,20,20,20,20,20,20,328,329,330,331,332,500,586,679,749,806,816,804,790,777,764,752,738,725,712,699,687,674,660,648,634,622,609,596,570,571,558,544,506,438,337,333,333,335,317,316,319,333,327,336,313,339,319,336,332,321,332,330,329,326,336,329,320,325,340,346,317,318,322,325,315,389,390,392,394,395,501,673,782,904,958,965,951,936,919,905,889,873,858,843,827,812,796,780,766,708,696,683,672,652,648,609,547,534,421,404,395,397,397,348,353,353,364,368,370,358,377,356,368,365,361,360,363,364,367,363,362,366,365,375,377,360,366,359,361,361,503,500,498,508,519,750,974,1080,1164,1248,1230,1218,1195,1179,1154,1143,1138,1119,1081,1062,1052,1039,1002,984,958,939,920,907,902,765,848,744,643,536,514,511,566,512,491,496,506,511,505,511,494,511,505,511,506,495,503,507,511,511,511,508,511,508,511,511,511,511,498,510,504,79,80,80,80,121,122,136,151,165,180,192,189,186,183,180,177,175,171,169,166,163,160,157,154,152,148,146,144,140,138,134,132,129,126,123,121,121,121,68,68,68,68,69,69,68,71,71,70,69,68,68,68,68,71,69,68,69,68,68,68,69,70,69,70,69,540,540,530,532,546,745,1014,1122,1251,1330,1332,1314,1264,1268,1257,1199,1179,1158,1137,1116,1121,1073,1078,1031,1035,991,972,952,881,864,840,682,658,561,538,535,537,536,507,510,510,513,537,522,522,529,522,543,521,525,519,516,519,530,520,517,525,525,516,521,520,532,520,518,518,0,0,0,0,0,0,0,0,0,0,0,0,0,0,0,0,0,0,0,0,0,0,0,0,0,0,0,0,0,0,0,0,0,0,0,0,0,0,0,0,0,0,0,0,0,0,0,0,0,0,0,0,0,0,0,0,0,0,0,0,0,0,0,0,0,498,501,502,515,517,603,949,1042,1146,1218,1242,1220,1203,1181,1161,1141,1126,1102,1081,1061,1047,1022,1002,981,963,952,931,902,892,833,731,604,591,575,513,515,520,512,436,437,436,438,458,446,445,447,444,463,444,440,443,440,440,448,441,439,446,440,439,445,443,460,443,442,442,711,711,709,712,794,1302,1498,1702,1847,1882,1871,1823,1810,1784,1736,1688,1667,1630,1585,1573,1538,1493,1470,1437,1388,1368,1335,1301,1267,1118,1062,881,770,736,724,709,732,712,692,691,693,701,696,700,702,701,701,702,705,699,700,705,707,703,702,705,704,706,708,704,703,704,708,707,703,167,167,168,168,225,253,290,320,350,379,396,390,384,378,373,367,361,355,349,344,338,332,326,321,315,309,303,297,292,286,280,274,268,264,258,253,253,254,158,158,160,158,160,160,161,195,163,164,160,162,160,164,161,167,168,164,161,160,158,161,161,162,158,161,160,336,336,337,339,340,403,604,673,743,822,832,821,806,793,780,768,754,740,727,714,700,689,674,661,648,634,621,609,595,582,520,510,458,352,344,340,341,342,305,306,310,313,333,321,315,322,313,338,316,311,314,315,315,323,315,314,320,311,314,319,316,327,316,314,314,487,488,480,480,493,649,907,1003,1119,1201,1204,1189,1140,1147,1140,1082,1064,1045,1028,1008,1015,970,976,932,936,895,878,860,847,828,753,523,510,508,487,484,485,472,455,455,456,462,477,469,471,475,466,477,469,473,466,464,465,476,465,466,474,473,464,470,469,477,469,467,467,308,310,311,313,326,380,561,615,678,742,773,761,748,736,723,712,699,687,674,663,649,638,626,613,601,598,585,564,560,547,408,402,389,343,330,331,332,332,255,256,255,257,277,265,264,266,263,282,263,259,262,259,259,267,260,258,265,259,258,264,262,279,262,261,261,597,596,598,608,612,830,1121,1260,1371,1473,1470,1452,1420,1400,1372,1360,1338,1308,1294,1249,1234,1210,1187,1124,1105,1081,1062,1042,1022,982,835,645,642,636,614,607,609,584,532,533,532,534,554,542,541,543,540,559,540,536,539,536,536,544,537,535,542,536,535,541,539,556,539,538,538,79,80,80,80,121,122,136,151,165,180,192,189,186,183,180,177,175,171,169,166,163,160,157,154,152,148,146,144,140,138,134,132,129,126,123,121,121,121,68,68,68,68,69,69,68,71,71,70,69,68,68,68,68,71,69,68,69,68,68,68,69,70,69,70,69,535,540,543,517,528,735,1000,1104,1218,1293,1321,1294,1270,1260,1233,1222,1201,1189,1159,1146,1113,1089,1094,1062,1024,1008,928,890,872,693,724,559,631,568,551,520,548,545,504,506,508,517,517,517,513,518,509,517,517,518,519,521,523,522,520,518,520,522,522,517,512,522,516,516,509,475,477,479,480,481,617,878,983,1086,1168,1182,1165,1145,1124,1104,1087,1068,1049,1030,1011,991,974,952,935,916,896,879,859,839,820,692,625,543,531,487,483,484,486,389,385,388,387,396,394,394,394,395,398,400,400,397,398,400,399,397,399,399,399,399,399,399,399,399,399,399,508,514,516,491,499,666,947,1048,1157,1234,1264,1237,1216,1204,1178,1168,1147,1129,1106,1094,1063,1040,1044,1013,976,961,952,895,843,559,696,531,645,543,524,493,521,519,472,470,476,478,482,485,480,479,478,485,485,487,487,483,486,490,488,486,487,488,483,488,481,488,485,486,476,0,0,0,0,0,0,0,0,0,0,0,0,0,0,0,0,0,0,0,0,0,0,0,0,0,0,0,0,0,0,0,0,0,0,0,0,0,0,0,0,0,0,0,0,0,0,0,0,0,0,0,0,0,0,0,0,0,0,0,0,0,0,0,0,0,975,984,1004,1015,1058,1523,2206,2415,2483,2524,2494,2458,2405,2357,2314,2306,2277,2222,2197,2131,2078,2014,1977,1933,1886,1822,1792,1623,1496,1238,1078,1058,1024,1003,997,993,1000,988,930,938,940,936,958,950,956,956,943,959,947,950,944,945,955,950,949,948,950,950,950,950,950,950,950,950,950,476,482,483,458,463,619,876,971,1070,1092,1172,1153,1130,1124,1099,1097,1072,1051,1040,1021,993,973,949,944,914,899,877,868,818,782,670,496,570,510,491,460,493,484,441,445,435,444,445,447,454,452,441,446,447,455,456,447,450,455,453,449,451,450,448,449,445,449,449,447,439,233,234,235,236,279,339,436,470,519,566,580,571,562,553,543,554,546,536,533,517,514,480,470,462,452,444,434,424,416,406,397,358,350,342,294,280,281,281,157,154,156,157,162,163,160,158,157,161,163,163,162,164,166,163,161,163,163,163,163,163,163,163,163,163,163,423,425,427,428,428,453,775,868,958,1037,1054,1039,1021,1003,985,969,952,935,918,902,885,868,850,834,818,800,784,766,749,733,528,466,456,444,434,429,431,433,336,333,335,337,350,351,351,350,350,353,355,354,351,353,355,354,352,354,354,354,354,354,354,354,354,354,354,253,254,255,255,257,264,382,494,545,595,630,620,610,602,594,584,574,564,553,544,534,523,514,504,493,484,474,463,454,383,374,366,357,269,263,257,258,258,223,212,214,215,220,222,218,217,215,219,221,221,220,223,224,221,221,223,223,223,223,223,223,223,223,223,223,321,323,323,325,354,373,577,643,708,775,802,792,777,767,754,741,729,715,704,689,676,664,654,640,627,614,602,588,576,563,552,495,379,371,358,355,354,356,262,264,264,269,264,265,265,269,267,270,269,267,269,269,270,269,270,273,271,271,271,271,271,271,271,271,271,535,540,543,517,528,735,1000,1104,1218,1293,1321,1294,1270,1260,1233,1222,1201,1189,1159,1146,1113,1089,1094,1062,1024,1008,928,890,872,693,724,559,631,568,551,520,548,545,504,506,508,517,517,517,513,518,509,517,517,518,519,521,523,522,520,518,520,522,522,517,512,522,516,516,509,722,724,753,732,827,1328,1543,1808,1862,1910,1899,1879,1832,1798,1834,1730,1696,1663,1646,1651,1561,1527,1494,1460,1440,1392,1358,1324,1290,1256,1104,960,848,748,734,746,736,740,739,731,735,735,738,744,744,749,745,752,750,748,754,751,747,759,753,743,755,740,736,751,751,758,754,752,739,724,726,728,742,783,1057,1515,1619,1734,1777,1785,1767,1714,1709,1712,1656,1602,1573,1544,1516,1488,1460,1454,1425,1375,1366,1318,1290,1231,967,943,784,765,763,737,735,736,727,728,714,719,717,725,727,732,728,726,744,750,737,744,747,750,744,738,745,745,748,755,756,752,745,745,760,752,695,697,724,704,742,1275,1484,1741,1803,1866,1842,1823,1776,1743,1740,1677,1644,1611,1595,1594,1512,1478,1446,1412,1380,1346,1314,1280,1246,1231,1146,880,787,722,708,706,710,712,712,701,703,704,719,723,716,724,723,725,729,718,729,709,712,723,724,714,724,711,706,723,723,728,728,724,711,1010,1012,1015,1046,1238,1883,2259,2443,2545,2581,2559,2513,2467,2477,2442,2343,2299,2256,2262,2163,2117,2073,2026,2031,1982,1899,1857,1675,1492,1148,1144,1096,1060,1038,1026,1049,996,997,987,993,995,1005,1004,1013,1003,1016,999,1023,1002,998,1001,1009,1018,1020,1024,1010,1010,1010,1014,1009,1005,1006,997,1004,995,0,0,0,0,0,0,0,0,0,0,0,0,0,0,0,0,0,0,0,0,0,0,0,0,0,0,0,0,0,0,0,0,0,0,0,0,0,0,0,0,0,0,0,0,0,0,0,0,0,0,0,0,0,0,0,0,0,0,0,0,0,0,0,0,0,613,615,644,618,644,1104,1286,1537,1596,1648,1642,1612,1582,1552,1594,1494,1464,1434,1405,1431,1345,1315,1285,1256,1226,1196,1166,1137,1107,1077,1047,846,751,639,624,623,626,630,635,633,632,632,641,640,649,695,640,641,646,648,647,640,643,648,644,645,643,644,640,639,640,646,644,648,627,834,836,839,879,904,1502,1824,2015,2131,2173,2158,2119,2081,2101,2065,1970,1933,1894,1908,1819,1779,1741,1702,1710,1671,1591,1554,1548,1259,1207,994,908,884,862,887,872,843,842,854,842,847,849,864,871,864,866,868,876,874,865,876,884,878,880,870,869,877,876,877,870,876,869,867,873,864,733,735,738,764,790,1139,1515,1660,1785,1834,1828,1798,1754,1743,1717,1684,1660,1629,1608,1582,1545,1526,1514,1442,1417,1388,1360,1332,1212,1039,829,805,784,762,748,762,744,706,706,706,712,708,712,715,716,713,713,712,718,720,720,719,724,725,716,714,718,715,717,715,717,718,722,720,709,852,849,852,854,940,1553,1870,2059,2167,2211,2195,2155,2116,2078,2054,2001,1968,1930,1902,1851,1819,1787,1733,1693,1654,1615,1582,1520,1334,1273,1008,987,908,880,862,861,823,821,806,812,814,824,823,832,822,835,818,842,821,817,820,828,837,839,843,829,829,829,833,828,824,825,816,823,814,975,989,983,1020,1088,1514,2069,2220,2356,2374,2369,2334,2319,2257,2210,2181,2134,2112,2081,2036,1994,1946,1926,1869,1851,1791,1754,1610,1323,1131,1092,1047,1046,1004,1004,990,971,976,974,979,979,983,982,994,988,983,988,988,990,998,998,1008,998,998,999,1003,1006,1005,999,997,1000,1000,1005,1002,993,722,724,753,732,827,1328,1543,1808,1862,1910,1899,1879,1832,1798,1834,1730,1696,1663,1646,1651,1561,1527,1494,1460,1440,1392,1358,1324,1290,1256,1104,960,848,748,734,746,736,740,739,731,735,735,738,744,744,749,745,752,750,748,754,751,747,759,753,743,755,740,736,751,751,758,754,752,739,118,119,119,119,180,183,206,229,252,274,290,285,280,277,272,267,264,259,254,250,246,241,237,232,228,223,219,214,210,206,201,196,193,188,183,180,181,181,115,108,110,110,111,113,110,112,111,111,111,110,111,111,112,113,114,112,111,112,112,113,112,111,112,112,112,476,477,479,480,482,700,892,1001,1105,1206,1182,1162,1144,1151,1105,1085,1067,1048,1028,1011,1026,974,957,938,919,919,882,891,859,778,759,680,655,515,506,500,497,499,454,457,456,461,464,462,465,472,460,470,470,476,464,463,465,473,464,468,469,473,465,465,465,466,466,465,465,92,92,92,92,140,142,195,178,196,214,278,225,222,218,214,211,207,204,200,198,194,190,187,183,180,176,172,169,165,195,158,154,151,147,144,140,140,141,83,84,82,83,84,84,83,84,83,86,84,86,88,92,88,92,86,84,84,86,84,92,84,84,84,84,84,448,450,451,464,466,558,814,934,1034,1096,1114,1094,1081,1068,1042,1024,1011,989,969,953,940,917,899,881,864,855,842,819,807,793,738,675,492,480,472,467,468,460,383,384,382,386,387,386,387,391,387,387,391,391,390,386,387,392,387,387,390,388,388,390,388,391,389,389,389,696,711,700,704,783,1302,1515,1708,1825,1857,1855,1821,1788,1783,1712,1678,1650,1617,1579,1550,1523,1480,1458,1402,1381,1347,1340,1281,1248,1118,1051,765,744,778,724,708,712,699,716,716,724,712,722,736,719,716,721,751,777,738,760,768,739,739,736,735,719,739,766,768,739,727,727,731,730,0,0,0,0,0,0,0,0,0,0,0,0,0,0,0,0,0,0,0,0,0,0,0,0,0,0,0,0,0,0,0,0,0,0,0,0,0,0,0,0,0,0,0,0,0,0,0,0,0,0,0,0,0,0,0,0,0,0,0,0,0,0,0,0,0,285,285,286,287,288,358,504,563,622,686,706,696,685,674,662,651,640,628,618,607,595,590,573,561,550,540,528,517,506,495,483,463,452,364,292,288,350,290,252,253,256,261,261,261,257,266,256,262,263,262,261,261,262,267,261,262,264,259,263,264,261,262,262,261,261,424,425,426,430,435,604,786,885,977,1076,1054,1037,1020,1030,986,968,952,935,919,903,919,870,854,836,820,823,787,798,768,751,682,649,572,461,456,452,444,440,402,402,402,410,412,409,412,421,406,414,417,424,412,410,413,419,410,413,418,421,413,413,414,415,415,414,414,258,259,260,278,279,329,461,513,566,618,645,635,625,615,604,595,584,574,562,555,542,533,523,513,502,501,493,474,472,462,452,432,398,330,283,280,280,276,202,203,201,205,206,205,206,210,206,206,210,210,209,205,206,211,206,206,209,207,207,209,207,210,208,208,208,546,545,545,551,559,781,1028,1142,1256,1332,1350,1327,1311,1272,1267,1246,1225,1203,1170,1153,1134,1117,1082,1046,1009,997,971,953,933,912,830,677,657,614,562,560,561,548,479,480,478,482,483,482,483,487,483,483,487,487,486,482,483,488,483,483,486,484,484,486,484,487,485,485,485,118,119,119,119,180,183,206,229,252,274,290,285,280,277,272,267,264,259,254,250,246,241,237,232,228,223,219,214,210,206,201,196,193,188,183,180,181,181,115,108,110,110,111,113,110,112,111,111,111,110,111,111,112,113,114,112,111,112,112,113,112,111,112,112,112,352,352,354,355,356,551,674,722,802,860,868,855,841,823,867,800,787,772,759,768,753,718,704,691,678,663,650,602,590,579,565,553,533,485,360,357,358,359,347,352,357,364,359,363,353,361,352,376,357,355,364,359,373,369,369,364,369,362,366,365,371,372,359,364,358,309,310,311,312,313,384,557,623,688,751,772,760,747,736,723,711,698,686,675,661,649,637,625,612,600,588,576,564,552,538,525,440,391,382,372,314,315,316,287,286,287,287,302,296,295,298,297,303,299,297,299,295,296,299,299,295,302,295,295,299,299,305,300,302,298,325,326,327,328,329,415,626,667,742,799,810,796,830,765,782,807,733,720,706,715,702,668,655,642,630,616,603,591,561,551,537,525,472,413,402,330,331,332,315,316,320,321,320,322,320,321,321,328,324,324,327,326,332,335,332,331,333,329,332,334,339,340,333,337,334,224,225,226,227,246,329,398,443,490,535,559,549,544,532,523,518,506,496,488,480,476,466,453,444,435,427,422,409,405,391,382,374,364,335,251,247,248,248,189,185,187,186,186,186,187,188,187,201,188,192,198,193,192,195,191,189,187,191,194,198,195,194,196,194,192,789,783,792,795,849,1378,1711,1894,2055,2076,2073,2030,1986,1954,1943,1887,1850,1807,1771,1738,1701,1663,1633,1588,1555,1524,1484,1430,1316,1190,885,864,878,812,804,801,793,798,785,784,790,793,786,802,796,812,796,796,803,796,799,800,800,811,813,805,800,804,800,809,805,824,802,822,806,293,292,295,296,296,366,564,622,657,711,723,705,700,684,702,667,656,638,633,643,632,598,588,576,565,554,542,531,536,508,486,486,475,448,377,365,296,367,291,292,292,294,292,292,294,294,292,292,292,292,294,296,315,296,292,294,296,296,308,296,294,311,292,294,295,0,0,0,0,0,0,0,0,0,0,0,0,0,0,0,0,0,0,0,0,0,0,0,0,0,0,0,0,0,0,0,0,0,0,0,0,0,0,0,0,0,0,0,0,0,0,0,0,0,0,0,0,0,0,0,0,0,0,0,0,0,0,0,0,0,257,258,259,260,260,313,459,513,565,619,643,633,622,613,602,591,582,571,562,550,541,530,520,510,500,489,480,470,459,448,438,354,326,319,310,262,263,263,234,234,234,237,245,252,246,252,248,245,248,246,244,246,247,248,247,251,248,248,248,249,248,256,246,251,248,75,75,75,75,114,115,129,144,158,172,183,181,178,175,172,170,166,164,162,158,156,153,150,147,144,141,139,135,133,130,127,124,122,118,116,114,114,114,66,58,58,58,58,59,58,59,58,58,58,58,58,59,58,58,60,59,59,59,59,59,59,58,58,59,59,316,316,321,321,324,372,563,626,695,758,784,772,759,742,730,723,708,699,687,673,664,640,636,620,613,598,574,577,547,546,534,438,379,371,330,324,325,326,270,270,267,271,284,278,277,286,275,282,280,290,275,271,273,280,278,273,281,275,273,277,276,284,279,283,277,352,352,354,355,356,551,674,722,802,860,868,855,841,823,867,800,787,772,759,768,753,718,704,691,678,663,650,602,590,579,565,553,533,485,360,357,358,359,347,352,357,364,359,363,353,361,352,376,357,355,364,359,373,369,369,364,369,362,366,365,371,372,359,364,358,520,520,524,525,537,675,1007,1130,1206,1268,1272,1251,1232,1220,1195,1174,1141,1139,1119,1098,1078,1057,1037,1016,998,972,942,942,912,690,869,672,576,561,524,544,530,524,491,491,491,491,491,491,491,491,491,491,491,491,491,491,491,491,491,491,491,491,491,491,491,491,491,491,491,97,98,98,98,148,152,171,192,212,231,246,242,238,234,230,226,223,218,214,211,207,202,199,195,190,187,183,180,175,171,168,164,159,156,152,148,150,150,76,76,76,76,76,76,76,76,76,76,76,76,76,76,76,76,76,76,76,76,76,76,76,76,76,76,76,494,494,497,499,500,548,955,1041,1145,1209,1214,1194,1175,1163,1138,1142,1088,1085,1066,1047,1028,1003,988,968,952,926,896,886,867,556,775,543,528,535,497,518,503,498,469,469,469,469,469,469,469,469,469,469,469,469,469,469,469,469,469,469,469,469,469,469,469,469,469,469,469,496,498,499,500,512,604,956,1063,1167,1224,1227,1204,1185,1166,1147,1128,1107,1088,1070,1050,1030,1010,991,971,952,932,913,887,870,853,648,589,551,525,507,504,505,505,449,449,449,449,449,449,449,449,449,449,449,449,449,449,449,449,449,449,449,449,449,449,449,449,449,449,449,677,679,680,682,694,934,1445,1629,1770,1810,1803,1766,1741,1720,1671,1627,1608,1582,1549,1516,1501,1438,1419,1383,1351,1317,1282,1250,1124,935,917,813,724,718,690,689,698,685,671,671,671,671,671,671,671,671,671,671,671,671,671,671,671,671,671,671,671,671,671,671,671,671,671,671,671,430,431,434,435,436,526,816,891,977,1045,1052,1035,1019,1007,1009,979,958,941,924,908,896,875,858,841,830,809,791,790,762,742,726,711,535,459,448,437,436,439,405,405,405,405,405,405,405,405,405,405,405,405,405,405,405,405,405,405,405,405,405,405,405,405,405,405,405,321,322,323,324,325,427,594,662,729,787,798,786,772,760,747,734,722,711,696,684,671,659,646,633,620,608,596,583,571,557,544,534,513,357,330,344,345,328,300,300,300,300,300,300,300,300,300,300,300,300,300,300,300,300,300,300,300,300,300,300,300,300,300,300,300,0,0,0,0,0,0,0,0,0,0,0,0,0,0,0,0,0,0,0,0,0,0,0,0,0,0,0,0,0,0,0,0,0,0,0,0,0,0,0,0,0,0,0,0,0,0,0,0,0,0,0,0,0,0,0,0,0,0,0,0,0,0,0,0,0,346,347,348,348,351,535,643,717,790,849,861,846,832,819,805,790,777,765,750,736,723,709,696,682,667,654,642,627,614,599,586,573,553,475,373,352,370,371,326,326,326,326,326,326,326,326,326,326,326,326,326,326,326,326,326,326,326,326,326,326,326,326,326,326,326,392,394,395,397,397,484,679,788,910,966,972,958,943,925,911,896,880,864,849,833,818,802,786,771,713,702,688,675,666,653,540,489,480,416,421,398,400,400,340,340,340,340,340,340,340,340,340,340,340,340,340,340,340,340,340,340,340,340,340,340,340,340,340,340,340,520,520,524,525,537,675,1007,1130,1206,1268,1272,1251,1232,1220,1195,1174,1141,1139,1119,1098,1078,1057,1037,1016,998,972,942,942,912,690,869,672,576,561,524,544,530,524,491,491,491,491,491,491,491,491,491,491,491,491,491,491,491,491,491,491,491,491,491,491,491,491,491,491,491,343,365,351,352,354,513,643,721,796,853,888,849,835,822,808,794,781,768,772,766,727,712,716,681,692,655,645,599,585,590,560,481,470,367,434,352,353,354,349,351,353,362,360,356,358,362,355,359,357,357,361,372,379,389,363,357,361,364,365,358,358,391,358,364,358,336,306,308,308,309,360,582,651,678,742,763,751,739,727,715,702,690,678,666,654,642,628,616,615,592,591,568,556,543,531,519,486,365,356,313,310,311,312,294,292,293,291,291,295,294,295,295,299,298,292,293,295,293,295,296,298,295,295,295,293,294,295,295,300,297,348,350,324,351,327,472,622,666,736,838,829,790,777,765,752,739,727,714,720,715,675,662,705,633,644,644,598,586,556,562,532,524,480,456,445,325,326,327,317,322,322,332,321,323,320,326,323,321,322,320,320,323,323,326,325,326,323,325,327,329,323,332,322,328,325,232,232,233,234,291,342,413,459,506,564,577,568,559,550,541,531,523,513,505,495,487,481,468,459,450,441,432,426,414,404,396,386,378,347,239,236,236,237,198,195,197,197,197,197,197,199,197,211,198,201,206,201,200,206,202,199,197,202,206,208,205,206,206,204,202,790,786,785,790,830,1369,1706,1893,2060,2076,2072,2030,1995,1957,1914,1876,1855,1813,1783,1732,1714,1670,1634,1594,1560,1524,1475,1441,1307,1182,1005,856,836,842,804,798,789,796,783,777,784,793,778,801,789,808,796,792,804,792,794,794,794,802,799,801,799,800,797,793,802,820,806,812,806,290,322,292,293,294,423,525,590,651,705,742,706,724,684,672,685,650,662,621,643,604,594,577,595,579,544,537,526,511,500,493,464,439,374,327,292,293,294,290,292,286,288,295,298,315,323,295,296,301,304,301,292,295,302,296,296,298,297,292,294,291,297,297,300,288,70,70,70,106,106,108,121,134,147,160,171,169,166,164,162,158,156,153,151,148,146,142,140,138,135,133,129,127,124,122,120,117,114,111,109,106,106,108,56,56,56,56,58,58,58,55,56,57,56,56,56,56,56,56,55,56,55,56,56,56,56,56,56,56,55,284,254,255,256,256,321,484,540,559,612,633,624,613,603,594,583,573,562,553,543,532,523,512,512,492,491,472,462,452,441,432,422,335,326,260,257,258,259,241,237,239,240,239,242,241,244,241,243,245,240,241,242,241,241,242,243,244,244,243,241,243,245,243,245,244,0,0,0,0,0,0,0,0,0,0,0,0,0,0,0,0,0,0,0,0,0,0,0,0,0,0,0,0,0,0,0,0,0,0,0,0,0,0,0,0,0,0,0,0,0,0,0,0,0,0,0,0,0,0,0,0,0,0,0,0,0,0,0,0,0,323,323,325,326,327,384,575,639,708,774,802,790,777,758,752,740,726,703,701,688,677,653,646,624,625,612,586,589,576,564,553,446,391,340,372,319,330,330,277,279,274,280,302,301,286,301,289,299,296,302,296,279,283,297,290,282,300,285,281,301,293,301,299,299,291,343,365,351,352,354,513,643,721,796,853,888,849,835,822,808,794,781,768,772,766,727,712,716,681,692,655,645,599,585,590,560,481,470,367,434,352,353,354,349,351,353,362,360,356,358,362,355,359,357,357,361,372,379,389,363,357,361,364,365,358,358,391,358,364,358,625,634,634,631,640,917,1181,1370,1482,1538,1548,1512,1502,1476,1453,1425,1389,1364,1351,1325,1289,1252,1240,1216,1179,1154,1110,1086,1075,849,804,790,740,660,644,642,644,640,574,582,573,579,582,580,580,580,576,577,578,579,576,575,576,578,577,577,578,577,576,580,575,582,576,578,575,378,378,379,380,384,441,684,764,845,919,940,924,909,894,880,865,850,836,821,805,790,775,764,745,733,715,700,685,669,655,552,455,406,403,388,383,384,411,356,344,344,344,346,345,352,349,350,348,353,356,364,353,357,365,353,354,354,359,369,368,366,366,366,366,366,603,599,607,604,613,898,1128,1310,1422,1478,1489,1454,1446,1420,1398,1371,1344,1311,1283,1282,1239,1203,1192,1170,1132,1108,1097,1057,1047,806,672,672,713,633,618,615,617,617,542,546,541,547,550,548,548,548,544,545,546,547,544,543,544,546,545,545,546,545,544,548,543,550,544,546,543,332,333,334,335,335,534,588,681,751,809,823,807,808,795,786,755,742,729,718,707,689,676,663,651,638,627,613,602,590,573,561,524,458,348,339,337,338,367,302,309,300,307,312,306,308,308,304,305,306,311,311,305,304,313,306,304,306,305,311,316,310,318,311,312,307,920,922,927,937,975,1510,1802,2014,2153,2246,2229,2202,2172,2124,2088,2053,2018,1989,1946,1912,1875,1839,1803,1768,1732,1698,1662,1484,1404,1148,1013,989,977,948,936,933,928,930,922,917,927,937,932,933,936,938,941,946,943,940,952,952,953,939,934,952,933,950,937,937,933,950,939,950,940,566,565,575,572,572,713,1059,1224,1336,1393,1398,1374,1358,1341,1320,1282,1260,1232,1206,1194,1170,1161,1126,1107,1070,1046,1037,1015,1004,648,636,637,637,600,612,588,582,580,518,522,517,523,526,524,524,524,520,521,522,523,520,519,520,522,521,521,522,521,520,524,519,526,520,522,519,278,282,280,284,284,392,509,568,626,681,693,682,686,675,664,638,628,616,601,595,582,573,561,552,539,527,518,505,496,484,473,420,410,399,364,285,286,285,227,230,226,232,235,233,233,233,229,230,231,232,229,228,229,231,230,230,231,230,229,233,228,235,229,231,228,396,385,400,405,404,490,700,834,866,922,930,998,900,958,870,906,841,825,859,795,828,812,796,806,765,706,733,720,680,666,624,525,474,403,452,404,404,423,376,363,364,364,366,365,372,369,370,368,373,376,384,373,377,385,373,374,374,379,389,388,386,386,386,386,386,347,348,349,359,378,470,635,720,792,854,864,850,852,837,825,796,783,769,750,741,726,714,699,686,671,656,644,629,605,551,515,487,377,445,432,399,356,356,293,288,292,294,298,296,292,299,292,294,293,293,295,294,295,297,296,296,295,296,295,299,294,301,295,295,294,0,0,0,0,0,0,0,0,0,0,0,0,0,0,0,0,0,0,0,0,0,0,0,0,0,0,0,0,0,0,0,0,0,0,0,0,0,0,0,0,0,0,0,0,0,0,0,0,0,0,0,0,0,0,0,0,0,0,0,0,0,0,0,0,0,625,634,634,631,640,917,1181,1370,1482,1538,1548,1512,1502,1476,1453,1425,1389,1364,1351,1325,1289,1252,1240,1216,1179,1154,1110,1086,1075,849,804,790,740,660,644,642,644,640,574,582,573,579,582,580,580,580,576,577,578,579,576,575,576,578,577,577,578,577,576,580,575,582,576,578,575,0,0,0,0,0,0,0,0,0,0,0,0,0,0,0,0,0,0,0,0,0,0,0,0,0,0,0,0,0,0,0,0,0,0,0,0,0,0,0,0,0,0,0,0,0,0,0,0,0,0,0,0,0,0,0,0,0,0,0,0,0,0,0,0,0,546,547,549,551,553,794,1026,1136,1268,1321,1351,1326,1308,1287,1273,1243,1222,1197,1178,1156,1132,1086,1089,1082,1047,1025,1003,982,880,875,778,681,664,557,562,543,556,542,517,517,515,520,522,521,520,527,515,528,522,528,520,519,523,526,526,524,524,530,521,524,521,522,521,523,522,87,87,87,87,87,88,100,111,122,133,144,141,139,136,134,132,129,128,126,123,121,118,116,115,112,110,108,105,103,102,99,97,94,92,90,88,88,88,43,41,43,44,41,45,43,47,46,44,49,44,44,44,44,45,44,44,44,44,44,43,44,44,44,47,44,505,508,509,522,524,652,961,1055,1162,1235,1258,1235,1220,1197,1177,1156,1140,1116,1095,1075,1061,1035,1016,995,976,964,943,914,903,840,761,639,617,579,531,525,526,513,445,444,443,444,444,445,443,445,442,448,445,443,444,444,444,444,447,446,445,445,445,448,444,447,444,447,446,753,754,757,760,823,1389,1594,1811,1962,1993,1978,1959,1943,1873,1847,1802,1766,1731,1696,1660,1626,1599,1555,1507,1500,1436,1413,1378,1330,1158,938,940,801,780,768,769,771,780,735,732,736,745,737,745,745,748,747,746,754,743,744,749,751,748,746,749,748,750,752,747,747,748,752,754,747,173,173,174,175,175,271,302,333,364,396,411,405,399,393,387,381,375,369,363,357,351,345,339,333,327,321,315,309,303,297,291,285,279,273,267,264,264,265,165,168,165,172,169,174,167,172,166,168,168,168,165,172,170,173,170,173,172,172,202,173,169,206,166,170,168,342,343,344,345,347,452,616,687,780,838,848,835,822,810,794,781,768,754,740,727,714,700,687,674,660,647,634,620,608,592,579,475,447,437,351,347,348,388,314,313,317,319,318,320,313,320,311,323,317,314,315,319,319,319,321,321,319,316,320,322,317,318,317,319,318,494,495,496,498,500,698,919,1017,1138,1191,1224,1201,1184,1166,1154,1127,1107,1084,1067,1048,1026,983,987,983,948,929,910,890,852,840,710,620,604,504,509,491,502,478,462,463,464,468,469,468,469,473,461,475,470,476,467,467,469,472,471,473,473,478,469,473,470,471,470,472,471,315,317,318,319,332,468,573,628,694,759,789,776,765,752,739,727,715,701,688,677,663,651,640,627,614,610,597,576,571,559,505,495,481,435,337,337,339,340,264,263,262,263,263,264,262,264,261,267,264,262,263,263,263,263,266,265,264,264,264,267,263,266,263,266,265,603,603,605,615,619,845,1139,1274,1440,1489,1487,1450,1447,1420,1399,1364,1352,1322,1304,1263,1247,1224,1192,1137,1116,1093,1074,1053,1041,994,878,742,645,642,620,616,616,585,541,540,539,540,540,541,539,541,538,544,541,539,540,540,540,540,543,542,541,541,541,544,540,543,540,543,542,0,0,0,0,0,0,0,0,0,0,0,0,0,0,0,0,0,0,0,0,0,0,0,0,0,0,0,0,0,0,0,0,0,0,0,0,0,0,0,0,0,0,0,0,0,0,0,0,0,0,0,0,0,0,0,0,0,0,0,0,0,0,0,0,0 ]);
