n = 30;
D = [232,134,298,103,84,240,276,163,128,117,227,116,227,150,154,195,154,278,286,98,161,192,170,236,199,126,133,285,205,87 ];
q = 0;
prec = array2d(1..0,1..2,[]);
steps = 64;
l = 360;
r = 0;
which = [];
interval = array2d(1..0,1..2,[]);
T = array3d(1..31,1..31,0..64,[0,0,0,0,0,0,0,0,0,0,0,0,0,0,0,0,0,0,0,0,0,0,0,0,0,0,0,0,0,0,0,0,0,0,0,0,0,0,0,0,0,0,0,0,0,0,0,0,0,0,0,0,0,0,0,0,0,0,0,0,0,0,0,0,0,1258,1256,1239,1282,1375,1565,1890,1979,2016,2085,1977,2014,1980,1979,1961,1873,1847,1843,1764,1696,1664,1698,1561,1614,1631,1515,1438,1454,1408,1367,1362,1342,1394,1336,1305,1351,1256,1339,1356,1338,1344,1344,1374,1421,1366,1390,1391,1413,1413,1429,1438,1428,1396,1440,1398,1391,1404,1398,1421,1493,1473,1501,1478,1444,1451,756,760,765,767,796,879,1007,1102,1193,1246,1259,1240,1239,1221,1155,1135,1131,1094,1075,1059,1040,1015,999,978,962,943,924,903,885,863,856,824,817,788,772,769,773,775,775,772,782,797,797,787,781,783,790,794,823,804,794,816,823,810,860,824,792,802,787,787,779,799,800,798,782,550,592,554,556,606,613,693,773,852,897,944,930,874,900,869,854,817,803,789,775,755,746,732,718,704,689,675,661,647,633,635,621,606,576,563,600,560,562,561,562,564,575,634,622,593,625,602,641,621,609,611,579,585,614,592,578,625,591,577,609,601,637,609,607,592,472,428,486,440,432,476,539,586,663,711,779,767,697,671,730,649,625,640,616,604,610,594,587,572,560,546,526,526,515,507,482,471,485,458,484,479,453,454,434,440,447,467,444,453,441,456,441,449,447,445,441,446,450,457,449,449,448,446,452,449,445,454,438,447,440,738,737,747,750,775,912,971,1123,1171,1218,1206,1185,1177,1157,1146,1172,1133,1074,1052,1034,1018,992,977,962,940,933,902,880,855,845,842,805,789,768,767,749,748,753,776,756,754,762,766,766,822,813,771,801,783,764,775,809,817,823,814,823,816,838,814,798,797,782,768,766,756,369,370,371,373,374,398,451,504,557,603,615,605,595,586,581,571,556,546,537,527,517,507,497,487,478,468,458,448,438,429,419,407,398,388,378,375,376,377,369,362,371,380,377,374,368,368,374,383,386,374,379,410,426,409,409,386,370,384,371,376,365,381,378,387,370,629,648,633,635,695,715,810,905,992,1028,1079,1047,998,1027,994,972,938,916,905,888,866,855,838,822,805,789,772,755,739,722,722,705,688,656,642,675,640,642,648,648,645,659,656,649,656,671,661,660,667,671,748,746,753,700,668,657,664,667,654,661,667,655,657,659,655,300,301,384,385,386,319,362,404,447,488,636,626,616,585,596,585,556,565,555,545,534,524,514,487,477,483,457,463,437,443,341,333,325,388,390,387,388,389,362,362,360,364,364,363,363,380,372,368,368,371,389,395,394,396,369,364,368,370,364,376,368,368,369,369,368,874,881,834,826,945,978,1108,1277,1350,1397,1417,1354,1351,1318,1276,1289,1271,1205,1184,1185,1163,1118,1097,1075,1122,1057,1025,988,990,986,935,946,877,916,895,855,857,858,870,874,868,879,873,873,877,884,881,870,877,877,883,875,878,881,882,884,877,884,876,885,879,894,882,883,877,202,202,203,204,204,212,240,268,296,325,348,342,336,331,318,312,307,301,296,290,285,279,274,269,263,258,252,247,247,242,231,225,220,219,214,210,210,211,196,205,201,203,205,205,204,211,200,208,201,200,203,207,211,213,210,205,201,200,211,207,201,202,201,207,201,680,671,674,676,694,763,863,981,1051,1125,1113,1079,1078,1044,1048,1015,1021,990,972,940,937,905,914,871,853,836,819,814,784,767,749,798,713,706,682,690,681,683,675,670,678,694,678,691,678,685,692,682,685,679,678,684,679,677,682,686,685,686,680,679,686,698,692,700,689,197,198,198,199,200,206,234,262,289,317,332,326,321,316,311,305,300,295,289,284,279,273,268,263,257,252,247,241,236,231,225,220,215,210,204,200,201,201,184,190,187,188,190,190,190,194,187,192,188,188,190,193,195,197,196,194,190,189,198,195,192,192,193,196,193,904,973,938,962,1032,1098,1257,1374,1490,1524,1552,1517,1467,1541,1465,1404,1376,1318,1331,1271,1282,1263,1242,1212,1194,1164,1173,1122,1050,1072,1026,1023,1045,937,985,956,935,981,968,959,973,1003,989,984,984,1000,993,997,1017,1013,1161,1192,1298,1080,1001,985,991,1001,993,975,981,1000,985,1011,991,293,294,295,296,297,312,354,395,436,476,509,501,493,484,458,451,443,435,427,419,412,404,396,388,380,373,365,357,344,336,334,326,318,310,302,298,299,299,294,287,301,289,291,297,291,288,295,300,305,302,302,304,304,304,300,297,292,304,294,301,301,295,291,299,322,1111,1125,1130,1186,1287,1416,1578,1686,1792,1818,1855,1794,1757,1766,1690,1678,1643,1586,1584,1530,1522,1536,1487,1431,1407,1397,1366,1321,1294,1278,1245,1217,1212,1156,1163,1166,1152,1179,1193,1196,1193,1205,1226,1203,1237,1236,1218,1214,1223,1229,1299,1309,1319,1292,1348,1299,1251,1236,1227,1221,1228,1216,1226,1275,1214,751,753,778,763,794,966,989,1102,1188,1246,1234,1276,1196,1176,1215,1129,1111,1092,1072,1053,1033,1015,996,976,957,980,919,899,874,855,885,822,869,813,790,762,764,766,792,793,787,831,824,799,808,823,805,828,863,821,821,810,802,808,804,814,806,800,797,799,797,805,806,807,781,339,340,341,342,343,365,413,462,511,555,593,583,574,564,530,521,512,503,494,484,475,466,457,448,439,430,421,412,403,394,385,376,367,358,349,344,345,346,334,335,335,342,335,339,334,339,335,334,334,333,337,337,339,339,335,338,338,340,340,346,339,347,337,338,338,636,639,641,669,657,722,815,909,995,1038,1068,1093,1054,1017,975,958,943,927,910,894,877,896,843,828,811,795,779,761,746,730,723,697,689,664,650,646,648,650,646,644,662,659,654,677,660,678,677,668,700,672,670,676,674,686,664,662,669,675,666,664,668,675,655,678,677,447,428,429,430,453,473,526,598,649,703,708,694,686,674,677,652,591,580,570,560,549,539,528,518,508,497,487,476,489,479,483,471,460,414,404,459,434,435,420,425,425,425,424,420,430,427,430,429,424,427,423,429,426,431,433,439,426,425,429,433,438,437,430,429,429,758,760,785,770,801,959,996,1109,1195,1253,1241,1283,1203,1183,1222,1136,1118,1099,1079,1060,1040,1022,1003,983,964,987,926,906,881,862,892,829,862,820,797,769,771,773,807,779,791,812,795,799,792,801,799,805,805,793,807,838,856,839,836,808,790,817,800,793,786,820,801,824,795,1499,1473,1514,1587,1834,2011,2183,2302,2366,2466,2401,2350,2333,2325,2250,2174,2176,2173,2065,2022,2004,1959,1910,1916,1844,1796,1832,1721,1718,1709,1584,1540,1533,1526,1530,1482,1480,1511,1643,1639,1610,1628,1637,1680,1641,1657,1674,1741,1657,1698,1690,1696,1670,1720,1693,1658,1654,1655,1666,1698,1690,1717,1693,1701,1656,500,476,503,504,482,522,610,698,728,817,825,812,799,786,734,745,682,670,658,672,634,622,610,598,586,574,562,551,562,550,563,539,510,498,467,507,509,484,491,492,490,490,491,492,499,496,492,495,492,495,499,495,500,496,504,502,496,499,500,499,500,508,499,501,500,305,306,307,308,309,326,369,412,455,496,508,500,492,484,499,491,460,452,444,436,427,419,411,403,395,387,379,371,363,355,364,356,347,323,315,310,311,312,299,304,309,316,310,315,303,311,302,326,307,303,312,310,325,340,320,314,319,309,316,316,320,327,307,312,305,285,286,287,288,289,303,342,382,422,461,475,467,460,452,450,443,430,422,415,407,400,392,385,377,370,362,355,347,339,332,324,315,307,336,327,290,290,291,285,291,284,289,294,297,295,304,295,292,300,297,292,289,291,299,292,291,294,293,288,291,288,293,288,293,284,1129,1191,1185,1089,1167,1306,1600,1838,1800,1839,1760,1817,1858,1631,1701,1670,1742,1619,1489,1558,1566,1580,1470,1324,1429,1387,1359,1246,1230,1183,1182,1149,1108,1163,1223,1158,1188,1177,1165,1161,1179,1188,1182,1188,1177,1210,1187,1202,1191,1183,1198,1199,1198,1197,1205,1216,1192,1207,1197,1189,1193,1211,1212,1213,1182,974,955,934,944,990,1116,1349,1488,1559,1571,1519,1558,1489,1503,1466,1458,1390,1406,1365,1298,1274,1281,1226,1241,1215,1167,1129,1152,1077,1115,1036,1067,1039,1004,973,977,950,987,1001,1006,961,960,1015,994,990,996,993,1011,1058,1006,1026,1038,1042,1019,1021,1031,1034,1054,1089,1037,1020,1045,1097,1047,1017,1352,1353,1376,1498,1656,1944,2176,2192,2263,2299,2265,2248,2195,2221,2211,2065,2031,2041,1996,1949,1916,1833,1828,1760,1716,1736,1656,1614,1547,1525,1492,1454,1414,1360,1410,1373,1388,1367,1456,1441,1481,1484,1489,1524,1473,1483,1496,1524,1539,1512,1517,1558,1574,1551,1519,1505,1482,1516,1486,1490,1487,1512,1482,1514,1509,808,789,856,799,933,923,1038,1200,1268,1264,1334,1282,1245,1225,1221,1174,1200,1138,1118,1121,1113,1098,1077,988,1012,975,959,939,931,1009,897,871,857,857,802,826,800,834,818,823,822,860,830,822,829,847,835,845,846,841,839,832,825,833,840,843,830,844,825,837,828,859,862,862,852,290,291,292,292,293,309,350,391,432,472,484,476,469,461,477,469,438,430,422,415,407,399,391,384,376,368,361,353,345,337,347,339,331,307,299,294,295,296,308,279,279,280,323,303,294,282,284,289,324,312,322,319,333,304,325,301,305,339,355,316,292,299,334,317,288,0,0,0,0,0,0,0,0,0,0,0,0,0,0,0,0,0,0,0,0,0,0,0,0,0,0,0,0,0,0,0,0,0,0,0,0,0,0,0,0,0,0,0,0,0,0,0,0,0,0,0,0,0,0,0,0,0,0,0,0,0,0,0,0,0,1312,1324,1251,1313,1431,1590,1782,1959,1994,2082,2112,1975,1947,1884,1901,1848,1806,1814,1740,1711,1713,1632,1688,1613,1604,1553,1511,1436,1458,1465,1389,1342,1330,1283,1252,1282,1260,1355,1342,1372,1340,1374,1372,1358,1359,1397,1356,1384,1365,1384,1376,1386,1382,1391,1394,1391,1395,1379,1396,1379,1391,1397,1394,1392,1415,0,0,0,0,0,0,0,0,0,0,0,0,0,0,0,0,0,0,0,0,0,0,0,0,0,0,0,0,0,0,0,0,0,0,0,0,0,0,0,0,0,0,0,0,0,0,0,0,0,0,0,0,0,0,0,0,0,0,0,0,0,0,0,0,0,739,723,703,727,746,825,887,1030,1038,1125,1147,1107,1091,1105,1057,1070,1053,1036,981,1002,950,952,951,926,910,906,876,856,829,815,807,758,772,750,742,731,736,735,728,728,732,748,733,741,733,751,740,736,749,731,735,739,736,741,738,743,739,746,744,741,739,751,736,748,739,1428,1354,1356,1407,1648,1819,1915,2165,2145,2244,2192,2149,2145,2118,1984,2045,1946,1918,1850,1875,1785,1811,1812,1754,1677,1614,1637,1543,1569,1568,1446,1412,1456,1443,1390,1388,1419,1377,1437,1479,1479,1473,1511,1484,1512,1548,1503,1503,1543,1507,1548,1490,1522,1558,1679,1627,1570,1521,1501,1510,1519,1498,1510,1566,1486,1315,1305,1276,1345,1501,1651,1886,2016,2033,2117,2121,2056,1969,1929,1946,1920,1847,1849,1843,1796,1718,1732,1710,1616,1639,1558,1526,1490,1458,1493,1393,1390,1333,1308,1282,1309,1293,1372,1371,1380,1382,1396,1420,1441,1407,1430,1392,1440,1425,1447,1403,1403,1426,1445,1422,1432,1438,1448,1424,1422,1413,1425,1427,1422,1392,1024,992,972,1011,1074,1208,1319,1501,1473,1580,1633,1545,1521,1527,1474,1479,1453,1432,1365,1380,1319,1312,1304,1271,1247,1239,1198,1141,1136,1114,1097,1041,1048,1021,1014,1003,1010,1009,1015,1013,1031,1032,1044,1081,1038,1054,1052,1053,1081,1054,1054,1062,1059,1068,1044,1047,1050,1062,1046,1049,1058,1070,1053,1065,1068,1620,1608,1621,1743,1962,2148,2345,2493,2534,2578,2571,2519,2406,2359,2378,2334,2278,2251,2183,2186,2111,2052,2073,1973,2012,1884,1845,1817,1778,1822,1693,1701,1632,1621,1601,1618,1596,1676,1782,1773,1787,1789,1794,1834,1799,1810,1816,1812,1839,1811,1822,1827,1832,1835,1819,1831,1808,1833,1812,1818,1826,1849,1816,1825,1824,1311,1290,1270,1344,1493,1655,1824,2031,1993,2089,2056,2038,1975,1938,1915,1957,1871,1868,1778,1819,1698,1693,1714,1671,1634,1549,1545,1481,1455,1445,1413,1347,1364,1360,1324,1312,1289,1317,1364,1368,1366,1372,1382,1376,1409,1395,1392,1384,1402,1404,1473,1474,1487,1463,1394,1410,1409,1419,1411,1401,1414,1392,1403,1448,1392,1540,1599,1594,1704,1852,2208,2268,2415,2389,2519,2559,2360,2339,2295,2269,2263,2213,2154,2115,2051,2098,1999,1986,1899,1915,1878,1824,1726,1687,1712,1622,1631,1569,1568,1552,1571,1560,1675,1708,1693,1735,1739,1742,1785,1728,1756,1750,1780,1790,1767,1773,1812,1828,1809,1772,1766,1736,1770,1740,1743,1743,1767,1742,1772,1763,1769,1807,1900,2095,2361,2659,2823,3001,2973,3036,3109,2904,2843,2783,2751,2678,2620,2650,2514,2465,2405,2355,2346,2246,2242,2132,2082,2015,1997,2010,1866,1846,1838,1766,1764,1762,1840,1863,2102,2098,2126,2145,2116,2163,2125,2144,2124,2156,2172,2150,2132,2153,2169,2180,2165,2183,2162,2172,2179,2169,2161,2146,2176,2198,2165,1208,1176,1087,1129,1228,1358,1546,1728,1747,1838,1921,1750,1728,1666,1689,1645,1598,1604,1537,1514,1478,1442,1486,1408,1426,1379,1330,1274,1274,1275,1203,1205,1159,1124,1099,1124,1106,1205,1198,1203,1195,1219,1248,1242,1221,1218,1237,1268,1231,1275,1271,1265,1210,1218,1244,1254,1254,1223,1266,1318,1267,1258,1271,1245,1248,1607,1595,1674,1716,1917,2121,2302,2541,2515,2521,2548,2500,2471,2358,2319,2390,2321,2247,2212,2180,2085,2104,2146,2035,1954,1924,1901,1803,1777,1748,1688,1650,1627,1620,1629,1668,1590,1659,1788,1756,1765,1808,1771,1790,1773,1824,1808,1800,1809,1794,1845,1822,1864,1819,1795,1789,1828,1808,1796,1784,1810,1812,1801,1807,1793,1199,1225,1136,1186,1294,1459,1657,1808,1827,1915,1996,1851,1801,1764,1786,1740,1691,1671,1607,1579,1542,1504,1569,1468,1485,1437,1386,1349,1328,1330,1254,1238,1226,1192,1148,1174,1156,1255,1225,1269,1225,1241,1248,1235,1243,1256,1249,1251,1266,1241,1257,1249,1257,1258,1264,1268,1271,1267,1295,1241,1268,1275,1291,1268,1265,439,467,429,430,472,465,526,587,669,707,725,693,682,671,709,648,637,645,633,604,610,582,571,559,564,553,526,515,546,554,482,470,459,448,437,433,434,435,430,430,431,432,433,434,435,437,437,439,440,441,442,444,444,445,446,447,448,449,450,450,453,454,454,455,456,1055,1098,1008,1040,1126,1242,1414,1590,1621,1714,1766,1664,1610,1549,1575,1533,1488,1496,1432,1410,1383,1393,1389,1312,1331,1287,1260,1185,1188,1192,1120,1107,1080,1046,1020,1045,1026,1126,1084,1092,1077,1092,1074,1112,1077,1087,1115,1172,1092,1107,1110,1106,1112,1142,1136,1104,1097,1089,1104,1118,1108,1119,1110,1111,1096,312,313,314,315,316,334,379,456,500,541,553,545,536,528,596,586,503,495,487,478,470,430,422,414,405,397,389,380,372,364,355,347,339,330,322,317,318,319,310,310,302,305,310,316,326,333,314,310,319,325,320,310,312,319,315,315,315,317,308,309,307,314,315,312,303,1325,1299,1281,1360,1498,1674,1816,1984,1941,2045,2059,1995,1980,2016,1929,1906,1873,1841,1791,1799,1729,1696,1697,1657,1601,1569,1526,1495,1470,1440,1413,1369,1365,1344,1333,1309,1315,1316,1365,1372,1369,1373,1376,1366,1381,1392,1374,1376,1386,1396,1453,1458,1411,1387,1399,1422,1434,1499,1491,1389,1430,1507,1512,1483,1424,990,1035,952,964,1056,1153,1295,1533,1522,1606,1653,1554,1486,1467,1442,1454,1423,1454,1344,1314,1294,1270,1298,1257,1247,1200,1146,1122,1097,1113,1048,1049,1006,972,963,985,963,1025,974,973,991,1067,999,978,999,1029,1007,996,1006,1004,1006,1003,1013,1011,1015,1006,1011,1009,1022,1030,1015,1028,1021,1026,1032,847,844,828,838,891,979,1083,1206,1228,1340,1367,1303,1285,1267,1252,1241,1228,1191,1161,1172,1127,1116,1098,1079,1061,1042,1030,956,956,952,943,887,897,872,864,854,846,858,861,854,858,853,884,919,868,885,883,905,901,911,900,907,892,908,886,885,896,884,883,923,902,917,900,905,915,1569,1554,1559,1672,1840,1995,2242,2410,2392,2495,2494,2399,2354,2241,2270,2263,2160,2137,2081,2081,2008,1974,2010,1901,1906,1836,1810,1727,1723,1732,1626,1619,1580,1554,1513,1540,1544,1623,1682,1671,1689,1702,1726,1769,1704,1734,1733,1755,1770,1755,1748,1792,1794,1788,1762,1735,1741,1744,1731,1765,1739,1769,1743,1765,1743,1332,1306,1288,1367,1505,1681,1823,1991,1948,2052,2066,2002,1987,2023,1936,1913,1880,1848,1798,1806,1736,1703,1704,1664,1608,1576,1533,1502,1477,1447,1420,1376,1372,1351,1340,1316,1322,1323,1379,1380,1427,1698,1442,1382,1426,1532,1465,1396,1506,1472,1418,1426,1504,1491,1472,1379,1422,1414,1460,1459,1402,1445,1401,1412,1421,511,513,488,489,493,536,608,679,751,798,849,792,779,766,753,781,767,743,702,726,676,699,650,637,624,612,599,618,573,560,547,534,521,508,496,521,493,524,499,488,498,501,500,533,502,531,524,508,540,514,513,510,511,531,514,509,513,519,508,510,514,519,511,527,511,1487,1470,1465,1563,1753,1924,2167,2280,2325,2381,2370,2365,2211,2167,2190,2149,2082,2080,2146,2087,1955,1990,1911,1814,1857,1748,1711,1671,1636,1776,1606,1563,1498,1481,1456,1483,1461,1540,1586,1619,1573,1594,1620,1602,1613,1633,1604,1613,1644,1605,1617,1640,1639,1644,1646,1669,1641,1639,1674,1604,1618,1628,1678,1624,1608,1229,1272,1185,1241,1389,1659,1702,1880,1898,1985,2033,1928,1856,1805,1825,1812,1729,1733,1666,1639,1631,1622,1604,1524,1538,1518,1466,1428,1404,1402,1303,1303,1255,1221,1195,1221,1228,1302,1279,1310,1314,1312,1334,1312,1322,1356,1311,1320,1340,1317,1321,1318,1342,1355,1372,1380,1367,1327,1326,1320,1307,1307,1318,1364,1295,1523,1583,1521,1672,1827,2052,2262,2355,2364,2449,2512,2336,2316,2258,2246,2237,2189,2138,2071,2031,2012,1990,1967,1885,1898,1873,1820,1709,1671,1697,1607,1595,1554,1535,1535,1556,1545,1617,1657,1666,1654,1682,1686,1663,1672,1703,1673,1700,1674,1711,1702,1708,1693,1709,1708,1735,1723,1708,1706,1708,1735,1718,1725,1713,1742,1729,1679,1792,1896,2150,2399,2510,2682,2584,2703,2702,2549,2626,2549,2493,2556,2490,2389,2353,2301,2225,2198,2169,2092,2060,2071,1996,1888,1921,1872,1810,1718,1717,1693,1755,1722,1689,1738,1888,1881,1880,1902,1957,1956,1938,1970,1935,1985,1993,1981,2024,1981,1985,2003,1991,1948,1993,1973,1966,1995,1986,2001,2011,2046,2016,777,818,737,739,766,857,960,1135,1162,1271,1350,1184,1165,1145,1126,1107,1088,1121,1049,1030,1011,992,1031,953,977,915,896,876,857,884,819,787,787,761,747,744,746,831,769,768,782,779,792,830,784,798,801,801,827,800,799,806,801,810,791,793,792,801,785,793,799,807,795,805,809,834,836,839,867,836,978,1132,1232,1318,1291,1389,1332,1250,1289,1242,1279,1169,1231,1183,1161,1140,1119,1046,1026,1055,985,965,991,969,947,884,905,884,823,850,895,823,880,851,860,851,864,867,875,863,882,864,866,861,859,858,870,871,871,871,868,870,860,875,878,864,877,859,871,864,1424,1392,1402,1538,1642,1846,1982,2146,2106,2341,2203,2189,2113,2193,2045,2067,2032,1975,1925,1927,1824,1841,1872,1756,1745,1699,1676,1592,1564,1584,1557,1449,1452,1439,1443,1415,1435,1408,1470,1495,1457,1458,1509,1451,1473,1484,1482,1495,1534,1499,1495,1634,1511,1505,1620,1527,1518,1518,1542,1494,1514,1517,1560,1513,1519,1159,1202,1113,1159,1288,1398,1588,1768,1788,1878,1927,1824,1754,1703,1726,1681,1633,1639,1573,1548,1518,1534,1518,1439,1455,1411,1379,1351,1320,1327,1230,1231,1185,1150,1125,1150,1132,1231,1236,1245,1218,1229,1225,1258,1236,1252,1264,1326,1243,1288,1279,1284,1254,1330,1288,1243,1239,1235,1267,1297,1283,1314,1298,1295,1266,1312,1324,1251,1313,1431,1590,1782,1959,1994,2082,2112,1975,1947,1884,1901,1848,1806,1814,1740,1711,1713,1632,1688,1613,1604,1553,1511,1436,1458,1465,1389,1342,1330,1283,1252,1282,1260,1355,1342,1372,1340,1374,1372,1358,1359,1397,1356,1384,1365,1384,1376,1386,1382,1391,1394,1391,1395,1379,1396,1379,1391,1397,1394,1392,1415,755,724,753,755,762,832,942,1046,1146,1185,1181,1193,1139,1143,1110,1087,1079,1057,1031,1022,993,999,992,937,917,946,884,862,877,854,805,825,771,749,741,760,762,764,778,756,760,754,763,764,812,806,768,804,791,764,767,822,824,824,820,830,821,845,820,807,800,782,763,760,754,595,569,643,573,612,667,715,841,878,969,924,911,903,946,914,860,928,834,852,800,817,819,790,780,759,710,738,725,711,651,637,669,656,578,580,604,578,607,591,591,587,593,592,603,593,595,605,630,591,594,592,594,598,588,596,599,593,598,590,599,596,599,600,596,593,0,0,0,0,0,0,0,0,0,0,0,0,0,0,0,0,0,0,0,0,0,0,0,0,0,0,0,0,0,0,0,0,0,0,0,0,0,0,0,0,0,0,0,0,0,0,0,0,0,0,0,0,0,0,0,0,0,0,0,0,0,0,0,0,0,793,748,750,752,781,908,976,1089,1177,1216,1216,1196,1177,1158,1139,1120,1100,1080,1061,1142,1097,1090,1019,1023,1007,927,929,968,870,850,831,879,811,774,760,757,819,778,777,791,792,793,806,806,805,807,792,802,797,793,795,806,814,823,813,822,804,810,818,802,798,792,806,810,790,697,699,701,703,784,800,906,1105,1100,1141,1211,1123,1105,1087,1069,1051,1033,1082,1074,1002,960,965,958,975,965,869,869,833,815,797,779,811,761,724,770,707,709,729,713,722,728,745,778,766,738,778,735,807,761,795,760,743,769,804,767,746,785,762,752,769,768,795,754,753,744,387,387,388,389,391,419,473,527,583,628,637,627,617,607,599,587,577,569,557,547,537,527,552,507,497,487,478,466,456,446,436,426,481,406,396,392,393,456,410,411,411,427,445,423,420,445,424,440,447,456,613,573,613,468,425,415,441,424,417,422,424,435,426,424,426,1047,996,1061,1016,1145,1210,1349,1657,1590,1621,1726,1588,1541,1515,1511,1465,1459,1528,1506,1386,1356,1352,1391,1346,1329,1227,1219,1159,1173,1108,1098,1079,1050,1045,1081,994,1011,1031,1028,1023,1032,1051,1035,1050,1034,1045,1051,1039,1045,1036,1037,1043,1037,1038,1039,1043,1042,1044,1037,1043,1043,1055,1047,1057,1042,704,688,681,679,717,790,889,974,1085,1131,1156,1116,1093,1102,1065,1037,1061,1009,989,1003,967,1008,958,916,884,850,863,849,823,781,813,761,731,731,718,714,737,706,729,735,730,814,771,759,741,737,752,774,756,758,766,751,731,732,744,764,756,739,758,768,747,735,762,736,732,1023,986,984,1072,1056,1128,1388,1547,1612,1595,1630,1672,1574,1540,1491,1664,1484,1455,1421,1359,1371,1370,1369,1256,1264,1272,1218,1158,1130,1105,1136,1054,1083,1008,1018,1046,1014,982,1032,1031,1051,1059,1065,1081,1060,1061,1067,1073,1078,1080,1095,1096,1065,1066,1061,1063,1063,1061,1070,1061,1074,1059,1070,1058,1057,1532,1515,1531,1616,1818,1947,2222,2328,2367,2385,2358,2416,2282,2299,2239,2206,2251,2142,2083,2055,2042,1966,2014,1957,1866,1860,1805,1726,1713,1685,1623,1587,1556,1549,1508,1507,1516,1501,1660,1644,1627,1651,1670,1675,1677,1693,1666,1686,1724,1677,1709,1721,1724,1702,1728,1692,1710,1723,1719,1706,1687,1712,1741,1724,1683,609,579,576,575,582,638,730,813,897,943,943,966,914,915,887,874,859,843,822,807,843,826,798,745,741,758,701,689,671,656,643,625,611,598,585,579,580,584,605,563,569,571,575,584,572,584,572,576,591,583,576,583,582,598,591,593,583,585,585,590,595,594,593,615,598,981,984,987,1000,1065,1201,1345,1541,1564,1596,1589,1564,1539,1513,1488,1463,1438,1411,1386,1385,1453,1334,1320,1303,1295,1211,1206,1160,1135,1110,1084,1059,1051,1011,1034,996,1132,1019,1029,1061,1061,1052,1073,1051,1066,1078,1057,1055,1077,1045,1063,1060,1083,1099,1133,1121,1111,1066,1066,1058,1057,1054,1065,1110,1038,658,645,660,642,695,721,825,919,1037,1052,1050,1043,1017,990,987,972,956,913,915,898,909,891,861,830,824,839,781,746,747,730,716,709,681,665,652,646,697,652,649,661,654,664,663,667,666,679,659,668,657,657,664,670,672,668,674,667,662,659,674,666,657,664,663,672,662,223,239,224,225,225,232,256,279,303,326,338,333,329,324,320,315,311,306,302,297,293,311,284,279,274,270,265,261,256,270,247,243,238,250,229,241,226,227,226,212,212,212,215,216,213,216,211,219,215,212,216,216,215,213,218,216,216,215,215,218,215,216,216,218,217,532,492,496,498,499,543,622,692,767,811,817,855,792,791,769,755,755,728,712,699,689,702,695,646,637,662,608,595,582,569,558,543,531,519,507,501,502,503,500,503,495,498,507,511,539,540,507,510,517,519,515,504,508,519,515,510,514,509,506,508,506,515,513,523,501,392,396,454,411,437,472,511,595,611,659,642,655,651,638,629,601,653,603,568,573,599,568,544,521,523,521,512,487,490,470,460,471,458,425,414,414,415,416,400,404,404,417,406,406,406,416,410,403,408,410,410,407,406,409,409,409,409,412,407,411,409,423,423,424,418,685,701,704,692,713,811,911,1018,1083,1132,1147,1107,1097,1079,1074,1035,1038,1019,981,1013,965,954,951,910,880,873,862,820,790,800,782,742,746,713,718,715,717,731,729,735,730,814,771,759,741,737,752,774,756,758,766,751,731,732,744,764,756,739,758,768,747,735,762,736,732,429,403,431,458,404,461,533,584,645,693,718,702,678,698,656,611,601,594,611,611,561,573,537,565,519,543,521,519,508,487,452,474,430,420,409,427,428,438,415,409,408,410,440,432,442,433,422,447,427,424,434,417,418,430,426,419,434,415,412,431,431,442,435,434,429,239,240,241,241,229,252,300,327,346,378,391,365,392,373,367,366,355,366,343,337,331,325,291,296,307,301,295,289,283,262,271,265,245,253,234,243,243,231,223,228,226,233,233,235,228,239,225,238,233,250,228,234,238,245,235,235,236,241,240,234,234,236,227,231,227,966,945,972,959,1061,1136,1287,1513,1505,1539,1590,1545,1483,1459,1434,1410,1386,1415,1413,1336,1288,1317,1326,1282,1244,1191,1159,1116,1115,1091,1043,1040,1012,993,999,956,983,979,978,968,971,976,997,960,965,969,970,990,996,993,989,1121,996,985,1122,1001,988,999,1000,998,996,993,1008,1013,1014,692,708,711,699,720,818,918,1025,1090,1139,1154,1114,1104,1086,1081,1042,1045,1026,988,1020,972,961,958,917,887,880,869,827,797,807,789,749,753,720,725,722,724,738,722,725,729,738,745,731,736,735,733,740,749,752,762,775,767,756,736,740,748,743,735,741,746,738,736,743,739,851,839,850,853,890,1049,1106,1224,1302,1392,1328,1328,1297,1268,1269,1264,1215,1207,1174,1147,1160,1106,1101,1065,1052,1042,1004,984,1016,948,943,912,900,869,852,849,851,868,870,879,836,831,874,854,861,867,863,866,916,870,876,893,889,885,871,893,896,902,935,889,879,888,931,871,866,959,863,928,872,1106,1021,1156,1482,1371,1407,1505,1380,1358,1336,1313,1291,1269,1395,1301,1225,1179,1180,1223,1180,1167,1068,1063,1023,1024,978,956,956,929,911,942,874,876,896,912,897,900,902,907,901,908,905,912,906,905,904,920,916,919,912,909,915,911,917,908,919,919,922,908,905,906,705,671,673,672,714,759,867,1088,1055,1135,1177,1114,1061,1056,1059,1013,997,975,956,938,923,946,891,867,860,880,816,798,780,763,748,728,715,696,706,704,678,682,683,690,685,699,698,695,702,710,685,702,698,689,698,707,706,699,726,706,690,690,700,692,683,693,693,702,689,1008,971,973,1014,1037,1106,1379,1543,1539,1569,1562,1643,1510,1516,1467,1479,1416,1397,1363,1338,1351,1349,1348,1237,1219,1226,1217,1141,1111,1089,1114,1038,1056,997,1003,976,997,944,1015,982,985,985,1009,1022,1000,1007,1005,1022,1049,1043,1046,1053,1052,1053,1045,1038,1036,1058,1070,1077,1058,1062,1082,1098,1065,1090,1050,1127,1156,1189,1315,1540,1599,1738,1828,1734,1771,1695,1665,1636,1576,1576,1547,1547,1488,1477,1468,1432,1444,1340,1285,1345,1251,1222,1226,1187,1133,1181,1145,1066,1064,1091,1135,1123,1122,1126,1145,1133,1145,1130,1147,1146,1135,1143,1135,1136,1138,1133,1134,1135,1138,1138,1142,1130,1139,1136,1151,1144,1151,1135,561,563,564,566,574,629,712,796,877,923,927,867,898,883,868,853,839,783,809,794,764,764,750,735,720,705,690,642,661,646,631,616,602,587,573,540,571,573,579,550,556,559,555,577,559,568,563,564,586,571,563,569,568,588,583,576,564,572,570,577,583,578,579,608,579,971,1016,999,1021,1129,1266,1466,1620,1690,1716,1704,1748,1653,1626,1600,1576,1602,1514,1496,1501,1467,1433,1392,1350,1299,1265,1263,1241,1165,1137,1139,1093,1099,1029,990,1012,1025,1066,1054,1060,1051,1049,1101,1150,1075,1077,1084,1112,1083,1083,1070,1082,1073,1085,1073,1090,1104,1076,1074,1110,1092,1106,1110,1084,1080,789,788,782,781,824,903,1033,1146,1243,1275,1340,1260,1240,1220,1195,1179,1220,1147,1119,1136,1121,1085,1060,1018,1006,964,1004,964,917,892,904,875,864,804,840,797,815,830,829,823,822,818,851,881,835,848,844,870,860,877,864,870,855,870,851,851,861,846,848,889,868,882,866,868,876,635,601,602,602,611,671,767,854,941,1025,984,1005,954,951,956,911,897,877,859,843,830,855,802,779,774,796,733,717,701,686,672,654,642,625,612,629,607,611,608,610,613,609,618,632,625,616,617,617,621,618,619,621,625,628,623,638,630,644,634,618,637,614,629,625,614,755,724,753,755,762,832,942,1046,1146,1185,1181,1193,1139,1143,1110,1087,1079,1057,1031,1022,993,999,992,937,917,946,884,862,877,854,805,825,771,749,741,760,762,764,778,756,760,754,763,764,812,806,768,804,791,764,767,822,824,824,820,830,821,845,820,807,800,782,763,760,754,666,668,670,672,690,758,858,962,1050,1084,1094,1076,1060,1041,1026,1006,989,974,954,939,922,902,885,870,850,833,815,798,781,761,746,730,711,694,680,678,678,680,675,679,674,690,682,682,680,698,679,678,685,680,682,682,679,682,683,685,682,689,684,686,678,691,679,686,677,1310,1342,1358,1421,1585,1740,1937,2171,2185,2054,2120,2147,2060,2089,1967,1916,1984,1898,1868,1902,1782,1768,1704,1666,1631,1595,1597,1594,1486,1503,1386,1421,1340,1293,1323,1345,1310,1352,1371,1368,1389,1406,1380,1411,1390,1412,1382,1405,1421,1392,1378,1394,1407,1417,1405,1418,1410,1404,1415,1406,1390,1381,1434,1404,1373,818,805,810,829,867,958,1100,1182,1309,1356,1328,1311,1260,1306,1247,1255,1203,1181,1163,1156,1100,1098,1081,1045,1018,998,999,957,961,913,911,938,867,832,836,832,832,852,845,854,847,854,862,864,871,881,856,875,870,875,866,862,861,870,863,866,863,864,859,856,854,868,858,861,844,0,0,0,0,0,0,0,0,0,0,0,0,0,0,0,0,0,0,0,0,0,0,0,0,0,0,0,0,0,0,0,0,0,0,0,0,0,0,0,0,0,0,0,0,0,0,0,0,0,0,0,0,0,0,0,0,0,0,0,0,0,0,0,0,0,378,379,380,381,382,408,461,514,567,614,625,615,605,595,585,575,566,556,546,536,526,516,506,497,487,477,467,457,447,437,412,402,408,383,388,383,384,386,380,378,371,373,396,397,385,395,393,407,404,416,414,415,406,408,410,392,406,407,416,430,411,426,427,437,406,523,525,526,528,534,580,657,733,808,854,861,848,834,820,807,793,779,766,752,739,725,711,698,684,670,657,643,630,650,602,589,575,561,548,535,531,532,534,519,517,533,619,544,518,538,565,546,531,540,537,538,534,544,542,561,544,540,536,546,553,536,547,541,545,550,575,603,605,580,590,628,768,817,932,922,928,913,920,945,869,913,839,862,846,850,815,765,750,753,720,706,739,723,691,662,631,644,644,601,588,610,612,614,598,593,603,621,616,609,603,607,608,619,615,614,616,655,672,656,647,616,609,624,617,611,601,625,609,630,606,280,281,281,282,283,297,337,376,416,454,468,461,453,446,438,431,423,416,408,401,393,386,379,371,364,356,349,341,334,326,319,311,304,296,289,284,285,286,273,277,274,280,334,310,296,308,293,332,302,303,309,285,288,304,294,281,320,287,282,311,302,328,308,299,294,851,729,740,734,761,851,965,1078,1168,1208,1210,1190,1158,1152,1132,1266,1094,1122,1055,1036,1016,997,966,1001,980,1026,922,1001,851,840,822,803,775,764,857,738,740,751,759,749,760,758,782,794,791,797,785,806,812,782,794,777,774,795,778,772,789,775,762,784,786,802,785,804,792,1248,1215,1221,1294,1445,1634,1840,1982,1937,1963,1952,1921,1926,1858,1916,1812,1771,1885,1718,1781,1714,1623,1583,1588,1557,1497,1452,1421,1408,1369,1327,1391,1297,1244,1232,1229,1244,1248,1280,1274,1281,1326,1303,1313,1313,1290,1296,1312,1298,1304,1299,1304,1313,1321,1314,1312,1319,1315,1314,1307,1327,1315,1311,1327,1312,543,547,548,534,556,608,689,770,852,896,902,863,872,857,824,828,814,782,785,771,758,726,727,714,680,666,670,655,624,626,612,598,578,569,556,552,553,555,545,539,548,546,542,555,546,546,548,559,570,563,560,564,564,571,564,567,554,567,567,568,572,564,563,584,585,288,288,289,290,291,305,344,383,422,460,474,467,459,452,444,437,430,422,415,407,400,393,385,378,370,363,356,348,341,333,326,319,311,304,296,292,293,293,278,284,281,281,285,285,286,284,282,285,280,284,284,287,288,287,288,288,286,292,289,284,289,282,286,292,286,610,612,613,615,628,689,781,873,959,1015,1003,1003,975,959,943,927,911,895,875,862,846,832,814,794,782,766,750,733,717,699,685,669,653,634,623,619,621,622,616,614,613,625,618,614,613,618,610,617,615,613,618,623,621,618,623,619,619,617,621,622,617,619,619,621,621,985,958,961,996,1023,1132,1314,1466,1591,1599,1597,1607,1554,1500,1427,1521,1415,1392,1334,1409,1287,1264,1331,1254,1193,1191,1147,1185,1100,1077,1053,1030,1007,985,972,969,971,974,978,997,993,1006,1029,1003,1004,1039,998,1019,1016,1028,1006,1013,1038,1047,1187,1130,1044,1034,1021,1011,1006,1008,1015,1031,994,520,520,521,523,541,576,656,733,809,851,861,844,834,816,806,792,779,765,748,734,724,710,693,683,666,666,638,628,611,600,584,570,566,545,530,528,530,531,523,522,515,524,529,554,524,531,544,536,525,531,519,529,530,516,529,532,530,527,524,525,536,541,536,542,531,1180,1154,1165,1191,1275,1461,1647,1793,1861,1820,1877,1859,1843,1787,1692,1689,1775,1624,1616,1645,1541,1517,1470,1514,1410,1397,1413,1380,1334,1337,1233,1223,1196,1145,1157,1174,1161,1214,1197,1195,1211,1254,1237,1248,1237,1223,1234,1246,1259,1227,1253,1260,1280,1269,1258,1239,1227,1235,1225,1226,1218,1238,1219,1267,1206,490,488,496,498,543,545,623,698,759,802,811,799,787,764,755,742,730,707,704,692,719,666,645,648,628,623,639,625,612,580,556,543,527,518,502,498,499,500,487,481,490,508,483,493,486,495,486,485,492,486,483,486,487,491,491,495,487,488,491,488,491,496,485,500,493,471,473,474,476,491,520,589,659,747,775,804,788,779,767,733,720,708,711,683,670,658,645,633,620,608,639,582,583,557,567,565,520,507,495,483,490,491,492,484,485,485,501,495,487,490,507,494,494,504,514,609,608,626,546,491,485,498,494,490,492,492,493,491,493,493,689,700,687,689,713,776,875,944,1029,1072,1077,1061,1045,1030,1038,1022,1004,987,970,954,935,918,901,886,866,849,831,814,797,780,767,745,728,710,703,701,728,703,692,699,710,735,718,716,709,732,702,735,723,732,770,760,787,777,722,720,735,729,729,717,733,743,715,723,714,524,550,552,529,535,582,693,737,854,859,866,853,839,863,811,834,784,807,793,777,762,714,701,687,673,659,676,661,618,604,590,603,590,549,536,558,559,560,550,549,549,553,553,560,550,555,555,550,555,552,552,553,556,563,561,561,554,557,557,568,560,569,561,570,564,483,495,503,505,536,552,616,691,752,795,804,792,780,757,748,735,723,700,697,685,712,659,638,641,621,616,632,618,605,573,563,550,520,525,495,491,492,493,484,486,484,498,490,503,486,491,500,492,487,490,485,491,490,485,493,498,493,490,491,493,498,510,500,509,499,1329,1352,1355,1412,1579,1794,2045,2230,2254,2291,2245,2282,2206,2125,2155,2119,1993,1957,1932,1896,1856,1817,1781,1732,1726,1654,1612,1571,1532,1493,1463,1437,1384,1362,1356,1380,1361,1365,1389,1433,1397,1402,1432,1414,1418,1428,1427,1428,1444,1420,1428,1436,1440,1444,1452,1452,1457,1451,1463,1452,1466,1481,1495,1475,1475,443,470,472,447,449,484,583,611,730,723,733,721,709,738,686,714,663,689,677,665,652,605,593,582,570,558,579,566,524,512,500,517,505,465,454,476,477,479,477,471,469,469,467,469,532,522,469,508,501,469,467,517,521,542,525,544,522,541,537,506,501,490,468,473,465,454,456,457,458,461,499,565,632,714,747,756,744,731,719,707,695,683,671,659,647,635,623,610,598,586,574,562,550,538,526,514,482,489,459,466,461,462,464,445,455,455,462,461,462,456,465,452,472,456,455,463,463,477,487,472,465,467,461,473,470,469,475,462,469,462,714,667,670,672,690,821,941,1051,1048,1091,1094,1077,1059,1042,1117,1007,990,1099,955,1004,986,903,885,868,850,833,815,798,780,761,746,728,711,693,679,676,677,679,674,676,674,680,686,684,707,721,690,692,686,691,689,683,680,699,694,687,690,686,677,690,683,693,685,697,682,728,731,732,739,762,842,955,1067,1156,1197,1198,1179,1160,1141,1142,1102,1083,1064,1045,1026,1007,987,968,955,930,911,908,872,855,834,818,797,755,757,743,744,742,743,732,737,738,749,752,746,746,755,747,756,745,743,751,753,751,753,763,761,766,758,758,758,759,784,783,786,784,1042,1034,1037,1092,1162,1310,1454,1592,1716,1697,1692,1682,1665,1594,1584,1602,1530,1518,1475,1472,1481,1394,1367,1340,1312,1307,1259,1296,1205,1178,1182,1171,1097,1074,1062,1070,1073,1076,1078,1078,1092,1098,1097,1136,1091,1107,1112,1107,1134,1108,1113,1116,1113,1119,1105,1111,1104,1120,1101,1115,1114,1131,1115,1126,1130,1136,1135,1138,1195,1295,1539,1708,1903,1972,1976,1935,1901,1907,1810,1833,1823,1783,1746,1649,1633,1642,1570,1531,1524,1487,1450,1386,1379,1344,1309,1258,1246,1164,1168,1145,1152,1139,1145,1235,1200,1189,1274,1250,1246,1238,1212,1226,1256,1275,1249,1258,1265,1236,1238,1215,1253,1260,1253,1291,1287,1228,1213,1273,1203,1199,459,511,513,515,465,563,580,641,696,749,759,748,736,725,706,695,683,671,659,647,676,624,612,600,588,576,600,588,575,566,574,561,494,535,470,466,467,468,460,460,461,463,467,462,463,464,467,470,471,472,472,479,475,473,483,477,477,479,480,481,481,481,485,486,487,418,419,420,422,423,456,516,577,637,685,695,684,672,661,650,639,628,617,606,595,584,573,562,550,539,528,517,506,495,484,473,462,451,440,429,424,425,426,417,419,423,438,430,423,432,442,425,426,434,440,471,467,471,452,423,426,433,440,437,425,434,440,432,433,432,666,668,670,672,690,758,858,962,1050,1084,1094,1076,1060,1041,1026,1006,989,974,954,939,922,902,885,870,850,833,815,798,781,761,746,730,711,694,680,678,678,680,675,679,674,690,682,682,680,698,679,678,685,680,682,682,679,682,683,685,682,689,684,686,678,691,679,686,677,393,394,396,397,398,426,481,537,597,640,650,640,630,619,609,599,591,581,571,558,548,537,527,517,506,496,486,476,465,457,445,435,424,414,404,399,400,401,386,388,389,400,389,394,389,391,394,389,391,391,389,391,389,392,393,396,393,392,393,395,395,407,399,406,399,1383,1357,1396,1481,1607,1786,1987,2138,2212,2214,2238,2198,2092,2144,2078,2007,1984,2040,1921,1837,1852,1879,1785,1702,1665,1678,1606,1620,1592,1582,1483,1461,1490,1424,1431,1369,1401,1394,1481,1472,1480,1490,1482,1504,1488,1506,1499,1505,1525,1524,1574,1581,1604,1550,1497,1517,1534,1529,1512,1510,1519,1488,1520,1577,1525,868,838,843,843,888,997,1107,1325,1322,1367,1357,1382,1314,1304,1271,1226,1240,1230,1176,1179,1191,1136,1098,1059,1058,1056,1016,1035,1007,992,971,892,929,864,886,869,853,855,866,860,870,937,875,890,862,875,876,882,898,881,885,875,869,890,908,882,870,882,879,884,881,870,883,900,871,469,470,471,473,476,581,581,647,714,855,769,757,745,733,721,709,697,685,673,661,648,636,624,664,600,588,576,564,552,540,572,577,546,492,480,476,477,478,480,484,485,502,495,486,491,496,488,493,503,511,618,602,624,531,490,487,500,501,494,485,496,494,490,495,493,0,0,0,0,0,0,0,0,0,0,0,0,0,0,0,0,0,0,0,0,0,0,0,0,0,0,0,0,0,0,0,0,0,0,0,0,0,0,0,0,0,0,0,0,0,0,0,0,0,0,0,0,0,0,0,0,0,0,0,0,0,0,0,0,0,739,741,797,748,774,926,1013,1085,1238,1221,1232,1189,1227,1166,1184,1136,1112,1093,1102,1032,1054,1036,1026,954,948,921,940,916,863,879,842,805,787,767,787,778,755,754,758,760,752,769,756,772,755,784,766,772,772,769,778,771,783,789,787,786,784,786,786,782,791,795,798,797,798,303,304,305,306,307,324,367,410,453,494,506,498,490,482,474,466,458,450,442,434,426,417,409,401,393,385,377,369,361,353,345,337,329,321,312,308,309,310,294,301,304,311,307,311,300,307,297,323,302,299,308,305,322,337,316,309,315,304,312,311,316,323,302,308,301,547,548,550,552,560,659,689,775,855,993,905,891,876,862,847,833,818,804,789,770,760,746,731,768,698,688,674,659,645,630,660,662,629,572,559,555,557,558,555,554,559,555,685,561,563,565,568,577,630,656,571,575,577,570,697,605,579,571,602,573,577,575,585,579,591,482,464,466,467,470,549,566,696,769,818,770,757,745,733,720,708,696,683,671,659,646,634,622,609,597,585,572,560,548,536,523,511,499,486,474,470,471,472,462,463,470,477,473,486,478,495,490,475,498,477,478,480,479,491,475,475,483,486,481,475,479,488,473,486,476,937,1033,1005,1007,1072,1146,1280,1436,1551,1551,1527,1540,1478,1519,1500,1502,1400,1423,1399,1398,1315,1280,1234,1209,1250,1174,1136,1195,1100,1063,1078,1064,1038,998,1004,994,1009,1005,1029,1017,1017,1026,1020,1036,1085,1088,1023,1054,1036,1023,1027,1069,1077,1090,1083,1061,1078,1089,1097,1072,1054,1053,1032,1030,1028,319,320,321,322,323,342,388,434,480,522,534,526,517,509,500,492,483,474,466,457,449,440,432,423,415,406,397,389,380,372,363,355,346,325,317,324,325,326,310,311,311,317,333,338,324,347,334,337,345,338,332,320,323,335,323,319,333,332,318,326,324,337,327,331,322,428,387,388,389,390,466,527,587,648,696,706,695,616,672,661,650,639,628,617,606,562,551,541,506,550,539,528,517,506,495,457,446,436,450,396,435,436,437,418,422,418,425,476,453,458,457,433,478,448,452,456,426,432,454,441,431,461,434,425,450,441,472,454,450,437,337,338,339,340,341,363,411,459,508,552,563,554,545,536,527,518,509,500,491,482,473,464,455,446,437,428,419,410,401,392,383,374,365,356,347,342,343,344,332,330,335,346,342,338,333,333,340,346,360,348,397,438,496,387,363,349,338,345,335,339,332,342,342,348,338,1045,1042,1036,1020,1133,1258,1384,1567,1643,1673,1657,1658,1605,1592,1552,1473,1515,1497,1451,1412,1393,1377,1351,1273,1300,1264,1216,1221,1182,1193,1152,1091,1139,1086,1074,1030,1047,1076,1106,1077,1096,1100,1098,1088,1141,1138,1101,1133,1119,1085,1092,1151,1157,1166,1139,1151,1139,1157,1142,1156,1128,1110,1084,1091,1097,433,435,436,437,439,469,537,600,663,728,719,708,689,685,673,662,644,632,621,610,605,587,582,570,559,547,536,524,513,496,490,474,462,456,444,440,441,442,457,424,425,425,440,438,440,430,432,441,467,444,456,455,457,457,444,442,450,470,479,472,446,445,481,449,449,1236,1195,1203,1243,1359,1506,1742,1882,1890,1974,1933,1979,1926,1848,1845,1763,1782,1802,1692,1664,1660,1623,1587,1510,1506,1517,1439,1400,1423,1410,1349,1245,1290,1226,1237,1239,1215,1229,1281,1266,1261,1267,1281,1318,1303,1317,1296,1309,1327,1318,1325,1326,1320,1350,1351,1304,1318,1332,1334,1360,1330,1336,1357,1405,1337,758,720,755,718,762,877,1006,1048,1202,1213,1183,1174,1197,1150,1166,1147,1097,1098,1089,1046,1031,1004,1008,946,970,890,923,918,851,880,833,804,804,756,777,769,741,728,755,749,751,761,766,759,760,756,767,771,770,775,820,832,851,797,775,776,775,797,771,761,791,767,763,771,755,447,492,449,495,499,491,556,671,687,748,743,731,719,707,744,683,672,660,648,636,624,612,600,588,576,564,553,579,529,517,553,493,481,469,458,486,487,456,462,467,456,464,468,471,481,475,468,468,470,475,467,468,470,475,469,469,475,472,468,468,465,473,468,470,457,758,717,719,721,745,822,929,1087,1141,1221,1173,1165,1147,1119,1092,1050,1077,1039,1014,1019,1005,987,969,906,908,912,871,880,880,843,825,762,805,743,760,744,727,729,730,723,731,746,732,743,735,738,743,740,738,733,730,736,731,726,733,740,739,738,733,730,739,749,743,749,741,252,253,254,255,255,267,302,337,372,407,420,414,407,400,394,387,380,374,367,360,354,347,340,334,327,320,314,307,300,294,287,280,274,267,260,256,257,257,246,243,246,247,246,246,246,248,246,247,245,248,247,251,250,249,250,247,253,250,253,258,250,256,249,250,251,751,727,748,725,769,870,999,1055,1195,1220,1190,1181,1190,1157,1159,1140,1104,1105,1082,1053,1024,1011,1015,953,963,897,916,911,858,873,840,811,797,763,770,762,748,735,752,754,752,755,756,759,781,778,770,766,770,771,789,797,801,815,772,772,771,772,777,784,771,778,772,821,775,1543,1525,1630,1749,1917,2162,2343,2503,2545,2582,2492,2473,2474,2376,2341,2300,2258,2277,2194,2156,2109,2061,2071,1978,1946,1904,1888,1812,1761,1707,1681,1628,1596,1592,1588,1605,1579,1631,1692,1683,1683,1700,1801,1780,1738,1773,1735,1839,1789,1799,1785,1736,1746,1796,1792,1749,1816,1788,1765,1822,1794,1847,1830,1854,1813,171,172,172,173,173,178,201,224,247,270,284,279,275,271,266,262,257,253,248,244,240,235,231,226,222,217,213,208,204,200,195,191,186,182,177,174,174,175,163,164,162,166,164,165,164,166,163,163,163,162,164,162,165,165,162,165,164,166,165,164,165,169,164,164,163,189,190,190,191,192,198,225,251,278,304,319,313,308,303,298,293,288,283,278,273,268,262,257,252,247,242,237,232,227,222,216,211,206,201,196,192,193,193,185,187,181,181,186,181,196,184,186,192,181,182,181,181,185,182,182,185,180,186,192,184,182,186,182,182,181,393,456,457,458,461,426,482,538,594,642,652,641,631,621,692,600,590,579,648,633,548,538,527,517,575,496,486,476,465,455,445,492,483,414,457,399,400,457,417,411,419,429,414,418,418,419,424,420,420,417,418,420,418,420,422,424,424,423,422,423,425,447,446,450,448,1072,1071,1043,1137,1199,1208,1503,1653,1594,1750,1603,1716,1562,1666,1625,1601,1560,1442,1417,1480,1346,1341,1430,1369,1351,1329,1304,1274,1147,1220,1175,1100,1044,1023,1090,1008,1010,1090,1072,1055,1054,1058,1072,1106,1092,1095,1081,1095,1116,1104,1112,1106,1106,1122,1136,1093,1106,1119,1124,1141,1118,1123,1144,1193,1127,1071,1076,1078,1119,1300,1325,1502,1736,1733,1754,1753,1735,1694,1666,1696,1597,1569,1543,1526,1486,1508,1452,1414,1375,1346,1329,1324,1275,1235,1234,1171,1152,1140,1125,1102,1097,1096,1112,1145,1135,1114,1123,1146,1150,1154,1173,1145,1167,1162,1212,1214,1204,1173,1258,1165,1135,1156,1165,1220,1260,1254,1297,1267,1231,1211,1353,1328,1408,1445,1620,1967,2087,2161,2338,2268,2324,2197,2307,2200,2123,2125,2066,1989,1996,1931,1895,1878,1873,1749,1751,1677,1695,1631,1577,1499,1479,1439,1397,1342,1367,1377,1387,1397,1425,1440,1425,1459,1455,1438,1437,1478,1441,1471,1443,1478,1471,1475,1464,1483,1478,1499,1491,1472,1480,1478,1499,1486,1490,1484,1512,746,728,724,796,775,861,951,1063,1149,1195,1174,1204,1178,1207,1110,1100,1082,1063,1045,1033,988,1016,972,940,931,974,885,881,846,845,829,841,772,774,741,757,739,741,748,752,746,759,758,766,779,769,759,764,767,772,770,781,774,778,763,764,771,764,761,762,762,764,760,759,749,289,290,291,292,293,326,369,412,455,497,483,475,467,460,452,444,437,429,421,414,406,398,390,383,375,367,360,352,344,337,375,321,313,306,298,293,294,295,282,279,281,284,284,282,285,285,282,287,287,286,286,287,286,285,286,288,289,292,287,286,291,289,289,288,288,393,394,396,397,398,426,481,537,597,640,650,640,630,619,609,599,591,581,571,558,548,537,527,517,506,496,486,476,465,457,445,435,424,414,404,399,400,401,386,388,389,400,389,394,389,391,394,389,391,391,389,391,389,392,393,396,393,392,393,395,395,407,399,406,399,783,777,805,782,818,906,1022,1153,1247,1271,1270,1249,1243,1205,1185,1175,1145,1124,1104,1088,1068,1044,1027,1005,987,967,945,922,905,883,866,866,823,803,789,827,791,814,793,785,800,814,805,808,799,817,809,817,813,805,814,840,861,845,835,825,799,813,802,804,795,815,810,825,798,851,870,872,821,926,990,1220,1289,1443,1459,1473,1456,1360,1399,1338,1371,1266,1258,1239,1223,1179,1202,1127,1063,1147,1140,1063,1004,987,974,960,942,917,849,894,890,854,852,859,879,867,901,864,885,874,896,883,890,878,875,884,882,894,896,896,900,892,886,901,891,898,905,894,902,901,401,402,396,404,398,429,478,531,622,642,642,613,625,633,609,604,618,599,594,588,584,568,522,513,504,494,485,473,467,457,448,433,423,420,403,406,407,408,397,395,402,403,401,400,400,409,402,407,399,404,404,420,416,412,409,412,403,408,402,410,403,410,400,408,402,660,657,690,692,671,751,849,947,1012,1048,1046,1031,1085,1000,984,969,953,938,979,957,912,926,875,890,873,855,837,790,773,756,767,722,694,688,674,660,661,663,668,666,667,667,666,684,703,698,675,682,692,684,678,675,677,702,692,682,680,677,676,678,678,680,679,714,680,637,639,641,643,656,723,819,914,1001,1043,1046,1029,1013,996,980,960,946,930,910,897,880,863,844,830,811,797,780,764,747,731,714,697,681,664,651,708,649,650,657,656,657,659,686,684,693,690,671,685,679,676,683,667,670,694,683,671,678,677,666,689,675,689,678,689,682,0,0,0,0,0,0,0,0,0,0,0,0,0,0,0,0,0,0,0,0,0,0,0,0,0,0,0,0,0,0,0,0,0,0,0,0,0,0,0,0,0,0,0,0,0,0,0,0,0,0,0,0,0,0,0,0,0,0,0,0,0,0,0,0,0,953,936,939,950,1005,1124,1274,1411,1527,1504,1553,1496,1472,1448,1423,1409,1404,1350,1323,1302,1278,1253,1208,1205,1178,1156,1132,1091,1083,1059,1098,996,986,1040,951,1070,950,938,1004,985,993,988,989,988,1062,1059,991,1031,1016,996,992,1052,1054,1072,1061,1072,1059,1083,1076,1052,1029,1020,998,993,998,636,629,660,627,630,706,818,894,956,992,992,977,1019,947,932,917,903,888,873,858,873,857,836,819,824,790,756,747,730,714,735,681,654,648,635,626,622,624,623,622,639,645,636,657,645,666,657,644,679,649,660,659,659,671,642,641,651,660,653,637,649,657,639,657,655,1065,1005,1010,1024,1066,1191,1385,1502,1695,1602,1628,1570,1558,1519,1523,1508,1442,1430,1416,1366,1292,1315,1289,1275,1238,1213,1217,1185,1167,1110,1085,1083,1062,1029,998,1037,998,1043,1028,1023,1044,1066,1063,1081,1061,1061,1069,1072,1087,1059,1076,1096,1115,1106,1085,1062,1054,1072,1058,1053,1050,1074,1055,1083,1044,1615,1546,1660,1702,1853,2043,2310,2384,2426,2418,2446,2430,2361,2350,2272,2259,2150,2141,2146,2140,1998,2064,1937,1957,1893,1914,1854,1846,1770,1688,1651,1647,1616,1559,1588,1594,1540,1574,1698,1709,1659,1671,1701,1686,1697,1706,1702,1710,1755,1705,1710,1728,1728,1733,1710,1744,1743,1742,1779,1731,1727,1735,1780,1708,1709,583,577,601,580,590,647,734,832,917,947,951,936,934,905,890,885,859,844,829,814,799,783,768,753,738,723,707,692,677,662,646,655,616,601,587,625,585,587,610,591,601,591,596,596,647,618,587,591,609,610,603,593,595,601,594,605,600,601,595,593,587,599,605,608,584,931,933,927,936,986,1112,1246,1405,1467,1483,1474,1462,1462,1407,1385,1363,1349,1318,1306,1294,1258,1246,1211,1198,1163,1140,1116,1092,1068,1045,1021,997,973,965,938,934,941,940,931,959,960,950,969,946,966,977,959,951,977,946,963,957,977,986,1136,1088,1005,965,960,954,952,947,966,1006,940,650,643,668,647,664,731,829,938,1028,1055,1058,1041,1037,1007,990,984,956,939,922,905,888,871,855,838,821,804,787,770,753,736,719,726,685,668,655,692,653,654,642,646,662,676,660,672,651,670,653,679,663,653,660,662,674,687,671,666,672,661,669,671,667,675,653,663,656,494,495,497,520,502,538,601,665,767,866,877,839,869,779,844,865,746,735,724,819,701,690,643,631,620,608,597,585,574,562,568,539,528,516,505,501,502,503,483,477,495,510,481,494,486,487,487,486,499,490,485,487,488,498,491,491,486,488,486,487,491,491,485,499,498,573,558,567,562,578,633,717,790,897,927,931,916,915,887,872,847,842,827,812,840,783,768,753,738,723,708,694,679,721,649,634,619,604,590,576,613,573,576,575,573,579,588,585,591,588,602,598,588,599,586,590,594,595,603,587,584,593,599,595,590,591,600,584,598,590,651,677,670,654,705,776,864,943,1135,1157,1170,1163,1090,1116,1080,1079,1015,995,978,993,965,984,921,860,912,900,841,806,759,751,771,744,710,683,693,689,677,687,678,689,689,686,693,705,701,697,693,694,695,691,694,695,706,715,709,715,699,699,709,702,699,697,702,708,693,537,533,541,542,538,600,679,758,812,828,834,818,805,815,781,769,757,736,752,740,729,725,717,710,700,669,637,647,633,619,589,590,550,548,532,535,536,538,538,526,529,533,539,537,540,534,539,542,541,537,547,544,544,534,534,547,542,552,536,536,547,544,540,538,532,516,511,519,540,527,575,652,740,805,871,856,842,829,815,801,778,774,796,738,767,719,705,692,678,690,650,629,645,602,616,575,588,555,563,528,565,526,521,529,533,540,559,539,531,540,552,542,533,593,575,533,557,594,590,609,549,548,559,572,546,536,552,555,533,531,223,223,224,225,225,232,260,287,289,309,322,318,314,310,307,303,299,295,291,288,284,280,293,287,282,277,272,266,261,256,251,245,240,235,230,226,226,227,212,213,212,213,216,215,218,215,213,216,213,215,216,218,217,215,220,219,218,224,218,213,223,215,216,219,215,949,885,888,895,942,1085,1191,1324,1442,1443,1472,1416,1393,1370,1347,1354,1331,1309,1252,1232,1209,1186,1160,1140,1141,1094,1071,1048,1025,1002,1005,979,934,957,899,982,898,900,916,909,907,909,909,945,939,936,927,937,948,936,934,930,931,959,961,936,943,943,942,959,947,945,953,998,959,544,540,548,549,545,607,686,765,819,835,841,825,812,822,788,776,764,743,759,747,736,732,724,717,707,676,644,654,640,626,596,597,557,555,539,542,543,545,531,526,529,534,534,537,538,538,534,544,539,539,539,542,539,534,546,546,547,549,544,540,552,548,545,547,545,912,941,926,936,1026,1130,1324,1509,1605,1636,1618,1613,1562,1527,1495,1517,1448,1404,1440,1357,1325,1297,1268,1231,1211,1171,1153,1127,1098,1067,1031,1022,1008,954,964,947,968,972,985,990,945,943,998,977,973,980,976,993,1040,990,1007,1020,1024,1003,1004,1015,1014,1037,1070,1017,1003,1019,1072,1022,992,801,803,806,809,844,939,1063,1187,1307,1311,1342,1288,1267,1246,1225,1235,1214,1163,1139,1121,1100,1079,1056,1038,1014,996,975,954,934,913,991,871,850,894,816,935,815,817,832,841,847,868,854,856,854,866,841,854,852,839,851,860,858,856,884,868,846,845,856,854,843,854,854,859,847,635,673,713,640,697,756,904,950,1037,1027,1103,1065,1048,1085,1032,950,1031,918,962,944,927,896,879,874,885,839,812,804,786,769,751,743,716,738,648,746,683,685,679,686,686,715,692,703,691,695,689,684,702,691,720,733,724,700,699,706,706,710,710,694,700,712,684,697,691,1020,1002,995,985,1065,1189,1329,1480,1558,1576,1570,1542,1533,1492,1496,1455,1417,1404,1402,1345,1271,1294,1267,1266,1219,1194,1199,1144,1154,1094,1069,1065,1047,1015,981,1022,983,1005,1012,996,1001,1003,1013,1037,1012,1024,1024,1040,1053,1055,1052,1058,1047,1065,1046,1044,1044,1051,1060,1084,1061,1065,1063,1090,1075,874,848,856,885,894,1054,1210,1322,1428,1426,1465,1427,1370,1442,1418,1345,1308,1254,1270,1208,1205,1190,1181,1128,1142,1117,1048,1030,1030,980,992,931,896,948,907,854,893,884,889,885,899,916,917,896,904,908,909,906,916,914,908,909,922,919,923,911,911,912,915,908,900,929,914,923,899,901,933,915,956,1019,1131,1268,1405,1475,1542,1497,1474,1452,1369,1396,1421,1328,1345,1333,1258,1272,1252,1224,1200,1176,1162,1128,1081,1079,1042,1040,1006,953,968,947,932,946,928,943,947,944,982,932,983,951,978,965,969,986,951,963,955,965,982,974,965,966,966,975,961,966,971,963,1005,983,729,726,705,734,733,853,1062,1181,1316,1306,1298,1354,1253,1255,1197,1210,1161,1207,1181,1152,1108,1081,1055,992,968,988,948,922,895,838,818,786,791,773,738,742,740,755,740,732,732,740,756,776,749,760,762,776,782,758,767,749,753,778,784,758,778,768,754,785,772,778,779,802,774,676,653,695,682,667,746,844,942,1038,1041,1040,1025,1039,994,978,992,947,960,944,928,907,925,870,853,848,830,795,785,768,752,772,718,710,684,670,656,657,659,661,667,675,697,683,683,674,699,669,701,685,697,726,723,746,749,687,679,697,691,687,686,694,706,677,682,675,610,603,628,629,620,691,771,873,960,989,992,991,975,959,929,924,929,912,866,850,834,818,802,786,782,755,739,723,707,691,675,669,644,628,636,652,612,614,601,599,615,702,623,601,621,649,629,615,623,621,623,618,629,625,629,618,623,619,632,639,623,634,626,631,638,783,777,805,782,818,906,1022,1153,1247,1271,1270,1249,1243,1205,1185,1175,1145,1124,1104,1088,1068,1044,1027,1005,987,967,945,922,905,883,866,866,823,803,789,827,791,814,793,785,800,814,805,808,799,817,809,817,813,805,814,840,861,845,835,825,799,813,802,804,795,815,810,825,798,446,448,449,451,453,488,552,616,680,729,737,726,756,702,691,679,667,656,644,632,621,609,597,586,574,562,551,539,527,516,504,492,481,469,458,453,454,456,448,450,450,455,457,453,456,460,450,455,453,455,455,458,461,461,455,453,463,457,464,467,460,468,454,457,460,1409,1420,1485,1543,1760,1870,2044,2172,2321,2301,2230,2245,2192,2148,2131,2080,2028,2091,2036,1999,1896,1936,1886,1829,1812,1738,1710,1665,1663,1629,1544,1551,1461,1485,1460,1472,1415,1447,1563,1551,1526,1548,1551,1590,1556,1565,1590,1656,1578,1623,1618,1627,1583,1627,1618,1573,1567,1580,1596,1633,1621,1639,1624,1618,1583,902,891,908,900,984,1053,1219,1298,1453,1426,1410,1388,1391,1380,1342,1335,1281,1309,1250,1310,1253,1248,1186,1196,1120,1137,1070,1052,1086,1007,1021,942,939,915,905,901,904,906,905,920,912,929,943,934,930,939,923,928,921,923,919,938,937,940,1030,996,936,931,935,919,917,920,943,935,915,519,520,522,524,529,575,649,724,799,845,851,838,824,811,797,784,771,757,744,731,717,758,690,677,664,650,637,623,610,597,583,570,557,543,531,527,528,529,521,527,532,545,548,553,532,559,529,569,544,553,542,540,557,575,553,544,555,544,550,554,548,557,534,542,534,357,358,359,360,361,378,416,454,513,558,569,560,551,515,533,524,515,506,497,488,479,470,461,444,436,429,422,415,408,401,394,386,379,372,365,361,362,363,349,354,368,435,365,345,360,388,371,364,427,406,362,371,427,414,409,348,360,372,386,378,354,369,365,357,354,790,802,809,828,870,923,1098,1205,1244,1400,1340,1268,1248,1251,1251,1208,1189,1145,1144,1170,1061,1063,1081,1023,1008,984,992,975,957,897,879,859,838,818,805,801,799,840,833,813,814,820,824,821,879,870,829,859,841,822,832,866,875,882,873,844,869,871,873,858,854,840,825,824,814,0,0,0,0,0,0,0,0,0,0,0,0,0,0,0,0,0,0,0,0,0,0,0,0,0,0,0,0,0,0,0,0,0,0,0,0,0,0,0,0,0,0,0,0,0,0,0,0,0,0,0,0,0,0,0,0,0,0,0,0,0,0,0,0,0,597,599,601,593,615,675,765,855,939,982,986,965,955,939,923,907,892,876,860,844,829,866,792,781,765,750,734,718,702,687,671,655,639,614,610,606,608,606,605,610,606,609,614,622,624,625,608,629,622,624,618,611,608,617,617,622,608,611,608,607,606,610,614,609,598,364,365,366,367,368,393,446,498,551,596,607,598,588,578,568,559,549,539,529,520,510,500,491,481,471,461,452,442,432,423,413,403,393,384,374,369,370,371,360,360,361,362,374,363,363,363,365,364,366,368,364,378,388,386,449,416,381,380,369,363,372,365,376,366,362,878,898,867,873,920,1031,1203,1266,1412,1463,1384,1362,1387,1299,1381,1273,1251,1229,1258,1235,1163,1156,1118,1156,1074,1132,1040,1018,1023,975,968,932,910,875,862,890,861,863,878,860,866,875,922,920,901,920,906,923,923,890,909,882,883,909,893,883,912,891,878,901,900,928,909,916,897,372,374,375,376,377,403,457,511,565,611,658,612,641,592,582,572,562,552,542,532,553,497,502,492,482,500,462,453,474,433,423,413,403,393,405,378,379,401,385,372,381,388,373,381,376,383,384,395,401,394,378,380,389,385,386,391,400,399,387,393,387,386,401,396,385,421,433,424,425,426,471,532,577,637,685,694,700,672,661,650,655,628,633,606,595,585,574,563,552,541,530,519,508,497,486,475,464,454,443,432,427,428,430,412,412,422,431,416,420,420,422,426,422,423,418,419,420,418,422,423,424,424,423,423,424,425,442,440,446,442,390,391,393,394,395,424,480,537,594,641,651,640,669,619,609,599,588,578,567,557,546,536,526,515,505,494,484,474,463,453,442,432,421,411,401,396,397,398,394,389,400,431,404,388,404,417,404,396,401,401,403,399,406,403,408,400,396,396,406,406,396,406,399,400,402,1097,1050,1054,1121,1195,1331,1531,1612,1721,1699,1712,1681,1650,1664,1633,1610,1552,1579,1505,1511,1490,1466,1434,1404,1328,1354,1295,1271,1267,1194,1225,1178,1118,1111,1098,1122,1066,1069,1108,1108,1115,1164,1137,1143,1131,1112,1133,1142,1161,1139,1187,1167,1174,1157,1154,1145,1130,1126,1124,1131,1129,1128,1121,1160,1118,486,488,489,483,487,532,609,680,740,799,806,781,768,756,755,730,729,716,703,680,677,665,688,639,617,613,600,579,575,562,549,536,523,510,498,494,488,496,478,484,486,494,491,491,488,494,486,501,488,488,495,502,514,517,510,499,496,498,503,496,499,507,498,509,495,1248,1255,1259,1299,1485,1648,1858,1912,2091,2035,2025,1968,1957,1931,1904,1857,1795,1854,1763,1772,1705,1689,1677,1653,1560,1552,1528,1502,1454,1409,1385,1344,1324,1307,1358,1291,1288,1270,1369,1361,1357,1449,1418,1413,1395,1384,1403,1438,1414,1449,1456,1459,1397,1401,1414,1424,1426,1403,1448,1494,1436,1424,1450,1410,1412,779,785,806,807,846,909,1080,1163,1236,1323,1322,1296,1259,1240,1231,1199,1169,1132,1137,1139,1071,1050,1073,1043,1012,969,949,966,901,906,894,848,827,823,794,820,792,844,799,798,799,801,802,801,802,805,801,809,810,809,810,812,812,813,815,818,816,823,816,817,821,823,823,823,821,497,498,500,501,506,551,625,698,772,831,825,811,798,785,772,759,745,732,719,706,693,679,712,653,640,627,613,600,587,574,561,547,534,521,509,504,506,507,500,500,501,510,603,564,532,565,539,614,556,548,561,513,522,550,533,514,576,524,511,556,542,595,557,550,534,765,767,797,772,833,888,1055,1115,1224,1237,1220,1201,1248,1185,1167,1147,1108,1130,1069,1126,1072,1053,1034,1039,971,994,931,911,920,872,897,860,813,793,780,776,779,808,786,782,795,831,814,817,810,787,805,823,822,801,829,835,854,835,836,820,797,806,794,804,793,806,800,839,786,84,85,85,85,85,86,97,108,119,130,140,138,136,133,131,129,127,125,122,120,118,116,114,112,109,107,105,103,101,98,96,94,92,90,88,86,86,86,66,65,65,66,66,69,65,66,66,66,66,66,65,66,66,64,65,66,66,66,65,65,66,66,65,65,65,786,792,799,800,839,916,1073,1170,1243,1316,1315,1289,1252,1247,1224,1206,1176,1139,1144,1132,1078,1057,1066,1050,1019,976,956,973,908,913,901,855,834,830,801,813,799,837,829,820,835,840,843,846,832,843,836,848,859,855,848,850,850,875,856,868,828,853,836,848,856,843,851,868,867,1578,1641,1682,1809,2000,2238,2486,2507,2597,2605,2586,2555,2512,2449,2445,2349,2326,2299,2289,2210,2198,2156,2085,2148,1984,1929,1897,1910,1794,1766,1764,1690,1628,1633,1606,1671,1644,1646,1767,1794,1801,1770,1812,1794,1803,1830,1817,1815,1826,1827,1828,1855,1857,1891,1825,1835,1840,1833,1835,1850,1842,1847,1835,1886,1839,188,189,189,190,190,196,222,247,272,298,312,307,302,297,292,287,283,278,273,268,263,258,253,248,243,239,234,229,224,219,214,209,204,199,195,191,191,192,181,180,182,181,181,182,184,197,186,187,184,185,182,186,184,190,192,186,184,182,181,184,184,185,181,184,184,239,240,241,242,242,253,287,321,354,388,402,396,389,383,376,370,363,357,350,344,338,331,325,318,312,305,299,292,286,280,273,267,260,254,247,243,244,244,230,234,231,235,303,270,254,264,250,304,258,254,270,240,243,262,253,239,281,241,238,270,259,296,270,262,250,302,303,304,305,306,322,365,407,449,490,503,495,487,479,471,463,455,447,439,431,423,415,407,399,391,383,375,367,359,351,343,335,327,319,311,307,308,308,320,289,288,291,328,322,303,296,297,301,342,322,348,339,356,317,340,308,318,362,381,340,312,327,365,370,310,1110,1046,1050,1061,1221,1366,1550,1599,1745,1793,1793,1755,1709,1703,1669,1639,1612,1562,1539,1521,1432,1393,1416,1412,1384,1275,1304,1298,1256,1235,1196,1175,1150,1142,1113,1106,1121,1097,1127,1131,1126,1142,1137,1146,1143,1157,1141,1157,1144,1151,1141,1139,1131,1131,1143,1151,1139,1144,1129,1131,1135,1150,1146,1149,1129,1171,1143,1128,1172,1251,1421,1602,1749,1829,1818,1862,1795,1805,1746,1718,1668,1638,1648,1601,1572,1547,1560,1517,1475,1419,1429,1384,1320,1343,1273,1233,1219,1307,1162,1156,1167,1142,1173,1213,1229,1183,1188,1228,1211,1212,1220,1211,1213,1250,1219,1237,1238,1244,1242,1230,1243,1250,1256,1298,1225,1230,1245,1299,1243,1215,1385,1385,1466,1572,1809,1993,2227,2270,2318,2497,2461,2271,2287,2299,2197,2192,2149,2059,2026,2078,1915,1872,1891,1877,1811,1736,1710,1685,1592,1552,1516,1478,1440,1440,1386,1451,1432,1442,1468,1517,1478,1497,1516,1509,1494,1511,1507,1506,1520,1496,1499,1517,1518,1524,1532,1540,1534,1528,1549,1537,1545,1577,1572,1564,1552,858,779,781,774,808,916,1031,1180,1233,1272,1271,1246,1210,1213,1193,1174,1154,1135,1142,1096,1076,1069,1032,1018,1040,953,959,939,920,922,881,866,842,813,792,788,873,789,779,782,783,785,786,789,790,792,793,795,798,799,801,802,805,806,808,809,812,813,815,817,818,821,822,824,825,339,340,341,342,343,365,467,462,511,555,566,557,548,539,530,521,511,502,493,484,475,522,457,448,439,430,421,412,403,394,385,376,367,358,349,344,345,346,343,335,340,335,353,358,338,353,349,339,348,350,347,350,356,376,362,363,341,362,351,364,369,358,364,377,370,446,448,449,451,453,488,552,616,680,729,737,726,756,702,691,679,667,656,644,632,621,609,597,586,574,562,551,539,527,516,504,492,481,469,458,453,454,456,448,450,450,455,457,453,456,460,450,455,453,455,455,458,461,461,455,453,463,457,464,467,460,468,454,457,460,639,640,643,645,663,729,824,943,1013,1056,1046,1055,1019,1002,990,969,986,928,936,904,889,872,856,835,819,805,788,774,747,749,738,705,682,670,655,651,653,657,651,664,654,666,668,675,667,678,664,670,657,660,661,672,672,667,672,671,664,668,677,663,666,660,663,676,661,1196,1186,1185,1188,1275,1517,1690,1774,1889,1962,1870,1877,1883,1818,1775,1706,1691,1683,1666,1607,1579,1588,1538,1530,1546,1462,1399,1339,1333,1293,1383,1248,1257,1191,1142,1190,1205,1208,1227,1227,1242,1281,1248,1265,1237,1258,1244,1262,1267,1242,1251,1256,1252,1279,1266,1262,1250,1246,1259,1261,1260,1254,1246,1279,1244,677,678,681,684,701,771,867,970,1067,1098,1099,1098,1095,1049,1045,1015,998,980,957,946,929,911,894,876,859,843,825,858,791,784,756,739,722,704,705,687,689,691,680,694,683,716,682,703,690,709,697,706,698,689,706,697,708,703,703,706,709,705,714,701,706,713,705,713,714,128,128,128,129,129,131,146,162,177,193,205,202,199,196,193,190,187,184,181,178,175,172,169,166,163,160,157,153,150,147,144,141,138,135,132,129,130,130,123,116,118,118,123,120,121,119,121,120,125,131,147,133,129,132,132,123,121,131,150,150,151,157,164,143,136,308,309,310,311,312,329,419,414,457,498,510,502,552,486,478,470,462,454,446,438,430,422,414,406,398,390,381,430,365,357,349,341,333,325,317,313,314,314,316,310,302,303,320,331,316,325,323,333,324,340,341,341,328,339,332,323,337,328,339,368,339,349,349,357,346,379,380,381,382,383,410,463,517,570,616,625,616,621,596,586,576,566,556,547,537,527,517,507,497,487,515,468,458,448,449,461,419,409,399,419,415,386,387,387,385,387,387,401,392,400,394,394,389,393,391,388,388,391,404,392,391,391,391,394,392,391,395,391,412,393,604,605,607,609,621,761,826,864,926,993,974,980,1114,949,933,948,880,885,898,853,837,821,805,789,774,740,742,750,710,694,678,662,646,616,617,599,615,616,618,603,616,629,602,624,616,626,617,636,642,628,606,618,629,625,624,628,634,636,641,631,621,618,637,626,613,0,0,0,0,0,0,0,0,0,0,0,0,0,0,0,0,0,0,0,0,0,0,0,0,0,0,0,0,0,0,0,0,0,0,0,0,0,0,0,0,0,0,0,0,0,0,0,0,0,0,0,0,0,0,0,0,0,0,0,0,0,0,0,0,0,764,779,760,762,793,890,1048,1114,1216,1258,1240,1217,1233,1181,1224,1172,1133,1101,1110,1073,1053,1011,1029,982,962,959,922,937,893,863,852,846,803,795,768,758,769,771,774,767,779,792,784,789,778,799,787,798,791,784,792,818,836,824,814,804,778,792,783,783,774,791,802,802,776,1284,1310,1263,1348,1410,1583,1929,1938,2060,2055,1994,1985,2021,1916,1930,1990,1832,1771,1767,1707,1759,1683,1596,1565,1548,1598,1563,1544,1438,1463,1437,1429,1311,1342,1306,1306,1330,1264,1355,1346,1340,1359,1474,1457,1396,1438,1394,1505,1455,1470,1459,1411,1422,1466,1457,1399,1475,1448,1432,1491,1449,1517,1491,1524,1445,455,455,442,458,463,500,551,635,700,728,755,743,732,719,706,694,701,670,641,646,617,622,612,598,586,558,561,535,519,525,515,501,489,477,465,449,462,463,475,452,471,460,455,456,488,467,454,450,469,463,458,461,455,455,453,462,458,462,458,454,454,457,462,456,454,397,402,403,404,402,427,482,536,591,650,661,640,630,620,610,600,589,588,578,559,549,547,529,526,509,499,489,479,474,458,448,438,432,422,412,403,404,405,407,414,397,400,418,430,417,439,424,441,426,453,435,447,426,460,427,414,438,420,432,464,442,467,446,465,433,506,507,509,510,518,565,641,737,792,837,837,849,816,802,789,775,762,743,752,721,708,694,681,667,654,640,627,613,595,600,589,559,544,533,520,516,517,519,519,511,515,519,521,515,516,517,513,518,517,517,517,526,519,515,522,522,519,519,518,523,517,517,519,518,516,810,813,815,818,850,935,1093,1278,1377,1393,1307,1304,1378,1310,1286,1301,1207,1222,1169,1132,1130,1075,1055,1156,1016,1082,976,957,937,928,930,878,886,880,825,863,824,842,843,836,846,864,851,854,846,855,855,858,867,847,862,890,909,893,889,866,846,873,854,851,844,878,861,879,853,429,430,431,433,437,469,535,608,660,704,709,700,692,681,670,658,647,632,624,613,598,587,578,567,556,541,530,521,505,499,487,476,462,453,439,469,439,440,437,444,435,444,449,452,445,463,441,445,447,449,440,450,449,455,457,450,452,450,457,458,447,462,442,450,448,992,1007,1021,1007,1068,1224,1376,1529,1633,1667,1661,1633,1697,1568,1539,1458,1466,1465,1432,1377,1384,1328,1311,1315,1290,1274,1181,1143,1141,1135,1117,1073,1095,1039,994,1027,1000,1016,1030,1039,1055,1080,1096,1101,1104,1059,1065,1092,1046,1037,1049,1055,1052,1044,1076,1063,1038,1036,1047,1042,1038,1047,1057,1078,1037,262,263,264,265,265,277,318,360,382,432,445,429,432,417,411,405,398,392,386,380,374,368,361,355,349,343,337,331,324,318,294,287,300,299,270,266,267,267,258,256,256,257,259,258,261,258,262,261,261,259,263,262,263,262,262,265,263,265,262,263,268,265,264,263,263,382,383,384,385,387,415,470,526,581,628,637,626,616,606,596,586,575,565,555,566,535,525,514,504,507,505,474,485,527,443,433,423,412,402,392,388,389,390,384,386,384,386,384,389,387,388,389,385,391,385,386,386,387,388,391,391,387,388,389,393,386,400,389,396,392,538,540,542,551,549,596,672,746,788,836,891,831,861,807,794,807,793,758,767,754,740,726,712,701,685,671,658,644,631,628,622,590,591,563,550,546,548,549,549,547,548,550,561,553,563,569,562,553,554,554,550,556,555,578,555,555,553,555,556,557,555,559,554,576,555,552,554,556,582,566,648,752,783,862,908,912,933,978,869,854,871,825,811,826,782,767,753,738,723,709,694,680,690,651,636,622,607,593,578,565,585,562,564,561,561,561,564,577,585,583,583,575,579,579,573,573,586,571,584,576,570,580,571,569,584,582,578,571,573,572,255,256,257,258,258,270,325,353,389,425,438,422,425,410,404,398,391,385,379,373,367,361,354,348,342,336,330,324,317,311,301,294,293,292,263,259,260,260,251,251,256,261,257,266,261,268,268,259,271,259,257,259,258,268,259,257,261,259,257,257,258,261,256,264,256,1082,1085,1088,1150,1200,1385,1622,1773,1906,1889,1874,1840,1807,1763,1780,1708,1746,1659,1596,1575,1571,1601,1475,1460,1411,1375,1342,1299,1305,1271,1212,1176,1135,1119,1093,1101,1106,1111,1160,1161,1139,1151,1145,1189,1151,1164,1195,1241,1166,1189,1187,1185,1177,1206,1203,1174,1174,1161,1179,1210,1180,1191,1195,1196,1180,471,473,474,476,479,594,638,656,724,772,779,767,888,742,730,749,705,693,710,668,655,643,631,618,606,594,581,594,557,544,532,520,507,495,483,479,480,481,467,473,470,486,465,480,473,483,480,483,481,473,481,475,481,484,481,481,485,481,485,477,483,487,484,491,492,384,386,387,384,389,402,424,502,551,613,606,597,588,595,585,576,519,557,532,523,514,504,495,486,476,467,473,449,439,430,432,423,402,393,391,390,388,389,370,374,373,386,374,373,374,383,377,372,374,379,379,376,374,377,378,378,378,381,376,380,378,392,392,392,388,693,744,698,700,721,796,1036,1007,1177,1134,1139,1117,1205,1084,1066,1148,1030,1012,1023,975,957,990,921,903,885,938,848,917,812,794,829,758,739,767,705,752,706,708,716,710,714,715,722,718,723,720,729,728,724,725,731,730,731,725,729,738,732,745,733,728,744,736,729,731,722,496,498,499,501,505,642,640,710,781,824,917,935,977,790,777,765,752,739,793,792,701,689,737,759,651,638,716,743,728,587,697,657,549,613,588,565,505,506,546,547,544,547,553,562,550,553,564,556,552,555,554,559,555,555,563,563,560,559,559,563,568,590,591,595,586,953,956,977,991,1073,1154,1307,1446,1526,1608,1534,1527,1591,1475,1452,1428,1403,1378,1353,1352,1302,1279,1254,1229,1216,1180,1176,1117,1134,1080,1056,1078,1006,984,971,968,971,973,977,971,962,963,988,1006,983,997,998,1012,1008,1032,1036,1021,1035,1032,1078,1004,1021,1049,1036,1063,1035,1042,1066,1059,1034,863,908,890,872,956,1143,1296,1438,1577,1567,1637,1530,1549,1463,1446,1418,1450,1398,1335,1307,1325,1259,1228,1211,1167,1139,1111,1083,1076,1045,984,954,937,945,879,923,906,930,919,916,919,929,923,929,936,931,928,943,936,927,927,935,940,936,935,945,939,952,957,940,940,940,940,932,928,231,232,232,233,234,242,288,315,343,370,383,377,372,367,361,386,351,345,340,335,330,324,319,314,308,303,322,292,287,282,277,271,266,261,238,234,235,235,228,228,230,232,227,228,231,228,232,234,238,230,231,231,232,238,233,238,228,236,235,228,234,238,228,234,230,328,329,330,331,332,353,416,447,494,537,548,539,530,521,513,504,514,487,478,469,507,452,443,434,425,459,408,440,390,382,373,364,355,347,338,333,334,335,324,325,330,330,327,343,328,330,327,331,332,330,327,327,332,334,332,333,332,333,337,332,328,328,332,332,328,639,640,643,645,663,729,824,943,1013,1056,1046,1055,1019,1002,990,969,986,928,936,904,889,872,856,835,819,805,788,774,747,749,738,705,682,670,655,651,653,657,651,664,654,666,668,675,667,678,664,670,657,660,661,672,672,667,672,671,664,668,677,663,666,660,663,676,661,338,339,340,341,342,362,409,456,503,548,559,550,541,532,523,515,506,497,488,479,471,462,453,444,435,456,418,437,428,418,409,399,390,380,347,343,344,345,343,347,340,346,349,350,370,362,345,348,351,358,354,345,347,357,351,350,350,349,343,348,343,351,350,354,342,1512,1569,1523,1606,1809,2024,2236,2440,2363,2465,2397,2391,2405,2323,2329,2205,2216,2142,2161,2056,2111,2024,1939,1910,1840,1816,1800,1746,1763,1719,1669,1617,1633,1544,1512,1515,1572,1648,1632,1662,1681,1677,1678,1674,1679,1706,1671,1669,1711,1651,1677,1673,1686,1702,1857,1811,1721,1679,1683,1677,1667,1663,1674,1748,1657,1062,1061,1130,1070,1144,1289,1496,1569,1656,1728,1682,1654,1718,1660,1620,1548,1536,1496,1469,1441,1432,1385,1375,1332,1368,1283,1267,1231,1205,1205,1147,1134,1140,1090,1063,1060,1060,1065,1078,1087,1116,1149,1145,1150,1149,1114,1120,1143,1101,1088,1101,1113,1108,1107,1135,1122,1098,1104,1110,1115,1100,1136,1141,1166,1133,834,837,835,844,885,981,1110,1236,1321,1393,1351,1359,1314,1325,1387,1250,1228,1207,1200,1164,1142,1121,1099,1290,1056,1060,1013,984,970,966,927,922,885,864,846,862,849,867,845,853,859,875,978,929,881,930,883,1011,915,938,930,879,909,955,915,888,963,902,891,940,927,994,931,925,902,701,703,733,774,751,803,935,1048,1136,1147,1171,1150,1183,1094,1089,1084,1066,1047,1067,1010,1055,972,953,912,916,875,879,863,841,802,804,801,748,748,730,746,732,750,726,736,740,759,817,794,756,800,754,846,785,817,791,758,785,823,784,762,821,779,766,800,792,835,786,778,766,1077,1045,1073,1080,1122,1254,1528,1547,1625,1697,1647,1634,1640,1573,1586,1521,1495,1469,1440,1451,1392,1387,1348,1310,1284,1264,1273,1207,1181,1172,1169,1106,1113,1061,1050,1056,1045,1050,1089,1063,1077,1142,1081,1066,1087,1116,1090,1076,1087,1078,1083,1076,1089,1083,1093,1081,1078,1075,1090,1100,1074,1103,1082,1093,1097,490,489,508,510,499,542,615,687,748,783,810,797,798,771,758,736,735,722,709,696,683,667,649,644,631,618,603,592,579,564,551,538,525,512,502,498,499,500,498,502,492,517,507,500,508,519,500,522,522,518,514,503,499,503,511,511,500,503,494,498,492,496,504,500,484,913,916,914,928,983,1095,1241,1360,1458,1521,1482,1489,1441,1449,1452,1364,1346,1322,1313,1275,1251,1227,1203,1205,1155,1157,1108,1072,1060,1053,1013,1005,961,943,926,942,925,947,946,951,951,963,982,969,975,986,971,982,992,998,1070,1070,1084,1022,974,981,999,994,980,966,988,974,983,977,968,0,0,0,0,0,0,0,0,0,0,0,0,0,0,0,0,0,0,0,0,0,0,0,0,0,0,0,0,0,0,0,0,0,0,0,0,0,0,0,0,0,0,0,0,0,0,0,0,0,0,0,0,0,0,0,0,0,0,0,0,0,0,0,0,0,583,597,598,600,612,695,788,881,916,961,964,949,933,918,903,887,872,886,841,825,810,795,779,764,748,733,717,702,686,671,656,640,625,609,608,592,594,595,585,587,583,587,619,654,601,593,595,598,595,595,598,595,595,598,599,596,595,595,593,606,609,617,626,599,598,490,486,488,489,494,536,607,679,750,798,805,793,761,767,751,741,728,698,696,689,677,657,657,638,625,597,599,592,573,560,548,535,522,509,497,492,494,495,502,488,495,488,496,504,498,501,500,494,504,500,502,501,501,513,504,501,493,508,495,506,501,496,495,504,516,795,791,808,791,854,914,1045,1152,1281,1267,1304,1244,1245,1235,1214,1176,1172,1135,1164,1129,1116,1090,1050,1040,1003,983,975,934,922,911,866,871,835,840,842,815,852,820,809,817,823,839,904,893,845,894,846,931,878,890,893,843,873,905,878,851,915,866,853,901,890,925,893,888,864,480,482,483,485,489,530,601,671,742,791,798,785,784,760,747,734,721,709,696,683,670,658,645,632,619,606,594,581,568,555,543,530,517,504,492,488,489,490,486,485,486,487,487,490,487,493,488,488,486,488,487,502,495,496,492,495,496,494,498,506,495,502,486,491,493,1273,1225,1198,1298,1408,1568,1723,1870,1933,1956,1978,1892,1970,1887,1841,1821,1783,1731,1680,1671,1672,1608,1610,1571,1544,1468,1485,1402,1377,1379,1361,1291,1324,1254,1279,1253,1283,1260,1311,1313,1269,1264,1310,1291,1303,1309,1305,1310,1361,1312,1321,1335,1332,1338,1311,1340,1350,1352,1384,1343,1330,1335,1390,1320,1325,593,578,580,610,592,647,743,819,902,948,953,937,934,907,976,877,861,886,824,816,810,822,770,755,740,725,717,694,679,671,649,641,618,603,585,585,615,589,588,582,593,617,600,600,591,600,598,605,602,595,608,640,660,641,634,609,591,618,601,593,588,618,602,622,593,1455,1433,1423,1513,1690,1849,2085,2208,2237,2287,2269,2164,2266,2171,2102,2060,2067,1989,1939,1921,1926,1851,1846,1802,1762,1692,1708,1629,1587,1597,1566,1496,1481,1449,1473,1430,1470,1434,1498,1503,1521,1539,1525,1537,1524,1536,1514,1539,1543,1533,1532,1552,1548,1562,1575,1577,1533,1549,1557,1545,1542,1537,1548,1570,1557,1036,1089,1047,1083,1134,1271,1437,1572,1649,1731,1674,1648,1614,1722,1603,1542,1515,1482,1455,1473,1410,1409,1366,1331,1305,1278,1252,1247,1199,1190,1164,1120,1093,1087,1059,1072,1059,1062,1092,1098,1052,1053,1105,1087,1083,1089,1089,1092,1149,1100,1116,1129,1130,1112,1111,1122,1128,1144,1179,1120,1112,1126,1180,1129,1098,643,624,626,628,643,706,816,894,980,1109,1027,1011,1102,978,1014,945,929,912,896,879,878,889,830,814,797,781,778,748,731,728,699,694,666,649,636,632,633,635,630,636,634,649,654,652,653,679,653,656,660,674,678,649,664,694,651,651,662,667,654,654,661,669,656,657,654,968,924,927,935,990,1101,1286,1378,1461,1604,1494,1469,1535,1421,1450,1375,1351,1365,1304,1279,1308,1229,1221,1184,1161,1138,1128,1097,1068,1056,1019,1009,1001,951,938,935,937,939,944,946,939,992,971,954,953,970,966,980,1007,968,973,959,947,948,959,970,952,951,942,950,952,963,971,973,943,566,568,592,594,577,616,701,768,840,889,908,894,885,867,853,812,825,812,798,784,770,778,743,729,735,720,688,660,675,646,642,619,605,591,578,574,575,577,569,590,580,594,586,575,577,593,586,610,575,573,583,580,641,587,607,585,595,596,596,585,603,613,594,611,603,1043,1096,1054,1090,1141,1278,1444,1579,1656,1738,1681,1655,1621,1715,1610,1549,1522,1489,1462,1480,1417,1416,1373,1338,1312,1285,1259,1254,1206,1197,1171,1127,1100,1094,1066,1079,1066,1069,1087,1074,1073,1084,1184,1161,1122,1147,1118,1214,1167,1162,1162,1110,1120,1164,1158,1114,1181,1149,1126,1182,1153,1204,1190,1207,1162,1766,1748,1887,2010,2184,2433,2711,2781,2792,2807,2885,2753,2832,2707,2624,2626,2542,2459,2415,2377,2291,2293,2263,2234,2182,2159,2073,2066,1948,1869,1895,1848,1788,1757,1812,1785,1814,1818,2012,2030,2071,2092,2086,2102,2124,2148,2141,2171,2186,2187,2214,2201,2207,2229,2269,2283,2266,2298,2322,2320,2323,2353,2347,2376,2394,621,621,697,618,640,703,796,875,964,995,1018,979,963,970,953,928,924,896,891,875,859,840,819,810,794,778,759,745,729,711,694,678,648,646,634,622,632,625,613,618,628,642,633,632,624,637,621,651,633,638,640,634,659,679,642,638,648,640,642,638,649,662,636,642,634,589,591,592,594,605,663,750,838,921,991,971,979,940,948,929,893,878,863,862,832,816,801,785,770,754,739,723,700,692,694,662,662,631,615,602,613,599,616,605,602,603,610,610,606,606,613,600,607,607,605,608,611,609,608,607,609,608,607,610,613,603,606,606,606,601,228,228,229,230,231,240,272,304,335,367,381,375,369,363,357,351,345,339,333,326,320,314,308,302,296,290,284,278,272,266,260,254,247,241,235,231,232,232,218,216,219,223,217,222,216,224,230,218,220,216,218,220,218,225,220,220,217,227,219,225,222,220,219,225,225,1395,1345,1388,1451,1571,1785,1986,2095,2175,2191,2188,2096,2106,2071,2036,2013,1977,1942,1936,1871,1812,1894,1761,1743,1697,1656,1618,1650,1536,1509,1460,1445,1415,1377,1382,1381,1390,1370,1436,1429,1429,1437,1432,1455,1437,1436,1464,1526,1443,1459,1464,1467,1471,1475,1493,1481,1465,1470,1465,1478,1478,1478,1480,1488,1483,1134,1138,1141,1175,1265,1531,1604,1841,1815,1844,1898,1943,1840,1843,1715,1685,1657,1712,1681,1651,1620,1510,1481,1452,1422,1393,1430,1451,1410,1394,1362,1314,1269,1276,1208,1151,1154,1157,1207,1207,1212,1216,1218,1219,1229,1228,1227,1234,1233,1235,1239,1241,1242,1241,1254,1254,1256,1262,1261,1257,1272,1265,1264,1268,1267,1657,1644,1719,1894,2122,2448,2539,2653,2738,2748,2680,2711,2616,2605,2592,2477,2454,2363,2387,2303,2226,2234,2201,2117,2030,2018,1973,1940,1881,1809,1843,1740,1703,1686,1658,1688,1681,1674,1869,1886,1839,1847,1887,1880,1923,1917,1873,1895,1925,1878,1899,1931,1947,1964,1939,1968,1960,1969,2006,1915,1912,1918,1971,1917,1878,1050,1097,1095,1092,1198,1360,1534,1653,1746,1798,1725,1685,1714,1861,1752,1626,1562,1528,1528,1450,1494,1466,1373,1500,1342,1318,1292,1263,1258,1231,1268,1156,1163,1125,1086,1103,1125,1098,1130,1127,1123,1136,1123,1158,1127,1135,1161,1218,1139,1159,1162,1162,1161,1174,1184,1157,1149,1152,1159,1172,1164,1169,1167,1179,1159,573,575,577,578,588,644,729,815,897,977,947,956,917,935,907,872,856,841,841,811,796,781,766,751,735,720,705,682,675,677,645,646,614,599,586,597,583,601,596,591,588,602,594,590,611,645,602,611,617,594,602,616,648,657,661,594,605,621,638,628,606,615,602,603,598,338,339,340,341,342,362,409,456,503,548,559,550,541,532,523,515,506,497,488,479,471,462,453,444,435,456,418,437,428,418,409,399,390,380,347,343,344,345,343,347,340,346,349,350,370,362,345,348,351,358,354,345,347,357,351,350,350,349,343,348,343,351,350,354,342,844,797,886,803,875,929,1102,1174,1300,1334,1298,1277,1268,1272,1247,1205,1174,1200,1178,1122,1101,1101,1092,1039,1009,988,1006,960,953,918,885,899,844,847,810,807,820,818,824,823,829,873,847,856,844,823,844,851,861,839,863,859,879,864,871,854,841,838,836,837,840,839,831,870,827,1934,2021,2044,2221,2437,2781,2829,3062,3104,3188,3009,3030,2945,2954,2879,2794,2764,2738,2698,2618,2572,2537,2537,2417,2426,2343,2260,2242,2145,2138,2088,2075,1960,1945,1917,1924,1939,1975,2297,2306,2313,2341,2375,2393,2362,2389,2386,2407,2433,2439,2459,2500,2467,2492,2482,2508,2532,2552,2577,2545,2573,2613,2622,2611,2603,1477,1529,1536,1576,1755,2012,2155,2269,2337,2393,2392,2306,2245,2233,2225,2165,2313,2103,2039,1988,1983,1944,1873,1841,1870,1801,1728,1749,1746,1621,1635,1548,1590,1557,1551,1495,1529,1559,1642,1632,1625,1644,1643,1685,1649,1656,1674,1666,1669,1664,1683,1679,1679,1678,1663,1677,1660,1674,1656,1672,1679,1688,1673,1678,1655,1210,1188,1193,1248,1311,1501,1700,1858,1964,1893,1882,1915,1860,1879,1869,1751,1703,1708,1677,1710,1616,1554,1555,1525,1479,1449,1433,1374,1344,1342,1298,1327,1226,1217,1233,1248,1192,1221,1251,1266,1280,1311,1317,1326,1326,1300,1288,1321,1274,1262,1281,1283,1282,1277,1309,1298,1271,1271,1283,1272,1273,1283,1305,1314,1276,1034,1072,1040,1114,1160,1365,1523,1591,1688,1662,1708,1707,1691,1632,1619,1626,1544,1552,1516,1501,1494,1408,1473,1307,1344,1315,1313,1202,1198,1167,1178,1164,1110,1100,1126,1049,1063,1111,1105,1090,1091,1099,1208,1181,1137,1147,1134,1213,1188,1160,1182,1136,1150,1176,1197,1137,1193,1162,1157,1200,1168,1214,1211,1241,1177,1452,1446,1453,1552,1693,1986,2200,2285,2317,2295,2274,2273,2260,2201,2260,2141,2163,2047,2058,1978,1972,1844,1879,1805,1790,1770,1735,1684,1618,1597,1643,1527,1614,1463,1451,1461,1486,1464,1549,1600,1554,1573,1586,1574,1582,1593,1579,1588,1595,1573,1594,1593,1597,1601,1613,1611,1601,1596,1640,1586,1600,1616,1632,1617,1601,721,723,726,724,754,895,945,1056,1196,1189,1178,1203,1174,1122,1149,1150,1129,1078,1059,1051,1020,971,993,939,920,901,882,858,839,820,850,830,775,790,777,732,734,763,783,761,764,759,768,769,816,812,774,808,795,769,771,827,829,829,824,835,827,850,824,812,805,786,768,764,759,1289,1263,1277,1342,1424,1634,1839,1993,2097,2024,2011,2041,1969,2000,1987,1863,1818,1820,1832,1817,1717,1657,1656,1623,1611,1543,1525,1464,1432,1426,1381,1407,1301,1296,1313,1347,1268,1301,1338,1330,1353,1395,1364,1380,1363,1363,1373,1376,1382,1357,1368,1399,1422,1414,1392,1380,1358,1384,1363,1359,1356,1390,1374,1402,1359,540,541,543,528,552,583,661,764,844,889,894,880,840,851,869,798,808,771,757,743,729,737,701,687,694,680,646,651,637,604,590,576,579,565,552,548,549,534,537,538,544,553,550,557,554,565,557,553,564,554,555,561,563,569,555,549,559,562,560,553,553,565,549,561,549,0,0,0,0,0,0,0,0,0,0,0,0,0,0,0,0,0,0,0,0,0,0,0,0,0,0,0,0,0,0,0,0,0,0,0,0,0,0,0,0,0,0,0,0,0,0,0,0,0,0,0,0,0,0,0,0,0,0,0,0,0,0,0,0,0,921,951,943,911,1009,1073,1228,1381,1465,1511,1524,1470,1418,1423,1430,1351,1345,1311,1281,1257,1314,1256,1183,1186,1185,1136,1079,1097,1085,1022,1038,975,964,978,930,930,940,918,924,942,943,944,946,947,943,960,940,955,939,936,947,951,965,967,962,960,948,940,961,961,951,960,937,952,939,978,981,998,1010,1062,1224,1368,1561,1582,1635,1604,1563,1534,1509,1514,1529,1477,1433,1411,1385,1373,1365,1305,1273,1235,1256,1182,1216,1131,1106,1112,1077,1049,1029,1028,994,995,998,1015,1014,1008,1028,1020,1027,1027,1039,1026,1026,1023,1032,1023,1021,1016,1015,1024,1029,1026,1029,1014,1016,1021,1035,1031,1034,1017,911,946,957,908,1003,1124,1212,1374,1458,1558,1517,1463,1415,1416,1435,1345,1382,1298,1274,1251,1322,1250,1181,1157,1203,1130,1087,1114,1080,1017,1073,970,991,974,975,925,955,914,936,936,944,977,944,966,946,948,944,938,969,946,971,990,978,966,958,966,960,967,967,952,962,969,940,970,955,1655,1723,1743,1818,2066,2256,2410,2563,2585,2689,2603,2537,2508,2458,2526,2387,2410,2358,2311,2189,2219,2155,2118,2033,2077,2001,1926,1959,1853,1855,1816,1741,1709,1716,1666,1683,1683,1691,1910,1891,1862,1885,1885,1945,1950,1962,1931,2024,1930,1963,1954,2007,1968,2030,2008,1972,1954,1976,1994,2011,1984,1992,1965,1961,1920,1008,1043,1055,1014,1125,1263,1386,1532,1657,1709,1666,1611,1560,1558,1604,1483,1559,1447,1405,1380,1464,1409,1302,1277,1319,1277,1194,1238,1195,1117,1176,1071,1089,1071,1073,1023,1054,1012,1045,1040,1050,1068,1052,1070,1052,1070,1075,1057,1070,1055,1058,1062,1057,1060,1058,1063,1062,1067,1057,1065,1062,1076,1069,1081,1066,1872,1958,2077,2094,2405,2566,2715,2845,2883,2954,2894,2820,2760,2726,2728,2666,2648,2610,2477,2430,2440,2410,2352,2286,2310,2201,2131,2152,2053,2022,1989,1953,1914,1899,1876,1870,1890,1878,2312,2230,2232,2247,2241,2271,2310,2303,2293,2382,2298,2291,2378,2341,2349,2424,2344,2344,2331,2369,2422,2481,2511,2524,2500,2328,2313,1507,1445,1528,1567,1671,1893,2182,2315,2393,2351,2300,2325,2231,2225,2281,2154,2155,2061,2096,1972,2004,1865,1890,1827,1770,1806,1719,1643,1609,1611,1602,1608,1515,1491,1465,1488,1448,1506,1554,1602,1559,1577,1581,1566,1582,1591,1589,1590,1596,1580,1594,1587,1594,1598,1604,1616,1606,1603,1632,1586,1617,1624,1634,1608,1601,1054,1124,1167,1066,1185,1326,1568,1608,1688,1802,1739,1682,1630,1627,1631,1565,1585,1518,1468,1441,1524,1433,1360,1334,1374,1299,1253,1369,1250,1172,1275,1118,1192,1117,1107,1070,1100,1095,1134,1099,1099,1145,1106,1123,1196,1223,1213,1147,1118,1103,1149,1126,1153,1146,1215,1152,1145,1162,1150,1159,1169,1128,1100,1123,1101,1353,1395,1427,1419,1576,1812,1959,2084,2153,2212,2221,2127,2068,2059,2054,1983,1964,1940,1865,1830,1828,1792,1729,1695,1727,1646,1593,1603,1550,1492,1495,1423,1454,1459,1411,1372,1405,1397,1453,1440,1447,1447,1632,1506,1487,1489,1481,1535,1580,1578,1517,1490,1497,1526,1656,1526,1535,1505,1534,1540,1524,1547,1558,1578,1548,795,807,800,803,851,1007,1069,1194,1295,1276,1276,1312,1292,1217,1234,1225,1233,1195,1173,1108,1130,1050,1099,1020,1029,1001,973,941,922,902,905,895,861,874,863,807,859,848,848,844,841,843,855,862,879,882,852,856,860,862,862,852,855,875,867,858,855,861,852,866,855,860,856,873,862,1500,1452,1521,1574,1678,1900,2175,2308,2386,2344,2307,2318,2238,2232,2274,2147,2162,2068,2089,1979,1997,1858,1897,1820,1777,1799,1726,1650,1616,1618,1609,1601,1508,1498,1472,1481,1455,1499,1583,1589,1540,1551,1582,1570,1575,1588,1580,1589,1637,1583,1597,1609,1609,1613,1587,1617,1628,1627,1662,1612,1606,1613,1665,1598,1603,1550,1508,1576,1760,2105,2382,2802,2962,2991,2876,2854,2963,2809,2655,2716,2546,2525,2515,2392,2399,2259,2274,2213,2147,2106,2032,1916,1907,1799,1786,1680,1628,1581,1550,1539,1592,1604,1640,1725,1715,1735,1740,1726,1731,1733,1758,1732,1762,1770,1734,1749,1782,1807,1781,1771,1761,1732,1754,1739,1726,1732,1748,1756,1761,1740,844,855,849,859,907,1086,1128,1272,1418,1398,1383,1392,1373,1317,1341,1360,1315,1261,1238,1227,1193,1141,1160,1102,1080,1058,1036,1009,987,965,1007,968,910,906,925,865,867,908,877,878,925,1182,937,866,919,1009,950,902,990,961,915,917,993,971,965,883,907,911,950,955,894,931,911,912,921,929,941,935,968,995,1145,1297,1461,1544,1510,1505,1545,1496,1465,1470,1404,1361,1372,1348,1323,1298,1241,1249,1195,1185,1161,1151,1097,1073,1054,1039,1056,977,968,984,943,941,969,958,973,978,989,986,989,986,991,976,981,981,974,978,990,996,1001,994,1007,986,994,1003,985,982,975,992,998,977,514,515,517,518,524,571,647,723,799,844,851,837,824,810,796,783,769,756,742,728,715,701,688,674,661,647,633,620,606,593,579,565,552,538,526,522,523,524,517,517,517,521,544,519,525,525,525,526,524,527,540,545,546,541,670,622,556,553,534,523,544,521,539,526,522,1182,1180,1281,1222,1378,1675,1984,2204,2275,2287,2259,2214,2158,2118,2077,2031,1985,1936,1890,1848,1803,1757,1727,1657,1616,1570,1525,1479,1447,1405,1342,1296,1256,1214,1198,1198,1216,1227,1259,1276,1274,1277,1296,1265,1285,1318,1290,1282,1319,1294,1368,1373,1375,1337,1358,1358,1341,1306,1285,1288,1299,1274,1285,1328,1269,1441,1415,1485,1511,1701,2021,2265,2388,2487,2464,2443,2417,2407,2365,2287,2287,2243,2173,2095,2097,2104,2017,1953,2106,1878,1832,1763,1749,1691,1620,1572,1586,1562,1449,1498,1508,1447,1456,1605,1605,1597,1623,1621,1647,1631,1629,1639,1675,1635,1663,1682,1666,1625,1648,1646,1655,1660,1631,1680,1735,1690,1694,1695,1654,1652,1616,1623,1652,1837,2198,2568,2861,2984,3043,3034,3037,3013,2978,2805,2764,2684,2694,2562,2590,2441,2466,2346,2258,2271,2194,2076,2036,1954,1914,1833,1772,1730,1666,1635,1626,1658,1650,1701,1851,1809,1824,1851,1818,1827,1835,1839,1859,1918,1858,1854,1927,1895,1918,1962,1903,1871,1843,1874,1911,1961,1970,2029,2011,1914,1886,1405,1403,1437,1510,1657,1961,2130,2257,2343,2302,2314,2278,2236,2255,2236,2146,2097,2068,2074,1969,1964,1850,1886,1782,1786,1786,1711,1650,1662,1634,1566,1520,1488,1443,1422,1440,1439,1454,1533,1521,1517,1532,1535,1564,1559,1575,1551,1566,1591,1581,1657,1652,1658,1627,1602,1559,1578,1579,1572,1602,1580,1577,1591,1640,1588,950,925,928,951,976,1124,1274,1437,1520,1487,1482,1523,1473,1576,1480,1383,1340,1352,1327,1303,1279,1222,1230,1206,1166,1142,1133,1080,1056,1060,1022,1084,961,952,968,965,925,953,960,954,962,975,969,975,981,993,975,983,988,976,996,994,996,992,976,971,984,982,984,971,975,985,973,985,982,844,797,886,803,875,929,1102,1174,1300,1334,1298,1277,1268,1272,1247,1205,1174,1200,1178,1122,1101,1101,1092,1039,1009,988,1006,960,953,918,885,899,844,847,810,807,820,818,824,823,829,873,847,856,844,823,844,851,861,839,863,859,879,864,871,854,841,838,836,837,840,839,831,870,827,281,282,282,283,284,298,340,375,418,452,464,457,450,443,435,428,421,413,406,399,392,384,377,370,362,355,348,340,333,326,319,311,304,297,289,285,286,286,272,272,277,281,288,299,285,307,300,294,310,295,291,285,285,297,285,282,294,294,282,286,286,296,287,295,285,1161,1211,1183,1170,1303,1498,1656,1785,1853,1867,1898,1864,1836,1833,1789,1780,1728,1658,1663,1621,1606,1540,1485,1480,1458,1429,1436,1354,1311,1310,1298,1313,1262,1230,1173,1234,1222,1199,1257,1265,1218,1215,1261,1246,1251,1266,1268,1262,1311,1265,1265,1279,1279,1282,1256,1296,1322,1294,1320,1299,1272,1281,1323,1254,1258,642,670,674,691,694,755,816,939,998,1044,1066,1024,1029,1013,982,996,968,948,917,919,884,868,848,853,819,802,811,764,776,758,732,730,723,681,681,695,656,698,672,676,667,701,682,674,684,698,676,672,677,692,687,675,674,679,682,682,679,683,670,676,672,678,684,677,664,363,364,365,366,367,391,441,491,541,586,596,587,578,568,559,550,540,531,522,512,503,494,484,475,466,457,447,438,429,419,410,401,391,382,373,368,369,370,351,355,357,376,354,363,354,362,356,351,360,354,350,354,355,358,355,362,358,358,358,360,355,370,351,361,355,248,249,250,251,251,262,296,330,364,398,411,404,398,392,385,379,372,366,359,353,346,340,334,327,321,314,308,301,295,289,282,276,269,263,256,252,253,253,258,249,241,242,258,261,257,262,253,272,269,300,291,304,264,302,280,253,258,269,300,304,301,315,311,293,286,619,621,631,625,638,704,796,878,960,988,1001,982,969,955,935,924,904,892,908,861,861,851,835,811,797,777,764,744,732,713,696,698,658,643,637,638,645,632,628,642,626,642,651,653,641,649,645,646,639,640,639,637,638,640,645,644,647,638,638,647,644,656,641,656,646,486,487,507,514,494,565,608,679,751,841,806,793,820,767,793,741,766,750,703,690,709,664,682,638,626,642,600,587,574,561,548,535,523,510,498,493,495,496,490,486,493,506,501,496,492,493,499,509,513,510,538,549,545,532,521,506,494,503,496,501,491,500,498,509,494,441,442,444,445,448,484,549,613,678,726,733,721,710,698,686,669,663,646,639,628,616,604,593,581,569,557,546,534,522,506,495,487,475,464,448,448,449,450,429,429,440,460,435,437,427,437,433,427,433,435,430,434,435,442,440,441,432,441,435,441,442,444,441,448,445,482,443,445,467,449,493,575,614,679,728,748,736,745,700,689,688,665,653,642,685,618,606,594,634,571,559,547,536,546,512,500,509,477,465,453,449,450,451,440,450,450,455,457,461,452,465,449,465,452,449,455,462,468,475,467,463,460,454,469,468,462,463,454,461,454,980,983,984,1029,1067,1190,1418,1489,1568,1576,1582,1606,1531,1518,1470,1486,1430,1416,1395,1381,1339,1413,1288,1328,1267,1212,1186,1174,1176,1105,1084,1058,1033,995,1022,995,1023,1000,1042,1052,1032,1121,1097,1085,1060,1070,1072,1103,1076,1100,1096,1080,1051,1063,1072,1085,1090,1059,1081,1113,1075,1073,1091,1067,1057,0,0,0,0,0,0,0,0,0,0,0,0,0,0,0,0,0,0,0,0,0,0,0,0,0,0,0,0,0,0,0,0,0,0,0,0,0,0,0,0,0,0,0,0,0,0,0,0,0,0,0,0,0,0,0,0,0,0,0,0,0,0,0,0,0,598,635,601,603,613,672,760,848,932,977,981,1017,950,934,919,903,888,872,857,841,826,810,795,779,764,748,733,717,702,686,671,655,639,624,610,607,608,610,599,603,606,602,610,607,617,608,614,608,615,610,613,613,621,630,625,633,619,618,624,619,621,619,624,629,617,148,148,149,149,150,154,174,195,215,236,249,245,241,237,233,229,225,221,217,213,209,205,201,197,193,189,185,181,177,173,169,165,161,157,153,150,151,151,140,136,138,140,140,141,139,140,139,140,140,140,138,140,139,136,138,140,140,140,139,138,139,139,139,139,138,822,854,796,800,881,973,1056,1200,1315,1299,1296,1308,1286,1270,1220,1282,1215,1163,1168,1121,1098,1108,1052,1035,1047,1026,1006,953,930,943,912,905,932,861,807,860,866,841,840,881,840,841,863,846,854,862,859,870,876,853,866,860,868,868,876,881,874,877,904,862,878,886,904,881,876,173,174,174,175,175,181,204,228,252,276,290,285,281,276,271,267,262,258,253,248,244,239,235,230,225,221,216,212,207,202,198,193,189,184,179,176,176,177,174,162,162,163,167,164,169,165,166,164,170,173,197,170,173,187,171,166,169,175,202,209,216,224,222,186,182,1040,1020,1001,1018,1114,1245,1364,1583,1679,1610,1581,1608,1598,1555,1538,1547,1495,1450,1416,1381,1394,1396,1297,1293,1294,1245,1232,1171,1150,1152,1121,1100,1074,1030,1016,1033,1017,1048,1031,1058,1054,1058,1081,1055,1063,1092,1057,1072,1082,1073,1068,1066,1091,1101,1248,1193,1106,1082,1074,1065,1061,1061,1067,1104,1045,602,608,621,608,620,672,786,861,1002,988,985,993,950,951,929,919,897,881,860,892,854,825,842,812,791,755,776,716,720,685,688,676,670,633,619,622,607,608,619,623,618,629,630,629,625,640,617,626,624,623,622,633,633,631,628,630,630,626,640,640,622,632,622,630,625,283,283,284,285,286,301,341,382,422,461,375,369,458,451,443,435,424,417,409,402,394,387,379,372,364,382,349,342,334,327,319,314,304,299,291,287,288,288,272,269,270,273,273,274,273,276,273,277,276,276,274,277,277,274,276,279,279,280,278,277,280,280,279,279,279,521,549,550,553,559,603,652,749,802,848,873,840,828,832,801,818,792,817,747,752,720,707,693,698,667,653,665,626,636,651,586,599,581,546,559,556,530,558,561,545,547,554,560,559,559,555,557,564,561,556,563,561,560,547,549,564,560,569,549,546,562,557,553,549,542,423,424,426,427,429,461,522,583,644,693,702,691,680,669,657,646,635,624,613,601,590,579,568,557,546,534,523,512,501,490,479,467,456,445,434,429,431,432,426,424,424,427,426,438,449,431,429,434,447,437,433,430,430,452,440,438,431,433,427,433,432,432,433,453,433,609,615,628,615,627,679,793,868,1009,995,992,1000,957,958,936,926,904,888,867,899,861,832,849,819,798,762,783,723,727,692,695,683,677,640,626,629,614,615,628,634,625,649,644,637,646,656,638,654,652,654,642,637,631,642,641,644,638,634,629,631,628,633,633,637,615,1378,1488,1386,1489,1578,1756,1962,2152,2189,2218,2188,2216,2115,2075,2070,2117,1978,1957,1948,1941,1838,1803,1815,1801,1698,1680,1638,1594,1575,1611,1488,1496,1476,1406,1428,1392,1476,1392,1517,1513,1507,1533,1565,1557,1540,1534,1551,1587,1554,1593,1593,1591,1537,1540,1570,1572,1580,1551,1598,1649,1589,1585,1596,1567,1568,412,413,414,415,417,473,535,566,659,673,681,671,660,649,638,627,647,636,620,613,602,591,650,568,557,545,534,523,511,500,489,455,444,433,422,418,419,420,409,412,409,418,416,426,411,420,423,417,414,412,414,419,415,414,417,422,418,415,419,419,420,424,419,427,418,118,119,119,119,120,122,138,153,169,185,196,193,190,187,184,181,178,175,172,169,166,163,159,156,153,150,147,144,141,138,135,132,129,126,123,120,120,121,105,103,106,109,106,105,106,108,106,108,106,106,110,113,116,112,112,108,105,110,108,109,105,111,109,111,108,436,437,430,440,442,476,539,602,665,700,722,711,686,688,664,665,641,642,630,619,607,596,584,573,561,550,538,527,515,504,492,481,470,458,447,442,443,445,435,448,445,449,454,457,449,461,442,454,444,442,446,456,457,460,457,457,448,450,462,455,445,447,447,456,445,904,954,881,887,970,1043,1290,1402,1422,1457,1430,1524,1487,1358,1622,1316,1471,1374,1247,1350,1363,1204,1277,1240,1136,1217,1161,1219,1134,1018,1053,1030,1056,984,896,900,920,894,950,952,944,1012,978,953,957,975,967,980,1007,974,984,963,951,957,975,974,955,959,947,958,953,961,978,971,943,862,882,852,873,920,1018,1153,1291,1351,1425,1439,1362,1366,1334,1312,1289,1267,1243,1249,1212,1177,1155,1137,1110,1086,1074,1043,1037,1014,976,972,931,931,887,874,913,865,864,871,881,888,913,901,899,889,911,890,893,894,899,888,913,896,911,911,913,909,900,891,914,904,928,901,921,908,1181,1208,1231,1281,1399,1673,1881,2012,2122,2063,2075,2032,1974,1964,2010,1950,1902,1848,1812,1758,1744,1764,1724,1616,1597,1537,1531,1459,1431,1367,1364,1286,1281,1235,1273,1255,1232,1220,1265,1284,1282,1283,1274,1277,1281,1288,1287,1320,1312,1310,1328,1302,1303,1300,1338,1317,1306,1329,1405,1355,1342,1313,1355,1343,1356,638,611,633,615,656,687,765,862,1006,1017,998,982,954,976,988,919,903,907,872,881,837,850,835,807,804,758,773,757,742,722,683,667,680,636,646,630,649,642,637,637,633,637,644,637,644,640,640,640,637,641,641,642,646,647,645,646,645,642,645,656,648,653,641,644,645,103,103,103,104,104,106,120,134,147,161,172,169,167,164,161,158,156,153,150,148,145,142,139,137,134,131,128,126,123,120,117,115,112,109,107,104,104,105,88,88,90,94,90,89,92,95,90,90,92,92,93,90,93,93,90,90,92,95,94,89,93,96,93,93,92,281,282,282,283,284,298,340,375,418,452,464,457,450,443,435,428,421,413,406,399,392,384,377,370,362,355,348,340,333,326,319,311,304,297,289,285,286,286,272,272,277,281,288,299,285,307,300,294,310,295,291,285,285,297,285,282,294,294,282,286,286,296,287,295,285,631,631,633,634,648,710,804,889,984,1068,1036,1055,1038,984,1004,982,965,921,939,885,864,846,829,848,803,780,800,750,740,722,705,691,736,718,642,638,642,644,632,633,634,638,640,641,641,646,648,653,646,651,649,651,651,653,654,656,661,660,660,664,662,663,664,666,667,1606,1630,1650,1735,2050,2201,2351,2533,2600,2585,2610,2616,2506,2454,2423,2381,2310,2221,2267,2145,2148,2101,2095,1952,1931,1917,1927,1823,1831,1779,1702,1665,1690,1649,1646,1694,1630,1608,1781,1800,1815,1846,1865,1835,1841,1851,1826,1849,1815,1802,1830,1831,1827,1827,1866,1848,1832,1823,1833,1818,1820,1839,1863,1865,1838,1070,1074,1171,1083,1214,1288,1524,1692,1716,1761,1750,1735,1710,1706,1593,1623,1552,1571,1486,1474,1450,1437,1443,1397,1338,1353,1320,1258,1272,1252,1165,1208,1161,1133,1089,1151,1119,1136,1139,1138,1138,1152,1165,1149,1164,1167,1159,1157,1167,1169,1244,1242,1252,1211,1162,1157,1164,1166,1160,1165,1167,1161,1158,1183,1160,479,480,482,483,486,539,592,682,728,802,787,774,762,750,737,725,713,697,705,676,663,651,657,626,614,601,586,574,564,549,537,525,515,503,491,486,487,489,484,485,485,501,495,487,490,507,494,494,504,514,609,608,626,546,491,485,498,494,490,492,492,493,491,493,493,350,352,353,354,355,376,425,474,523,568,580,571,562,553,543,534,525,516,507,498,489,479,470,461,452,443,434,425,415,406,397,388,379,370,361,356,357,358,350,356,347,349,356,355,366,378,351,356,357,362,356,351,355,360,360,355,358,354,355,355,354,358,356,364,350,801,803,806,809,846,953,1059,1206,1316,1331,1308,1287,1266,1245,1224,1204,1183,1179,1199,1121,1100,1079,1077,1038,1017,996,989,1015,934,913,892,884,851,830,817,843,815,817,827,800,805,802,814,816,813,822,814,814,820,824,822,827,829,836,836,836,830,835,831,831,840,843,848,847,847,427,428,430,431,433,466,528,590,629,743,710,699,687,676,665,653,642,610,600,608,597,585,574,563,551,540,529,517,506,495,483,472,461,449,438,434,435,436,427,430,429,437,493,470,452,479,456,498,469,470,467,439,446,467,453,440,477,450,439,467,458,488,465,463,453,557,559,560,562,570,638,705,811,869,940,922,908,893,878,863,849,834,816,821,790,775,760,764,731,716,701,696,682,657,640,625,610,598,579,570,566,567,569,563,562,559,562,567,576,567,570,576,613,565,567,565,568,567,561,570,572,568,571,562,568,568,571,571,570,568,753,658,724,662,727,749,1027,949,1106,1121,1263,1065,1048,1095,1013,996,1040,961,939,1059,905,887,874,857,840,874,805,788,770,753,782,718,701,727,713,709,668,670,692,676,674,680,663,716,679,689,693,692,712,706,706,683,705,725,761,684,684,725,687,714,695,679,712,717,692,1127,1143,1149,1153,1227,1487,1618,1784,1815,1874,1815,1789,1798,1739,1701,1674,1681,1617,1579,1561,1510,1495,1486,1480,1407,1397,1373,1345,1338,1269,1250,1208,1197,1167,1151,1142,1145,1134,1205,1182,1174,1184,1198,1222,1257,1256,1208,1254,1216,1195,1196,1249,1252,1245,1250,1271,1254,1274,1242,1229,1230,1215,1193,1195,1180,555,556,558,560,568,620,703,777,866,934,919,943,946,875,897,876,861,816,865,787,765,766,735,756,713,692,713,663,654,626,625,610,647,631,567,563,565,566,569,570,573,571,588,572,586,586,580,571,580,578,577,582,594,600,637,631,594,593,588,577,578,577,594,587,576,0,0,0,0,0,0,0,0,0,0,0,0,0,0,0,0,0,0,0,0,0,0,0,0,0,0,0,0,0,0,0,0,0,0,0,0,0,0,0,0,0,0,0,0,0,0,0,0,0,0,0,0,0,0,0,0,0,0,0,0,0,0,0,0,0,572,574,576,578,587,642,728,805,896,981,943,971,955,897,924,902,887,841,860,811,799,773,758,779,735,713,734,683,674,659,644,629,678,668,582,581,583,584,592,594,594,598,600,595,601,605,594,599,595,599,601,603,606,607,601,598,608,603,613,613,606,615,600,602,606,1262,1266,1244,1322,1477,1543,1765,1953,2007,2057,1987,2002,1937,1988,1840,1837,1797,1831,1751,1700,1669,1702,1609,1560,1587,1500,1563,1440,1450,1378,1378,1395,1289,1267,1254,1248,1255,1258,1329,1336,1307,1323,1319,1365,1328,1350,1359,1425,1341,1384,1369,1380,1351,1420,1382,1338,1337,1333,1361,1391,1384,1412,1389,1392,1359,663,665,674,669,694,764,865,958,1035,1088,1092,1074,1107,1044,1022,1044,987,978,952,943,917,900,894,865,855,843,813,795,778,767,749,732,708,691,678,679,675,677,680,664,662,667,652,705,668,678,680,682,700,694,695,671,693,714,749,674,674,713,676,702,684,668,701,706,680,1479,1463,1456,1573,1707,1871,2085,2251,2308,2334,2310,2265,2296,2188,2132,2140,2065,2035,1988,1970,1915,1880,1836,1786,1756,1716,1766,1675,1675,1622,1552,1526,1507,1453,1446,1475,1448,1455,1555,1549,1543,1550,1541,1552,1545,1550,1564,1627,1556,1589,1596,1594,1575,1608,1601,1563,1557,1568,1586,1600,1589,1608,1608,1605,1591,768,770,773,775,830,884,1017,1137,1221,1285,1259,1233,1220,1201,1174,1162,1143,1111,1091,1085,1066,1038,1045,1008,983,961,959,923,911,889,854,842,821,841,789,780,782,784,784,800,781,797,799,806,807,820,800,795,794,801,794,792,794,795,802,801,800,794,795,799,798,817,807,822,799,681,683,685,687,709,844,887,979,1067,1119,1122,1104,1137,1141,1050,1080,1104,996,978,960,942,996,907,889,872,853,835,817,799,782,764,780,727,760,696,691,693,695,710,702,692,698,751,794,722,725,732,746,722,745,740,740,723,739,731,738,759,724,737,799,766,781,779,748,749,967,970,967,952,1036,1117,1269,1427,1485,1546,1521,1498,1500,1452,1417,1406,1383,1397,1353,1330,1306,1267,1276,1233,1209,1184,1174,1108,1107,1087,1035,1051,1020,998,979,961,978,980,996,983,982,988,1000,1013,991,1000,1000,1039,993,992,997,998,997,1001,1008,1006,996,1003,992,1014,1003,1004,1006,1008,1000,376,377,378,379,381,406,460,514,567,657,625,615,605,595,585,575,565,555,604,536,526,516,506,496,486,476,466,456,446,436,426,416,406,396,386,382,383,384,374,376,378,383,377,383,378,381,379,381,381,374,377,377,378,383,381,380,379,377,380,383,376,386,376,383,379,761,763,766,768,823,891,1010,1144,1228,1292,1252,1226,1213,1194,1167,1155,1136,1118,1098,1078,1059,1031,1038,1001,976,954,952,930,904,882,847,835,814,834,782,773,775,777,775,815,774,776,793,778,786,790,792,805,806,786,801,791,799,798,801,807,801,807,833,795,812,813,829,805,799,1608,1662,1707,1815,2036,2451,2558,2650,2658,2693,2666,2617,2571,2516,2461,2433,2387,2415,2330,2252,2203,2197,2136,2171,2046,1965,1963,1885,1864,1783,1745,1712,1679,1669,1686,1663,1636,1657,1813,1803,1815,1825,1820,1840,1849,1848,1840,1854,1882,1865,1922,1928,1962,1914,1845,1869,1876,1877,1869,1862,1866,1845,1870,1909,1840,295,296,297,298,299,314,354,395,436,520,490,482,474,467,459,451,443,436,428,420,413,405,397,389,382,374,366,358,351,343,335,327,320,312,304,300,300,301,285,307,301,300,289,291,293,296,293,312,303,304,312,295,297,293,310,301,293,303,366,315,310,293,307,295,297,423,424,426,427,429,462,525,575,636,695,705,694,683,661,660,649,637,626,615,604,592,581,570,558,548,536,524,513,502,492,481,468,457,445,435,430,431,432,423,427,426,435,437,445,441,458,444,439,456,460,440,441,441,450,435,434,446,449,442,433,437,442,432,441,431,594,596,598,600,611,669,758,847,931,1017,980,964,949,933,918,902,886,871,851,840,819,804,793,777,762,746,730,715,699,683,668,652,637,621,608,603,605,607,595,596,603,634,623,606,607,619,613,619,634,642,791,824,929,705,629,614,618,631,623,607,611,626,617,632,617,788,791,778,780,831,919,1041,1163,1252,1368,1294,1273,1253,1231,1254,1190,1142,1149,1176,1108,1087,1059,1045,1025,1004,993,962,975,966,910,874,859,837,818,804,800,811,805,818,816,816,818,810,808,836,839,810,825,875,825,837,838,858,890,855,860,848,839,855,845,837,823,806,846,801,1338,1324,1323,1384,1577,1728,1944,2056,2080,2126,2096,2162,2076,2031,1961,1968,1908,1863,1880,1872,1774,1731,1724,1661,1629,1639,1561,1529,1545,1507,1455,1395,1362,1338,1373,1358,1329,1333,1409,1392,1409,1468,1428,1442,1427,1410,1418,1433,1430,1415,1418,1451,1509,1529,1448,1428,1418,1429,1415,1410,1407,1441,1419,1447,1405,1387,1419,1413,1537,1717,2058,2186,2329,2343,2399,2363,2319,2279,2290,2178,2208,2167,2139,2095,2035,1991,1915,1921,1833,1842,1739,1696,1669,1625,1560,1524,1522,1443,1470,1441,1442,1456,1438,1493,1514,1529,1537,1536,1529,1529,1560,1525,1525,1565,1509,1532,1531,1544,1559,1712,1663,1567,1535,1539,1532,1521,1517,1528,1598,1514,619,621,623,625,636,696,787,879,965,1007,1016,1000,984,968,952,936,920,904,888,872,856,839,823,807,791,775,759,743,727,711,695,678,662,646,632,628,630,632,630,630,628,651,691,669,670,664,651,693,675,667,672,644,640,677,659,653,672,645,638,666,659,682,671,682,649,523,525,526,528,534,582,660,726,802,859,867,853,839,815,811,797,784,770,756,742,744,714,716,687,674,673,645,645,617,605,591,576,562,548,537,531,533,534,530,529,522,531,536,560,531,537,550,542,532,538,527,536,537,524,536,540,538,536,532,533,544,553,548,554,542,631,631,633,634,648,710,804,889,984,1068,1036,1055,1038,984,1004,982,965,921,939,885,864,846,829,848,803,780,800,750,740,722,705,691,736,718,642,638,642,644,632,633,634,638,640,641,641,646,648,653,646,651,649,651,651,653,654,656,661,660,660,664,662,663,664,666,667,282,283,283,284,285,299,338,376,415,453,466,459,452,444,437,430,422,415,408,400,393,386,378,371,364,356,349,342,334,327,320,312,305,298,290,286,287,287,276,284,280,280,284,282,285,286,280,284,278,280,281,285,288,286,288,284,279,280,286,282,278,279,281,287,282,1092,1082,1081,1133,1151,1340,1514,1696,1757,1706,1697,1824,1692,1705,1636,1562,1580,1590,1555,1496,1426,1434,1433,1377,1356,1291,1316,1273,1313,1201,1178,1161,1121,1126,1135,1080,1055,1120,1112,1112,1112,1131,1121,1128,1119,1131,1128,1120,1121,1124,1122,1123,1119,1118,1122,1126,1123,1126,1116,1127,1122,1136,1131,1135,1121,607,609,567,571,579,631,770,851,867,916,918,907,907,901,864,850,843,821,803,803,792,764,750,735,721,706,687,695,710,649,635,620,606,592,579,575,576,589,576,573,579,590,587,584,595,583,580,591,605,584,600,606,600,590,631,608,586,584,582,587,580,593,595,594,584,464,465,467,468,471,509,575,641,706,754,761,749,737,725,713,702,690,678,666,654,642,630,618,606,594,582,570,558,546,534,522,510,498,486,475,471,472,473,454,460,465,471,469,473,460,467,460,490,467,465,472,470,488,507,484,476,484,469,478,481,485,492,469,476,470,349,350,332,333,334,376,400,487,523,535,593,568,559,624,541,546,540,530,505,495,486,477,443,459,462,441,443,423,414,383,406,399,377,348,366,335,353,364,347,342,347,348,357,358,345,355,348,351,353,353,353,354,357,369,362,364,349,358,355,365,365,363,365,374,364,628,631,590,592,602,661,806,900,915,960,964,951,934,920,903,888,873,857,842,828,811,796,781,767,750,735,720,706,738,674,659,645,628,614,601,596,597,599,585,586,598,613,600,602,595,607,594,618,600,596,613,614,633,644,622,611,613,616,614,608,617,634,610,618,606,612,585,615,588,653,693,785,864,972,1040,1010,995,965,993,994,886,902,885,869,861,810,822,816,790,774,758,742,706,710,703,656,662,646,636,617,635,615,616,602,603,615,630,617,619,611,624,611,636,617,614,631,632,652,661,639,629,630,634,631,624,634,652,626,636,622,542,540,545,543,554,606,687,768,847,892,891,883,854,854,840,825,811,797,782,768,754,722,720,711,692,682,668,653,639,625,610,596,582,567,550,550,552,553,565,548,548,555,550,557,552,557,549,556,554,550,550,549,555,561,556,555,555,554,556,555,552,563,548,555,550,513,515,517,518,597,570,646,722,797,846,852,839,825,811,798,784,771,757,743,759,716,730,689,675,661,648,634,645,607,593,579,566,552,588,526,521,544,524,527,532,536,536,544,533,533,533,536,536,548,542,553,554,554,546,533,539,541,539,537,537,542,541,539,537,539,1047,1072,1062,1059,1168,1300,1473,1645,1734,1701,1732,1657,1646,1613,1575,1558,1531,1533,1493,1450,1438,1498,1471,1390,1305,1326,1246,1292,1206,1205,1159,1167,1123,1056,1098,1047,1062,1114,1097,1083,1074,1082,1135,1177,1110,1113,1122,1136,1113,1144,1153,1139,1115,1144,1129,1133,1152,1123,1153,1233,1206,1228,1227,1164,1165,99,99,100,100,100,102,116,129,143,157,167,165,162,159,157,154,151,149,146,143,141,138,135,132,130,127,124,122,119,116,114,111,108,106,103,101,101,101,85,85,85,85,87,87,86,89,89,88,87,86,86,86,86,89,87,85,87,86,86,86,87,88,87,88,87,699,710,703,705,726,801,906,1011,1101,1142,1158,1125,1157,1089,1070,1052,1034,1016,998,980,974,944,969,919,901,871,853,835,817,799,781,763,745,727,713,745,711,713,717,717,720,716,714,713,725,722,714,714,722,717,716,722,724,718,718,717,723,723,723,717,723,723,720,720,725,0,0,0,0,0,0,0,0,0,0,0,0,0,0,0,0,0,0,0,0,0,0,0,0,0,0,0,0,0,0,0,0,0,0,0,0,0,0,0,0,0,0,0,0,0,0,0,0,0,0,0,0,0,0,0,0,0,0,0,0,0,0,0,0,0,774,756,775,739,788,901,976,1078,1165,1185,1206,1188,1190,1119,1133,1121,1100,1068,1063,1049,1012,976,992,968,950,936,906,894,878,829,838,794,818,783,769,722,757,758,752,762,761,769,797,766,769,784,764,777,763,766,764,776,791,807,960,892,800,785,779,769,768,767,785,777,762,95,96,96,96,97,98,111,124,136,149,159,157,154,152,149,147,144,142,139,137,134,132,129,127,124,122,119,117,114,112,109,107,104,102,99,97,97,97,79,80,80,82,82,81,82,86,80,82,83,92,81,81,83,83,81,82,83,86,83,81,82,83,81,82,81,932,986,941,937,999,1119,1284,1408,1495,1486,1482,1483,1481,1464,1416,1410,1382,1332,1334,1331,1282,1208,1220,1196,1186,1172,1143,1104,1092,1038,1034,996,975,961,935,928,935,927,952,944,954,958,946,940,976,963,937,932,952,954,947,944,943,944,944,955,950,953,947,947,942,974,977,982,960,639,641,679,645,660,723,817,909,994,1035,1038,1022,1114,990,973,981,941,925,963,981,876,860,905,827,811,795,779,762,746,739,714,697,689,665,652,648,650,676,646,656,660,677,732,709,675,722,675,740,699,729,701,675,700,739,698,675,724,692,680,708,701,738,694,687,677,205,205,206,207,207,215,244,272,301,330,344,339,333,328,322,317,311,306,300,295,289,284,278,273,267,262,256,250,245,239,234,228,223,217,212,208,208,209,187,188,188,188,189,189,190,190,190,192,192,193,193,193,194,194,195,195,196,196,196,197,197,198,198,198,200,484,486,446,447,449,484,602,671,671,719,727,716,705,693,682,671,659,648,636,625,614,602,591,579,568,557,545,534,570,511,500,488,477,465,454,450,451,452,453,446,449,469,448,456,456,469,470,457,453,452,444,445,450,450,467,452,449,461,462,455,458,452,453,452,448,531,533,535,536,590,591,670,735,825,873,878,864,837,836,822,796,782,768,754,741,727,713,699,686,672,658,644,630,617,603,589,575,562,548,535,539,532,534,517,516,518,518,525,524,524,527,530,532,532,538,539,536,534,536,544,541,542,542,546,552,548,548,556,561,562,646,648,686,652,667,730,824,916,1001,1042,1045,1029,1107,997,980,988,948,932,970,974,883,867,912,834,818,802,786,769,753,746,721,704,696,672,659,655,657,683,651,666,649,666,666,671,661,666,668,659,656,663,657,659,657,656,663,667,663,659,659,663,663,679,672,680,664,1300,1288,1316,1387,1473,1656,1846,1990,2084,2120,2091,2072,2018,2002,1958,1943,1871,1877,1828,1790,1764,1745,1693,1639,1606,1587,1556,1549,1481,1452,1410,1374,1385,1315,1306,1313,1316,1311,1373,1374,1374,1382,1399,1398,1403,1403,1396,1389,1403,1406,1479,1478,1495,1457,1392,1406,1406,1420,1407,1398,1413,1387,1399,1419,1388,512,539,496,505,509,599,618,744,794,820,861,832,819,786,792,803,792,775,762,754,740,726,660,671,678,670,651,642,604,569,588,583,550,524,541,501,519,540,522,522,516,519,546,541,561,547,532,555,539,538,541,526,525,539,534,531,545,527,522,539,534,548,541,538,529,218,218,219,220,220,229,259,289,319,349,363,357,351,345,340,334,328,323,317,311,305,300,294,288,282,277,271,265,260,254,248,242,237,231,225,221,222,222,209,215,209,213,215,216,212,217,215,211,216,212,210,211,211,215,211,212,212,212,211,212,210,216,209,215,210,502,501,502,504,512,551,624,697,770,818,826,812,796,786,773,760,747,734,721,707,694,678,668,655,642,629,615,606,589,576,563,554,537,523,511,507,508,509,523,502,503,507,502,511,504,509,506,509,508,500,503,504,506,508,513,509,507,506,508,511,503,515,503,511,508,1030,987,994,1006,1033,1330,1411,1543,1615,1645,1640,1615,1473,1448,1590,1482,1376,1457,1435,1386,1295,1353,1293,1363,1349,1249,1291,1112,1188,1064,1240,1074,1104,970,1084,946,1087,1133,1083,1073,1065,1152,1126,1118,1098,1091,1110,1146,1118,1150,1152,1142,1088,1095,1122,1128,1129,1106,1150,1199,1139,1130,1159,1121,1119,787,782,784,787,821,921,1032,1154,1252,1279,1277,1285,1237,1216,1196,1175,1155,1135,1146,1094,1073,1053,1033,1011,992,971,972,917,898,909,893,849,816,830,795,791,771,814,802,791,799,810,804,812,814,825,812,810,822,812,830,828,829,828,808,802,814,814,816,804,808,818,805,817,812,1214,1239,1179,1254,1392,1592,1881,2025,2034,2054,2037,2002,2050,1930,1894,1945,1878,1802,1764,1754,1723,1713,1609,1573,1580,1541,1458,1430,1423,1344,1323,1288,1253,1228,1235,1197,1224,1239,1281,1291,1281,1367,1327,1326,1318,1309,1317,1348,1321,1333,1326,1332,1292,1311,1305,1327,1330,1302,1321,1344,1318,1306,1325,1299,1297,795,720,726,724,736,871,864,1089,1048,1087,1085,1099,1128,1069,1022,1005,988,971,954,964,935,904,949,972,949,836,866,802,818,768,821,755,718,721,795,676,734,748,716,702,715,724,707,712,706,723,720,743,744,735,725,714,740,722,732,731,739,743,729,737,730,724,733,799,756,203,204,204,205,206,213,242,270,298,326,340,335,329,324,319,313,308,302,297,292,286,281,275,270,264,259,254,248,243,237,232,226,221,216,210,206,207,207,194,194,195,195,196,196,196,207,204,198,196,197,197,201,198,205,198,202,197,197,195,198,197,198,196,200,197,282,283,283,284,285,299,338,376,415,453,466,459,452,444,437,430,422,415,408,400,393,386,378,371,364,356,349,342,334,327,320,312,305,298,290,286,287,287,276,284,280,280,284,282,285,286,280,284,278,280,281,285,288,286,288,284,279,280,286,282,278,279,281,287,282,958,941,927,936,1010,1125,1257,1411,1489,1511,1495,1467,1406,1384,1372,1375,1330,1347,1294,1269,1276,1235,1228,1207,1188,1132,1108,1090,1095,1060,1053,1029,1023,975,957,945,966,969,978,998,986,1077,1014,1001,984,1008,1007,1066,1068,1045,1068,1038,1014,1019,1040,1027,1016,1020,1108,1085,1051,1039,1065,1065,1039,435,437,424,439,427,459,571,654,694,739,675,687,720,709,634,687,614,640,629,618,607,596,570,560,551,541,529,551,540,481,518,476,495,490,431,469,428,472,452,456,449,457,463,467,463,472,463,458,468,467,457,461,461,469,460,460,465,462,461,467,458,470,455,463,454,319,319,320,321,321,348,375,404,438,450,456,446,441,436,436,446,427,425,461,423,418,411,404,390,391,384,378,371,364,385,357,343,338,343,339,333,323,337,319,316,318,318,318,316,320,319,318,320,317,319,323,326,326,325,331,324,322,322,323,330,322,327,323,323,324,963,987,951,1033,1052,1153,1356,1413,1490,1500,1488,1531,1438,1496,1400,1392,1381,1338,1384,1301,1369,1255,1231,1200,1271,1160,1136,1112,1089,1112,1047,1052,1026,984,992,1057,1058,1043,1017,1012,1020,1055,1031,1009,1017,1038,1021,1084,1142,1037,1046,1043,1034,1026,1029,1054,1017,1021,1016,1019,1021,1040,1038,1055,1028,914,937,902,960,994,1086,1292,1336,1414,1425,1415,1507,1368,1424,1331,1324,1314,1272,1374,1237,1216,1193,1171,1141,1193,1103,1080,1057,1035,1009,996,1039,944,934,942,976,930,928,922,916,934,951,920,940,923,929,928,934,952,942,935,942,944,954,944,953,934,948,948,951,953,954,940,968,967,586,587,589,598,629,672,747,823,899,919,917,900,888,873,868,867,842,831,828,812,799,784,769,747,740,725,711,696,681,664,658,679,623,620,645,641,622,610,605,618,614,623,639,622,626,623,615,623,618,621,616,632,634,646,676,664,636,630,629,617,618,622,638,629,613,1211,1264,1203,1311,1393,1563,1821,1828,1985,1993,1914,1980,1819,1891,1767,1732,1734,1685,1776,1718,1606,1558,1545,1583,1571,1438,1497,1452,1364,1331,1295,1362,1244,1234,1229,1284,1232,1231,1291,1304,1253,1273,1305,1298,1283,1302,1292,1304,1355,1300,1326,1334,1342,1322,1318,1328,1338,1350,1390,1323,1318,1336,1383,1337,1307,921,895,890,914,1014,1059,1202,1316,1402,1411,1418,1369,1350,1342,1318,1306,1330,1255,1239,1233,1255,1176,1153,1130,1128,1112,1073,1083,1043,1054,1005,986,924,951,941,956,928,920,922,937,942,952,951,952,948,953,939,943,943,937,942,953,959,965,958,970,950,958,966,948,945,938,954,960,939,1267,1194,1207,1250,1382,1521,1671,1821,1870,1913,1949,1903,1872,1760,1758,1802,1729,1759,1705,1632,1663,1615,1552,1555,1464,1458,1464,1374,1407,1365,1348,1319,1263,1273,1253,1216,1254,1257,1292,1296,1306,1313,1307,1335,1310,1323,1304,1337,1335,1346,1303,1318,1342,1351,1333,1348,1348,1342,1338,1327,1321,1314,1338,1399,1340,1660,1681,1764,1939,2149,2358,2511,2705,2812,2719,2705,2709,2552,2547,2516,2504,2387,2416,2368,2300,2290,2189,2206,2139,2068,2048,1975,1937,1915,1863,1838,1740,1799,1762,1709,1697,1722,1714,1902,1902,1900,1919,1950,1968,1949,1966,1948,1977,1996,1969,1981,1957,1975,2008,1999,1970,1983,1994,1991,2018,2002,1995,2014,2034,2030,806,786,796,777,827,918,1014,1164,1211,1233,1253,1230,1182,1154,1151,1143,1115,1127,1095,1071,1079,1042,1037,1011,971,954,934,911,922,897,890,848,843,821,820,793,800,821,808,813,823,850,830,821,817,824,829,830,852,856,858,862,868,864,862,841,828,840,838,831,813,836,841,829,812,1199,1223,1190,1307,1361,1504,1750,1802,1872,1875,1857,1906,1795,1845,1745,1743,1713,1665,1703,1615,1587,1558,1528,1491,1602,1485,1449,1380,1350,1398,1296,1295,1264,1231,1230,1244,1219,1219,1258,1264,1276,1285,1279,1300,1287,1298,1271,1284,1282,1271,1275,1283,1291,1302,1295,1307,1282,1290,1299,1283,1280,1269,1284,1300,1274,855,853,863,897,885,984,1116,1276,1320,1312,1331,1306,1257,1254,1223,1240,1185,1196,1163,1140,1144,1129,1100,1072,1112,1013,1013,988,997,951,961,918,893,871,888,843,867,888,876,858,866,861,869,886,874,871,876,893,915,902,904,912,906,912,896,897,899,912,916,927,906,904,914,928,924,0,0,0,0,0,0,0,0,0,0,0,0,0,0,0,0,0,0,0,0,0,0,0,0,0,0,0,0,0,0,0,0,0,0,0,0,0,0,0,0,0,0,0,0,0,0,0,0,0,0,0,0,0,0,0,0,0,0,0,0,0,0,0,0,0,728,709,719,699,735,818,898,1033,1082,1103,1125,1106,1058,1035,1031,1029,999,1016,984,965,974,940,936,924,875,858,843,822,835,811,804,767,763,741,740,713,733,741,721,733,731,739,763,743,739,754,733,745,733,732,735,749,751,766,896,843,761,753,754,745,735,735,753,747,733,272,276,277,278,278,292,326,379,369,426,435,429,398,392,410,383,397,404,398,393,387,382,376,370,365,391,317,323,321,314,308,302,295,312,279,279,280,280,271,270,269,272,272,272,272,287,280,273,274,278,291,296,294,300,273,269,274,276,271,279,274,273,274,274,274,917,902,891,913,998,1091,1196,1342,1421,1431,1421,1395,1374,1331,1337,1316,1306,1284,1247,1242,1202,1198,1175,1127,1129,1093,1067,1050,1022,997,983,989,938,937,936,958,932,917,946,954,937,950,945,959,951,977,974,990,959,996,977,982,977,1028,981,953,973,951,969,1007,978,1003,980,996,967,628,619,621,626,653,694,811,896,978,947,1006,957,959,944,923,890,907,890,884,833,854,844,828,802,796,767,757,748,719,759,694,691,668,647,641,648,645,654,639,638,656,652,649,671,655,671,670,660,692,663,663,668,667,680,657,657,661,669,657,654,660,664,648,669,671,438,440,441,453,423,477,541,593,620,672,656,649,641,634,626,623,612,604,597,590,582,590,574,556,553,546,531,506,529,516,509,501,471,469,448,442,424,460,446,444,450,445,447,456,471,452,446,457,463,462,458,456,458,470,456,461,455,455,452,453,453,453,452,471,465,1160,1184,1150,1248,1341,1482,1676,1743,1895,1856,1833,1923,1742,1763,1692,1678,1662,1614,1699,1653,1539,1510,1481,1520,1467,1394,1430,1408,1308,1300,1256,1273,1217,1182,1191,1206,1180,1179,1242,1200,1200,1203,1191,1248,1215,1228,1228,1228,1250,1241,1243,1221,1239,1265,1300,1222,1227,1265,1225,1248,1234,1222,1257,1264,1237,924,909,898,920,1005,1098,1203,1349,1428,1438,1428,1402,1381,1338,1344,1323,1313,1291,1254,1249,1209,1205,1182,1134,1136,1100,1074,1057,1029,1004,990,996,945,944,943,965,939,924,927,947,943,959,981,970,965,991,953,1003,968,996,962,962,980,1005,984,977,983,974,973,985,981,1003,968,973,957,846,848,835,908,879,989,1132,1226,1287,1291,1312,1272,1336,1254,1260,1203,1197,1178,1166,1133,1121,1098,1099,1082,1057,1068,1025,989,983,974,947,928,913,858,845,879,862,847,882,856,861,883,869,868,866,878,870,873,882,876,944,946,965,904,885,874,869,888,874,864,867,888,873,889,871,1078,1102,1067,1169,1231,1356,1580,1608,1784,1782,1706,1770,1618,1742,1573,1561,1547,1501,1597,1542,1432,1405,1378,1420,1399,1298,1345,1316,1218,1188,1170,1216,1110,1100,1108,1149,1097,1096,1141,1143,1098,1095,1138,1121,1128,1135,1131,1149,1188,1136,1145,1159,1160,1161,1137,1167,1172,1177,1210,1172,1154,1160,1212,1144,1149,900,883,916,878,940,1052,1161,1361,1366,1382,1400,1376,1327,1297,1291,1281,1247,1259,1258,1200,1204,1156,1158,1129,1088,1067,1111,1022,1056,1002,990,949,948,916,918,889,921,925,902,901,906,914,921,927,931,913,917,930,919,924,940,924,925,921,934,930,930,938,935,930,948,935,935,943,934,1216,1179,1195,1204,1405,1501,1643,1794,1849,1813,1936,1895,1789,1736,1734,1772,1670,1684,1699,1611,1640,1580,1533,1507,1446,1447,1394,1357,1355,1332,1333,1276,1254,1225,1217,1202,1244,1220,1267,1269,1262,1264,1262,1260,1262,1272,1265,1418,1266,1265,1269,1274,1283,1261,1275,1274,1267,1281,1258,1264,1269,1274,1268,1275,1277,1271,1252,1293,1365,1581,1653,1883,2012,2075,2040,2109,2046,1949,1917,1961,1901,1825,1796,1803,1767,1706,1724,1665,1597,1596,1536,1502,1493,1459,1396,1372,1396,1312,1324,1352,1314,1299,1314,1355,1357,1402,1670,1411,1344,1401,1491,1426,1365,1464,1440,1387,1396,1474,1452,1442,1351,1392,1381,1434,1432,1373,1412,1372,1376,1396,682,671,684,674,676,724,844,929,1011,1041,1036,977,1006,991,934,961,950,936,916,901,886,871,856,841,826,811,796,781,766,751,736,691,677,663,694,650,651,681,660,663,661,672,684,662,671,671,671,668,685,693,761,762,776,714,725,720,697,698,682,670,690,667,686,675,670,1101,1104,1156,1133,1264,1365,1499,1618,1737,1700,1715,1657,1714,1624,1588,1563,1518,1514,1489,1471,1453,1416,1390,1411,1411,1317,1292,1288,1240,1240,1193,1249,1144,1148,1147,1153,1115,1120,1135,1134,1138,1144,1143,1146,1152,1169,1152,1158,1151,1153,1159,1158,1160,1159,1165,1175,1168,1172,1169,1162,1180,1173,1172,1176,1169,1006,993,992,1037,1167,1196,1356,1475,1556,1565,1545,1518,1527,1478,1460,1446,1439,1418,1466,1370,1364,1304,1278,1255,1273,1211,1189,1178,1182,1108,1096,1156,1027,1058,1030,1073,1031,1039,1058,1026,1035,1032,1073,1066,1044,1043,1044,1061,1104,1088,1089,1091,1100,1082,1107,1082,1075,1105,1118,1101,1084,1084,1113,1130,1103,830,813,844,804,856,957,1054,1229,1254,1271,1291,1269,1222,1193,1189,1181,1149,1163,1159,1106,1112,1066,1069,1043,1003,983,965,942,952,926,916,876,877,846,847,818,845,847,858,831,836,850,836,864,844,871,864,862,874,846,846,851,862,862,853,844,859,859,854,846,853,863,843,864,847,958,941,927,936,1010,1125,1257,1411,1489,1511,1495,1467,1406,1384,1372,1375,1330,1347,1294,1269,1276,1235,1228,1207,1188,1132,1108,1090,1095,1060,1053,1029,1023,975,957,945,966,969,978,998,986,1077,1014,1001,984,1008,1007,1066,1068,1045,1068,1038,1014,1019,1040,1027,1016,1020,1108,1085,1051,1039,1065,1065,1039,375,376,405,407,380,405,455,507,564,606,620,610,601,591,581,571,557,552,542,532,550,513,503,493,483,473,464,454,444,434,425,415,405,395,413,409,410,383,372,371,374,379,377,374,377,378,379,379,379,378,380,383,384,388,383,383,384,384,385,394,388,389,388,393,396,1015,1045,1054,1035,1111,1282,1355,1546,1575,1655,1631,1657,1638,1555,1584,1555,1591,1466,1460,1412,1430,1432,1315,1341,1241,1286,1248,1164,1228,1211,1088,1155,1035,1046,1019,998,1080,1084,1047,1055,1046,1082,1062,1065,1062,1076,1070,1075,1066,1073,1066,1061,1050,1055,1066,1073,1059,1059,1050,1057,1058,1070,1073,1077,1050,514,513,516,517,519,564,638,708,794,830,837,822,807,798,785,772,759,746,728,716,707,694,677,680,652,640,626,611,603,588,577,564,551,535,539,532,522,524,511,518,514,529,513,523,518,526,523,526,524,522,530,524,531,531,530,529,536,531,533,526,534,539,537,540,541,460,462,463,465,467,505,570,636,701,749,756,744,783,720,709,697,685,673,661,649,637,625,614,602,590,578,566,554,542,531,519,507,495,483,472,467,469,470,457,458,456,457,462,462,481,467,461,468,465,469,467,465,465,470,468,469,471,468,465,468,468,470,471,473,468,357,356,357,359,350,422,433,480,517,577,591,578,569,598,550,538,529,519,500,504,495,486,476,455,460,437,437,430,410,411,400,393,383,374,365,351,362,353,342,345,350,360,345,356,348,363,365,347,366,348,354,351,348,357,350,350,351,358,349,351,349,356,350,358,351,535,537,532,534,540,595,669,778,830,865,881,866,851,839,825,811,790,755,768,756,773,727,688,686,686,675,658,643,631,614,602,588,571,560,541,542,543,546,544,537,541,561,542,548,548,561,562,549,546,545,537,539,545,546,578,557,547,556,557,550,554,547,550,547,544,660,660,665,682,663,787,866,958,1021,1098,1086,1055,1049,1061,1043,955,979,949,922,927,937,906,875,844,828,824,798,801,753,747,737,730,695,678,682,686,680,676,694,675,684,676,680,684,733,710,676,675,699,698,691,678,680,690,679,690,686,689,680,678,672,685,690,694,668,441,442,444,445,447,522,544,608,667,713,729,709,745,705,675,664,729,698,631,619,608,637,589,574,581,552,541,570,518,508,496,486,473,462,451,447,504,450,442,449,454,462,458,468,448,464,449,475,456,449,458,461,473,487,470,463,469,456,470,472,467,475,453,462,455,578,598,610,611,593,649,736,823,906,953,957,941,922,911,895,876,865,849,864,848,831,740,800,757,742,727,712,696,705,689,650,657,620,604,619,615,617,590,583,594,594,616,605,596,606,603,594,598,596,599,599,594,594,601,602,599,605,598,596,605,601,625,621,625,615,1133,1195,1142,1171,1237,1380,1563,1704,1770,1883,1764,1772,1769,1697,1733,1627,1619,1682,1592,1633,1524,1422,1471,1412,1392,1395,1376,1292,1275,1246,1301,1207,1227,1140,1219,1153,1166,1131,1172,1193,1191,1205,1219,1198,1199,1231,1199,1200,1212,1190,1213,1212,1223,1226,1380,1327,1237,1213,1219,1208,1198,1202,1219,1248,1200,173,174,175,175,176,181,206,230,254,278,292,287,283,278,273,269,264,259,255,250,245,241,236,231,227,222,217,212,208,203,198,194,189,184,180,176,177,177,164,165,167,171,171,175,166,177,166,172,169,165,167,172,172,173,170,170,170,169,174,175,167,171,165,169,166,695,697,700,711,722,797,901,1006,1149,1137,1138,1120,1152,1084,1115,1048,1043,1011,993,975,957,939,921,903,928,867,849,831,824,795,777,759,741,723,709,706,708,710,707,694,702,724,697,725,703,712,715,714,739,714,715,708,708,729,746,713,705,721,707,715,714,708,717,743,715,240,240,241,242,243,253,287,321,355,389,402,396,389,383,376,370,364,357,351,344,338,331,325,318,312,306,299,293,286,280,273,267,260,254,248,243,244,245,231,230,228,232,257,250,247,249,243,262,249,239,249,234,236,246,241,235,253,236,232,248,245,258,249,250,242,695,705,695,664,729,757,866,1001,1085,1118,1093,1092,1057,1083,1087,1042,1023,967,988,976,924,924,924,908,869,873,855,839,787,758,785,768,735,694,707,695,712,671,677,676,689,714,680,700,683,695,683,686,699,686,678,689,689,705,692,694,687,689,694,693,691,698,680,707,691,0,0,0,0,0,0,0,0,0,0,0,0,0,0,0,0,0,0,0,0,0,0,0,0,0,0,0,0,0,0,0,0,0,0,0,0,0,0,0,0,0,0,0,0,0,0,0,0,0,0,0,0,0,0,0,0,0,0,0,0,0,0,0,0,0,888,884,878,876,935,1067,1160,1360,1383,1442,1402,1406,1384,1337,1336,1309,1304,1243,1222,1214,1182,1174,1156,1113,1107,1084,1115,1060,1018,1012,974,974,946,896,895,887,875,905,892,900,904,930,915,914,907,930,909,916,906,915,901,919,911,921,923,925,919,915,912,925,920,942,920,935,923,545,547,548,550,557,608,685,763,839,883,887,893,887,846,832,817,804,790,777,763,749,735,722,708,693,695,666,652,638,625,611,597,583,570,557,553,573,556,552,554,553,568,556,555,554,564,554,554,557,552,553,557,555,556,557,561,556,562,561,562,556,567,555,562,557,93,94,94,94,95,96,109,122,135,148,158,155,153,150,148,145,143,140,138,135,133,130,128,125,122,120,117,115,112,110,107,105,102,100,97,95,95,95,77,77,77,77,77,75,77,77,75,77,77,77,77,77,77,77,77,77,77,77,77,77,77,77,77,77,77,391,392,392,393,394,423,476,532,586,632,641,673,621,611,601,591,581,571,560,551,542,531,521,510,501,490,481,470,462,450,441,431,422,411,401,396,397,399,389,393,389,389,422,458,401,392,395,403,396,392,394,395,394,395,400,397,393,394,389,397,402,408,417,395,392,583,583,585,612,612,671,741,827,961,955,988,973,928,935,920,860,867,873,849,821,865,849,775,779,763,711,732,699,717,689,701,638,641,624,594,590,592,593,617,593,592,594,592,599,595,598,595,596,596,591,593,594,594,595,600,599,598,595,598,606,594,607,596,602,601,552,554,555,557,564,615,692,770,846,890,894,900,894,853,839,824,811,797,784,770,756,742,729,715,700,702,673,659,645,632,618,604,590,577,564,560,580,563,547,550,561,568,564,572,554,569,555,584,564,561,567,569,582,596,578,571,580,569,578,583,579,586,564,572,568,1232,1245,1296,1285,1380,1615,1745,1887,1978,2067,2079,1979,1961,1961,1879,1850,1856,1778,1837,1702,1689,1650,1607,1616,1566,1519,1480,1490,1471,1390,1379,1320,1299,1267,1261,1312,1256,1250,1343,1350,1334,1359,1394,1387,1366,1365,1376,1410,1372,1409,1414,1397,1355,1381,1374,1391,1396,1363,1410,1464,1421,1424,1428,1388,1384,527,527,529,530,519,618,662,739,823,861,870,842,839,866,801,798,784,758,734,743,729,715,702,667,676,660,636,633,600,598,591,578,556,543,537,600,535,541,533,544,542,555,553,552,555,563,538,554,545,539,549,556,553,553,578,559,542,540,555,550,537,547,545,552,541,269,270,271,272,273,286,324,361,399,436,448,441,434,427,420,413,406,399,392,384,377,370,363,356,349,342,335,328,320,313,306,299,292,285,278,274,274,275,264,265,264,268,270,272,271,276,274,270,274,270,266,266,268,273,268,268,269,268,266,268,268,269,264,272,266,563,563,593,597,581,630,714,803,875,926,930,915,897,886,871,849,838,826,811,797,810,718,752,735,723,727,697,678,661,646,631,623,604,589,604,600,600,575,578,583,583,595,596,588,611,591,586,618,601,594,594,592,583,593,593,599,596,586,586,592,590,595,594,599,584,847,925,852,857,989,1129,1133,1260,1464,1525,1369,1547,1446,1324,1286,1374,1261,1221,1309,1304,1256,1131,1188,1091,1179,1148,1125,1109,983,961,955,996,888,875,862,932,859,903,885,925,885,886,909,892,899,908,904,907,922,900,913,906,912,913,923,929,920,924,952,908,928,937,955,934,928,715,707,752,723,748,869,938,1048,1138,1175,1206,1158,1138,1195,1085,1081,1108,1045,1027,992,1013,970,974,933,914,933,897,857,894,853,801,801,762,743,737,727,761,752,744,748,740,840,781,762,771,775,760,763,767,777,779,779,763,772,761,763,766,755,755,758,759,756,761,754,740,1115,1141,1144,1194,1336,1523,1756,1857,1942,1966,1931,1912,1878,1906,1810,1781,1759,1707,1662,1686,1709,1619,1512,1535,1464,1472,1395,1389,1377,1280,1260,1241,1177,1173,1158,1177,1169,1170,1229,1193,1192,1208,1191,1225,1206,1208,1234,1282,1212,1228,1274,1228,1229,1275,1237,1225,1218,1222,1261,1320,1344,1367,1363,1253,1245,581,583,604,606,608,688,731,813,925,989,935,945,906,912,881,867,870,838,851,873,794,776,769,751,778,757,697,735,678,664,665,635,611,606,593,625,588,631,588,586,592,593,586,596,600,603,603,634,605,594,596,595,593,595,596,600,598,600,596,596,595,599,596,603,603,200,201,201,202,202,210,238,266,293,321,335,330,324,319,314,308,303,298,292,287,282,276,271,266,260,255,250,244,239,234,228,223,218,212,207,203,204,204,186,196,196,188,186,188,195,193,195,188,210,186,200,186,189,190,203,203,204,189,192,193,194,189,186,217,186,375,376,405,407,380,405,455,507,564,606,620,610,601,591,581,571,557,552,542,532,550,513,503,493,483,473,464,454,444,434,425,415,405,395,413,409,410,383,372,371,374,379,377,374,377,378,379,379,379,378,380,383,384,388,383,383,384,384,385,394,388,389,388,393,396,1105,1109,1112,1148,1196,1349,1568,1643,1742,1756,1713,1696,1699,1682,1640,1604,1566,1554,1552,1517,1457,1430,1469,1385,1349,1301,1327,1261,1290,1194,1221,1138,1151,1130,1155,1124,1107,1122,1144,1149,1153,1176,1179,1177,1174,1188,1167,1197,1193,1192,1211,1237,1265,1233,1200,1182,1167,1188,1175,1158,1158,1183,1173,1185,1149,260,261,262,263,263,276,312,349,386,422,435,428,421,414,407,400,394,387,380,373,366,375,352,345,338,331,324,317,310,303,296,289,283,276,269,264,265,266,250,250,250,251,253,256,254,254,257,256,254,254,254,255,255,254,257,257,257,255,256,257,258,263,262,265,263,479,491,483,483,485,596,586,638,679,719,728,722,709,703,690,698,680,661,659,652,632,626,621,583,572,561,580,540,563,516,506,497,511,512,492,494,489,490,473,486,480,493,516,509,494,525,486,526,506,540,500,495,509,524,508,498,514,511,504,510,501,522,499,503,493,1201,1182,1149,1143,1339,1484,1557,1679,1734,1826,1747,1791,1693,1672,1641,1632,1597,1562,1543,1519,1482,1481,1579,1384,1356,1328,1329,1358,1326,1216,1207,1181,1233,1149,1192,1165,1129,1236,1177,1198,1198,1207,1245,1226,1215,1256,1208,1267,1227,1264,1230,1215,1241,1261,1242,1226,1245,1228,1226,1239,1234,1260,1221,1227,1212,1135,1072,1143,1088,1187,1338,1479,1603,1656,1804,1675,1653,1624,1602,1573,1564,1532,1497,1479,1456,1420,1421,1455,1325,1298,1272,1273,1255,1273,1215,1202,1131,1172,1100,1121,1154,1079,1124,1128,1133,1126,1233,1134,1170,1131,1162,1157,1161,1177,1146,1167,1146,1149,1167,1175,1158,1153,1158,1167,1154,1158,1157,1164,1193,1166,768,759,792,754,783,885,982,1084,1150,1183,1193,1172,1148,1135,1113,1113,1088,1062,1055,1036,1021,1029,988,936,917,898,921,918,900,821,841,837,793,785,763,805,762,765,771,777,762,867,794,775,782,798,783,775,781,792,793,776,768,777,781,787,778,779,770,779,770,784,787,782,761,1433,1356,1452,1446,1629,1813,1953,2067,2111,2301,2229,2137,2069,2071,2003,1987,1947,1886,1860,1848,1806,1780,1987,1688,1722,1604,1614,1587,1597,1504,1554,1441,1498,1400,1422,1465,1389,1428,1489,1493,1450,1443,1490,1471,1484,1490,1487,1493,1544,1495,1504,1519,1516,1524,1496,1524,1536,1537,1570,1527,1517,1522,1579,1507,1513,1092,1061,1090,1079,1217,1331,1512,1596,1650,1662,1666,1644,1638,1595,1555,1581,1504,1489,1469,1455,1409,1423,1423,1320,1308,1252,1262,1270,1252,1180,1164,1165,1127,1099,1094,1102,1085,1114,1129,1096,1099,1105,1098,1108,1104,1103,1114,1181,1107,1119,1128,1130,1131,1141,1157,1142,1130,1130,1130,1139,1135,1133,1135,1145,1145,1371,1355,1400,1495,1719,1715,2059,2078,2163,2221,2171,2081,2159,2102,2016,2006,1951,1948,1863,1868,1854,1706,1760,1661,1686,1596,1649,1577,1549,1508,1515,1411,1409,1444,1394,1425,1404,1410,1482,1484,1464,1478,1475,1491,1482,1514,1510,1585,1501,1529,1527,1527,1501,1566,1542,1512,1505,1487,1509,1545,1512,1549,1531,1540,1506,1783,1753,1945,2119,2345,2622,2855,2936,2925,2974,2904,2879,2850,2820,2807,2700,2630,2578,2525,2473,2477,2375,2355,2318,2236,2156,2113,2040,2034,1981,1931,1828,1799,1822,1811,1796,1859,1794,2116,2131,2132,2106,2150,2167,2144,2191,2164,2179,2192,2188,2186,2206,2200,2243,2202,2179,2200,2187,2182,2229,2203,2200,2201,2251,2205,953,946,955,964,1041,1134,1310,1397,1466,1521,1481,1462,1469,1444,1423,1389,1359,1350,1316,1316,1259,1234,1240,1194,1166,1120,1153,1080,1102,1027,1027,983,999,974,970,969,952,966,962,973,968,982,997,978,985,996,969,978,975,977,976,994,990,994,1082,1049,992,988,991,976,969,973,997,990,974,1437,1434,1401,1427,1688,1919,1950,2063,2111,2195,2111,2148,2046,2018,1982,1966,1925,1930,1860,1830,1787,1792,1786,1671,1638,1604,1638,1621,1583,1468,1463,1421,1414,1387,1366,1405,1369,1466,1434,1434,1476,1748,1493,1451,1473,1571,1517,1457,1548,1528,1461,1478,1577,1571,1526,1441,1482,1468,1510,1510,1465,1498,1465,1473,1479,1002,1013,1009,1024,1103,1204,1389,1478,1545,1599,1585,1565,1543,1517,1494,1460,1453,1418,1398,1383,1324,1298,1302,1256,1225,1180,1210,1136,1176,1082,1079,1034,1049,1041,1021,1019,1002,1016,1032,1020,1020,1028,1029,1032,1040,1034,1038,1047,1050,1035,1040,1047,1052,1053,1047,1063,1045,1062,1046,1034,1053,1061,1035,1040,1026,184,185,186,186,187,193,217,242,266,291,304,300,295,290,285,281,276,271,266,262,257,252,247,243,238,233,229,224,219,214,210,205,200,195,191,187,188,188,172,174,174,181,174,177,173,175,173,172,174,174,172,173,174,175,174,177,174,174,175,177,173,180,172,175,173,875,877,881,880,936,1022,1183,1263,1335,1395,1358,1341,1365,1326,1307,1273,1248,1237,1209,1212,1154,1133,1141,1097,1068,1028,1073,989,1013,941,957,900,918,896,892,891,871,886,873,869,884,902,897,908,888,907,881,923,899,883,897,888,901,925,905,898,906,883,893,902,900,911,889,913,891,0,0,0,0,0,0,0,0,0,0,0,0,0,0,0,0,0,0,0,0,0,0,0,0,0,0,0,0,0,0,0,0,0,0,0,0,0,0,0,0,0,0,0,0,0,0,0,0,0,0,0,0,0,0,0,0,0,0,0,0,0,0,0,0,0,1136,1065,1108,1081,1201,1344,1485,1609,1642,1688,1680,1666,1599,1608,1565,1541,1537,1482,1483,1460,1431,1425,1458,1329,1285,1275,1277,1242,1250,1166,1144,1119,1130,1088,1081,1119,1082,1124,1115,1115,1107,1162,1143,1114,1122,1147,1120,1146,1181,1134,1141,1129,1118,1120,1126,1141,1121,1126,1118,1122,1115,1128,1128,1129,1104,771,802,777,805,821,935,1036,1150,1218,1240,1245,1242,1219,1216,1165,1169,1156,1149,1076,1075,1058,1038,1018,992,950,974,959,877,905,861,851,824,844,798,806,791,775,787,777,787,789,809,800,791,794,807,791,805,806,815,847,843,863,850,807,801,810,805,809,799,809,816,802,810,802,613,611,616,604,602,674,737,803,874,911,909,897,897,873,886,849,855,829,813,801,789,777,765,747,741,734,726,673,697,656,629,616,655,623,614,636,612,613,602,592,605,617,610,607,601,603,609,617,614,609,616,654,671,652,645,616,603,622,610,609,598,621,609,628,606,1381,1318,1399,1457,1526,1727,1890,2005,2050,2160,2090,2061,1993,1995,1929,1968,1875,1834,1810,1781,1739,1736,1787,1626,1619,1560,1555,1557,1535,1449,1456,1403,1440,1416,1370,1384,1350,1375,1417,1435,1434,1448,1444,1449,1448,1474,1451,1455,1453,1437,1453,1458,1471,1479,1482,1488,1482,1471,1472,1461,1455,1468,1472,1476,1457,1143,1072,1115,1088,1208,1351,1492,1616,1649,1695,1687,1673,1606,1615,1572,1548,1544,1489,1490,1467,1438,1432,1465,1336,1292,1282,1284,1249,1257,1173,1151,1126,1137,1095,1088,1126,1089,1131,1112,1110,1100,1130,1120,1126,1127,1142,1122,1121,1120,1134,1123,1119,1114,1114,1122,1128,1126,1127,1111,1113,1118,1133,1131,1133,1111,708,710,739,713,732,786,870,954,1078,1113,1074,1102,1044,1107,1015,1000,985,970,955,940,925,910,896,915,1024,851,836,821,837,821,806,762,775,784,721,717,718,720,730,707,709,709,737,729,723,718,720,728,758,741,758,751,763,747,756,741,746,772,781,764,746,751,791,782,760,1300,1237,1320,1280,1409,1593,1754,1872,1920,2094,2024,1936,1871,1875,1811,1799,1762,1723,1700,1673,1634,1630,1793,1526,1547,1465,1462,1439,1452,1363,1396,1320,1358,1266,1287,1328,1267,1292,1345,1305,1306,1309,1297,1353,1322,1335,1335,1335,1357,1348,1350,1328,1348,1373,1409,1329,1336,1373,1334,1356,1343,1333,1366,1373,1346,1049,1043,1052,1119,1154,1270,1465,1550,1656,1670,1630,1665,1637,1585,1560,1524,1495,1480,1445,1443,1381,1357,1360,1356,1279,1234,1263,1215,1206,1132,1152,1107,1120,1071,1091,1070,1073,1064,1088,1062,1072,1072,1088,1107,1084,1091,1091,1105,1136,1122,1129,1133,1130,1134,1124,1115,1114,1138,1147,1153,1134,1136,1154,1175,1146,1363,1340,1384,1489,1567,1685,2034,2051,2155,2200,2085,2062,2068,2053,1993,1979,1929,1912,1847,1867,1780,1687,1741,1659,1681,1595,1614,1533,1530,1490,1450,1400,1394,1402,1377,1407,1389,1377,1437,1436,1447,1466,1499,1488,1453,1488,1443,1453,1466,1471,1463,1486,1498,1517,1600,1563,1473,1488,1490,1482,1494,1490,1507,1516,1488,1495,1424,1497,1628,1712,1919,2122,2185,2324,2322,2231,2367,2196,2241,2167,2133,2089,2043,1945,2023,1943,1930,1949,1775,1737,1682,1786,1721,1683,1547,1545,1508,1464,1478,1459,1504,1440,1468,1514,1521,1544,1560,1535,1555,1536,1555,1537,1567,1560,1549,1545,1563,1571,1590,1574,1577,1550,1555,1573,1577,1574,1571,1550,1582,1573,743,745,784,750,778,858,1020,1079,1204,1228,1233,1228,1209,1191,1131,1145,1091,1073,1089,1055,1061,1062,978,1028,1035,921,903,892,896,846,827,841,789,770,793,758,800,746,764,762,772,804,792,782,781,798,791,793,814,814,962,994,1100,881,800,785,791,804,793,777,783,799,786,807,789,1018,1061,1057,1062,1145,1261,1338,1499,1651,1593,1616,1593,1569,1537,1465,1443,1479,1425,1410,1476,1412,1360,1337,1313,1384,1267,1243,1175,1235,1155,1130,1127,1126,1055,1098,1083,1067,1110,1082,1078,1124,1396,1137,1072,1118,1213,1151,1097,1193,1168,1111,1121,1196,1174,1169,1083,1116,1112,1152,1149,1101,1134,1107,1110,1123,1235,1159,1189,1194,1291,1478,1679,1745,1882,1845,1816,1791,1756,1767,1725,1718,1641,1623,1584,1569,1557,1528,1593,1430,1432,1369,1377,1362,1378,1300,1254,1226,1249,1221,1188,1246,1167,1225,1249,1248,1231,1250,1234,1271,1241,1248,1276,1326,1253,1267,1264,1266,1260,1274,1284,1262,1250,1251,1251,1262,1262,1266,1262,1259,1243,979,973,982,1017,1066,1169,1351,1436,1543,1561,1523,1560,1533,1483,1460,1425,1398,1384,1351,1351,1291,1268,1273,1226,1195,1152,1183,1108,1129,1056,1067,1011,1024,1000,997,999,977,993,1001,975,975,982,1013,1032,1001,997,1004,1005,1046,1032,1059,1032,1050,1036,1075,1020,1030,1068,1080,1072,1046,1052,1091,1131,1051,1105,1109,1112,1148,1196,1349,1568,1643,1742,1756,1713,1696,1699,1682,1640,1604,1566,1554,1552,1517,1457,1430,1469,1385,1349,1301,1327,1261,1290,1194,1221,1138,1151,1130,1155,1124,1107,1122,1144,1149,1153,1176,1179,1177,1174,1188,1167,1197,1193,1192,1211,1237,1265,1233,1200,1182,1167,1188,1175,1158,1158,1183,1173,1185,1149,868,825,836,831,894,978,1095,1221,1308,1343,1353,1320,1298,1303,1298,1234,1238,1192,1174,1149,1139,1106,1096,1084,1048,1044,1000,989,966,1009,915,902,872,859,855,834,839,842,843,847,850,863,854,847,861,860,859,851,870,862,860,859,875,883,881,877,868,868,877,861,863,869,870,871,863,1205,1222,1234,1277,1406,1612,1861,1944,1975,2018,2009,1970,1938,1885,1951,1803,1814,1807,1720,1729,1744,1595,1570,1590,1522,1523,1504,1396,1369,1405,1309,1350,1303,1234,1250,1217,1228,1274,1285,1296,1326,1351,1358,1361,1359,1333,1320,1352,1310,1298,1313,1322,1317,1315,1344,1333,1305,1306,1318,1314,1310,1318,1338,1345,1309,742,743,746,746,774,879,997,1073,1157,1301,1204,1185,1166,1142,1123,1109,1084,1072,1053,1034,1014,996,977,953,940,918,902,883,861,844,826,807,785,816,756,753,752,757,751,761,763,774,794,775,772,793,762,776,763,767,764,783,784,797,913,859,792,779,782,770,761,764,779,776,761,360,361,362,363,364,385,435,484,534,580,592,583,573,564,555,546,536,527,518,509,499,490,481,472,462,453,444,435,426,416,407,398,389,379,370,365,366,367,356,362,358,364,366,361,373,369,357,366,361,360,368,368,365,364,392,373,357,356,362,360,355,363,365,368,360,563,577,579,581,592,648,705,818,935,912,927,935,889,937,892,875,898,845,830,815,800,765,769,779,753,739,751,677,662,678,633,645,619,589,590,586,568,589,579,580,580,579,583,591,616,610,586,594,598,595,591,588,591,609,595,595,594,586,590,588,590,593,591,616,593,443,444,446,447,449,510,577,611,674,758,731,719,708,696,684,673,661,650,638,627,615,604,592,581,569,558,546,534,523,511,500,488,477,465,454,450,451,452,446,444,448,453,454,455,458,450,452,458,460,454,455,460,457,453,469,461,455,452,453,462,452,456,455,461,450,879,860,863,869,934,1039,1146,1343,1405,1398,1382,1382,1351,1389,1317,1313,1328,1267,1244,1222,1199,1139,1153,1181,1104,1100,1119,1047,1000,992,955,959,925,889,890,887,855,878,885,889,891,901,881,899,897,901,888,891,936,901,911,897,921,946,915,915,913,901,924,911,900,891,886,923,876,321,322,323,324,325,344,389,435,481,524,536,528,519,511,502,494,485,476,468,459,451,442,433,425,416,408,399,391,382,373,365,356,348,339,331,326,327,328,314,318,319,324,324,325,328,325,320,322,325,326,324,333,328,333,323,320,325,324,327,324,325,325,319,318,323,1106,1027,1030,1014,1123,1284,1391,1603,1692,1641,1625,1593,1579,1615,1635,1533,1506,1432,1456,1430,1399,1376,1346,1386,1302,1250,1238,1226,1198,1187,1132,1112,1066,1031,1064,1044,1030,1050,1051,1049,1057,1069,1053,1066,1053,1061,1070,1066,1067,1063,1063,1067,1066,1069,1065,1069,1070,1074,1067,1067,1075,1104,1105,1108,1106,1511,1514,1552,1646,1866,2146,2317,2492,2591,2451,2408,2439,2296,2375,2341,2294,2266,2170,2168,2177,2086,2025,1964,2022,1935,1875,1844,1828,1775,1726,1668,1615,1572,1554,1596,1554,1517,1598,1660,1718,1669,1690,1729,1690,1695,1719,1698,1708,1724,1711,1716,1708,1721,1718,1754,1733,1724,1719,1772,1703,1719,1727,1748,1734,1723,668,624,635,628,662,717,801,896,982,1024,1040,1011,995,1004,1004,945,954,913,896,880,874,847,841,834,797,801,764,758,741,789,699,691,666,657,653,632,634,635,651,630,636,642,640,649,651,662,648,649,659,662,642,644,645,652,644,641,649,649,649,638,641,647,637,649,645,634,636,638,636,653,708,810,904,990,1024,1039,1023,1007,990,974,957,941,924,908,891,867,859,842,819,809,787,776,754,743,727,706,694,678,657,647,643,645,647,640,639,640,644,667,639,649,652,646,640,640,644,645,654,652,664,786,736,669,659,647,642,646,647,666,652,646,735,691,702,695,737,802,898,1004,1092,1132,1147,1116,1098,1106,1104,1043,1050,1007,989,971,964,934,927,918,880,882,844,836,816,863,771,762,735,725,720,699,701,703,697,707,701,733,694,726,706,732,718,723,723,706,721,709,722,723,720,720,725,721,729,714,718,728,720,736,735,875,877,880,885,926,1051,1264,1309,1440,1467,1474,1451,1384,1434,1342,1321,1300,1309,1258,1202,1276,1180,1138,1194,1095,1074,1052,1081,1090,1064,967,946,924,904,890,887,889,892,908,906,912,913,905,902,916,917,906,909,915,909,914,925,932,920,921,912,913,921,915,907,915,920,916,919,919,635,613,624,617,649,702,784,876,961,1003,1021,992,976,986,996,928,937,896,880,863,858,831,826,820,783,787,751,745,728,712,720,679,654,646,641,621,622,624,626,630,626,636,637,633,637,651,623,639,632,630,634,642,642,636,642,639,633,633,645,637,626,632,632,638,630,1058,1047,1083,1089,1232,1357,1591,1678,1761,1783,1801,1782,1736,1671,1671,1575,1592,1533,1500,1464,1484,1390,1387,1376,1325,1302,1288,1227,1208,1261,1140,1144,1100,1072,1056,1090,1079,1082,1092,1105,1103,1119,1105,1164,1116,1142,1123,1138,1147,1138,1142,1127,1151,1172,1184,1127,1123,1160,1137,1159,1128,1115,1143,1156,1124,0,0,0,0,0,0,0,0,0,0,0,0,0,0,0,0,0,0,0,0,0,0,0,0,0,0,0,0,0,0,0,0,0,0,0,0,0,0,0,0,0,0,0,0,0,0,0,0,0,0,0,0,0,0,0,0,0,0,0,0,0,0,0,0,0,587,566,567,563,587,652,718,818,884,928,946,918,914,915,927,859,883,850,812,799,795,769,765,758,724,719,694,679,673,649,634,622,605,598,594,572,581,576,576,580,577,583,585,583,584,599,576,586,579,579,584,591,593,587,590,587,584,583,598,595,579,585,584,588,585,603,604,606,608,618,702,792,819,926,1007,947,934,920,906,917,902,887,873,837,842,828,811,796,784,766,750,735,720,705,694,674,659,644,629,615,611,613,615,609,603,608,689,617,626,606,613,619,618,637,621,626,615,606,626,638,619,607,618,617,621,621,608,624,640,613,808,823,825,830,873,968,1066,1223,1343,1314,1322,1323,1272,1311,1260,1237,1254,1195,1173,1152,1130,1090,1087,1116,1057,1038,1059,987,942,951,900,905,873,837,838,835,817,839,827,822,821,828,879,881,856,866,855,905,881,855,873,841,847,884,885,852,893,859,850,894,873,902,888,920,873,8,8,8,8,8,8,8,8,8,8,8,8,8,8,8,8,8,8,8,8,8,8,8,8,8,8,8,8,8,8,8,8,8,8,8,8,8,8,0,0,0,0,0,0,0,0,0,0,0,0,0,0,0,0,0,0,0,0,0,0,0,0,0,0,0,1049,1045,1085,1146,1166,1341,1540,1704,1799,1851,1823,1791,1745,1713,1707,1661,1629,1587,1564,1532,1537,1455,1434,1402,1516,1337,1305,1272,1230,1207,1206,1142,1110,1083,1058,1087,1072,1070,1076,1072,1083,1087,1092,1078,1085,1103,1090,1104,1112,1101,1184,1177,1124,1104,1121,1154,1142,1207,1206,1112,1144,1228,1227,1198,1133,727,741,744,746,776,858,942,1085,1208,1181,1191,1195,1145,1187,1138,1117,1136,1079,1060,1040,1021,982,982,1014,957,939,962,893,850,861,812,820,789,755,756,752,734,757,755,752,761,754,784,783,794,778,761,789,787,781,791,772,777,802,783,776,779,774,766,786,774,787,774,789,791,629,589,591,593,602,657,791,824,905,1008,954,940,1008,954,981,880,932,851,836,821,806,791,776,762,787,793,717,702,687,726,658,677,628,613,664,596,635,599,611,628,610,625,623,622,624,631,618,617,619,624,623,617,619,622,623,624,624,623,622,624,617,636,630,636,624,947,964,967,980,1104,1244,1287,1541,1665,1540,1596,1541,1483,1591,1578,1510,1495,1391,1435,1408,1316,1336,1267,1309,1267,1241,1224,1201,1175,1158,1116,1085,1059,1016,1031,1027,961,1037,1049,1015,1015,1023,1054,1073,1044,1038,1046,1046,1089,1075,1114,1075,1093,1090,1116,1061,1072,1111,1133,1137,1118,1129,1165,1180,1099,539,490,491,493,551,600,681,761,745,885,894,879,858,851,836,822,808,793,779,765,681,661,716,702,622,679,665,584,571,558,545,593,579,574,495,547,549,550,521,526,530,550,541,536,529,538,527,530,531,534,531,527,530,540,537,536,532,536,529,540,538,545,541,546,539,1231,1127,1111,1142,1238,1387,1556,1692,1749,1795,1798,1824,1729,1726,1761,1643,1639,1641,1558,1514,1511,1472,1454,1435,1386,1367,1316,1301,1325,1244,1215,1183,1221,1185,1163,1121,1146,1127,1196,1160,1165,1173,1153,1165,1177,1172,1192,1248,1182,1191,1254,1193,1193,1258,1206,1190,1184,1190,1244,1300,1312,1342,1340,1227,1225,830,848,857,861,899,1048,1286,1367,1470,1586,1507,1480,1453,1425,1398,1395,1404,1307,1343,1313,1283,1231,1225,1158,1161,1100,1073,1070,1040,1010,965,949,930,862,845,845,862,869,881,885,884,901,906,904,912,908,883,904,894,883,894,901,899,892,923,912,886,885,896,888,879,892,899,900,885,295,296,297,297,298,312,352,392,431,470,484,477,469,462,454,447,439,432,424,417,409,402,394,386,379,371,364,356,349,341,334,326,319,311,304,299,300,301,293,285,288,293,292,291,291,293,287,295,294,292,289,293,289,286,288,294,295,296,289,286,294,292,291,289,288,585,578,579,581,591,648,716,820,903,926,952,936,901,950,918,876,862,845,830,815,800,784,769,754,723,708,708,693,678,649,648,619,604,602,607,585,573,588,585,582,575,582,580,582,594,591,598,588,586,580,575,583,584,586,601,587,593,603,592,590,609,592,580,583,583,868,825,836,831,894,978,1095,1221,1308,1343,1353,1320,1298,1303,1298,1234,1238,1192,1174,1149,1139,1106,1096,1084,1048,1044,1000,989,966,1009,915,902,872,859,855,834,839,842,843,847,850,863,854,847,861,860,859,851,870,862,860,859,875,883,881,877,868,868,877,861,863,869,870,871,863,426,447,474,430,431,518,525,582,643,691,701,765,753,665,659,642,703,625,614,599,588,577,566,559,551,533,525,559,503,492,478,519,459,494,437,431,433,434,433,435,435,442,455,437,447,442,438,439,440,442,440,449,444,453,541,506,455,452,442,434,439,439,458,444,435,948,952,894,999,985,1149,1200,1335,1472,1506,1544,1504,1402,1380,1406,1360,1356,1316,1390,1346,1260,1324,1235,1238,1163,1101,1115,1110,1069,1075,1058,1026,999,918,936,971,964,938,960,951,962,961,955,983,965,965,967,976,988,980,958,967,980,977,973,994,999,993,985,976,983,963,994,1047,997,430,417,420,424,425,456,513,567,628,675,679,673,662,652,641,638,616,610,599,583,578,567,571,546,530,520,515,505,489,480,470,511,449,437,430,426,425,426,423,424,424,427,452,441,435,455,437,457,440,440,445,448,440,458,446,435,452,433,426,456,440,454,440,447,437,481,441,453,444,446,480,542,604,667,714,722,711,700,688,677,666,728,730,632,620,609,598,586,574,564,552,541,530,518,507,496,484,473,462,501,446,448,449,447,444,447,449,452,461,457,465,461,461,465,456,453,448,449,456,455,450,454,452,449,450,449,457,452,461,455,406,405,408,410,411,442,487,599,615,662,670,660,649,624,606,617,607,596,653,575,565,542,543,533,514,512,498,547,480,467,459,440,440,429,401,402,398,417,400,401,407,425,412,406,414,429,409,411,422,431,472,461,471,435,406,410,418,431,423,406,419,429,418,418,417,422,423,424,426,427,460,520,580,640,688,696,685,674,663,652,641,630,646,608,597,586,575,564,553,542,531,555,509,498,487,476,465,475,443,432,428,429,430,420,425,425,438,494,469,446,486,448,502,468,501,467,441,452,476,454,439,484,463,442,468,461,493,468,455,450,718,702,722,715,751,809,910,1016,1141,1164,1131,1135,1130,1116,1058,1074,1053,1024,1001,997,992,974,904,914,920,877,856,864,821,811,813,787,768,745,701,709,685,725,718,723,713,730,732,732,745,744,729,729,736,743,737,729,731,740,731,731,737,736,728,725,725,737,730,732,714,381,383,432,384,386,414,469,581,579,625,634,624,614,646,596,584,574,563,553,543,586,523,514,503,542,482,472,462,452,476,432,421,411,401,391,387,427,428,387,394,395,407,407,406,401,423,393,418,411,442,406,408,419,426,409,406,415,422,417,407,408,412,400,402,400,697,651,651,634,648,740,809,904,991,1036,1083,1022,1037,985,972,955,938,922,1001,885,872,855,839,822,835,789,797,766,739,799,706,692,697,677,642,638,640,644,642,642,653,654,638,661,648,657,657,666,686,664,666,662,660,670,663,663,652,667,686,667,670,659,659,685,677,1184,1222,1178,1235,1289,1476,1696,1761,1877,1923,1915,1868,1848,1776,1786,1775,1693,1653,1633,1632,1607,1578,1539,1547,1519,1493,1412,1365,1352,1303,1271,1268,1234,1236,1204,1177,1185,1189,1227,1215,1239,1292,1256,1219,1226,1249,1238,1302,1352,1251,1344,1338,1277,1249,1267,1319,1282,1346,1348,1252,1288,1369,1371,1351,1274,224,225,225,226,227,237,268,300,331,363,376,370,364,358,352,346,340,334,328,322,316,310,304,298,295,286,280,274,268,262,256,253,246,238,231,227,228,231,217,212,217,246,223,219,211,216,217,249,273,220,227,224,222,218,233,226,216,218,213,216,215,211,222,222,212,716,712,689,681,709,782,871,972,1076,1103,1105,1101,1070,1112,1035,1017,1072,1083,965,947,930,912,895,876,860,842,866,807,790,772,755,737,720,702,775,685,687,688,700,694,697,697,697,691,698,695,699,693,695,695,701,702,703,703,700,699,701,702,705,713,705,712,700,699,707,290,291,292,293,294,310,351,393,434,474,486,478,470,462,455,447,439,431,424,416,408,400,392,385,380,369,361,354,346,338,330,325,317,307,299,295,295,299,318,276,276,276,294,291,293,278,278,289,326,294,307,309,314,311,291,289,297,325,338,320,289,289,333,287,284,619,608,600,616,636,674,727,848,920,935,969,954,945,916,878,903,882,835,873,841,811,830,802,780,766,751,744,735,723,719,650,666,647,663,613,633,611,636,622,624,619,632,632,631,628,646,619,630,629,634,624,637,637,633,630,633,633,633,644,642,625,634,625,632,629,147,148,148,149,149,153,173,194,214,234,247,243,239,235,231,227,223,219,215,211,208,204,200,196,192,188,184,180,176,172,168,165,161,157,153,150,150,151,139,140,140,140,141,141,141,146,144,143,141,142,143,146,142,144,142,147,142,142,140,143,142,142,140,143,141,831,805,783,766,854,877,1010,1162,1271,1291,1271,1262,1239,1221,1169,1202,1159,1092,1132,1084,1054,1042,1053,1025,1008,985,955,954,910,896,856,873,846,808,794,797,773,787,778,775,792,881,805,782,799,829,808,794,804,801,801,799,808,806,825,812,807,804,813,818,805,816,809,814,818,485,487,488,490,494,536,607,678,789,832,841,789,777,764,751,738,726,806,700,687,675,662,649,636,624,611,598,585,573,560,547,534,522,509,497,493,494,495,488,493,493,513,527,506,501,530,504,529,524,537,616,586,624,557,513,498,523,504,501,504,507,522,508,511,507,0,0,0,0,0,0,0,0,0,0,0,0,0,0,0,0,0,0,0,0,0,0,0,0,0,0,0,0,0,0,0,0,0,0,0,0,0,0,0,0,0,0,0,0,0,0,0,0,0,0,0,0,0,0,0,0,0,0,0,0,0,0,0,0,0,297,298,299,300,301,316,356,396,436,475,487,479,472,464,457,449,442,434,427,419,412,404,396,389,381,374,366,359,351,344,336,329,321,314,306,301,302,303,291,288,292,293,293,300,300,304,302,299,304,295,293,292,292,299,294,293,295,292,292,291,292,294,288,297,293,632,650,652,654,652,736,834,985,996,1038,1040,1000,1050,1034,980,998,962,951,908,891,874,859,822,848,811,814,792,794,759,725,725,694,678,661,649,651,647,662,656,655,653,654,667,671,680,676,662,663,668,670,672,662,664,682,671,667,662,672,660,675,662,667,664,674,669,492,494,495,497,501,543,614,685,796,839,848,796,784,771,758,745,733,799,707,694,682,669,656,643,631,618,605,592,580,567,554,541,529,516,504,500,501,502,509,499,498,501,500,502,565,562,503,533,519,502,499,550,556,570,560,569,557,570,571,542,530,521,507,503,501,1136,1182,1144,1175,1269,1402,1589,1774,1852,1877,1878,1813,1861,1754,1724,1735,1725,1658,1607,1589,1548,1529,1509,1491,1440,1400,1370,1409,1312,1283,1268,1232,1228,1213,1171,1201,1164,1239,1212,1202,1218,1237,1214,1239,1214,1228,1221,1234,1252,1244,1234,1246,1245,1261,1242,1252,1244,1253,1258,1267,1253,1258,1246,1271,1266,576,569,580,581,591,639,710,852,989,945,938,923,922,911,856,876,858,833,828,813,798,790,768,744,747,714,697,709,669,662,707,640,682,604,567,568,564,590,583,579,573,584,587,615,583,591,601,596,585,591,578,588,587,573,587,592,591,590,583,582,595,601,594,600,588,343,319,322,323,324,343,388,467,479,521,532,523,515,507,533,490,481,473,464,456,447,440,431,422,417,405,397,388,380,372,363,358,349,338,353,325,326,329,323,317,318,364,327,328,311,319,323,355,378,330,341,326,330,327,363,328,319,333,316,326,319,311,334,325,314,614,651,634,620,632,694,786,878,964,1009,1056,995,1017,956,947,931,915,899,883,863,855,839,815,802,789,770,754,746,722,705,687,676,660,660,627,623,625,633,624,631,631,645,641,645,636,646,633,637,639,634,647,669,664,656,647,648,648,660,668,654,646,661,639,648,644,862,880,801,794,979,922,1253,1167,1377,1292,1290,1289,1364,1402,1207,1187,1201,1257,1281,1285,1254,1159,1128,1021,1001,970,1040,1092,909,918,958,856,827,864,793,879,800,803,808,814,820,852,824,830,816,824,820,813,825,825,855,871,863,839,831,843,843,844,846,836,839,875,850,861,856,621,641,625,645,641,689,797,893,980,1023,1025,1019,990,976,959,969,927,919,892,902,861,845,852,812,794,778,761,767,730,714,697,700,665,648,633,631,631,633,626,631,631,639,634,641,638,642,638,644,638,636,637,634,641,646,639,641,641,641,644,639,641,656,641,648,642,1030,1009,1035,1063,1215,1378,1530,1737,1774,1787,1777,1843,1721,1679,1658,1690,1635,1628,1614,1511,1509,1478,1405,1375,1340,1310,1300,1263,1259,1203,1159,1120,1081,1042,1045,1027,1054,1059,1078,1069,1060,1068,1139,1150,1110,1127,1111,1176,1139,1137,1159,1126,1115,1165,1159,1107,1158,1124,1130,1198,1153,1199,1180,1226,1160,521,522,533,525,619,577,747,727,802,848,886,861,827,814,800,816,773,760,747,760,804,706,708,679,666,642,629,626,603,620,585,572,550,557,544,528,530,531,531,531,527,531,537,544,536,540,542,582,534,534,536,537,534,532,540,542,537,540,531,538,537,540,540,540,537,250,250,252,253,254,266,301,336,371,406,419,412,405,399,417,385,379,372,365,359,352,346,339,332,329,319,312,305,299,292,285,282,275,265,275,254,255,258,242,241,242,242,250,243,247,251,245,246,247,247,249,249,248,253,255,253,255,254,251,250,251,255,256,255,256,426,447,474,430,431,518,525,582,643,691,701,765,753,665,659,642,703,625,614,599,588,577,566,559,551,533,525,559,503,492,478,519,459,494,437,431,433,434,433,435,435,442,455,437,447,442,438,439,440,442,440,449,444,453,541,506,455,452,442,434,439,439,458,444,435,751,779,755,758,787,894,975,1148,1167,1198,1198,1180,1158,1143,1125,1102,1160,1070,1051,1033,1015,999,978,990,939,924,902,886,868,847,850,810,792,777,782,762,766,790,752,758,766,776,774,778,762,781,761,800,775,799,776,777,798,818,792,784,794,789,789,793,794,801,777,782,777,706,773,696,714,746,847,932,1057,1119,1218,1124,1168,1130,1101,1105,1099,1006,1045,1007,989,972,970,946,991,913,903,885,835,818,831,832,795,766,759,721,719,746,748,758,731,737,743,741,751,752,763,748,753,760,762,744,746,746,752,747,744,752,751,751,741,743,751,739,753,748,268,231,231,232,232,240,262,284,336,341,338,318,342,340,369,317,313,320,319,313,319,291,287,296,278,274,270,265,261,257,252,289,244,240,235,233,233,233,219,224,222,228,227,231,225,234,222,230,230,247,223,232,231,234,230,232,234,241,239,230,231,234,224,226,225,660,662,664,708,683,751,841,1017,1125,1051,1050,1033,1018,1002,986,1042,953,939,923,907,891,875,913,896,828,811,796,779,764,748,732,717,701,685,672,670,671,672,667,654,657,657,703,680,669,668,671,675,702,700,703,698,707,680,729,694,695,714,726,709,695,700,730,741,715,612,614,615,679,627,690,774,918,1076,975,975,1027,945,930,916,901,886,871,857,842,827,812,798,783,828,753,739,724,709,694,680,665,650,635,623,620,622,621,616,609,617,628,619,646,628,653,645,626,657,630,631,632,631,647,626,625,637,640,633,626,631,644,628,644,626,301,302,303,304,304,320,355,389,426,458,467,460,453,449,440,434,427,420,414,407,402,396,388,381,374,368,361,355,348,343,335,328,322,316,308,305,306,306,291,291,289,292,316,311,301,308,303,322,309,297,309,296,299,308,303,297,314,297,295,309,305,319,311,318,305,894,940,899,974,973,1172,1223,1414,1543,1459,1429,1494,1406,1383,1361,1318,1316,1274,1271,1248,1226,1203,1181,1184,1161,1113,1091,1092,1030,1008,1047,986,942,935,909,907,923,924,931,923,934,924,936,951,930,939,946,969,948,942,946,950,945,947,947,946,935,951,934,952,945,945,938,951,963,597,592,601,605,617,685,782,849,935,963,967,941,961,919,901,933,875,852,878,832,818,786,790,765,761,763,748,709,700,684,664,655,647,627,614,605,613,614,608,610,614,610,616,626,625,618,619,615,621,616,618,616,623,633,629,637,623,623,626,625,624,621,623,625,615,955,1016,967,1001,1031,1153,1299,1430,1556,1511,1633,1502,1479,1486,1377,1385,1453,1389,1336,1309,1289,1315,1241,1215,1277,1170,1226,1147,1099,1075,1051,1037,1023,946,971,1039,943,974,1015,1019,994,1004,996,1016,1007,1022,1023,1089,1015,1045,1040,1047,1024,1097,1057,1013,1013,1004,1031,1051,1036,1067,1053,1060,1035,1504,1577,1527,1674,1766,2058,2214,2363,2433,2305,2447,2330,2257,2279,2149,2169,2159,2084,2079,2063,1992,1999,1914,1851,1826,1813,1794,1734,1691,1629,1636,1654,1551,1561,1547,1617,1482,1547,1632,1680,1640,1650,1664,1649,1667,1669,1670,1666,1687,1658,1675,1665,1681,1690,1692,1705,1695,1692,1719,1663,1693,1698,1719,1697,1685,549,551,561,554,562,615,690,764,852,878,879,866,852,839,826,812,799,786,772,759,746,732,719,705,692,679,665,652,639,625,612,608,585,572,560,557,567,560,540,546,544,556,541,552,549,554,553,559,554,550,556,552,559,560,559,557,563,560,563,557,562,567,563,568,570,895,934,901,975,958,1065,1198,1465,1555,1434,1426,1403,1382,1360,1338,1316,1293,1272,1250,1229,1219,1185,1163,1141,1119,1096,1121,1063,1031,1009,987,965,943,923,910,909,911,912,938,911,934,921,914,913,948,930,916,911,928,923,923,924,925,920,914,925,924,928,929,930,920,932,927,921,924,664,617,628,621,635,698,783,869,1083,987,986,971,956,941,926,911,896,881,866,851,836,820,805,790,835,760,745,730,751,700,685,679,705,639,627,624,635,628,625,621,615,625,629,657,624,631,644,639,628,633,622,631,631,617,632,637,634,633,628,629,642,656,651,657,645,361,362,378,364,365,383,422,460,659,582,553,591,571,569,562,564,578,557,553,550,571,463,456,449,441,434,427,420,412,405,398,391,383,376,369,365,366,367,355,361,357,364,368,374,366,378,372,364,377,369,361,363,365,377,363,365,369,368,364,365,364,371,357,370,360,538,531,523,526,531,601,650,720,784,831,830,818,804,793,779,770,792,744,729,717,706,694,679,666,653,654,631,618,604,616,590,567,554,543,546,528,530,531,522,522,515,523,524,549,522,530,538,565,526,529,519,526,531,515,527,530,527,531,522,524,533,532,525,531,524,546,547,535,553,575,590,697,755,801,864,866,871,837,790,799,822,794,777,743,726,748,705,738,700,714,674,669,647,634,621,627,594,599,568,546,556,555,556,549,546,540,550,554,579,549,556,567,563,552,556,545,554,554,540,553,557,556,556,549,548,561,567,561,567,555,614,602,618,620,617,677,786,863,942,958,966,966,929,914,907,906,891,848,862,834,832,817,784,775,772,740,748,727,713,698,688,668,638,638,611,623,610,626,616,614,615,615,614,631,651,639,618,631,640,632,625,623,624,645,638,630,628,624,624,626,625,626,626,661,628,447,449,478,448,462,512,560,575,662,673,726,715,692,681,670,626,644,650,639,617,617,568,595,574,573,525,515,528,520,507,474,488,486,469,471,462,463,456,454,449,450,455,455,449,461,454,453,455,453,452,461,460,455,458,480,463,454,454,455,458,456,463,458,460,458,0,0,0,0,0,0,0,0,0,0,0,0,0,0,0,0,0,0,0,0,0,0,0,0,0,0,0,0,0,0,0,0,0,0,0,0,0,0,0,0,0,0,0,0,0,0,0,0,0,0,0,0,0,0,0,0,0,0,0,0,0,0,0,0,0,857,902,862,933,911,1048,1142,1328,1481,1375,1369,1413,1326,1305,1284,1263,1242,1221,1200,1178,1157,1136,1115,1120,1098,1051,1030,1033,988,967,992,947,903,883,871,869,871,896,916,864,876,888,876,911,886,914,901,888,917,889,889,893,894,907,893,886,898,901,894,886,892,904,884,904,891,621,609,625,627,624,684,793,870,949,965,973,973,936,921,914,913,898,855,869,841,839,824,791,782,779,747,755,734,720,705,695,675,645,645,618,630,617,633,619,613,624,638,633,632,626,622,634,644,638,633,661,662,679,661,659,642,624,633,628,633,623,636,628,647,622,915,954,930,940,984,1110,1241,1379,1465,1471,1503,1440,1405,1397,1376,1355,1333,1354,1327,1269,1228,1214,1205,1180,1161,1140,1114,1092,1114,1044,1020,1017,959,952,939,960,961,970,948,936,946,951,946,965,948,954,957,966,983,974,970,976,975,988,971,977,971,981,982,993,983,978,981,999,998,776,821,780,847,813,961,1015,1190,1347,1243,1238,1285,1200,1181,1162,1143,1124,1105,1086,1067,1048,1029,1010,1017,998,953,934,939,896,877,904,861,820,801,789,787,789,788,806,786,792,814,799,797,797,807,801,801,810,806,874,875,894,833,812,804,799,817,804,793,797,817,802,818,801,669,643,645,651,668,723,808,914,994,1033,1031,945,1000,984,969,953,920,921,906,890,860,845,843,815,811,796,780,791,748,689,742,710,685,693,657,655,665,658,671,663,662,664,672,666,672,667,672,670,668,666,682,675,678,671,671,677,668,675,667,675,676,676,669,667,664,941,980,952,984,1011,1131,1272,1403,1491,1447,1497,1477,1454,1431,1350,1331,1400,1338,1314,1296,1265,1295,1221,1192,1175,1152,1126,1105,1082,1059,1035,1019,987,929,956,992,926,962,959,965,957,965,962,983,962,978,977,989,969,966,967,973,989,965,981,978,974,982,962,970,982,984,967,981,971,974,965,968,981,1126,1185,1319,1492,1666,1639,1646,1631,1502,1585,1558,1493,1466,1409,1382,1386,1359,1268,1305,1251,1209,1225,1198,1146,1120,1093,1091,1041,1038,1014,978,1000,1004,1007,1006,1008,998,1067,1036,1017,1012,1032,1028,1039,1063,1032,1038,1020,1008,1011,1032,1031,1013,1015,1003,1013,1013,1022,1038,1034,1001,753,747,750,760,777,898,984,1091,1142,1210,1206,1142,1169,1150,1131,1096,1094,1046,1057,1023,1047,1001,983,938,946,927,899,890,871,853,834,816,796,779,784,743,766,768,758,746,754,754,760,770,754,764,759,768,785,785,774,783,787,802,787,797,771,790,790,792,805,794,800,823,810,890,892,888,893,953,1134,1326,1427,1548,1522,1613,1517,1457,1421,1430,1369,1354,1385,1362,1333,1267,1287,1203,1179,1184,1167,1121,1101,1044,1005,1005,986,964,912,909,925,909,926,927,929,927,935,938,931,932,946,922,935,928,928,934,951,944,937,944,938,935,932,950,953,929,934,934,937,934,698,693,702,724,728,799,899,1081,1113,1117,1146,1093,1086,1088,1047,1065,1014,991,980,959,950,915,934,915,903,865,848,829,804,812,774,757,732,723,776,708,710,737,732,716,720,731,728,726,789,781,728,761,748,728,732,792,801,807,812,801,776,793,789,762,746,748,735,736,723,585,578,578,581,591,648,726,805,879,920,921,941,893,879,865,851,850,823,809,795,781,767,753,750,725,711,697,693,669,679,641,636,613,599,587,584,594,587,570,573,590,603,587,596,576,592,576,606,585,579,586,588,600,613,598,592,599,586,596,599,594,601,579,587,583,751,779,755,758,787,894,975,1148,1167,1198,1198,1180,1158,1143,1125,1102,1160,1070,1051,1033,1015,999,978,990,939,924,902,886,868,847,850,810,792,777,782,762,766,790,752,758,766,776,774,778,762,781,761,800,775,799,776,777,798,818,792,784,794,789,789,793,794,801,777,782,777,489,535,494,494,497,539,610,680,751,799,806,793,781,768,758,742,730,717,705,694,678,666,653,640,627,615,602,589,576,564,551,539,525,513,503,498,497,499,478,483,491,514,486,495,484,496,484,488,488,487,481,488,492,498,493,493,490,490,495,492,488,496,481,492,486,1443,1481,1483,1583,1769,2019,2070,2291,2306,2369,2311,2288,2232,2152,2251,2164,2129,2073,2021,2057,1949,1859,1908,1807,1789,1768,1711,1705,1670,1615,1581,1573,1529,1520,1506,1457,1507,1551,1581,1589,1583,1610,1582,1581,1583,1608,1605,1697,1582,1589,1611,1593,1640,1597,1605,1608,1623,1605,1593,1602,1613,1616,1608,1606,1598,914,945,917,925,997,1099,1227,1341,1499,1489,1510,1454,1431,1408,1399,1390,1359,1309,1339,1268,1245,1204,1207,1200,1179,1180,1168,1064,1059,1036,1030,989,982,942,976,928,947,946,936,929,951,962,937,957,939,946,943,958,969,958,954,960,962,971,963,966,952,963,963,966,969,963,955,983,981,545,547,548,550,557,606,685,764,842,888,894,879,865,851,837,823,809,795,781,823,808,739,725,711,697,683,668,654,640,626,612,598,584,570,557,553,555,556,572,541,546,548,542,555,550,562,556,580,560,547,550,550,552,552,556,555,553,555,550,550,550,554,552,560,557,368,371,372,373,374,385,451,503,571,611,620,612,603,595,586,578,569,561,552,544,535,527,518,510,476,467,457,448,438,426,419,409,434,390,380,375,376,377,374,381,366,374,383,384,388,400,379,377,384,392,385,376,378,384,380,378,381,381,373,377,371,380,379,377,366,814,837,815,818,866,996,1091,1295,1305,1312,1333,1349,1286,1265,1309,1239,1222,1182,1155,1140,1117,1107,1112,1062,1071,1049,972,971,950,929,908,887,861,877,861,861,832,829,837,835,845,874,837,868,841,850,843,841,866,844,836,852,846,868,861,856,848,856,860,858,855,862,841,878,853,84,85,85,85,85,87,98,109,121,132,142,139,137,135,133,130,128,126,124,121,119,117,115,112,110,108,106,103,101,99,97,94,92,90,88,86,86,86,66,64,66,73,66,66,63,65,65,82,103,67,71,69,71,67,78,70,64,69,64,66,65,64,67,67,64,623,625,627,629,643,708,802,896,982,1025,1013,1012,996,973,963,941,930,908,897,936,918,835,831,815,798,782,761,749,728,716,695,683,667,650,637,633,631,636,626,621,634,648,648,656,623,648,629,629,639,645,636,644,656,679,661,668,636,651,649,660,671,662,668,684,661,327,441,329,330,331,351,398,445,491,535,546,538,529,520,511,503,494,485,476,468,459,450,441,433,424,415,406,398,389,380,371,363,457,345,336,332,333,334,345,337,328,331,350,361,343,354,351,364,354,374,378,376,361,372,364,351,365,361,374,406,373,388,387,397,379,822,849,845,831,857,1003,1078,1252,1324,1327,1364,1304,1309,1293,1240,1255,1239,1177,1156,1134,1113,1132,1098,1071,1028,1023,996,1015,943,935,914,880,872,849,840,826,823,841,828,846,843,837,829,835,839,843,840,868,856,856,873,850,851,847,871,859,852,870,945,892,881,855,889,876,888,415,416,417,419,420,453,513,574,668,682,691,680,669,658,678,636,625,631,602,591,580,569,558,547,562,525,514,503,492,481,470,459,448,437,426,439,422,423,414,404,412,414,404,415,417,419,417,415,420,409,411,408,408,414,412,414,408,408,408,406,410,410,410,423,417,395,385,397,388,389,415,483,523,576,623,650,623,613,620,593,583,573,563,553,543,534,524,514,504,494,484,474,464,466,444,434,436,414,415,394,390,391,392,387,396,383,387,399,395,409,415,391,396,397,406,397,391,394,399,397,394,399,394,393,395,391,397,395,403,388,432,434,432,444,438,474,537,596,663,711,720,708,697,685,669,662,651,639,628,616,615,593,581,570,558,547,535,524,512,501,489,478,478,455,451,436,440,449,437,439,441,455,447,445,445,464,444,454,453,465,491,491,499,486,448,444,454,460,453,452,454,460,449,449,448,1106,1103,1136,1116,1240,1382,1502,1620,1774,1760,1806,1749,1686,1662,1706,1666,1581,1552,1547,1531,1506,1458,1435,1411,1410,1430,1339,1279,1283,1223,1241,1168,1190,1105,1168,1090,1153,1141,1191,1150,1154,1175,1149,1166,1145,1176,1180,1174,1157,1160,1175,1162,1196,1172,1175,1169,1184,1174,1160,1168,1180,1170,1170,1168,1173,505,507,508,510,515,560,635,741,783,883,836,823,810,796,783,805,756,743,741,716,703,690,676,663,650,636,651,610,596,583,570,556,543,530,517,513,514,516,522,519,509,565,546,519,524,540,525,548,575,541,549,527,519,523,538,537,521,522,511,518,515,514,534,523,500,1273,1320,1322,1361,1500,1684,1848,1990,2064,2064,2098,2047,1993,1921,1965,1903,1856,1838,1789,1800,1726,1671,1714,1631,1615,1622,1526,1493,1454,1454,1430,1391,1381,1341,1315,1296,1296,1354,1372,1373,1373,1380,1389,1380,1412,1404,1399,1399,1419,1411,1428,1433,1445,1461,1398,1414,1412,1421,1417,1409,1424,1402,1405,1452,1399,828,819,796,816,844,982,1120,1243,1308,1314,1305,1343,1263,1252,1280,1253,1216,1192,1154,1158,1127,1100,1105,1043,1009,1048,968,965,931,953,923,892,859,867,850,847,802,834,850,854,848,861,861,861,860,876,851,856,858,854,852,864,864,864,860,861,863,858,873,873,854,864,853,862,860,523,525,526,528,534,583,661,739,815,915,867,853,839,826,812,798,784,770,756,742,728,714,701,687,673,659,645,631,617,603,590,576,562,611,535,531,532,534,533,542,542,554,554,553,555,560,538,557,545,540,550,556,554,556,579,559,544,539,555,550,538,548,545,552,540,791,811,793,796,853,923,1044,1141,1266,1313,1305,1285,1285,1227,1226,1186,1167,1145,1147,1105,1084,1046,1044,1027,1029,1028,965,954,921,901,898,860,859,820,835,803,822,821,815,821,805,809,832,844,830,854,843,874,846,876,854,868,847,882,850,838,864,848,858,891,869,896,874,896,863,0,0,0,0,0,0,0,0,0,0,0,0,0,0,0,0,0,0,0,0,0,0,0,0,0,0,0,0,0,0,0,0,0,0,0,0,0,0,0,0,0,0,0,0,0,0,0,0,0,0,0,0,0,0,0,0,0,0,0,0,0,0,0,0,0,821,826,803,823,851,975,1113,1236,1315,1321,1312,1336,1270,1259,1273,1246,1223,1185,1161,1151,1134,1107,1112,1050,1016,1041,975,972,938,960,916,899,866,874,857,840,809,841,832,843,846,866,929,907,869,916,871,958,898,929,902,868,899,945,900,875,931,893,877,913,909,948,901,894,884,1612,1641,1786,1892,2105,2272,2439,2584,2789,2678,2675,2639,2546,2490,2483,2385,2347,2302,2280,2238,2219,2127,2103,2053,1983,1992,1924,1903,1821,1825,1777,1715,1662,1694,1672,1678,1658,1669,1817,1811,1809,1827,1930,1911,1865,1901,1862,1965,1918,1926,1911,1870,1874,1926,1922,1881,1948,1922,1902,1953,1926,1981,1957,1985,1943,215,215,216,217,217,225,254,284,313,342,356,351,345,340,334,328,323,317,312,306,300,295,289,284,278,272,267,261,256,250,244,239,233,228,222,218,219,219,204,197,200,202,197,201,205,203,200,201,204,202,201,198,201,204,203,204,198,198,198,198,203,200,202,210,205,266,266,267,268,269,282,319,357,395,432,445,438,431,424,417,410,403,395,388,381,374,367,360,353,345,338,331,324,317,310,303,296,288,281,274,270,270,271,266,259,259,261,265,264,265,262,269,266,266,264,272,268,270,264,262,271,265,271,262,263,268,268,263,263,257,265,266,267,268,268,281,318,355,392,428,441,434,427,421,414,407,400,393,386,379,372,365,358,351,344,337,330,323,316,309,302,295,288,281,274,269,270,271,257,259,258,264,317,294,279,291,276,316,286,286,292,269,271,288,278,265,304,271,265,295,286,312,292,282,278,1057,1061,1070,1087,1171,1302,1496,1625,1704,1734,1726,1698,1760,1643,1615,1598,1560,1542,1505,1467,1433,1422,1387,1358,1339,1330,1283,1226,1228,1208,1173,1145,1118,1083,1083,1075,1082,1106,1099,1107,1100,1114,1133,1100,1113,1145,1122,1114,1141,1130,1221,1207,1229,1173,1283,1230,1162,1143,1121,1122,1135,1108,1123,1144,1107,1148,1152,1156,1232,1300,1534,1628,1796,1884,1912,1854,1823,1856,1748,1786,1750,1678,1712,1630,1642,1593,1530,1580,1473,1439,1421,1365,1350,1331,1291,1304,1241,1212,1189,1184,1219,1194,1172,1211,1200,1214,1234,1213,1239,1213,1227,1221,1233,1252,1244,1235,1249,1244,1260,1242,1251,1245,1252,1259,1272,1254,1260,1248,1274,1267,1401,1448,1446,1549,1710,2042,2220,2497,2400,2479,2384,2342,2311,2318,2277,2245,2204,2142,2036,1993,1968,1974,1939,1823,1801,1767,1724,1724,1620,1611,1557,1533,1439,1473,1476,1497,1429,1450,1535,1542,1543,1575,1535,1536,1541,1568,1563,1650,1539,1549,1572,1563,1608,1560,1572,1571,1572,1573,1552,1555,1571,1581,1567,1571,1556,822,823,870,831,863,965,1071,1190,1292,1308,1298,1323,1263,1239,1261,1207,1183,1185,1152,1115,1119,1079,1071,1075,1030,1034,991,970,945,929,889,873,852,849,836,815,831,819,855,827,823,850,822,832,821,835,836,876,847,830,833,833,847,833,845,833,832,833,835,833,844,840,833,863,833,365,366,368,369,370,395,447,500,552,598,609,599,589,580,570,560,550,541,531,521,512,502,492,482,473,463,453,444,434,424,414,405,395,385,376,371,372,373,372,360,356,356,371,374,369,371,371,376,384,381,385,388,385,386,378,377,389,389,396,406,383,388,402,394,384,489,535,494,494,497,539,610,680,751,799,806,793,781,768,758,742,730,717,705,694,678,666,653,640,627,615,602,589,576,564,551,539,525,513,503,498,497,499,478,483,491,514,486,495,484,496,484,488,488,487,481,488,492,498,493,493,490,490,495,492,488,496,481,492,486,868,825,836,831,894,978,1095,1221,1308,1343,1353,1320,1298,1303,1298,1234,1238,1192,1174,1149,1139,1106,1096,1084,1048,1044,1000,989,966,1009,915,902,872,859,855,834,839,842,835,832,838,846,852,858,863,844,848,861,850,854,870,854,855,851,863,859,860,867,863,859,877,863,863,870,861,1205,1222,1234,1277,1406,1612,1861,1944,1975,2018,2009,1970,1938,1885,1951,1803,1814,1807,1720,1729,1744,1595,1570,1590,1522,1523,1504,1396,1369,1405,1309,1350,1303,1234,1250,1217,1228,1274,1330,1333,1322,1348,1378,1372,1355,1355,1364,1397,1360,1396,1405,1384,1343,1368,1360,1378,1382,1351,1397,1447,1410,1410,1417,1375,1372,742,743,746,746,774,879,997,1073,1157,1301,1204,1185,1166,1142,1123,1109,1084,1072,1053,1034,1014,996,977,953,940,918,902,883,861,844,826,807,785,816,756,753,752,757,751,751,754,754,755,751,758,763,764,752,753,752,756,752,761,755,783,769,756,758,762,759,758,759,754,760,754,360,361,362,363,364,385,435,484,534,580,592,583,573,564,555,546,536,527,518,509,499,490,481,472,462,453,444,435,426,416,407,398,389,379,370,365,366,367,360,358,357,357,361,357,361,357,361,358,357,360,361,362,362,363,365,365,363,369,364,361,369,362,363,365,363,563,577,579,581,592,648,705,818,935,912,927,935,889,937,892,875,898,845,830,815,800,765,769,779,753,739,751,677,662,678,633,645,619,589,590,586,568,589,582,582,578,592,588,582,586,603,593,591,601,603,679,677,685,634,596,587,594,593,584,594,592,588,588,591,590,443,444,446,447,449,510,577,611,674,758,731,719,708,696,684,673,661,650,638,627,615,604,592,581,569,558,546,534,523,511,500,488,477,465,454,450,451,452,446,444,448,453,454,455,458,450,452,458,460,454,455,460,457,453,469,461,455,452,453,462,452,456,455,461,450,879,860,863,869,934,1039,1146,1343,1405,1398,1382,1382,1351,1389,1317,1313,1328,1267,1244,1222,1199,1139,1153,1181,1104,1100,1119,1047,1000,992,955,959,925,889,890,887,855,878,892,877,873,882,896,922,884,899,897,938,892,889,888,892,892,888,900,899,891,899,885,899,899,898,891,902,890,321,322,323,324,325,344,389,435,481,524,536,528,519,511,502,494,485,476,468,459,451,442,433,425,416,408,399,391,382,373,365,356,348,339,331,326,327,328,316,307,318,332,325,322,315,318,323,332,327,324,330,365,381,364,361,330,315,335,322,319,311,331,324,342,317,1106,1027,1030,1014,1123,1284,1391,1603,1692,1641,1625,1593,1579,1615,1635,1533,1506,1432,1456,1430,1399,1376,1346,1386,1302,1250,1238,1226,1198,1187,1132,1112,1066,1031,1064,1044,1030,1050,1072,1040,1049,1047,1089,1090,1063,1061,1069,1080,1123,1110,1135,1119,1135,1110,1126,1101,1104,1143,1166,1147,1123,1129,1161,1189,1130,1511,1514,1552,1646,1866,2146,2317,2492,2591,2451,2408,2439,2296,2375,2341,2294,2266,2170,2168,2177,2086,2025,1964,2022,1935,1875,1844,1828,1775,1726,1668,1615,1572,1554,1596,1554,1517,1598,1669,1681,1685,1685,1708,1675,1695,1731,1698,1706,1742,1688,1709,1704,1720,1742,1877,1831,1733,1720,1710,1711,1695,1686,1709,1769,1687,668,624,635,628,662,717,801,896,982,1024,1040,1011,995,1004,1004,945,954,913,896,880,874,847,841,834,797,801,764,758,741,789,699,691,666,657,653,632,634,635,634,638,636,652,808,718,677,722,675,805,708,729,722,654,671,710,683,659,748,684,660,723,699,786,724,715,685,634,636,638,636,653,708,810,904,990,1024,1039,1023,1007,990,974,957,941,924,908,891,867,859,842,819,809,787,776,754,743,727,706,694,678,657,647,643,645,647,632,647,642,657,666,667,651,678,644,683,662,684,657,660,678,695,674,667,675,674,674,674,669,685,659,667,656,735,691,702,695,737,802,898,1004,1092,1132,1147,1116,1098,1106,1104,1043,1050,1007,989,971,964,934,927,918,880,882,844,836,816,863,771,762,735,725,720,699,701,703,702,700,701,700,706,701,706,710,702,706,709,713,715,716,717,722,724,724,720,722,720,718,723,726,723,728,728,875,877,880,885,926,1051,1264,1309,1440,1467,1474,1451,1384,1434,1342,1321,1300,1309,1258,1202,1276,1180,1138,1194,1095,1074,1052,1081,1090,1064,967,946,924,904,890,887,889,892,921,909,905,914,906,914,913,919,927,984,920,947,959,954,935,970,967,927,921,929,951,966,951,968,966,966,950,635,613,624,617,649,702,784,876,961,1003,1021,992,976,986,996,928,937,896,880,863,858,831,826,820,783,787,751,745,728,712,720,679,654,646,641,621,622,624,610,616,614,618,613,621,617,628,625,626,626,622,630,629,630,633,632,630,638,633,631,628,636,640,641,641,641,1058,1047,1083,1089,1232,1357,1591,1678,1761,1783,1801,1782,1736,1671,1671,1575,1592,1533,1500,1464,1484,1390,1387,1376,1325,1302,1288,1227,1208,1261,1140,1144,1100,1072,1056,1090,1079,1082,1095,1095,1085,1112,1104,1110,1111,1126,1110,1104,1104,1120,1111,1104,1101,1104,1111,1114,1112,1114,1100,1105,1106,1123,1122,1122,1103,8,8,8,8,8,8,8,8,8,8,8,8,8,8,8,8,8,8,8,8,8,8,8,8,8,8,8,8,8,8,8,8,8,8,8,8,8,8,0,0,0,0,0,0,0,0,0,0,0,0,0,0,0,0,0,0,0,0,0,0,0,0,0,0,0,587,566,567,563,587,652,718,818,884,928,946,918,914,915,927,859,883,850,812,799,795,769,765,758,724,719,694,679,673,649,634,622,605,598,594,572,581,576,572,578,582,602,592,582,585,596,582,594,599,607,648,638,661,638,590,586,598,592,594,582,592,600,588,595,590,603,604,606,608,618,702,792,819,926,1007,947,934,920,906,917,902,887,873,837,842,828,811,796,784,766,750,735,720,705,694,674,659,644,629,615,611,613,615,610,610,610,617,632,611,622,615,616,613,616,618,615,625,623,633,721,686,631,629,618,613,616,618,639,621,614,808,823,825,830,873,968,1066,1223,1343,1314,1322,1323,1272,1311,1260,1237,1254,1195,1173,1152,1130,1090,1087,1116,1057,1038,1059,987,942,951,900,905,873,837,838,835,817,839,825,841,837,856,912,885,870,908,862,911,890,906,904,867,879,916,931,901,916,888,866,898,886,901,904,896,871,0,0,0,0,0,0,0,0,0,0,0,0,0,0,0,0,0,0,0,0,0,0,0,0,0,0,0,0,0,0,0,0,0,0,0,0,0,0,0,0,0,0,0,0,0,0,0,0,0,0,0,0,0,0,0,0,0,0,0,0,0,0,0,0,0,1049,1045,1085,1146,1166,1341,1540,1704,1799,1851,1823,1791,1745,1713,1707,1661,1629,1587,1564,1532,1537,1455,1434,1402,1516,1337,1305,1272,1230,1207,1206,1142,1110,1083,1058,1087,1072,1070,1112,1078,1087,1107,1091,1107,1097,1108,1108,1103,1127,1103,1107,1106,1093,1116,1112,1107,1106,1105,1101,1099,1112,1110,1116,1142,1114,727,741,744,746,776,858,942,1085,1208,1181,1191,1195,1145,1187,1138,1117,1136,1079,1060,1040,1021,982,982,1014,957,939,962,893,850,861,812,820,789,755,756,752,734,757,745,751,746,756,823,801,792,810,768,841,804,828,792,768,775,802,782,775,818,791,772,799,787,830,799,812,781,629,589,591,593,602,657,791,824,905,1008,954,940,1008,954,981,880,932,851,836,821,806,791,776,762,787,793,717,702,687,726,658,677,628,613,664,596,635,599,611,615,619,616,622,633,629,622,625,622,628,623,624,623,631,640,636,644,631,631,634,631,631,629,633,637,626,947,964,967,980,1104,1244,1287,1541,1665,1540,1596,1541,1483,1591,1578,1510,1495,1391,1435,1408,1316,1336,1267,1309,1267,1241,1224,1201,1175,1158,1116,1085,1059,1016,1031,1027,961,1037,1049,1015,1015,1023,1054,1073,1044,1038,1046,1046,1089,1075,1114,1075,1093,1090,1116,1061,1072,1111,1133,1137,1118,1129,1165,1180,1099,539,490,491,493,551,600,681,761,745,885,894,879,858,851,836,822,808,793,779,765,681,661,716,702,622,679,665,584,571,558,545,593,579,574,495,547,549,550,533,532,531,536,546,531,541,534,536,533,532,536,539,544,536,546,586,578,542,546,538,534,539,538,554,541,538,1231,1127,1111,1142,1238,1387,1556,1692,1749,1795,1798,1824,1729,1726,1761,1643,1639,1641,1558,1514,1511,1472,1454,1435,1386,1367,1316,1301,1325,1244,1215,1183,1221,1185,1163,1121,1146,1127,1150,1193,1154,1153,1176,1158,1173,1179,1177,1175,1195,1174,1187,1181,1184,1190,1195,1198,1199,1199,1225,1177,1200,1207,1228,1200,1198,830,848,857,861,899,1048,1286,1367,1470,1586,1507,1480,1453,1425,1398,1395,1404,1307,1343,1313,1283,1231,1225,1158,1161,1100,1073,1070,1040,1010,965,949,930,862,845,845,862,869,875,890,891,896,901,917,901,908,890,898,894,889,893,905,909,916,909,921,901,909,920,902,894,889,904,909,889,295,296,297,297,298,312,352,392,431,470,484,477,469,462,454,447,439,432,424,417,409,402,394,386,379,371,364,356,349,341,334,326,319,311,304,299,300,301,284,281,296,383,303,280,297,326,307,291,300,296,296,292,301,297,296,288,293,289,301,308,291,301,292,297,302,585,578,579,581,591,648,716,820,903,926,952,936,901,950,918,876,862,845,830,815,800,784,769,754,723,708,708,693,678,649,648,619,604,602,607,585,573,588,582,575,578,655,588,598,577,586,592,590,609,593,598,587,579,599,609,592,579,591,590,593,593,582,596,614,585,868,825,836,831,894,978,1095,1221,1308,1343,1353,1320,1298,1303,1298,1234,1238,1192,1174,1149,1139,1106,1096,1084,1048,1044,1000,989,966,1009,915,902,872,859,855,834,839,842,835,832,838,846,852,858,863,844,848,861,850,854,870,854,855,851,863,859,860,867,863,859,877,863,863,870,861,1407,1410,1436,1541,1652,1926,2236,2392,2445,2468,2430,2405,2394,2304,2266,2228,2212,2192,2089,2077,2001,1957,1915,1868,1853,1844,1735,1693,1647,1603,1558,1514,1548,1491,1454,1432,1463,1445,1566,1558,1554,1586,1574,1570,1642,1648,1571,1620,1609,1589,1583,1623,1625,1646,1640,1643,1628,1641,1639,1616,1594,1600,1577,1575,1558,721,723,733,727,753,833,944,1055,1144,1184,1185,1178,1267,1128,1109,1102,1071,1052,1033,1014,1004,976,957,938,919,900,881,870,844,825,841,787,776,749,735,732,734,736,739,747,740,755,753,766,748,767,748,751,747,745,745,770,758,755,759,762,761,761,779,768,756,767,747,759,753,938,940,918,932,1103,1109,1226,1352,1442,1501,1470,1452,1424,1424,1408,1353,1331,1312,1288,1266,1243,1349,1198,1209,1153,1130,1107,1085,1111,1039,1017,994,971,955,936,933,935,938,947,957,950,955,968,971,973,980,959,980,974,977,967,966,962,971,966,968,966,963,963,969,958,970,962,961,947,1115,1177,1120,1149,1306,1509,1667,1997,2035,1935,1919,1984,1852,1974,1798,1752,1718,1732,1651,1739,1629,1674,1517,1483,1450,1533,1383,1359,1360,1320,1249,1221,1183,1151,1133,1135,1142,1150,1202,1193,1192,1198,1183,1195,1189,1188,1208,1267,1193,1211,1212,1213,1212,1223,1228,1211,1205,1205,1205,1211,1204,1207,1218,1213,1215,1368,1352,1347,1393,1535,1843,2077,2185,2229,2281,2256,2244,2226,2198,2113,2077,2002,2011,2021,1903,1827,1906,1806,1766,1739,1722,1632,1631,1613,1520,1477,1468,1414,1372,1355,1397,1365,1353,1459,1448,1447,1451,1483,1531,1471,1501,1499,1527,1522,1534,1540,1529,1497,1543,1498,1491,1504,1501,1520,1591,1568,1602,1572,1543,1545,955,957,959,1003,1051,1208,1397,1558,1650,1678,1667,1651,1608,1579,1562,1590,1491,1461,1432,1402,1446,1344,1314,1285,1255,1237,1197,1177,1184,1141,1079,1055,1021,1074,971,972,1010,986,997,1007,1014,1032,1044,1026,1013,1035,1012,1019,1013,1013,1013,1031,1032,1051,1180,1130,1040,1038,1037,1029,1024,1019,1043,1039,1022,1625,1658,1719,1787,2087,2317,2496,2659,2693,2715,2682,2684,2600,2622,2531,2469,2407,2490,2437,2268,2203,2255,2166,2103,2085,2014,1988,1955,1930,1831,1787,1777,1714,1694,1664,1695,1712,1657,1868,1877,1847,1866,1865,1914,1873,1904,1922,1994,1900,1935,1908,1924,1907,1954,1931,1901,1915,1897,1908,1942,1924,1950,1930,1945,1908,1076,1096,1081,1119,1211,1436,1611,1812,1857,1931,1866,1874,1801,1806,1748,1717,1669,1652,1603,1586,1553,1526,1472,1485,1418,1395,1340,1317,1302,1279,1208,1207,1143,1111,1094,1095,1103,1110,1162,1141,1145,1169,1144,1172,1156,1192,1176,1200,1189,1161,1184,1189,1210,1191,1166,1152,1174,1181,1174,1157,1174,1183,1157,1181,1162,1723,1706,1788,1959,2098,2397,2649,2841,2862,2861,2890,2777,2793,2662,2674,2578,2560,2568,2459,2454,2357,2304,2256,2204,2247,2212,2051,2035,1959,1908,1845,1800,1871,1800,1755,1729,1737,1748,2008,2015,1969,1979,2014,2001,2008,2021,2016,2026,2075,2025,2037,2048,2049,2054,2034,2064,2075,2075,2109,2062,2060,2065,2118,2054,2061,1323,1314,1338,1442,1688,2042,2434,2519,2600,2606,2579,2565,2474,2437,2381,2342,2264,2204,2159,2106,2141,1997,1942,1889,1837,1796,1720,1686,1611,1556,1489,1439,1398,1367,1350,1357,1371,1411,1453,1447,1458,1473,1474,1493,1472,1495,1476,1501,1518,1518,1566,1575,1596,1529,1481,1495,1528,1507,1493,1483,1496,1481,1505,1557,1509,1358,1354,1381,1438,1617,1795,1996,2226,2218,2244,2198,2282,2120,2087,2150,2019,2012,1985,1987,1977,1888,1848,1797,1811,1727,1670,1659,1597,1572,1533,1590,1473,1423,1388,1371,1373,1397,1390,1470,1464,1465,1459,1495,1526,1478,1497,1499,1535,1511,1524,1506,1518,1510,1531,1503,1504,1513,1512,1499,1541,1525,1534,1518,1524,1541,1391,1453,1413,1477,1688,1947,2122,2438,2467,2362,2340,2387,2259,2363,2191,2139,2090,2097,2011,2090,1981,2012,1851,1817,1776,1845,1696,1665,1658,1612,1535,1496,1503,1425,1412,1410,1419,1427,1502,1510,1518,1524,1536,1560,1541,1554,1521,1555,1540,1522,1531,1533,1542,1559,1549,1559,1544,1539,1549,1540,1533,1529,1543,1570,1528,1420,1421,1456,1523,1715,1987,2105,2332,2295,2347,2272,2279,2217,2183,2219,2087,2103,2051,2075,2041,1972,1931,1878,1870,1862,1726,1734,1670,1644,1603,1641,1522,1473,1456,1439,1464,1447,1458,1534,1521,1527,1531,1749,1608,1574,1587,1572,1654,1677,1675,1618,1574,1585,1620,1746,1610,1641,1594,1618,1640,1619,1659,1658,1672,1640,865,868,870,880,914,1025,1163,1266,1370,1411,1384,1360,1343,1310,1301,1280,1281,1230,1221,1188,1175,1160,1148,1113,1096,1077,1040,1026,998,1002,956,968,914,894,891,902,897,882,907,894,896,900,896,912,961,962,900,931,913,902,904,947,953,966,960,936,954,963,973,954,930,927,908,905,906,1290,1368,1307,1369,1503,1666,1868,2021,2099,2124,2075,2063,2004,1974,2033,1907,1905,1880,1885,1809,1854,1813,1702,1716,1636,1578,1573,1509,1570,1482,1510,1393,1345,1404,1353,1333,1316,1354,1428,1437,1413,1426,1418,1447,1426,1441,1451,1512,1433,1468,1458,1473,1447,1512,1480,1436,1430,1426,1447,1476,1457,1483,1474,1473,1445,836,838,841,845,887,980,1105,1236,1310,1358,1388,1326,1305,1284,1276,1242,1221,1201,1179,1158,1138,1116,1095,1074,1053,1032,1047,981,969,947,932,897,884,865,894,848,850,852,850,860,859,881,909,914,874,915,881,928,897,914,889,874,890,904,890,878,911,890,883,898,894,921,889,892,883,992,980,982,1011,1088,1246,1467,1605,1696,1745,1719,1716,1672,1611,1623,1580,1549,1494,1494,1457,1408,1377,1353,1309,1303,1283,1242,1221,1161,1140,1119,1099,1049,1012,1008,1009,1022,1012,1034,1034,1077,1345,1087,1020,1068,1164,1103,1040,1137,1113,1061,1069,1146,1124,1120,1027,1062,1054,1103,1103,1045,1083,1050,1053,1069,1218,1300,1229,1281,1369,1552,1750,1867,1983,1975,1932,1919,1912,1880,1896,1774,1772,1780,1757,1715,1725,1690,1583,1609,1521,1501,1472,1438,1492,1377,1417,1295,1273,1313,1244,1234,1217,1264,1336,1320,1332,1335,1333,1326,1352,1348,1313,1318,1333,1326,1321,1335,1333,1328,1320,1336,1330,1330,1342,1346,1317,1333,1328,1332,1323,963,953,964,964,1019,1122,1262,1401,1521,1515,1511,1521,1465,1442,1419,1395,1396,1349,1326,1303,1284,1376,1238,1264,1187,1164,1151,1144,1152,1081,1048,1050,1002,980,967,964,966,969,985,985,981,970,1006,1005,990,991,991,1015,1028,1029,1080,1024,1045,1019,1057,1015,1019,1058,1157,1100,1080,1077,1119,1101,1050,1587,1603,1656,1716,1945,2254,2435,2577,2650,2742,2626,2643,2545,2549,2459,2417,2337,2368,2439,2220,2169,2209,2133,2058,2026,1972,1931,1925,1875,1777,1749,1740,1663,1642,1626,1656,1660,1605,1825,1805,1823,1815,1808,1803,1893,1891,1812,1850,1843,1813,1813,1877,1886,1900,1882,1891,1878,1901,1904,1879,1858,1848,1820,1819,1834,999,987,989,1018,1095,1253,1474,1612,1703,1752,1726,1723,1679,1618,1630,1587,1556,1501,1501,1464,1415,1384,1360,1316,1310,1290,1249,1228,1168,1147,1126,1106,1056,1019,1015,1016,1029,1019,1053,1038,1052,1076,1066,1077,1066,1057,1063,1074,1075,1060,1088,1095,1120,1098,1095,1073,1049,1076,1060,1057,1052,1083,1069,1088,1052,0,0,0,0,0,0,0,0,0,0,0,0,0,0,0,0,0,0,0,0,0,0,0,0,0,0,0,0,0,0,0,0,0,0,0,0,0,0,0,0,0,0,0,0,0,0,0,0,0,0,0,0,0,0,0,0,0,0,0,0,0,0,0,0,0,1506,1518,1558,1605,1933,2118,2302,2447,2486,2533,2503,2487,2427,2433,2344,2305,2226,2288,2264,2115,2036,2109,2006,1962,1931,1879,1840,1811,1789,1693,1667,1658,1580,1559,1543,1574,1577,1521,1675,1674,1679,1679,1705,1695,1716,1735,1686,1723,1708,1749,1728,1731,1709,1763,1731,1756,1723,1715,1710,1744,1746,1727,1726,1733,1759,1386,1362,1369,1472,1646,1867,2150,2298,2322,2390,2337,2256,2292,2257,2138,2150,2105,2026,1953,1915,1923,1995,1859,1833,1773,1740,1716,1628,1579,1540,1544,1486,1488,1383,1429,1472,1436,1428,1509,1497,1494,1517,1610,1585,1550,1581,1547,1593,1627,1613,1651,1605,1620,1609,1634,1559,1604,1595,1596,1602,1582,1606,1625,1666,1598,1706,1690,1766,1868,2067,2370,2645,2793,2842,2834,2796,2759,2752,2639,2649,2561,2536,2547,2436,2432,2314,2287,2255,2186,2180,2130,2038,2021,1941,1890,1842,1785,1805,1763,1737,1712,1701,1718,1932,1935,1932,1956,1970,1984,1983,1994,1972,1993,2016,1988,2000,1991,2001,2040,2108,2042,2012,2018,2009,2019,2011,1996,2031,2046,2025,1290,1301,1278,1361,1523,1778,2043,2186,2262,2244,2268,2240,2141,2132,2072,2020,1979,2013,1940,1887,1846,1778,1764,1711,1693,1662,1611,1570,1495,1479,1415,1411,1360,1404,1319,1314,1349,1310,1391,1397,1405,1429,1407,1409,1419,1417,1417,1417,1489,1448,1403,1443,1483,1481,1498,1448,1428,1443,1458,1432,1418,1449,1433,1421,1402,1250,1162,1165,1201,1304,1526,1740,1903,1964,2063,1974,1942,1950,1920,1887,1855,1823,1791,1772,1726,1689,1662,1595,1573,1534,1496,1457,1419,1380,1342,1303,1263,1226,1196,1177,1178,1185,1193,1254,1260,1253,1256,1285,1275,1289,1288,1258,1297,1287,1313,1297,1291,1279,1319,1294,1302,1289,1281,1279,1303,1298,1303,1292,1295,1319,383,384,385,386,387,367,413,459,505,548,626,616,607,597,587,577,568,558,548,539,529,519,509,500,490,480,471,461,451,442,432,422,412,403,393,388,389,390,378,385,383,394,415,409,393,423,389,425,409,442,401,395,406,419,404,397,416,414,401,410,403,423,401,401,394,1131,1173,1136,1145,1252,1610,1661,1850,1936,1928,1913,1978,1876,1888,1792,1746,1713,1727,1672,1709,1624,1596,1512,1479,1445,1422,1378,1407,1377,1315,1265,1217,1179,1147,1129,1151,1138,1146,1191,1198,1189,1275,1195,1235,1196,1230,1221,1228,1242,1213,1234,1211,1216,1236,1251,1223,1219,1226,1236,1222,1223,1221,1231,1260,1231,1396,1350,1358,1430,1590,1838,2038,2188,2262,2284,2233,2252,2157,2125,2133,2054,2048,2021,1946,1946,1921,1861,1774,1750,1758,1698,1671,1626,1650,1529,1533,1474,1450,1372,1355,1401,1365,1417,1506,1451,1451,1467,1451,1468,1474,1468,1501,1548,1479,1501,1590,1494,1499,1585,1504,1490,1484,1497,1581,1655,1682,1720,1721,1545,1542,1407,1410,1436,1541,1652,1926,2236,2392,2445,2468,2430,2405,2394,2304,2266,2228,2212,2192,2089,2077,2001,1957,1915,1868,1853,1844,1735,1693,1647,1603,1558,1514,1548,1491,1454,1432,1463,1445,1566,1558,1554,1586,1574,1570,1642,1648,1571,1620,1609,1589,1583,1623,1625,1646,1640,1643,1628,1641,1639,1616,1594,1600,1577,1575,1558,572,574,576,578,586,671,725,809,895,940,942,930,951,897,885,867,852,837,822,808,794,778,763,748,764,720,703,688,714,660,643,628,613,598,587,581,583,584,582,579,583,587,587,584,593,591,583,588,585,588,593,595,595,594,600,591,598,595,602,601,599,605,591,592,595,1628,1570,1682,1686,1902,2094,2280,2446,2433,2475,2500,2384,2387,2384,2336,2267,2187,2262,2210,2103,2089,2037,1995,2018,1905,1911,1869,1812,1829,1666,1642,1669,1620,1633,1589,1603,1595,1546,1704,1709,1667,1665,1726,1696,1701,1706,1706,1713,1776,1727,1744,1771,1758,1741,1751,1753,1761,1781,1815,1756,1747,1761,1820,1769,1741,1069,1051,1021,1132,1105,1275,1475,1604,1686,1611,1644,1668,1572,1560,1514,1501,1541,1493,1461,1381,1359,1389,1366,1297,1296,1271,1301,1194,1222,1145,1126,1118,1098,1081,1066,1035,1016,1049,1054,1072,1078,1063,1063,1074,1091,1085,1077,1069,1127,1070,1091,1076,1090,1105,1114,1123,1105,1085,1097,1095,1083,1078,1077,1130,1062,556,557,559,561,568,609,688,767,841,892,907,897,882,868,854,839,822,807,796,782,768,753,739,725,710,693,682,665,653,636,624,610,596,581,566,562,565,564,582,559,579,569,563,565,596,576,563,559,579,572,567,572,565,568,562,570,568,571,569,563,562,567,570,564,563,413,414,415,416,418,439,497,554,612,659,682,671,660,650,639,628,617,607,596,585,574,564,553,542,531,520,510,499,488,477,467,456,445,434,423,419,420,421,414,422,417,420,425,422,426,435,415,426,418,418,423,430,430,426,432,425,418,419,432,429,416,420,420,426,419,878,931,883,890,938,1031,1167,1357,1458,1419,1425,1465,1435,1361,1380,1315,1289,1267,1299,1225,1250,1179,1156,1134,1136,1085,1066,1040,1020,1036,1015,1011,929,938,892,889,893,935,901,898,904,906,909,907,915,914,915,920,917,919,923,924,924,922,934,934,931,939,936,929,942,938,935,939,934,138,139,139,139,140,143,162,181,200,218,232,228,224,221,217,213,210,206,202,199,195,191,188,184,180,176,173,169,165,162,158,154,151,147,143,140,141,141,127,128,129,134,128,131,127,129,128,128,129,127,127,128,129,129,129,131,129,129,131,131,128,133,127,131,128,634,636,638,640,651,710,799,899,981,1030,1036,1029,1013,996,979,962,942,926,912,895,874,862,845,824,812,792,778,759,741,726,711,691,678,661,645,641,645,641,637,628,630,636,668,669,672,675,661,680,669,649,666,640,642,663,654,646,666,645,636,657,660,677,666,669,657,562,564,497,498,503,547,620,693,766,926,820,917,794,887,768,754,741,728,715,702,689,676,752,649,636,623,610,597,584,571,558,633,586,608,578,501,503,504,531,527,531,530,547,539,534,545,537,552,538,531,542,541,539,548,549,545,542,549,541,555,541,542,541,548,555,844,846,825,881,896,1025,1208,1258,1347,1379,1377,1355,1328,1311,1293,1270,1244,1222,1172,1216,1211,1100,1112,1137,1068,1080,1027,1002,957,982,936,947,895,850,860,857,835,897,864,866,864,878,878,870,876,889,882,883,889,892,969,966,975,921,885,879,888,888,879,886,890,882,881,886,882,498,500,490,503,529,568,610,700,773,820,827,814,840,770,774,775,748,767,722,708,695,697,669,640,673,629,616,602,589,576,563,549,548,511,499,528,507,509,504,508,502,506,511,515,542,539,508,514,517,523,517,507,511,523,519,514,517,511,509,511,510,518,516,526,507,313,314,315,305,306,322,363,405,446,487,499,491,483,475,468,476,452,459,436,429,421,413,405,397,390,395,387,379,358,363,355,335,327,319,312,307,308,309,296,297,305,318,307,307,303,314,302,315,305,302,315,317,330,332,319,310,308,317,312,304,311,326,309,316,304,516,518,519,521,524,604,650,727,803,849,856,842,863,832,813,788,774,771,746,759,719,705,692,674,710,650,650,623,609,596,582,568,555,541,528,524,525,527,526,515,518,538,516,542,522,529,531,532,555,532,533,526,527,546,563,530,522,538,525,533,532,524,534,557,531,1245,1243,1234,1308,1358,1534,1738,1874,1880,1884,1927,1889,1837,1846,1766,1781,1723,1751,1726,1608,1616,1630,1565,1510,1531,1491,1439,1423,1452,1331,1352,1276,1294,1267,1230,1240,1239,1198,1284,1271,1260,1290,1333,1374,1296,1300,1311,1333,1313,1334,1350,1332,1305,1333,1322,1325,1340,1311,1340,1420,1395,1415,1421,1352,1349,608,610,616,611,628,684,785,865,962,994,998,1031,1012,950,957,929,902,886,881,855,849,833,817,797,775,768,743,727,720,695,679,663,648,639,626,614,616,625,623,617,626,619,629,630,625,628,619,709,638,628,639,638,633,634,637,633,626,637,623,639,628,629,622,632,645,1427,1368,1460,1568,1689,1846,2058,2179,2204,2198,2212,2167,2103,2123,2092,2058,1987,1983,1981,1858,1885,1815,1858,1765,1734,1667,1662,1647,1632,1496,1530,1485,1439,1461,1396,1402,1408,1409,1486,1490,1491,1526,1490,1539,1498,1531,1511,1525,1536,1520,1516,1511,1543,1554,1542,1555,1548,1537,1550,1540,1540,1542,1563,1572,1543,863,848,850,855,900,997,1108,1246,1332,1370,1371,1360,1338,1317,1296,1274,1240,1219,1201,1197,1163,1126,1125,1099,1075,1059,1026,1016,986,991,939,938,889,875,859,855,860,856,874,864,877,867,893,916,874,878,884,893,898,892,896,904,900,904,897,896,883,902,888,909,902,904,900,902,922,658,660,660,629,643,707,802,896,982,1025,1028,1012,996,979,1034,994,930,913,897,880,864,847,936,814,798,782,765,749,772,716,699,683,666,650,721,632,634,636,640,636,630,640,644,671,639,648,656,662,642,646,636,645,644,629,644,648,646,646,638,639,649,655,648,654,644,935,904,897,936,954,1111,1243,1393,1414,1423,1459,1423,1375,1376,1341,1327,1309,1329,1296,1218,1199,1215,1196,1149,1152,1129,1099,1057,1095,1019,1015,981,973,952,939,910,893,909,922,958,916,919,939,927,929,936,934,948,953,927,943,935,943,943,950,953,946,951,978,943,952,954,970,950,944,214,215,215,216,217,225,254,284,313,343,357,352,346,340,335,329,323,318,312,306,301,295,289,284,278,272,267,261,255,250,244,238,233,227,221,217,218,219,209,209,203,218,208,213,203,209,213,218,216,219,227,210,212,215,242,212,208,219,213,219,210,202,224,210,202,856,841,843,848,893,990,1101,1239,1339,1363,1364,1353,1331,1310,1289,1267,1233,1212,1194,1190,1156,1119,1118,1092,1068,1052,1019,1009,979,984,932,945,882,868,852,848,853,849,883,860,855,859,899,920,882,888,894,925,893,955,973,946,891,932,923,900,909,898,962,1060,1023,1047,1034,962,967,1708,1752,1777,1934,2160,2507,2697,2718,2752,2774,2776,2743,2653,2609,2576,2540,2486,2434,2386,2340,2286,2283,2202,2155,2091,2079,1996,1998,1908,1887,1824,1749,1742,1725,1714,1715,1724,1714,1891,1948,1899,1926,1965,1922,1937,1954,1927,1943,1957,1943,1953,1945,1953,1949,2012,1976,1954,1948,2000,1932,1947,1963,1985,1970,1954,0,0,0,0,0,0,0,0,0,0,0,0,0,0,0,0,0,0,0,0,0,0,0,0,0,0,0,0,0,0,0,0,0,0,0,0,0,0,0,0,0,0,0,0,0,0,0,0,0,0,0,0,0,0,0,0,0,0,0,0,0,0,0,0,0,365,366,367,369,370,395,447,500,553,599,610,600,590,580,571,561,551,541,532,522,512,502,493,483,473,463,454,444,434,424,414,405,395,385,375,371,372,373,363,373,369,370,376,374,376,378,369,376,368,370,371,378,380,379,380,377,372,377,381,373,374,369,371,380,370,432,434,435,436,438,472,535,597,660,708,717,705,694,682,671,660,648,637,625,614,603,591,580,568,557,546,534,523,511,500,489,477,466,455,443,439,440,441,422,422,431,453,424,434,424,433,426,424,430,426,422,427,426,431,430,433,429,431,432,431,429,437,424,433,429,982,993,988,1003,1067,1191,1341,1490,1572,1605,1598,1532,1550,1513,1494,1470,1456,1441,1367,1368,1335,1317,1351,1266,1226,1224,1189,1163,1130,1112,1086,1060,1043,1013,1000,981,984,1004,1042,1032,1024,1111,1082,1074,1052,1045,1068,1100,1074,1106,1108,1099,1046,1050,1078,1085,1084,1065,1107,1156,1096,1084,1115,1075,1076,1290,1271,1299,1340,1432,1598,1797,1923,2068,2064,2005,1976,1955,1912,1872,1849,1825,1850,1747,1745,1721,1687,1614,1626,1580,1559,1526,1506,1468,1398,1366,1367,1349,1330,1279,1266,1259,1272,1336,1327,1334,1374,1351,1336,1336,1358,1343,1405,1460,1355,1361,1360,1349,1336,1344,1373,1336,1337,1330,1330,1336,1351,1345,1366,1333,1487,1497,1534,1650,1863,2130,2282,2465,2439,2560,2500,2487,2385,2375,2295,2261,2266,2221,2125,2128,2036,2054,1995,1919,1883,1855,1818,1770,1703,1683,1633,1558,1549,1525,1514,1495,1536,1530,1610,1602,1610,1624,1605,1620,1620,1623,1633,1705,1625,1629,1648,1649,1656,1663,1671,1659,1639,1657,1649,1651,1650,1666,1655,1672,1662,819,816,816,822,856,960,1058,1193,1300,1318,1321,1310,1290,1269,1249,1228,1204,1187,1194,1146,1121,1085,1087,1060,1044,1018,989,975,958,933,905,891,863,847,827,843,828,836,835,829,843,867,855,854,853,868,860,862,877,868,942,977,1047,923,866,850,853,866,859,841,845,866,850,873,854,465,466,468,469,473,512,580,648,716,764,772,760,747,735,723,710,698,686,673,661,649,636,624,612,599,587,575,562,550,538,525,513,501,488,495,472,473,475,469,467,484,478,478,500,481,501,500,493,522,495,494,492,492,506,486,486,488,498,481,483,487,491,480,496,500,572,574,576,578,586,671,725,809,895,940,942,930,951,897,885,867,852,837,822,808,794,778,763,748,764,720,703,688,714,660,643,628,613,598,587,581,583,584,582,579,583,587,587,584,593,591,583,588,585,588,593,595,595,594,600,591,598,595,602,601,599,605,591,592,595,385,386,387,388,390,412,466,518,574,620,629,619,609,599,590,580,570,560,550,540,534,520,514,500,490,480,470,460,450,441,431,421,411,401,391,391,392,393,379,383,377,385,402,394,412,409,386,403,393,397,399,383,386,399,395,387,399,387,383,394,387,404,397,400,384,1263,1242,1197,1291,1377,1576,1793,1844,1960,2048,2015,2044,1931,1951,1839,1851,1773,1776,1712,1678,1652,1567,1580,1555,1522,1502,1498,1439,1394,1365,1370,1290,1274,1281,1272,1266,1266,1268,1281,1313,1323,1322,1330,1313,1322,1349,1312,1315,1336,1299,1320,1320,1340,1349,1497,1449,1365,1322,1328,1320,1306,1305,1318,1364,1295,718,720,736,736,748,781,885,1001,1074,1145,1168,1183,1137,1118,1043,1029,1012,994,957,940,923,903,889,872,855,837,855,803,783,766,764,750,755,733,701,790,730,701,708,709,721,729,710,735,716,740,736,718,751,721,726,729,725,737,724,726,722,737,725,726,723,735,718,738,735,304,305,306,307,308,324,365,406,448,488,499,492,484,476,468,461,453,445,437,430,422,414,406,398,391,383,375,367,360,352,344,336,329,321,313,309,309,310,299,293,293,301,293,311,297,296,300,300,311,303,303,300,301,311,326,301,299,309,299,307,303,299,307,316,304,129,130,130,131,131,134,150,167,184,200,212,209,206,203,199,196,193,190,186,183,180,176,173,170,167,163,160,157,154,150,147,144,141,137,134,131,132,132,120,118,121,125,124,123,120,120,123,126,124,123,125,136,141,135,135,125,120,126,121,121,118,125,123,128,120,621,608,610,628,624,662,792,846,921,958,1027,952,936,921,906,889,878,860,879,863,835,829,801,826,792,756,738,726,711,697,696,664,635,615,601,662,617,618,602,609,623,637,621,631,610,629,609,640,619,613,619,623,636,647,632,626,632,619,632,633,629,634,614,623,617,441,443,444,445,448,484,548,612,677,725,733,721,710,698,686,659,648,665,639,628,616,604,579,581,569,558,546,534,522,511,499,487,476,464,452,448,459,450,445,448,449,450,447,449,450,449,447,450,453,452,450,448,448,452,452,452,448,454,454,456,453,456,456,453,450,382,383,385,386,387,415,470,526,581,628,637,627,617,592,596,586,576,566,550,545,535,525,515,505,494,484,474,464,449,444,433,423,413,393,389,388,389,390,379,378,383,388,387,387,384,383,383,396,385,385,389,406,414,409,412,392,388,389,388,385,384,393,385,400,381,542,543,545,547,553,556,630,766,778,893,884,819,806,825,779,826,752,739,726,712,699,686,673,659,646,633,619,606,593,579,610,596,539,526,513,541,551,553,526,530,532,537,540,539,546,537,534,545,539,534,541,542,540,540,561,547,542,542,542,539,546,546,542,548,541,1064,1080,1059,1109,1174,1309,1444,1586,1683,1808,1721,1642,1633,1642,1557,1519,1525,1498,1506,1424,1417,1408,1344,1345,1309,1276,1299,1229,1201,1157,1140,1096,1094,1081,1046,1031,1083,1112,1093,1068,1083,1087,1105,1106,1088,1087,1090,1101,1144,1122,1123,1128,1134,1127,1137,1122,1112,1142,1149,1136,1124,1120,1146,1161,1144,182,182,183,183,184,190,216,241,266,292,306,301,296,291,286,281,307,302,266,261,257,252,247,242,237,232,227,222,217,212,208,203,198,215,209,184,185,185,179,178,179,180,178,194,181,187,177,182,181,179,179,181,181,182,181,182,182,185,188,186,180,179,178,179,178,556,558,560,561,569,569,702,783,863,909,914,832,885,871,856,842,828,813,739,784,712,755,741,672,658,698,632,618,654,592,625,611,552,582,569,565,566,568,553,552,568,651,572,549,572,599,575,564,569,568,571,562,577,572,575,562,563,559,572,579,562,576,564,568,576,248,249,249,250,251,263,298,333,368,403,416,409,403,396,389,383,376,369,363,356,349,343,336,329,323,316,309,303,296,289,283,276,269,263,256,252,252,253,239,246,249,254,253,256,242,251,240,269,247,246,249,249,264,281,261,251,257,245,255,256,256,261,241,248,241,883,915,885,923,962,1058,1166,1303,1345,1447,1421,1526,1373,1419,1333,1311,1289,1271,1234,1207,1184,1130,1129,1117,1099,1077,1084,1043,1012,990,981,931,946,893,862,891,892,923,888,893,906,931,915,915,906,929,901,934,922,931,968,960,986,975,922,922,937,931,929,919,936,951,919,927,917,239,240,240,241,242,252,286,319,352,386,399,393,386,380,374,367,361,355,348,342,336,329,323,317,310,304,298,291,285,279,272,266,260,253,247,243,243,244,235,232,233,234,236,232,234,235,232,235,235,233,234,235,234,233,234,235,235,236,235,233,238,235,234,234,234,1059,1053,1080,1134,1186,1349,1436,1605,1707,1732,1720,1711,1665,1720,1644,1584,1545,1500,1518,1429,1408,1381,1375,1383,1298,1282,1267,1244,1234,1161,1169,1139,1153,1124,1053,1065,1102,1083,1104,1093,1089,1100,1208,1190,1142,1172,1143,1239,1187,1177,1189,1138,1144,1191,1185,1135,1211,1165,1147,1219,1181,1239,1218,1244,1185,606,595,597,595,609,682,736,850,893,973,977,935,948,918,891,903,888,846,853,844,820,814,788,784,756,739,726,703,706,701,681,642,631,609,602,602,597,605,622,602,600,605,610,613,668,657,615,640,628,608,615,656,661,667,656,675,662,677,657,640,639,624,610,606,599,296,297,298,299,300,317,359,402,444,484,590,488,480,472,464,445,448,440,433,425,417,409,401,393,385,377,369,361,353,345,337,329,313,313,355,301,302,303,295,285,288,292,285,293,291,300,300,291,299,288,292,289,289,295,293,293,287,294,288,291,294,291,291,304,299,596,598,599,601,609,631,713,795,903,946,940,959,951,930,866,871,837,822,788,796,760,745,731,717,703,689,701,660,646,632,662,619,648,608,576,604,605,576,587,587,588,591,605,600,610,600,594,619,609,602,603,596,591,602,598,599,601,592,587,600,596,605,598,606,599,355,356,357,358,359,412,433,483,534,580,590,581,571,562,553,543,571,524,515,506,496,487,478,468,459,449,440,431,421,412,402,393,384,374,365,360,361,362,342,345,349,360,347,346,346,348,353,347,347,348,349,351,348,351,351,353,353,354,351,355,357,378,377,379,377,613,588,590,602,602,675,729,843,900,966,970,928,941,911,898,896,881,853,846,837,813,807,781,777,749,746,719,696,699,694,674,635,638,602,595,595,590,598,602,601,602,622,603,599,660,663,607,625,671,638,595,662,702,709,721,668,662,677,684,642,622,625,622,599,593,1434,1419,1477,1543,1688,1961,2178,2225,2282,2304,2262,2258,2236,2168,2163,2106,2165,2041,1966,1928,1926,1867,1850,1794,1841,1697,1708,1626,1607,1569,1593,1506,1462,1448,1410,1466,1440,1451,1511,1489,1489,1497,1536,1526,1518,1521,1533,1543,1557,1583,1586,1555,1582,1575,1628,1556,1566,1585,1624,1617,1616,1611,1644,1588,1602,299,300,301,302,303,319,361,402,444,484,496,489,481,473,465,457,449,442,434,426,418,410,402,395,387,379,371,363,355,348,340,332,324,316,308,304,305,305,286,294,292,305,302,294,296,297,289,296,293,296,294,288,289,292,292,289,296,291,288,294,289,299,294,293,289,0,0,0,0,0,0,0,0,0,0,0,0,0,0,0,0,0,0,0,0,0,0,0,0,0,0,0,0,0,0,0,0,0,0,0,0,0,0,0,0,0,0,0,0,0,0,0,0,0,0,0,0,0,0,0,0,0,0,0,0,0,0,0,0,0,520,522,523,525,538,547,620,656,764,854,781,806,793,780,767,718,741,728,681,702,689,644,663,619,636,594,610,569,584,571,532,520,507,519,483,479,536,531,490,488,503,590,514,488,508,536,515,500,509,507,508,503,513,511,530,514,509,503,515,521,504,516,509,513,518,1003,830,833,903,879,994,1088,1245,1495,1363,1360,1322,1411,1282,1387,1363,1340,1317,1283,1271,1148,1127,1190,1085,1140,1042,1008,978,975,957,936,892,1008,925,840,840,905,921,896,900,888,901,898,894,906,916,899,890,898,907,908,894,898,904,905,904,899,905,894,906,897,915,904,901,894,924,923,926,939,992,1136,1251,1406,1500,1539,1505,1504,1457,1433,1435,1369,1359,1356,1313,1306,1263,1320,1244,1192,1153,1144,1120,1096,1098,1068,1024,1033,976,939,941,956,955,966,955,954,969,1008,966,965,974,997,983,965,981,969,975,968,978,981,980,974,967,973,978,982,967,991,971,982,978,1252,1195,1233,1299,1417,1637,1834,2021,2086,2055,2140,1973,1938,1913,1887,1891,1853,1808,1835,1754,1706,1695,1624,1613,1574,1510,1476,1452,1444,1394,1369,1307,1236,1254,1198,1255,1278,1231,1273,1321,1276,1290,1302,1295,1291,1307,1300,1297,1321,1292,1294,1311,1309,1317,1314,1334,1323,1318,1341,1307,1326,1352,1353,1328,1320,624,563,565,629,574,642,719,831,876,921,926,895,898,869,870,856,842,828,836,800,786,772,746,744,709,740,688,666,670,660,667,608,666,577,570,570,571,593,577,584,584,573,591,605,608,586,584,609,591,590,586,590,585,591,591,596,588,586,587,588,588,593,595,594,584,99,99,100,100,100,102,116,129,142,156,166,163,161,158,156,153,150,148,145,142,140,137,135,132,129,127,124,121,119,116,113,111,108,106,103,101,101,101,85,85,85,85,87,87,86,89,89,88,87,86,86,86,86,89,87,85,87,86,86,86,87,88,87,88,87,385,386,387,388,390,412,466,518,574,620,629,619,609,599,590,580,570,560,550,540,534,520,514,500,490,480,470,460,450,441,431,421,411,401,391,391,392,393,379,383,377,385,402,394,412,409,386,403,393,397,399,383,386,399,395,387,399,387,383,394,387,404,397,400,384,378,379,380,381,383,408,461,515,568,615,667,656,646,596,586,576,604,556,546,536,526,517,507,497,487,477,498,457,448,438,456,418,408,398,414,410,385,386,376,376,388,399,384,393,380,396,383,389,388,380,383,386,386,386,386,386,387,385,389,388,381,385,378,384,381,1515,1602,1578,1629,1811,2159,2222,2358,2445,2436,2378,2402,2317,2303,2282,2354,2194,2220,2139,2062,2066,1969,1966,1901,1875,1842,1824,1730,1756,1695,1621,1606,1556,1568,1552,1512,1563,1543,1649,1641,1647,1741,1660,1674,1663,1702,1702,1743,1675,1704,1705,1702,1695,1715,1721,1674,1670,1679,1705,1727,1706,1733,1716,1726,1706,1034,1002,1028,1038,1085,1258,1449,1541,1685,1641,1610,1654,1593,1633,1508,1535,1494,1527,1430,1381,1383,1354,1305,1345,1288,1287,1218,1174,1216,1139,1102,1114,1066,1083,1037,1036,1016,1056,1059,1052,1039,1053,1103,1151,1067,1072,1078,1095,1084,1089,1087,1085,1081,1088,1090,1087,1104,1082,1077,1124,1099,1107,1122,1089,1087,686,688,690,693,713,779,880,982,1077,1119,1121,1104,1080,1062,1051,1033,1009,997,980,956,944,921,909,891,873,856,838,816,798,780,767,750,732,714,700,692,698,700,684,690,697,709,726,724,701,732,699,749,718,731,718,709,729,748,726,716,736,721,720,732,726,743,715,721,713,537,586,540,530,548,639,660,802,849,892,865,851,872,886,828,833,821,769,795,758,769,793,716,702,732,704,691,702,632,618,604,626,564,562,549,533,534,582,539,545,539,555,547,560,542,547,556,547,544,549,540,546,546,541,548,554,548,547,546,548,553,565,556,565,554,948,946,966,963,1015,1184,1292,1464,1498,1565,1550,1515,1464,1475,1443,1417,1381,1380,1340,1312,1271,1267,1245,1182,1190,1186,1180,1130,1096,1071,1080,1022,993,985,932,962,974,950,986,980,977,982,981,998,1049,1052,983,1017,998,986,989,1030,1040,1052,1047,1023,1036,1045,1058,1031,1012,1008,993,992,989,221,222,223,223,224,233,264,295,326,357,370,365,359,353,347,341,335,329,323,317,311,305,300,294,288,282,276,270,264,258,252,246,241,235,229,225,225,226,204,205,205,207,207,207,208,208,209,209,209,210,210,211,211,212,212,212,213,213,215,215,216,216,216,217,217,765,767,769,772,805,886,1004,1122,1216,1255,1255,1235,1208,1188,1175,1155,1129,1114,1094,1069,1054,1029,1014,994,974,954,934,909,889,869,853,833,809,793,780,772,778,781,782,789,782,795,794,798,793,813,786,793,792,789,786,799,799,798,797,794,798,792,806,807,791,800,786,797,794,100,101,101,101,102,103,117,131,145,159,170,167,164,161,159,156,153,151,148,145,142,140,137,134,131,129,126,123,121,118,115,112,110,107,104,102,102,102,88,87,88,88,90,89,90,94,93,90,89,88,89,88,89,93,89,88,90,88,88,89,89,90,90,90,90,564,586,567,569,591,633,718,802,884,929,933,918,936,889,874,859,898,829,814,799,784,769,781,739,724,709,694,679,664,649,635,620,605,590,576,572,574,576,559,562,570,594,565,579,564,573,564,564,569,564,560,572,569,577,573,577,572,575,582,573,571,582,562,575,568,440,441,443,444,447,482,577,611,675,704,777,735,709,679,686,674,662,650,622,658,599,603,592,565,568,542,572,519,521,510,485,474,474,463,451,469,436,449,442,441,444,444,444,442,446,448,445,442,444,445,444,449,449,448,445,444,449,446,450,456,448,453,444,446,450,521,523,535,526,582,579,654,730,805,851,857,843,830,816,803,789,776,762,749,735,722,708,695,681,668,654,641,627,613,600,598,573,559,546,544,529,541,532,532,538,548,568,549,544,548,550,549,540,593,578,536,556,594,590,606,548,547,559,578,545,534,549,559,538,531,458,459,460,462,465,503,570,637,705,753,761,749,737,720,712,700,688,676,664,651,639,627,615,599,591,578,566,554,542,530,517,513,501,481,469,472,466,467,481,457,456,458,455,463,461,463,461,458,463,457,457,458,458,460,464,465,461,462,463,465,458,472,461,468,464,1216,1175,1214,1268,1344,1540,1672,1835,1903,1909,1874,1937,1882,1799,1789,1801,1756,1706,1651,1609,1578,1610,1520,1505,1554,1448,1444,1405,1343,1364,1314,1285,1258,1246,1224,1235,1254,1223,1289,1256,1267,1269,1297,1337,1291,1305,1299,1306,1359,1313,1319,1332,1329,1342,1287,1297,1315,1334,1330,1330,1306,1325,1328,1306,1306,554,556,557,570,567,621,702,784,857,910,916,901,887,868,850,858,828,814,799,784,763,755,754,722,711,697,682,667,653,638,624,602,602,580,562,570,563,565,564,575,565,577,582,579,575,591,567,578,572,571,570,582,580,580,578,577,579,573,587,591,572,582,569,578,575,1439,1385,1436,1517,1618,1885,2002,2173,2212,2188,2172,2248,2159,2060,2035,2078,2020,1969,1911,1843,1821,1821,1759,1751,1786,1699,1675,1592,1553,1560,1458,1463,1405,1459,1431,1411,1396,1443,1484,1493,1484,1491,1516,1511,1529,1543,1498,1531,1527,1558,1551,1548,1535,1578,1540,1539,1527,1520,1514,1543,1537,1536,1528,1534,1558,959,944,946,959,981,1103,1249,1390,1526,1535,1596,1539,1453,1465,1470,1416,1367,1343,1356,1332,1281,1246,1238,1202,1178,1171,1132,1133,1098,1054,1065,1000,1002,1007,947,951,986,956,975,974,982,974,970,968,981,984,969,989,1004,976,982,988,993,984,981,982,982,988,984,973,986,984,978,982,991,605,601,603,629,617,761,768,858,943,984,1094,1077,959,939,1017,1022,910,972,862,848,832,816,831,789,846,751,737,719,705,741,677,656,642,626,613,609,614,612,607,599,600,606,638,638,641,644,630,651,638,619,636,610,613,632,623,615,636,614,606,628,629,646,634,638,626,910,878,904,904,934,1084,1222,1342,1438,1449,1421,1448,1411,1384,1331,1375,1309,1303,1270,1219,1224,1198,1151,1174,1152,1142,1061,1039,1016,1008,971,994,926,949,937,911,891,916,931,928,921,927,940,930,936,931,932,932,930,929,939,937,942,937,932,939,935,938,932,945,939,946,929,930,928,299,300,301,302,302,315,351,386,422,458,470,463,457,450,443,436,429,423,416,434,426,418,410,402,375,368,362,355,348,341,335,328,321,314,307,303,304,305,297,295,294,295,297,292,295,293,295,295,294,293,297,295,296,301,299,296,295,295,296,297,300,300,295,295,297,952,951,953,966,988,1110,1256,1397,1533,1542,1589,1546,1460,1472,1477,1423,1374,1350,1363,1339,1288,1253,1245,1195,1171,1178,1139,1126,1105,1047,1058,1007,995,1000,940,958,979,963,970,968,980,974,968,988,985,988,985,985,1012,984,982,978,993,1001,1001,1013,1012,991,999,1005,993,988,992,1008,975,1723,1776,1817,2032,2195,2500,2602,2713,2794,2807,2772,2771,2661,2657,2574,2562,2521,2449,2396,2363,2303,2301,2231,2174,2130,2090,2082,2013,2014,1892,1864,1805,1781,1804,1782,1764,1869,1792,2056,2117,2068,2095,2148,2092,2103,2123,2100,2109,2126,2117,2116,2119,2127,2134,2254,2200,2141,2132,2176,2101,2118,2127,2169,2141,2123,352,353,354,355,356,379,429,478,528,573,583,574,565,555,546,537,528,519,509,500,491,482,472,463,454,445,436,426,417,408,399,389,380,371,362,357,358,359,345,346,345,347,348,348,350,350,350,351,350,349,353,353,354,353,354,357,354,355,355,355,358,356,356,356,355,432,434,435,445,439,474,546,600,663,712,731,708,697,685,674,662,661,639,628,616,605,593,582,570,559,547,536,524,512,501,489,478,475,455,443,448,440,450,433,434,440,449,445,452,449,458,452,445,457,447,445,447,448,457,445,444,450,450,449,442,448,455,442,453,444,0,0,0,0,0,0,0,0,0,0,0,0,0,0,0,0,0,0,0,0,0,0,0,0,0,0,0,0,0,0,0,0,0,0,0,0,0,0,0,0,0,0,0,0,0,0,0,0,0,0,0,0,0,0,0,0,0,0,0,0,0,0,0,0,0,1208,1286,1212,1255,1370,1523,1718,1833,1925,1962,1938,1884,1889,1845,1814,1776,1752,1712,1690,1659,1630,1589,1559,1521,1481,1465,1442,1489,1426,1348,1318,1267,1264,1235,1229,1270,1222,1204,1290,1295,1271,1284,1282,1322,1288,1303,1322,1390,1309,1360,1349,1360,1322,1386,1366,1307,1305,1306,1348,1384,1360,1386,1369,1369,1340,1190,1193,1241,1241,1340,1504,1699,1831,1905,1931,1919,1955,1860,1827,1854,1766,1735,1704,1674,1643,1612,1581,1551,1579,1489,1459,1487,1397,1428,1336,1305,1275,1245,1223,1225,1208,1261,1214,1254,1295,1254,1266,1284,1265,1275,1283,1281,1283,1294,1282,1302,1284,1288,1295,1299,1297,1298,1299,1334,1291,1319,1328,1345,1306,1299,1578,1559,1631,1748,2020,2197,2375,2476,2582,2628,2588,2534,2531,2429,2453,2350,2305,2287,2221,2214,2146,2164,2108,2011,1958,1902,1853,1831,1777,1680,1652,1616,1589,1614,1561,1570,1609,1584,1686,1683,1695,1700,1700,1686,1706,1723,1698,1701,1710,1712,1793,1787,1736,1716,1733,1762,1757,1826,1823,1718,1761,1843,1842,1810,1751,934,936,950,949,1017,1168,1255,1384,1506,1541,1537,1513,1600,1443,1460,1395,1355,1371,1374,1318,1396,1240,1222,1162,1139,1165,1126,1096,1105,1020,1031,1058,969,995,915,974,961,952,982,970,971,981,971,977,1032,1027,988,1014,997,978,983,1014,1042,1058,1040,1047,1042,1053,1036,1017,1019,1000,981,988,975,425,427,428,429,431,464,526,588,649,698,707,696,685,673,662,651,639,628,617,606,594,583,572,560,549,538,527,515,504,493,481,470,459,448,436,432,433,434,426,417,424,431,416,437,430,424,425,425,446,429,424,425,424,442,437,429,422,429,424,427,430,425,425,450,433,378,379,380,381,383,408,461,515,568,615,667,656,646,596,586,576,604,556,546,536,526,517,507,497,487,477,498,457,448,438,456,418,408,398,414,410,385,386,376,376,388,399,384,393,380,396,383,389,388,380,383,386,386,386,386,386,387,385,389,388,381,385,378,384,381,1029,1041,1036,1083,1157,1344,1494,1743,1642,1759,1670,1736,1613,1658,1573,1608,1505,1480,1458,1438,1592,1374,1357,1321,1298,1268,1271,1215,1263,1165,1138,1112,1083,1067,1070,1047,1082,1053,1063,1058,1080,1091,1067,1087,1069,1077,1074,1089,1101,1090,1085,1092,1095,1105,1096,1099,1085,1098,1098,1100,1104,1099,1091,1119,1118,1547,1554,1510,1614,1773,2061,2320,2417,2469,2536,2556,2456,2446,2378,2265,2230,2283,2264,2106,2091,2028,2046,1988,1942,1878,1975,1827,1755,1720,1666,1608,1597,1533,1498,1513,1492,1490,1523,1563,1606,1573,1586,1608,1596,1589,1603,1605,1605,1618,1594,1603,1613,1616,1620,1632,1635,1634,1627,1643,1637,1649,1671,1681,1667,1662,1008,1011,1014,1029,1099,1243,1426,1648,1662,1737,1686,1684,1654,1615,1659,1531,1526,1500,1469,1440,1407,1413,1354,1325,1296,1263,1239,1206,1176,1152,1119,1095,1066,1041,1026,1023,1068,1072,1067,1062,1059,1069,1057,1078,1063,1067,1093,1144,1069,1090,1093,1093,1085,1097,1112,1087,1075,1081,1085,1097,1085,1091,1099,1103,1088,526,528,530,531,536,650,658,819,810,946,864,936,837,823,809,850,782,769,755,741,789,714,701,687,674,705,646,627,619,606,592,578,565,551,538,534,536,537,534,532,534,531,541,530,533,530,526,531,536,532,532,533,538,533,536,532,533,538,533,529,538,533,537,532,537,744,794,749,731,763,935,954,1181,1154,1305,1218,1283,1252,1160,1140,1191,1170,1082,1035,1044,1084,1005,986,966,947,927,908,883,847,850,871,811,772,773,759,756,758,788,762,761,763,777,766,768,762,782,779,766,774,760,763,772,764,771,767,774,768,785,774,779,771,781,766,778,775,709,741,713,715,743,838,967,1096,1197,1267,1236,1214,1193,1171,1150,1107,1149,1104,1063,1041,1020,998,977,955,933,912,890,868,847,825,803,782,760,739,723,720,724,727,748,730,726,735,737,753,795,791,741,771,755,737,745,784,789,795,785,804,790,808,789,772,768,753,739,736,726,1041,1051,1047,1052,1108,1251,1425,1677,1639,1663,1667,1632,1606,1587,1560,1563,1556,1480,1446,1445,1395,1369,1347,1320,1290,1267,1257,1279,1181,1176,1173,1107,1079,1072,1059,1041,1060,1049,1100,1099,1088,1174,1150,1144,1129,1122,1134,1174,1129,1165,1176,1149,1105,1135,1131,1145,1151,1114,1157,1218,1179,1177,1190,1142,1138,487,489,490,492,496,606,611,767,755,891,809,882,783,770,757,744,731,718,705,692,741,667,654,641,628,615,602,583,576,563,550,537,524,511,499,495,496,498,485,486,485,495,486,488,488,493,490,492,491,491,494,493,495,494,495,499,499,496,498,493,499,501,499,500,500,1202,1248,1209,1232,1327,1608,1694,2031,1900,2017,1934,2008,1902,1844,1963,1812,1894,1709,1663,1647,1691,1612,1563,1524,1518,1459,1441,1554,1469,1362,1353,1306,1236,1239,1210,1257,1221,1227,1275,1272,1267,1276,1294,1254,1269,1272,1299,1303,1305,1305,1305,1429,1319,1314,1436,1337,1320,1350,1334,1335,1335,1330,1349,1346,1340,1213,1304,1222,1278,1487,1791,2090,2256,2320,2330,2302,2256,2393,2163,2116,2070,2023,1977,1930,1996,1837,1790,1744,1697,1814,1604,1558,1511,1560,1418,1372,1325,1280,1246,1238,1242,1252,1263,1306,1298,1295,1313,1413,1395,1346,1380,1340,1441,1396,1401,1384,1343,1349,1397,1388,1348,1414,1388,1367,1413,1384,1441,1413,1435,1388,829,840,834,863,909,1056,1196,1440,1323,1446,1357,1433,1314,1366,1283,1346,1227,1205,1184,1173,1344,1118,1107,1075,1053,1031,1036,988,1041,945,923,901,879,866,868,842,876,846,874,866,870,873,874,869,874,882,877,882,868,879,877,890,886,884,879,888,881,882,882,902,888,891,876,883,882,667,669,703,684,766,756,854,1035,1040,1083,1087,1070,1053,1036,1019,1010,1067,983,966,934,917,899,882,865,913,831,833,797,780,821,746,729,712,700,681,677,678,680,678,689,682,691,692,697,691,705,689,694,684,685,690,700,699,693,699,694,692,689,705,701,690,693,690,697,690,896,907,901,934,990,1149,1279,1530,1431,1552,1462,1536,1415,1466,1381,1421,1322,1298,1275,1263,1431,1205,1192,1158,1135,1111,1114,1064,1116,1018,994,971,947,933,935,909,944,914,936,931,953,951,946,968,954,970,967,960,990,962,965,973,971,983,963,957,967,973,965,963,965,974,950,971,975,1171,1145,1202,1212,1264,1470,1647,1885,1968,1957,1970,1962,1928,1898,1794,1709,1801,1721,1671,1605,1573,1618,1548,1523,1449,1500,1387,1355,1395,1293,1262,1231,1200,1224,1160,1159,1163,1190,1234,1234,1207,1222,1218,1261,1226,1239,1256,1313,1244,1267,1257,1267,1252,1304,1273,1237,1235,1236,1256,1271,1254,1277,1271,1271,1239,811,814,823,827,868,1039,1155,1400,1303,1427,1338,1415,1296,1284,1252,1307,1210,1198,1167,1157,1274,1103,1092,1060,1039,1018,988,1011,953,931,911,889,875,895,833,831,842,835,858,846,840,853,862,889,859,859,877,874,860,861,860,863,866,841,855,870,863,871,850,851,873,875,864,868,852,1344,1343,1373,1439,1535,1774,1993,2139,2219,2228,2279,2220,2172,2108,2069,1950,2011,1982,1946,1848,1820,1838,1754,1735,1675,1772,1630,1548,1539,1508,1457,1443,1372,1335,1318,1354,1325,1355,1382,1384,1432,1697,1440,1378,1425,1518,1458,1401,1498,1476,1419,1429,1527,1533,1481,1394,1435,1422,1468,1467,1417,1452,1425,1429,1441,419,420,422,423,424,465,514,528,631,631,689,631,668,610,646,635,580,613,603,592,589,578,559,549,538,527,516,505,495,484,473,462,417,441,397,425,439,427,416,412,410,412,411,416,414,414,415,412,415,409,411,411,412,414,415,415,414,412,415,418,411,420,412,417,415,774,767,775,778,821,1008,1098,1359,1238,1352,1264,1350,1214,1215,1183,1228,1164,1133,1113,1093,1200,1051,1032,1001,1020,961,933,918,908,880,867,839,852,798,786,790,817,794,787,794,797,828,802,810,800,799,793,792,810,799,809,817,816,806,814,823,806,802,814,804,799,812,798,804,799,875,871,874,884,927,1048,1175,1317,1416,1483,1450,1426,1427,1378,1378,1332,1328,1322,1278,1252,1227,1238,1179,1154,1126,1105,1076,1055,1025,1000,975,949,924,906,885,883,886,890,891,905,906,911,917,934,919,927,906,914,911,905,909,921,925,932,925,937,917,927,937,922,912,905,920,925,905,990,1014,996,990,1060,1253,1379,1592,1558,1669,1641,1637,1610,1530,1505,1509,1483,1428,1375,1376,1398,1371,1299,1274,1273,1222,1197,1212,1123,1120,1133,1068,1023,1020,1007,1026,1007,1011,1029,1031,1029,1037,1044,1052,1046,1053,1047,1045,1055,1060,1134,1133,1147,1098,1045,1059,1061,1073,1057,1051,1067,1037,1053,1052,1039,412,413,415,416,417,472,507,535,624,638,682,638,661,617,639,628,587,606,596,585,596,585,552,542,531,520,509,498,488,477,466,455,424,434,404,418,446,420,411,420,415,425,425,431,423,426,415,424,419,417,417,430,426,432,434,432,426,427,435,427,424,434,416,429,419,1198,1193,1207,1242,1378,1737,1930,2061,2185,2342,2140,2087,2060,2007,1968,1941,1901,1864,1852,1784,1732,1690,1661,1657,1642,1542,1494,1484,1412,1365,1342,1295,1264,1250,1203,1221,1219,1236,1283,1287,1277,1307,1280,1302,1275,1303,1310,1396,1275,1294,1297,1292,1332,1274,1299,1304,1312,1298,1276,1287,1312,1299,1294,1292,1279,908,932,914,901,958,1134,1207,1456,1424,1538,1478,1510,1486,1408,1384,1391,1367,1313,1263,1266,1290,1266,1196,1172,1174,1125,1101,1119,1032,1031,1047,984,940,938,925,943,924,928,936,934,953,1037,965,951,967,1008,977,953,976,962,963,959,969,976,962,947,962,960,970,978,955,977,950,962,963,810,813,822,806,850,1019,1073,1305,1280,1365,1311,1375,1270,1250,1229,1209,1188,1168,1140,1127,1144,1099,1065,1060,1024,1017,983,957,931,921,901,880,847,839,826,822,825,857,821,818,824,824,818,824,829,830,829,832,833,831,832,832,833,836,838,841,836,838,839,837,838,843,836,844,845,1131,1231,1191,1149,1242,1568,1666,2014,1870,1917,1905,1983,1890,1842,1710,1779,1758,1622,1566,1564,1593,1532,1474,1447,1443,1386,1360,1380,1277,1325,1329,1214,1165,1222,1150,1219,1203,1155,1218,1216,1214,1229,1236,1226,1216,1236,1210,1225,1225,1219,1220,1290,1235,1229,1274,1239,1234,1238,1256,1251,1226,1237,1226,1234,1230,0,0,0,0,0,0,0,0,0,0,0,0,0,0,0,0,0,0,0,0,0,0,0,0,0,0,0,0,0,0,0,0,0,0,0,0,0,0,0,0,0,0,0,0,0,0,0,0,0,0,0,0,0,0,0,0,0,0,0,0,0,0,0,0,0,1347,1342,1384,1392,1513,1791,2042,2197,2096,2271,2104,2152,2126,2003,1970,1999,1971,1869,1835,1812,1903,1734,1711,1667,1633,1600,1566,1557,1499,1465,1431,1398,1416,1345,1334,1331,1335,1361,1402,1420,1388,1405,1401,1399,1460,1420,1397,1434,1444,1409,1437,1407,1413,1420,1427,1429,1426,1438,1478,1425,1419,1409,1396,1430,1389,979,981,1007,1013,1150,1370,1548,1731,1819,2021,1905,1867,1759,1724,1690,1655,1620,1602,1590,1564,1526,1453,1416,1413,1342,1337,1274,1261,1223,1156,1135,1110,1066,1034,1025,1059,1036,1044,1087,1088,1075,1097,1130,1122,1100,1093,1112,1138,1116,1126,1128,1118,1092,1093,1104,1130,1131,1101,1128,1159,1110,1098,1127,1097,1096,435,437,438,439,441,474,536,598,659,708,717,706,695,683,654,661,650,639,610,616,588,574,581,570,559,548,551,512,514,503,479,480,469,458,446,442,443,444,439,440,438,449,447,439,442,447,444,448,457,462,537,534,541,479,452,455,453,448,441,450,447,442,442,447,445,770,770,769,775,811,966,1000,1229,1224,1362,1254,1319,1222,1245,1182,1161,1134,1114,1108,1081,1177,1034,1014,994,973,960,940,908,899,873,859,883,818,798,785,782,784,786,774,772,779,797,779,800,782,800,806,786,801,785,786,790,784,789,787,791,792,797,786,786,793,806,798,810,795,1029,1041,1036,1083,1157,1344,1494,1743,1642,1759,1670,1736,1613,1658,1573,1608,1505,1480,1458,1438,1592,1374,1357,1321,1298,1268,1271,1215,1263,1165,1138,1112,1083,1067,1070,1047,1082,1053,1063,1058,1080,1091,1067,1087,1069,1077,1074,1089,1101,1090,1085,1092,1095,1105,1096,1099,1085,1098,1098,1100,1104,1099,1091,1119,1118,864,895,874,959,922,1028,1268,1349,1373,1410,1409,1386,1364,1341,1356,1297,1325,1337,1264,1207,1185,1162,1140,1199,1095,1073,1050,1028,1005,983,961,938,966,943,881,878,880,909,901,900,907,920,913,920,924,937,922,922,932,922,940,946,937,944,919,913,924,925,927,919,922,930,916,929,923,734,736,738,736,731,843,1068,1141,1163,1205,1198,1179,1160,1148,1122,1109,1254,1064,1128,1032,1007,994,969,949,936,916,930,878,822,883,820,801,782,730,716,745,714,744,766,752,762,756,756,751,779,762,747,743,760,756,748,755,754,753,746,758,755,755,760,763,747,760,753,755,751,642,644,615,617,629,681,765,894,931,975,981,966,951,936,921,906,932,916,900,846,831,816,801,787,772,757,742,727,712,758,682,667,652,637,624,620,624,623,616,619,616,622,689,668,662,674,639,709,669,684,662,633,639,664,648,639,683,651,633,664,652,690,669,678,648,1075,1032,1087,1112,1192,1258,1424,1697,1639,1694,1664,1637,1611,1584,1558,1621,1602,1479,1451,1426,1420,1373,1347,1321,1318,1268,1259,1215,1189,1162,1133,1106,1169,1183,1048,1045,1099,1051,1085,1093,1087,1104,1100,1114,1104,1115,1104,1119,1106,1111,1103,1099,1092,1092,1105,1112,1098,1101,1092,1095,1097,1112,1111,1111,1090,969,978,1020,993,1067,1150,1343,1524,1539,1596,1595,1607,1545,1510,1498,1461,1439,1407,1395,1344,1328,1312,1287,1243,1260,1191,1164,1160,1135,1097,1087,1070,1034,1007,1005,987,998,996,1042,1008,1005,1014,1005,1015,1013,1021,1027,1061,1020,1047,1058,1054,1035,1070,1069,1028,1023,1030,1052,1066,1052,1068,1066,1067,1051,903,905,877,883,931,1045,1171,1349,1386,1423,1420,1396,1373,1400,1328,1306,1330,1308,1297,1217,1200,1180,1148,1125,1103,1091,1067,1035,1013,990,968,945,923,901,889,891,888,889,893,900,920,940,958,958,966,920,921,953,909,899,912,916,913,906,937,924,900,900,909,905,899,907,916,937,899,1218,1287,1289,1341,1493,1579,1841,1932,1962,2077,1962,1930,1895,1880,1919,1805,1883,1830,1820,1679,1648,1615,1596,1628,1523,1490,1471,1432,1401,1366,1334,1307,1354,1316,1239,1236,1239,1242,1282,1289,1298,1322,1309,1313,1300,1309,1297,1296,1311,1302,1333,1345,1334,1313,1309,1321,1320,1328,1328,1306,1329,1329,1299,1312,1309,1088,1001,977,991,1056,1231,1335,1623,1552,1691,1579,1555,1587,1544,1518,1569,1427,1452,1377,1353,1383,1303,1276,1251,1249,1200,1256,1150,1124,1099,1072,1045,1023,1087,988,1025,988,1030,1032,1023,1011,1024,1075,1127,1040,1046,1054,1076,1054,1070,1072,1066,1052,1068,1067,1063,1081,1054,1058,1123,1091,1101,1112,1072,1072,1148,1190,1170,1239,1285,1438,1725,1820,1852,1880,1853,1826,1793,1781,1793,1759,1727,1764,1687,1588,1589,1529,1509,1501,1477,1410,1423,1351,1321,1291,1284,1232,1215,1288,1199,1197,1167,1171,1228,1220,1253,1266,1261,1289,1262,1264,1274,1280,1307,1272,1292,1307,1329,1321,1294,1269,1257,1282,1262,1257,1258,1277,1257,1290,1265,1185,1192,1161,1194,1405,1637,1892,1997,2099,2130,2137,2072,2055,1985,1976,1914,1887,1832,1804,1789,1720,1664,1642,1595,1570,1525,1490,1428,1402,1363,1328,1284,1246,1191,1182,1211,1193,1225,1276,1273,1251,1267,1260,1306,1265,1281,1306,1310,1283,1305,1298,1300,1291,1315,1304,1289,1290,1280,1291,1311,1295,1306,1306,1309,1291,787,796,788,799,836,915,1059,1233,1249,1313,1353,1294,1273,1246,1235,1204,1188,1162,1150,1101,1092,1066,1057,1019,1020,975,963,944,930,910,892,898,848,827,821,802,810,815,820,817,829,818,830,840,856,839,821,840,847,843,847,840,843,859,844,841,837,837,835,845,836,837,831,860,855,1311,1278,1333,1394,1571,1634,1818,2081,2033,2066,2043,2047,1965,1946,1913,1956,1835,1803,1770,1739,1726,1724,1642,1621,1612,1545,1530,1480,1448,1426,1417,1347,1320,1354,1287,1285,1339,1292,1367,1365,1359,1365,1378,1373,1383,1381,1378,1388,1386,1382,1381,1389,1399,1409,1395,1404,1388,1397,1396,1396,1395,1419,1378,1389,1375,836,845,838,849,894,981,1162,1315,1358,1392,1393,1370,1348,1319,1307,1300,1258,1231,1217,1167,1157,1130,1142,1080,1080,1034,1021,1020,985,964,946,968,898,894,870,852,859,865,852,859,864,878,899,896,878,905,871,923,892,906,893,883,904,924,902,891,913,897,897,912,905,922,896,901,892,574,575,577,578,611,654,724,782,863,909,917,905,892,879,866,899,827,828,816,803,790,778,765,752,773,706,714,701,666,704,690,625,666,598,586,582,583,584,585,584,593,615,590,599,593,608,603,591,603,588,602,606,610,609,601,599,592,614,599,591,595,616,600,610,595,709,715,711,719,745,812,941,1099,1119,1183,1190,1171,1152,1127,1118,1087,1075,1049,1041,994,987,963,957,920,924,881,871,853,841,823,809,799,766,747,743,724,732,734,709,710,712,714,716,717,717,721,723,733,725,729,726,729,730,731,732,733,735,738,738,739,740,743,743,745,746,759,797,757,785,795,876,972,1061,1168,1172,1172,1161,1144,1130,1132,1078,1083,1062,1052,1045,1024,1004,995,964,953,942,920,894,882,895,871,862,812,792,788,781,765,781,782,782,789,798,805,798,795,792,795,797,821,801,790,808,820,813,882,847,812,804,798,808,794,804,810,800,790,1102,1105,1066,1103,1189,1330,1474,1651,1688,1739,1705,1687,1655,1628,1621,1594,1592,1584,1518,1490,1462,1428,1400,1355,1328,1323,1290,1268,1235,1207,1179,1152,1124,1102,1069,1077,1072,1137,1090,1127,1085,1080,1113,1089,1107,1116,1110,1105,1141,1111,1112,1126,1123,1131,1114,1136,1137,1129,1150,1104,1128,1136,1161,1116,1116,676,653,655,657,675,743,842,941,1021,1110,1073,1056,1039,1015,1004,981,970,953,966,918,901,884,867,850,832,815,798,776,759,747,729,712,691,674,689,660,662,664,647,644,661,748,669,646,667,695,674,661,670,668,669,664,675,671,675,664,669,667,678,685,669,680,672,678,684,750,800,736,726,778,844,936,1111,1163,1203,1173,1168,1149,1152,1112,1099,1122,1102,1052,1023,1005,990,962,948,924,895,877,858,854,831,812,784,778,775,734,744,741,746,738,744,740,758,915,829,783,829,779,908,814,833,825,766,777,818,791,769,859,795,776,832,808,898,829,823,792,1196,1206,1202,1254,1393,1520,1755,1901,1910,1957,1949,1955,1888,1851,1829,1786,1784,1724,1728,1646,1625,1575,1574,1523,1556,1460,1423,1464,1433,1384,1326,1303,1279,1238,1261,1217,1229,1230,1272,1282,1274,1300,1273,1294,1267,1295,1304,1391,1268,1289,1296,1288,1334,1287,1303,1303,1312,1294,1281,1295,1314,1305,1297,1297,1285,1109,1112,1073,1110,1196,1337,1481,1658,1695,1746,1712,1694,1662,1635,1628,1601,1599,1591,1525,1497,1469,1435,1407,1362,1335,1330,1297,1275,1242,1214,1186,1159,1131,1109,1076,1084,1079,1144,1147,1147,1123,1134,1129,1150,1139,1162,1166,1227,1156,1184,1170,1179,1159,1219,1188,1151,1166,1143,1164,1195,1165,1192,1180,1188,1160,1100,1097,1107,1131,1260,1400,1603,1697,1795,1849,1830,1788,1759,1743,1700,1692,1655,1633,1596,1574,1526,1497,1468,1457,1410,1382,1381,1363,1329,1288,1237,1152,1118,1128,1075,1075,1082,1157,1157,1147,1151,1162,1146,1158,1219,1220,1164,1183,1177,1154,1158,1199,1208,1223,1218,1225,1207,1223,1222,1198,1181,1190,1164,1169,1162,1140,1150,1144,1187,1281,1392,1617,1808,1819,1867,1862,1890,1824,1788,1747,1706,1670,1647,1618,1572,1570,1519,1519,1454,1458,1394,1354,1394,1324,1297,1267,1246,1220,1181,1178,1175,1172,1173,1249,1242,1231,1257,1291,1279,1264,1257,1282,1318,1274,1336,1373,1325,1251,1295,1296,1296,1292,1269,1357,1452,1403,1397,1407,1327,1326,907,891,885,899,950,1043,1206,1387,1402,1502,1501,1477,1416,1387,1374,1338,1356,1292,1312,1229,1217,1189,1178,1137,1136,1089,1075,1061,1064,1014,1020,981,945,922,942,900,908,911,924,915,927,919,942,966,925,930,937,945,950,947,948,954,951,955,947,946,932,951,937,961,957,967,963,968,982,1133,1175,1153,1238,1268,1414,1694,1793,1826,1855,1830,1801,1768,1757,1750,1733,1710,1714,1635,1567,1538,1509,1489,1502,1456,1430,1418,1338,1308,1275,1246,1220,1201,1225,1182,1180,1153,1156,1238,1226,1219,1307,1304,1279,1256,1246,1266,1311,1275,1306,1311,1296,1243,1253,1277,1282,1289,1262,1304,1359,1298,1295,1320,1276,1275,1532,1469,1538,1582,1734,1807,2011,2455,2320,2265,2467,2283,2245,2100,2053,2208,2123,2108,1923,1877,1862,1908,1874,1880,1735,1691,1713,1657,1570,1614,1606,1475,1434,1511,1518,1475,1517,1406,1528,1517,1519,1527,1626,1605,1568,1588,1570,1662,1612,1594,1617,1564,1571,1618,1620,1577,1639,1601,1589,1648,1623,1669,1660,1685,1646,0,0,0,0,0,0,0,0,0,0,0,0,0,0,0,0,0,0,0,0,0,0,0,0,0,0,0,0,0,0,0,0,0,0,0,0,0,0,0,0,0,0,0,0,0,0,0,0,0,0,0,0,0,0,0,0,0,0,0,0,0,0,0,0,0,1198,1144,1146,1180,1308,1565,1818,1951,2139,2088,2040,2097,1964,1926,1888,1850,1812,1774,1758,1719,1660,1621,1694,1573,1531,1469,1431,1419,1355,1317,1279,1241,1232,1173,1161,1231,1170,1244,1234,1231,1277,1544,1284,1216,1267,1363,1303,1238,1337,1311,1261,1268,1349,1323,1315,1226,1261,1253,1302,1305,1244,1284,1248,1250,1269,1186,1145,1138,1148,1243,1404,1560,1839,1801,1843,1858,1761,1733,1704,1664,1708,1637,1587,1562,1523,1515,1474,1449,1420,1416,1379,1353,1307,1278,1271,1232,1203,1165,1180,1150,1147,1131,1134,1165,1185,1141,1135,1177,1154,1170,1177,1170,1169,1216,1175,1179,1197,1195,1204,1172,1200,1208,1203,1227,1180,1188,1196,1235,1172,1170,813,821,815,826,866,948,1098,1273,1290,1351,1393,1370,1311,1283,1272,1238,1260,1195,1214,1136,1125,1099,1090,1050,1052,1006,993,981,959,937,944,908,874,851,847,829,837,840,846,852,846,858,860,860,856,873,851,855,858,852,851,863,864,864,862,860,864,856,871,873,855,868,853,863,861,864,895,874,959,922,1028,1268,1349,1373,1410,1409,1386,1364,1341,1356,1297,1325,1337,1264,1207,1185,1162,1140,1199,1095,1073,1050,1028,1005,983,961,938,966,943,881,878,880,909,901,900,907,920,913,920,924,937,922,922,932,922,940,946,937,944,919,913,924,925,927,919,922,930,916,929,923,1486,1500,1625,1700,1810,2241,2348,2399,2478,2505,2527,2428,2389,2344,2369,2309,2262,2180,2164,2146,2081,2091,1992,1936,1975,1918,1919,1753,1798,1707,1663,1587,1551,1524,1596,1510,1519,1621,1643,1696,1644,1669,1689,1675,1689,1698,1671,1687,1706,1663,1680,1694,1696,1695,1710,1718,1694,1682,1718,1660,1679,1701,1726,1688,1672,790,792,795,798,834,924,1048,1170,1257,1294,1295,1274,1266,1232,1212,1191,1170,1150,1129,1108,1087,1067,1046,1025,1005,984,963,943,922,901,880,860,839,819,805,802,804,806,802,800,808,801,818,822,839,820,809,841,843,837,837,828,831,851,831,833,828,830,824,833,832,838,829,851,851,1030,1026,1029,1051,1116,1227,1387,1576,1605,1660,1647,1621,1595,1566,1543,1517,1505,1465,1439,1413,1388,1361,1335,1342,1286,1261,1235,1253,1185,1159,1128,1102,1083,1071,1048,1075,1047,1104,1099,1073,1063,1077,1087,1118,1141,1137,1107,1128,1101,1088,1083,1134,1138,1129,1135,1156,1142,1156,1129,1113,1123,1114,1093,1096,1077,1050,1053,1056,1122,1161,1329,1538,1846,1793,1822,1811,1779,1906,1715,1741,1652,1620,1588,1681,1524,1493,1461,1479,1397,1366,1397,1302,1270,1324,1207,1175,1143,1111,1084,1159,1068,1073,1078,1107,1085,1098,1097,1097,1114,1105,1105,1107,1120,1145,1124,1130,1135,1134,1144,1129,1134,1123,1147,1151,1149,1145,1134,1154,1167,1169,1284,1253,1334,1340,1459,1674,1966,2063,2132,2166,2119,2101,2078,2008,2065,1997,1925,1888,1920,1818,1792,1739,1744,1719,1627,1604,1544,1521,1478,1441,1415,1367,1358,1305,1290,1270,1296,1342,1329,1327,1344,1358,1353,1369,1350,1369,1346,1390,1372,1351,1365,1360,1379,1397,1379,1374,1383,1361,1372,1381,1381,1391,1371,1398,1375,891,893,895,934,960,1097,1271,1432,1530,1563,1557,1529,1502,1474,1446,1419,1391,1426,1403,1308,1280,1349,1225,1198,1170,1191,1115,1087,1059,1032,1004,976,949,922,907,905,910,914,932,924,934,943,944,942,943,946,937,978,952,948,955,950,945,959,950,952,937,954,932,948,942,938,938,947,960,1582,1554,1646,1738,1905,2266,2470,2539,2577,2623,2548,2543,2514,2417,2544,2391,2412,2287,2310,2184,2152,2092,2185,2073,1999,1978,1863,1832,1855,1775,1706,1718,1688,1636,1592,1572,1630,1675,1749,1743,1742,1761,1862,1841,1796,1835,1794,1903,1849,1859,1846,1796,1810,1863,1854,1809,1877,1847,1827,1882,1855,1908,1887,1914,1871,1011,1014,1017,1080,1115,1279,1482,1663,1738,1768,1757,1741,1734,1664,1670,1602,1570,1539,1524,1477,1446,1415,1433,1352,1321,1304,1289,1228,1196,1165,1145,1103,1072,1045,1029,1028,1033,1038,1045,1072,1082,1049,1055,1070,1092,1083,1075,1065,1126,1062,1087,1067,1082,1097,1110,1122,1107,1077,1090,1089,1076,1072,1072,1135,1052,1736,1719,1826,1900,2084,2498,2656,2728,2801,2852,2781,2796,2744,2641,2650,2580,2542,2452,2431,2434,2364,2429,2242,2273,2165,2121,2062,2048,1967,1961,1873,1793,1836,1803,1746,1705,1765,1812,2007,2088,2040,2048,2068,2042,2062,2100,2061,2058,2099,2035,2068,2063,2090,2100,2254,2214,2125,2077,2096,2053,2070,2078,2110,2127,2060,1456,1469,1479,1639,1997,2366,2603,2781,2810,2841,2801,2743,2702,2606,2568,2525,2443,2519,2328,2277,2219,2166,2105,2056,2000,1927,1890,1887,1777,1715,1715,1619,1531,1492,1490,1524,1519,1559,1619,1625,1644,1663,1657,1659,1646,1662,1639,1660,1669,1658,1654,1677,1674,1695,1767,1735,1667,1675,1681,1669,1664,1660,1674,1693,1679,1286,1298,1348,1358,1517,1866,2021,2085,2171,2321,2231,2137,2099,2062,2087,2033,1993,1911,1873,1888,1827,1842,1750,1695,1715,1691,1664,1534,1560,1495,1458,1383,1348,1321,1307,1306,1312,1412,1409,1406,1396,1483,1450,1448,1434,1427,1443,1478,1441,1479,1494,1467,1420,1450,1448,1463,1463,1434,1486,1549,1514,1516,1531,1467,1467,1326,1330,1338,1447,1536,1750,1985,2291,2221,2242,2233,2195,2325,2118,2127,2040,2002,1963,2047,1886,1848,1803,1813,1726,1688,1717,1611,1573,1623,1513,1458,1424,1389,1362,1438,1343,1353,1355,1430,1429,1438,1445,1465,1506,1458,1490,1481,1496,1506,1495,1483,1495,1488,1498,1466,1466,1489,1482,1473,1496,1487,1499,1478,1488,1482,1352,1365,1422,1441,1614,1977,2130,2192,2275,2306,2331,2237,2197,2158,2181,2126,2183,2001,1961,1974,1911,1925,1832,1775,1794,1767,1738,1607,1632,1565,1527,1450,1415,1389,1374,1374,1380,1480,1453,1461,1455,1467,1484,1456,1471,1498,1468,1491,1472,1512,1497,1506,1488,1509,1505,1528,1518,1503,1504,1510,1529,1513,1526,1512,1542,975,978,980,992,1046,1156,1319,1430,1536,1549,1550,1534,1499,1510,1486,1439,1437,1413,1385,1344,1312,1297,1313,1237,1244,1193,1207,1145,1122,1107,1074,1050,1027,1005,992,984,1001,994,992,1006,1007,1049,1044,1031,1021,1035,1017,1017,1032,1038,1024,1061,1044,1035,1038,1050,1050,1029,1007,1068,1030,1061,1035,1068,1038,1275,1318,1335,1344,1468,1735,1990,2066,2152,2185,2212,2119,2081,2045,2070,2060,1975,1895,1858,1872,1852,1799,1708,1681,1711,1678,1576,1521,1476,1483,1446,1403,1337,1310,1288,1295,1301,1336,1373,1353,1353,1356,1387,1429,1379,1402,1398,1426,1421,1440,1449,1437,1405,1448,1410,1404,1414,1405,1430,1504,1486,1512,1490,1461,1460,883,886,889,896,944,1048,1188,1321,1407,1488,1457,1496,1398,1375,1352,1328,1305,1301,1259,1236,1213,1190,1167,1175,1122,1097,1084,1075,1028,1005,982,959,936,914,915,897,900,902,936,900,901,909,897,907,904,909,920,951,911,925,936,935,925,940,957,927,920,921,931,940,923,928,936,943,932,927,929,932,968,1007,1154,1339,1502,1599,1631,1623,1594,1601,1537,1494,1479,1450,1401,1392,1348,1334,1293,1258,1225,1201,1172,1160,1115,1108,1073,1044,1015,986,945,929,942,947,952,951,954,961,963,973,1013,965,982,983,981,1011,981,983,989,985,992,975,981,976,989,973,982,983,1000,983,994,997,1227,1255,1295,1286,1424,1682,1947,2002,2087,2099,2141,2040,2034,1998,1967,1951,1889,1913,1795,1824,1742,1728,1701,1614,1597,1623,1523,1494,1425,1432,1397,1323,1289,1262,1266,1247,1246,1313,1313,1306,1318,1327,1309,1336,1319,1326,1325,1334,1349,1336,1319,1323,1341,1344,1340,1356,1359,1341,1344,1340,1336,1336,1355,1417,1367,1067,1033,1063,1088,1157,1264,1428,1560,1641,1682,1683,1683,1631,1606,1580,1554,1539,1526,1492,1450,1455,1409,1425,1379,1321,1305,1279,1243,1227,1184,1151,1148,1111,1105,1075,1074,1051,1056,1116,1098,1113,1111,1106,1100,1177,1179,1108,1145,1131,1107,1107,1166,1173,1192,1174,1184,1166,1190,1193,1172,1145,1137,1111,1111,1119,1530,1501,1584,1687,1824,2121,2407,2457,2518,2544,2491,2467,2439,2363,2472,2339,2294,2218,2243,2136,2104,2046,2073,2046,1916,1935,1821,1792,1769,1776,1690,1636,1631,1554,1540,1520,1546,1602,1696,1702,1678,1698,1697,1736,1700,1738,1740,1810,1720,1753,1739,1744,1721,1774,1756,1732,1723,1708,1721,1755,1732,1764,1739,1750,1710,934,936,939,975,1014,1161,1346,1509,1606,1638,1630,1601,1608,1544,1501,1486,1457,1408,1399,1355,1341,1300,1265,1232,1208,1179,1167,1122,1115,1080,1051,1022,993,952,936,949,954,959,962,971,985,1011,1024,1032,1034,991,996,1022,978,969,980,986,984,976,1009,997,970,968,978,974,969,978,989,1012,969,325,326,327,328,329,348,394,441,487,531,544,536,527,518,510,501,492,483,475,466,457,449,440,431,422,414,405,396,387,379,370,361,353,344,335,330,331,332,314,317,317,328,317,315,316,324,317,312,316,320,318,315,315,317,317,317,316,320,314,318,315,318,318,317,315,1449,1418,1488,1576,1698,2027,2253,2326,2390,2419,2368,2346,2319,2246,2357,2226,2150,2109,2136,2031,2001,1944,2010,1916,1821,1843,1730,1702,1754,1637,1585,1575,1546,1471,1457,1437,1463,1519,1557,1547,1545,1558,1552,1589,1557,1562,1586,1654,1568,1583,1582,1590,1595,1593,1613,1605,1591,1596,1589,1600,1606,1603,1598,1614,1605,1313,1285,1307,1362,1546,1771,2002,2134,2252,2273,2209,2190,2167,2118,2151,2033,1978,1942,1999,1938,1802,1826,1753,1789,1652,1689,1617,1592,1558,1515,1427,1433,1356,1372,1314,1344,1363,1362,1413,1412,1479,1727,1479,1429,1467,1577,1510,1444,1572,1517,1465,1476,1551,1547,1509,1421,1456,1464,1499,1501,1437,1486,1443,1458,1470,1700,1649,1816,1875,2081,2394,2630,2675,2772,2825,2769,2742,2718,2619,2610,2531,2451,2428,2425,2388,2316,2216,2221,2160,2076,2102,1975,1981,1893,1897,1858,1755,1729,1718,1683,1664,1691,1788,1896,1932,1899,1915,1909,1919,1919,1938,1925,1937,1981,1927,1919,1927,1946,1957,1947,1969,1971,1949,1972,1937,1954,1961,2021,1948,1931,1225,1228,1331,1281,1416,1646,1912,2172,2113,2166,2180,2148,2069,2030,1960,1922,1926,1874,1847,1767,1728,1690,1651,1612,1600,1561,1586,1483,1444,1381,1342,1370,1297,1260,1258,1255,1254,1269,1306,1305,1298,1321,1328,1350,1345,1352,1335,1333,1365,1355,1344,1365,1363,1374,1368,1351,1365,1349,1323,1398,1348,1344,1350,1411,1348,1298,1301,1311,1372,1500,1654,1886,2017,2090,2136,2137,2088,2054,2020,1976,1952,1909,1885,1851,1817,1783,1740,1691,1667,1647,1624,1571,1545,1512,1448,1443,1404,1365,1335,1341,1339,1331,1339,1418,1397,1419,1426,1415,1403,1483,1486,1417,1450,1434,1409,1409,1474,1482,1509,1473,1468,1471,1491,1498,1494,1451,1448,1411,1422,1436,0,0,0,0,0,0,0,0,0,0,0,0,0,0,0,0,0,0,0,0,0,0,0,0,0,0,0,0,0,0,0,0,0,0,0,0,0,0,0,0,0,0,0,0,0,0,0,0,0,0,0,0,0,0,0,0,0,0,0,0,0,0,0,0,0,1066,1069,1052,1141,1182,1324,1532,1780,1787,1846,1804,1773,1878,1709,1764,1646,1642,1609,1649,1519,1487,1456,1474,1416,1361,1392,1297,1266,1256,1223,1171,1139,1107,1080,1065,1064,1089,1074,1128,1127,1115,1202,1177,1172,1158,1151,1161,1202,1158,1192,1204,1176,1133,1162,1159,1173,1179,1142,1184,1245,1206,1205,1218,1169,1167,1257,1273,1296,1353,1540,1768,1928,2059,2157,2167,2152,2176,2162,2099,2035,1965,1910,1935,1908,1816,1832,1739,1745,1706,1730,1609,1629,1648,1496,1441,1416,1390,1344,1292,1290,1356,1351,1351,1367,1368,1376,1398,1388,1392,1382,1389,1375,1375,1392,1382,1413,1425,1414,1395,1391,1403,1398,1407,1407,1387,1412,1410,1381,1402,1394,1486,1500,1625,1700,1810,2241,2348,2399,2478,2505,2527,2428,2389,2344,2369,2309,2262,2180,2164,2146,2081,2091,1992,1936,1975,1918,1919,1753,1798,1707,1663,1587,1551,1524,1596,1510,1519,1621,1643,1696,1644,1669,1689,1675,1689,1698,1671,1687,1706,1663,1680,1694,1696,1695,1710,1718,1694,1682,1718,1660,1679,1701,1726,1688,1672,801,804,806,821,847,937,1065,1185,1271,1308,1308,1301,1266,1259,1223,1204,1183,1162,1153,1124,1104,1079,1062,1048,1017,999,985,954,934,922,892,870,852,833,819,813,815,817,823,812,820,832,825,831,836,846,832,831,846,835,866,860,864,850,828,824,836,835,838,821,830,840,827,839,833,1297,1383,1302,1390,1524,1746,2010,2091,2050,2222,2135,2136,2055,2017,2034,2010,1975,1840,1899,1871,1761,1728,1736,1637,1663,1596,1594,1477,1571,1463,1418,1357,1369,1384,1331,1369,1334,1364,1401,1397,1388,1411,1421,1447,1438,1445,1424,1430,1457,1450,1441,1461,1457,1474,1464,1442,1456,1442,1421,1496,1447,1444,1451,1516,1455,826,822,807,835,921,936,1079,1224,1270,1334,1328,1307,1304,1241,1245,1241,1203,1160,1170,1123,1124,1099,1082,1088,1017,1023,1013,959,938,938,917,876,875,849,833,819,840,843,837,831,840,854,840,843,848,841,838,855,867,869,866,861,860,866,858,863,848,861,854,855,859,852,854,866,875,299,300,301,302,303,317,357,397,438,478,492,484,476,469,461,453,446,438,431,423,415,408,400,392,385,377,370,362,354,347,339,331,324,316,308,304,304,305,310,293,288,292,314,319,303,314,328,335,320,354,343,346,314,317,335,332,355,325,347,410,351,355,356,342,348,547,548,532,514,527,549,628,723,798,845,896,838,868,789,768,763,749,736,761,703,697,684,690,658,663,649,612,605,592,579,580,547,555,541,514,525,526,558,522,539,509,507,524,514,518,523,525,521,553,527,532,532,530,537,522,544,529,536,557,533,540,534,559,523,531,533,534,511,537,544,562,669,747,783,870,877,863,849,797,821,807,793,744,766,718,738,724,710,665,651,669,655,612,598,613,599,559,571,558,545,516,542,543,530,526,539,530,526,536,532,526,532,549,557,550,549,553,552,552,547,549,538,552,549,549,552,545,541,556,572,873,850,816,799,845,929,1039,1208,1271,1332,1385,1320,1355,1224,1216,1203,1182,1161,1178,1093,1099,1078,1075,1036,1016,995,967,936,916,934,888,848,863,828,814,825,827,860,841,815,818,827,888,873,851,877,851,900,868,861,863,831,836,860,850,833,878,840,831,864,852,891,862,861,851,260,261,262,263,264,276,312,349,386,422,436,429,422,415,408,401,394,387,380,373,366,359,352,345,338,332,325,318,311,304,297,290,283,276,269,264,265,266,255,258,255,259,259,264,257,259,256,255,257,257,255,266,259,262,262,265,265,268,273,273,265,272,259,263,263,990,993,983,1000,1047,1151,1334,1476,1557,1589,1644,1591,1560,1473,1441,1454,1429,1403,1404,1335,1327,1302,1304,1236,1215,1204,1155,1124,1102,1169,1065,1022,1018,995,1082,988,979,1028,1027,1012,1017,1012,1045,1090,1030,1053,1055,1075,1068,1082,1077,1080,1055,1088,1053,1050,1061,1053,1057,1115,1087,1104,1082,1081,1096,1514,1488,1498,1681,1739,1895,2100,2247,2387,2398,2457,2398,2394,2181,2137,2192,2154,2034,2143,1986,2008,1979,1951,1814,1862,1744,1699,1678,1683,1634,1571,1516,1506,1502,1475,1544,1472,1560,1552,1591,1562,1571,1600,1590,1573,1591,1587,1602,1610,1585,1591,1600,1612,1621,1624,1629,1611,1619,1631,1634,1643,1651,1665,1658,1647,601,603,605,616,620,680,771,862,946,989,994,992,962,960,930,914,899,883,879,851,835,819,803,798,771,755,750,723,708,701,676,660,644,628,615,611,612,614,617,599,600,607,594,623,602,609,610,618,636,619,618,613,616,630,657,611,610,626,611,625,617,611,622,638,614,569,571,573,574,582,633,714,796,876,924,931,916,902,887,872,858,843,829,814,799,785,770,756,741,727,712,703,683,668,654,639,629,610,595,582,578,579,581,577,584,575,602,582,603,577,608,584,593,591,586,594,591,606,611,605,606,596,599,610,598,606,608,607,621,613,668,670,672,683,694,765,867,969,1057,1098,1101,1097,1065,1061,1030,1013,995,977,972,942,924,907,889,883,854,836,829,801,784,775,748,731,713,695,682,678,680,682,683,672,682,691,690,682,677,695,689,697,694,690,678,679,692,697,731,736,713,706,690,693,685,683,693,686,679,965,967,945,981,1035,1111,1329,1534,1580,1647,1596,1528,1564,1533,1531,1442,1460,1371,1382,1353,1300,1276,1289,1198,1264,1181,1226,1106,1116,1087,1063,1014,1016,1025,982,953,981,983,980,1007,992,1023,994,988,992,1014,1005,1029,990,985,1000,996,1066,1000,1023,996,1021,1014,1014,985,1021,1029,1004,1022,1016,590,591,594,605,607,665,754,842,926,969,973,973,992,941,912,897,881,866,862,835,819,803,788,771,757,741,736,710,695,688,663,648,632,617,603,599,601,603,592,601,602,623,605,615,600,608,598,601,602,598,595,609,608,614,614,614,609,608,618,611,606,611,600,611,603,1157,1150,1119,1177,1294,1428,1662,1827,1814,1911,1855,1853,1821,1798,1804,1723,1715,1603,1649,1609,1554,1525,1487,1459,1448,1404,1379,1293,1320,1291,1235,1204,1207,1193,1157,1166,1170,1171,1221,1225,1214,1302,1267,1269,1254,1244,1254,1291,1252,1283,1284,1287,1231,1254,1254,1273,1274,1239,1275,1323,1282,1274,1288,1258,1257,260,261,262,262,263,274,308,343,378,412,427,421,414,407,401,394,388,381,374,368,361,354,348,341,335,328,321,315,308,302,295,288,282,275,268,264,265,265,253,254,253,258,257,254,254,257,256,258,262,264,291,293,294,273,258,258,262,259,256,264,259,258,258,261,258,543,544,546,555,578,638,688,790,846,883,899,885,871,856,842,827,813,799,784,761,755,741,727,725,698,683,669,655,640,635,611,597,583,568,555,551,553,561,552,577,542,545,553,544,548,556,561,559,583,556,562,562,579,568,556,570,560,568,591,560,576,570,586,557,560,692,694,672,699,718,759,889,959,1004,1088,1093,1076,1060,1006,1053,1036,996,966,984,933,948,930,915,867,850,860,843,796,784,790,773,734,738,735,706,677,704,706,708,705,722,706,712,721,718,712,712,735,733,730,726,728,724,732,724,730,708,725,712,716,717,712,710,718,741,816,818,779,786,801,860,982,1121,1209,1248,1324,1261,1285,1166,1139,1127,1108,1088,1106,1042,1029,1010,1009,971,969,949,906,918,873,877,847,809,810,790,762,773,775,808,766,776,781,799,801,801,792,824,792,820,805,815,828,797,825,871,808,799,817,812,805,807,816,823,799,806,797,253,254,255,255,256,267,301,336,371,405,420,414,407,400,394,387,381,374,367,361,354,347,341,334,328,321,314,308,301,295,288,281,275,268,261,257,258,258,247,243,247,249,249,254,243,253,255,245,248,248,247,250,251,261,255,255,246,258,250,257,257,255,256,262,262,1218,1258,1251,1287,1425,1624,1866,2064,2094,2215,2080,2057,2020,1981,1943,1898,1873,1837,1828,1766,1728,1690,1654,1608,1565,1568,1506,1462,1432,1396,1402,1308,1287,1251,1271,1242,1272,1251,1318,1321,1307,1321,1303,1328,1312,1315,1345,1390,1318,1336,1337,1336,1332,1357,1359,1332,1319,1318,1327,1351,1327,1338,1345,1334,1323,729,731,697,679,707,753,860,984,1073,1114,1194,1132,1149,1041,1016,1007,989,972,992,930,920,902,904,867,868,850,809,798,780,786,759,723,726,708,680,691,693,725,675,672,674,675,701,689,683,689,693,700,707,714,707,703,705,698,729,707,710,714,720,723,713,717,729,735,723,613,615,606,588,597,640,733,816,896,975,1011,949,942,919,883,876,860,845,847,807,799,784,770,754,741,726,702,693,677,649,661,626,623,608,588,591,593,582,569,577,580,600,582,576,576,582,578,575,577,579,579,582,579,583,585,586,586,585,583,585,586,611,610,613,609,973,978,921,961,969,1050,1198,1356,1519,1474,1602,1480,1536,1379,1348,1422,1397,1286,1367,1233,1304,1274,1189,1148,1196,1119,1072,1053,1032,1032,999,957,955,933,905,973,916,949,921,924,940,948,973,945,951,938,943,945,936,930,939,939,943,947,962,952,931,930,931,932,936,944,951,955,935,504,506,507,509,514,562,634,708,783,830,837,824,810,797,783,770,757,743,730,716,703,708,676,663,649,636,623,609,596,582,569,556,542,529,516,512,513,515,499,504,509,516,514,518,506,513,504,533,511,509,517,516,533,550,530,522,529,516,525,527,531,539,516,523,517,1083,1087,1090,1163,1200,1342,1521,1657,1798,1762,1754,1726,1698,1670,1674,1614,1673,1618,1640,1501,1473,1445,1403,1389,1361,1333,1292,1277,1236,1230,1193,1165,1137,1115,1125,1099,1102,1157,1130,1136,1129,1145,1141,1151,1146,1160,1146,1158,1147,1154,1145,1143,1136,1138,1149,1156,1144,1147,1135,1138,1139,1156,1154,1156,1136,1038,1021,1036,1060,1153,1335,1553,1689,1770,1788,1782,1824,1719,1687,1651,1646,1650,1561,1581,1546,1468,1477,1443,1374,1366,1303,1303,1269,1234,1183,1175,1130,1109,1038,1067,1042,1062,1059,1067,1085,1078,1107,1078,1113,1089,1105,1093,1098,1098,1085,1101,1091,1112,1119,1112,1119,1112,1107,1122,1104,1106,1112,1111,1123,1113,0,0,0,0,0,0,0,0,0,0,0,0,0,0,0,0,0,0,0,0,0,0,0,0,0,0,0,0,0,0,0,0,0,0,0,0,0,0,0,0,0,0,0,0,0,0,0,0,0,0,0,0,0,0,0,0,0,0,0,0,0,0,0,0,0,541,543,546,555,549,606,686,759,846,899,900,875,869,846,832,828,814,799,781,768,754,740,725,711,697,676,668,654,641,639,611,596,612,568,555,545,552,571,539,542,545,557,546,555,544,546,560,547,544,546,545,549,545,544,549,553,549,548,547,550,555,564,560,568,559,801,804,806,821,847,937,1065,1185,1271,1308,1308,1301,1266,1259,1223,1204,1183,1162,1153,1124,1104,1079,1062,1048,1017,999,985,954,934,922,892,870,852,833,819,813,815,817,823,812,820,832,825,831,836,846,832,831,846,835,866,860,864,850,828,824,836,835,838,821,830,840,827,839,833,409,411,409,394,395,442,479,534,589,636,644,635,655,615,605,625,613,574,564,554,547,533,545,540,523,516,483,492,462,452,441,432,421,429,404,397,398,398,396,385,394,397,392,423,395,419,415,399,427,403,406,404,404,420,407,403,403,411,403,403,407,411,407,419,407,1119,1105,1109,1136,1293,1492,1634,1735,1745,1787,1852,1750,1767,1776,1711,1695,1639,1678,1618,1597,1531,1466,1491,1396,1402,1372,1324,1315,1301,1263,1210,1187,1164,1149,1119,1163,1134,1145,1153,1152,1166,1193,1161,1185,1159,1166,1161,1170,1192,1182,1175,1192,1191,1206,1188,1197,1181,1195,1199,1191,1196,1202,1173,1210,1204,589,591,593,594,604,660,744,822,969,950,991,944,929,914,949,884,869,854,882,868,809,841,790,775,749,734,719,719,687,714,660,645,644,615,616,612,599,633,605,596,598,601,626,624,634,630,618,640,623,613,624,603,606,618,615,609,623,605,601,617,617,632,623,628,619,300,301,302,303,304,319,359,400,441,480,492,485,477,469,462,454,447,439,431,424,416,408,401,393,385,378,370,362,355,347,339,332,324,317,309,304,305,306,295,307,293,301,311,305,305,308,300,304,303,304,302,296,299,302,301,301,304,301,299,307,297,315,303,305,299,251,252,253,251,254,265,299,395,368,379,393,387,380,374,368,362,356,350,344,337,331,325,319,331,307,301,294,288,282,276,270,264,258,251,245,255,256,256,235,236,238,242,241,239,242,245,238,239,240,241,241,242,245,243,239,240,243,246,247,241,243,249,241,242,242,523,554,523,527,530,581,706,723,801,801,856,843,829,820,845,786,772,757,748,741,718,705,704,717,673,653,645,626,618,582,588,572,561,552,535,533,529,529,537,538,526,571,564,542,548,565,548,561,585,563,562,545,537,545,546,552,544,540,532,537,534,539,549,544,519,550,568,553,564,563,635,697,779,897,904,882,895,895,866,866,837,828,808,793,779,770,762,735,742,706,691,682,667,628,633,600,604,590,575,566,555,560,561,547,540,555,565,548,560,549,565,548,557,557,547,549,552,553,556,555,555,552,550,554,554,550,550,546,560,553,378,379,380,382,383,406,465,519,574,551,630,620,604,594,584,560,564,560,550,539,529,519,509,499,489,479,469,459,449,435,429,419,409,398,388,384,385,386,379,385,380,386,388,388,385,397,380,387,384,383,383,392,392,389,388,388,387,386,397,401,385,392,383,388,386,529,531,533,556,541,590,669,747,825,923,878,940,850,836,902,808,794,780,766,751,737,723,709,695,681,667,653,639,625,611,597,583,569,555,542,538,595,540,539,539,564,571,590,593,590,546,565,583,545,544,546,546,552,559,544,548,546,546,545,547,553,550,555,572,547,1083,1059,1075,1125,1207,1295,1496,1633,1743,1740,1749,1761,1709,1670,1667,1609,1565,1544,1632,1503,1438,1424,1379,1425,1350,1297,1305,1260,1250,1217,1177,1174,1137,1099,1083,1145,1104,1074,1129,1129,1134,1151,1156,1154,1153,1164,1146,1175,1165,1167,1161,1193,1207,1202,1191,1162,1149,1165,1150,1145,1133,1162,1146,1167,1128,208,208,209,210,210,241,248,277,281,335,349,343,338,332,327,321,315,310,304,299,293,288,282,276,271,265,260,254,250,243,239,233,227,222,216,211,211,212,197,195,198,201,196,207,201,211,209,202,212,201,203,201,201,207,202,203,202,204,202,200,202,204,203,210,204,534,536,538,539,555,605,671,763,826,873,879,865,851,837,823,809,795,782,768,754,740,726,712,698,734,671,668,654,629,615,601,587,573,560,547,543,544,545,541,549,545,556,557,553,563,569,542,560,552,547,556,562,557,554,583,565,547,547,559,550,542,550,553,559,547,274,275,276,260,261,292,310,346,383,419,432,425,444,412,405,422,415,384,377,370,363,356,371,364,356,349,322,334,308,301,294,287,280,291,266,262,262,263,255,255,255,256,265,255,259,264,255,274,258,255,262,261,258,259,266,264,266,263,261,264,258,262,263,263,265,790,750,769,798,829,910,993,1106,1212,1259,1331,1212,1193,1206,1199,1168,1182,1132,1139,1085,1039,1044,1034,982,995,943,956,954,885,918,847,864,853,793,762,791,761,865,807,799,797,806,808,806,807,801,809,805,808,801,817,809,814,806,807,816,809,817,802,810,815,821,808,806,802,181,181,182,182,183,189,214,239,263,288,302,297,293,288,283,278,273,269,264,259,254,249,245,240,235,230,225,221,216,211,206,202,197,192,187,184,184,184,171,169,172,174,175,177,170,177,175,171,173,174,173,174,177,184,179,180,172,180,175,180,182,181,182,187,184,946,954,962,979,1053,1200,1275,1422,1544,1550,1583,1514,1504,1501,1500,1445,1392,1372,1401,1347,1321,1293,1264,1205,1243,1167,1165,1133,1102,1097,1075,1005,998,984,971,958,971,1029,980,975,985,974,976,982,989,1004,985,1003,999,1008,1001,1007,1020,1050,1063,1047,1029,1035,1022,1017,1021,1038,1047,1054,1022,512,513,508,516,511,568,670,708,776,775,845,821,802,789,781,756,765,773,728,760,711,697,670,670,644,623,636,617,584,601,576,552,554,552,549,520,514,522,522,522,516,519,546,541,561,547,532,555,539,538,541,526,525,539,534,531,545,527,522,539,534,548,541,538,529,199,199,200,200,201,208,236,264,292,320,334,329,323,318,312,307,302,296,291,286,280,275,270,264,259,254,248,243,238,232,227,222,216,211,205,202,202,203,188,188,188,188,190,193,204,195,194,193,192,192,190,193,189,195,190,190,193,190,190,192,193,193,192,190,192,466,468,469,470,473,541,613,644,728,773,781,769,741,729,735,734,713,701,690,679,645,656,644,609,597,585,573,588,549,565,525,513,501,489,477,473,474,510,472,469,469,477,510,508,493,509,500,519,513,490,504,483,486,503,493,483,507,485,478,500,501,518,504,515,498,463,465,466,467,470,512,577,644,756,760,798,755,743,731,719,706,694,682,670,657,645,633,621,609,596,584,572,560,569,535,523,511,499,486,475,470,471,473,463,467,462,471,473,470,491,487,473,473,471,476,475,467,467,477,472,470,473,475,465,476,468,476,472,478,468,519,520,515,523,518,575,677,715,783,782,852,828,809,796,788,763,772,766,735,753,718,704,677,677,651,630,643,624,591,608,583,559,561,559,542,527,521,529,529,524,527,529,526,525,530,529,529,527,526,527,531,537,538,533,533,530,534,533,537,541,533,541,531,532,536,1336,1335,1330,1416,1530,1717,1902,2051,2117,2148,2235,2065,2053,2082,2050,1932,1956,1908,1832,1818,1766,1732,1718,1684,1633,1599,1613,1533,1509,1488,1434,1394,1353,1357,1385,1377,1367,1348,1434,1437,1409,1427,1424,1467,1434,1451,1461,1529,1443,1486,1473,1483,1452,1518,1482,1443,1440,1436,1459,1489,1488,1513,1487,1488,1453,415,416,417,411,413,451,502,560,664,666,663,664,653,642,632,621,631,600,589,578,587,557,546,545,525,514,521,510,474,471,453,450,439,429,432,421,422,423,403,408,410,424,407,408,407,412,406,403,409,406,406,402,404,408,407,407,404,404,402,403,402,406,404,408,406,152,152,153,153,154,158,178,199,219,239,252,248,245,241,237,233,229,225,221,217,213,209,205,201,197,193,189,185,181,177,173,169,165,161,157,154,154,155,142,140,143,148,144,143,143,144,144,146,144,144,148,155,158,154,152,146,143,149,146,147,143,150,147,150,146,523,525,526,528,525,571,658,735,811,859,864,911,824,823,806,796,782,756,743,729,727,702,699,686,662,648,644,631,607,603,589,576,562,548,535,531,532,526,521,529,536,547,536,544,532,553,530,541,536,527,532,538,540,542,540,537,533,532,545,539,527,532,526,537,529,952,833,836,793,919,983,1233,1280,1234,1513,1446,1250,1230,1329,1189,1168,1312,1210,1293,1189,1214,1047,1040,1146,986,965,945,924,1030,884,942,903,820,920,863,862,846,790,853,841,839,836,871,905,856,870,867,900,881,907,899,901,877,902,876,874,885,869,881,938,909,928,907,900,911,832,874,855,841,882,1014,1151,1240,1311,1363,1373,1338,1317,1295,1273,1278,1230,1208,1244,1230,1130,1121,1158,1064,1044,1056,1012,1029,968,937,925,904,900,879,836,904,847,839,860,862,860,868,873,866,862,879,856,868,863,860,864,879,875,873,875,870,867,867,878,883,861,864,869,873,864,1154,1120,1123,1173,1287,1453,1702,1852,1966,1894,1908,1874,1868,1792,1797,1761,1763,1693,1640,1653,1613,1539,1509,1512,1457,1421,1372,1338,1293,1308,1252,1205,1159,1144,1134,1113,1139,1144,1146,1188,1153,1156,1187,1168,1170,1180,1179,1180,1195,1170,1177,1185,1189,1193,1200,1202,1203,1198,1210,1200,1212,1225,1238,1219,1219,590,510,511,524,529,562,715,708,781,877,834,821,808,795,782,768,784,737,808,716,703,690,691,664,651,637,624,611,598,607,569,559,563,576,537,516,537,519,523,526,530,525,533,529,540,529,537,530,537,532,534,533,540,549,546,554,540,540,542,539,541,540,545,547,537,0,0,0,0,0,0,0,0,0,0,0,0,0,0,0,0,0,0,0,0,0,0,0,0,0,0,0,0,0,0,0,0,0,0,0,0,0,0,0,0,0,0,0,0,0,0,0,0,0,0,0,0,0,0,0,0,0,0,0,0,0,0,0,0,0,409,411,409,394,395,442,479,534,589,636,644,635,655,615,605,625,613,574,564,554,547,533,545,540,523,516,483,492,462,452,441,432,421,429,404,397,398,398,396,385,394,397,392,423,395,419,415,399,427,403,406,404,404,420,407,403,403,411,403,403,407,411,407,419,407,0,0,0,0,0,0,0,0,0,0,0,0,0,0,0,0,0,0,0,0,0,0,0,0,0,0,0,0,0,0,0,0,0,0,0,0,0,0,0,0,0,0,0,0,0,0,0,0,0,0,0,0,0,0,0,0,0,0,0,0,0,0,0,0,0,1258,1256,1239,1282,1375,1565,1890,1979,2016,2085,1977,2014,1980,1979,1961,1873,1847,1843,1764,1696,1664,1698,1561,1614,1631,1515,1438,1454,1408,1367,1362,1342,1394,1336,1305,1351,1256,1339,1356,1338,1344,1344,1374,1421,1366,1390,1391,1413,1413,1429,1438,1428,1396,1440,1398,1391,1404,1398,1421,1493,1473,1501,1478,1444,1451,756,760,765,767,796,879,1007,1102,1193,1246,1259,1240,1239,1221,1155,1135,1131,1094,1075,1059,1040,1015,999,978,962,943,924,903,885,863,856,824,817,788,772,769,773,775,775,772,782,797,797,787,781,783,790,794,823,804,794,816,823,810,860,824,792,802,787,787,779,799,800,798,782,550,592,554,556,606,613,693,773,852,897,944,930,874,900,869,854,817,803,789,775,755,746,732,718,704,689,675,661,647,633,635,621,606,576,563,600,560,562,561,562,564,575,634,622,593,625,602,641,621,609,611,579,585,614,592,578,625,591,577,609,601,637,609,607,592,472,428,486,440,432,476,539,586,663,711,779,767,697,671,730,649,625,640,616,604,610,594,587,572,560,546,526,526,515,507,482,471,485,458,484,479,453,454,434,440,447,467,444,453,441,456,441,449,447,445,441,446,450,457,449,449,448,446,452,449,445,454,438,447,440,738,737,747,750,775,912,971,1123,1171,1218,1206,1185,1177,1157,1146,1172,1133,1074,1052,1034,1018,992,977,962,940,933,902,880,855,845,842,805,789,768,767,749,748,753,776,756,754,762,766,766,822,813,771,801,783,764,775,809,817,823,814,823,816,838,814,798,797,782,768,766,756,369,370,371,373,374,398,451,504,557,603,615,605,595,586,581,571,556,546,537,527,517,507,497,487,478,468,458,448,438,429,419,407,398,388,378,375,376,377,369,362,371,380,377,374,368,368,374,383,386,374,379,410,426,409,409,386,370,384,371,376,365,381,378,387,370,629,648,633,635,695,715,810,905,992,1028,1079,1047,998,1027,994,972,938,916,905,888,866,855,838,822,805,789,772,755,739,722,722,705,688,656,642,675,640,642,648,648,645,659,656,649,656,671,661,660,667,671,748,746,753,700,668,657,664,667,654,661,667,655,657,659,655,300,301,384,385,386,319,362,404,447,488,636,626,616,585,596,585,556,565,555,545,534,524,514,487,477,483,457,463,437,443,341,333,325,388,390,387,388,389,362,362,360,364,364,363,363,380,372,368,368,371,389,395,394,396,369,364,368,370,364,376,368,368,369,369,368,874,881,834,826,945,978,1108,1277,1350,1397,1417,1354,1351,1318,1276,1289,1271,1205,1184,1185,1163,1118,1097,1075,1122,1057,1025,988,990,986,935,946,877,916,895,855,857,858,870,874,868,879,873,873,877,884,881,870,877,877,883,875,878,881,882,884,877,884,876,885,879,894,882,883,877,202,202,203,204,204,212,240,268,296,325,348,342,336,331,318,312,307,301,296,290,285,279,274,269,263,258,252,247,247,242,231,225,220,219,214,210,210,211,196,205,201,203,205,205,204,211,200,208,201,200,203,207,211,213,210,205,201,200,211,207,201,202,201,207,201,680,671,674,676,694,763,863,981,1051,1125,1113,1079,1078,1044,1048,1015,1021,990,972,940,937,905,914,871,853,836,819,814,784,767,749,798,713,706,682,690,681,683,675,670,678,694,678,691,678,685,692,682,685,679,678,684,679,677,682,686,685,686,680,679,686,698,692,700,689,197,198,198,199,200,206,234,262,289,317,332,326,321,316,311,305,300,295,289,284,279,273,268,263,257,252,247,241,236,231,225,220,215,210,204,200,201,201,184,190,187,188,190,190,190,194,187,192,188,188,190,193,195,197,196,194,190,189,198,195,192,192,193,196,193,904,973,938,962,1032,1098,1257,1374,1490,1524,1552,1517,1467,1541,1465,1404,1376,1318,1331,1271,1282,1263,1242,1212,1194,1164,1173,1122,1050,1072,1026,1023,1045,937,985,956,935,981,968,959,973,1003,989,984,984,1000,993,997,1017,1013,1161,1192,1298,1080,1001,985,991,1001,993,975,981,1000,985,1011,991,293,294,295,296,297,312,354,395,436,476,509,501,493,484,458,451,443,435,427,419,412,404,396,388,380,373,365,357,344,336,334,326,318,310,302,298,299,299,294,287,301,289,291,297,291,288,295,300,305,302,302,304,304,304,300,297,292,304,294,301,301,295,291,299,322,1111,1125,1130,1186,1287,1416,1578,1686,1792,1818,1855,1794,1757,1766,1690,1678,1643,1586,1584,1530,1522,1536,1487,1431,1407,1397,1366,1321,1294,1278,1245,1217,1212,1156,1163,1166,1152,1179,1193,1196,1193,1205,1226,1203,1237,1236,1218,1214,1223,1229,1299,1309,1319,1292,1348,1299,1251,1236,1227,1221,1228,1216,1226,1275,1214,751,753,778,763,794,966,989,1102,1188,1246,1234,1276,1196,1176,1215,1129,1111,1092,1072,1053,1033,1015,996,976,957,980,919,899,874,855,885,822,869,813,790,762,764,766,792,793,787,831,824,799,808,823,805,828,863,821,821,810,802,808,804,814,806,800,797,799,797,805,806,807,781,339,340,341,342,343,365,413,462,511,555,593,583,574,564,530,521,512,503,494,484,475,466,457,448,439,430,421,412,403,394,385,376,367,358,349,344,345,346,334,335,335,342,335,339,334,339,335,334,334,333,337,337,339,339,335,338,338,340,340,346,339,347,337,338,338,636,639,641,669,657,722,815,909,995,1038,1068,1093,1054,1017,975,958,943,927,910,894,877,896,843,828,811,795,779,761,746,730,723,697,689,664,650,646,648,650,646,644,662,659,654,677,660,678,677,668,700,672,670,676,674,686,664,662,669,675,666,664,668,675,655,678,677,447,428,429,430,453,473,526,598,649,703,708,694,686,674,677,652,591,580,570,560,549,539,528,518,508,497,487,476,489,479,483,471,460,414,404,459,434,435,420,425,425,425,424,420,430,427,430,429,424,427,423,429,426,431,433,439,426,425,429,433,438,437,430,429,429,758,760,785,770,801,959,996,1109,1195,1253,1241,1283,1203,1183,1222,1136,1118,1099,1079,1060,1040,1022,1003,983,964,987,926,906,881,862,892,829,862,820,797,769,771,773,807,779,791,812,795,799,792,801,799,805,805,793,807,838,856,839,836,808,790,817,800,793,786,820,801,824,795,1499,1473,1514,1587,1834,2011,2183,2302,2366,2466,2401,2350,2333,2325,2250,2174,2176,2173,2065,2022,2004,1959,1910,1916,1844,1796,1832,1721,1718,1709,1584,1540,1533,1526,1530,1482,1480,1511,1643,1639,1610,1628,1637,1680,1641,1657,1674,1741,1657,1698,1690,1696,1670,1720,1693,1658,1654,1655,1666,1698,1690,1717,1693,1701,1656,500,476,503,504,482,522,610,698,728,817,825,812,799,786,734,745,682,670,658,672,634,622,610,598,586,574,562,551,562,550,563,539,510,498,467,507,509,484,491,492,490,490,491,492,499,496,492,495,492,495,499,495,500,496,504,502,496,499,500,499,500,508,499,501,500,305,306,307,308,309,326,369,412,455,496,508,500,492,484,499,491,460,452,444,436,427,419,411,403,395,387,379,371,363,355,364,356,347,323,315,310,311,312,299,304,309,316,310,315,303,311,302,326,307,303,312,310,325,340,320,314,319,309,316,316,320,327,307,312,305,285,286,287,288,289,303,342,382,422,461,475,467,460,452,450,443,430,422,415,407,400,392,385,377,370,362,355,347,339,332,324,315,307,336,327,290,290,291,285,291,284,289,294,297,295,304,295,292,300,297,292,289,291,299,292,291,294,293,288,291,288,293,288,293,284,1129,1191,1185,1089,1167,1306,1600,1838,1800,1839,1760,1817,1858,1631,1701,1670,1742,1619,1489,1558,1566,1580,1470,1324,1429,1387,1359,1246,1230,1183,1182,1149,1108,1163,1223,1158,1188,1177,1165,1161,1179,1188,1182,1188,1177,1210,1187,1202,1191,1183,1198,1199,1198,1197,1205,1216,1192,1207,1197,1189,1193,1211,1212,1213,1182,974,955,934,944,990,1116,1349,1488,1559,1571,1519,1558,1489,1503,1466,1458,1390,1406,1365,1298,1274,1281,1226,1241,1215,1167,1129,1152,1077,1115,1036,1067,1039,1004,973,977,950,987,1001,1006,961,960,1015,994,990,996,993,1011,1058,1006,1026,1038,1042,1019,1021,1031,1034,1054,1089,1037,1020,1045,1097,1047,1017,1352,1353,1376,1498,1656,1944,2176,2192,2263,2299,2265,2248,2195,2221,2211,2065,2031,2041,1996,1949,1916,1833,1828,1760,1716,1736,1656,1614,1547,1525,1492,1454,1414,1360,1410,1373,1388,1367,1456,1441,1481,1484,1489,1524,1473,1483,1496,1524,1539,1512,1517,1558,1574,1551,1519,1505,1482,1516,1486,1490,1487,1512,1482,1514,1509,808,789,856,799,933,923,1038,1200,1268,1264,1334,1282,1245,1225,1221,1174,1200,1138,1118,1121,1113,1098,1077,988,1012,975,959,939,931,1009,897,871,857,857,802,826,800,834,818,823,822,860,830,822,829,847,835,845,846,841,839,832,825,833,840,843,830,844,825,837,828,859,862,862,852,290,291,292,292,293,309,350,391,432,472,484,476,469,461,477,469,438,430,422,415,407,399,391,384,376,368,361,353,345,337,347,339,331,307,299,294,295,296,308,279,279,280,323,303,294,282,284,289,324,312,322,319,333,304,325,301,305,339,355,316,292,299,334,317,288,0,0,0,0,0,0,0,0,0,0,0,0,0,0,0,0,0,0,0,0,0,0,0,0,0,0,0,0,0,0,0,0,0,0,0,0,0,0,0,0,0,0,0,0,0,0,0,0,0,0,0,0,0,0,0,0,0,0,0,0,0,0,0,0,0 ]);
