n = 10;
D = [116,102,92,199,93,199,247,159,238,92 ];
q = 0;
prec = array2d(1..0,1..2,[]);
steps = 64;
l = 360;
r = 0;
which = [];
interval = array2d(1..0,1..2,[]);
T = array3d(1..11,1..11,0..64,[0,0,0,0,0,0,0,0,0,0,0,0,0,0,0,0,0,0,0,0,0,0,0,0,0,0,0,0,0,0,0,0,0,0,0,0,0,0,0,0,0,0,0,0,0,0,0,0,0,0,0,0,0,0,0,0,0,0,0,0,0,0,0,0,0,534,533,535,545,550,624,993,1095,1230,1261,1300,1265,1220,1198,1179,1158,1173,1118,1100,1127,1059,1085,1020,1040,976,1002,974,958,875,716,827,715,585,553,550,530,543,519,491,487,488,491,495,495,496,489,498,497,499,497,519,513,531,498,495,520,502,524,494,501,527,501,501,501,501,458,459,461,463,471,530,839,960,1037,1126,1138,1120,1084,1083,1065,1047,1029,1011,993,974,956,938,920,902,884,865,847,813,811,793,641,522,521,480,469,490,467,468,443,434,436,439,439,437,443,444,446,440,452,442,457,461,458,455,447,449,447,461,451,466,450,456,456,456,456,458,493,469,462,477,662,835,926,1016,1087,1072,1051,1034,1020,1004,1037,973,1018,994,930,984,1019,922,867,888,853,879,748,738,780,542,521,618,568,444,507,507,499,464,474,471,476,488,475,480,479,473,475,477,481,486,494,499,494,493,494,486,487,485,475,476,473,473,473,473,545,547,548,549,580,778,1020,1131,1229,1293,1293,1275,1266,1248,1233,1214,1200,1181,1164,1129,1110,1089,1069,1050,1029,1010,990,970,952,931,823,803,674,612,557,568,556,549,500,506,502,511,518,520,509,514,508,516,513,508,520,528,522,521,516,516,518,514,525,517,518,529,527,528,528,890,882,878,884,970,1340,1764,1963,2078,2169,2135,2102,2066,2011,2002,1959,1932,1892,1843,1827,1780,1745,1730,1674,1655,1603,1453,1403,1175,1206,1030,1031,912,903,884,896,889,883,872,869,868,873,872,876,874,879,871,879,876,874,878,880,880,877,878,880,880,878,877,877,877,880,876,876,876,975,977,995,971,1031,1598,1956,2191,2295,2308,2345,2312,2279,2239,2196,2156,2133,2096,2045,2006,1980,1944,1902,1873,1832,1790,1756,1432,1249,1174,1150,1053,1023,1008,994,990,1001,1010,971,961,975,977,978,970,975,977,974,979,977,974,976,978,979,980,980,979,977,977,977,977,976,979,974,974,974,555,555,565,567,575,661,1040,1147,1285,1315,1353,1316,1270,1249,1228,1207,1221,1165,1147,1172,1105,1128,1063,1081,1017,1043,1014,997,912,755,864,752,600,575,572,552,565,519,491,487,488,491,495,495,496,489,498,497,499,497,519,513,531,498,495,520,502,524,494,501,527,501,501,501,501,234,235,236,236,237,368,424,474,524,572,585,577,567,558,548,540,530,520,511,525,493,483,474,464,456,466,436,427,418,409,399,390,381,372,316,238,238,300,229,216,218,219,217,222,219,223,219,224,222,218,219,220,219,219,223,221,221,220,220,221,219,222,221,223,222,521,532,522,528,525,581,941,1092,1199,1230,1242,1236,1190,1172,1152,1129,1144,1092,1072,1100,1037,1059,1019,1021,975,979,961,936,874,794,845,777,565,571,531,511,538,519,491,487,488,491,495,495,498,489,498,498,506,497,519,513,531,498,495,520,505,524,494,501,527,501,501,501,501,0,0,0,0,0,0,0,0,0,0,0,0,0,0,0,0,0,0,0,0,0,0,0,0,0,0,0,0,0,0,0,0,0,0,0,0,0,0,0,0,0,0,0,0,0,0,0,0,0,0,0,0,0,0,0,0,0,0,0,0,0,0,0,0,0,527,539,540,556,565,829,1032,1135,1228,1275,1282,1262,1242,1232,1205,1201,1162,1151,1122,1110,1060,1078,1055,1010,988,968,987,916,948,890,671,584,622,551,552,549,560,530,496,496,496,496,496,496,496,496,496,496,496,496,496,496,496,496,496,496,496,496,496,496,496,496,496,496,496,0,0,0,0,0,0,0,0,0,0,0,0,0,0,0,0,0,0,0,0,0,0,0,0,0,0,0,0,0,0,0,0,0,0,0,0,0,0,0,0,0,0,0,0,0,0,0,0,0,0,0,0,0,0,0,0,0,0,0,0,0,0,0,0,0,614,618,620,622,629,751,1127,1277,1427,1493,1483,1476,1452,1412,1388,1365,1357,1320,1309,1280,1266,1240,1219,1197,1148,1148,1113,860,847,756,908,731,668,639,628,626,616,620,566,566,566,566,566,566,566,566,566,566,566,566,566,566,566,566,566,566,566,566,566,566,566,566,566,566,566,200,198,199,214,214,312,325,402,423,486,456,470,463,434,427,420,433,427,440,412,405,416,408,400,354,369,339,356,348,316,343,336,327,313,306,215,215,216,172,172,172,172,172,172,172,172,172,172,172,172,172,172,172,172,172,172,172,172,172,172,172,172,172,172,172,397,399,400,400,403,636,696,758,818,866,879,868,856,848,834,823,811,802,788,777,765,754,742,732,720,709,697,686,675,663,652,640,630,501,417,402,403,404,372,372,372,372,372,372,372,372,372,372,372,372,372,372,372,372,372,372,372,372,372,372,372,372,372,372,372,1372,1372,1386,1501,1932,2650,3016,3144,3224,3233,3207,3159,3102,3070,3000,2970,2915,2851,2672,2312,2000,2080,1831,1765,1738,1663,1629,1576,1637,1539,1468,1449,1426,1416,1392,1389,1392,1381,1343,1343,1343,1343,1343,1343,1343,1343,1343,1343,1343,1343,1343,1343,1343,1343,1343,1343,1343,1343,1343,1343,1343,1343,1343,1343,1343,1501,1504,1497,1585,1916,2869,3286,3417,3494,3502,3421,3411,3349,3315,3258,3216,3154,3101,2982,2622,2262,1950,1919,1865,1840,1748,1796,1753,1741,1651,1614,1578,1563,1535,1528,1522,1534,1499,1457,1457,1457,1457,1457,1457,1457,1457,1457,1457,1457,1457,1457,1457,1457,1457,1457,1457,1457,1457,1457,1457,1457,1457,1457,1457,1457,22,34,34,34,34,34,39,44,48,52,57,56,55,55,54,52,51,51,50,49,48,48,46,45,44,43,43,42,40,39,39,38,37,36,36,34,34,34,0,0,0,0,0,0,0,0,0,0,0,0,0,0,0,0,0,0,0,0,0,0,0,0,0,0,0,477,479,472,481,476,699,893,992,1048,1111,1100,1084,1085,1057,1051,1057,1041,1005,996,983,934,965,931,867,880,832,851,811,831,789,689,506,546,499,488,499,487,441,399,399,399,399,399,399,399,399,399,399,399,399,399,399,399,399,399,399,399,399,399,399,399,399,399,399,399,45,45,45,45,69,69,78,87,96,104,111,110,108,106,105,103,102,99,98,96,94,93,91,90,87,86,84,82,81,79,78,75,74,73,70,69,69,69,23,23,23,23,23,24,23,23,24,23,23,23,23,23,23,23,24,23,23,23,23,23,23,24,24,24,24,527,539,540,556,565,829,1032,1135,1228,1275,1282,1262,1242,1232,1205,1201,1162,1151,1122,1110,1060,1078,1055,1010,988,968,987,916,948,890,671,584,622,551,552,549,560,530,496,496,496,496,496,496,496,496,496,496,496,496,496,496,496,496,496,496,496,496,496,496,496,496,496,496,496,483,485,487,489,491,623,919,1022,1142,1193,1199,1179,1160,1140,1120,1102,1083,1062,1044,1024,1011,992,973,954,935,916,897,878,857,834,728,608,593,505,500,491,493,477,454,457,458,463,459,464,457,463,456,457,461,462,455,461,462,463,463,469,467,465,467,468,464,470,458,467,463,580,584,584,585,600,989,1092,1218,1262,1330,1353,1334,1322,1283,1288,1224,1228,1212,1196,1194,1184,1161,1152,1099,1102,1073,1065,1022,1006,1013,976,935,644,612,608,602,590,568,558,553,563,566,554,570,556,567,561,566,575,567,558,562,564,576,563,568,575,574,566,569,562,572,575,568,559,0,0,0,0,0,0,0,0,0,0,0,0,0,0,0,0,0,0,0,0,0,0,0,0,0,0,0,0,0,0,0,0,0,0,0,0,0,0,0,0,0,0,0,0,0,0,0,0,0,0,0,0,0,0,0,0,0,0,0,0,0,0,0,0,0,419,420,421,422,425,675,745,794,858,908,921,909,897,886,874,862,850,838,826,814,822,808,795,782,770,757,744,732,718,705,692,709,444,436,428,424,425,483,425,430,424,432,424,427,426,444,429,428,430,428,433,426,425,430,431,430,427,432,424,429,423,430,429,428,420,699,712,702,703,716,1214,1375,1517,1618,1677,1661,1653,1611,1608,1560,1534,1524,1492,1489,1432,1407,1381,1356,1330,1304,1307,1253,1253,1182,1158,945,752,749,718,707,704,708,700,687,684,688,688,692,681,688,690,691,696,700,696,700,696,697,700,704,701,697,697,698,696,703,703,697,707,696,1217,1196,1199,1290,1646,2456,2826,2984,3038,3072,3058,3008,2962,2893,2846,2805,2759,2714,2667,2600,2566,2521,2458,2380,2199,2027,1941,1723,1668,1356,1316,1281,1243,1200,1200,1224,1212,1235,1273,1275,1277,1283,1283,1291,1289,1288,1290,1283,1289,1287,1285,1285,1290,1297,1294,1299,1285,1289,1291,1288,1293,1287,1288,1294,1288,1103,1106,1092,1164,1865,2454,2743,2905,3055,2998,2997,2937,2878,2809,2767,2694,2642,2575,2529,2464,2431,2346,2286,2218,2175,2108,2017,1822,1788,1584,1224,1187,1152,1108,1104,1167,1124,1144,1200,1208,1180,1194,1197,1211,1204,1225,1204,1212,1222,1208,1228,1233,1227,1388,1229,1223,1236,1219,1233,1221,1219,1232,1297,1300,1212,601,605,605,610,621,1031,1140,1273,1317,1384,1406,1385,1372,1334,1337,1272,1275,1259,1241,1240,1228,1204,1194,1141,1143,1114,1104,1061,1043,1050,1003,957,649,633,629,624,612,568,558,553,563,566,554,570,556,567,561,566,575,567,558,562,564,576,563,568,575,574,566,569,562,572,575,568,559,573,566,564,556,570,871,1078,1209,1312,1383,1362,1365,1343,1320,1276,1275,1268,1241,1218,1186,1164,1110,1088,1095,1045,1035,1014,991,916,877,665,649,598,567,563,576,580,515,506,509,515,516,512,522,514,521,515,514,516,510,516,513,514,533,513,516,514,516,516,516,511,525,509,519,510,567,574,578,585,577,964,1068,1203,1259,1298,1351,1288,1320,1255,1260,1196,1203,1186,1170,1170,1178,1153,1150,1074,1101,1050,1059,1022,985,1000,975,925,605,611,586,580,582,568,558,553,563,566,554,570,558,567,561,567,575,567,558,562,564,576,563,568,575,574,566,569,562,572,575,568,559,483,485,487,489,491,623,919,1022,1142,1193,1199,1179,1160,1140,1120,1102,1083,1062,1044,1024,1011,992,973,954,935,916,897,878,857,834,728,608,593,505,500,491,493,477,454,457,458,463,459,464,457,463,456,457,461,462,455,461,462,463,463,469,467,465,467,468,464,470,458,467,463,450,434,446,453,520,535,810,907,977,1037,1041,1025,1009,993,981,966,964,958,933,917,900,883,867,851,836,835,796,785,762,745,556,550,468,466,457,455,446,468,421,421,425,422,417,425,418,426,429,415,430,419,420,418,434,461,446,426,439,429,425,425,430,426,419,426,424,212,212,213,219,214,246,378,423,472,517,531,523,516,506,510,489,481,475,464,454,450,438,429,421,412,415,396,387,379,370,363,351,256,250,244,215,216,216,182,182,182,185,209,211,197,206,198,212,201,194,205,189,190,205,197,188,214,189,187,211,201,214,205,202,198,427,428,429,431,436,694,784,885,960,1030,1042,1027,1010,993,978,961,945,928,899,896,886,864,848,831,798,799,783,766,739,734,718,692,487,446,442,433,434,436,409,401,409,412,409,414,410,414,410,413,414,409,409,410,412,415,415,415,413,411,413,412,411,431,408,408,408,0,0,0,0,0,0,0,0,0,0,0,0,0,0,0,0,0,0,0,0,0,0,0,0,0,0,0,0,0,0,0,0,0,0,0,0,0,0,0,0,0,0,0,0,0,0,0,0,0,0,0,0,0,0,0,0,0,0,0,0,0,0,0,0,0,418,419,425,430,435,607,774,795,885,932,940,927,915,902,890,877,865,852,840,826,814,777,784,758,763,751,738,754,733,628,614,698,670,497,485,432,434,424,415,412,412,416,418,427,424,427,423,425,431,426,424,420,421,433,427,421,428,421,417,426,429,432,427,428,425,1291,1268,1291,1414,1462,2106,2781,2948,3006,3009,2981,2932,2886,2839,2800,2756,2727,2679,2635,2453,2289,2117,2103,2064,1926,1720,1678,1579,1429,1449,1392,1359,1321,1308,1311,1296,1284,1327,1260,1265,1262,1270,1274,1276,1271,1276,1275,1271,1276,1277,1269,1277,1277,1274,1278,1279,1281,1284,1281,1274,1281,1279,1280,1281,1279,1387,1388,1403,1480,1748,2433,3077,3167,3306,3298,3271,3170,3121,3122,3054,3020,2962,2892,2876,2622,2265,2094,2025,2006,1785,1810,1664,1624,1582,1536,1491,1448,1452,1413,1412,1400,1417,1428,1382,1393,1402,1400,1387,1400,1395,1400,1407,1392,1399,1395,1398,1397,1410,1404,1402,1403,1407,1406,1402,1401,1409,1400,1394,1400,1398,233,234,235,253,236,249,417,465,524,572,585,577,569,558,560,538,532,523,511,501,496,483,474,464,454,457,436,427,417,409,400,389,292,284,278,237,237,238,182,182,182,185,209,211,197,206,198,212,201,194,205,189,190,205,197,188,214,189,187,211,201,214,205,202,198,399,375,378,415,441,506,675,763,831,871,877,864,850,860,846,812,834,820,771,758,758,732,717,738,723,718,706,643,658,627,559,547,414,394,445,391,381,420,320,320,320,320,324,324,326,324,324,326,323,325,326,328,328,323,324,328,329,336,332,324,332,323,324,325,323,212,212,213,207,214,246,378,422,470,513,529,520,512,504,478,487,478,470,462,453,445,436,428,420,411,390,394,386,378,348,340,351,256,212,208,215,239,240,182,182,182,185,209,211,197,208,198,212,202,201,205,189,190,205,197,188,214,192,187,211,201,214,205,202,198,450,434,446,453,520,535,810,907,977,1037,1041,1025,1009,993,981,966,964,958,933,917,900,883,867,851,836,835,796,785,762,745,556,550,468,466,457,455,446,468,421,421,425,422,417,425,418,426,429,415,430,419,420,418,434,461,446,426,439,429,425,425,430,426,419,426,424,544,554,536,537,552,913,1027,1147,1220,1276,1250,1262,1212,1192,1203,1184,1164,1144,1124,1105,1086,1081,1020,1026,1021,1000,967,971,927,908,908,668,656,552,543,527,556,558,533,521,526,531,525,542,529,546,536,533,548,527,533,532,538,544,539,534,537,534,537,535,536,540,532,544,533,365,366,367,368,370,621,651,711,771,816,823,812,801,790,776,768,754,742,735,723,712,702,691,679,703,652,678,634,624,608,556,546,534,379,372,369,370,360,340,344,343,347,349,344,364,350,343,350,348,344,350,373,371,351,378,375,341,341,345,345,339,347,347,352,344,825,841,849,867,868,1396,1674,1865,1966,1964,1995,1917,1932,1893,1863,1795,1772,1780,1739,1723,1692,1625,1587,1599,1567,1497,1425,1391,1263,1265,1138,911,886,876,840,843,859,837,821,814,818,820,816,830,822,847,830,822,842,819,822,821,820,826,822,821,822,825,821,819,820,824,822,829,822,441,440,444,490,485,619,826,956,1000,1003,1056,1034,1046,1011,992,1000,985,969,955,921,897,877,876,880,846,830,816,781,826,775,720,459,597,455,449,447,428,428,438,437,436,456,456,444,457,450,445,459,459,451,454,448,442,448,447,453,450,443,441,448,448,449,453,453,443,0,0,0,0,0,0,0,0,0,0,0,0,0,0,0,0,0,0,0,0,0,0,0,0,0,0,0,0,0,0,0,0,0,0,0,0,0,0,0,0,0,0,0,0,0,0,0,0,0,0,0,0,0,0,0,0,0,0,0,0,0,0,0,0,0,1365,1378,1377,1448,1567,2578,3033,3158,3208,3223,3188,3146,3091,3049,2991,2943,2896,2843,2734,2600,2460,2295,2260,1946,1893,1680,1650,1624,1528,1584,1472,1430,1415,1395,1391,1384,1383,1382,1370,1355,1370,1370,1369,1380,1377,1399,1376,1372,1380,1369,1375,1373,1371,1382,1377,1376,1373,1377,1373,1369,1369,1373,1371,1378,1371,1497,1529,1499,1568,1748,2988,3320,3399,3516,3503,3460,3405,3356,3304,3228,3188,3132,3044,2982,2641,2454,2442,2114,2065,1868,1836,1775,1780,1701,1732,1626,1566,1563,1525,1527,1503,1534,1518,1498,1491,1499,1496,1498,1513,1505,1520,1514,1506,1515,1499,1505,1503,1505,1510,1506,1511,1506,1508,1506,1503,1506,1510,1507,1515,1505,390,388,391,395,400,660,695,759,825,871,877,865,853,841,826,817,802,790,782,770,758,746,734,722,732,695,706,674,663,647,422,414,406,409,400,399,400,360,340,344,343,347,349,344,364,350,343,350,348,344,350,373,371,351,378,375,341,341,345,345,339,347,347,352,344,412,413,414,415,418,526,760,847,916,968,974,962,949,938,924,910,904,885,872,859,840,834,820,808,784,770,740,741,712,698,685,523,515,486,420,417,418,414,402,407,408,411,408,421,410,431,408,413,412,407,410,412,412,419,416,414,412,412,411,410,410,413,410,417,412,344,344,345,346,348,583,607,662,716,760,769,758,748,738,726,717,705,694,687,678,667,657,646,637,667,651,645,596,586,576,556,544,534,449,350,348,348,349,340,344,343,347,349,344,387,350,343,350,348,344,350,385,389,351,386,389,341,341,345,345,339,347,347,352,344,544,554,536,537,552,913,1027,1147,1220,1276,1250,1262,1212,1192,1203,1184,1164,1144,1124,1105,1086,1081,1020,1026,1021,1000,967,971,927,908,908,668,656,552,543,527,556,558,533,521,526,531,525,542,529,546,536,533,548,527,533,532,538,544,539,534,537,534,537,535,536,540,532,544,533,852,861,858,867,886,1578,1720,1933,2017,2078,2084,2021,1996,1948,1949,1918,1853,1824,1828,1794,1753,1708,1696,1656,1626,1591,1557,1433,1205,1273,961,939,897,881,876,854,835,815,771,775,773,778,799,801,805,823,808,817,817,814,798,787,786,804,793,792,804,801,787,796,791,840,792,800,783,1289,1294,1298,1337,1626,2623,2795,2961,3038,3055,3039,2989,2950,2887,2837,2804,2737,2715,2688,2637,2572,2490,2202,2095,1959,1864,1827,1658,1516,1424,1409,1392,1332,1329,1317,1272,1224,1238,1192,1198,1203,1204,1228,1230,1231,1251,1236,1245,1245,1242,1226,1215,1214,1232,1221,1220,1232,1229,1215,1224,1219,1255,1220,1228,1211,1205,1200,1221,1249,1580,2446,2649,2798,2892,2904,2889,2843,2803,2745,2700,2674,2609,2578,2522,2489,2431,2385,2349,2294,2252,2136,1776,1741,1550,1352,1336,1313,1251,1230,1217,1231,1211,1188,1147,1157,1153,1156,1187,1184,1186,1209,1197,1202,1203,1201,1182,1172,1173,1193,1177,1172,1185,1184,1170,1179,1179,1224,1176,1184,1167,1236,1233,1231,1291,1532,2456,2599,2792,2881,2911,2904,2830,2811,2748,2714,2701,2635,2613,2548,2517,2469,2399,2345,2188,1876,1802,1771,1430,1572,1363,1378,1303,1278,1238,1257,1241,1246,1231,1187,1196,1190,1200,1221,1224,1222,1244,1229,1241,1236,1237,1222,1211,1210,1228,1217,1216,1227,1222,1207,1215,1214,1269,1217,1225,1208,1245,1242,1239,1275,1395,2464,2644,2830,2909,2938,2917,2871,2820,2751,2717,2681,2643,2609,2564,2516,2468,2408,2350,2291,2102,2144,1838,1719,1406,1361,1343,1338,1276,1251,1249,1234,1205,1218,1173,1179,1178,1185,1209,1211,1212,1232,1217,1226,1226,1223,1207,1196,1195,1213,1202,1201,1213,1210,1196,1205,1200,1236,1201,1209,1192,0,0,0,0,0,0,0,0,0,0,0,0,0,0,0,0,0,0,0,0,0,0,0,0,0,0,0,0,0,0,0,0,0,0,0,0,0,0,0,0,0,0,0,0,0,0,0,0,0,0,0,0,0,0,0,0,0,0,0,0,0,0,0,0,0,317,308,310,363,312,499,582,632,691,747,765,747,759,723,717,700,688,676,664,657,640,628,621,604,597,585,570,576,546,534,522,510,498,486,316,312,313,314,308,313,310,310,314,312,314,348,309,314,309,311,313,433,437,316,317,314,313,312,352,352,312,315,313,315,315,1311,1315,1321,1364,1674,2678,2848,3012,3089,3104,3087,3036,2997,2934,2882,2850,2781,2758,2730,2678,2570,2415,2055,2022,1984,1889,1831,1655,1539,1447,1431,1420,1354,1352,1339,1272,1224,1238,1192,1198,1203,1204,1228,1230,1231,1251,1236,1245,1245,1242,1226,1215,1214,1232,1221,1220,1232,1229,1215,1224,1219,1255,1220,1228,1211,921,922,912,929,947,1730,1901,2084,2172,2211,2206,2174,2147,2102,2061,2053,1989,1971,1957,1926,1876,1844,1804,1757,1741,1704,1606,1465,1285,1099,1088,989,952,944,927,923,910,895,851,854,851,858,883,883,890,907,892,901,901,898,882,871,870,888,877,876,888,885,871,880,875,924,876,884,867,1277,1274,1276,1313,1593,2616,2765,2934,3011,3027,3012,2962,2922,2861,2811,2793,2732,2693,2664,2614,2560,2509,2201,2132,1997,1842,1784,1624,1590,1402,1390,1370,1315,1308,1296,1272,1224,1238,1192,1198,1203,1204,1228,1230,1231,1251,1236,1245,1245,1242,1226,1215,1214,1232,1221,1220,1232,1229,1215,1224,1219,1255,1220,1228,1211,852,861,858,867,886,1578,1720,1933,2017,2078,2084,2021,1996,1948,1949,1918,1853,1824,1828,1794,1753,1708,1696,1656,1626,1591,1557,1433,1205,1273,961,939,897,881,876,854,835,815,771,775,773,778,799,801,805,823,808,817,817,814,798,787,786,804,793,792,804,801,787,796,791,840,792,800,783,1011,1007,1017,1026,1173,1766,2136,2292,2395,2449,2396,2361,2316,2312,2275,2206,2181,2164,2126,2079,2051,1992,1969,1902,1891,1854,1793,1487,1225,1176,1310,1067,1039,1059,1023,1019,975,933,938,945,937,952,961,964,953,965,948,955,963,949,945,965,974,957,955,958,957,950,969,971,948,971,948,943,941,1437,1447,1471,1561,1963,2824,3214,3318,3372,3423,3360,3296,3255,3200,3162,3092,3067,3036,2966,2749,2667,2399,2039,1834,1865,1761,1700,1675,1630,1643,1632,1518,1501,1499,1444,1390,1395,1359,1358,1366,1369,1382,1388,1390,1381,1393,1376,1383,1391,1377,1373,1393,1402,1385,1383,1386,1385,1378,1397,1399,1376,1399,1376,1371,1369,1174,1176,1200,1267,1855,2587,2940,3152,3221,3252,3212,3170,3092,3061,2971,2900,2847,2782,2713,2650,2606,2576,2463,2422,2338,2136,1855,1715,1596,1352,1574,1268,1283,1204,1193,1243,1256,1210,1314,1324,1288,1296,1320,1313,1318,1327,1323,1330,1338,1326,1330,1345,1345,1346,1329,1339,1339,1331,1349,1350,1334,1355,1332,1327,1325,1387,1378,1391,1473,1755,2690,3034,3162,3228,3271,3209,3177,3117,3077,3058,2990,2967,2886,2849,2795,2491,2131,1771,1725,1756,1756,1637,1679,1605,1550,1531,1436,1410,1453,1406,1397,1386,1350,1354,1361,1360,1374,1383,1385,1372,1386,1369,1378,1381,1373,1369,1389,1398,1381,1379,1381,1379,1371,1389,1390,1373,1396,1373,1368,1366,1392,1380,1407,1501,1848,2643,3074,3177,3255,3306,3243,3180,3119,3080,3038,2998,2955,2900,2848,2787,2741,2468,2230,2173,2044,1684,1623,1608,1570,1528,1547,1436,1438,1419,1397,1371,1376,1336,1339,1347,1349,1363,1369,1371,1362,1374,1357,1364,1372,1358,1354,1374,1383,1366,1364,1367,1366,1359,1378,1380,1357,1380,1357,1352,1350,220,220,221,222,223,350,397,444,490,536,554,544,536,526,518,511,500,492,482,474,465,456,447,438,429,421,411,403,393,385,376,367,358,349,227,223,224,224,215,217,219,228,224,220,219,229,218,227,228,260,260,266,262,267,223,221,228,227,224,219,224,228,220,221,220,0,0,0,0,0,0,0,0,0,0,0,0,0,0,0,0,0,0,0,0,0,0,0,0,0,0,0,0,0,0,0,0,0,0,0,0,0,0,0,0,0,0,0,0,0,0,0,0,0,0,0,0,0,0,0,0,0,0,0,0,0,0,0,0,0,1462,1470,1494,1605,1928,2878,3265,3369,3421,3471,3407,3343,3302,3245,3208,3136,3109,3078,3007,2747,2612,2252,1892,1868,1868,1785,1739,1698,1652,1666,1654,1540,1524,1521,1444,1390,1395,1359,1358,1366,1369,1382,1388,1390,1381,1393,1376,1383,1391,1377,1373,1393,1402,1385,1383,1386,1385,1378,1397,1399,1376,1399,1376,1371,1369,1072,1061,1076,1099,1290,1940,2335,2457,2528,2594,2553,2516,2469,2424,2410,2342,2321,2295,2257,2194,2169,2106,2066,2026,2004,1900,1844,1484,1305,1275,1365,1156,1116,1126,1091,1082,1056,1013,1017,1022,1017,1036,1043,1049,1037,1049,1032,1039,1047,1033,1029,1049,1058,1041,1039,1042,1041,1034,1053,1055,1032,1055,1032,1027,1025,1424,1425,1449,1516,1927,2807,3184,3292,3344,3396,3333,3268,3228,3174,3150,3085,3043,3020,2943,2788,2684,2398,2038,1796,1822,1740,1679,1655,1610,1623,1632,1509,1480,1477,1444,1390,1395,1359,1358,1366,1369,1382,1388,1390,1381,1393,1376,1383,1391,1377,1373,1393,1402,1385,1383,1386,1385,1378,1397,1399,1376,1399,1376,1371,1369,1011,1007,1017,1026,1173,1766,2136,2292,2395,2449,2396,2361,2316,2312,2275,2206,2181,2164,2126,2079,2051,1992,1969,1902,1891,1854,1793,1487,1225,1176,1310,1067,1039,1059,1023,1019,975,933,938,945,937,952,961,964,953,965,948,955,963,949,945,965,974,957,955,958,957,950,969,971,948,971,948,943,941,505,528,518,522,525,759,993,1091,1180,1223,1236,1222,1190,1177,1154,1156,1111,1100,1072,1075,1044,1030,1018,965,946,931,944,874,914,851,690,546,630,604,521,576,529,498,496,490,501,506,502,494,508,510,505,506,508,503,508,509,507,513,513,510,501,501,506,507,498,513,503,507,502,80,80,80,80,122,124,140,157,172,189,201,199,195,192,189,186,182,180,176,172,170,166,163,160,157,153,151,147,144,141,138,134,132,128,124,122,122,123,34,34,34,35,34,34,35,35,34,35,35,34,34,35,35,35,35,35,35,34,34,33,33,33,33,33,33,594,596,597,600,602,717,1109,1233,1356,1439,1447,1421,1401,1380,1357,1333,1309,1271,1271,1231,1222,1200,1173,1152,1134,1105,1083,858,812,794,908,716,631,616,609,606,595,596,566,560,569,575,570,577,570,575,570,580,577,571,578,573,580,585,582,580,581,577,587,582,581,600,576,584,580,178,179,180,180,180,283,307,358,396,434,420,414,408,402,396,388,406,399,392,385,378,370,363,356,349,327,334,314,308,313,306,298,291,284,277,181,181,182,172,170,172,172,176,177,172,176,174,172,174,175,175,176,177,181,180,180,174,179,177,181,181,200,196,195,192,375,376,376,377,380,602,657,714,770,814,824,813,841,793,782,771,760,751,740,729,718,709,698,687,678,667,656,674,636,625,614,603,594,465,381,379,380,380,372,371,372,371,375,376,376,376,376,376,376,374,374,378,377,380,380,381,380,382,406,376,380,375,376,380,375,1350,1357,1364,1469,1887,2608,2977,3100,3176,3181,3151,3111,3051,3015,2948,2923,2864,2812,2672,2312,1952,2033,1883,1726,1694,1620,1586,1558,1650,1500,1515,1411,1461,1388,1392,1417,1370,1366,1343,1346,1354,1354,1359,1350,1358,1363,1351,1351,1354,1352,1352,1376,1363,1364,1377,1357,1353,1354,1367,1368,1357,1363,1361,1363,1362,1479,1489,1475,1552,1912,2835,3247,3373,3458,3462,3365,3361,3297,3270,3206,3169,3104,3049,2982,2622,2262,1902,1907,1820,1859,1749,1753,1746,1742,1612,1584,1554,1538,1520,1514,1518,1510,1469,1457,1465,1478,1478,1472,1469,1483,1484,1484,1483,1478,1479,1482,1488,1487,1491,1492,1487,1478,1478,1483,1483,1477,1487,1478,1481,1476,0,0,0,0,0,0,0,0,0,0,0,0,0,0,0,0,0,0,0,0,0,0,0,0,0,0,0,0,0,0,0,0,0,0,0,0,0,0,0,0,0,0,0,0,0,0,0,0,0,0,0,0,0,0,0,0,0,0,0,0,0,0,0,0,0,455,464,471,459,450,665,854,948,1011,1080,1062,1073,1030,1035,999,1005,998,954,946,934,927,917,885,855,840,820,808,769,811,750,650,468,572,503,467,508,465,425,399,405,404,404,408,406,409,412,403,408,402,404,407,432,412,410,426,408,405,405,417,419,405,407,405,407,406,80,104,104,104,121,123,139,156,171,187,199,196,193,189,187,183,181,177,174,171,168,165,162,158,156,152,150,146,144,140,136,134,130,128,124,122,122,122,34,34,34,35,34,34,35,37,34,35,36,41,34,35,35,35,35,35,35,37,34,33,33,33,33,33,33,505,528,518,522,525,759,993,1091,1180,1223,1236,1222,1190,1177,1154,1156,1111,1100,1072,1075,1044,1030,1018,965,946,931,944,874,914,851,690,546,630,604,521,576,529,498,496,490,501,506,502,494,508,510,505,506,508,503,508,509,507,513,513,510,501,501,506,507,498,513,503,507,502,263,219,219,220,220,348,393,440,486,531,546,537,529,519,511,502,494,484,476,468,459,450,441,433,424,415,406,398,390,380,372,363,355,345,337,221,222,222,211,209,212,216,210,241,216,243,236,216,242,215,218,216,216,223,216,216,217,221,216,214,216,218,216,223,216,398,400,396,403,399,505,707,805,880,954,991,965,953,904,898,879,878,850,840,825,811,788,809,782,768,748,716,724,679,466,469,496,514,429,397,422,430,380,341,346,341,344,352,346,345,347,344,349,346,350,344,343,344,347,345,343,347,344,343,347,345,349,345,346,344,576,570,555,574,592,741,1089,1231,1353,1360,1346,1378,1354,1281,1291,1304,1231,1258,1188,1195,1208,1110,1146,1108,1087,1077,1042,1020,982,828,687,743,673,568,556,576,561,580,555,558,562,565,564,564,564,564,554,568,564,560,563,565,564,564,567,565,565,565,566,564,570,568,564,564,563,379,380,391,386,446,493,697,782,832,895,906,925,874,865,852,874,860,789,831,795,752,776,786,746,702,728,739,672,423,486,418,475,495,449,424,382,409,410,368,373,368,371,379,373,372,374,371,376,373,377,371,370,371,374,372,370,374,371,370,374,372,376,372,373,371,340,342,343,344,345,435,619,699,757,806,814,804,845,782,770,759,797,784,757,715,734,697,682,672,660,649,632,620,601,589,578,565,448,358,343,346,347,356,322,323,322,325,332,327,326,328,325,330,327,331,325,324,325,328,326,324,328,325,324,328,326,330,326,327,325,962,1010,965,972,1075,1701,2052,2217,2316,2331,2312,2352,2240,2212,2184,2134,2092,2150,2014,1981,1944,1919,1873,1833,1797,1759,1611,1482,1399,1095,1049,1079,1072,983,976,971,979,972,968,960,962,964,992,975,982,977,978,982,978,971,984,964,968,978,979,970,982,965,964,979,976,991,984,991,982,1124,1139,1133,1151,1228,1997,2463,2608,2682,2728,2665,2666,2597,2558,2536,2477,2400,2416,2341,2301,2277,2216,2142,2130,2104,1961,1792,1591,1412,1322,1224,1220,1209,1158,1141,1150,1148,1143,1139,1131,1133,1135,1159,1155,1153,1154,1149,1166,1154,1142,1155,1135,1139,1149,1150,1141,1153,1136,1135,1150,1147,1164,1155,1160,1153,420,421,417,434,422,530,749,853,935,1009,1045,1018,1004,956,949,928,926,897,887,870,857,833,852,824,810,789,757,740,718,505,507,533,537,451,420,444,452,380,341,346,341,344,352,346,345,347,344,349,346,350,344,343,344,347,345,343,347,344,343,347,345,349,345,346,344,0,0,0,0,0,0,0,0,0,0,0,0,0,0,0,0,0,0,0,0,0,0,0,0,0,0,0,0,0,0,0,0,0,0,0,0,0,0,0,0,0,0,0,0,0,0,0,0,0,0,0,0,0,0,0,0,0,0,0,0,0,0,0,0,0,388,388,383,390,379,478,684,778,843,949,960,946,923,890,870,862,850,823,826,798,787,774,802,758,747,735,692,702,657,492,445,534,495,443,376,430,440,380,341,346,341,344,352,346,345,347,344,349,346,350,344,343,344,347,345,343,347,344,343,347,345,349,345,346,344,263,219,219,220,220,348,393,440,486,531,546,537,529,519,511,502,494,484,476,468,459,450,441,433,424,415,406,398,390,380,372,363,355,345,337,221,222,222,211,209,212,216,210,241,216,243,236,216,242,215,218,216,216,223,216,216,217,221,216,214,216,218,216,223,216,525,507,509,542,544,754,1014,1089,1135,1221,1266,1243,1230,1167,1148,1184,1129,1106,1147,1065,1088,1069,1005,986,965,985,931,945,950,890,714,624,616,590,510,530,544,488,490,493,496,496,496,496,490,496,494,493,495,495,490,490,490,490,490,490,490,490,490,490,490,490,490,490,490,37,37,37,37,37,38,43,48,52,57,62,61,60,58,57,57,56,55,54,52,52,51,50,49,48,48,46,45,44,43,43,42,40,39,38,38,38,38,0,0,0,0,0,0,0,0,0,0,0,0,0,0,0,0,0,0,0,0,0,0,0,0,0,0,0,604,605,608,609,612,787,1141,1254,1379,1470,1470,1445,1422,1400,1377,1352,1334,1292,1285,1266,1239,1224,1195,1173,1150,1126,1103,903,883,677,908,656,644,676,616,612,621,607,566,566,566,566,566,566,566,566,566,566,566,566,566,566,566,566,566,566,566,566,566,566,566,566,566,566,566,224,225,186,187,187,291,339,379,418,459,518,466,459,452,444,436,429,421,414,406,398,391,384,375,368,361,352,345,338,330,322,306,307,300,291,188,251,252,172,172,172,172,172,172,172,172,172,172,172,172,172,172,172,172,172,172,172,172,172,172,172,172,172,172,172,372,372,373,374,376,596,654,711,769,813,823,812,801,790,781,770,759,750,739,728,717,708,697,685,674,663,652,643,632,621,610,600,589,538,453,376,376,442,363,366,366,369,370,372,370,371,369,370,371,368,370,372,372,372,372,372,372,372,372,372,370,372,372,372,372,1370,1341,1355,1489,1907,2677,2998,3098,3166,3178,3192,3141,3090,3005,2942,2953,2882,2813,2672,2312,2050,2100,1740,1675,1785,1682,1576,1621,1556,1496,1496,1448,1466,1430,1392,1384,1386,1355,1359,1357,1357,1357,1357,1357,1357,1357,1357,1357,1357,1357,1357,1357,1357,1357,1357,1357,1357,1357,1357,1357,1357,1357,1357,1357,1357,1498,1473,1466,1572,1953,2828,3278,3371,3445,3462,3406,3391,3337,3259,3200,3199,3122,3055,2982,2622,2262,1999,1969,1867,1860,1788,1768,1732,1760,1676,1657,1592,1566,1531,1505,1517,1528,1459,1451,1468,1473,1474,1466,1471,1467,1470,1473,1470,1469,1471,1468,1469,1469,1469,1469,1469,1469,1469,1469,1469,1469,1469,1469,1469,1469,46,46,46,70,70,70,80,90,99,109,117,115,114,111,110,108,105,104,102,100,98,97,94,93,91,88,87,85,84,81,80,78,76,74,72,70,70,70,0,0,0,0,0,0,0,0,0,0,0,0,0,0,0,0,0,0,0,0,0,0,0,0,0,0,0,465,448,440,476,470,735,865,946,986,1036,1088,1075,1069,1030,993,1003,1006,976,980,944,936,922,892,874,838,852,804,814,807,794,667,546,586,509,440,469,493,415,418,418,418,418,418,418,418,418,418,418,418,418,418,418,418,418,418,418,418,418,418,418,418,418,418,418,418,0,0,0,0,0,0,0,0,0,0,0,0,0,0,0,0,0,0,0,0,0,0,0,0,0,0,0,0,0,0,0,0,0,0,0,0,0,0,0,0,0,0,0,0,0,0,0,0,0,0,0,0,0,0,0,0,0,0,0,0,0,0,0,0,0,525,507,509,542,544,754,1014,1089,1135,1221,1266,1243,1230,1167,1148,1184,1129,1106,1147,1065,1088,1069,1005,986,965,985,931,945,950,890,714,624,616,590,510,530,544,488,490,493,496,496,496,496,490,496,494,493,495,495,490,490,490,490,490,490,490,490,490,490,490,490,490,490,490,0,0,0,0,0,0,0,0,0,0,0,0,0,0,0,0,0,0,0,0,0,0,0,0,0,0,0,0,0,0,0,0,0,0,0,0,0,0,0,0,0,0,0,0,0,0,0,0,0,0,0,0,0,0,0,0,0,0,0,0,0,0,0,0,0,534,533,535,545,550,624,993,1095,1230,1261,1300,1265,1220,1198,1179,1158,1173,1118,1100,1127,1059,1085,1020,1040,976,1002,974,958,875,716,827,715,585,553,550,530,543,519,491,487,488,491,495,495,496,489,498,497,499,497,519,513,531,498,495,520,502,524,494,501,527,501,501,501,501,458,459,461,463,471,530,839,960,1037,1126,1138,1120,1084,1083,1065,1047,1029,1011,993,974,956,938,920,902,884,865,847,813,811,793,641,522,521,480,469,490,467,468,443,434,436,439,439,437,443,444,446,440,452,442,457,461,458,455,447,449,447,461,451,466,450,456,456,456,456,458,493,469,462,477,662,835,926,1016,1087,1072,1051,1034,1020,1004,1037,973,1018,994,930,984,1019,922,867,888,853,879,748,738,780,542,521,618,568,444,507,507,499,464,474,471,476,488,475,480,479,473,475,477,481,486,494,499,494,493,494,486,487,485,475,476,473,473,473,473,545,547,548,549,580,778,1020,1131,1229,1293,1293,1275,1266,1248,1233,1214,1200,1181,1164,1129,1110,1089,1069,1050,1029,1010,990,970,952,931,823,803,674,612,557,568,556,549,500,506,502,511,518,520,509,514,508,516,513,508,520,528,522,521,516,516,518,514,525,517,518,529,527,528,528,890,882,878,884,970,1340,1764,1963,2078,2169,2135,2102,2066,2011,2002,1959,1932,1892,1843,1827,1780,1745,1730,1674,1655,1603,1453,1403,1175,1206,1030,1031,912,903,884,896,889,883,872,869,868,873,872,876,874,879,871,879,876,874,878,880,880,877,878,880,880,878,877,877,877,880,876,876,876,975,977,995,971,1031,1598,1956,2191,2295,2308,2345,2312,2279,2239,2196,2156,2133,2096,2045,2006,1980,1944,1902,1873,1832,1790,1756,1432,1249,1174,1150,1053,1023,1008,994,990,1001,1010,971,961,975,977,978,970,975,977,974,979,977,974,976,978,979,980,980,979,977,977,977,977,976,979,974,974,974,555,555,565,567,575,661,1040,1147,1285,1315,1353,1316,1270,1249,1228,1207,1221,1165,1147,1172,1105,1128,1063,1081,1017,1043,1014,997,912,755,864,752,600,575,572,552,565,519,491,487,488,491,495,495,496,489,498,497,499,497,519,513,531,498,495,520,502,524,494,501,527,501,501,501,501,234,235,236,236,237,368,424,474,524,572,585,577,567,558,548,540,530,520,511,525,493,483,474,464,456,466,436,427,418,409,399,390,381,372,316,238,238,300,229,216,218,219,217,222,219,223,219,224,222,218,219,220,219,219,223,221,221,220,220,221,219,222,221,223,222,521,532,522,528,525,581,941,1092,1199,1230,1242,1236,1190,1172,1152,1129,1144,1092,1072,1100,1037,1059,1019,1021,975,979,961,936,874,794,845,777,565,571,531,511,538,519,491,487,488,491,495,495,498,489,498,498,506,497,519,513,531,498,495,520,505,524,494,501,527,501,501,501,501,0,0,0,0,0,0,0,0,0,0,0,0,0,0,0,0,0,0,0,0,0,0,0,0,0,0,0,0,0,0,0,0,0,0,0,0,0,0,0,0,0,0,0,0,0,0,0,0,0,0,0,0,0,0,0,0,0,0,0,0,0,0,0,0,0 ]);
