n = 10;
D = [208,148,164,188,249,198,196,104,199,246 ];
q = 0;
prec = array2d(1..0,1..2,[]);
steps = 64;
l = 360;
r = 0;
which = [];
interval = array2d(1..0,1..2,[]);
T = array3d(1..11,1..11,0..64,[0,0,0,0,0,0,0,0,0,0,0,0,0,0,0,0,0,0,0,0,0,0,0,0,0,0,0,0,0,0,0,0,0,0,0,0,0,0,0,0,0,0,0,0,0,0,0,0,0,0,0,0,0,0,0,0,0,0,0,0,0,0,0,0,0,707,663,673,667,703,763,852,951,1038,1080,1095,1065,1048,1057,1056,997,1004,962,945,928,922,894,887,880,842,845,808,801,783,831,739,731,705,696,692,671,672,674,674,677,677,692,687,685,715,689,683,715,706,692,691,689,680,691,693,697,690,684,682,687,686,689,691,694,683,454,455,457,458,461,494,560,632,699,739,748,743,731,719,700,694,682,670,658,646,634,622,610,592,586,568,556,549,537,520,513,501,489,477,465,461,462,463,478,460,469,461,462,460,495,479,454,453,471,471,465,460,460,461,457,467,462,465,462,458,453,461,467,469,450,635,613,624,617,649,702,784,876,961,1003,1021,992,976,986,996,928,937,896,880,863,858,831,826,820,783,787,751,745,728,712,720,679,654,646,641,621,622,624,610,616,614,618,613,621,617,628,625,626,626,622,630,629,630,633,632,630,638,633,631,628,636,640,641,641,641,744,747,749,751,778,857,968,1080,1203,1211,1212,1193,1174,1155,1136,1117,1098,1079,1059,1040,1021,1002,983,964,945,974,954,888,868,849,830,837,792,773,795,796,757,759,752,748,753,759,761,760,764,762,762,772,767,769,774,786,791,784,793,783,778,792,783,776,790,784,784,790,782,381,382,383,385,402,412,466,520,574,620,631,621,611,608,598,581,578,561,551,541,514,521,511,485,491,481,471,461,451,498,431,421,411,401,396,403,404,405,394,395,399,397,391,399,393,395,396,388,397,395,388,388,427,455,404,392,412,395,399,394,404,399,386,396,393,629,589,591,593,602,657,791,824,905,1008,954,940,1008,954,981,880,932,851,836,821,806,791,776,762,787,793,717,702,687,726,658,677,628,613,664,596,635,599,611,615,619,616,622,633,629,622,625,622,628,623,624,623,631,640,636,644,631,631,634,631,631,629,633,637,626,976,957,987,1003,1071,1156,1322,1493,1607,1574,1535,1574,1478,1514,1499,1472,1466,1383,1358,1369,1344,1300,1293,1317,1254,1231,1215,1172,1123,1127,1044,1073,1037,999,974,998,981,1013,1022,1007,1013,1007,1040,1085,1026,1049,1051,1070,1063,1077,1073,1075,1051,1083,1049,1045,1057,1049,1052,1111,1082,1099,1077,1076,1091,920,915,927,935,1001,1151,1339,1584,1657,1632,1622,1593,1564,1535,1505,1476,1447,1408,1389,1359,1388,1301,1272,1242,1213,1235,1213,1174,1096,1114,1040,1009,979,952,936,972,940,980,967,980,967,983,978,983,984,1006,974,992,985,988,982,980,975,981,985,991,976,983,980,982,967,985,977,981,963,1205,1222,1234,1277,1406,1612,1861,1944,1975,2018,2009,1970,1938,1885,1951,1803,1814,1807,1720,1729,1744,1595,1570,1590,1522,1523,1504,1396,1369,1405,1309,1350,1303,1234,1250,1217,1228,1274,1330,1333,1322,1348,1378,1372,1355,1355,1364,1397,1360,1396,1405,1384,1343,1368,1360,1378,1382,1351,1397,1447,1410,1410,1417,1375,1372,0,0,0,0,0,0,0,0,0,0,0,0,0,0,0,0,0,0,0,0,0,0,0,0,0,0,0,0,0,0,0,0,0,0,0,0,0,0,0,0,0,0,0,0,0,0,0,0,0,0,0,0,0,0,0,0,0,0,0,0,0,0,0,0,0,725,706,708,710,732,858,979,1004,1090,1129,1130,1113,1096,1171,1061,1043,1025,1023,990,986,955,937,920,902,885,867,849,832,814,796,778,761,743,731,727,714,716,718,717,709,722,713,736,758,718,718,724,737,739,733,737,743,739,741,732,733,723,739,724,745,740,740,736,738,758,0,0,0,0,0,0,0,0,0,0,0,0,0,0,0,0,0,0,0,0,0,0,0,0,0,0,0,0,0,0,0,0,0,0,0,0,0,0,0,0,0,0,0,0,0,0,0,0,0,0,0,0,0,0,0,0,0,0,0,0,0,0,0,0,0,637,647,641,643,669,737,822,933,1006,1048,1051,1034,1017,1000,984,967,950,933,916,900,883,866,849,832,815,799,782,765,748,731,714,698,681,664,650,647,648,659,644,652,638,654,649,651,656,674,648,644,651,659,655,647,649,653,654,654,651,656,651,656,644,661,653,654,642,134,135,135,136,136,139,157,175,194,212,225,221,218,214,211,207,204,200,196,193,189,186,182,179,175,172,168,164,161,157,154,150,147,143,140,137,137,137,125,123,125,125,124,128,127,131,129,127,131,126,127,126,126,128,127,127,126,127,126,125,127,127,127,132,128,776,786,789,790,837,917,1119,1105,1239,1326,1403,1306,1205,1186,1168,1147,1158,1128,1162,1143,1060,1020,1009,1009,990,1056,967,919,919,935,879,859,813,819,836,770,797,816,794,795,800,825,824,828,800,833,802,801,813,822,805,810,818,846,839,832,812,825,816,831,835,844,832,848,829,442,444,445,447,449,483,537,638,657,748,712,745,709,679,668,698,686,650,624,627,602,606,580,569,558,547,536,550,538,503,493,482,470,465,463,449,450,452,438,447,447,457,442,461,446,463,446,465,450,445,453,453,464,463,461,456,460,450,467,457,456,462,449,458,453,257,258,258,259,260,272,308,343,379,414,428,421,414,407,400,394,387,380,373,367,360,353,346,340,333,326,319,312,306,299,292,285,279,272,265,261,261,262,251,256,251,255,257,258,255,262,253,255,254,254,254,261,259,259,258,258,257,256,266,271,256,262,255,258,258,747,729,731,761,787,886,964,1111,1211,1247,1195,1251,1194,1141,1170,1104,1130,1100,1080,1051,1008,1020,1010,951,927,958,889,874,851,849,831,793,778,790,741,759,760,787,756,759,758,761,764,768,790,784,776,771,776,776,774,790,786,815,779,781,782,777,781,797,777,785,777,830,781,1302,1349,1319,1395,1634,1781,2094,2149,2251,2319,2212,2244,2162,2154,2141,2071,1976,2008,1889,1863,1821,1783,1808,1705,1666,1628,1589,1553,1504,1468,1434,1395,1442,1387,1326,1327,1333,1434,1403,1397,1402,1406,1397,1411,1426,1426,1420,1404,1415,1406,1418,1406,1415,1409,1434,1415,1420,1437,1419,1428,1441,1426,1414,1424,1417,1149,1117,1154,1152,1269,1433,1579,1741,1812,1884,1758,1729,1702,1762,1759,1649,1662,1644,1592,1595,1597,1490,1494,1392,1404,1323,1378,1317,1275,1290,1230,1168,1140,1150,1163,1161,1139,1169,1202,1193,1193,1204,1200,1213,1266,1269,1198,1234,1214,1204,1205,1251,1259,1274,1262,1236,1262,1267,1282,1257,1235,1235,1208,1208,1208,725,706,708,710,732,858,979,1004,1090,1129,1130,1113,1096,1171,1061,1043,1025,1023,990,986,955,937,920,902,885,867,849,832,814,796,778,761,743,731,727,714,716,718,717,709,722,713,736,758,718,718,724,737,739,733,737,743,739,741,732,733,723,739,724,745,740,740,736,738,758,381,396,397,399,386,428,484,539,595,641,635,625,630,598,609,586,576,579,549,546,548,519,528,518,507,497,487,477,456,456,446,436,411,406,405,401,402,403,389,389,414,417,434,439,434,396,414,426,393,393,395,394,392,394,392,395,393,393,394,394,399,395,400,417,394,648,659,661,703,670,737,941,931,1017,1060,1062,1045,1029,1012,995,978,994,944,928,911,906,877,860,881,827,810,803,776,759,742,726,716,716,698,662,658,660,670,683,667,662,669,672,675,730,721,680,708,690,672,682,716,725,733,723,739,723,745,723,708,703,690,677,675,666,0,0,0,0,0,0,0,0,0,0,0,0,0,0,0,0,0,0,0,0,0,0,0,0,0,0,0,0,0,0,0,0,0,0,0,0,0,0,0,0,0,0,0,0,0,0,0,0,0,0,0,0,0,0,0,0,0,0,0,0,0,0,0,0,0,598,609,602,604,617,677,767,857,941,984,988,972,956,941,924,909,893,878,862,846,842,815,799,792,767,751,727,720,704,745,673,665,641,625,611,608,660,620,628,625,622,638,625,622,631,644,631,645,648,632,624,621,633,629,636,641,630,660,660,631,640,632,629,626,624,896,899,901,946,957,1063,1202,1335,1420,1457,1452,1462,1406,1443,1537,1338,1367,1292,1351,1246,1223,1350,1177,1199,1263,1108,1085,1104,1039,1016,1036,1049,948,926,912,935,990,914,922,952,921,942,938,944,946,965,1077,989,1087,959,998,1017,1032,996,970,999,947,969,961,954,947,948,999,983,958,513,514,516,517,523,589,666,725,789,866,872,858,818,831,792,778,789,751,738,725,711,698,682,671,678,644,651,616,623,609,577,564,550,537,524,520,538,540,516,529,518,550,517,540,521,542,529,537,532,525,539,530,542,541,539,538,544,539,548,536,540,547,542,552,553,706,672,674,676,763,801,922,1030,1042,1084,1159,1177,1053,1085,1085,1066,1031,1030,1011,1024,960,956,937,907,929,871,874,845,827,765,789,803,762,729,683,717,759,730,707,709,701,705,717,723,716,730,728,752,726,740,723,730,725,740,725,728,745,731,730,748,738,746,736,740,737,1113,1082,1085,1112,1294,1296,1465,1606,1724,1753,1747,1716,1736,1624,1596,1608,1580,1514,1487,1496,1433,1405,1451,1441,1323,1296,1309,1301,1214,1216,1188,1219,1138,1083,1142,1102,1098,1073,1133,1134,1091,1085,1139,1114,1121,1122,1115,1118,1192,1129,1146,1161,1172,1154,1138,1151,1156,1184,1213,1142,1138,1151,1215,1150,1122,766,718,763,722,795,852,1001,1149,1260,1312,1309,1285,1260,1240,1212,1187,1163,1139,1114,1148,1069,1041,1072,1055,1021,944,923,896,871,839,823,798,774,752,733,727,732,787,726,731,741,752,748,756,738,755,738,770,749,751,749,753,768,785,764,758,767,755,766,769,766,772,749,760,754,929,906,907,918,1005,1171,1265,1370,1499,1462,1569,1499,1499,1379,1469,1447,1404,1332,1358,1267,1302,1296,1225,1198,1144,1119,1114,1090,1078,1008,961,1006,993,978,904,903,920,912,929,934,937,953,944,953,940,943,939,935,946,938,948,960,954,955,958,961,953,950,965,955,951,975,966,980,970,381,396,397,399,386,428,484,539,595,641,635,625,630,598,609,586,576,579,549,546,548,519,528,518,507,497,487,477,456,456,446,436,411,406,405,401,402,403,389,389,414,417,434,439,434,396,414,426,393,393,395,394,392,394,392,395,393,393,394,394,399,395,400,417,394,552,554,555,557,564,615,692,770,846,890,894,900,894,853,839,824,811,797,784,770,756,742,729,715,700,702,673,659,645,632,618,604,590,577,564,560,580,563,547,550,561,568,564,572,554,569,555,584,564,561,567,569,582,596,578,571,580,569,578,583,579,586,564,572,568,212,212,213,213,214,222,250,278,306,334,348,343,337,332,327,321,316,310,305,300,294,289,283,278,273,267,262,256,251,246,240,235,229,224,219,215,215,216,198,200,198,200,201,204,201,202,204,203,202,203,202,203,203,203,205,205,205,204,204,205,208,211,211,213,211,540,556,543,545,553,611,699,800,868,890,887,901,874,845,859,827,822,775,799,786,790,745,715,703,688,690,667,653,640,627,593,609,583,565,552,562,555,566,572,552,550,555,550,559,554,559,554,554,556,548,553,552,553,554,557,557,554,556,556,556,553,563,554,560,556,0,0,0,0,0,0,0,0,0,0,0,0,0,0,0,0,0,0,0,0,0,0,0,0,0,0,0,0,0,0,0,0,0,0,0,0,0,0,0,0,0,0,0,0,0,0,0,0,0,0,0,0,0,0,0,0,0,0,0,0,0,0,0,0,0,771,771,774,776,805,948,1002,1082,1213,1260,1214,1220,1205,1231,1171,1115,1128,1097,1066,1071,1134,1031,1011,973,976,925,923,886,877,868,862,836,810,791,785,785,757,790,789,785,798,812,802,801,799,793,790,821,828,810,817,810,805,815,813,813,793,804,793,805,795,793,794,802,812,292,293,293,294,295,310,347,385,422,459,480,464,500,466,442,435,447,421,414,407,400,429,389,378,389,364,357,351,343,336,328,321,314,307,300,296,324,297,285,284,286,288,308,285,288,291,289,291,288,288,287,291,291,303,437,384,312,301,292,288,289,286,303,289,287,269,270,271,272,273,286,324,361,399,436,448,441,434,427,420,413,406,399,392,384,377,370,363,356,349,342,335,328,320,313,306,299,292,285,278,274,274,275,264,265,264,268,270,272,271,276,274,270,274,270,266,266,268,273,268,268,269,268,266,268,268,269,264,272,266,742,752,745,747,797,874,974,1113,1195,1217,1219,1186,1230,1176,1156,1140,1099,1097,1077,1041,1021,970,983,943,946,942,894,885,847,895,827,844,800,781,755,792,753,760,758,764,770,785,843,816,783,823,782,871,809,840,815,787,813,847,813,794,841,809,798,825,820,860,815,810,799,1205,1209,1214,1367,1399,1642,1879,1978,2111,2148,2044,2085,1986,2038,1915,1884,1841,1789,1758,1734,1784,1672,1653,1584,1547,1527,1484,1438,1435,1368,1388,1302,1317,1237,1227,1318,1240,1239,1296,1289,1288,1305,1405,1384,1336,1373,1329,1441,1387,1392,1379,1329,1346,1398,1382,1336,1404,1373,1351,1404,1374,1430,1403,1425,1375,1015,1045,1054,1035,1111,1282,1355,1546,1575,1655,1631,1657,1638,1555,1584,1555,1591,1466,1460,1412,1430,1432,1315,1341,1241,1286,1248,1164,1228,1211,1088,1155,1035,1046,1019,998,1080,1084,1047,1055,1046,1082,1062,1065,1062,1076,1070,1075,1066,1073,1066,1061,1050,1055,1066,1073,1059,1059,1050,1057,1058,1070,1073,1077,1050,552,554,555,557,564,615,692,770,846,890,894,900,894,853,839,824,811,797,784,770,756,742,729,715,700,702,673,659,645,632,618,604,590,577,564,560,580,563,547,550,561,568,564,572,554,569,555,584,564,561,567,569,582,596,578,571,580,569,578,583,579,586,564,572,568,900,910,930,926,967,1083,1276,1366,1449,1482,1483,1460,1437,1414,1381,1368,1357,1352,1299,1276,1249,1215,1194,1168,1167,1115,1100,1089,1068,1063,1006,999,959,953,924,914,929,919,955,942,944,952,946,961,991,993,950,983,963,952,955,1001,1006,1019,1021,990,988,1013,1020,1000,977,976,958,957,953,732,713,679,682,728,766,882,964,1139,1094,1106,1089,1071,1054,1036,1019,1017,997,955,949,931,914,896,878,861,899,870,833,791,773,797,738,715,732,684,680,687,689,684,680,676,685,692,710,687,697,699,732,690,691,685,692,692,678,695,698,698,699,687,690,698,698,693,697,692,958,961,964,1089,1150,1158,1474,1535,1531,1561,1573,1535,1510,1542,1460,1435,1544,1425,1371,1336,1357,1393,1271,1309,1328,1186,1161,1136,1218,1086,1100,1133,1011,986,976,972,975,978,991,998,997,1012,992,997,1004,1015,1007,1091,1005,994,1008,1009,1030,1006,1013,1009,1000,1023,1007,1000,1009,1028,1006,1021,1011,813,815,805,808,875,930,1073,1177,1263,1291,1310,1289,1268,1247,1226,1205,1201,1191,1136,1122,1085,1080,1059,1038,1017,1051,1028,940,933,899,905,865,844,825,822,817,814,817,832,797,806,810,799,827,814,821,818,815,840,814,813,816,812,832,828,818,816,821,815,816,822,821,821,852,829,0,0,0,0,0,0,0,0,0,0,0,0,0,0,0,0,0,0,0,0,0,0,0,0,0,0,0,0,0,0,0,0,0,0,0,0,0,0,0,0,0,0,0,0,0,0,0,0,0,0,0,0,0,0,0,0,0,0,0,0,0,0,0,0,0,693,695,697,699,720,793,898,1003,1091,1134,1136,1118,1100,1082,1114,1060,1028,1054,992,987,956,938,919,901,883,865,847,829,822,793,775,767,739,731,707,703,705,707,694,709,705,721,745,738,724,753,712,763,735,760,731,725,745,767,744,731,751,741,738,747,739,762,733,740,726,572,574,551,559,587,620,703,786,866,902,920,904,889,864,850,835,832,830,802,786,763,748,742,729,712,755,705,661,654,632,644,610,596,581,567,563,558,566,557,554,559,564,586,561,562,569,569,569,564,563,564,573,590,593,634,633,596,586,570,565,575,565,577,570,562,386,387,388,389,390,417,473,529,646,632,644,633,623,613,602,592,582,700,614,603,541,581,569,558,499,489,479,468,502,490,479,427,417,407,396,391,393,394,389,394,386,395,396,395,411,410,392,394,395,404,400,391,392,400,396,394,396,396,389,395,388,396,396,397,385,1627,1636,1732,1851,2073,2346,2505,2620,2704,2689,2685,2629,2596,2519,2491,2463,2382,2439,2307,2322,2199,2173,2157,2059,2155,2104,1930,1924,1833,1834,1797,1734,1758,1713,1698,1656,1663,1694,1834,1895,1845,1866,1908,1869,1873,1895,1876,1886,1900,1889,1892,1887,1901,1896,1933,1914,1904,1905,1953,1879,1902,1903,1926,1917,1901,1779,1793,1790,1969,2227,2445,2578,2656,2734,2758,2713,2761,2670,2653,2517,2465,2519,2488,2438,2350,2299,2205,2255,2196,2115,2082,2024,2002,1996,1894,1821,1874,1815,1804,1767,1785,1762,1803,1989,2008,2049,2070,2064,2077,2102,2122,2114,2132,2156,2154,2194,2178,2183,2209,2246,2259,2237,2270,2299,2301,2301,2329,2330,2346,2371,900,910,930,926,967,1083,1276,1366,1449,1482,1483,1460,1437,1414,1381,1368,1357,1352,1299,1276,1249,1215,1194,1168,1167,1115,1100,1089,1068,1063,1006,999,959,953,924,914,929,919,955,942,944,952,946,961,991,993,950,983,963,952,955,1001,1006,1019,1021,990,988,1013,1020,1000,977,976,958,957,953,404,412,413,415,416,448,506,565,624,672,680,669,659,648,637,626,615,605,594,583,572,562,551,540,529,518,508,502,486,475,465,454,443,432,422,417,418,419,412,411,418,419,417,417,417,426,419,424,416,422,424,439,433,430,422,429,422,424,419,427,422,426,416,424,418,369,370,386,385,374,398,450,502,554,599,609,599,590,580,598,561,570,542,550,523,513,504,494,484,475,460,451,446,437,424,415,408,413,401,379,375,376,377,363,365,368,377,366,372,366,371,370,371,370,368,370,371,371,372,372,373,374,371,376,374,373,384,379,384,381,445,450,451,462,457,493,562,625,694,738,745,733,721,713,698,686,674,673,650,638,626,614,602,590,579,566,557,542,538,521,507,495,480,468,459,465,456,458,452,461,454,468,462,472,458,464,455,456,460,455,453,469,463,468,467,472,468,470,479,471,464,480,455,467,460,318,319,320,323,324,344,389,431,476,574,533,521,516,504,496,491,528,474,465,500,448,440,431,423,411,401,393,389,380,369,361,355,346,336,329,325,326,324,310,311,315,327,320,316,323,331,316,318,327,335,355,350,355,337,316,318,327,333,333,315,325,330,323,323,324,647,640,654,644,671,721,815,889,994,1052,1042,1025,1009,993,992,978,943,911,911,907,878,862,861,829,826,825,793,763,747,731,714,698,696,665,651,660,649,664,642,638,646,642,642,653,645,646,648,657,671,666,661,667,667,672,664,668,657,670,671,670,675,668,667,686,687,0,0,0,0,0,0,0,0,0,0,0,0,0,0,0,0,0,0,0,0,0,0,0,0,0,0,0,0,0,0,0,0,0,0,0,0,0,0,0,0,0,0,0,0,0,0,0,0,0,0,0,0,0,0,0,0,0,0,0,0,0,0,0,0,0,287,288,289,290,291,306,323,358,393,427,440,434,427,421,414,407,401,394,388,381,374,368,361,354,348,341,357,349,341,334,326,319,311,304,296,292,292,293,276,274,289,376,299,273,291,318,299,282,292,289,288,284,293,292,305,291,288,282,293,300,282,292,285,288,294,622,651,653,655,672,740,839,938,1038,1068,1071,1050,1033,1019,1002,985,968,961,934,879,863,882,865,848,797,814,797,748,760,745,728,711,694,677,635,659,633,663,648,652,651,659,644,642,659,682,648,652,699,661,695,663,667,676,679,690,672,661,671,670,666,654,646,684,644,1137,1116,1090,1178,1275,1428,1687,1845,1909,1927,2028,1888,1849,1830,1789,1752,1718,1683,1649,1625,1636,1547,1516,1481,1445,1410,1379,1342,1315,1254,1281,1187,1195,1139,1117,1114,1119,1127,1162,1168,1167,1188,1193,1190,1190,1203,1181,1206,1207,1212,1264,1268,1288,1234,1199,1190,1189,1197,1189,1176,1177,1195,1183,1193,1165,1146,1141,1164,1253,1271,1429,1662,1743,1785,1853,1864,1904,1777,1776,1706,1696,1648,1677,1565,1542,1628,1514,1479,1482,1418,1419,1352,1371,1298,1314,1254,1254,1195,1141,1157,1184,1196,1133,1179,1229,1187,1200,1207,1203,1197,1213,1207,1205,1223,1196,1199,1212,1211,1219,1222,1237,1226,1221,1239,1212,1231,1258,1256,1235,1228,404,412,413,415,416,448,506,565,624,672,680,669,659,648,637,626,615,605,594,583,572,562,551,540,529,518,508,502,486,475,465,454,443,432,422,417,418,419,412,411,418,419,417,417,417,426,419,424,416,422,424,439,433,430,422,429,422,424,419,427,422,426,416,424,418,613,588,590,602,602,675,729,843,900,966,970,928,941,911,898,896,881,853,846,837,813,807,781,777,749,746,719,696,699,694,674,635,638,602,595,595,590,598,602,601,602,622,603,599,660,663,607,625,671,638,595,662,702,709,721,668,662,677,684,642,622,625,622,599,593,220,220,221,222,222,231,260,290,319,348,362,356,351,345,339,334,328,323,317,311,306,300,294,289,283,278,272,266,261,255,249,244,238,233,227,223,224,224,210,215,211,215,218,216,217,219,212,215,215,216,212,215,215,218,216,215,218,215,217,216,216,219,212,216,213,632,619,621,640,637,679,812,870,946,982,1063,975,959,943,939,910,899,891,899,882,854,846,818,805,808,772,753,740,725,710,717,676,646,627,613,643,628,630,629,623,634,633,616,645,630,641,634,639,662,636,629,626,638,638,641,645,655,640,656,648,633,631,634,646,619,239,240,240,241,242,252,286,319,352,386,399,393,386,380,374,367,361,355,348,342,336,329,323,317,310,304,298,291,285,279,272,266,260,253,247,243,243,244,235,232,233,234,236,232,234,235,232,235,235,233,234,235,234,233,234,235,235,236,235,233,238,235,234,234,234,543,519,547,547,553,572,676,752,827,874,880,868,820,839,826,812,798,753,740,727,714,733,718,674,661,676,663,649,608,622,608,596,622,567,555,551,552,553,546,549,553,572,560,555,559,577,553,562,567,579,606,598,611,594,555,560,568,577,567,556,568,577,563,563,561,318,319,320,321,322,303,427,452,464,460,526,465,458,450,443,435,476,468,460,470,461,452,408,400,392,418,409,401,377,383,360,352,309,301,294,322,323,324,304,310,307,312,317,311,314,312,308,309,310,314,307,312,312,316,310,310,316,311,315,316,312,318,307,312,310,0,0,0,0,0,0,0,0,0,0,0,0,0,0,0,0,0,0,0,0,0,0,0,0,0,0,0,0,0,0,0,0,0,0,0,0,0,0,0,0,0,0,0,0,0,0,0,0,0,0,0,0,0,0,0,0,0,0,0,0,0,0,0,0,0,513,515,517,518,524,571,647,723,799,846,852,838,825,811,797,784,810,756,743,729,716,702,688,675,661,647,634,620,606,593,579,566,552,538,560,521,558,524,518,517,521,536,522,531,521,524,533,527,523,523,521,525,522,518,525,529,526,527,523,525,531,540,533,540,533,1320,1288,1302,1390,1521,1759,1960,2168,2238,2170,2182,2083,2046,1994,1991,1938,1897,1894,1873,1847,1790,1782,1772,1698,1719,1586,1563,1508,1490,1453,1432,1418,1304,1317,1288,1323,1336,1318,1375,1366,1357,1365,1375,1417,1399,1422,1399,1417,1420,1427,1442,1443,1434,1464,1443,1402,1421,1417,1419,1468,1429,1435,1440,1493,1440,1263,1242,1197,1291,1377,1576,1793,1844,1960,2048,2015,2044,1931,1951,1839,1851,1773,1776,1712,1678,1652,1567,1580,1555,1522,1502,1498,1439,1394,1365,1370,1290,1274,1281,1272,1266,1266,1268,1281,1313,1323,1322,1330,1313,1322,1349,1312,1315,1336,1299,1320,1320,1340,1349,1497,1449,1365,1322,1328,1320,1306,1305,1318,1364,1295,613,588,590,602,602,675,729,843,900,966,970,928,941,911,898,896,881,853,846,837,813,807,781,777,749,746,719,696,699,694,674,635,638,602,595,595,590,598,602,601,602,622,603,599,660,663,607,625,671,638,595,662,702,709,721,668,662,677,684,642,622,625,622,599,593,840,870,868,884,924,996,1127,1283,1374,1369,1374,1379,1406,1346,1270,1284,1237,1200,1184,1172,1184,1141,1112,1119,1097,1034,1020,989,1008,1006,927,933,884,865,864,868,848,857,890,860,878,864,869,869,894,875,868,890,894,892,900,886,875,886,906,901,876,888,892,888,874,871,898,916,860,424,417,419,420,422,453,512,571,629,677,722,706,665,654,643,644,621,627,600,589,578,567,599,546,535,524,513,503,514,481,470,471,475,438,452,420,424,425,423,426,423,426,425,431,427,433,429,426,431,424,425,427,427,430,431,432,427,429,433,434,425,439,429,437,431,850,862,881,903,947,1015,1150,1298,1375,1386,1398,1459,1414,1349,1309,1293,1260,1241,1195,1195,1177,1148,1129,1150,1103,1062,1040,1033,1012,993,950,950,903,891,892,884,868,873,881,893,884,905,901,914,890,919,899,901,897,898,914,934,923,916,905,917,913,904,899,913,906,916,891,914,901,533,542,544,546,553,603,684,764,831,889,882,868,866,851,837,834,797,783,780,766,751,727,713,709,694,680,666,652,629,615,609,606,572,578,545,554,550,552,562,547,549,554,559,557,562,560,561,563,562,557,565,564,565,557,557,569,562,572,559,555,565,562,556,553,547,316,317,318,319,320,364,408,453,497,539,585,548,534,525,522,509,500,497,452,479,467,459,453,442,436,426,419,409,401,393,384,349,341,359,325,321,321,322,314,319,318,319,317,314,323,319,323,320,316,319,315,320,318,322,324,330,317,316,318,323,327,326,319,317,317,540,542,589,577,572,602,681,760,838,929,890,970,912,876,833,819,805,830,777,763,748,734,720,747,715,711,664,678,657,642,607,642,608,600,598,567,549,551,560,562,560,565,563,571,569,572,570,570,570,564,564,568,567,568,570,573,570,570,575,573,569,584,573,582,576,294,294,295,296,297,313,355,397,439,479,492,484,476,468,460,452,444,437,429,421,413,405,397,389,381,374,366,358,350,342,334,326,318,311,303,298,299,300,288,299,294,295,300,300,299,303,293,301,292,293,295,300,305,307,305,299,294,294,304,300,293,294,293,302,294,0,0,0,0,0,0,0,0,0,0,0,0,0,0,0,0,0,0,0,0,0,0,0,0,0,0,0,0,0,0,0,0,0,0,0,0,0,0,0,0,0,0,0,0,0,0,0,0,0,0,0,0,0,0,0,0,0,0,0,0,0,0,0,0,0,1583,1575,1568,1777,1950,2167,2345,2497,2639,2522,2564,2556,2647,2419,2407,2320,2257,2189,2156,2113,2072,2047,1983,1969,1936,1853,1810,1854,1796,1715,1668,1662,1591,1562,1570,1671,1555,1545,1703,1688,1693,1693,1824,1729,1731,1741,1721,1733,1811,1820,1739,1744,1744,1772,1897,1771,1749,1750,1780,1770,1757,1747,1778,1808,1782,1538,1490,1507,1660,1763,2018,2143,2336,2375,2412,2402,2410,2261,2305,2203,2127,2165,2123,2052,2033,2024,1986,1875,1929,1806,1792,1735,1750,1685,1638,1611,1545,1533,1512,1476,1558,1498,1545,1582,1589,1611,1620,1610,1627,1613,1619,1605,1624,1634,1618,1618,1633,1641,1657,1641,1655,1621,1642,1648,1633,1634,1620,1632,1662,1641,840,870,868,884,924,996,1127,1283,1374,1369,1374,1379,1406,1346,1270,1284,1237,1200,1184,1172,1184,1141,1112,1119,1097,1034,1020,989,1008,1006,927,933,884,865,864,868,848,857,890,860,878,864,869,869,894,875,868,890,894,892,900,886,875,886,906,901,876,888,892,888,874,871,898,916,860,907,910,935,920,1034,1158,1320,1611,1564,1598,1610,1582,1523,1524,1466,1467,1410,1382,1381,1359,1351,1295,1267,1238,1192,1164,1141,1123,1095,1056,1022,999,980,939,937,932,927,946,925,935,942,959,992,981,953,994,951,1024,980,1014,980,962,990,1024,989,968,1007,985,976,994,993,1021,981,980,971,1320,1345,1338,1486,1578,1771,2019,2130,2250,2228,2191,2170,2170,2140,2068,2106,1980,1984,1946,1911,1862,1789,1775,1713,1675,1647,1607,1598,1547,1534,1490,1416,1439,1380,1332,1342,1361,1381,1440,1448,1399,1412,1452,1438,1434,1445,1440,1448,1502,1452,1471,1483,1487,1466,1466,1479,1487,1502,1535,1471,1470,1486,1535,1484,1456,823,815,841,863,940,1023,1179,1465,1416,1479,1440,1421,1396,1363,1346,1321,1287,1270,1236,1309,1270,1178,1145,1102,1098,1069,1025,1036,991,955,944,932,885,871,828,851,831,862,867,861,876,883,882,877,877,879,874,905,897,884,891,888,878,894,888,893,871,886,870,884,876,871,871,884,893,1272,1273,1285,1343,1525,1642,1834,1977,2098,2099,2043,2054,2027,1999,1913,1880,1876,1828,1836,1785,1717,1687,1654,1640,1610,1553,1552,1490,1482,1429,1413,1356,1323,1328,1293,1292,1288,1336,1341,1325,1333,1332,1461,1364,1357,1349,1352,1361,1444,1450,1371,1371,1374,1388,1525,1405,1381,1384,1415,1395,1388,1378,1412,1433,1417,1425,1501,1543,1557,1740,2000,2169,2503,2382,2544,2377,2423,2354,2312,2287,2229,2133,2123,2218,2011,2021,2043,1889,1848,1914,1767,1771,1685,1645,1640,1563,1523,1487,1501,1472,1456,1494,1500,1596,1559,1568,1606,1572,1597,1574,1620,1608,1598,1606,1593,1625,1610,1644,1620,1597,1589,1620,1605,1596,1583,1606,1608,1594,1602,1589,1061,1076,1092,1076,1233,1384,1579,1859,1841,1862,1811,1835,1747,1733,1701,1686,1637,1604,1572,1559,1584,1474,1443,1411,1379,1347,1315,1296,1264,1218,1198,1166,1146,1099,1071,1106,1083,1105,1127,1116,1113,1128,1115,1150,1120,1128,1151,1206,1130,1150,1147,1152,1144,1146,1166,1144,1134,1141,1141,1150,1144,1147,1149,1159,1138,1336,1284,1356,1356,1529,1730,1942,2218,2215,2223,2162,2260,2127,2077,2072,2030,1991,1896,1843,1866,1875,1747,1696,1694,1637,1622,1611,1526,1520,1488,1414,1420,1364,1360,1369,1386,1306,1345,1376,1418,1381,1381,1406,1382,1398,1405,1405,1406,1426,1405,1418,1424,1417,1420,1437,1433,1433,1434,1460,1414,1436,1442,1465,1438,1438,1678,1717,1795,1803,2164,2347,2632,2788,2690,2786,2781,2763,2684,2566,2522,2489,2490,2407,2317,2333,2300,2248,2175,2121,2093,2002,2018,1962,1994,1843,1794,1764,1743,1758,1680,1700,1670,1714,1881,1870,1871,1887,2029,1924,1923,1925,1907,1914,2011,2021,1935,1957,1956,1962,2084,1968,1952,1938,1950,1987,1942,1933,1963,2012,1965,0,0,0,0,0,0,0,0,0,0,0,0,0,0,0,0,0,0,0,0,0,0,0,0,0,0,0,0,0,0,0,0,0,0,0,0,0,0,0,0,0,0,0,0,0,0,0,0,0,0,0,0,0,0,0,0,0,0,0,0,0,0,0,0,0,661,663,665,714,686,756,869,958,1046,1088,1102,1072,1054,1155,1019,1002,1107,967,961,932,926,908,891,873,845,828,810,793,776,768,741,723,706,688,675,671,682,684,679,663,695,715,707,715,710,678,701,738,708,686,677,672,691,683,687,686,694,692,685,697,691,684,710,706,671,907,910,935,920,1034,1158,1320,1611,1564,1598,1610,1582,1523,1524,1466,1467,1410,1382,1381,1359,1351,1295,1267,1238,1192,1164,1141,1123,1095,1056,1022,999,980,939,937,932,927,946,925,935,942,959,992,981,953,994,951,1024,980,1014,980,962,990,1024,989,968,1007,985,976,994,993,1021,981,980,971,1332,1306,1288,1367,1505,1681,1823,1991,1948,2052,2066,2002,1987,2023,1936,1913,1880,1848,1798,1806,1736,1703,1704,1664,1608,1576,1533,1502,1477,1447,1420,1376,1372,1351,1340,1316,1322,1323,1379,1380,1427,1698,1442,1382,1426,1532,1465,1396,1506,1472,1418,1426,1504,1491,1472,1379,1422,1414,1460,1459,1402,1445,1401,1412,1421,1171,1197,1107,1151,1252,1410,1602,1755,1775,1864,1947,1802,1753,1717,1740,1695,1647,1629,1565,1538,1502,1465,1531,1431,1449,1402,1352,1315,1295,1299,1224,1208,1197,1163,1120,1145,1127,1226,1223,1191,1191,1206,1189,1220,1202,1204,1229,1283,1210,1225,1275,1226,1233,1287,1241,1225,1220,1220,1265,1326,1346,1373,1364,1257,1249,1043,1003,984,1024,1091,1240,1356,1564,1497,1603,1667,1568,1543,1548,1493,1497,1472,1462,1384,1396,1347,1329,1320,1287,1263,1263,1212,1155,1149,1126,1118,1053,1059,1032,1025,1015,1020,1020,1054,1055,1013,1009,1062,1036,1042,1045,1036,1050,1113,1047,1067,1081,1095,1073,1061,1074,1076,1106,1135,1066,1058,1072,1134,1069,1043,1055,1098,1008,1040,1126,1242,1414,1590,1621,1714,1766,1664,1610,1549,1575,1533,1488,1496,1432,1410,1383,1393,1389,1312,1331,1287,1260,1185,1188,1192,1120,1107,1080,1046,1020,1045,1026,1126,1084,1092,1077,1092,1074,1112,1077,1087,1115,1172,1092,1107,1110,1106,1112,1142,1136,1104,1097,1089,1104,1118,1108,1119,1110,1111,1096,1707,1727,1772,1899,2125,2417,2476,2658,2692,2685,2710,2650,2523,2506,2501,2476,2408,2391,2337,2286,2257,2238,2220,2100,2137,2092,2050,1909,1895,1862,1810,1761,1739,1792,1719,1706,1703,1764,1961,1940,1966,1961,1973,2010,2042,2053,1983,2025,2037,1989,1986,2054,2054,2079,2045,2056,2047,2083,2063,2039,2025,2027,1986,1994,2001,1161,1161,1151,1156,1295,1443,1573,1751,1716,1847,1838,1775,1744,1716,1702,1694,1659,1660,1579,1625,1518,1486,1515,1457,1450,1371,1342,1310,1322,1278,1228,1199,1205,1170,1175,1133,1136,1164,1174,1218,1179,1180,1200,1183,1197,1204,1202,1200,1219,1198,1211,1205,1210,1213,1219,1222,1225,1223,1249,1200,1225,1231,1251,1225,1222,1229,1272,1185,1241,1389,1659,1702,1880,1898,1985,2033,1928,1856,1805,1825,1812,1729,1733,1666,1639,1631,1622,1604,1524,1538,1518,1466,1428,1404,1402,1303,1303,1255,1221,1195,1221,1228,1302,1279,1310,1314,1312,1334,1312,1322,1356,1311,1320,1340,1317,1321,1318,1342,1355,1372,1380,1367,1327,1326,1320,1307,1307,1318,1364,1295,1703,1697,1750,1860,2097,2286,2548,2624,2662,2712,2735,2616,2526,2477,2541,2448,2376,2368,2347,2274,2266,2207,2195,2071,2107,2024,1952,1944,1866,1892,1825,1780,1716,1700,1690,1702,1681,1761,1938,1920,1907,1942,1924,1945,1981,1999,1957,2073,1938,1932,1947,1981,2032,1979,1989,2011,2014,2014,1971,1963,1984,1960,1941,1933,1914,632,634,636,638,683,719,815,911,998,1040,1070,1014,1010,993,976,960,930,954,910,893,876,860,843,826,810,793,776,760,743,726,709,693,676,650,646,671,644,675,649,656,652,661,663,662,662,675,649,664,656,655,656,668,668,661,664,667,661,668,674,657,657,653,656,667,655,0,0,0,0,0,0,0,0,0,0,0,0,0,0,0,0,0,0,0,0,0,0,0,0,0,0,0,0,0,0,0,0,0,0,0,0,0,0,0,0,0,0,0,0,0,0,0,0,0,0,0,0,0,0,0,0,0,0,0,0,0,0,0,0,0,1332,1306,1288,1367,1505,1681,1823,1991,1948,2052,2066,2002,1987,2023,1936,1913,1880,1848,1798,1806,1736,1703,1704,1664,1608,1576,1533,1502,1477,1447,1420,1376,1372,1351,1340,1316,1322,1323,1379,1380,1427,1698,1442,1382,1426,1532,1465,1396,1506,1472,1418,1426,1504,1491,1472,1379,1422,1414,1460,1459,1402,1445,1401,1412,1421,0,0,0,0,0,0,0,0,0,0,0,0,0,0,0,0,0,0,0,0,0,0,0,0,0,0,0,0,0,0,0,0,0,0,0,0,0,0,0,0,0,0,0,0,0,0,0,0,0,0,0,0,0,0,0,0,0,0,0,0,0,0,0,0,0,707,663,673,667,703,763,852,951,1038,1080,1095,1065,1048,1057,1056,997,1004,962,945,928,922,894,887,880,842,845,808,801,783,831,739,731,705,696,692,671,672,674,674,677,677,692,687,685,715,689,683,715,706,692,691,689,680,691,693,697,690,684,682,687,686,689,691,694,683,454,455,457,458,461,494,560,632,699,739,748,743,731,719,700,694,682,670,658,646,634,622,610,592,586,568,556,549,537,520,513,501,489,477,465,461,462,463,478,460,469,461,462,460,495,479,454,453,471,471,465,460,460,461,457,467,462,465,462,458,453,461,467,469,450,635,613,624,617,649,702,784,876,961,1003,1021,992,976,986,996,928,937,896,880,863,858,831,826,820,783,787,751,745,728,712,720,679,654,646,641,621,622,624,610,616,614,618,613,621,617,628,625,626,626,622,630,629,630,633,632,630,638,633,631,628,636,640,641,641,641,744,747,749,751,778,857,968,1080,1203,1211,1212,1193,1174,1155,1136,1117,1098,1079,1059,1040,1021,1002,983,964,945,974,954,888,868,849,830,837,792,773,795,796,757,759,752,748,753,759,761,760,764,762,762,772,767,769,774,786,791,784,793,783,778,792,783,776,790,784,784,790,782,381,382,383,385,402,412,466,520,574,620,631,621,611,608,598,581,578,561,551,541,514,521,511,485,491,481,471,461,451,498,431,421,411,401,396,403,404,405,394,395,399,397,391,399,393,395,396,388,397,395,388,388,427,455,404,392,412,395,399,394,404,399,386,396,393,629,589,591,593,602,657,791,824,905,1008,954,940,1008,954,981,880,932,851,836,821,806,791,776,762,787,793,717,702,687,726,658,677,628,613,664,596,635,599,611,615,619,616,622,633,629,622,625,622,628,623,624,623,631,640,636,644,631,631,634,631,631,629,633,637,626,976,957,987,1003,1071,1156,1322,1493,1607,1574,1535,1574,1478,1514,1499,1472,1466,1383,1358,1369,1344,1300,1293,1317,1254,1231,1215,1172,1123,1127,1044,1073,1037,999,974,998,981,1013,1022,1007,1013,1007,1040,1085,1026,1049,1051,1070,1063,1077,1073,1075,1051,1083,1049,1045,1057,1049,1052,1111,1082,1099,1077,1076,1091,920,915,927,935,1001,1151,1339,1584,1657,1632,1622,1593,1564,1535,1505,1476,1447,1408,1389,1359,1388,1301,1272,1242,1213,1235,1213,1174,1096,1114,1040,1009,979,952,936,972,940,980,967,980,967,983,978,983,984,1006,974,992,985,988,982,980,975,981,985,991,976,983,980,982,967,985,977,981,963,1205,1222,1234,1277,1406,1612,1861,1944,1975,2018,2009,1970,1938,1885,1951,1803,1814,1807,1720,1729,1744,1595,1570,1590,1522,1523,1504,1396,1369,1405,1309,1350,1303,1234,1250,1217,1228,1274,1330,1333,1322,1348,1378,1372,1355,1355,1364,1397,1360,1396,1405,1384,1343,1368,1360,1378,1382,1351,1397,1447,1410,1410,1417,1375,1372,0,0,0,0,0,0,0,0,0,0,0,0,0,0,0,0,0,0,0,0,0,0,0,0,0,0,0,0,0,0,0,0,0,0,0,0,0,0,0,0,0,0,0,0,0,0,0,0,0,0,0,0,0,0,0,0,0,0,0,0,0,0,0,0,0 ]);
