n = 10;
D = [102,158,123,167,200,267,112,280,283,272 ];
q = 0;
prec = array2d(1..0,1..2,[]);
steps = 64;
l = 360;
r = 0;
which = [];
interval = array2d(1..0,1..2,[]);
T = array3d(1..11,1..11,0..64,[0,0,0,0,0,0,0,0,0,0,0,0,0,0,0,0,0,0,0,0,0,0,0,0,0,0,0,0,0,0,0,0,0,0,0,0,0,0,0,0,0,0,0,0,0,0,0,0,0,0,0,0,0,0,0,0,0,0,0,0,0,0,0,0,0,1488,1525,1606,1766,2008,2673,2900,3107,3161,3104,3077,3031,3030,2933,2957,2843,2827,2783,2732,2705,2625,2589,2431,2385,2268,2106,2032,1764,1729,1706,1651,1560,1589,1580,1542,1534,1556,1562,1643,1620,1643,1639,1639,1662,1673,1674,1662,1673,1674,1654,1649,1671,1672,1673,1674,1674,1673,1673,1673,1673,1672,1680,1647,1662,1661,790,792,795,800,829,1123,1242,1400,1532,1547,1518,1491,1484,1462,1446,1438,1401,1371,1359,1334,1325,1287,1262,1230,1221,1200,1180,1152,1116,1023,892,986,850,849,825,827,800,799,755,761,766,769,777,772,774,786,764,777,775,768,791,795,806,786,802,777,779,771,776,780,773,785,781,788,781,976,979,959,983,1013,1386,1551,1776,1893,1897,1884,1788,1820,1784,1768,1751,1711,1631,1673,1642,1577,1582,1551,1510,1468,1463,1412,1388,1335,1204,1149,1077,1050,1026,1022,965,998,964,915,918,920,924,935,932,944,936,943,946,948,942,944,941,946,957,958,944,948,939,937,945,944,950,944,947,938,414,442,416,417,419,530,599,649,721,737,760,751,742,711,703,694,708,674,690,654,645,652,642,617,608,598,590,579,569,562,551,542,476,492,476,419,420,420,369,370,372,377,376,373,379,376,372,376,377,374,391,392,392,378,396,377,374,374,374,374,374,374,372,373,372,699,702,687,704,709,925,1054,1155,1248,1301,1273,1274,1268,1248,1228,1210,1169,1173,1155,1127,1109,1105,1086,1056,1038,1020,1003,989,970,897,868,870,821,802,709,702,709,706,679,673,676,688,691,683,690,687,693,694,692,695,698,699,700,699,702,703,700,710,705,706,713,702,704,708,701,764,767,769,768,786,1071,1173,1348,1472,1494,1468,1441,1426,1415,1398,1384,1346,1325,1315,1291,1284,1245,1221,1189,1183,1161,1141,1114,1080,1064,1029,960,817,809,797,787,779,782,737,747,758,757,759,759,762,768,751,763,761,761,787,788,788,777,789,762,773,760,759,765,772,773,771,772,765,785,787,790,793,824,1116,1235,1394,1526,1540,1512,1484,1478,1455,1439,1431,1394,1364,1352,1327,1319,1280,1256,1223,1215,1193,1174,1145,1110,1082,885,983,845,839,818,809,800,805,764,768,779,783,782,779,780,788,776,791,796,792,810,811,811,794,807,789,785,778,782,785,779,790,781,792,785,407,408,537,424,424,560,614,651,757,754,753,769,733,723,736,702,739,686,692,660,649,660,628,638,608,597,588,596,567,557,562,552,525,422,521,412,413,402,392,389,391,396,390,400,396,397,396,396,397,393,394,394,395,396,397,397,396,396,396,396,395,403,395,399,397,676,669,681,680,695,894,998,1158,1259,1290,1278,1250,1236,1215,1208,1226,1192,1177,1138,1126,1127,1082,1061,1034,1021,1013,980,960,942,926,915,883,717,695,717,696,700,683,635,630,635,639,639,636,646,644,639,644,646,643,661,664,662,651,668,647,649,647,645,643,649,650,648,649,648,0,0,0,0,0,0,0,0,0,0,0,0,0,0,0,0,0,0,0,0,0,0,0,0,0,0,0,0,0,0,0,0,0,0,0,0,0,0,0,0,0,0,0,0,0,0,0,0,0,0,0,0,0,0,0,0,0,0,0,0,0,0,0,0,0,1564,1590,1600,1788,1989,2533,2804,2955,3001,3034,3017,2953,2908,2885,2829,2801,2765,2720,2648,2600,2592,2523,2391,2316,1956,1929,1915,1845,1793,1755,1736,1666,1645,1633,1595,1543,1541,1526,1515,1515,1514,1514,1520,1522,1525,1523,1524,1546,1554,1541,1530,1524,1518,1528,1523,1519,1522,1526,1520,1521,1522,1524,1520,1525,1519,0,0,0,0,0,0,0,0,0,0,0,0,0,0,0,0,0,0,0,0,0,0,0,0,0,0,0,0,0,0,0,0,0,0,0,0,0,0,0,0,0,0,0,0,0,0,0,0,0,0,0,0,0,0,0,0,0,0,0,0,0,0,0,0,0,1158,1164,1169,1229,1319,1724,1984,2143,2212,2248,2263,2213,2197,2166,2124,2112,2074,2046,1981,1946,1928,1875,1863,1788,1771,1723,1671,1636,1533,1324,1315,1271,1233,1207,1179,1159,1131,1125,1112,1122,1119,1116,1119,1121,1124,1121,1128,1129,1134,1120,1127,1121,1130,1130,1121,1126,1129,1130,1120,1125,1127,1132,1123,1128,1122,856,859,862,871,885,1043,1419,1459,1575,1637,1651,1608,1599,1611,1547,1558,1532,1521,1443,1417,1425,1421,1337,1398,1317,1291,1265,1195,1211,1255,947,933,903,890,872,869,865,869,865,859,866,862,874,878,885,886,880,882,894,882,901,904,913,920,875,870,886,882,886,873,876,889,873,882,877,1304,1306,1339,1390,1513,2003,2287,2466,2503,2542,2545,2479,2476,2424,2384,2354,2323,2285,2221,2177,2178,2121,2081,2016,2006,1935,1910,1789,1643,1467,1443,1402,1360,1364,1329,1300,1299,1283,1269,1270,1271,1270,1276,1278,1279,1277,1277,1279,1286,1274,1278,1276,1274,1283,1276,1275,1279,1281,1276,1278,1276,1281,1277,1282,1276,1203,1206,1219,1319,1819,2229,2531,2680,2728,2756,2722,2667,2613,2559,2505,2556,2523,2338,2290,2230,2182,2127,2197,2019,1965,1911,1857,1804,1750,1644,1343,1298,1259,1235,1227,1232,1241,1251,1309,1318,1293,1306,1300,1343,1311,1328,1339,1401,1323,1353,1340,1351,1334,1413,1429,1324,1323,1319,1338,1416,1351,1435,1431,1433,1339,1051,1055,1061,1075,1169,1516,1762,1921,1999,2044,2055,2007,1993,1966,1927,1917,1883,1858,1795,1764,1750,1698,1688,1631,1616,1570,1550,1518,1485,1194,1290,1146,1119,1095,1068,1067,1035,1029,1007,1011,1016,1018,1022,1025,1026,1025,1026,1029,1036,1024,1029,1027,1029,1034,1027,1027,1031,1033,1027,1028,1029,1032,1029,1034,1028,1169,1174,1191,1198,1352,1789,2011,2214,2285,2317,2283,2281,2263,2233,2164,2174,2135,2109,2038,2004,1976,1938,1914,1821,1789,1769,1705,1653,1524,1343,1334,1273,1238,1213,1188,1183,1155,1149,1136,1146,1143,1140,1143,1145,1148,1145,1152,1153,1158,1145,1152,1146,1155,1155,1146,1151,1154,1155,1145,1150,1152,1157,1148,1153,1147,1350,1350,1374,1411,1524,2104,2354,2513,2560,2622,2608,2546,2490,2448,2411,2393,2363,2328,2274,2231,2207,2175,2119,2093,2043,1991,1914,1755,1541,1525,1482,1441,1388,1406,1370,1364,1311,1310,1296,1296,1299,1306,1310,1307,1318,1310,1309,1312,1326,1315,1321,1321,1313,1314,1309,1316,1314,1321,1312,1309,1312,1312,1307,1312,1306,978,973,976,999,1060,1378,1616,1765,1841,1897,1915,1873,1854,1822,1785,1778,1750,1724,1664,1635,1623,1573,1561,1513,1511,1452,1437,1406,1399,1341,1127,1059,1034,1022,987,984,987,979,965,965,967,966,972,974,975,973,973,975,982,970,974,972,970,979,972,971,975,977,972,974,972,977,973,978,972,1564,1590,1600,1788,1989,2533,2804,2955,3001,3034,3017,2953,2908,2885,2829,2801,2765,2720,2648,2600,2592,2523,2391,2316,1956,1929,1915,1845,1793,1755,1736,1666,1645,1633,1595,1543,1541,1526,1515,1515,1514,1514,1520,1522,1525,1523,1524,1546,1554,1541,1530,1524,1518,1528,1523,1519,1522,1526,1520,1521,1522,1524,1520,1525,1519,786,787,790,793,819,1067,1254,1337,1457,1524,1533,1512,1486,1463,1440,1415,1393,1368,1348,1322,1341,1275,1251,1228,1203,1180,1156,1135,1115,1032,898,851,831,813,801,798,800,731,705,705,705,705,705,705,705,705,705,705,705,705,705,705,705,705,705,705,705,705,705,705,705,705,705,705,705,1151,1155,1154,1190,1227,1623,1863,2134,2156,2272,2252,2190,2209,2114,2101,2079,2048,1947,1973,1937,1901,1864,1827,1802,1740,1727,1673,1564,1323,1323,1246,1215,1200,1196,1193,1191,1197,1152,1152,1152,1152,1152,1152,1152,1152,1152,1152,1152,1152,1152,1152,1152,1152,1152,1152,1152,1152,1152,1152,1152,1152,1152,1152,1152,1152,0,0,0,0,0,0,0,0,0,0,0,0,0,0,0,0,0,0,0,0,0,0,0,0,0,0,0,0,0,0,0,0,0,0,0,0,0,0,0,0,0,0,0,0,0,0,0,0,0,0,0,0,0,0,0,0,0,0,0,0,0,0,0,0,0,818,828,831,822,868,1077,1303,1453,1546,1648,1628,1593,1604,1593,1556,1498,1502,1433,1444,1416,1365,1362,1321,1282,1280,1254,1239,1162,1050,1026,979,931,875,844,857,845,843,832,762,758,757,759,762,759,759,759,759,759,759,759,759,759,759,759,759,759,759,759,759,759,759,759,759,759,759,505,506,508,508,517,661,793,836,927,1002,1021,1005,988,971,956,939,923,906,891,872,902,840,823,808,792,775,759,743,727,716,586,564,549,528,516,513,514,488,463,463,463,463,462,463,463,463,463,463,463,463,463,463,463,463,463,463,463,463,463,463,463,463,463,463,463,500,502,503,504,512,682,772,861,949,999,1006,990,974,958,942,960,910,894,878,862,847,830,815,798,783,766,751,734,719,702,687,671,655,522,511,507,509,510,494,494,494,494,494,494,494,494,494,494,494,494,494,494,494,494,494,494,494,494,494,494,494,494,494,494,494,178,178,179,180,180,194,217,282,311,339,355,349,345,339,334,328,323,317,312,306,301,295,290,284,279,273,268,262,257,215,210,206,201,197,192,180,180,181,169,169,169,169,169,169,169,169,169,169,169,169,169,169,169,169,169,169,169,169,169,169,169,169,169,169,168,61,61,61,61,61,62,69,77,84,91,99,97,95,94,93,91,90,89,86,85,84,82,81,80,78,77,75,73,72,71,69,68,67,64,63,62,62,62,24,24,24,24,24,24,24,24,24,24,24,24,24,24,24,24,24,24,24,24,24,24,24,24,24,24,24,790,788,792,791,820,1042,1228,1390,1504,1572,1580,1542,1533,1521,1498,1449,1428,1400,1371,1348,1336,1296,1285,1251,1221,1139,1179,1086,1077,1021,905,892,844,828,815,801,793,773,742,735,737,739,742,739,739,739,739,739,739,739,739,739,739,739,739,739,739,739,739,739,739,739,739,739,739,330,331,332,333,353,379,478,533,588,678,694,683,672,642,632,620,611,600,589,579,565,557,546,533,525,514,504,493,482,472,408,399,378,360,356,353,371,360,290,286,285,287,290,287,287,287,287,287,287,287,287,287,287,287,287,287,287,287,287,287,287,287,287,287,287,786,787,790,793,819,1067,1254,1337,1457,1524,1533,1512,1486,1463,1440,1415,1393,1368,1348,1322,1341,1275,1251,1228,1203,1180,1156,1135,1115,1032,898,851,831,813,801,798,800,731,705,705,705,705,705,705,705,705,705,705,705,705,705,705,705,705,705,705,705,705,705,705,705,705,705,705,705,1071,1075,1071,1076,1207,1415,1806,1988,2090,2106,2112,2063,2034,2004,1982,1934,1909,1876,1840,1809,1768,1743,1718,1680,1648,1600,1543,1523,1383,1209,1211,1137,1137,1101,1089,1074,1066,1022,987,984,989,1005,1001,998,992,995,1000,1003,1002,1001,1002,1006,1004,1002,1004,1007,1012,1008,1007,1011,1009,1007,1000,999,999,935,913,943,983,1020,1301,1497,1754,1768,1795,1829,1801,1771,1683,1732,1707,1729,1634,1675,1601,1591,1569,1500,1537,1460,1413,1380,1380,1280,1008,1156,1023,983,981,907,963,962,956,967,968,963,975,977,987,976,990,1002,983,994,977,981,988,984,990,986,988,986,989,988,985,985,1011,992,995,988,856,859,868,865,940,1192,1347,1530,1677,1695,1687,1667,1626,1605,1601,1579,1524,1523,1509,1478,1438,1407,1395,1327,1278,1302,1267,1229,1114,1191,989,986,897,922,880,870,871,853,848,854,862,848,858,856,850,861,867,871,857,856,854,856,861,852,857,862,865,859,852,854,862,864,855,860,852,0,0,0,0,0,0,0,0,0,0,0,0,0,0,0,0,0,0,0,0,0,0,0,0,0,0,0,0,0,0,0,0,0,0,0,0,0,0,0,0,0,0,0,0,0,0,0,0,0,0,0,0,0,0,0,0,0,0,0,0,0,0,0,0,0,830,827,835,850,892,1024,1326,1468,1598,1639,1630,1654,1583,1558,1532,1505,1480,1457,1440,1402,1386,1353,1335,1309,1273,1257,1231,1205,1150,1050,1019,955,899,871,846,847,823,801,767,767,769,776,779,777,777,775,780,783,782,781,782,786,784,782,784,787,792,788,787,791,789,787,780,779,779,1089,1089,1092,1120,1251,1562,1826,2016,2135,2167,2098,2124,2080,2045,2009,1955,1942,1912,1886,1817,1778,1772,1749,1659,1628,1632,1604,1577,1476,1320,1291,1164,1107,1116,1109,1105,1083,1085,1083,1095,1079,1093,1084,1089,1085,1077,1084,1086,1085,1085,1086,1090,1088,1087,1089,1091,1097,1093,1092,1096,1094,1092,1085,1084,1084,769,771,778,780,808,1025,1221,1355,1488,1529,1491,1504,1474,1454,1430,1400,1381,1362,1343,1304,1287,1260,1246,1164,1160,1163,1145,1111,1097,1071,931,985,826,807,784,779,783,757,752,749,744,750,761,760,754,762,764,775,759,759,756,762,761,755,762,766,763,766,756,760,761,767,759,766,758,851,854,863,859,933,1185,1340,1523,1670,1688,1680,1661,1620,1598,1595,1596,1518,1516,1503,1472,1432,1401,1389,1347,1271,1295,1260,1223,1177,1195,949,960,891,917,874,865,873,866,862,873,886,872,882,864,874,867,891,871,865,871,879,879,886,877,879,882,871,883,877,879,885,868,874,871,871,766,764,783,776,802,997,1231,1423,1496,1567,1560,1578,1516,1486,1459,1451,1388,1384,1375,1304,1296,1264,1260,1240,1186,1178,1157,1115,1075,961,935,903,818,786,792,777,795,765,740,736,736,742,750,744,750,742,754,746,746,753,750,760,761,760,753,754,756,757,759,760,755,754,752,746,746,593,594,594,598,613,835,911,1021,1140,1184,1147,1170,1153,1133,1114,1112,1075,1057,1057,1026,1001,1028,968,914,918,906,887,867,853,836,782,793,640,679,605,602,603,592,585,582,590,587,589,585,585,589,588,589,587,588,592,588,591,593,596,592,590,590,591,601,597,598,596,592,592,1071,1075,1071,1076,1207,1415,1806,1988,2090,2106,2112,2063,2034,2004,1982,1934,1909,1876,1840,1809,1768,1743,1718,1680,1648,1600,1543,1523,1383,1209,1211,1137,1137,1101,1089,1074,1066,1022,987,984,989,1005,1001,998,992,995,1000,1003,1002,1001,1002,1006,1004,1002,1004,1007,1012,1008,1007,1011,1009,1007,1000,999,999,284,286,286,287,288,302,397,438,476,515,540,533,525,518,510,502,496,488,479,473,465,457,449,442,434,426,419,411,404,395,389,312,306,299,293,289,290,291,243,242,243,246,245,243,244,244,244,246,246,247,267,268,267,252,248,244,245,247,244,243,245,244,243,246,243,1381,1404,1415,1491,1773,2204,2476,2653,2648,2747,2657,2678,2588,2517,2532,2506,2472,2422,2369,2308,2281,2202,2241,2172,2112,1984,1624,1764,1607,1601,1507,1466,1477,1459,1423,1417,1418,1436,1422,1412,1416,1419,1434,1433,1436,1439,1434,1443,1439,1426,1441,1423,1430,1439,1441,1426,1438,1420,1418,1435,1432,1446,1440,1445,1432,544,545,547,551,571,700,831,942,1015,1095,1083,1083,1066,1048,1019,1019,1003,985,952,951,933,901,899,881,849,846,815,812,780,763,706,697,652,602,557,563,565,534,508,506,530,530,518,530,511,532,515,522,515,512,514,522,529,523,524,518,519,517,520,522,515,519,512,519,516,784,787,787,791,801,1015,1267,1373,1528,1559,1542,1542,1518,1432,1463,1441,1359,1388,1332,1342,1321,1296,1218,1193,1218,1192,1163,1141,1106,1088,1018,936,829,818,801,765,798,776,738,737,736,748,762,756,760,763,767,772,765,774,768,764,769,772,773,770,770,766,759,764,759,774,767,770,761,0,0,0,0,0,0,0,0,0,0,0,0,0,0,0,0,0,0,0,0,0,0,0,0,0,0,0,0,0,0,0,0,0,0,0,0,0,0,0,0,0,0,0,0,0,0,0,0,0,0,0,0,0,0,0,0,0,0,0,0,0,0,0,0,0,408,409,461,411,463,495,616,685,756,815,823,810,797,784,772,759,745,732,719,706,694,680,667,654,640,627,614,601,589,576,521,509,496,485,418,414,467,416,396,399,396,399,411,410,403,408,405,418,407,425,417,421,419,427,420,418,418,410,422,442,420,447,416,423,416,518,520,521,523,541,661,789,895,963,1037,1031,1025,1016,1000,971,951,937,938,906,894,890,858,857,840,809,807,776,773,740,727,725,707,667,553,529,527,537,517,491,488,513,513,500,513,498,515,498,508,501,498,507,517,514,515,511,503,514,506,503,507,500,509,502,503,500,539,540,542,544,566,693,825,935,1009,1089,1076,1077,1059,1042,1013,1012,996,978,945,944,926,895,892,875,842,840,808,806,773,757,753,736,647,563,550,548,559,540,514,515,536,536,523,536,518,538,518,536,536,536,537,540,537,531,529,530,525,524,526,527,520,524,517,523,520,490,492,494,511,503,575,738,818,928,974,988,976,960,948,928,918,896,881,864,848,833,816,801,785,769,767,737,722,705,690,660,575,563,513,523,519,523,490,447,446,447,450,449,447,448,448,448,450,450,451,461,462,465,456,452,448,449,451,448,447,449,448,447,450,447,415,416,432,415,422,558,629,732,776,830,869,821,832,817,804,783,759,745,750,744,706,693,677,664,675,639,625,634,599,591,592,561,498,484,425,447,444,418,397,396,408,407,405,395,402,405,405,401,405,405,401,407,406,408,408,414,411,411,412,414,401,412,408,407,404,284,286,286,287,288,302,397,438,476,515,540,533,525,518,510,502,496,488,479,473,465,457,449,442,434,426,419,411,404,395,389,312,306,299,293,289,290,291,243,242,243,246,245,243,244,244,244,246,246,247,267,268,267,252,248,244,245,247,244,243,245,244,243,246,243,640,642,644,647,664,849,952,1077,1169,1236,1248,1227,1210,1190,1171,1138,1117,1114,1101,1083,1057,1037,1019,1000,982,951,947,927,908,877,871,840,681,680,653,684,651,640,599,590,592,601,589,610,596,596,601,602,611,606,606,608,615,613,616,601,598,613,600,611,605,600,609,615,606,1379,1410,1447,1484,1755,2073,2456,2569,2726,2742,2708,2649,2645,2598,2539,2526,2451,2427,2375,2350,2290,2232,2228,2164,2131,2058,1952,1613,1629,1584,1552,1512,1461,1457,1446,1439,1444,1440,1439,1427,1431,1461,1445,1451,1455,1456,1457,1476,1480,1466,1471,1476,1475,1469,1482,1480,1466,1471,1465,1475,1471,1464,1466,1468,1455,474,476,477,466,476,547,714,773,877,944,952,937,922,907,869,849,862,847,840,825,803,787,772,757,722,708,712,671,664,667,634,636,555,484,485,481,483,472,463,452,464,477,464,467,457,462,465,466,473,466,469,473,469,471,469,475,457,465,460,466,468,463,465,473,468,1080,1073,1063,1097,1179,1563,1807,1961,2029,2116,2108,2100,2057,2001,1935,1919,1911,1877,1854,1825,1800,1694,1684,1698,1645,1626,1561,1432,1398,1360,1274,1191,1138,1113,1091,1096,1082,1035,1018,1007,1021,1039,1030,1023,1012,1022,1026,1038,1060,1023,1030,1033,1033,1048,1036,1037,1021,1033,1023,1029,1034,1031,1027,1031,1024,479,479,481,482,505,559,701,780,854,915,933,919,902,890,876,862,849,833,822,808,793,777,763,755,736,722,709,695,680,667,647,587,512,516,499,501,503,452,395,395,399,408,399,398,398,401,401,401,401,406,406,415,441,446,406,399,397,404,406,409,405,408,407,411,408,0,0,0,0,0,0,0,0,0,0,0,0,0,0,0,0,0,0,0,0,0,0,0,0,0,0,0,0,0,0,0,0,0,0,0,0,0,0,0,0,0,0,0,0,0,0,0,0,0,0,0,0,0,0,0,0,0,0,0,0,0,0,0,0,0,434,435,437,438,441,574,649,724,799,863,872,858,844,831,817,804,789,776,762,749,734,721,707,694,679,666,652,639,624,611,598,584,570,455,444,441,441,442,432,439,432,442,432,434,427,437,432,453,540,435,440,440,439,434,439,448,430,433,432,451,430,442,432,443,430,468,470,471,460,470,608,707,767,871,938,946,930,916,900,862,842,855,840,833,818,796,781,765,751,716,701,706,664,657,661,628,630,611,478,479,476,477,474,463,464,471,501,473,467,467,471,465,466,473,471,469,482,479,474,476,481,470,470,485,471,471,488,465,476,470,851,853,855,866,903,1109,1343,1536,1646,1681,1694,1657,1637,1606,1578,1538,1516,1500,1479,1457,1419,1393,1375,1340,1312,1273,1273,1245,1216,1134,943,923,897,877,877,863,866,838,803,794,796,805,793,814,800,800,805,806,815,810,810,812,819,817,820,805,802,817,804,815,809,804,813,819,810,588,589,591,603,620,752,902,1003,1138,1210,1202,1162,1151,1123,1105,1085,1067,1047,1037,1023,997,978,958,947,920,901,883,864,852,833,746,728,651,649,609,608,617,563,546,535,549,567,558,551,540,550,554,566,588,551,558,561,561,576,564,565,549,561,551,557,562,559,555,559,552,640,642,644,647,664,849,952,1077,1169,1236,1248,1227,1210,1190,1171,1138,1117,1114,1101,1083,1057,1037,1019,1000,982,951,947,927,908,877,871,840,681,680,653,684,651,640,599,590,592,601,589,610,596,596,601,602,611,606,606,608,615,613,616,601,598,613,600,611,605,600,609,615,606,753,733,734,739,761,930,1157,1305,1386,1465,1424,1405,1382,1402,1341,1319,1297,1273,1253,1231,1246,1186,1164,1142,1120,1130,1076,1086,1063,1032,959,816,798,780,768,785,766,698,684,682,684,688,691,688,692,692,692,699,693,714,718,714,699,698,692,693,699,690,688,692,695,697,697,694,693,973,986,975,1010,1064,1363,1650,1792,1845,1949,1927,1892,1851,1854,1785,1767,1775,1737,1719,1658,1617,1601,1556,1525,1529,1491,1465,1433,1306,1285,1111,1070,1047,1019,1021,1013,1028,1020,1013,1008,1002,1003,1021,1013,1020,1032,1023,1025,1026,1032,1031,1030,1036,1036,1036,1039,1032,1036,1038,1033,1031,1041,1022,1034,1025,172,173,173,173,176,215,251,269,297,323,354,341,336,330,324,320,315,310,304,299,294,288,283,278,273,267,262,257,251,248,240,234,229,224,180,177,178,178,146,145,143,144,152,147,145,145,144,149,153,155,155,158,156,157,156,149,149,153,153,157,148,148,153,151,151,662,682,679,692,691,782,1026,1137,1255,1349,1358,1336,1299,1296,1274,1259,1227,1205,1182,1147,1138,1119,1101,1086,1021,1049,1027,996,872,816,789,797,712,705,699,696,690,693,609,610,608,612,614,613,614,618,614,614,618,618,617,612,614,619,614,614,617,616,615,617,615,618,616,616,616,475,451,453,454,459,613,711,794,853,943,912,898,883,909,853,839,824,808,796,781,804,751,735,721,707,727,678,696,680,668,651,635,507,495,484,500,481,455,442,439,438,443,448,444,448,448,446,453,446,447,450,447,447,450,448,448,452,446,445,447,451,452,451,451,450,546,548,549,551,571,786,853,950,1043,1087,1091,1073,1057,1039,1023,1005,993,975,954,940,920,904,886,870,852,836,818,801,784,767,751,733,653,572,558,555,556,581,547,551,549,566,559,580,556,572,562,586,563,579,558,554,566,566,562,561,567,566,562,563,565,573,558,567,563,0,0,0,0,0,0,0,0,0,0,0,0,0,0,0,0,0,0,0,0,0,0,0,0,0,0,0,0,0,0,0,0,0,0,0,0,0,0,0,0,0,0,0,0,0,0,0,0,0,0,0,0,0,0,0,0,0,0,0,0,0,0,0,0,0,207,207,207,208,209,217,300,334,369,403,420,413,407,400,393,387,380,374,367,360,354,347,341,334,327,321,314,308,301,294,235,230,225,219,214,210,210,211,170,169,167,168,176,171,169,169,168,173,177,179,179,182,181,182,181,174,174,178,178,182,173,173,178,176,176,652,654,655,656,664,873,1013,1119,1244,1300,1318,1296,1276,1260,1244,1207,1191,1175,1138,1126,1105,1095,1064,1053,1021,1000,919,958,877,868,849,809,781,688,674,666,668,656,589,587,588,592,594,593,594,598,594,594,598,598,597,592,594,599,594,594,597,596,595,597,595,598,596,596,596,189,190,190,191,213,243,275,305,337,368,383,378,371,366,359,354,348,342,336,330,324,317,312,305,300,293,288,281,276,269,264,257,251,246,239,214,214,214,137,138,136,140,142,141,142,146,142,142,146,146,145,140,142,147,142,142,145,144,143,145,143,146,144,144,144,753,733,734,739,761,930,1157,1305,1386,1465,1424,1405,1382,1402,1341,1319,1297,1273,1253,1231,1246,1186,1164,1142,1120,1130,1076,1086,1063,1032,959,816,798,780,768,785,766,698,684,682,684,688,691,688,692,692,692,699,693,714,718,714,699,698,692,693,699,690,688,692,695,697,697,694,693,761,763,766,769,793,1036,1187,1297,1413,1476,1491,1465,1439,1417,1395,1372,1349,1326,1303,1281,1260,1236,1212,1190,1166,1143,1121,1100,1075,1032,894,873,853,788,778,798,775,707,681,692,689,701,690,695,695,697,696,703,698,705,705,705,704,703,697,696,705,695,700,697,698,701,699,702,695,1126,1139,1129,1164,1203,1583,1860,2094,2112,2206,2232,2141,2143,2068,2008,2046,2009,1968,1933,1879,1861,1836,1799,1738,1722,1690,1598,1555,1349,1325,1279,1192,1174,1172,1162,1159,1171,1161,1152,1148,1145,1144,1152,1152,1152,1152,1152,1152,1152,1152,1152,1152,1152,1152,1152,1152,1152,1152,1152,1152,1152,1152,1152,1152,1152,38,38,38,38,38,38,41,45,48,51,55,55,53,53,52,51,51,50,50,49,48,48,47,47,46,45,45,44,44,42,41,41,40,39,39,38,38,38,0,0,0,0,0,0,0,0,0,0,0,0,0,0,0,0,0,0,0,0,0,0,0,0,0,0,0,794,804,807,814,821,1073,1269,1409,1502,1600,1567,1542,1557,1530,1505,1453,1452,1427,1367,1371,1328,1292,1281,1242,1234,1219,1201,1135,1019,1023,975,938,850,837,823,798,801,812,738,740,735,738,748,741,742,743,740,741,742,743,740,742,742,746,740,743,744,745,745,745,742,747,745,741,738,481,482,492,484,491,630,741,796,883,954,979,958,941,925,911,895,877,862,847,831,818,802,785,770,754,739,723,711,693,680,610,597,573,504,492,514,489,464,439,449,443,456,447,451,451,453,450,457,451,451,451,449,452,455,453,451,458,451,457,452,454,458,453,459,452,476,477,478,480,486,646,731,816,899,951,958,942,927,911,897,882,866,886,836,821,806,790,775,761,745,730,715,699,685,669,654,639,624,552,486,483,484,486,470,479,482,494,484,480,477,482,478,477,478,482,478,479,480,485,484,486,484,485,482,487,486,494,494,494,494,153,153,154,154,190,194,218,243,267,291,305,301,297,292,287,282,278,273,268,264,259,255,249,245,240,236,232,226,222,217,213,207,203,199,194,190,191,191,146,145,146,146,145,145,146,146,147,145,147,145,145,146,146,146,145,146,146,146,146,145,145,146,144,145,147,0,0,0,0,0,0,0,0,0,0,0,0,0,0,0,0,0,0,0,0,0,0,0,0,0,0,0,0,0,0,0,0,0,0,0,0,0,0,0,0,0,0,0,0,0,0,0,0,0,0,0,0,0,0,0,0,0,0,0,0,0,0,0,0,0,766,766,767,772,793,1024,1191,1349,1461,1532,1531,1494,1479,1470,1441,1405,1381,1360,1331,1306,1295,1256,1241,1215,1185,1100,1144,1051,1037,995,931,918,854,798,778,784,779,762,718,717,715,718,728,721,722,723,720,721,722,723,720,722,722,726,720,723,724,725,725,725,722,727,725,721,718,306,307,308,309,311,390,441,493,544,630,644,634,624,595,585,575,566,556,546,536,526,514,504,495,485,475,466,457,447,435,427,415,400,390,365,312,313,314,266,268,263,266,276,269,270,271,268,269,270,271,268,270,270,274,268,271,272,273,273,273,270,275,273,269,266,761,763,766,769,793,1036,1187,1297,1413,1476,1491,1465,1439,1417,1395,1372,1349,1326,1303,1281,1260,1236,1212,1190,1166,1143,1121,1100,1075,1032,894,873,853,788,778,798,775,707,681,692,689,701,690,695,695,697,696,703,698,705,705,705,704,703,697,696,705,695,700,697,698,701,699,702,695,422,498,436,436,428,541,631,710,778,828,838,819,812,800,815,774,790,751,739,727,715,705,689,674,665,649,640,628,624,622,591,590,566,441,451,428,440,446,413,409,414,416,411,421,414,424,417,414,419,416,410,416,419,425,420,423,421,418,420,420,422,425,417,425,419,1212,1200,1219,1324,1622,2017,2414,2583,2632,2669,2592,2559,2541,2503,2481,2446,2398,2359,2300,2247,2209,2160,2101,2042,1984,1930,1848,1717,1587,1584,1334,1287,1242,1230,1226,1233,1244,1256,1277,1277,1277,1277,1277,1277,1277,1277,1277,1277,1277,1277,1277,1277,1277,1277,1277,1277,1277,1277,1277,1277,1277,1277,1277,1277,1277,772,775,775,780,785,1005,1208,1350,1482,1540,1546,1514,1495,1461,1444,1422,1398,1375,1350,1326,1301,1280,1251,1231,1205,1177,1151,1124,1102,913,943,844,848,813,790,785,780,774,708,708,709,714,710,716,712,715,713,711,715,714,709,711,712,716,714,714,712,712,711,712,714,714,711,714,712,640,642,644,646,648,868,981,1118,1239,1303,1288,1266,1249,1225,1208,1179,1166,1156,1126,1047,1092,1071,1037,1027,1004,983,958,935,916,894,828,768,658,642,655,650,618,624,615,614,613,619,620,624,623,627,625,629,629,633,626,628,624,635,631,628,629,629,628,631,631,633,628,633,629,560,564,564,556,557,625,824,914,1005,1080,1102,1064,1068,1034,1015,988,988,968,949,950,916,914,896,879,850,835,832,815,797,769,716,638,589,569,576,569,568,501,468,472,471,473,474,475,476,474,471,473,472,474,473,479,479,480,481,478,481,478,479,477,480,480,478,477,476,862,869,868,870,885,1157,1389,1546,1665,1738,1740,1702,1675,1641,1625,1589,1570,1528,1505,1477,1454,1421,1393,1365,1342,1313,1281,1252,1224,1059,1021,939,909,891,884,880,878,846,799,808,835,825,813,817,807,811,806,804,808,808,806,819,814,823,822,826,813,820,823,823,826,823,819,820,816,713,712,724,720,722,954,1115,1231,1347,1409,1431,1403,1375,1357,1336,1310,1288,1269,1243,1225,1205,1187,1156,1139,1103,1077,1064,1040,1019,968,873,866,777,775,729,723,726,726,660,660,661,666,662,668,664,667,665,663,667,666,661,663,664,668,666,666,664,664,663,664,666,666,663,666,664,767,770,770,774,780,998,1202,1343,1475,1533,1540,1508,1488,1455,1437,1415,1391,1368,1343,1319,1294,1274,1244,1224,1199,1170,1144,1117,1096,906,924,837,842,808,785,779,782,780,714,714,715,720,716,722,718,721,719,717,721,720,715,717,718,722,720,720,718,718,717,718,720,720,717,720,718,0,0,0,0,0,0,0,0,0,0,0,0,0,0,0,0,0,0,0,0,0,0,0,0,0,0,0,0,0,0,0,0,0,0,0,0,0,0,0,0,0,0,0,0,0,0,0,0,0,0,0,0,0,0,0,0,0,0,0,0,0,0,0,0,0,538,539,546,543,546,655,811,905,1004,1074,1090,1072,1049,1032,1016,1001,985,971,950,932,918,901,879,865,848,827,809,789,690,740,659,643,629,597,552,546,549,544,478,478,479,484,480,486,482,485,483,481,485,484,479,481,482,486,484,484,482,482,481,482,484,484,481,484,482,422,498,436,436,428,541,631,710,778,828,838,819,812,800,815,774,790,751,739,727,715,705,689,674,665,649,640,628,624,622,591,590,566,441,451,428,440,446,413,409,414,416,411,421,414,424,417,414,419,416,410,416,419,425,420,423,421,418,420,420,422,425,417,425,419,697,686,699,701,717,845,1088,1202,1312,1378,1399,1357,1338,1330,1293,1288,1250,1234,1207,1195,1169,1148,1131,1107,1093,1070,1036,1021,980,952,853,787,785,729,720,725,702,670,625,620,623,629,627,630,628,631,628,632,633,645,645,649,632,626,625,627,632,629,620,623,626,628,626,625,619,1054,1020,1082,1075,1129,1411,1673,1883,2074,2064,2101,2056,2036,1956,1918,1876,1883,1870,1783,1742,1719,1702,1684,1653,1635,1535,1548,1507,1407,1177,1173,1156,1117,1109,1037,1069,1093,1065,1047,1045,1049,1053,1055,1056,1056,1061,1059,1060,1063,1059,1060,1055,1054,1060,1058,1055,1059,1057,1051,1057,1057,1062,1059,1060,1055,363,368,369,370,374,454,550,613,673,739,742,730,717,712,700,683,671,660,648,636,624,618,601,589,577,566,555,543,530,518,507,495,471,405,379,375,376,377,337,331,344,370,340,340,338,338,337,336,347,343,341,339,342,341,346,343,338,341,343,337,339,340,342,345,340,514,518,520,521,525,579,775,863,953,1028,1041,1027,1008,995,975,971,942,909,909,892,862,859,842,826,809,793,776,760,706,578,593,579,565,552,501,524,525,560,472,475,485,496,485,489,476,487,478,484,486,479,486,489,494,499,496,496,494,496,494,494,496,496,496,497,496,438,439,441,442,454,502,641,721,800,867,889,870,859,846,832,819,805,790,778,765,750,733,720,707,693,679,665,651,637,624,606,566,513,467,456,452,462,427,383,377,377,384,384,386,384,387,382,386,386,385,379,382,380,378,381,382,385,385,377,378,382,385,380,382,376,611,615,617,621,641,855,969,1080,1210,1250,1246,1229,1204,1192,1169,1147,1127,1107,1086,1067,1046,1026,1005,984,964,943,926,903,891,864,838,767,652,681,626,625,625,606,589,597,623,621,598,596,596,597,597,597,597,600,597,601,601,605,605,607,604,606,605,607,610,647,615,622,610,262,263,264,264,265,341,385,427,471,514,526,519,511,502,495,486,478,469,462,453,445,436,429,421,412,404,396,388,379,371,363,355,346,338,331,266,267,268,257,264,256,260,294,264,292,281,261,267,265,283,265,260,262,266,265,261,267,262,261,265,261,267,264,269,260,402,403,405,405,407,441,589,670,733,789,812,799,804,774,752,748,735,722,709,697,684,671,657,645,632,619,607,606,580,567,555,497,432,422,412,408,409,401,361,355,368,394,364,364,362,362,361,360,371,367,365,363,367,366,371,368,363,366,368,362,364,365,367,370,365,519,521,524,525,527,600,774,864,972,1042,1056,1038,1021,1005,986,989,952,938,919,902,885,868,851,835,817,800,721,778,688,683,667,652,573,548,533,529,530,520,452,452,441,450,483,488,467,490,471,488,483,474,487,474,471,484,477,467,488,471,470,487,482,489,486,488,477,0,0,0,0,0,0,0,0,0,0,0,0,0,0,0,0,0,0,0,0,0,0,0,0,0,0,0,0,0,0,0,0,0,0,0,0,0,0,0,0,0,0,0,0,0,0,0,0,0,0,0,0,0,0,0,0,0,0,0,0,0,0,0,0,0,697,686,699,701,717,845,1088,1202,1312,1378,1399,1357,1338,1330,1293,1288,1250,1234,1207,1195,1169,1148,1131,1107,1093,1070,1036,1021,980,952,853,787,785,729,720,725,702,670,625,620,623,629,627,630,628,631,628,632,633,645,645,649,632,626,625,627,632,629,620,623,626,628,626,625,619,0,0,0,0,0,0,0,0,0,0,0,0,0,0,0,0,0,0,0,0,0,0,0,0,0,0,0,0,0,0,0,0,0,0,0,0,0,0,0,0,0,0,0,0,0,0,0,0,0,0,0,0,0,0,0,0,0,0,0,0,0,0,0,0,0,1488,1525,1606,1766,2008,2673,2900,3107,3161,3104,3077,3031,3030,2933,2957,2843,2827,2783,2732,2705,2625,2589,2431,2385,2268,2106,2032,1764,1729,1706,1651,1560,1589,1580,1542,1534,1556,1562,1643,1620,1643,1639,1639,1662,1673,1674,1662,1673,1674,1654,1649,1671,1672,1673,1674,1674,1673,1673,1673,1673,1672,1680,1647,1662,1661,790,792,795,800,829,1123,1242,1400,1532,1547,1518,1491,1484,1462,1446,1438,1401,1371,1359,1334,1325,1287,1262,1230,1221,1200,1180,1152,1116,1023,892,986,850,849,825,827,800,799,755,761,766,769,777,772,774,786,764,777,775,768,791,795,806,786,802,777,779,771,776,780,773,785,781,788,781,976,979,959,983,1013,1386,1551,1776,1893,1897,1884,1788,1820,1784,1768,1751,1711,1631,1673,1642,1577,1582,1551,1510,1468,1463,1412,1388,1335,1204,1149,1077,1050,1026,1022,965,998,964,915,918,920,924,935,932,944,936,943,946,948,942,944,941,946,957,958,944,948,939,937,945,944,950,944,947,938,414,442,416,417,419,530,599,649,721,737,760,751,742,711,703,694,708,674,690,654,645,652,642,617,608,598,590,579,569,562,551,542,476,492,476,419,420,420,369,370,372,377,376,373,379,376,372,376,377,374,391,392,392,378,396,377,374,374,374,374,374,374,372,373,372,699,702,687,704,709,925,1054,1155,1248,1301,1273,1274,1268,1248,1228,1210,1169,1173,1155,1127,1109,1105,1086,1056,1038,1020,1003,989,970,897,868,870,821,802,709,702,709,706,679,673,676,688,691,683,690,687,693,694,692,695,698,699,700,699,702,703,700,710,705,706,713,702,704,708,701,764,767,769,768,786,1071,1173,1348,1472,1494,1468,1441,1426,1415,1398,1384,1346,1325,1315,1291,1284,1245,1221,1189,1183,1161,1141,1114,1080,1064,1029,960,817,809,797,787,779,782,737,747,758,757,759,759,762,768,751,763,761,761,787,788,788,777,789,762,773,760,759,765,772,773,771,772,765,785,787,790,793,824,1116,1235,1394,1526,1540,1512,1484,1478,1455,1439,1431,1394,1364,1352,1327,1319,1280,1256,1223,1215,1193,1174,1145,1110,1082,885,983,845,839,818,809,800,805,764,768,779,783,782,779,780,788,776,791,796,792,810,811,811,794,807,789,785,778,782,785,779,790,781,792,785,407,408,537,424,424,560,614,651,757,754,753,769,733,723,736,702,739,686,692,660,649,660,628,638,608,597,588,596,567,557,562,552,525,422,521,412,413,402,392,389,391,396,390,400,396,397,396,396,397,393,394,394,395,396,397,397,396,396,396,396,395,403,395,399,397,676,669,681,680,695,894,998,1158,1259,1290,1278,1250,1236,1215,1208,1226,1192,1177,1138,1126,1127,1082,1061,1034,1021,1013,980,960,942,926,915,883,717,695,717,696,700,683,635,630,635,639,639,636,646,644,639,644,646,643,661,664,662,651,668,647,649,647,645,643,649,650,648,649,648,0,0,0,0,0,0,0,0,0,0,0,0,0,0,0,0,0,0,0,0,0,0,0,0,0,0,0,0,0,0,0,0,0,0,0,0,0,0,0,0,0,0,0,0,0,0,0,0,0,0,0,0,0,0,0,0,0,0,0,0,0,0,0,0,0 ]);
