n = 10;
D = [298,297,103,253,241,270,228,251,190,129 ];
q = 0;
prec = array2d(1..0,1..2,[]);
steps = 64;
l = 360;
r = 0;
which = [];
interval = array2d(1..0,1..2,[]);
T = array3d(1..11,1..11,0..64,[0,0,0,0,0,0,0,0,0,0,0,0,0,0,0,0,0,0,0,0,0,0,0,0,0,0,0,0,0,0,0,0,0,0,0,0,0,0,0,0,0,0,0,0,0,0,0,0,0,0,0,0,0,0,0,0,0,0,0,0,0,0,0,0,0,924,925,927,925,954,1303,1568,1800,2039,2042,1993,1978,1949,1897,1846,1826,1793,1775,1711,1698,1640,1601,1563,1544,1505,1467,1436,1390,1351,1313,1216,1051,980,941,938,939,932,950,960,934,948,942,954,955,954,953,958,970,974,980,976,975,975,983,980,968,958,970,970,970,970,970,970,970,970,1358,1351,1368,1410,1612,2107,2497,2737,2842,2861,2802,2763,2728,2686,2609,2600,2525,2492,2422,2372,2332,2284,2231,2179,2128,2090,2061,1965,1801,1525,1508,1456,1423,1401,1379,1380,1385,1384,1393,1392,1395,1390,1406,1406,1409,1411,1402,1399,1413,1426,1420,1425,1432,1434,1435,1427,1416,1416,1416,1416,1416,1416,1416,1416,1416,1443,1417,1460,1547,1936,2255,2686,2866,2979,2963,2986,2849,2823,2803,2687,2664,2626,2534,2498,2479,2409,2363,2281,2300,2211,2167,2023,1663,1629,1595,1592,1496,1476,1462,1439,1505,1457,1464,1535,1547,1541,1557,1596,1518,1539,1555,1548,1555,1560,1554,1558,1558,1562,1556,1557,1557,1557,1557,1557,1557,1557,1557,1557,1557,1557,1282,1275,1288,1334,1404,1954,2311,2588,2706,2718,2662,2625,2592,2553,2478,2472,2417,2350,2322,2252,2213,2168,2118,2069,2019,1937,1921,1816,1567,1458,1405,1382,1347,1314,1301,1303,1303,1305,1308,1305,1311,1307,1318,1310,1326,1320,1313,1316,1331,1344,1338,1348,1354,1355,1350,1343,1338,1332,1332,1332,1332,1332,1332,1332,1332,1544,1557,1640,1794,2253,2876,3383,3516,3558,3547,3546,3423,3342,3302,3223,3213,3067,2996,2927,2900,2783,2735,2655,2430,2318,2224,2158,1870,1811,1754,1695,1642,1615,1633,1571,1580,1601,1611,1767,1769,1761,1769,1769,1769,1769,1769,1769,1769,1769,1769,1769,1769,1769,1769,1769,1769,1769,1769,1769,1769,1769,1769,1769,1769,1769,1021,1020,1023,1025,1070,1428,1756,1997,2183,2204,2174,2157,2125,2070,2016,1993,1956,1900,1870,1829,1793,1751,1710,1683,1613,1604,1573,1521,1480,1410,1143,1114,1053,1016,1035,1036,1029,1048,1073,1049,1044,1054,1055,1065,1065,1073,1080,1089,1079,1089,1089,1089,1089,1089,1089,1075,1073,1068,1068,1068,1068,1068,1068,1068,1068,1520,1522,1533,1651,1863,2414,2760,3023,3133,3137,3096,3029,3001,2944,2862,2848,2793,2716,2670,2609,2560,2508,2464,2394,2337,2189,2118,1869,1726,1681,1635,1612,1574,1543,1531,1528,1538,1537,1538,1540,1535,1545,1548,1541,1564,1554,1549,1546,1561,1572,1564,1581,1577,1580,1578,1561,1577,1579,1579,1579,1579,1579,1579,1579,1579,603,605,616,609,624,761,975,1015,1097,1135,1140,1124,1125,1091,1074,1074,1041,1026,1009,993,976,960,943,927,910,894,878,862,826,814,798,782,692,624,614,621,622,614,601,606,603,612,607,621,607,617,609,624,609,609,603,610,624,596,612,612,608,615,603,603,616,615,603,614,604,568,552,554,556,567,649,895,961,1042,1108,1086,1071,1099,1039,1024,1008,993,977,961,952,936,917,899,884,867,845,828,821,789,778,756,685,645,576,607,582,560,562,555,559,565,569,565,566,563,568,562,568,567,564,567,570,568,567,568,572,570,568,568,573,567,568,560,567,567,0,0,0,0,0,0,0,0,0,0,0,0,0,0,0,0,0,0,0,0,0,0,0,0,0,0,0,0,0,0,0,0,0,0,0,0,0,0,0,0,0,0,0,0,0,0,0,0,0,0,0,0,0,0,0,0,0,0,0,0,0,0,0,0,0,969,971,973,996,1060,1599,1859,2062,2137,2118,2164,2103,2061,1981,2002,1940,1900,1822,1845,1743,1739,1664,1658,1598,1545,1535,1498,1488,1417,1393,1070,1073,1014,999,962,979,1004,998,1019,1019,1019,1019,1019,1019,1019,1019,1019,1019,1019,1019,1019,1019,1019,1019,1019,1019,1019,1019,1019,1019,1019,1019,1019,1019,1019,0,0,0,0,0,0,0,0,0,0,0,0,0,0,0,0,0,0,0,0,0,0,0,0,0,0,0,0,0,0,0,0,0,0,0,0,0,0,0,0,0,0,0,0,0,0,0,0,0,0,0,0,0,0,0,0,0,0,0,0,0,0,0,0,0,520,516,522,524,532,648,804,897,987,1039,1046,1029,1012,995,979,962,946,929,904,896,880,914,847,830,814,797,773,764,748,730,713,697,646,598,531,528,529,531,531,528,525,529,528,552,529,536,531,529,533,526,529,531,531,535,552,535,531,533,536,552,531,552,532,552,535,895,899,900,904,941,1196,1444,1608,1724,1781,1776,1749,1722,1692,1678,1640,1619,1594,1559,1522,1504,1465,1437,1409,1394,1355,1323,1297,1220,1167,990,966,979,926,914,917,922,919,848,850,845,848,858,851,852,853,850,851,852,853,850,852,852,856,850,853,854,855,855,855,852,857,855,851,848,545,547,549,550,564,621,807,899,991,1069,1095,1085,1041,1045,1028,1010,973,977,958,942,906,888,894,874,838,820,823,805,747,696,682,665,638,588,564,560,561,562,536,533,539,541,543,540,538,542,542,539,543,545,546,548,549,548,551,551,548,548,550,545,548,544,547,552,543,1081,1084,1078,1095,1188,1496,1775,1977,2081,2119,2139,2073,2048,2028,1982,1939,1904,1872,1871,1804,1772,1765,1724,1689,1634,1600,1598,1447,1264,1252,1230,1166,1118,1115,1087,1085,1104,1110,1036,1038,1033,1036,1046,1039,1040,1041,1038,1039,1040,1041,1038,1040,1040,1044,1038,1041,1042,1043,1043,1043,1040,1045,1043,1039,1036,120,121,121,122,122,125,172,192,212,232,246,243,238,235,231,227,223,220,215,212,207,203,200,195,192,188,184,180,177,172,138,135,132,128,126,123,123,123,112,114,113,115,136,136,128,136,127,136,134,126,136,118,121,135,129,119,136,119,118,136,134,136,136,136,131,766,773,782,786,799,994,1187,1357,1455,1526,1544,1509,1470,1472,1447,1410,1373,1361,1336,1326,1277,1271,1254,1228,1193,1169,1156,1130,1084,937,907,926,861,793,804,778,796,783,769,762,767,776,767,781,769,773,782,773,776,775,777,776,774,790,777,780,779,781,788,793,793,793,792,793,793,924,932,937,938,984,1420,1672,1848,1956,1970,1970,1928,1919,1866,1832,1797,1762,1729,1694,1662,1624,1588,1542,1517,1482,1439,1385,1315,1282,1249,1237,1024,988,962,946,946,951,955,944,943,953,956,956,956,956,956,956,956,956,956,956,956,956,956,956,956,956,956,956,956,956,956,956,956,956,714,722,750,727,767,1076,1293,1489,1543,1568,1574,1533,1527,1525,1495,1431,1402,1373,1345,1316,1288,1259,1221,1210,1173,1135,1116,1087,1068,1030,926,796,773,831,734,733,738,732,737,737,733,744,749,736,746,754,748,748,752,754,754,754,754,754,754,754,754,754,746,748,754,741,753,745,741,969,971,973,996,1060,1599,1859,2062,2137,2118,2164,2103,2061,1981,2002,1940,1900,1822,1845,1743,1739,1664,1658,1598,1545,1535,1498,1488,1417,1393,1070,1073,1014,999,962,979,1004,998,1019,1019,1019,1019,1019,1019,1019,1019,1019,1019,1019,1019,1019,1019,1019,1019,1019,1019,1019,1019,1019,1019,1019,1019,1019,1019,1019,1381,1384,1370,1455,1549,2404,2688,2822,2907,2920,2859,2835,2792,2750,2709,2629,2573,2523,2493,2408,2375,2316,2283,2230,2148,2091,2068,1913,1594,1568,1506,1475,1465,1437,1403,1415,1412,1435,1423,1418,1411,1438,1416,1435,1420,1439,1427,1429,1434,1435,1434,1434,1440,1445,1452,1459,1438,1438,1460,1444,1440,1458,1441,1448,1446,547,549,550,552,563,701,854,910,1104,1074,1104,1086,1069,1051,992,994,998,981,1024,946,986,910,930,875,858,840,821,855,755,768,721,660,657,571,558,555,545,548,530,531,533,539,542,533,539,539,539,555,549,548,548,572,550,554,567,551,554,557,552,552,556,559,563,569,567,0,0,0,0,0,0,0,0,0,0,0,0,0,0,0,0,0,0,0,0,0,0,0,0,0,0,0,0,0,0,0,0,0,0,0,0,0,0,0,0,0,0,0,0,0,0,0,0,0,0,0,0,0,0,0,0,0,0,0,0,0,0,0,0,0,868,870,874,875,929,1230,1393,1550,1653,1712,1739,1703,1654,1648,1599,1593,1574,1538,1510,1463,1435,1408,1381,1354,1346,1318,1290,1245,1217,1147,1013,970,907,886,896,892,903,876,873,873,875,877,876,877,877,876,871,877,873,874,871,877,884,883,879,875,878,875,877,876,876,877,873,876,871,163,163,164,164,202,207,233,259,284,311,326,321,316,311,306,301,297,291,287,281,277,271,266,261,256,251,246,242,236,232,226,221,216,211,206,202,203,203,143,145,145,147,146,147,147,146,141,147,143,144,144,147,154,153,149,145,148,145,147,146,146,147,143,147,143,804,807,809,813,907,1142,1268,1434,1534,1581,1612,1624,1516,1549,1513,1478,1459,1417,1401,1401,1359,1324,1308,1282,1234,1229,1196,1174,1150,1107,1094,852,856,850,825,816,799,820,815,814,802,814,819,826,832,828,819,812,828,825,820,822,823,836,825,830,821,826,829,831,823,832,828,829,828,499,501,502,504,510,679,767,814,943,971,1003,986,971,955,898,902,907,892,876,860,844,829,794,797,781,765,750,733,686,701,656,535,535,522,511,506,496,509,503,520,492,492,511,501,503,508,513,512,582,531,589,535,520,523,526,527,512,528,593,589,596,597,594,559,531,334,335,336,337,339,443,502,563,620,673,683,672,661,650,639,628,617,606,595,584,573,562,552,541,530,519,508,497,486,475,464,453,442,431,343,340,341,342,378,332,382,339,334,334,384,342,333,329,380,341,336,336,334,333,331,341,336,340,336,333,333,335,341,335,333,1336,1340,1346,1395,1485,2090,2394,2528,2592,2618,2597,2561,2501,2482,2444,2404,2364,2324,2280,2237,2189,2148,2110,2067,2006,1965,1897,1773,1518,1529,1441,1428,1391,1374,1358,1349,1318,1286,1287,1276,1301,1307,1298,1306,1293,1290,1308,1321,1302,1309,1314,1327,1321,1324,1319,1316,1301,1306,1308,1303,1292,1316,1303,1330,1298,1137,1135,1145,1178,1209,1834,2084,2252,2360,2367,2347,2305,2274,2243,2207,2167,2126,2083,2040,1998,1958,1905,1873,1831,1788,1748,1704,1662,1531,1499,1269,1215,1203,1186,1166,1150,1153,1150,1135,1111,1118,1118,1130,1139,1122,1134,1128,1152,1144,1130,1148,1153,1166,1148,1145,1150,1142,1153,1144,1140,1141,1149,1149,1145,1145,1381,1384,1370,1455,1549,2404,2688,2822,2907,2920,2859,2835,2792,2750,2709,2629,2573,2523,2493,2408,2375,2316,2283,2230,2148,2091,2068,1913,1594,1568,1506,1475,1465,1437,1403,1415,1412,1435,1423,1418,1411,1438,1416,1435,1420,1439,1427,1429,1434,1435,1434,1434,1440,1445,1452,1459,1438,1438,1460,1444,1440,1458,1441,1448,1446,1241,1242,1255,1329,1465,1960,2365,2577,2647,2612,2640,2541,2510,2480,2456,2356,2311,2264,2218,2228,2148,2081,2035,2055,1942,1897,1851,1805,1748,1523,1373,1326,1327,1270,1263,1266,1282,1280,1335,1337,1333,1351,1358,1356,1355,1366,1358,1359,1372,1358,1360,1369,1372,1376,1376,1392,1381,1382,1418,1374,1388,1395,1362,1362,1362,910,912,925,922,1003,1245,1446,1674,1760,1802,1821,1760,1752,1705,1683,1659,1649,1601,1572,1541,1516,1478,1457,1428,1400,1373,1337,1303,1287,1227,1100,1057,955,946,940,947,924,893,875,864,884,882,885,879,881,876,883,899,896,893,890,896,887,881,884,890,894,893,884,880,888,886,881,880,879,948,940,959,980,1042,1319,1600,1775,1838,1873,1863,1833,1824,1765,1744,1733,1685,1673,1642,1597,1585,1537,1524,1553,1463,1419,1389,1359,1343,1313,1282,1209,990,1028,965,972,971,962,963,932,935,937,958,953,955,947,950,959,1021,969,978,979,984,980,976,972,977,1013,1042,1038,978,978,1042,989,987,0,0,0,0,0,0,0,0,0,0,0,0,0,0,0,0,0,0,0,0,0,0,0,0,0,0,0,0,0,0,0,0,0,0,0,0,0,0,0,0,0,0,0,0,0,0,0,0,0,0,0,0,0,0,0,0,0,0,0,0,0,0,0,0,0,701,702,716,707,765,959,1124,1254,1351,1394,1393,1371,1366,1327,1322,1299,1261,1255,1234,1210,1189,1151,1144,1121,1085,1063,1041,1019,997,1019,978,878,744,810,724,727,713,709,704,690,695,698,697,709,705,727,712,704,720,705,707,710,706,711,711,711,714,714,710,706,714,717,715,752,717,841,818,831,828,894,1117,1357,1553,1590,1648,1692,1598,1571,1546,1520,1491,1465,1459,1433,1390,1379,1338,1304,1299,1260,1249,1208,1183,1170,1144,1118,899,888,855,856,841,856,831,808,812,816,829,822,833,814,824,821,812,827,826,838,840,902,839,826,836,837,843,841,831,837,846,822,834,831,1006,1008,1009,1021,1099,1405,1626,1835,1938,1989,1966,1940,1902,1879,1854,1789,1815,1764,1699,1661,1647,1602,1604,1538,1542,1510,1472,1436,1386,1249,1227,1063,1052,1042,1015,1044,999,984,966,957,979,978,973,967,972,972,987,991,994,987,986,993,991,986,989,995,998,997,989,985,993,992,987,986,985,825,817,855,860,905,1121,1401,1565,1631,1631,1645,1658,1592,1547,1539,1494,1469,1514,1434,1391,1429,1339,1329,1301,1329,1250,1222,1170,1155,1144,1111,998,893,990,866,879,834,868,834,830,837,855,840,855,841,848,854,849,849,845,842,849,845,842,848,854,853,856,847,846,858,884,858,893,858,1177,1184,1190,1197,1246,1567,1969,2197,2298,2309,2325,2287,2238,2202,2163,2128,2088,2076,2018,1976,1939,1896,1879,1834,1812,1779,1738,1693,1492,1451,1312,1282,1248,1219,1197,1217,1190,1183,1151,1140,1136,1161,1163,1171,1174,1166,1169,1169,1162,1166,1165,1166,1176,1169,1169,1170,1167,1166,1166,1164,1170,1161,1166,1166,1166,1378,1345,1376,1441,1522,1952,2393,2610,2697,2704,2712,2667,2620,2569,2524,2483,2436,2417,2354,2306,2265,2222,2189,2147,2096,2069,2023,1865,1670,1520,1515,1430,1413,1374,1368,1370,1385,1386,1362,1349,1344,1387,1379,1386,1386,1389,1401,1396,1382,1391,1388,1402,1390,1384,1390,1378,1398,1384,1383,1382,1388,1387,1380,1380,1380,1241,1242,1255,1329,1465,1960,2365,2577,2647,2612,2640,2541,2510,2480,2456,2356,2311,2264,2218,2228,2148,2081,2035,2055,1942,1897,1851,1805,1748,1523,1373,1326,1327,1270,1263,1266,1282,1280,1335,1337,1333,1351,1358,1356,1355,1366,1358,1359,1372,1358,1360,1369,1372,1376,1376,1392,1381,1382,1418,1374,1388,1395,1362,1362,1362,1474,1461,1518,1640,2075,2555,2836,3008,3050,3081,3042,3001,2951,2894,2849,2754,2722,2674,2626,2565,2508,2451,2416,2306,2290,2224,2098,1738,1690,1662,1600,1553,1539,1508,1508,1501,1496,1517,1520,1520,1520,1520,1520,1520,1520,1520,1520,1520,1520,1520,1520,1520,1520,1520,1520,1520,1520,1520,1520,1520,1520,1520,1520,1520,1520,662,687,677,679,711,765,1133,1204,1344,1345,1435,1329,1331,1309,1287,1303,1222,1182,1160,1212,1135,1133,1145,1070,1067,1045,1023,1016,979,939,752,747,741,746,699,701,702,675,661,661,661,661,661,661,661,661,661,661,661,661,661,661,661,661,661,661,661,661,661,661,661,661,661,661,661,339,340,341,342,342,445,502,561,619,671,685,674,664,653,642,631,620,630,599,588,577,566,555,545,534,523,512,501,490,480,469,458,447,436,349,344,345,346,331,332,332,332,332,332,332,332,332,332,332,332,332,332,332,332,332,332,332,332,332,332,332,332,332,332,332,705,708,710,712,743,1024,1153,1304,1369,1501,1413,1470,1409,1345,1369,1300,1278,1309,1301,1210,1238,1214,1191,1174,1140,1074,1084,1063,1045,984,787,768,750,770,741,716,718,734,729,728,730,730,730,730,730,730,730,730,730,730,730,730,730,730,730,730,730,730,730,730,730,730,730,730,728,0,0,0,0,0,0,0,0,0,0,0,0,0,0,0,0,0,0,0,0,0,0,0,0,0,0,0,0,0,0,0,0,0,0,0,0,0,0,0,0,0,0,0,0,0,0,0,0,0,0,0,0,0,0,0,0,0,0,0,0,0,0,0,0,0,652,666,671,673,705,891,1059,1194,1250,1358,1376,1357,1335,1306,1225,1226,1224,1212,1131,1120,1158,1097,1113,1092,1088,1063,957,936,982,976,919,901,738,713,702,680,698,698,683,680,677,684,685,685,685,685,685,685,685,685,685,685,685,685,685,685,685,685,684,685,685,685,685,685,685,614,639,629,630,637,855,1008,1101,1178,1243,1273,1230,1234,1213,1193,1148,1131,1094,1074,1069,1052,1052,1009,993,992,971,951,910,910,891,854,744,727,709,657,634,623,627,629,624,629,629,629,629,629,629,629,629,629,629,629,629,629,629,629,629,629,629,629,629,629,629,629,629,629,346,347,348,349,351,458,520,580,642,694,706,682,671,672,661,650,638,627,561,603,592,581,570,558,547,536,524,513,502,491,479,468,457,445,355,351,352,353,345,347,346,347,347,347,347,347,347,347,347,347,347,347,347,347,347,347,347,347,347,347,347,347,347,347,347,1427,1430,1440,1553,1736,2355,2567,2728,2773,2820,2776,2731,2691,2640,2598,2542,2496,2463,2423,2372,2333,2287,2267,2184,2139,2102,2044,1843,1663,1615,1561,1524,1484,1455,1453,1438,1378,1384,1384,1397,1389,1389,1389,1389,1389,1389,1389,1389,1389,1389,1389,1389,1389,1389,1389,1389,1389,1389,1389,1389,1389,1389,1389,1389,1389,1225,1230,1237,1289,1620,2045,2232,2466,2538,2574,2516,2483,2436,2392,2351,2306,2261,2215,2190,2126,2072,2036,2012,1947,1911,1883,1835,1774,1648,1395,1359,1323,1289,1265,1247,1241,1253,1222,1209,1209,1209,1209,1209,1209,1209,1209,1209,1209,1209,1209,1209,1209,1209,1209,1209,1209,1209,1209,1209,1209,1209,1209,1209,1209,1209,1474,1461,1518,1640,2075,2555,2836,3008,3050,3081,3042,3001,2951,2894,2849,2754,2722,2674,2626,2565,2508,2451,2416,2306,2290,2224,2098,1738,1690,1662,1600,1553,1539,1508,1508,1501,1496,1517,1520,1520,1520,1520,1520,1520,1520,1520,1520,1520,1520,1520,1520,1520,1520,1520,1520,1520,1520,1520,1520,1520,1520,1520,1520,1520,1520,1559,1569,1650,1771,2465,2945,3431,3654,3612,3602,3601,3545,3445,3339,3258,3237,3114,3036,2984,2899,2891,2778,2700,2624,2429,2338,2205,1998,1839,1785,1697,1667,1605,1568,1565,1563,1580,1602,1793,1783,1798,1834,1840,1840,1828,1858,1863,1912,1848,1857,1876,1839,1858,1872,1892,1849,1878,1844,1842,1905,1873,1914,1888,1914,1907,1135,1138,1142,1170,1241,1621,1947,2139,2232,2314,2275,2240,2156,2149,2095,2041,2000,1997,1956,1918,1923,1868,1804,1787,1743,1697,1573,1367,1574,1269,1254,1221,1220,1167,1162,1152,1152,1120,1126,1128,1123,1130,1129,1125,1135,1123,1132,1134,1138,1124,1137,1134,1142,1130,1134,1150,1135,1135,1122,1134,1137,1137,1137,1137,1137,843,859,864,874,911,1132,1376,1567,1679,1706,1680,1677,1650,1622,1631,1541,1514,1514,1520,1488,1464,1405,1368,1351,1350,1293,1279,1239,1160,1125,1098,977,890,870,899,869,866,906,879,886,889,891,889,892,891,906,885,888,901,895,895,905,904,897,893,892,896,896,893,890,884,884,884,884,884,858,855,876,893,921,1211,1404,1535,1630,1676,1688,1666,1645,1618,1598,1571,1504,1478,1488,1455,1436,1367,1367,1351,1307,1278,1271,1234,1185,1204,1178,1063,873,854,874,863,889,850,870,852,862,876,849,854,859,866,878,878,879,873,883,880,866,883,880,873,884,886,881,876,877,892,882,878,882,660,661,688,667,700,851,1012,1129,1259,1307,1347,1313,1311,1254,1233,1219,1216,1170,1173,1152,1124,1088,1101,1046,1031,1010,990,969,977,922,916,720,703,696,689,691,706,693,653,658,663,676,678,667,665,691,663,696,679,681,678,674,666,674,676,678,671,678,667,671,665,665,665,665,665,0,0,0,0,0,0,0,0,0,0,0,0,0,0,0,0,0,0,0,0,0,0,0,0,0,0,0,0,0,0,0,0,0,0,0,0,0,0,0,0,0,0,0,0,0,0,0,0,0,0,0,0,0,0,0,0,0,0,0,0,0,0,0,0,0,1192,1204,1213,1248,1419,1666,2061,2206,2323,2366,2354,2295,2300,2217,2178,2156,2101,2084,2047,1999,1980,1935,1923,1859,1842,1785,1711,1505,1645,1329,1301,1258,1257,1237,1245,1227,1230,1214,1213,1215,1217,1227,1225,1225,1227,1219,1224,1226,1232,1221,1231,1234,1231,1225,1234,1242,1230,1228,1223,1234,1225,1225,1225,1225,1225,486,486,488,490,496,690,750,839,926,976,1046,1058,952,937,920,989,889,873,858,842,826,810,868,829,763,748,732,716,700,685,668,712,638,508,496,493,585,495,499,494,494,498,505,492,493,495,496,504,507,506,504,526,507,500,534,531,501,507,508,506,507,506,511,540,525,1692,1722,1828,1968,2225,2919,3073,3243,3307,3341,3327,3246,3201,3136,3087,3039,2999,2948,2896,2823,2678,2335,2374,2187,2106,2134,2034,2003,1953,1920,1829,1800,1747,1692,1699,1697,1715,1681,1671,1686,1685,1699,1708,1731,1708,1721,1720,1708,1739,1712,1704,1706,1710,1726,1708,1711,1714,1708,1708,1703,1708,1713,1706,1704,1693,1556,1598,1682,1927,2383,2805,3126,3253,3324,3344,3331,3271,3202,3155,3082,2994,2946,2920,2851,2789,2736,2644,2635,2317,2120,2034,2032,1910,1878,1782,1721,1681,1692,1602,1592,1605,1619,1629,1672,1665,1684,1676,1685,1693,1696,1708,1702,1692,1705,1705,1698,1707,1702,1708,1704,1703,1704,1701,1695,1703,1705,1705,1705,1705,1705,1559,1569,1650,1771,2465,2945,3431,3654,3612,3602,3601,3545,3445,3339,3258,3237,3114,3036,2984,2899,2891,2778,2700,2624,2429,2338,2205,1998,1839,1785,1697,1667,1605,1568,1565,1563,1580,1602,1793,1783,1798,1834,1840,1840,1828,1858,1863,1912,1848,1857,1876,1839,1858,1872,1892,1849,1878,1844,1842,1905,1873,1914,1888,1914,1907,1063,1065,1067,1091,1155,1695,1993,2211,2272,2298,2313,2293,2227,2164,2141,2118,2055,1993,1988,1908,1884,1823,1797,1750,1694,1668,1625,1590,1554,1430,1202,1166,1097,1092,1060,1074,1099,1094,1105,1104,1102,1103,1109,1112,1106,1109,1109,1112,1109,1118,1129,1130,1112,1116,1114,1107,1110,1111,1116,1129,1116,1129,1127,1129,1116,94,94,94,95,95,96,134,149,165,180,192,190,187,183,180,178,174,171,168,165,162,159,156,152,149,147,144,140,137,135,132,128,125,122,98,95,95,96,86,85,83,84,90,93,87,90,90,93,90,99,122,122,93,97,95,88,91,92,97,129,97,126,122,128,97,491,492,494,495,502,667,754,842,929,981,987,972,957,941,925,909,894,878,863,847,831,816,800,784,768,753,730,722,706,690,675,660,643,603,502,498,499,501,495,499,493,500,503,504,559,522,498,504,504,535,506,497,500,508,507,503,506,503,499,503,499,506,505,570,495,988,993,994,998,1047,1355,1596,1757,1915,1963,1955,1927,1893,1862,1831,1797,1769,1748,1703,1672,1643,1622,1593,1560,1540,1499,1467,1424,1309,1234,1122,1062,1048,1017,1008,1005,1008,971,934,933,928,932,939,935,934,938,938,934,936,936,937,937,937,941,935,941,938,945,941,942,939,944,944,938,936,538,540,541,548,560,731,832,926,1007,1068,1074,1059,1040,1023,1007,990,973,957,939,922,905,889,873,855,837,822,795,789,773,756,739,721,705,657,555,550,552,532,515,520,526,551,529,530,519,524,520,517,522,522,519,527,530,554,528,530,521,526,522,532,528,573,527,630,525,1175,1178,1172,1199,1270,1592,1918,2126,2287,2297,2286,2263,2222,2166,2147,2110,2078,2027,1989,1957,1927,1890,1843,1805,1772,1743,1708,1447,1398,1300,1278,1281,1213,1234,1185,1180,1202,1159,1122,1121,1116,1120,1127,1123,1122,1126,1126,1122,1124,1124,1125,1125,1125,1129,1123,1129,1126,1133,1129,1130,1127,1132,1132,1126,1124,0,0,0,0,0,0,0,0,0,0,0,0,0,0,0,0,0,0,0,0,0,0,0,0,0,0,0,0,0,0,0,0,0,0,0,0,0,0,0,0,0,0,0,0,0,0,0,0,0,0,0,0,0,0,0,0,0,0,0,0,0,0,0,0,0,763,766,768,770,821,1068,1250,1369,1467,1521,1520,1496,1472,1448,1423,1399,1374,1350,1327,1302,1277,1253,1229,1204,1179,1157,1119,1116,1093,1068,1036,1018,835,795,799,795,798,767,750,757,763,787,763,767,760,763,757,754,764,764,761,764,765,800,767,769,764,769,821,771,834,833,766,840,769,1018,1027,1030,1046,1185,1540,1806,1991,2121,2150,2146,2108,2074,2033,1983,1956,1917,1880,1845,1810,1768,1747,1685,1655,1619,1581,1476,1438,1403,1366,1325,1109,1079,1054,1042,1041,1046,1036,1032,1028,1034,1040,1046,1045,1043,1046,1046,1048,1046,1055,1066,1067,1049,1053,1051,1044,1047,1048,1053,1061,1050,1052,1064,1058,1052,808,816,819,822,862,1172,1427,1625,1708,1748,1751,1720,1688,1656,1613,1593,1563,1531,1499,1468,1436,1418,1364,1343,1311,1279,1248,1224,1185,1118,1056,924,866,868,829,828,824,828,822,823,816,826,838,831,833,844,838,841,842,853,864,851,847,846,849,842,845,846,844,864,851,864,862,864,838,1063,1065,1067,1091,1155,1695,1993,2211,2272,2298,2313,2293,2227,2164,2141,2118,2055,1993,1988,1908,1884,1823,1797,1750,1694,1668,1625,1590,1554,1430,1202,1166,1097,1092,1060,1074,1099,1094,1105,1104,1102,1103,1109,1112,1106,1109,1109,1112,1109,1118,1129,1130,1112,1116,1114,1107,1110,1111,1116,1129,1116,1129,1127,1129,1116,1575,1585,1642,1721,2298,2812,3121,3336,3306,3283,3272,3221,3152,3111,3020,2977,3019,2882,2790,2735,2702,2645,2425,2117,2356,2065,1949,1886,1874,1768,1744,1704,1628,1633,1627,1630,1621,1643,1666,1649,1681,1651,1670,1667,1679,1676,1675,1696,1685,1678,1684,1689,1691,1709,1693,1686,1679,1701,1685,1704,1705,1680,1686,1691,1690,809,811,813,822,846,1069,1313,1447,1635,1676,1669,1643,1618,1591,1472,1545,1515,1492,1463,1384,1410,1342,1356,1324,1303,1225,1240,1201,1107,963,941,918,897,843,828,798,823,799,807,809,828,801,814,813,808,817,820,835,820,811,822,818,821,846,822,820,819,829,813,845,821,818,813,820,819,406,407,409,410,412,424,587,722,722,776,786,774,762,749,737,724,711,699,687,674,662,650,638,624,612,600,587,575,563,551,440,430,420,409,399,413,414,414,415,402,399,401,405,409,550,551,411,432,421,406,408,446,552,562,551,566,552,561,552,435,430,420,408,405,399,879,900,920,924,1023,1316,1495,1629,1725,1754,1810,1778,1750,1663,1666,1657,1636,1582,1524,1533,1466,1491,1412,1384,1356,1342,1349,1303,1285,1179,999,1116,996,958,895,913,895,902,897,890,904,905,914,913,931,923,924,921,914,917,909,917,918,917,923,908,948,937,916,921,928,935,947,924,905,278,279,279,279,280,361,408,454,500,545,557,548,540,531,522,514,506,497,488,479,470,462,471,444,435,426,419,410,417,392,383,375,366,357,298,281,282,283,272,278,282,274,271,279,273,278,279,271,278,274,271,270,282,279,283,277,280,276,279,274,282,274,271,279,273,471,473,477,476,564,641,706,810,871,947,953,1023,985,908,991,877,862,851,811,817,825,786,793,756,741,726,710,695,679,664,650,634,619,494,482,480,494,483,480,482,480,485,485,492,484,492,486,483,489,484,484,486,489,546,494,545,485,491,493,540,490,543,493,535,532,761,763,765,770,807,991,1216,1342,1542,1583,1581,1555,1530,1505,1380,1456,1427,1405,1378,1354,1328,1290,1278,1253,1229,1202,1178,1141,1094,973,950,929,848,826,811,749,812,776,811,783,789,797,790,821,796,820,813,801,870,801,797,804,806,817,806,801,810,810,804,807,803,815,795,814,803,0,0,0,0,0,0,0,0,0,0,0,0,0,0,0,0,0,0,0,0,0,0,0,0,0,0,0,0,0,0,0,0,0,0,0,0,0,0,0,0,0,0,0,0,0,0,0,0,0,0,0,0,0,0,0,0,0,0,0,0,0,0,0,0,0,1546,1552,1580,1679,2013,2592,2821,3061,3005,3015,2979,2947,2899,2848,2806,2767,2807,2670,2610,2552,2510,2473,2507,2374,2241,1881,1871,1776,1860,1725,1676,1634,1612,1587,1586,1564,1504,1511,1529,1542,1533,1528,1537,1535,1528,1538,1539,1561,1540,1542,1542,1545,1580,1533,1539,1538,1533,1571,1533,1532,1540,1543,1544,1545,1544,1347,1354,1361,1414,1755,2212,2551,2827,2753,2769,2742,2692,2645,2596,2547,2513,2560,2414,2380,2334,2275,2235,2283,2137,2089,2039,1990,1852,1812,1644,1490,1451,1426,1383,1371,1367,1378,1348,1355,1355,1361,1367,1385,1370,1376,1377,1398,1406,1380,1389,1408,1407,1394,1400,1401,1390,1392,1403,1380,1409,1401,1388,1383,1383,1382,1575,1585,1642,1721,2298,2812,3121,3336,3306,3283,3272,3221,3152,3111,3020,2977,3019,2882,2790,2735,2702,2645,2425,2117,2356,2065,1949,1886,1874,1768,1744,1704,1628,1633,1627,1630,1621,1643,1666,1649,1681,1651,1670,1667,1679,1676,1675,1696,1685,1678,1684,1689,1691,1709,1693,1686,1679,1701,1685,1704,1705,1680,1686,1691,1690,606,608,609,610,612,793,905,989,1072,1155,1142,1126,1114,1093,1075,1059,1042,1026,1009,993,986,970,952,927,910,894,877,873,848,831,816,654,641,629,618,614,615,617,586,597,598,607,606,601,608,614,598,606,605,611,614,623,621,644,630,606,611,621,623,601,614,616,607,641,606,914,920,915,918,959,1315,1532,1822,1936,1943,1929,1908,1884,1850,1782,1757,1724,1710,1675,1641,1579,1549,1530,1489,1443,1424,1393,1366,1352,1301,1013,1086,971,952,945,941,933,943,918,917,922,936,934,934,922,940,927,928,929,933,925,935,932,935,939,943,941,943,941,938,941,941,942,941,940,1342,1351,1359,1403,1618,2118,2395,2678,2753,2815,2752,2761,2655,2602,2555,2506,2477,2424,2364,2322,2270,2225,2169,2139,2080,2050,1947,1820,1582,1558,1519,1444,1427,1414,1382,1385,1385,1414,1368,1371,1371,1369,1375,1380,1367,1379,1373,1371,1377,1377,1373,1380,1377,1378,1379,1378,1375,1378,1377,1374,1380,1385,1376,1375,1374,1189,1193,1219,1240,1497,1810,2127,2245,2356,2345,2363,2325,2286,2218,2181,2143,2154,2112,2115,1995,1982,1957,1883,1885,1834,1790,1751,1649,1358,1328,1365,1267,1284,1220,1220,1207,1238,1218,1217,1227,1220,1228,1239,1237,1229,1233,1247,1244,1227,1237,1231,1232,1240,1228,1241,1241,1236,1237,1235,1237,1237,1235,1232,1231,1223,1271,1274,1279,1329,1424,1965,2238,2555,2606,2664,2611,2623,2520,2488,2421,2376,2332,2299,2241,2209,2151,2108,2065,2029,1970,1921,1872,1740,1733,1480,1442,1367,1335,1315,1304,1311,1306,1326,1289,1284,1287,1286,1286,1290,1284,1288,1286,1288,1292,1295,1294,1300,1299,1298,1294,1302,1297,1294,1298,1289,1295,1302,1288,1287,1286,1633,1654,1647,1796,2210,2964,3155,3277,3333,3340,3300,3263,3185,3178,3095,3064,2994,2945,2998,2835,2742,2471,2382,2375,2126,2065,2044,1984,1907,1836,1785,1730,1678,1689,1666,1667,1700,1715,1729,1722,1729,1737,1732,1747,1733,1744,1741,1744,1736,1736,1731,1736,1741,1726,1739,1742,1734,1741,1730,1727,1735,1735,1728,1734,1726,1000,1017,1012,994,1071,1476,1716,2014,2082,2129,2112,2057,2060,2024,1952,1925,1889,1848,1834,1792,1697,1699,1676,1633,1596,1563,1529,1499,1451,1425,1114,1116,1067,1049,1018,1038,1031,1041,1025,1016,1015,1024,1035,1035,1030,1037,1031,1031,1035,1036,1034,1036,1035,1034,1034,1037,1035,1037,1036,1032,1035,1035,1036,1035,1034,1497,1502,1535,1634,1869,2425,2694,2993,3039,3086,3043,3031,2917,2881,2830,2760,2707,2665,2603,2564,2499,2450,2411,2354,2194,2189,1829,1950,1731,1704,1661,1607,1563,1544,1528,1541,1540,1558,1517,1518,1511,1524,1517,1521,1524,1522,1519,1518,1526,1523,1519,1531,1522,1524,1522,1527,1531,1534,1540,1540,1540,1560,1540,1539,1538,0,0,0,0,0,0,0,0,0,0,0,0,0,0,0,0,0,0,0,0,0,0,0,0,0,0,0,0,0,0,0,0,0,0,0,0,0,0,0,0,0,0,0,0,0,0,0,0,0,0,0,0,0,0,0,0,0,0,0,0,0,0,0,0,0,338,339,340,347,342,364,498,561,619,669,680,669,660,658,638,627,625,606,595,585,583,563,552,542,531,520,510,499,488,477,382,373,364,355,347,342,343,344,324,323,324,326,331,327,326,329,326,324,326,327,326,326,326,326,327,328,328,328,326,329,326,331,328,328,327,606,608,609,610,612,793,905,989,1072,1155,1142,1126,1114,1093,1075,1059,1042,1026,1009,993,986,970,952,927,910,894,877,873,848,831,816,654,641,629,618,614,615,617,586,597,598,607,606,601,608,614,598,606,605,611,614,623,621,644,630,606,611,621,623,601,614,616,607,641,606,504,506,507,508,510,625,715,786,870,934,953,939,926,913,898,885,871,858,844,830,818,804,790,777,764,750,737,723,709,702,683,669,642,525,515,512,512,513,475,470,475,490,484,476,489,498,483,482,494,496,502,505,504,511,489,482,488,504,506,492,500,507,498,502,499,714,733,731,734,754,1133,1254,1426,1551,1588,1581,1529,1501,1467,1453,1540,1410,1389,1323,1324,1276,1267,1238,1210,1155,1152,1106,1078,1067,1038,993,987,766,744,728,726,727,734,752,738,738,747,728,735,742,740,755,772,744,756,765,758,766,772,772,752,749,754,755,774,772,769,763,770,774,1172,1155,1163,1175,1314,1867,2102,2262,2371,2413,2372,2351,2376,2279,2217,2284,2135,2094,2123,2000,1987,1929,1887,1846,1870,1756,1740,1706,1658,1308,1275,1241,1222,1199,1233,1180,1184,1187,1194,1204,1202,1207,1196,1224,1202,1230,1212,1219,1208,1215,1222,1229,1229,1230,1245,1233,1223,1216,1223,1212,1218,1217,1244,1224,1209,1405,1413,1419,1486,1658,2165,2568,2739,2781,2795,2784,2726,2706,2637,2593,2577,2517,2460,2428,2405,2327,2324,2261,2211,2162,2113,1951,1675,1683,1600,1549,1505,1458,1448,1431,1422,1392,1398,1389,1397,1402,1411,1405,1416,1405,1425,1419,1426,1423,1411,1423,1427,1432,1425,1433,1439,1415,1423,1426,1434,1419,1429,1418,1428,1416,1075,1079,1092,1095,1285,1724,1961,2120,2222,2268,2238,2210,2238,2143,2105,2153,2005,1966,1997,1888,1866,1811,1772,1733,1760,1655,1611,1562,1494,1310,1208,1163,1146,1119,1155,1102,1097,1107,1105,1117,1121,1125,1118,1142,1119,1140,1123,1136,1126,1128,1132,1146,1142,1143,1160,1153,1138,1134,1143,1125,1129,1135,1155,1140,1125,1525,1531,1546,1694,2101,2750,3009,3179,3243,3287,3205,3196,3150,3053,3004,3063,2903,2836,2790,2737,2691,2605,2549,2306,2096,2080,1988,1872,1807,1744,1708,1637,1588,1571,1558,1565,1597,1601,1589,1599,1590,1612,1599,1608,1599,1620,1607,1614,1614,1610,1616,1615,1626,1618,1634,1627,1626,1630,1625,1622,1626,1640,1617,1616,1615,788,829,804,835,842,1301,1441,1577,1743,1777,1767,1711,1680,1644,1625,1710,1577,1554,1485,1482,1431,1420,1353,1356,1298,1293,1244,1213,1199,1167,1119,1082,864,818,824,823,824,831,841,835,835,842,830,841,837,841,852,857,844,849,847,864,857,859,858,858,849,853,861,885,856,861,846,861,852,1302,1305,1328,1354,1665,2182,2418,2588,2667,2695,2670,2626,2642,2541,2500,2537,2383,2340,2366,2249,2220,2173,2113,2066,2085,1987,1955,1803,1728,1492,1438,1404,1373,1348,1385,1332,1332,1336,1336,1356,1339,1355,1338,1369,1368,1369,1359,1366,1356,1358,1358,1361,1368,1373,1388,1371,1367,1382,1376,1376,1374,1430,1398,1390,1375,365,366,367,368,369,445,545,607,669,720,731,720,708,697,686,674,663,652,640,629,617,606,595,583,572,561,548,537,525,514,503,491,393,383,374,370,371,372,354,351,353,355,356,355,356,357,355,360,360,360,360,361,360,358,360,363,364,369,362,362,364,364,364,364,364,0,0,0,0,0,0,0,0,0,0,0,0,0,0,0,0,0,0,0,0,0,0,0,0,0,0,0,0,0,0,0,0,0,0,0,0,0,0,0,0,0,0,0,0,0,0,0,0,0,0,0,0,0,0,0,0,0,0,0,0,0,0,0,0,0,504,506,507,508,510,625,715,786,870,934,953,939,926,913,898,885,871,858,844,830,818,804,790,777,764,750,737,723,709,702,683,669,642,525,515,512,512,513,475,470,475,490,484,476,489,498,483,482,494,496,502,505,504,511,489,482,488,504,506,492,500,507,498,502,499,0,0,0,0,0,0,0,0,0,0,0,0,0,0,0,0,0,0,0,0,0,0,0,0,0,0,0,0,0,0,0,0,0,0,0,0,0,0,0,0,0,0,0,0,0,0,0,0,0,0,0,0,0,0,0,0,0,0,0,0,0,0,0,0,0,924,925,927,925,954,1303,1568,1800,2039,2042,1993,1978,1949,1897,1846,1826,1793,1775,1711,1698,1640,1601,1563,1544,1505,1467,1436,1390,1351,1313,1216,1051,980,941,938,939,932,950,960,934,948,942,954,955,954,953,958,970,974,980,976,975,975,983,980,968,958,970,970,970,970,970,970,970,970,1358,1351,1368,1410,1612,2107,2497,2737,2842,2861,2802,2763,2728,2686,2609,2600,2525,2492,2422,2372,2332,2284,2231,2179,2128,2090,2061,1965,1801,1525,1508,1456,1423,1401,1379,1380,1385,1384,1393,1392,1395,1390,1406,1406,1409,1411,1402,1399,1413,1426,1420,1425,1432,1434,1435,1427,1416,1416,1416,1416,1416,1416,1416,1416,1416,1443,1417,1460,1547,1936,2255,2686,2866,2979,2963,2986,2849,2823,2803,2687,2664,2626,2534,2498,2479,2409,2363,2281,2300,2211,2167,2023,1663,1629,1595,1592,1496,1476,1462,1439,1505,1457,1464,1535,1547,1541,1557,1596,1518,1539,1555,1548,1555,1560,1554,1558,1558,1562,1556,1557,1557,1557,1557,1557,1557,1557,1557,1557,1557,1557,1282,1275,1288,1334,1404,1954,2311,2588,2706,2718,2662,2625,2592,2553,2478,2472,2417,2350,2322,2252,2213,2168,2118,2069,2019,1937,1921,1816,1567,1458,1405,1382,1347,1314,1301,1303,1303,1305,1308,1305,1311,1307,1318,1310,1326,1320,1313,1316,1331,1344,1338,1348,1354,1355,1350,1343,1338,1332,1332,1332,1332,1332,1332,1332,1332,1544,1557,1640,1794,2253,2876,3383,3516,3558,3547,3546,3423,3342,3302,3223,3213,3067,2996,2927,2900,2783,2735,2655,2430,2318,2224,2158,1870,1811,1754,1695,1642,1615,1633,1571,1580,1601,1611,1767,1769,1761,1769,1769,1769,1769,1769,1769,1769,1769,1769,1769,1769,1769,1769,1769,1769,1769,1769,1769,1769,1769,1769,1769,1769,1769,1021,1020,1023,1025,1070,1428,1756,1997,2183,2204,2174,2157,2125,2070,2016,1993,1956,1900,1870,1829,1793,1751,1710,1683,1613,1604,1573,1521,1480,1410,1143,1114,1053,1016,1035,1036,1029,1048,1073,1049,1044,1054,1055,1065,1065,1073,1080,1089,1079,1089,1089,1089,1089,1089,1089,1075,1073,1068,1068,1068,1068,1068,1068,1068,1068,1520,1522,1533,1651,1863,2414,2760,3023,3133,3137,3096,3029,3001,2944,2862,2848,2793,2716,2670,2609,2560,2508,2464,2394,2337,2189,2118,1869,1726,1681,1635,1612,1574,1543,1531,1528,1538,1537,1538,1540,1535,1545,1548,1541,1564,1554,1549,1546,1561,1572,1564,1581,1577,1580,1578,1561,1577,1579,1579,1579,1579,1579,1579,1579,1579,603,605,616,609,624,761,975,1015,1097,1135,1140,1124,1125,1091,1074,1074,1041,1026,1009,993,976,960,943,927,910,894,878,862,826,814,798,782,692,624,614,621,622,614,601,606,603,612,607,621,607,617,609,624,609,609,603,610,624,596,612,612,608,615,603,603,616,615,603,614,604,568,552,554,556,567,649,895,961,1042,1108,1086,1071,1099,1039,1024,1008,993,977,961,952,936,917,899,884,867,845,828,821,789,778,756,685,645,576,607,582,560,562,555,559,565,569,565,566,563,568,562,568,567,564,567,570,568,567,568,572,570,568,568,573,567,568,560,567,567,0,0,0,0,0,0,0,0,0,0,0,0,0,0,0,0,0,0,0,0,0,0,0,0,0,0,0,0,0,0,0,0,0,0,0,0,0,0,0,0,0,0,0,0,0,0,0,0,0,0,0,0,0,0,0,0,0,0,0,0,0,0,0,0,0 ]);
