n = 10;
D = [118,206,91,168,87,99,212,271,295,168 ];
q = 0;
prec = array2d(1..0,1..2,[]);
steps = 64;
l = 360;
r = 0;
which = [];
interval = array2d(1..0,1..2,[]);
T = array3d(1..11,1..11,0..64,[0,0,0,0,0,0,0,0,0,0,0,0,0,0,0,0,0,0,0,0,0,0,0,0,0,0,0,0,0,0,0,0,0,0,0,0,0,0,0,0,0,0,0,0,0,0,0,0,0,0,0,0,0,0,0,0,0,0,0,0,0,0,0,0,0,419,420,407,420,421,507,624,694,772,799,823,805,783,783,761,759,756,740,746,704,718,699,679,652,643,625,617,604,592,583,566,521,546,425,431,412,423,414,378,378,378,378,378,378,378,378,378,378,378,378,378,378,378,378,378,378,378,378,378,378,378,378,378,378,378,679,675,673,682,700,928,1049,1162,1266,1347,1341,1312,1302,1268,1255,1229,1200,1211,1166,1153,1125,1109,1108,1067,1042,1027,1008,980,964,946,838,879,720,700,708,685,687,692,652,665,672,661,670,665,669,674,665,674,666,665,671,669,674,674,674,672,673,668,667,673,673,673,670,673,670,437,438,440,441,446,564,662,738,814,879,888,875,864,847,837,821,804,789,775,764,750,735,718,704,690,678,661,650,633,619,604,590,548,459,449,451,455,443,401,398,402,404,404,401,405,405,405,408,403,407,411,429,426,410,435,411,411,411,411,411,411,411,411,411,411,689,692,693,696,713,946,1088,1191,1326,1387,1378,1346,1334,1312,1281,1259,1238,1227,1195,1173,1152,1130,1130,1087,1067,1045,1024,1002,980,959,937,868,793,714,702,702,704,715,675,682,677,696,683,695,682,697,692,697,697,692,697,697,697,697,697,697,697,697,697,697,695,695,695,695,695,617,620,621,623,633,832,940,1046,1179,1215,1231,1202,1192,1173,1141,1126,1106,1093,1078,1050,1030,1021,1012,974,954,944,917,905,878,816,803,672,657,674,630,627,628,630,618,614,612,616,621,634,619,622,631,626,619,623,621,625,623,620,630,631,627,627,624,628,628,632,631,633,633,475,477,477,479,484,550,689,769,867,911,920,904,899,875,870,849,835,821,814,795,781,771,754,740,733,712,705,685,672,658,645,582,518,500,489,485,482,450,405,405,405,405,405,405,405,405,405,405,405,405,405,405,405,405,405,405,405,405,405,405,405,405,405,405,405,358,359,360,360,362,433,517,574,632,689,713,702,691,675,669,653,642,632,621,610,599,588,593,567,560,545,534,523,512,506,491,480,457,375,394,363,364,361,311,318,316,319,320,320,317,319,315,323,315,319,320,327,326,327,324,319,319,319,319,319,319,319,319,319,319,420,421,423,444,426,507,659,709,785,830,834,863,810,797,787,774,756,745,739,719,705,693,680,701,654,641,633,614,601,592,536,524,450,483,451,428,429,447,410,417,417,421,423,424,418,423,417,423,420,420,425,428,430,435,428,425,429,420,430,432,428,432,423,430,423,353,355,356,357,357,405,508,560,616,667,677,668,668,648,646,628,618,608,604,589,579,573,559,549,540,531,519,510,500,485,475,421,378,399,361,362,359,360,307,307,307,307,307,307,307,307,307,307,307,307,307,307,307,307,307,307,307,307,307,307,307,307,307,307,307,0,0,0,0,0,0,0,0,0,0,0,0,0,0,0,0,0,0,0,0,0,0,0,0,0,0,0,0,0,0,0,0,0,0,0,0,0,0,0,0,0,0,0,0,0,0,0,0,0,0,0,0,0,0,0,0,0,0,0,0,0,0,0,0,0,441,456,456,452,455,581,657,717,781,811,821,809,798,786,775,763,751,740,749,738,726,715,701,691,680,668,655,644,628,612,600,588,481,460,459,455,461,421,388,386,399,398,403,423,401,407,416,413,403,410,404,407,407,401,403,401,401,401,401,401,401,401,401,401,401,0,0,0,0,0,0,0,0,0,0,0,0,0,0,0,0,0,0,0,0,0,0,0,0,0,0,0,0,0,0,0,0,0,0,0,0,0,0,0,0,0,0,0,0,0,0,0,0,0,0,0,0,0,0,0,0,0,0,0,0,0,0,0,0,0,978,977,995,988,1135,1380,1613,1794,1897,1893,1882,1858,1823,1783,1766,1752,1724,1694,1699,1673,1640,1619,1589,1545,1506,1474,1444,1395,1245,1206,1092,1057,1061,1012,1001,1007,991,968,932,938,950,936,948,928,950,947,942,943,928,939,942,944,952,959,962,947,947,947,947,947,947,947,947,947,947,818,821,802,827,867,1154,1301,1433,1477,1519,1489,1489,1454,1416,1422,1398,1360,1344,1337,1361,1344,1323,1284,1274,1242,1220,1171,1155,1122,1113,882,882,863,843,841,838,818,814,777,778,783,792,793,793,793,796,790,807,797,809,801,795,801,800,800,800,800,800,800,800,800,800,800,800,800,993,996,1007,1002,1128,1421,1642,1852,1944,1925,1915,1885,1855,1825,1794,1779,1749,1718,1727,1697,1665,1644,1613,1578,1529,1492,1460,1425,1348,1234,1104,1079,1053,1022,1012,1014,1021,991,953,951,968,953,964,949,971,963,967,964,957,967,973,973,974,983,987,972,972,972,972,972,972,972,972,972,972,921,921,935,936,1002,1281,1497,1700,1797,1780,1772,1746,1717,1690,1662,1645,1621,1593,1603,1577,1547,1527,1500,1467,1420,1391,1357,1324,1186,1166,1088,1003,981,951,939,940,944,935,887,884,888,892,906,897,897,904,897,892,899,896,901,903,912,912,918,898,898,898,898,898,898,898,898,898,898,556,554,560,567,565,632,830,916,999,1090,1076,1062,1044,1061,1015,1005,991,945,951,912,897,882,866,856,834,820,805,794,797,780,746,624,598,580,568,566,578,542,495,497,499,514,509,503,502,508,508,506,513,518,521,522,522,536,511,508,508,508,508,508,508,508,508,508,508,661,664,673,667,677,865,1025,1160,1272,1269,1271,1251,1232,1213,1194,1189,1169,1149,1168,1149,1128,1115,1092,1071,1029,1005,984,959,942,899,853,841,713,686,677,677,682,635,600,597,596,597,603,598,600,600,598,595,594,597,604,613,619,620,617,601,601,601,601,601,601,601,601,601,601,730,729,737,732,741,930,1152,1302,1416,1403,1400,1373,1358,1340,1311,1308,1289,1265,1281,1273,1233,1212,1195,1174,1124,1102,1078,1051,968,960,803,810,785,749,747,754,753,702,662,670,671,675,680,678,675,677,674,690,672,676,684,687,701,706,705,682,682,682,682,682,682,682,682,682,682,443,432,438,440,438,495,648,691,753,848,839,828,814,834,793,785,777,735,744,709,697,686,674,666,652,640,629,619,627,612,569,571,458,457,473,442,443,445,397,396,400,413,405,400,401,409,405,407,410,407,407,407,415,411,408,405,405,405,405,405,405,405,405,405,405,441,456,456,452,455,581,657,717,781,811,821,809,798,786,775,763,751,740,749,738,726,715,701,691,680,668,655,644,628,612,600,588,481,460,459,455,461,421,388,386,399,398,403,423,401,407,416,413,403,410,404,407,407,401,403,401,401,401,401,401,401,401,401,401,401,621,625,627,628,634,828,963,1070,1164,1212,1255,1237,1216,1196,1175,1156,1145,1115,1095,1071,1054,995,1012,1002,974,951,931,914,866,841,794,776,718,624,635,662,633,576,589,585,590,595,590,587,590,592,592,597,593,613,615,621,598,592,594,597,597,595,588,592,594,595,594,596,595,1023,1017,1038,1028,1140,1449,1638,1853,1932,1983,1985,1958,1927,1935,1867,1832,1818,1775,1763,1737,1702,1647,1631,1614,1569,1547,1500,1445,1346,1305,1115,1095,1084,1026,1047,1040,1040,954,967,963,968,973,968,965,968,970,970,975,971,990,991,994,976,970,972,975,975,973,966,970,972,973,972,974,973,0,0,0,0,0,0,0,0,0,0,0,0,0,0,0,0,0,0,0,0,0,0,0,0,0,0,0,0,0,0,0,0,0,0,0,0,0,0,0,0,0,0,0,0,0,0,0,0,0,0,0,0,0,0,0,0,0,0,0,0,0,0,0,0,0,592,594,595,597,628,808,917,1024,1129,1184,1185,1167,1148,1156,1111,1092,1073,1054,1036,1017,998,980,961,931,924,893,887,869,837,830,812,794,669,636,604,603,603,607,568,566,567,569,573,585,583,588,584,585,595,591,586,576,579,586,592,578,578,579,578,577,578,579,578,582,578,378,378,380,381,383,441,557,621,686,750,768,750,738,732,713,707,700,683,676,663,646,638,627,609,597,590,567,559,553,484,473,462,450,441,430,384,385,386,341,338,340,341,345,345,341,345,343,341,354,348,346,344,345,343,347,343,342,345,347,341,341,343,346,349,341,416,417,419,420,423,534,621,683,764,831,840,826,812,799,786,773,760,746,733,720,707,683,680,666,653,640,627,613,600,563,574,561,507,437,426,405,423,424,388,387,386,387,387,388,386,388,385,392,388,386,387,387,387,387,390,389,388,388,388,391,387,390,387,390,389,731,736,733,741,757,944,1136,1280,1407,1474,1466,1449,1426,1414,1387,1361,1330,1309,1286,1253,1238,1217,1191,1169,1136,1111,1093,1073,1050,1036,1006,887,844,772,747,750,753,723,674,673,672,673,673,674,672,674,671,678,674,672,673,673,673,673,676,675,674,674,674,677,673,676,673,676,675,450,451,453,454,456,587,664,741,805,856,908,894,880,865,851,837,822,808,793,778,764,713,735,721,707,693,677,663,618,634,590,606,591,449,460,434,459,417,416,423,426,437,433,430,426,436,424,433,427,423,431,440,451,483,436,430,430,432,442,433,428,459,425,435,426,427,428,430,431,433,525,626,705,779,860,867,853,842,826,811,798,784,770,756,742,729,715,700,687,673,658,645,631,617,603,589,545,479,467,458,433,442,419,368,367,366,367,367,368,366,368,365,372,368,366,367,367,367,367,370,369,368,368,368,371,367,370,367,370,369,662,665,662,671,682,824,1008,1133,1267,1330,1330,1314,1291,1267,1249,1218,1207,1187,1169,1136,1117,1096,1075,1051,1029,1010,992,973,956,926,881,736,709,696,680,682,680,650,601,600,599,600,600,601,599,601,598,605,601,599,600,600,600,600,603,602,601,601,601,604,600,603,600,603,602,621,625,627,628,634,828,963,1070,1164,1212,1255,1237,1216,1196,1175,1156,1145,1115,1095,1071,1054,995,1012,1002,974,951,931,914,866,841,794,776,718,624,635,662,633,576,589,585,590,595,590,587,590,592,592,597,593,613,615,621,598,592,594,597,597,595,588,592,594,595,594,596,595,321,322,323,324,324,423,480,537,594,644,655,644,634,622,613,602,591,581,570,561,550,540,529,519,508,498,487,477,466,455,445,434,424,413,330,325,326,327,322,314,314,322,310,335,318,318,322,321,341,326,325,319,324,344,342,319,318,333,319,329,324,318,327,347,324,641,643,645,647,657,857,1027,1139,1236,1288,1281,1260,1254,1244,1200,1180,1159,1145,1129,1104,1078,1058,1041,1021,1001,976,974,952,948,906,875,854,794,703,654,692,652,647,627,631,630,647,637,653,634,635,638,632,640,633,636,634,640,633,639,646,641,638,636,634,640,659,644,712,639,698,700,703,704,718,879,1043,1236,1322,1362,1359,1338,1317,1296,1276,1255,1235,1229,1193,1172,1151,1130,1111,1088,1067,1049,1028,1020,987,966,898,881,802,723,712,710,711,713,663,658,661,676,668,669,667,676,667,662,670,666,665,663,666,672,669,673,665,668,667,680,666,675,666,680,675,0,0,0,0,0,0,0,0,0,0,0,0,0,0,0,0,0,0,0,0,0,0,0,0,0,0,0,0,0,0,0,0,0,0,0,0,0,0,0,0,0,0,0,0,0,0,0,0,0,0,0,0,0,0,0,0,0,0,0,0,0,0,0,0,0,679,682,685,686,699,904,1016,1204,1294,1333,1331,1311,1290,1269,1249,1228,1208,1187,1168,1146,1126,1106,1083,1063,1043,1025,1005,996,964,943,886,817,741,705,694,692,693,695,649,641,648,662,651,652,679,655,651,657,686,648,660,682,656,658,734,688,650,651,647,651,650,660,682,667,662,765,768,770,771,783,977,1162,1290,1427,1497,1487,1468,1444,1422,1398,1375,1352,1329,1307,1283,1260,1238,1216,1194,1171,1148,1139,1103,1080,1057,1035,968,809,797,783,776,779,781,739,732,749,773,749,733,751,766,751,745,746,747,750,751,763,752,766,749,744,746,751,768,765,768,758,768,767,767,769,771,774,808,976,1254,1393,1498,1538,1532,1512,1483,1460,1435,1411,1386,1362,1337,1340,1287,1262,1238,1239,1189,1164,1138,1118,1093,1069,931,865,818,795,783,778,764,737,727,719,719,727,715,740,723,723,727,726,746,731,730,724,729,749,747,724,723,738,724,734,729,723,732,752,729,334,335,327,328,338,423,462,494,536,588,600,591,582,575,568,559,552,544,535,528,515,511,498,497,487,479,471,463,456,456,448,441,433,389,342,329,330,340,290,291,290,292,294,294,296,295,291,295,292,294,295,298,297,295,300,299,299,304,301,295,303,296,296,298,294,643,646,647,649,653,801,959,1065,1185,1260,1259,1240,1221,1202,1181,1163,1144,1126,1104,1085,1065,1047,1028,1009,990,971,951,932,913,894,862,809,684,668,657,653,655,626,576,569,591,608,590,600,592,601,596,594,598,594,592,595,598,616,587,598,597,598,594,592,589,592,590,592,591,663,665,679,668,681,854,1040,1153,1261,1321,1323,1305,1282,1262,1241,1220,1199,1183,1158,1140,1116,1094,1078,1057,1030,1017,988,977,947,916,740,722,735,688,675,687,675,658,629,621,621,629,617,642,625,625,629,628,648,633,632,626,631,651,649,626,625,640,626,636,631,625,634,654,631,321,322,323,324,324,423,480,537,594,644,655,644,634,622,613,602,591,581,570,561,550,540,529,519,508,498,487,477,466,455,445,434,424,413,330,325,326,327,322,314,314,322,310,335,318,318,322,321,341,326,325,319,324,344,342,319,318,333,319,329,324,318,327,347,324,650,652,655,664,675,886,1025,1173,1263,1308,1307,1292,1270,1259,1224,1203,1186,1165,1145,1119,1098,1078,1057,1036,1009,994,973,951,924,909,843,718,693,675,664,655,668,623,616,621,621,633,637,646,634,639,641,669,666,667,673,662,654,676,648,641,640,649,639,663,647,642,641,650,642,1049,1059,1053,1060,1183,1532,1776,1977,2068,2091,2085,2053,2029,2015,1942,1912,1884,1843,1813,1784,1747,1708,1676,1661,1621,1580,1565,1485,1394,1402,1143,1116,1114,1071,1075,1062,1075,1001,994,999,999,1011,1015,1024,1012,1017,1019,1047,1044,1044,1049,1035,1032,1054,1026,1019,1018,1027,1017,1041,1025,1020,1019,1028,1020,326,327,329,330,331,415,489,573,633,655,667,656,645,635,624,613,602,592,581,570,561,550,539,528,518,507,496,486,475,464,453,443,432,421,406,332,333,406,333,319,324,324,320,332,325,350,332,326,350,324,326,325,325,329,329,328,325,327,326,325,326,328,327,357,332,495,497,499,500,507,677,767,858,946,996,1003,986,1003,954,972,922,906,891,874,859,842,827,810,794,778,762,746,730,715,698,683,666,650,634,507,504,504,506,499,494,494,498,505,492,493,495,496,504,507,506,504,525,507,500,531,529,501,507,508,506,507,506,511,627,534,0,0,0,0,0,0,0,0,0,0,0,0,0,0,0,0,0,0,0,0,0,0,0,0,0,0,0,0,0,0,0,0,0,0,0,0,0,0,0,0,0,0,0,0,0,0,0,0,0,0,0,0,0,0,0,0,0,0,0,0,0,0,0,0,0,686,681,690,675,702,848,1028,1113,1292,1319,1321,1294,1310,1285,1235,1249,1222,1195,1172,1146,1119,1108,1095,1036,1016,1042,999,978,957,934,913,805,747,732,693,675,679,661,619,621,618,620,638,630,634,630,624,631,627,630,626,634,627,637,626,628,633,630,630,633,633,635,632,625,621,940,939,946,942,1065,1303,1566,1726,1841,1870,1862,1833,1818,1778,1753,1707,1681,1654,1625,1602,1575,1539,1507,1475,1447,1419,1391,1348,1330,1276,1173,1087,985,970,998,965,959,884,877,876,881,878,887,883,897,888,892,888,890,894,900,906,902,903,901,896,901,903,901,898,904,901,912,903,901,430,432,432,433,437,587,655,742,808,860,869,854,841,838,814,799,786,772,759,744,731,717,702,689,675,662,647,634,620,607,592,474,462,451,441,436,438,439,430,436,431,443,475,476,467,495,450,479,474,473,473,448,457,548,461,451,479,470,451,475,465,478,471,471,456,630,633,634,637,665,858,1003,1122,1221,1265,1267,1248,1228,1206,1186,1166,1146,1126,1106,1085,1064,1045,1023,1005,983,963,943,924,904,883,863,817,693,657,703,640,642,612,599,601,598,600,618,610,614,610,604,611,607,610,606,614,607,617,606,608,613,610,610,613,613,615,612,605,601,871,868,875,881,932,1172,1435,1583,1697,1733,1727,1700,1671,1633,1616,1585,1561,1537,1508,1481,1454,1420,1389,1368,1337,1319,1291,1250,1170,1111,1095,994,957,905,928,899,885,805,798,802,818,796,803,800,810,807,804,805,807,807,813,814,812,817,814,810,816,818,815,809,816,817,820,816,814,650,652,655,664,675,886,1025,1173,1263,1308,1307,1292,1270,1259,1224,1203,1186,1165,1145,1119,1098,1078,1057,1036,1009,994,973,951,924,909,843,718,693,675,664,655,668,623,616,621,621,633,637,646,634,639,641,669,666,667,673,662,654,676,648,641,640,649,639,663,647,642,641,650,642,751,754,743,742,774,950,1180,1332,1424,1508,1447,1446,1422,1376,1390,1330,1307,1285,1277,1258,1235,1217,1193,1138,1148,1146,1095,1074,1052,965,860,836,823,785,755,763,766,726,705,686,694,700,707,703,713,699,700,707,715,709,711,712,713,711,709,709,715,724,721,727,715,712,720,723,718,1087,1085,1085,1111,1131,1474,1795,1994,2079,2123,2097,2096,2030,2004,1969,1923,1895,1884,1837,1800,1793,1733,1701,1656,1631,1598,1567,1530,1374,1318,1187,1177,1168,1106,1090,1100,1111,1069,1038,1028,1038,1037,1042,1038,1048,1031,1031,1043,1052,1046,1052,1053,1054,1053,1051,1051,1056,1064,1076,1072,1056,1052,1063,1066,1061,633,635,631,639,698,883,976,1101,1214,1277,1255,1248,1227,1209,1186,1170,1149,1130,1110,1075,1056,1052,1032,1004,995,979,946,887,869,849,879,842,758,658,646,642,645,624,623,631,625,629,631,655,632,638,631,637,630,629,667,660,667,640,632,635,666,658,638,633,661,634,629,635,630,867,869,909,877,910,1265,1502,1636,1751,1765,1768,1714,1747,1669,1686,1626,1588,1565,1567,1482,1499,1469,1453,1368,1354,1316,1329,1295,1232,1211,975,936,914,893,912,905,885,880,880,870,878,921,896,898,894,898,925,887,932,897,901,900,929,911,898,924,896,904,929,903,926,949,936,936,907,873,854,884,855,949,1239,1427,1565,1705,1740,1691,1675,1699,1635,1641,1608,1560,1552,1526,1490,1470,1432,1412,1350,1370,1274,1308,1280,1218,1195,1147,1025,902,887,897,895,871,864,876,885,885,890,889,891,888,895,888,891,888,889,885,886,892,902,890,891,897,892,898,890,889,896,891,892,887,0,0,0,0,0,0,0,0,0,0,0,0,0,0,0,0,0,0,0,0,0,0,0,0,0,0,0,0,0,0,0,0,0,0,0,0,0,0,0,0,0,0,0,0,0,0,0,0,0,0,0,0,0,0,0,0,0,0,0,0,0,0,0,0,0,654,666,658,660,702,859,1036,1161,1265,1300,1301,1329,1312,1245,1275,1264,1206,1182,1192,1108,1098,1097,1049,1079,1029,1036,976,984,950,916,794,823,761,684,663,684,666,675,635,621,625,623,629,630,632,635,629,631,643,632,637,633,634,635,637,636,635,641,655,653,639,636,647,657,651,684,687,730,693,720,953,1152,1236,1361,1384,1395,1348,1388,1321,1339,1287,1259,1238,1247,1169,1192,1172,1160,1081,1073,1042,1063,1036,977,994,892,877,744,711,743,720,699,679,683,685,677,693,681,695,680,706,690,695,695,693,701,694,705,711,709,708,706,708,708,704,719,731,706,715,708,330,367,333,368,372,358,496,595,612,677,674,663,652,642,685,620,609,598,588,577,566,555,544,533,523,512,501,532,479,469,497,447,357,348,339,382,383,337,333,331,333,333,343,338,342,337,338,345,339,339,336,338,341,338,339,341,339,341,353,337,340,345,339,340,337,671,684,676,688,690,807,1056,1191,1301,1362,1348,1326,1303,1281,1281,1236,1214,1192,1178,1154,1134,1112,1091,1059,1045,1024,1003,995,962,874,811,800,720,699,686,693,695,653,619,602,609,613,625,619,629,614,617,625,629,624,625,629,634,626,623,625,630,639,651,647,635,626,636,639,634,751,754,743,742,774,950,1180,1332,1424,1508,1447,1446,1422,1376,1390,1330,1307,1285,1277,1258,1235,1217,1193,1138,1148,1146,1095,1074,1052,965,860,836,823,785,755,763,766,726,705,686,694,700,707,703,713,699,700,707,715,709,711,712,713,711,709,709,715,724,721,727,715,712,720,723,718,522,532,525,537,559,625,816,904,1010,1059,1061,1045,1060,1032,996,980,993,950,958,924,917,882,850,851,832,842,799,782,766,750,632,625,611,558,543,544,557,520,506,502,502,504,505,507,507,506,504,507,507,507,507,513,512,512,516,513,518,514,513,513,517,518,516,515,513,536,525,534,536,538,719,804,877,986,1013,1018,1003,1010,971,972,939,944,943,928,875,860,871,828,881,797,805,806,749,760,723,701,701,695,538,541,539,590,524,527,523,525,535,527,530,526,528,526,523,526,526,523,530,529,532,534,538,532,534,533,539,535,540,545,548,540,846,836,847,846,907,1147,1307,1502,1620,1674,1673,1636,1608,1597,1569,1529,1517,1480,1456,1433,1400,1366,1346,1325,1297,1280,1244,1234,1209,1146,1055,949,885,911,852,854,853,820,787,780,781,787,782,789,785,788,785,784,788,786,782,784,785,788,788,787,785,785,784,785,787,787,784,787,784,891,902,895,907,929,1209,1444,1652,1779,1829,1820,1777,1749,1719,1689,1670,1640,1601,1581,1550,1520,1482,1438,1430,1400,1371,1335,1305,1276,1249,1182,968,954,928,920,917,917,883,856,842,855,871,868,870,865,867,871,857,881,868,870,874,888,881,877,886,865,878,888,885,886,886,886,883,878,937,950,943,956,996,1276,1511,1715,1850,1903,1877,1848,1817,1787,1757,1738,1707,1667,1647,1615,1589,1547,1502,1494,1466,1433,1404,1367,1337,1115,1121,1063,1036,975,968,965,964,970,925,926,920,939,935,929,933,960,929,966,979,949,935,938,925,935,939,969,928,935,931,931,928,928,930,927,912,597,589,609,607,615,752,914,1015,1126,1202,1200,1168,1160,1138,1112,1105,1071,1064,1048,1031,1006,1001,974,950,928,908,885,876,859,840,762,667,655,633,619,616,623,606,573,568,568,580,584,593,586,597,583,587,587,591,589,582,587,597,590,582,594,591,580,592,596,596,593,594,589,0,0,0,0,0,0,0,0,0,0,0,0,0,0,0,0,0,0,0,0,0,0,0,0,0,0,0,0,0,0,0,0,0,0,0,0,0,0,0,0,0,0,0,0,0,0,0,0,0,0,0,0,0,0,0,0,0,0,0,0,0,0,0,0,0,710,720,712,725,738,795,1101,1264,1389,1448,1447,1412,1389,1368,1343,1331,1307,1277,1260,1237,1214,1183,1145,1144,1121,1098,1069,1048,1025,904,878,798,806,744,733,733,721,678,670,667,657,671,672,671,671,669,668,667,670,671,673,680,665,672,678,677,677,673,674,671,673,670,678,668,650,415,416,446,447,453,503,635,703,805,854,879,860,819,806,820,805,763,763,760,722,746,729,697,702,688,663,651,642,602,588,596,511,502,467,448,453,440,392,359,352,353,359,354,360,357,360,357,356,360,358,354,356,357,360,360,359,357,357,356,357,359,359,356,359,356,187,188,188,189,189,239,271,302,334,365,380,374,368,363,356,350,344,338,332,326,320,314,309,302,297,290,284,278,272,266,260,255,248,243,236,189,226,226,173,163,167,183,173,165,161,166,165,185,181,167,174,172,169,165,174,174,164,165,164,165,165,161,168,168,159,522,532,525,537,559,625,816,904,1010,1059,1061,1045,1060,1032,996,980,993,950,958,924,917,882,850,851,832,842,799,782,766,750,632,625,611,558,543,544,557,520,506,502,502,504,505,507,507,506,504,507,507,507,507,513,512,512,516,513,518,514,513,513,517,518,516,515,513,227,228,228,246,247,239,326,364,402,440,467,459,451,445,436,429,422,414,407,400,393,384,374,366,358,350,344,336,328,321,314,251,244,295,252,228,229,230,184,186,185,190,194,187,189,189,187,191,190,192,210,212,214,197,190,187,190,189,187,188,188,189,184,190,186,639,645,635,664,662,747,966,1093,1172,1244,1272,1242,1234,1206,1195,1185,1162,1119,1105,1078,1061,1049,1026,1009,979,969,931,928,914,825,768,696,692,682,653,640,639,637,562,564,563,568,572,565,567,567,565,569,568,570,587,588,587,575,568,565,568,567,565,566,566,567,562,568,564,542,544,546,553,557,721,816,911,1009,1087,1107,1078,1062,1057,1041,1036,1006,987,960,951,939,908,891,870,854,825,817,790,773,756,749,707,690,613,555,551,553,554,536,523,528,530,525,531,529,535,531,537,532,529,533,533,534,539,535,533,534,532,530,533,533,536,535,536,536,301,301,301,302,355,390,437,476,538,594,600,589,590,571,564,555,553,545,534,525,508,495,490,476,471,463,454,445,436,426,418,406,396,391,381,306,378,374,275,275,275,278,277,278,277,281,279,282,280,282,282,287,283,283,279,285,282,282,279,284,283,280,280,280,280,523,526,527,529,538,594,790,884,980,1058,1067,1051,1033,1016,1014,1009,978,960,935,926,914,883,863,845,829,800,793,766,761,732,726,606,590,577,537,544,534,559,517,516,520,530,515,577,523,540,529,541,541,539,526,528,535,532,532,533,542,541,534,536,534,533,552,544,533,550,604,554,556,567,761,861,961,1054,1098,1102,1089,1071,1053,1036,1018,1001,983,965,948,930,913,895,921,860,842,822,862,789,772,752,738,717,575,562,558,560,562,556,565,565,575,585,587,577,580,563,577,570,560,570,576,575,572,606,606,563,562,572,570,560,570,574,575,562,659,660,661,665,714,797,1029,1151,1250,1300,1297,1281,1263,1245,1227,1217,1197,1172,1152,1131,1112,1097,1072,1051,1030,1009,987,964,942,923,886,792,730,689,673,669,671,626,579,591,588,594,599,592,594,594,585,596,591,591,595,603,608,602,595,592,595,591,592,593,593,594,588,595,591,0,0,0,0,0,0,0,0,0,0,0,0,0,0,0,0,0,0,0,0,0,0,0,0,0,0,0,0,0,0,0,0,0,0,0,0,0,0,0,0,0,0,0,0,0,0,0,0,0,0,0,0,0,0,0,0,0,0,0,0,0,0,0,0,0,429,430,432,433,437,543,657,733,807,864,872,858,843,832,816,801,788,774,762,745,732,718,705,690,676,662,648,634,620,606,592,578,565,531,458,436,445,418,395,393,395,402,414,416,405,417,408,408,417,416,410,403,405,418,407,404,415,416,405,409,406,427,411,416,409,554,556,558,559,571,614,847,954,1029,1099,1093,1103,1062,1047,1031,1026,1007,990,973,954,940,943,922,884,865,848,830,831,795,778,734,671,616,577,566,562,564,547,491,493,492,497,501,494,496,496,494,498,497,499,508,513,511,504,497,494,497,496,494,495,495,496,491,497,493,227,228,228,246,247,239,326,364,402,440,467,459,451,445,436,429,422,414,407,400,393,384,374,366,358,350,344,336,328,321,314,251,244,295,252,228,229,230,184,186,185,190,194,187,189,189,187,191,190,192,210,212,214,197,190,187,190,189,187,188,188,189,184,190,186,496,502,496,501,529,567,759,814,909,1008,1005,994,985,976,953,928,905,891,881,870,852,831,818,793,789,769,753,734,727,706,680,576,540,520,512,530,531,506,442,447,443,448,455,450,448,457,450,450,450,449,449,450,451,450,449,450,451,450,452,452,450,452,449,449,449,806,823,814,833,840,1022,1231,1371,1547,1586,1608,1571,1555,1563,1495,1484,1455,1429,1403,1366,1339,1341,1289,1267,1248,1230,1206,1182,1159,1014,961,897,892,891,852,829,860,844,775,780,786,794,792,785,783,793,782,781,786,786,786,791,797,800,797,794,793,797,798,799,795,792,802,795,793,531,526,549,525,533,664,799,893,980,1027,1053,1015,994,983,962,938,955,924,935,907,886,855,863,869,833,805,775,770,770,743,711,688,556,540,531,528,555,535,515,522,528,534,526,528,523,534,523,533,530,526,531,533,540,538,538,531,534,538,538,530,535,532,528,535,533,706,700,712,708,721,891,1130,1273,1374,1409,1401,1383,1360,1334,1323,1302,1298,1247,1259,1205,1174,1151,1160,1114,1083,1085,1041,1021,999,945,888,877,807,722,710,713,708,719,686,683,684,688,688,690,694,699,694,694,694,693,693,694,695,694,693,694,694,694,696,696,694,696,693,693,693,724,711,731,720,731,978,1138,1268,1369,1409,1405,1383,1361,1347,1342,1294,1305,1254,1267,1206,1184,1170,1167,1117,1103,1097,1066,1031,1006,1010,962,886,807,733,727,719,726,737,719,713,707,736,724,725,727,733,725,728,730,729,736,728,725,728,729,730,726,729,730,728,724,730,729,719,713,248,249,250,250,289,310,364,405,447,488,506,493,486,478,470,462,438,446,438,431,423,401,407,386,391,383,376,367,359,349,344,336,328,320,310,290,291,292,237,235,236,238,238,241,239,241,239,242,242,242,241,243,243,241,243,243,244,244,243,243,245,245,245,245,245,405,397,410,411,414,470,606,671,761,811,820,809,776,763,751,756,726,730,700,686,691,662,665,652,640,611,613,585,587,574,562,529,535,490,417,402,414,415,403,407,401,407,406,408,408,418,412,413,408,413,408,414,415,416,414,408,410,412,407,421,411,409,409,410,408,536,518,531,525,545,591,797,892,974,1021,1020,1009,994,973,970,955,959,914,933,886,862,845,862,821,798,807,770,756,741,739,706,580,569,554,527,528,522,518,490,486,486,491,490,499,490,497,510,503,493,497,491,496,499,489,498,499,499,496,497,499,504,507,504,504,504,0,0,0,0,0,0,0,0,0,0,0,0,0,0,0,0,0,0,0,0,0,0,0,0,0,0,0,0,0,0,0,0,0,0,0,0,0,0,0,0,0,0,0,0,0,0,0,0,0,0,0,0,0,0,0,0,0,0,0,0,0,0,0,0,0,406,407,409,414,426,449,588,655,737,805,827,815,801,788,774,762,746,734,720,707,693,680,668,657,646,633,620,607,594,577,498,487,450,440,429,425,441,428,359,361,360,363,368,368,364,373,365,367,368,363,364,364,368,371,364,364,367,365,367,366,364,372,363,363,363,496,502,496,501,529,567,759,814,909,1008,1005,994,985,976,953,928,905,891,881,870,852,831,818,793,789,769,753,734,727,706,680,576,540,520,512,530,531,506,442,447,443,448,455,450,448,457,450,450,450,449,449,450,451,450,449,450,451,450,452,452,450,452,449,449,449,376,378,379,381,382,487,570,631,692,745,755,743,732,721,709,698,687,676,663,652,640,629,616,605,594,582,571,586,548,536,528,513,498,485,387,383,384,387,358,359,360,363,363,362,362,363,360,366,364,363,364,367,366,364,364,368,367,368,365,370,365,368,364,368,366,461,463,469,449,471,618,672,762,822,873,881,889,853,840,827,812,799,785,815,800,744,750,718,727,690,694,663,650,635,651,630,624,585,467,557,468,504,482,465,464,463,474,465,464,462,467,462,466,465,464,468,471,470,467,471,469,469,467,469,515,466,468,469,470,470,735,726,736,729,744,951,1140,1273,1388,1453,1466,1416,1408,1397,1361,1353,1329,1292,1269,1246,1223,1200,1166,1153,1130,1107,1094,1058,1035,1015,880,862,771,772,747,738,740,745,716,723,728,738,740,749,733,748,735,759,742,735,750,737,753,756,757,742,759,744,743,747,761,762,746,750,744,745,748,749,751,761,1018,1164,1306,1437,1514,1510,1486,1461,1437,1412,1387,1362,1337,1313,1288,1263,1238,1214,1189,1164,1139,1123,1090,1065,1040,983,898,790,771,770,756,759,763,720,713,714,730,740,735,734,741,737,731,737,737,740,743,745,740,745,744,738,738,743,745,737,737,735,738,736,792,794,797,800,847,1090,1234,1378,1508,1586,1581,1556,1531,1505,1480,1455,1430,1404,1379,1372,1328,1303,1295,1252,1243,1202,1177,1151,1126,1101,1057,1008,838,819,807,804,806,809,794,799,794,819,808,802,802,831,803,826,825,820,809,807,799,809,810,835,801,807,798,807,798,805,803,802,802,648,634,642,639,648,781,970,1095,1201,1261,1277,1259,1226,1215,1196,1178,1158,1125,1105,1096,1077,1045,1035,1005,984,992,944,925,904,891,839,715,698,684,645,643,646,642,612,616,617,618,629,633,630,633,631,636,629,628,635,627,629,636,635,627,637,629,622,629,638,650,635,637,636,196,198,198,199,200,218,280,311,343,375,400,394,387,382,375,368,361,356,349,342,337,330,324,318,311,306,297,293,287,280,274,268,260,254,204,200,201,201,171,151,151,152,160,158,158,152,152,156,171,157,163,167,169,165,156,156,161,171,169,169,155,155,170,153,151,563,565,567,568,577,680,841,939,1037,1131,1133,1116,1096,1079,1060,1042,1025,1006,991,970,952,935,916,898,881,862,845,828,808,792,725,681,726,587,576,572,574,562,516,523,525,526,530,529,528,527,523,530,524,526,528,533,539,533,543,533,531,529,534,535,527,530,526,530,528,408,409,411,412,414,507,603,675,746,813,830,817,804,790,776,763,750,740,762,710,697,684,671,657,644,631,619,603,590,577,564,528,471,434,418,414,415,411,387,388,387,391,400,402,397,403,401,404,402,399,404,398,401,407,403,395,408,398,393,399,406,418,403,403,402,0,0,0,0,0,0,0,0,0,0,0,0,0,0,0,0,0,0,0,0,0,0,0,0,0,0,0,0,0,0,0,0,0,0,0,0,0,0,0,0,0,0,0,0,0,0,0,0,0,0,0,0,0,0,0,0,0,0,0,0,0,0,0,0,0,376,378,379,381,382,487,570,631,692,745,755,743,732,721,709,698,687,676,663,652,640,629,616,605,594,582,571,586,548,536,528,513,498,485,387,383,384,387,358,359,360,363,363,362,362,363,360,366,364,363,364,367,366,364,364,368,367,368,365,370,365,368,364,368,366,0,0,0,0,0,0,0,0,0,0,0,0,0,0,0,0,0,0,0,0,0,0,0,0,0,0,0,0,0,0,0,0,0,0,0,0,0,0,0,0,0,0,0,0,0,0,0,0,0,0,0,0,0,0,0,0,0,0,0,0,0,0,0,0,0,419,420,407,420,421,507,624,694,772,799,823,805,783,783,761,759,756,740,746,704,718,699,679,652,643,625,617,604,592,583,566,521,546,425,431,412,423,414,378,378,378,378,378,378,378,378,378,378,378,378,378,378,378,378,378,378,378,378,378,378,378,378,378,378,378,679,675,673,682,700,928,1049,1162,1266,1347,1341,1312,1302,1268,1255,1229,1200,1211,1166,1153,1125,1109,1108,1067,1042,1027,1008,980,964,946,838,879,720,700,708,685,687,692,652,665,672,661,670,665,669,674,665,674,666,665,671,669,674,674,674,672,673,668,667,673,673,673,670,673,670,437,438,440,441,446,564,662,738,814,879,888,875,864,847,837,821,804,789,775,764,750,735,718,704,690,678,661,650,633,619,604,590,548,459,449,451,455,443,401,398,402,404,404,401,405,405,405,408,403,407,411,429,426,410,435,411,411,411,411,411,411,411,411,411,411,689,692,693,696,713,946,1088,1191,1326,1387,1378,1346,1334,1312,1281,1259,1238,1227,1195,1173,1152,1130,1130,1087,1067,1045,1024,1002,980,959,937,868,793,714,702,702,704,715,675,682,677,696,683,695,682,697,692,697,697,692,697,697,697,697,697,697,697,697,697,697,695,695,695,695,695,617,620,621,623,633,832,940,1046,1179,1215,1231,1202,1192,1173,1141,1126,1106,1093,1078,1050,1030,1021,1012,974,954,944,917,905,878,816,803,672,657,674,630,627,628,630,618,614,612,616,621,634,619,622,631,626,619,623,621,625,623,620,630,631,627,627,624,628,628,632,631,633,633,475,477,477,479,484,550,689,769,867,911,920,904,899,875,870,849,835,821,814,795,781,771,754,740,733,712,705,685,672,658,645,582,518,500,489,485,482,450,405,405,405,405,405,405,405,405,405,405,405,405,405,405,405,405,405,405,405,405,405,405,405,405,405,405,405,358,359,360,360,362,433,517,574,632,689,713,702,691,675,669,653,642,632,621,610,599,588,593,567,560,545,534,523,512,506,491,480,457,375,394,363,364,361,311,318,316,319,320,320,317,319,315,323,315,319,320,327,326,327,324,319,319,319,319,319,319,319,319,319,319,420,421,423,444,426,507,659,709,785,830,834,863,810,797,787,774,756,745,739,719,705,693,680,701,654,641,633,614,601,592,536,524,450,483,451,428,429,447,410,417,417,421,423,424,418,423,417,423,420,420,425,428,430,435,428,425,429,420,430,432,428,432,423,430,423,353,355,356,357,357,405,508,560,616,667,677,668,668,648,646,628,618,608,604,589,579,573,559,549,540,531,519,510,500,485,475,421,378,399,361,362,359,360,307,307,307,307,307,307,307,307,307,307,307,307,307,307,307,307,307,307,307,307,307,307,307,307,307,307,307,0,0,0,0,0,0,0,0,0,0,0,0,0,0,0,0,0,0,0,0,0,0,0,0,0,0,0,0,0,0,0,0,0,0,0,0,0,0,0,0,0,0,0,0,0,0,0,0,0,0,0,0,0,0,0,0,0,0,0,0,0,0,0,0,0 ]);
