n = 10;
D = [204,188,131,136,249,155,294,226,198,279 ];
q = 0;
prec = array2d(1..0,1..2,[]);
steps = 64;
l = 360;
r = 0;
which = [];
interval = array2d(1..0,1..2,[]);
T = array3d(1..11,1..11,0..64,[0,0,0,0,0,0,0,0,0,0,0,0,0,0,0,0,0,0,0,0,0,0,0,0,0,0,0,0,0,0,0,0,0,0,0,0,0,0,0,0,0,0,0,0,0,0,0,0,0,0,0,0,0,0,0,0,0,0,0,0,0,0,0,0,0,392,394,395,396,398,524,594,663,731,785,796,784,771,759,745,733,720,707,695,682,669,656,644,631,619,606,594,580,568,555,543,530,518,504,403,398,399,401,385,384,384,385,384,385,384,384,382,384,384,385,382,384,391,390,384,382,386,384,384,384,385,385,382,384,382,516,518,520,522,530,699,788,873,961,1025,1022,1017,1000,986,967,954,936,920,904,886,870,854,839,822,807,792,765,750,741,718,708,693,669,540,528,550,551,506,489,490,486,490,490,491,490,491,488,490,490,492,486,490,497,492,485,483,487,485,485,485,486,486,483,485,483,722,702,710,712,731,985,1108,1230,1348,1403,1406,1385,1358,1340,1311,1292,1269,1248,1229,1202,1185,1184,1138,1126,1102,1087,1067,1056,1005,975,903,876,767,750,741,711,726,692,680,673,681,692,708,690,707,696,727,705,692,705,717,699,722,702,690,722,691,709,704,705,720,710,704,697,690,611,603,614,623,639,837,948,1059,1154,1204,1226,1189,1169,1169,1151,1112,1110,1073,1074,1035,1015,1012,976,977,938,935,899,881,882,862,839,779,761,642,613,626,628,621,599,601,604,605,604,605,604,604,602,604,604,605,602,604,611,610,604,602,606,604,604,604,605,605,602,604,602,645,653,648,650,674,835,1018,1131,1256,1301,1296,1283,1263,1235,1214,1199,1172,1165,1130,1125,1102,1063,1060,1027,1019,981,976,956,922,888,869,741,716,670,701,655,657,656,626,631,635,640,633,638,633,635,635,634,634,636,633,629,636,639,639,635,640,631,628,639,635,635,629,632,629,369,370,371,373,374,490,554,618,683,735,746,735,723,711,699,688,676,664,653,641,629,617,606,594,581,586,558,546,534,522,511,499,487,475,379,375,376,377,364,363,360,363,363,364,363,363,361,363,363,364,361,363,370,369,363,361,365,363,363,363,364,364,361,363,361,426,427,441,442,433,500,650,748,799,854,889,875,837,847,832,818,804,784,771,762,748,733,698,705,671,676,643,630,616,619,588,574,507,495,476,432,433,434,419,418,418,419,418,419,418,418,416,418,418,419,416,418,425,424,418,416,420,418,418,418,419,419,416,418,416,583,585,585,587,590,758,909,1009,1124,1178,1174,1160,1144,1118,1100,1081,1062,1047,1028,1006,987,969,950,931,913,903,876,866,839,828,751,709,624,622,596,591,593,587,572,566,566,566,574,574,577,578,593,578,573,574,599,582,592,579,576,604,576,596,575,576,587,578,574,575,568,576,577,579,581,594,799,906,1020,1108,1157,1160,1141,1123,1112,1086,1068,1056,1037,1012,993,974,957,938,919,907,882,863,844,826,785,789,771,731,724,587,584,585,587,591,577,580,584,589,588,593,590,593,594,594,589,656,655,665,590,590,611,594,603,593,588,604,595,591,588,583,0,0,0,0,0,0,0,0,0,0,0,0,0,0,0,0,0,0,0,0,0,0,0,0,0,0,0,0,0,0,0,0,0,0,0,0,0,0,0,0,0,0,0,0,0,0,0,0,0,0,0,0,0,0,0,0,0,0,0,0,0,0,0,0,0,486,488,504,504,512,683,773,862,950,1001,1006,990,974,958,942,926,910,894,878,840,847,831,815,799,783,746,751,735,719,704,669,672,643,628,512,508,509,511,505,501,507,583,521,589,594,503,512,520,512,513,507,510,519,594,513,513,513,505,506,508,510,511,510,518,504,0,0,0,0,0,0,0,0,0,0,0,0,0,0,0,0,0,0,0,0,0,0,0,0,0,0,0,0,0,0,0,0,0,0,0,0,0,0,0,0,0,0,0,0,0,0,0,0,0,0,0,0,0,0,0,0,0,0,0,0,0,0,0,0,0,320,320,323,324,324,411,462,526,579,629,640,630,621,611,601,591,581,571,561,552,541,531,522,512,501,490,481,473,463,453,442,432,422,412,402,325,326,326,273,269,270,276,274,273,271,275,271,274,273,274,271,273,271,269,269,274,274,275,271,270,271,273,271,269,269,582,583,585,587,589,760,865,1016,1121,1173,1176,1157,1139,1120,1101,1082,1063,1043,1006,1006,987,968,949,930,910,891,873,858,846,770,753,735,623,633,622,591,593,572,502,501,500,500,503,517,508,527,518,512,529,512,519,512,514,518,515,514,518,523,513,521,517,517,513,515,515,266,267,268,269,287,296,388,431,474,515,530,522,513,506,498,489,481,473,465,457,448,441,433,424,416,408,400,392,383,376,368,359,305,299,292,287,288,289,236,239,239,243,255,261,256,263,254,255,261,253,257,247,250,263,255,245,254,250,245,254,252,254,252,257,257,294,301,296,297,297,315,437,489,540,588,600,591,581,572,562,553,543,533,523,514,504,495,485,476,466,456,446,437,427,418,333,326,380,310,302,298,299,300,271,266,268,270,271,270,273,270,270,274,273,270,273,274,270,268,269,276,274,276,269,269,307,273,269,267,267,331,333,334,335,336,423,496,553,628,672,682,673,663,650,644,635,625,617,607,598,588,579,537,561,516,513,502,492,481,468,460,449,442,429,342,337,338,339,304,303,306,307,306,312,307,320,305,308,305,308,308,307,316,355,305,312,309,307,307,307,310,310,311,309,309,75,76,76,76,76,95,107,119,133,145,156,152,150,148,146,143,140,138,136,133,130,128,126,123,121,118,116,113,111,108,106,103,101,99,96,94,94,94,59,57,59,65,59,59,56,58,58,73,113,60,63,62,63,60,70,63,57,62,57,59,58,57,60,60,57,567,561,567,569,590,767,885,959,1093,1145,1126,1122,1104,1085,1068,1033,1016,1013,995,976,959,920,922,909,897,873,852,810,814,795,776,715,664,591,603,576,592,571,532,529,533,538,547,547,547,553,546,551,540,546,545,547,554,552,542,553,550,551,551,550,552,556,543,547,547,891,893,902,909,1026,1323,1523,1665,1754,1789,1782,1753,1856,1703,1667,1651,1611,1593,1554,1515,1507,1468,1439,1402,1382,1346,1325,1294,1269,1248,1212,1174,945,918,912,909,912,934,917,919,944,966,926,949,924,938,925,1004,983,938,944,945,952,993,953,946,940,941,982,988,953,947,927,994,948,486,488,504,504,512,683,773,862,950,1001,1006,990,974,958,942,926,910,894,878,840,847,831,815,799,783,746,751,735,719,704,669,672,643,628,512,508,509,511,505,501,507,583,521,589,594,503,512,520,512,513,507,510,519,594,513,513,513,505,506,508,510,511,510,518,504,522,524,526,515,536,665,792,900,970,1025,1051,1013,1017,1001,962,946,929,935,899,882,864,867,851,834,800,800,784,767,751,718,718,671,656,546,534,531,532,522,495,497,492,497,510,507,503,506,498,504,504,510,499,499,503,516,504,503,505,509,500,507,502,510,498,503,503,334,336,337,338,339,460,501,559,618,669,680,669,658,649,638,627,656,605,594,584,573,562,551,540,529,518,508,497,486,475,464,453,442,432,367,340,341,364,309,311,316,322,314,313,313,315,319,314,314,315,316,317,315,317,316,319,319,320,317,321,323,327,326,327,327,0,0,0,0,0,0,0,0,0,0,0,0,0,0,0,0,0,0,0,0,0,0,0,0,0,0,0,0,0,0,0,0,0,0,0,0,0,0,0,0,0,0,0,0,0,0,0,0,0,0,0,0,0,0,0,0,0,0,0,0,0,0,0,0,0,359,360,361,362,363,493,542,605,668,720,730,719,707,695,684,672,661,649,664,608,613,602,590,578,567,555,544,532,520,509,497,486,474,462,369,364,365,367,334,334,342,352,337,346,338,347,350,340,349,341,343,344,343,350,345,347,346,350,346,346,349,370,369,374,361,421,422,423,424,449,420,600,716,738,772,853,768,755,743,731,785,706,694,682,668,656,644,631,619,607,594,581,569,557,544,581,577,414,405,395,458,428,430,404,410,398,403,406,401,418,422,406,412,407,403,401,398,410,404,408,409,401,408,408,407,402,407,404,401,401,503,504,506,507,507,558,737,872,907,941,1018,931,917,902,886,922,876,841,826,810,795,779,765,750,734,719,705,689,674,658,693,631,502,489,477,503,512,524,475,478,480,484,484,487,493,485,482,491,487,482,488,488,488,488,491,491,489,489,484,485,483,490,488,491,491,132,132,133,133,134,167,188,210,231,251,266,261,257,254,249,245,240,237,233,228,225,221,216,212,209,204,200,195,192,188,183,179,176,171,167,134,157,157,110,107,110,114,113,112,110,110,112,115,113,112,114,131,134,150,132,114,110,115,110,110,108,114,111,115,115,404,405,407,408,410,468,590,660,729,794,822,808,796,784,770,757,741,732,719,705,688,679,663,653,641,627,614,600,589,576,562,549,537,433,423,411,429,421,361,360,363,363,363,364,364,364,364,365,365,365,366,366,366,367,366,367,367,367,367,367,368,368,367,368,368,380,381,382,384,384,460,551,620,704,747,766,762,748,736,718,706,694,682,647,635,624,612,600,589,577,565,564,542,530,518,507,495,482,472,388,385,409,387,349,340,340,340,344,350,347,354,351,346,354,345,347,345,346,351,347,348,346,347,346,345,346,348,346,352,352,782,784,786,789,797,1093,1281,1424,1537,1640,1579,1530,1527,1483,1504,1455,1454,1401,1378,1386,1327,1304,1284,1292,1231,1159,1186,1110,1005,1106,994,942,913,802,839,794,799,823,776,772,768,772,784,780,783,784,778,790,789,793,787,790,795,803,794,793,794,803,807,792,800,806,786,793,793,522,524,526,515,536,665,792,900,970,1025,1051,1013,1017,1001,962,946,929,935,899,882,864,867,851,834,800,800,784,767,751,718,718,671,656,546,534,531,532,522,495,497,492,497,510,507,503,506,498,504,504,510,499,499,503,516,504,503,505,509,500,507,502,510,498,503,503,766,769,759,762,786,1035,1168,1329,1485,1507,1521,1501,1469,1465,1409,1385,1391,1339,1326,1307,1294,1269,1243,1204,1187,1162,1147,1110,1080,1000,918,824,817,797,785,778,767,767,741,745,743,755,761,753,760,751,747,753,751,755,752,759,786,784,789,779,770,758,757,748,755,754,781,757,750,641,631,646,644,651,754,978,1116,1257,1287,1301,1266,1258,1237,1207,1183,1174,1146,1134,1102,1106,1089,1064,1030,994,979,968,948,935,914,852,763,745,671,658,650,666,643,632,633,634,638,634,643,647,638,636,641,645,642,639,639,658,656,648,644,649,641,637,643,643,643,639,641,640,412,412,414,414,417,516,608,676,777,815,837,810,811,798,772,759,759,733,732,707,706,693,680,667,644,636,628,605,598,585,572,559,546,509,502,417,418,419,397,397,398,399,397,398,399,398,397,397,398,400,398,400,414,415,400,398,406,400,401,402,404,405,398,400,400,0,0,0,0,0,0,0,0,0,0,0,0,0,0,0,0,0,0,0,0,0,0,0,0,0,0,0,0,0,0,0,0,0,0,0,0,0,0,0,0,0,0,0,0,0,0,0,0,0,0,0,0,0,0,0,0,0,0,0,0,0,0,0,0,0,555,558,560,562,563,715,838,931,1079,1117,1135,1099,1098,1080,1048,1031,1025,998,990,965,953,942,917,907,875,856,812,820,810,792,767,748,721,596,582,566,576,577,531,530,528,530,533,533,535,535,534,541,538,544,539,541,552,558,541,536,548,541,541,544,543,545,539,543,540,637,642,643,645,648,782,973,1083,1250,1285,1299,1261,1264,1235,1201,1187,1172,1142,1132,1105,1090,1083,1048,1036,1002,988,933,938,925,879,776,787,709,697,665,650,660,662,623,620,619,625,630,628,626,630,633,626,634,632,629,634,645,650,636,628,634,632,630,635,634,636,630,634,631,438,439,432,441,443,515,650,726,839,858,895,852,866,852,809,811,795,791,779,756,752,722,712,718,681,667,664,632,625,630,611,541,528,463,452,435,469,444,425,427,426,433,447,449,444,447,446,447,448,449,446,437,466,463,446,432,455,446,435,449,450,450,446,448,447,702,707,707,717,722,873,1095,1214,1382,1405,1431,1382,1387,1364,1312,1300,1281,1267,1246,1214,1185,1157,1146,1143,1096,1081,1038,1014,999,961,926,839,799,741,729,713,724,701,676,677,680,686,690,691,689,690,691,696,692,694,689,693,709,712,692,691,702,689,688,694,695,699,688,697,691,339,340,340,341,347,367,490,546,609,667,684,676,662,653,652,631,620,609,597,586,575,564,556,547,534,539,512,502,401,481,395,398,366,359,358,354,355,356,331,337,337,343,343,346,338,344,338,348,343,338,339,339,348,348,345,342,346,338,343,341,343,345,336,341,336,987,953,960,996,997,1319,1590,1749,1877,1970,1882,1868,1822,1811,1776,1787,1698,1725,1695,1646,1577,1533,1524,1488,1484,1456,1419,1313,1302,1083,1117,1023,1047,1014,969,972,970,1026,947,947,947,948,946,948,947,946,945,946,947,948,945,947,975,974,947,945,954,947,947,948,949,949,945,947,946,766,769,759,762,786,1035,1168,1329,1485,1507,1521,1501,1469,1465,1409,1385,1391,1339,1326,1307,1294,1269,1243,1204,1187,1162,1147,1110,1080,1000,918,824,817,797,785,778,767,767,741,745,743,755,761,753,760,751,747,753,751,755,752,759,786,784,789,779,770,758,757,748,755,754,781,757,750,751,754,756,760,925,1020,1176,1285,1458,1498,1471,1503,1425,1426,1431,1379,1355,1331,1307,1283,1238,1236,1212,1189,1145,1140,1117,1093,1051,1046,1004,997,888,778,765,763,765,866,761,756,758,759,759,753,760,760,763,760,761,761,768,769,771,771,768,766,770,770,772,779,773,790,770,766,766,396,397,398,399,401,426,578,646,700,761,773,762,750,739,702,716,704,667,656,677,666,654,644,632,620,600,588,577,565,554,542,518,424,415,405,402,408,404,365,367,366,367,368,372,371,371,371,374,374,376,377,376,379,379,388,380,381,384,381,383,383,383,385,383,383,461,462,464,465,469,620,700,782,862,914,924,908,894,880,865,851,837,821,807,793,778,764,750,735,720,706,691,677,663,649,633,619,585,483,472,468,469,470,452,450,463,468,455,454,453,454,454,453,454,455,455,457,457,457,457,459,458,457,456,466,460,462,459,459,459,639,641,643,645,669,740,993,1115,1226,1284,1287,1266,1246,1225,1200,1178,1157,1142,1117,1099,1080,1067,1045,1023,1004,979,961,937,841,823,791,741,724,666,654,647,652,610,578,575,574,579,587,582,584,585,588,587,586,592,587,591,591,593,590,592,597,590,596,598,593,595,589,590,590,0,0,0,0,0,0,0,0,0,0,0,0,0,0,0,0,0,0,0,0,0,0,0,0,0,0,0,0,0,0,0,0,0,0,0,0,0,0,0,0,0,0,0,0,0,0,0,0,0,0,0,0,0,0,0,0,0,0,0,0,0,0,0,0,0,103,104,104,104,128,130,147,165,182,200,214,211,206,203,200,196,193,190,187,183,180,176,172,169,166,162,159,156,152,148,145,141,138,135,132,128,128,129,94,92,92,95,95,97,95,97,95,99,92,99,92,95,97,93,92,95,92,94,95,100,95,94,93,97,92,517,528,530,531,541,685,804,896,999,1049,1056,1025,1022,1005,989,973,955,939,922,909,891,860,859,839,824,808,791,770,757,719,699,686,666,650,537,534,535,526,515,515,521,521,521,518,519,523,525,525,523,526,540,546,547,555,528,524,531,524,523,528,526,527,532,527,526,325,327,328,329,330,390,484,539,594,651,664,654,643,632,622,611,600,590,579,569,558,547,537,526,515,506,495,484,474,463,452,417,407,397,335,331,332,333,320,315,314,316,327,326,327,322,320,333,328,325,336,333,344,348,342,329,333,333,340,336,342,364,331,335,328,656,658,676,662,693,828,1018,1171,1308,1344,1338,1324,1301,1279,1257,1210,1223,1168,1179,1158,1133,1084,1094,1070,1043,1028,980,959,893,874,842,830,758,682,669,666,683,640,606,606,608,620,626,620,620,618,626,630,629,627,620,626,632,630,622,631,635,626,634,636,634,634,625,624,624,1125,1128,1132,1141,1291,1712,1909,2121,2203,2259,2225,2150,2177,2119,2105,2035,1988,1955,1936,1915,1868,1811,1798,1744,1689,1707,1619,1502,1391,1355,1331,1224,1178,1194,1137,1134,1163,1149,1134,1134,1128,1138,1149,1153,1144,1153,1159,1170,1152,1157,1156,1161,1162,1152,1160,1162,1169,1161,1151,1165,1165,1161,1157,1156,1154,751,754,756,760,925,1020,1176,1285,1458,1498,1471,1503,1425,1426,1431,1379,1355,1331,1307,1283,1238,1236,1212,1189,1145,1140,1117,1093,1051,1046,1004,997,888,778,765,763,765,866,761,756,758,759,759,753,760,760,763,760,761,761,768,769,771,771,768,766,770,770,772,779,773,790,770,766,766,829,831,834,837,911,1139,1289,1439,1616,1626,1648,1622,1595,1569,1538,1516,1490,1440,1437,1411,1391,1372,1350,1324,1297,1291,1257,1218,1173,1165,945,1103,887,889,870,879,881,861,851,812,819,827,822,835,821,838,834,857,841,829,826,835,834,845,842,842,831,843,835,844,847,843,840,895,876,474,475,476,499,505,610,658,758,871,920,928,914,900,886,871,857,844,829,823,810,801,786,774,760,737,723,710,695,681,667,601,639,565,520,513,506,508,481,437,436,440,445,443,443,440,447,454,443,445,441,444,446,442,450,447,447,445,453,448,450,445,450,447,449,449,580,582,584,585,600,739,908,1013,1107,1182,1159,1167,1123,1130,1108,1068,1050,1031,1029,995,976,959,940,922,904,885,867,840,831,831,794,794,705,605,593,603,591,586,565,566,581,585,567,574,568,575,576,565,576,568,569,571,571,576,574,578,574,578,575,579,575,598,575,582,578,625,631,629,630,676,822,986,1128,1244,1293,1300,1261,1259,1219,1217,1153,1134,1137,1133,1108,1075,1060,1015,1005,982,988,941,947,924,908,883,804,709,673,659,645,647,609,599,593,600,612,619,608,605,612,617,621,622,628,623,616,626,630,626,619,616,626,621,612,608,623,617,633,613,251,252,252,253,253,324,364,404,444,484,498,490,484,476,468,460,453,445,437,430,422,414,407,400,392,385,377,369,361,354,346,338,331,323,316,254,255,313,239,238,242,245,240,244,237,245,250,245,242,238,241,242,244,254,244,243,241,248,242,247,245,246,240,240,240,0,0,0,0,0,0,0,0,0,0,0,0,0,0,0,0,0,0,0,0,0,0,0,0,0,0,0,0,0,0,0,0,0,0,0,0,0,0,0,0,0,0,0,0,0,0,0,0,0,0,0,0,0,0,0,0,0,0,0,0,0,0,0,0,0,630,632,649,651,668,832,1025,1141,1246,1261,1288,1265,1252,1203,1197,1191,1169,1150,1145,1108,1087,1068,1046,1003,1005,962,964,935,890,869,850,830,673,673,657,669,657,644,628,631,639,645,633,638,634,644,648,637,645,639,669,650,659,674,645,643,647,645,642,641,646,654,651,650,645,403,404,406,407,447,520,540,658,760,810,820,806,793,780,767,754,740,727,714,702,694,680,668,655,641,629,615,602,589,575,563,549,473,460,451,448,449,422,379,378,381,386,381,385,381,388,395,384,386,383,385,387,385,392,388,388,386,395,390,395,393,392,391,391,391,700,685,688,690,720,874,1105,1219,1325,1402,1367,1347,1373,1306,1310,1260,1238,1217,1194,1173,1168,1162,1107,1085,1064,1042,1035,998,976,968,927,923,762,710,698,694,696,639,627,624,634,653,658,646,641,645,655,664,665,663,656,651,667,667,658,658,654,662,659,650,649,662,653,667,647,1168,1171,1174,1187,1242,1820,2050,2203,2283,2294,2279,2259,2213,2185,2140,2104,2072,2036,1999,1962,1926,1877,1852,1816,1779,1742,1696,1643,1524,1381,1269,1239,1211,1192,1187,1185,1188,1192,1219,1187,1189,1186,1235,1248,1217,1221,1226,1261,1241,1261,1262,1255,1245,1264,1248,1237,1242,1241,1254,1249,1247,1261,1254,1268,1248,829,831,834,837,911,1139,1289,1439,1616,1626,1648,1622,1595,1569,1538,1516,1490,1440,1437,1411,1391,1372,1350,1324,1297,1291,1257,1218,1173,1165,945,1103,887,889,870,879,881,861,851,812,819,827,822,835,821,838,834,857,841,829,826,835,834,845,842,842,831,843,835,844,847,843,840,895,876,540,541,543,545,607,743,840,913,1030,1080,1059,1041,1050,1034,1016,998,958,941,925,907,913,874,878,861,844,807,790,793,775,759,741,706,693,689,551,548,549,551,548,544,545,549,546,551,548,553,548,617,549,544,547,549,548,549,582,554,553,549,552,585,548,590,549,579,554,226,227,228,229,229,293,332,370,409,447,462,455,447,440,433,425,418,411,403,396,389,381,374,367,359,352,345,337,330,323,315,308,301,293,286,281,282,282,221,218,221,222,221,221,221,223,221,222,220,223,222,225,225,224,225,222,227,225,227,275,225,264,224,225,225,251,252,253,254,254,318,359,399,439,479,503,495,487,479,471,464,456,448,441,433,425,418,410,402,394,387,379,371,364,356,348,340,332,325,317,311,313,313,228,231,225,227,230,224,243,228,230,249,224,226,225,224,228,225,225,228,224,230,251,228,225,229,226,225,224,508,515,516,517,522,591,762,852,941,1022,1047,1031,1014,996,981,944,939,922,914,880,880,847,830,829,812,796,779,763,745,729,712,657,551,541,530,524,525,527,457,445,445,443,450,457,454,454,455,460,464,458,467,462,463,463,465,460,465,474,484,487,467,461,473,477,474,351,335,336,337,338,434,519,591,653,714,679,668,657,646,636,625,614,603,592,581,572,561,550,539,528,517,507,496,485,474,463,452,442,352,343,339,340,341,333,336,334,337,342,338,341,345,339,343,343,343,343,348,352,356,341,340,342,346,346,335,342,348,341,346,342,433,417,419,420,423,511,622,735,812,886,847,832,819,806,792,778,765,751,738,724,710,697,684,669,656,643,629,616,602,589,523,554,541,437,426,423,423,424,415,409,414,418,415,425,421,431,429,422,427,425,426,426,428,444,427,427,424,432,427,427,431,432,425,437,428,0,0,0,0,0,0,0,0,0,0,0,0,0,0,0,0,0,0,0,0,0,0,0,0,0,0,0,0,0,0,0,0,0,0,0,0,0,0,0,0,0,0,0,0,0,0,0,0,0,0,0,0,0,0,0,0,0,0,0,0,0,0,0,0,0,272,273,274,275,276,352,399,445,491,536,556,547,539,530,521,512,503,495,486,477,468,458,449,441,432,423,414,405,397,388,379,370,361,353,280,277,278,279,260,262,261,269,262,265,261,265,261,261,262,259,261,260,264,264,261,265,263,265,265,264,263,271,261,264,261,514,500,501,503,510,619,772,858,943,1013,1005,999,972,967,940,898,895,871,872,865,854,829,812,774,781,773,749,733,725,708,593,611,579,564,541,547,507,508,487,473,478,488,491,490,497,487,493,498,508,501,494,497,502,504,492,500,497,507,518,508,507,502,508,513,508,916,919,921,930,1025,1399,1530,1670,1795,1848,1857,1797,1822,1741,1703,1684,1649,1661,1610,1547,1553,1523,1505,1439,1406,1361,1360,1274,1193,1227,1199,1009,981,946,933,930,966,935,925,934,927,936,941,946,941,948,946,956,946,946,949,951,960,958,951,956,967,967,957,952,958,951,948,955,950,540,541,543,545,607,743,840,913,1030,1080,1059,1041,1050,1034,1016,998,958,941,925,907,913,874,878,861,844,807,790,793,775,759,741,706,693,689,551,548,549,551,548,544,545,549,546,551,548,553,548,617,549,544,547,549,548,549,582,554,553,549,552,585,548,590,549,579,554,533,535,537,539,591,733,864,926,1018,1068,1072,1054,1038,1020,1004,962,970,953,936,919,902,885,867,851,834,797,800,783,766,749,732,698,687,671,545,541,543,544,535,538,538,544,540,546,544,546,545,547,542,540,541,540,545,610,544,546,545,545,547,546,545,570,547,568,568,75,93,93,93,93,94,106,118,130,143,154,151,149,146,144,141,139,137,134,132,129,127,125,123,119,117,115,113,111,107,105,103,101,99,96,94,94,94,59,58,58,59,59,62,58,59,59,59,59,59,58,59,59,57,58,59,59,59,58,58,59,59,58,58,58,296,297,298,299,300,328,427,476,534,580,593,584,574,566,556,547,538,529,520,511,501,492,484,475,465,456,447,437,429,420,410,348,340,332,306,301,302,303,269,273,270,276,306,315,290,297,288,306,294,291,298,278,280,294,289,277,297,279,276,295,295,301,305,297,287,558,560,561,563,564,682,830,929,1073,1124,1129,1111,1092,1075,1056,1038,1019,1001,965,965,947,929,913,888,885,866,848,830,812,795,775,704,687,614,574,566,569,565,501,501,493,495,504,511,522,518,506,512,511,525,517,506,509,517,515,512,516,516,507,517,510,513,511,516,507,299,300,301,302,303,337,438,487,534,581,597,588,578,569,561,551,542,533,523,514,506,496,487,478,468,459,451,441,432,423,413,384,349,342,334,327,328,330,278,282,281,285,291,291,295,294,292,295,294,294,297,291,294,295,300,289,298,293,293,293,293,293,293,293,293,327,328,329,330,331,402,487,544,599,654,667,657,646,635,624,614,603,592,581,572,561,550,540,529,518,507,497,486,475,465,438,424,415,404,336,332,333,333,313,309,310,312,313,312,315,314,312,318,317,314,317,318,314,312,314,320,318,319,319,319,319,319,319,319,319,321,322,323,324,324,340,457,499,564,613,625,616,606,566,586,576,566,556,546,536,526,517,507,488,479,471,464,456,448,441,433,398,341,334,328,324,325,326,314,316,315,323,328,310,324,345,333,327,343,338,325,333,360,383,350,313,324,329,322,340,318,332,328,321,318,0,0,0,0,0,0,0,0,0,0,0,0,0,0,0,0,0,0,0,0,0,0,0,0,0,0,0,0,0,0,0,0,0,0,0,0,0,0,0,0,0,0,0,0,0,0,0,0,0,0,0,0,0,0,0,0,0,0,0,0,0,0,0,0,0,543,545,547,549,586,672,861,917,1034,1079,1064,1048,1059,1018,1024,995,968,983,933,947,919,912,895,877,850,842,815,798,790,763,754,649,627,610,555,551,553,550,531,529,526,533,544,544,545,551,542,549,553,546,545,541,546,549,542,551,551,550,548,549,549,553,548,552,541,930,933,936,952,1073,1393,1589,1732,1808,1854,1857,1816,1786,1768,1728,1698,1668,1639,1607,1579,1551,1521,1491,1461,1432,1394,1373,1274,1256,1258,1226,1116,979,962,946,938,951,943,962,967,972,980,963,974,975,987,981,985,978,977,981,974,990,992,1006,989,999,989,998,986,989,986,985,985,974,533,535,537,539,591,733,864,926,1018,1068,1072,1054,1038,1020,1004,962,970,953,936,919,902,885,867,851,834,797,800,783,766,749,732,698,687,671,545,541,543,544,535,538,538,544,540,546,544,546,545,547,542,540,541,540,545,610,544,546,545,545,547,546,545,570,547,568,568,731,735,736,753,770,975,1177,1303,1398,1437,1439,1412,1412,1389,1345,1322,1322,1276,1254,1249,1207,1202,1233,1143,1123,1113,1095,1064,1025,1018,1000,916,829,759,745,742,758,731,714,729,718,738,724,741,725,752,730,742,736,728,740,731,748,743,738,736,751,736,754,735,737,745,738,737,737,680,683,677,680,707,802,1065,1211,1307,1350,1361,1328,1306,1285,1263,1243,1221,1199,1178,1156,1135,1113,1135,1078,1048,1027,1005,984,962,940,871,843,782,699,687,684,685,678,668,668,673,669,671,675,678,680,680,686,688,680,681,683,693,690,684,690,684,683,684,688,684,688,684,688,688,490,490,492,494,495,535,717,797,882,969,979,963,952,936,920,906,889,871,859,841,828,810,795,779,764,749,734,719,703,685,619,605,553,536,502,496,502,499,441,438,441,443,442,441,442,445,442,446,444,444,446,447,452,452,450,449,445,447,448,447,448,450,450,450,450,301,302,303,304,342,302,389,468,492,537,570,562,552,543,534,526,517,507,499,488,480,479,483,475,451,416,409,402,395,389,394,384,377,365,314,310,341,301,259,257,258,262,277,268,264,270,265,265,272,280,271,262,266,269,266,264,275,270,263,269,269,279,271,277,272,634,636,638,617,630,698,949,1062,1187,1270,1277,1254,1238,1213,1191,1176,1151,1133,1114,1092,1073,1054,1032,1011,989,970,948,929,909,886,866,731,644,687,653,644,630,643,575,571,572,574,578,576,578,582,579,590,584,588,587,588,587,592,591,587,587,588,588,589,587,590,590,590,590,717,720,720,715,725,836,1087,1220,1357,1436,1439,1416,1395,1371,1349,1325,1298,1277,1255,1233,1209,1188,1162,1140,1114,1092,1069,1047,944,886,885,845,729,770,736,728,713,737,667,661,663,669,675,671,669,677,678,675,680,676,677,681,680,684,686,679,673,679,677,680,678,681,681,681,681,453,455,456,458,461,563,695,775,855,907,914,899,885,870,855,841,827,812,798,783,768,754,785,726,711,697,682,667,653,639,624,610,553,475,464,460,461,462,450,462,452,467,450,471,455,473,464,470,465,458,471,463,472,470,469,468,472,470,471,467,470,472,472,472,472,726,729,724,728,752,921,1146,1300,1402,1444,1453,1417,1371,1348,1348,1326,1303,1258,1257,1234,1211,1188,1189,1149,1118,1095,1054,1031,1009,1003,932,875,823,733,733,730,732,719,710,709,714,710,715,716,720,721,721,727,724,719,722,724,736,731,725,731,725,724,734,729,725,733,725,733,729,0,0,0,0,0,0,0,0,0,0,0,0,0,0,0,0,0,0,0,0,0,0,0,0,0,0,0,0,0,0,0,0,0,0,0,0,0,0,0,0,0,0,0,0,0,0,0,0,0,0,0,0,0,0,0,0,0,0,0,0,0,0,0,0,0,801,802,801,832,855,1123,1343,1448,1599,1665,1591,1573,1557,1561,1552,1469,1443,1473,1387,1420,1386,1351,1334,1332,1280,1211,1190,1155,1129,1130,1053,943,840,821,803,807,809,804,814,807,819,814,818,824,822,816,822,818,826,817,826,836,844,830,820,825,823,836,845,825,843,846,824,830,829,731,735,736,753,770,975,1177,1303,1398,1437,1439,1412,1412,1389,1345,1322,1322,1276,1254,1249,1207,1202,1233,1143,1123,1113,1095,1064,1025,1018,1000,916,829,759,745,742,758,731,714,729,718,738,724,741,725,752,730,742,736,728,740,731,748,743,738,736,751,736,754,735,737,745,738,737,737,699,702,704,706,737,971,1095,1217,1349,1395,1401,1378,1355,1332,1310,1287,1266,1242,1220,1201,1178,1156,1139,1112,1090,1067,1045,1023,1001,977,955,926,746,728,747,710,712,689,684,690,694,710,694,692,690,693,700,690,690,693,699,699,709,756,698,700,696,724,702,702,702,709,700,700,697,1086,1090,1093,1104,1310,1628,1831,1999,2117,2151,2142,2108,2072,2038,2006,1968,1934,1898,1863,1834,1800,1766,1745,1698,1663,1629,1595,1571,1526,1501,1291,1252,1138,1126,1113,1103,1105,1074,1068,1074,1079,1089,1079,1076,1074,1075,1084,1074,1075,1075,1083,1090,1094,1112,1080,1086,1080,1091,1086,1087,1087,1091,1084,1082,1079,988,990,992,995,1041,1441,1633,1805,1951,1939,1937,1906,1875,1844,1857,1782,1752,1745,1729,1659,1629,1607,1578,1553,1524,1507,1482,1430,1430,1291,1252,1086,1098,1066,1006,1030,1005,959,953,949,953,956,1018,957,971,977,970,957,957,957,953,957,961,979,958,959,957,958,965,961,963,963,962,1043,962,1118,1116,1125,1124,1261,1635,1917,2046,2139,2175,2160,2130,2097,2054,2027,1996,1961,1936,1883,1869,1811,1773,1740,1704,1673,1640,1608,1587,1542,1270,1264,1194,1206,1212,1128,1141,1093,1045,1039,1035,1039,1042,1102,1043,1057,1063,1056,1043,1043,1043,1039,1043,1047,1065,1044,1045,1043,1044,1051,1047,1049,1049,1048,1129,1048,1237,1240,1235,1287,1507,1885,2170,2330,2404,2433,2431,2390,2351,2302,2268,2203,2195,2140,2105,2053,2038,1961,1931,1894,1882,1820,1659,1651,1594,1556,1396,1350,1330,1301,1239,1264,1213,1165,1159,1155,1159,1162,1224,1163,1177,1183,1176,1163,1163,1163,1159,1163,1167,1185,1164,1165,1163,1164,1171,1167,1169,1169,1168,1249,1168,1316,1323,1325,1379,1550,2046,2337,2494,2567,2590,2586,2526,2495,2449,2411,2332,2333,2277,2240,2183,2168,2086,2056,2016,2001,1854,1766,1509,1707,1489,1481,1433,1413,1383,1323,1334,1305,1257,1251,1247,1251,1254,1316,1255,1269,1275,1268,1255,1255,1255,1251,1255,1259,1277,1256,1257,1255,1256,1263,1259,1261,1261,1260,1329,1260,910,913,915,920,1010,1299,1518,1664,1773,1812,1811,1777,1752,1720,1695,1631,1636,1604,1559,1514,1519,1489,1460,1405,1402,1349,1343,1290,1274,1269,1189,1033,987,967,909,923,909,874,868,864,868,871,933,872,886,892,885,872,872,872,868,872,876,894,873,874,872,873,880,876,878,878,877,958,877,1086,1096,1093,1138,1305,1629,1827,1995,2112,2145,2137,2103,2068,2033,1999,1964,1930,1894,1860,1831,1797,1763,1743,1695,1662,1628,1604,1559,1525,1489,1192,1187,1138,1160,1107,1103,1106,1101,1081,1093,1092,1128,1103,1094,1094,1100,1108,1108,1109,1106,1117,1113,1124,1153,1114,1108,1114,1132,1120,1121,1121,1125,1118,1116,1113,929,930,933,941,982,1334,1569,1710,1813,1843,1839,1827,1795,1752,1729,1694,1669,1639,1608,1576,1547,1529,1488,1457,1429,1398,1367,1338,1322,1291,1053,1007,1009,1013,949,941,936,892,887,884,892,896,948,897,909,916,910,896,908,892,889,896,903,916,896,899,901,895,901,898,898,900,898,999,898,0,0,0,0,0,0,0,0,0,0,0,0,0,0,0,0,0,0,0,0,0,0,0,0,0,0,0,0,0,0,0,0,0,0,0,0,0,0,0,0,0,0,0,0,0,0,0,0,0,0,0,0,0,0,0,0,0,0,0,0,0,0,0,0,0,699,702,704,706,737,971,1095,1217,1349,1395,1401,1378,1355,1332,1310,1287,1266,1242,1220,1201,1178,1156,1139,1112,1090,1067,1045,1023,1001,977,955,926,746,728,747,710,712,689,684,690,694,710,694,692,690,693,700,690,690,693,699,699,709,756,698,700,696,724,702,702,702,709,700,700,697,0,0,0,0,0,0,0,0,0,0,0,0,0,0,0,0,0,0,0,0,0,0,0,0,0,0,0,0,0,0,0,0,0,0,0,0,0,0,0,0,0,0,0,0,0,0,0,0,0,0,0,0,0,0,0,0,0,0,0,0,0,0,0,0,0,392,394,395,396,398,524,594,663,731,785,796,784,771,759,745,733,720,707,695,682,669,656,644,631,619,606,594,580,568,555,543,530,518,504,403,398,399,401,385,384,384,385,384,385,384,384,382,384,384,385,382,384,391,390,384,382,386,384,384,384,385,385,382,384,382,516,518,520,522,530,699,788,873,961,1025,1022,1017,1000,986,967,954,936,920,904,886,870,854,839,822,807,792,765,750,741,718,708,693,669,540,528,550,551,506,489,490,486,490,490,491,490,491,488,490,490,492,486,490,497,492,485,483,487,485,485,485,486,486,483,485,483,722,702,710,712,731,985,1108,1230,1348,1403,1406,1385,1358,1340,1311,1292,1269,1248,1229,1202,1185,1184,1138,1126,1102,1087,1067,1056,1005,975,903,876,767,750,741,711,726,692,680,673,681,692,708,690,707,696,727,705,692,705,717,699,722,702,690,722,691,709,704,705,720,710,704,697,690,611,603,614,623,639,837,948,1059,1154,1204,1226,1189,1169,1169,1151,1112,1110,1073,1074,1035,1015,1012,976,977,938,935,899,881,882,862,839,779,761,642,613,626,628,621,599,601,604,605,604,605,604,604,602,604,604,605,602,604,611,610,604,602,606,604,604,604,605,605,602,604,602,645,653,648,650,674,835,1018,1131,1256,1301,1296,1283,1263,1235,1214,1199,1172,1165,1130,1125,1102,1063,1060,1027,1019,981,976,956,922,888,869,741,716,670,701,655,657,656,626,631,635,640,633,638,633,635,635,634,634,636,633,629,636,639,639,635,640,631,628,639,635,635,629,632,629,369,370,371,373,374,490,554,618,683,735,746,735,723,711,699,688,676,664,653,641,629,617,606,594,581,586,558,546,534,522,511,499,487,475,379,375,376,377,364,363,360,363,363,364,363,363,361,363,363,364,361,363,370,369,363,361,365,363,363,363,364,364,361,363,361,426,427,441,442,433,500,650,748,799,854,889,875,837,847,832,818,804,784,771,762,748,733,698,705,671,676,643,630,616,619,588,574,507,495,476,432,433,434,419,418,418,419,418,419,418,418,416,418,418,419,416,418,425,424,418,416,420,418,418,418,419,419,416,418,416,583,585,585,587,590,758,909,1009,1124,1178,1174,1160,1144,1118,1100,1081,1062,1047,1028,1006,987,969,950,931,913,903,876,866,839,828,751,709,624,622,596,591,593,587,572,566,566,566,574,574,577,578,593,578,573,574,599,582,592,579,576,604,576,596,575,576,587,578,574,575,568,576,577,579,581,594,799,906,1020,1108,1157,1160,1141,1123,1112,1086,1068,1056,1037,1012,993,974,957,938,919,907,882,863,844,826,785,789,771,731,724,587,584,585,587,591,577,580,584,589,588,593,590,593,594,594,589,656,655,665,590,590,611,594,603,593,588,604,595,591,588,583,0,0,0,0,0,0,0,0,0,0,0,0,0,0,0,0,0,0,0,0,0,0,0,0,0,0,0,0,0,0,0,0,0,0,0,0,0,0,0,0,0,0,0,0,0,0,0,0,0,0,0,0,0,0,0,0,0,0,0,0,0,0,0,0,0 ]);
