n = 10;
D = [228,146,262,146,215,173,169,282,144,276 ];
q = 0;
prec = array2d(1..0,1..2,[]);
steps = 64;
l = 360;
r = 0;
which = [];
interval = array2d(1..0,1..2,[]);
T = array3d(1..11,1..11,0..64,[0,0,0,0,0,0,0,0,0,0,0,0,0,0,0,0,0,0,0,0,0,0,0,0,0,0,0,0,0,0,0,0,0,0,0,0,0,0,0,0,0,0,0,0,0,0,0,0,0,0,0,0,0,0,0,0,0,0,0,0,0,0,0,0,0,242,244,244,245,246,260,433,483,533,585,609,600,590,579,570,560,550,541,531,523,512,502,493,482,472,463,453,444,434,424,415,405,264,256,250,247,248,248,188,188,188,188,188,188,188,188,188,188,188,188,188,188,188,188,188,188,188,188,188,188,188,188,188,188,188,169,170,170,171,217,267,302,337,372,406,423,417,410,403,397,390,384,376,369,363,356,350,343,337,330,322,316,309,303,296,290,283,276,270,221,218,218,218,114,114,114,114,114,114,114,114,114,114,114,114,114,114,114,114,114,114,114,114,114,114,114,114,114,114,114,249,250,251,252,252,376,454,507,560,619,637,615,616,606,595,586,565,555,544,535,525,516,505,495,486,475,474,464,445,435,426,415,378,368,256,253,254,255,235,235,235,235,235,235,235,235,235,235,235,235,235,235,235,235,235,235,235,235,235,235,235,235,235,235,235,1190,1154,1177,1225,1349,2146,2741,2925,3004,3016,3027,2958,2863,2820,2813,2699,2661,2640,2590,2521,2477,2382,2341,2316,2233,2121,1824,1696,1388,1328,1300,1252,1204,1207,1172,1185,1178,1203,1142,1142,1142,1142,1142,1142,1142,1142,1142,1142,1142,1142,1142,1142,1142,1142,1142,1142,1142,1142,1142,1142,1142,1142,1142,1142,1142,382,383,385,388,391,447,689,770,866,941,951,938,922,907,891,877,860,845,829,817,802,786,771,757,741,726,709,696,680,664,463,453,426,416,392,389,390,392,302,302,302,302,302,302,302,302,302,302,302,302,302,302,302,302,302,302,302,302,302,302,302,302,302,302,302,444,446,446,450,465,556,791,878,982,1058,1066,1052,1035,1019,1003,987,970,954,937,925,908,891,876,860,843,826,808,794,778,712,598,575,510,479,455,451,464,444,357,357,357,357,357,357,357,357,357,357,357,357,357,357,357,357,357,357,357,357,357,357,357,357,357,357,357,462,450,454,455,482,509,857,948,1033,1065,1095,1078,1083,1045,1028,1030,994,978,955,943,944,938,888,876,882,878,868,807,790,763,686,648,514,471,460,472,459,481,414,414,414,414,414,414,414,414,414,414,414,414,414,414,414,414,414,414,414,414,414,414,414,414,414,414,414,253,255,255,256,256,295,443,492,543,594,626,617,607,598,591,582,572,564,552,542,534,523,512,503,493,481,473,460,453,329,321,314,307,300,262,259,260,260,219,216,220,230,222,222,222,222,222,222,222,222,222,222,222,222,222,222,222,222,222,222,222,222,222,222,222,326,327,328,329,330,524,602,673,730,799,822,798,796,782,757,756,733,709,708,694,681,669,646,642,630,618,613,600,579,574,544,541,528,433,329,326,332,328,317,317,317,317,317,317,317,317,317,317,317,317,317,317,317,317,317,317,317,317,317,317,317,317,317,317,317,0,0,0,0,0,0,0,0,0,0,0,0,0,0,0,0,0,0,0,0,0,0,0,0,0,0,0,0,0,0,0,0,0,0,0,0,0,0,0,0,0,0,0,0,0,0,0,0,0,0,0,0,0,0,0,0,0,0,0,0,0,0,0,0,0,246,247,248,248,249,385,449,502,569,602,632,606,611,600,576,566,570,548,551,528,530,522,511,504,480,469,472,450,433,423,415,404,394,367,375,250,302,303,227,230,228,230,230,230,229,228,227,228,229,231,226,229,242,243,229,226,235,228,228,230,230,231,226,229,227,0,0,0,0,0,0,0,0,0,0,0,0,0,0,0,0,0,0,0,0,0,0,0,0,0,0,0,0,0,0,0,0,0,0,0,0,0,0,0,0,0,0,0,0,0,0,0,0,0,0,0,0,0,0,0,0,0,0,0,0,0,0,0,0,0,248,248,248,249,250,244,415,463,511,606,572,608,593,544,579,568,555,548,499,524,481,471,463,453,481,488,427,417,409,399,390,304,248,242,236,298,353,360,213,213,213,214,212,214,213,212,211,212,213,214,211,213,224,223,213,211,219,213,213,214,215,215,211,213,212,150,150,151,151,152,237,268,299,331,361,379,373,367,360,354,348,342,337,331,325,319,312,306,300,294,288,282,277,270,264,258,252,246,240,159,156,156,157,142,136,138,145,144,143,133,138,141,150,149,145,149,144,147,144,149,145,136,148,137,144,138,135,147,143,135,1115,1118,1126,1155,1244,2038,2416,2616,2748,2842,2795,2767,2715,2681,2638,2594,2553,2498,2449,2396,2366,2296,2252,2116,2047,2002,1934,1574,1474,1392,1234,1200,1161,1151,1136,1117,1125,1130,1132,1124,1123,1135,1155,1120,1129,1134,1147,1163,1160,1170,1180,1198,1173,1183,1222,1180,1172,1188,1192,1204,1198,1195,1207,1203,1191,362,360,360,361,353,399,654,731,807,858,891,886,864,849,847,828,806,747,786,721,750,735,721,732,693,702,664,650,556,621,502,490,470,401,356,353,386,356,354,360,358,362,363,366,358,365,360,368,364,361,361,360,365,375,368,364,368,361,364,366,364,370,361,365,362,423,420,422,423,416,533,757,839,921,975,1021,1002,978,962,959,938,916,856,894,828,855,841,825,849,795,802,764,750,655,718,634,620,543,438,419,415,440,415,409,416,414,418,417,420,414,418,416,415,420,417,414,416,418,421,417,420,420,417,420,422,417,425,416,421,418,534,535,536,543,544,701,1042,1148,1253,1319,1309,1301,1257,1243,1226,1204,1180,1162,1133,1104,1096,1087,1054,1036,1020,1025,972,950,941,828,720,677,562,552,544,548,545,585,513,513,513,514,512,514,513,512,511,512,513,514,511,513,538,525,513,511,519,513,513,514,515,515,511,513,512,389,390,384,392,394,478,709,792,915,936,976,930,945,930,883,885,867,860,850,825,807,788,777,765,743,728,724,690,660,629,600,523,486,412,402,387,417,395,378,380,379,385,398,400,395,398,396,398,399,400,397,388,415,412,396,384,405,396,387,400,401,401,397,399,397,259,260,261,264,265,273,456,518,561,624,643,639,622,609,603,594,580,574,563,555,543,535,524,514,502,493,482,475,458,447,441,430,321,311,272,267,267,267,235,231,230,235,237,236,236,238,234,243,236,248,253,248,238,248,243,237,237,240,241,248,242,239,251,247,239,246,247,248,248,249,385,449,502,569,602,632,606,611,600,576,566,570,548,551,528,530,522,511,504,480,469,472,450,433,423,415,404,394,367,375,250,302,303,227,230,228,230,230,230,229,228,227,228,229,231,226,229,242,243,229,226,235,228,228,230,230,231,226,229,227,180,181,182,182,184,228,318,356,393,430,453,446,439,432,424,417,410,403,396,388,381,374,367,360,356,345,338,331,324,316,309,304,296,234,229,213,224,225,136,138,137,138,138,138,138,140,140,138,141,138,137,138,137,140,139,138,138,137,136,138,138,139,138,141,138,204,204,204,204,246,245,358,384,397,432,460,453,445,439,432,424,416,409,402,394,387,401,373,391,357,380,374,369,364,358,339,333,326,289,247,243,243,243,180,177,178,183,180,183,179,185,179,183,184,179,181,181,182,184,183,182,182,182,182,180,182,182,182,184,182,0,0,0,0,0,0,0,0,0,0,0,0,0,0,0,0,0,0,0,0,0,0,0,0,0,0,0,0,0,0,0,0,0,0,0,0,0,0,0,0,0,0,0,0,0,0,0,0,0,0,0,0,0,0,0,0,0,0,0,0,0,0,0,0,0,295,294,295,296,297,341,527,589,651,712,733,721,710,649,684,674,669,651,644,632,597,585,592,580,570,541,529,534,527,511,483,350,481,341,333,297,324,324,263,266,256,263,283,269,265,289,264,266,268,267,264,260,262,267,265,264,267,264,262,267,263,291,287,289,287,1021,1004,1005,1041,1080,1890,2419,2572,2698,2683,2656,2608,2600,2506,2461,2454,2353,2341,2294,2241,2204,2128,2088,2039,2004,1953,1849,1574,1467,1351,1136,1102,1082,1047,1043,1015,1026,1027,1036,1034,1033,1044,1033,1035,1047,1044,1049,1049,1049,1049,1049,1049,1049,1049,1049,1049,1049,1049,1049,1049,1049,1049,1049,1049,1049,217,217,218,219,244,251,388,433,478,523,543,535,526,518,508,500,492,483,474,465,457,448,440,430,422,414,405,397,387,379,370,362,261,254,248,244,245,245,188,188,188,190,199,204,200,206,204,204,204,204,204,204,204,204,204,204,204,204,204,204,204,204,204,204,204,279,280,280,282,291,379,490,539,590,640,660,650,640,631,621,612,602,592,583,573,567,554,544,535,525,516,506,496,487,477,466,462,394,384,341,282,306,338,243,244,244,246,245,248,246,250,248,248,248,248,248,248,248,248,248,248,248,248,248,248,248,248,248,248,248,340,338,349,343,344,446,654,699,765,829,838,810,812,799,786,772,759,740,728,715,706,693,667,667,656,628,615,614,603,577,574,552,433,350,342,345,345,347,326,328,327,330,330,329,331,331,328,328,328,329,330,331,349,332,328,330,332,332,350,333,330,349,328,328,328,318,324,326,327,328,366,572,637,703,763,785,773,761,747,726,720,711,700,687,675,661,650,638,626,613,602,590,576,565,538,531,421,374,373,320,321,317,332,287,287,288,293,291,294,291,294,291,294,293,289,292,293,290,290,294,294,295,291,292,290,291,292,294,294,294,407,403,407,411,420,516,746,819,912,990,1003,986,969,898,930,915,906,883,884,854,825,809,801,795,783,741,732,727,714,690,649,472,553,487,421,418,420,420,367,370,360,367,387,373,373,389,369,371,374,372,368,364,367,372,371,369,373,368,367,372,369,395,392,394,392,180,181,182,182,184,228,318,356,393,430,453,446,439,432,424,417,410,403,396,388,381,374,367,360,356,345,338,331,324,316,309,304,296,234,229,213,224,225,136,138,137,138,138,138,138,140,140,138,141,138,137,138,137,140,139,138,138,137,136,138,138,139,138,141,138,329,328,331,329,333,527,609,680,746,804,820,807,841,775,762,756,742,729,716,703,690,676,663,650,632,624,612,598,585,572,554,541,529,427,392,334,335,392,317,319,319,320,322,322,323,324,324,324,325,326,324,326,324,326,325,325,329,328,327,328,328,330,329,329,329,188,188,189,189,280,285,326,364,397,441,454,458,449,442,435,422,419,412,405,387,382,375,375,368,360,344,340,339,324,323,316,304,300,294,281,282,188,188,156,151,153,155,156,153,154,154,153,155,156,153,155,155,153,153,152,155,155,157,153,153,157,155,153,150,150,377,388,385,385,383,495,690,778,852,921,936,921,908,888,877,862,850,832,826,798,790,775,754,746,728,712,698,684,668,654,514,501,489,418,386,383,384,388,303,302,304,304,305,306,307,308,308,308,309,309,309,310,309,310,309,310,313,313,312,312,313,314,314,313,313,0,0,0,0,0,0,0,0,0,0,0,0,0,0,0,0,0,0,0,0,0,0,0,0,0,0,0,0,0,0,0,0,0,0,0,0,0,0,0,0,0,0,0,0,0,0,0,0,0,0,0,0,0,0,0,0,0,0,0,0,0,0,0,0,0,1005,1007,1015,1056,1173,1940,2237,2475,2595,2655,2630,2595,2512,2488,2442,2392,2344,2277,2251,2205,2156,2110,2043,2017,1968,1918,1874,1685,1520,1228,1168,1143,1062,1040,1021,1027,1024,1028,1020,1016,1017,1024,1043,1008,1017,1020,1038,1045,1048,1047,1047,1076,1060,1057,1075,1070,1062,1074,1070,1076,1074,1076,1073,1074,1070,514,507,505,512,526,679,917,1063,1131,1211,1214,1189,1174,1183,1137,1116,1096,1082,1107,1057,1036,999,1016,1008,980,941,941,884,858,564,552,548,549,536,518,508,499,508,434,436,437,440,441,444,443,445,442,444,444,445,446,453,451,451,448,449,448,448,452,451,447,449,444,443,443,576,569,567,580,588,632,1023,1176,1290,1328,1329,1304,1287,1326,1248,1226,1206,1190,1186,1165,1141,1104,1120,1110,1082,1041,1020,982,953,700,687,681,641,613,581,570,589,563,490,491,492,495,496,499,498,500,497,499,499,500,501,508,506,506,503,504,503,503,507,506,502,504,499,498,498,678,683,694,689,687,1019,1310,1456,1603,1660,1655,1625,1607,1574,1550,1524,1490,1466,1452,1414,1406,1377,1347,1322,1286,1258,1243,1218,1083,1015,934,757,738,721,693,688,690,687,603,602,604,604,605,606,607,608,608,608,609,609,609,610,609,610,609,610,613,613,612,612,613,614,614,613,613,508,518,514,518,515,745,946,1041,1168,1249,1236,1232,1199,1175,1161,1154,1134,1099,1083,1054,1042,1034,1003,980,964,940,921,914,877,858,738,720,702,553,520,516,517,518,468,469,470,475,491,492,489,494,493,494,495,495,495,485,488,496,492,483,497,496,486,498,499,500,500,499,499,112,112,112,170,170,175,188,219,230,264,278,274,270,265,249,246,241,237,232,240,224,231,226,222,218,213,200,205,200,187,192,187,183,178,175,171,171,171,104,104,104,104,104,104,108,112,105,105,106,105,104,104,105,105,106,105,106,104,105,105,106,106,105,107,106,329,328,331,329,333,527,609,680,746,804,820,807,841,775,762,756,742,729,716,703,690,676,663,650,632,624,612,598,585,572,554,541,529,427,392,334,335,392,317,319,319,320,322,322,323,324,324,324,325,326,324,326,324,326,325,325,329,328,327,328,328,330,329,329,329,1125,1129,1132,1165,1360,2078,2475,2848,2912,2965,2894,2896,2818,2764,2700,2656,2602,2561,2507,2453,2368,2340,2287,2234,2179,2103,2016,1656,1374,1280,1272,1196,1172,1178,1150,1152,1126,1133,1127,1132,1133,1124,1153,1142,1137,1149,1143,1158,1160,1143,1153,1170,1159,1158,1160,1163,1164,1169,1164,1159,1160,1160,1156,1160,1143,1191,1179,1196,1215,1377,2173,2609,2814,2881,2892,2878,2825,2804,2762,2697,2675,2629,2584,2518,2455,2378,2339,2304,2252,2199,2123,2016,1788,1435,1360,1324,1260,1244,1225,1189,1210,1219,1206,1197,1187,1214,1212,1216,1194,1208,1198,1221,1232,1234,1230,1226,1244,1227,1223,1240,1237,1221,1225,1228,1237,1225,1230,1243,1226,1224,1035,1041,1046,1065,1233,1878,2261,2643,2709,2766,2689,2695,2629,2579,2519,2470,2428,2387,2333,2285,2203,2179,2131,2080,2029,1981,1924,1838,1548,1188,1182,1108,1072,1066,1055,1056,1064,1055,1052,1057,1037,1036,1074,1056,1055,1064,1055,1064,1085,1062,1076,1095,1084,1083,1073,1084,1082,1094,1089,1077,1071,1084,1081,1084,1060,1083,1076,1088,1142,1215,1954,2446,2632,2725,2736,2797,2728,2654,2600,2579,2469,2485,2373,2325,2280,2262,2180,2132,2112,2067,2022,2021,1845,1485,1201,1186,1175,1103,1098,1070,1072,1117,1112,1116,1104,1112,1119,1130,1114,1128,1139,1137,1143,1145,1141,1145,1143,1141,1142,1145,1144,1145,1145,1145,1148,1148,1146,1144,1145,1139,0,0,0,0,0,0,0,0,0,0,0,0,0,0,0,0,0,0,0,0,0,0,0,0,0,0,0,0,0,0,0,0,0,0,0,0,0,0,0,0,0,0,0,0,0,0,0,0,0,0,0,0,0,0,0,0,0,0,0,0,0,0,0,0,0,926,931,934,943,1035,1653,1986,2371,2449,2493,2438,2392,2378,2335,2279,2243,2197,2157,2105,2063,1987,1966,1924,1879,1832,1787,1739,1596,1532,1247,1096,996,966,956,944,945,905,907,897,891,904,904,914,892,890,899,895,916,919,917,911,922,911,897,921,911,909,913,916,913,912,912,916,923,915,906,888,891,897,984,1551,1925,2267,2350,2418,2353,2319,2311,2236,2210,2181,2136,2083,2046,2013,1909,1891,1852,1808,1758,1716,1683,1610,1509,1237,1150,994,936,912,913,897,862,865,854,847,861,860,870,848,846,854,852,872,875,869,861,875,863,852,878,867,865,869,873,869,869,866,873,880,872,807,808,810,814,888,1379,1694,2078,2155,2214,2163,2122,2113,2071,2020,1988,1947,1905,1869,1827,1755,1740,1699,1658,1616,1575,1532,1492,1450,1410,1215,1053,843,832,820,821,826,832,820,823,829,826,831,826,836,838,835,826,844,836,833,833,858,861,861,861,839,841,860,836,838,844,845,846,840,1111,1106,1119,1147,1395,2040,2451,2764,2872,2887,2855,2784,2787,2713,2652,2599,2528,2493,2485,2395,2297,2271,2242,2200,2131,1973,1996,1636,1592,1544,1304,1173,1163,1128,1100,1132,1098,1097,1080,1085,1098,1102,1106,1095,1099,1102,1097,1111,1113,1111,1106,1123,1112,1111,1113,1116,1117,1122,1117,1112,1119,1113,1109,1113,1109,1012,985,990,1029,1434,1793,2268,2458,2554,2569,2613,2564,2455,2444,2425,2318,2337,2227,2181,2139,2124,2044,1999,1982,1908,1864,1868,1821,1576,1352,1259,1060,1029,1007,996,999,1036,1044,1040,1028,1031,1036,1050,1032,1045,1056,1055,1063,1062,1058,1062,1060,1060,1059,1062,1062,1062,1061,1062,1062,1062,1062,1061,1062,1061,1125,1129,1132,1165,1360,2078,2475,2848,2912,2965,2894,2896,2818,2764,2700,2656,2602,2561,2507,2453,2368,2340,2287,2234,2179,2103,2016,1656,1374,1280,1272,1196,1172,1178,1150,1152,1126,1133,1127,1132,1133,1124,1153,1142,1137,1149,1143,1158,1160,1143,1153,1170,1159,1158,1160,1163,1164,1169,1164,1159,1160,1160,1156,1160,1143,419,420,421,422,428,468,795,888,976,1034,1044,1024,1008,991,974,958,942,925,908,891,874,858,842,825,808,791,775,749,737,723,665,461,450,446,429,426,427,435,383,383,383,383,383,383,383,383,383,383,383,383,383,383,383,383,383,383,383,383,383,383,383,383,383,383,383,331,339,354,355,336,378,534,687,754,806,820,808,798,786,774,759,747,734,721,708,709,696,668,675,571,562,552,541,534,524,523,366,357,368,360,336,358,359,338,338,338,338,338,338,338,338,338,338,338,338,338,338,338,338,338,338,338,338,338,338,338,338,338,338,338,328,329,335,331,337,431,618,690,760,806,829,804,802,789,774,752,750,736,712,711,697,684,661,657,643,621,615,604,591,577,565,512,499,350,341,337,339,340,319,313,315,317,317,317,318,318,315,319,319,318,319,319,319,317,319,319,319,319,319,319,319,319,319,319,319,447,455,450,452,459,597,834,954,1034,1086,1095,1078,1063,1057,1039,1016,1004,985,968,925,945,930,897,895,859,844,826,808,790,738,697,612,582,527,457,454,456,462,414,414,414,414,414,414,414,414,414,414,414,414,414,414,414,414,414,414,414,414,414,414,414,414,414,414,414,902,891,886,896,955,1536,2076,2295,2389,2436,2391,2354,2347,2300,2209,2176,2143,2081,2031,1986,1980,1937,1853,1807,1761,1751,1697,1614,1468,1244,1055,984,968,928,925,916,922,912,905,905,905,905,905,905,905,905,905,905,905,905,905,905,905,905,905,905,905,905,905,905,905,905,905,905,905,0,0,0,0,0,0,0,0,0,0,0,0,0,0,0,0,0,0,0,0,0,0,0,0,0,0,0,0,0,0,0,0,0,0,0,0,0,0,0,0,0,0,0,0,0,0,0,0,0,0,0,0,0,0,0,0,0,0,0,0,0,0,0,0,0,127,127,127,127,127,128,138,147,157,166,175,172,170,169,166,165,163,162,159,157,156,153,152,150,148,146,144,142,140,139,136,135,133,130,129,127,128,128,55,55,55,55,55,55,55,55,55,55,55,55,55,55,55,55,55,55,55,55,55,55,55,55,55,55,55,430,431,434,435,436,526,816,891,977,1045,1052,1035,1019,1007,1009,979,958,941,924,908,896,875,858,841,830,809,791,790,762,742,726,650,535,459,448,437,436,439,405,405,405,405,405,405,405,405,405,405,405,405,405,405,405,405,405,405,405,405,405,405,405,405,405,405,405,467,468,470,471,479,748,891,994,1094,1147,1152,1134,1116,1116,1078,1060,1042,1024,1005,987,969,951,933,914,896,878,860,841,836,703,691,676,660,488,477,474,475,476,461,461,461,461,461,461,461,461,461,461,461,461,461,461,461,461,461,461,461,461,461,461,461,461,461,461,461,559,567,563,564,583,725,1062,1202,1310,1356,1360,1329,1312,1303,1280,1253,1236,1222,1192,1153,1159,1152,1113,1098,1059,1044,1024,995,981,728,693,687,583,581,571,568,569,563,495,495,495,495,495,495,495,495,495,495,495,495,495,495,495,495,495,495,495,495,495,495,495,495,495,495,495,419,420,421,422,428,468,795,888,976,1034,1044,1024,1008,991,974,958,942,925,908,891,874,858,842,825,808,791,775,749,737,723,665,461,450,446,429,426,427,435,383,383,383,383,383,383,383,383,383,383,383,383,383,383,383,383,383,383,383,383,383,383,383,383,383,383,383,448,449,451,453,455,567,856,952,1046,1108,1118,1096,1078,1060,1042,1024,1008,990,972,954,938,919,901,883,865,847,829,804,786,769,715,588,544,470,460,456,457,445,415,413,414,422,434,428,429,431,419,437,427,435,432,429,431,432,436,433,430,430,420,427,421,434,431,431,423,382,383,384,385,367,413,675,757,819,874,894,881,870,856,844,828,813,800,784,770,771,759,744,733,630,619,607,596,585,583,571,431,460,413,370,388,416,389,370,362,364,366,375,378,367,371,366,371,379,378,374,382,385,385,385,377,375,384,382,382,385,385,381,385,380,358,364,365,361,368,469,655,754,830,880,878,888,873,859,844,817,816,801,787,774,759,745,720,716,701,678,673,649,634,629,615,561,456,445,372,368,369,371,351,335,338,344,341,339,348,342,337,347,340,339,344,349,349,345,364,353,340,341,340,340,339,345,342,346,340,469,466,480,469,482,647,891,1022,1102,1153,1169,1151,1135,1126,1106,1085,1069,1044,1005,1012,1006,990,973,955,918,901,879,824,842,810,700,594,574,499,475,484,486,502,446,450,453,457,454,453,449,458,454,459,452,450,455,462,462,465,464,461,460,455,459,462,461,466,455,462,455,873,874,892,853,973,1537,1969,2203,2293,2380,2342,2314,2210,2167,2209,2093,2079,1995,1993,1938,1933,1869,1818,1774,1700,1651,1620,1552,1427,1244,997,929,932,876,885,864,908,870,877,881,881,882,895,888,888,897,892,922,905,897,903,891,927,944,923,909,896,906,909,912,911,909,901,907,896,76,76,76,76,115,116,132,147,162,177,189,186,183,181,177,175,171,169,165,163,159,157,153,151,147,145,141,139,135,133,129,127,123,121,117,115,115,116,43,42,43,44,43,44,44,44,44,45,43,44,44,48,50,47,48,45,43,44,44,44,43,44,43,46,43,0,0,0,0,0,0,0,0,0,0,0,0,0,0,0,0,0,0,0,0,0,0,0,0,0,0,0,0,0,0,0,0,0,0,0,0,0,0,0,0,0,0,0,0,0,0,0,0,0,0,0,0,0,0,0,0,0,0,0,0,0,0,0,0,0,461,462,463,464,467,646,861,976,1068,1131,1125,1118,1109,1092,1055,1038,1022,1019,989,975,971,936,934,917,883,880,847,843,807,792,738,658,617,523,472,468,477,469,437,434,457,457,446,457,442,458,442,451,447,442,450,460,457,460,457,451,447,457,452,447,444,457,447,457,444,496,498,500,533,540,826,952,1063,1170,1216,1225,1263,1185,1166,1147,1128,1108,1088,1069,1050,1030,1011,1009,990,952,933,914,894,874,693,680,622,607,606,508,504,506,507,493,491,492,496,500,492,501,495,497,496,493,497,500,506,504,505,513,511,500,506,498,496,500,501,507,503,497,580,578,593,582,608,775,1121,1286,1376,1423,1434,1400,1381,1367,1343,1317,1301,1279,1229,1230,1228,1204,1188,1158,1118,1101,1078,1011,995,718,727,693,664,612,613,615,600,593,527,530,542,561,537,538,536,536,532,540,534,531,537,541,546,545,545,541,539,538,542,540,542,540,534,542,535,448,449,451,453,455,567,856,952,1046,1108,1118,1096,1078,1060,1042,1024,1008,990,972,954,938,919,901,883,865,847,829,804,786,769,715,588,544,470,460,456,457,445,415,413,414,422,434,428,429,431,419,437,427,435,432,429,431,432,436,433,430,430,420,427,421,434,431,431,423,382,384,384,386,387,538,699,770,861,937,950,936,920,906,889,875,860,844,830,814,808,792,769,753,739,723,709,700,678,663,648,551,517,401,392,388,389,390,331,330,328,336,328,336,328,332,332,333,332,332,334,330,335,337,339,331,333,334,332,338,332,332,333,333,331,496,497,498,500,498,664,908,990,1094,1162,1181,1163,1151,1130,1112,1085,1074,1053,1024,1032,1015,978,981,904,869,861,837,821,804,786,734,677,619,508,513,494,495,496,436,435,433,441,433,441,433,437,437,438,437,437,439,435,440,442,444,436,438,439,437,443,437,437,438,438,436,292,293,294,294,300,366,524,584,649,705,736,724,715,703,691,679,668,656,633,632,616,605,593,581,569,559,547,535,524,512,501,418,371,362,354,300,301,302,256,255,253,261,253,261,253,257,257,258,257,257,259,255,260,262,264,256,258,259,257,263,257,257,258,258,256,583,582,582,589,596,719,1112,1233,1355,1416,1417,1373,1364,1379,1355,1332,1314,1272,1225,1214,1212,1195,1156,1150,1106,1088,1080,1052,1022,916,685,669,668,613,600,597,599,587,519,518,516,524,516,524,516,520,520,521,520,520,522,518,523,525,527,519,521,522,520,526,520,520,521,521,519,921,923,941,968,1048,1770,2197,2326,2427,2492,2467,2376,2376,2330,2307,2238,2197,2109,2101,2058,2036,1984,1917,1836,1790,1780,1735,1659,1458,1304,1013,983,968,960,942,937,943,948,974,970,970,982,968,988,980,980,987,982,983,997,988,984,983,981,987,988,987,995,978,983,982,1004,994,1011,980,424,425,426,430,435,604,786,885,977,1076,1054,1037,1020,1030,986,968,952,935,919,903,919,870,854,836,820,823,787,798,768,751,682,630,602,521,456,452,444,440,403,401,401,413,406,412,406,415,404,413,411,418,409,407,414,417,415,410,414,420,410,414,411,409,412,411,409,422,401,403,404,408,581,780,867,930,1028,995,980,963,992,931,916,899,882,869,853,877,819,802,787,771,793,740,759,742,729,678,662,598,440,430,466,428,405,396,390,389,397,391,394,392,391,395,394,391,395,398,395,399,399,404,395,393,403,393,399,396,396,399,394,394,0,0,0,0,0,0,0,0,0,0,0,0,0,0,0,0,0,0,0,0,0,0,0,0,0,0,0,0,0,0,0,0,0,0,0,0,0,0,0,0,0,0,0,0,0,0,0,0,0,0,0,0,0,0,0,0,0,0,0,0,0,0,0,0,0,312,313,314,316,349,431,574,630,706,764,775,763,712,739,726,714,702,690,678,632,652,627,628,616,603,591,579,567,555,542,530,481,442,380,399,317,318,319,284,283,281,289,281,289,281,285,285,286,285,285,287,283,288,290,292,284,286,287,285,291,285,285,286,286,284,695,689,695,704,710,907,1354,1501,1629,1682,1680,1622,1610,1620,1592,1564,1554,1496,1453,1438,1434,1406,1369,1350,1311,1288,1267,1239,1201,1024,871,850,744,726,712,710,716,691,623,622,620,628,620,628,620,624,624,625,624,624,626,622,627,629,631,623,625,626,624,630,624,624,625,625,623,382,384,384,386,387,538,699,770,861,937,950,936,920,906,889,875,860,844,830,814,808,792,769,753,739,723,709,700,678,663,648,551,517,401,392,388,389,390,331,330,328,336,328,336,328,332,332,333,332,332,334,330,335,337,339,331,333,334,332,338,332,332,333,333,331,232,233,234,234,235,363,421,470,519,567,582,572,564,554,544,535,526,517,507,499,489,480,470,462,452,442,434,424,415,405,397,387,378,368,240,236,236,237,220,211,212,211,218,217,217,215,215,218,224,219,221,221,221,222,220,218,221,226,240,237,223,219,229,236,229,452,458,459,460,464,525,832,929,1027,1126,1132,1113,1095,1077,1062,1030,1024,1006,993,960,960,924,906,904,886,868,850,832,813,795,688,631,490,481,471,466,467,469,406,395,396,394,401,407,403,404,405,409,413,407,416,411,412,412,414,409,413,421,430,433,415,409,420,424,421,361,371,372,373,374,394,679,765,833,903,897,883,876,862,860,820,806,791,793,769,763,749,736,696,698,693,678,670,650,612,400,398,393,388,370,376,377,377,332,320,323,322,331,330,331,326,327,332,340,334,336,336,337,336,334,334,338,345,358,354,338,335,343,346,341,407,408,416,411,416,642,786,888,969,1004,1032,1021,986,970,948,964,921,922,883,872,856,840,824,802,801,770,753,738,721,705,688,673,627,580,424,413,415,416,413,412,413,416,430,410,410,412,411,418,417,416,416,419,418,413,427,418,414,416,416,424,414,413,420,419,414,1275,1259,1330,1337,1890,2431,3033,3134,3260,3279,3260,3145,3111,3099,3033,2949,2920,2871,2794,2727,2617,2315,2470,2286,2172,1983,1862,1741,1448,1399,1390,1352,1333,1272,1319,1285,1287,1311,1303,1305,1316,1327,1308,1326,1313,1330,1326,1316,1334,1336,1332,1337,1349,1344,1329,1336,1330,1349,1354,1332,1346,1338,1330,1345,1339,569,553,555,556,562,735,1078,1190,1304,1374,1360,1343,1317,1303,1273,1222,1217,1192,1182,1171,1155,1122,1100,1053,1056,1045,1012,992,902,842,762,651,647,573,570,564,561,552,520,508,511,512,531,531,531,528,529,534,542,535,537,538,539,538,536,536,540,546,558,554,540,536,546,549,544,592,603,605,598,614,828,1139,1280,1366,1477,1394,1396,1373,1324,1344,1282,1261,1240,1249,1213,1195,1175,1150,1135,1106,1107,1065,1040,1036,977,834,710,630,641,594,601,623,577,566,554,561,566,570,562,571,571,574,573,574,569,572,572,570,574,577,573,574,575,572,575,575,580,575,575,573,500,502,502,509,514,783,944,1062,1177,1248,1233,1213,1194,1174,1154,1136,1114,1094,1071,1052,1036,1017,997,982,958,939,920,904,884,766,823,774,606,526,515,512,513,502,486,492,488,492,495,496,494,499,494,500,499,492,494,492,504,498,498,498,497,497,501,498,494,495,491,497,493,0,0,0,0,0,0,0,0,0,0,0,0,0,0,0,0,0,0,0,0,0,0,0,0,0,0,0,0,0,0,0,0,0,0,0,0,0,0,0,0,0,0,0,0,0,0,0,0,0,0,0,0,0,0,0,0,0,0,0,0,0,0,0,0,0,484,485,487,488,498,825,928,1066,1137,1190,1195,1183,1164,1132,1119,1175,1087,1130,1042,1029,1010,992,973,938,920,901,891,922,853,834,791,531,520,508,494,492,492,494,493,504,509,516,505,514,514,512,505,511,518,520,520,524,522,517,524,495,505,520,520,516,503,508,519,499,480,232,233,234,234,235,363,421,470,519,567,582,572,564,554,544,535,526,517,507,499,489,480,470,462,452,442,434,424,415,405,397,387,378,368,240,236,236,237,220,211,212,211,218,217,217,215,215,218,224,219,221,221,221,222,220,218,221,226,240,237,223,219,229,236,229,360,361,363,364,366,589,672,751,830,889,897,883,862,848,835,826,812,798,783,763,754,735,726,706,692,752,668,694,636,626,612,592,470,460,367,366,364,399,360,361,359,360,361,364,387,366,362,364,364,394,364,364,364,366,364,366,401,364,364,364,364,364,365,397,364,233,234,234,249,250,297,412,460,502,557,576,578,569,560,550,535,531,521,512,493,486,476,474,465,455,446,431,427,411,408,326,319,311,303,295,290,245,245,221,214,213,215,221,221,218,221,220,223,223,221,223,223,220,221,218,222,238,223,221,237,224,225,224,220,220,427,425,425,428,433,540,776,874,963,1037,1058,1046,1028,1009,980,979,956,940,919,903,884,864,854,830,822,810,788,774,758,738,598,582,543,482,436,431,446,405,368,365,364,364,370,374,371,375,375,376,376,377,377,378,376,378,375,377,396,379,380,393,380,384,385,383,382,92,92,92,137,140,142,161,180,199,217,232,229,225,220,217,213,210,206,202,199,195,191,187,184,180,177,172,169,165,161,158,154,151,147,144,140,141,141,81,78,76,76,81,83,80,82,83,83,82,82,83,83,83,83,81,83,83,82,83,84,83,86,86,84,83,900,901,903,924,1028,1765,2049,2256,2365,2391,2370,2392,2319,2240,2233,2155,2112,2131,2025,1998,1939,1896,1852,1809,1767,1724,1681,1651,1520,1313,1033,976,948,924,914,916,904,910,952,954,953,961,964,964,989,1017,964,983,980,970,965,984,998,1055,1141,1058,1048,988,992,987,976,975,968,968,964,545,537,548,549,552,693,1003,1145,1267,1333,1346,1309,1299,1280,1258,1236,1215,1191,1172,1149,1128,1107,1085,1064,1041,1025,1005,972,924,725,710,689,583,592,566,553,554,519,467,468,469,472,473,473,475,475,475,476,477,478,479,486,483,481,480,481,483,482,483,485,481,481,481,481,481,606,599,609,611,614,700,1109,1278,1383,1448,1460,1424,1412,1393,1369,1346,1318,1299,1279,1255,1232,1211,1188,1166,1149,1126,1113,1011,1014,860,845,743,642,653,632,616,640,574,523,523,524,527,528,528,530,530,530,531,532,533,534,541,538,536,535,536,538,537,538,540,536,536,536,536,536,724,736,730,733,742,1094,1404,1586,1710,1776,1774,1749,1727,1694,1655,1641,1601,1574,1546,1513,1500,1456,1429,1387,1366,1353,1323,1300,1188,828,954,786,824,764,740,737,750,705,668,665,664,664,670,674,671,675,675,676,676,677,677,678,676,678,675,677,696,679,680,693,680,684,685,683,682,550,552,559,553,563,801,1032,1153,1285,1357,1353,1354,1319,1292,1279,1265,1225,1203,1190,1153,1140,1133,1102,1077,1051,1039,1006,952,941,913,752,734,663,583,562,557,568,567,533,532,530,535,556,560,553,561,560,562,562,563,563,553,555,564,558,550,573,562,554,568,566,570,571,569,567,0,0,0,0,0,0,0,0,0,0,0,0,0,0,0,0,0,0,0,0,0,0,0,0,0,0,0,0,0,0,0,0,0,0,0,0,0,0,0,0,0,0,0,0,0,0,0,0,0,0,0,0,0,0,0,0,0,0,0,0,0,0,0,0,0,360,361,363,364,366,589,672,751,830,889,897,883,862,848,835,826,812,798,783,763,754,735,726,706,692,752,668,694,636,626,612,592,470,460,367,366,364,399,360,361,359,360,361,364,387,366,362,364,364,394,364,364,364,366,364,366,401,364,364,364,364,364,365,397,364,0,0,0,0,0,0,0,0,0,0,0,0,0,0,0,0,0,0,0,0,0,0,0,0,0,0,0,0,0,0,0,0,0,0,0,0,0,0,0,0,0,0,0,0,0,0,0,0,0,0,0,0,0,0,0,0,0,0,0,0,0,0,0,0,0,242,244,244,245,246,260,433,483,533,585,609,600,590,579,570,560,550,541,531,523,512,502,493,482,472,463,453,444,434,424,415,405,264,256,250,247,248,248,188,188,188,188,188,188,188,188,188,188,188,188,188,188,188,188,188,188,188,188,188,188,188,188,188,188,188,169,170,170,171,217,267,302,337,372,406,423,417,410,403,397,390,384,376,369,363,356,350,343,337,330,322,316,309,303,296,290,283,276,270,221,218,218,218,114,114,114,114,114,114,114,114,114,114,114,114,114,114,114,114,114,114,114,114,114,114,114,114,114,114,114,249,250,251,252,252,376,454,507,560,619,637,615,616,606,595,586,565,555,544,535,525,516,505,495,486,475,474,464,445,435,426,415,378,368,256,253,254,255,235,235,235,235,235,235,235,235,235,235,235,235,235,235,235,235,235,235,235,235,235,235,235,235,235,235,235,1190,1154,1177,1225,1349,2146,2741,2925,3004,3016,3027,2958,2863,2820,2813,2699,2661,2640,2590,2521,2477,2382,2341,2316,2233,2121,1824,1696,1388,1328,1300,1252,1204,1207,1172,1185,1178,1203,1142,1142,1142,1142,1142,1142,1142,1142,1142,1142,1142,1142,1142,1142,1142,1142,1142,1142,1142,1142,1142,1142,1142,1142,1142,1142,1142,382,383,385,388,391,447,689,770,866,941,951,938,922,907,891,877,860,845,829,817,802,786,771,757,741,726,709,696,680,664,463,453,426,416,392,389,390,392,302,302,302,302,302,302,302,302,302,302,302,302,302,302,302,302,302,302,302,302,302,302,302,302,302,302,302,444,446,446,450,465,556,791,878,982,1058,1066,1052,1035,1019,1003,987,970,954,937,925,908,891,876,860,843,826,808,794,778,712,598,575,510,479,455,451,464,444,357,357,357,357,357,357,357,357,357,357,357,357,357,357,357,357,357,357,357,357,357,357,357,357,357,357,357,462,450,454,455,482,509,857,948,1033,1065,1095,1078,1083,1045,1028,1030,994,978,955,943,944,938,888,876,882,878,868,807,790,763,686,648,514,471,460,472,459,481,414,414,414,414,414,414,414,414,414,414,414,414,414,414,414,414,414,414,414,414,414,414,414,414,414,414,414,253,255,255,256,256,295,443,492,543,594,626,617,607,598,591,582,572,564,552,542,534,523,512,503,493,481,473,460,453,329,321,314,307,300,262,259,260,260,219,216,220,230,222,222,222,222,222,222,222,222,222,222,222,222,222,222,222,222,222,222,222,222,222,222,222,326,327,328,329,330,524,602,673,730,799,822,798,796,782,757,756,733,709,708,694,681,669,646,642,630,618,613,600,579,574,544,541,528,433,329,326,332,328,317,317,317,317,317,317,317,317,317,317,317,317,317,317,317,317,317,317,317,317,317,317,317,317,317,317,317,0,0,0,0,0,0,0,0,0,0,0,0,0,0,0,0,0,0,0,0,0,0,0,0,0,0,0,0,0,0,0,0,0,0,0,0,0,0,0,0,0,0,0,0,0,0,0,0,0,0,0,0,0,0,0,0,0,0,0,0,0,0,0,0,0 ]);
