n = 10;
D = [245,259,254,282,266,139,265,142,61,187 ];
q = 0;
prec = array2d(1..0,1..2,[]);
steps = 64;
l = 360;
r = 0;
which = [];
interval = array2d(1..0,1..2,[]);
T = array3d(1..11,1..11,0..64,[0,0,0,0,0,0,0,0,0,0,0,0,0,0,0,0,0,0,0,0,0,0,0,0,0,0,0,0,0,0,0,0,0,0,0,0,0,0,0,0,0,0,0,0,0,0,0,0,0,0,0,0,0,0,0,0,0,0,0,0,0,0,0,0,0,905,919,908,928,926,1253,1787,2017,2172,2178,2188,2214,2101,2121,2041,1998,2005,1926,1891,1856,1852,1818,1754,1764,1710,1669,1515,1475,1327,999,1046,1006,947,943,968,907,917,934,905,911,910,911,915,916,915,920,918,920,917,916,921,923,925,926,924,920,919,922,920,921,920,925,923,927,924,905,908,892,898,996,1439,1933,2172,2262,2315,2293,2251,2208,2167,2129,2132,2041,2012,1971,1930,1890,1856,1808,1771,1716,1687,1645,1574,1381,1160,1138,960,935,912,904,904,907,912,870,873,874,879,888,879,892,881,874,873,879,875,891,881,893,882,891,892,884,886,894,885,891,873,880,876,876,112,112,112,112,170,174,194,216,237,258,274,270,266,261,258,253,249,244,241,236,232,228,224,219,216,211,207,202,199,194,190,186,182,177,174,170,170,171,77,74,75,75,78,77,79,75,75,78,80,79,77,78,80,80,78,79,80,81,79,78,78,78,78,76,76,100,100,100,141,142,153,171,189,207,225,240,236,232,229,225,222,218,214,211,207,204,200,196,193,189,186,182,180,176,172,169,165,162,158,154,142,142,142,71,69,71,73,70,73,71,72,71,71,72,71,71,71,71,73,71,72,71,72,71,71,72,72,70,71,71,140,141,141,142,143,147,249,277,305,334,355,349,343,338,332,326,320,315,309,303,298,292,286,282,276,270,264,259,253,247,242,236,153,149,146,143,144,144,89,86,87,88,92,90,91,88,87,91,93,93,93,94,96,94,91,92,93,95,93,91,91,91,90,88,88,955,958,943,978,1091,1634,2088,2331,2412,2458,2444,2395,2350,2306,2272,2292,2253,2162,2116,2104,2067,1981,1930,1887,1884,1836,1749,1716,1461,1260,1099,1030,998,982,972,957,961,966,921,930,924,927,940,932,935,934,937,943,944,944,946,945,947,943,944,939,947,954,948,942,942,942,945,941,941,570,572,540,564,558,691,1046,1180,1299,1322,1374,1350,1326,1308,1284,1264,1244,1177,1200,1180,1158,1137,1116,1091,1068,1008,1025,966,998,917,778,588,573,560,579,545,576,550,505,503,502,508,510,513,512,514,507,510,512,512,510,510,512,512,510,511,512,514,513,512,510,511,509,507,507,647,646,656,655,656,810,1246,1385,1558,1556,1614,1559,1528,1520,1509,1462,1432,1408,1404,1357,1363,1341,1285,1270,1248,1215,1216,1197,1148,1005,785,761,733,660,672,660,676,671,633,628,633,637,635,636,635,640,638,640,637,632,640,643,645,646,644,640,635,642,637,640,632,645,638,647,637,738,754,748,744,755,991,1472,1657,1767,1771,1750,1776,1750,1690,1687,1633,1653,1600,1559,1546,1513,1488,1460,1448,1420,1395,1357,1153,1152,1072,958,802,806,781,773,761,765,749,706,705,704,709,719,716,713,716,711,714,716,716,714,714,716,716,714,715,716,718,717,716,714,715,713,711,711,0,0,0,0,0,0,0,0,0,0,0,0,0,0,0,0,0,0,0,0,0,0,0,0,0,0,0,0,0,0,0,0,0,0,0,0,0,0,0,0,0,0,0,0,0,0,0,0,0,0,0,0,0,0,0,0,0,0,0,0,0,0,0,0,0,764,769,798,772,788,1141,1562,1762,1841,1896,1843,1820,1783,1785,1724,1729,1690,1654,1640,1592,1578,1527,1534,1493,1517,1400,1391,1365,1306,1066,1074,838,837,806,788,787,758,713,731,731,731,732,733,737,736,736,737,735,744,734,738,736,734,737,737,737,737,741,737,737,736,741,737,742,737,0,0,0,0,0,0,0,0,0,0,0,0,0,0,0,0,0,0,0,0,0,0,0,0,0,0,0,0,0,0,0,0,0,0,0,0,0,0,0,0,0,0,0,0,0,0,0,0,0,0,0,0,0,0,0,0,0,0,0,0,0,0,0,0,0,1254,1228,1262,1423,1989,2775,3203,3317,3336,3362,3325,3266,3206,3181,3091,3062,2994,2945,2843,2833,2767,2704,2624,2314,2241,2079,2001,1900,1757,1619,1408,1344,1299,1267,1263,1292,1272,1303,1359,1364,1379,1375,1370,1386,1387,1378,1381,1381,1388,1380,1387,1393,1390,1399,1382,1389,1385,1404,1384,1386,1391,1386,1386,1395,1378,816,819,821,823,848,1233,1705,1863,1956,1959,1939,1921,1924,1895,1827,1889,1856,1767,1705,1676,1671,1610,1617,1582,1596,1486,1470,1470,1359,999,1189,861,860,852,838,828,828,790,806,806,809,809,812,812,811,814,817,814,821,812,818,816,812,816,817,818,816,819,815,815,814,817,813,818,813,746,751,783,754,765,1099,1506,1702,1784,1841,1788,1767,1731,1735,1675,1681,1642,1608,1596,1548,1534,1486,1494,1453,1480,1363,1355,1330,1272,1033,1069,796,802,787,770,768,752,707,724,724,724,725,726,730,729,729,730,728,737,727,731,730,728,730,730,730,730,734,730,730,729,734,730,735,731,839,840,850,851,876,1297,1786,1926,2014,2020,2005,1994,1922,1966,1858,1892,1873,1831,1755,1725,1719,1657,1642,1618,1620,1528,1519,1444,1384,1024,1116,923,883,874,861,851,842,802,818,819,823,822,824,825,823,827,830,828,837,828,834,830,825,829,830,832,830,832,828,828,826,829,825,830,825,1251,1254,1277,1396,2133,2930,3367,3464,3480,3507,3466,3408,3347,3316,3220,3239,3126,3081,2988,2956,2888,2833,2750,2490,2349,2135,2062,1874,1730,1654,1428,1348,1337,1287,1267,1261,1308,1333,1377,1378,1388,1410,1394,1397,1406,1391,1396,1422,1410,1415,1439,1445,1451,1412,1447,1443,1383,1414,1399,1387,1403,1451,1396,1451,1388,1089,1062,1102,1131,1149,1863,2302,2554,2502,2529,2512,2471,2480,2420,2352,2347,2299,2267,2182,2190,2144,2149,2079,1987,2030,1903,1896,1648,1346,1214,1232,1113,1162,1083,1064,1074,1047,1038,1064,1049,1056,1056,1045,1060,1061,1060,1069,1061,1073,1059,1077,1073,1072,1073,1065,1071,1068,1079,1067,1074,1072,1088,1066,1067,1062,280,294,295,296,269,284,481,570,590,642,655,645,634,656,614,636,624,615,574,564,583,543,534,523,572,502,517,508,472,462,503,294,288,292,274,309,281,272,258,258,259,258,259,263,262,262,263,261,270,260,264,263,261,267,263,263,263,267,263,263,262,267,263,268,264,1465,1444,1490,1588,1901,2731,3226,3371,3370,3380,3336,3289,3254,3233,3133,3111,3069,3030,2959,2608,2248,1888,1894,1794,1833,1780,1806,1703,1676,1584,1597,1529,1506,1492,1477,1459,1427,1409,1407,1410,1410,1407,1409,1413,1412,1414,1415,1414,1443,1433,1437,1420,1415,1417,1414,1416,1413,1416,1414,1413,1411,1419,1412,1417,1413,764,769,798,772,788,1141,1562,1762,1841,1896,1843,1820,1783,1785,1724,1729,1690,1654,1640,1592,1578,1527,1534,1493,1517,1400,1391,1365,1306,1066,1074,838,837,806,788,787,758,713,731,731,731,732,733,737,736,736,737,735,744,734,738,736,734,737,737,737,737,741,737,737,736,741,737,742,737,937,939,941,972,1124,1808,2148,2331,2382,2475,2398,2363,2321,2278,2236,2193,2151,2107,2123,2022,2030,1990,1905,1905,1818,1776,1703,1609,1444,1225,1071,1016,996,967,976,952,904,911,907,903,908,916,920,918,917,911,922,922,926,928,924,929,931,937,929,929,921,921,920,923,921,925,917,926,912,1283,1329,1330,1351,1823,2798,2986,3227,3263,3265,3265,3177,3204,3085,3096,2987,2902,2865,2872,2716,2536,2550,2343,2355,2256,1958,1836,1531,1539,1474,1426,1416,1372,1320,1342,1322,1337,1347,1328,1320,1309,1314,1337,1339,1337,1342,1343,1340,1343,1338,1339,1340,1337,1342,1337,1339,1338,1341,1336,1337,1338,1338,1336,1336,1336,0,0,0,0,0,0,0,0,0,0,0,0,0,0,0,0,0,0,0,0,0,0,0,0,0,0,0,0,0,0,0,0,0,0,0,0,0,0,0,0,0,0,0,0,0,0,0,0,0,0,0,0,0,0,0,0,0,0,0,0,0,0,0,0,0,852,854,856,882,1016,1605,1927,2114,2166,2271,2197,2162,2124,2086,2043,2008,1969,1930,1939,1850,1862,1822,1740,1749,1662,1623,1598,1542,1398,1180,1098,928,910,880,889,865,867,874,870,866,871,876,883,881,880,874,884,885,889,891,887,885,888,900,892,892,884,884,883,886,884,888,880,889,875,918,921,922,952,1072,1755,2091,2274,2326,2422,2345,2311,2270,2229,2188,2146,2106,2063,2080,1980,1989,1950,1865,1868,1780,1740,1712,1584,1427,1283,1051,996,976,948,956,932,898,905,901,897,902,910,914,912,911,905,916,916,920,922,918,923,925,931,923,923,915,915,914,917,915,919,911,920,906,791,793,795,821,900,1476,1785,1974,2031,2134,2063,2030,1993,1957,1919,1882,1846,1809,1829,1735,1748,1708,1628,1637,1554,1517,1495,1427,1295,1068,1001,865,848,820,828,804,815,822,818,814,819,827,831,829,828,822,833,833,837,839,835,840,840,848,840,840,832,832,831,834,832,836,828,837,823,253,254,255,256,256,333,454,506,556,606,621,612,602,663,583,654,564,554,544,535,525,588,506,496,487,477,468,458,448,439,429,420,410,358,349,257,351,352,248,248,248,251,252,256,255,260,257,254,257,252,248,248,249,255,251,251,252,249,248,248,248,251,246,254,249,534,536,536,538,549,881,1066,1210,1336,1400,1399,1375,1350,1326,1302,1276,1254,1229,1205,1182,1155,1130,1106,1082,1057,1032,1021,988,960,907,677,658,661,591,544,538,552,545,529,534,537,531,533,529,533,534,534,531,530,531,535,536,535,536,538,535,538,536,540,572,550,557,539,537,536,1077,1080,1111,1089,1227,2091,2410,2591,2683,2726,2696,2649,2681,2557,2588,2495,2418,2384,2393,2278,2242,2198,2146,2092,2047,1850,1780,1602,1556,1209,1179,1148,1127,1109,1084,1093,1095,1099,1091,1091,1102,1102,1109,1100,1114,1126,1107,1104,1110,1107,1109,1110,1110,1112,1123,1113,1126,1119,1123,1130,1120,1133,1124,1132,1121,517,515,516,518,531,703,981,1092,1191,1242,1246,1226,1269,1188,1168,1225,1130,1111,1092,1135,1053,1033,1014,994,975,1012,937,964,951,812,725,710,547,534,524,520,526,528,522,528,524,537,540,535,538,574,531,543,540,540,535,555,544,540,540,536,544,543,539,546,537,542,536,541,538,937,939,941,972,1124,1808,2148,2331,2382,2475,2398,2363,2321,2278,2236,2193,2151,2107,2123,2022,2030,1990,1905,1905,1818,1776,1703,1609,1444,1225,1071,1016,996,967,976,952,904,911,907,903,908,916,920,918,917,911,922,922,926,928,924,929,931,937,929,929,921,921,920,923,921,925,917,926,912,145,145,146,146,170,173,256,286,315,345,367,361,355,349,343,337,331,325,320,314,308,302,296,290,284,278,272,266,261,255,249,243,183,179,175,170,170,171,65,65,65,65,65,65,65,65,65,65,65,65,65,65,65,65,65,65,65,65,65,65,65,65,65,65,65,866,882,888,901,900,1206,1783,1958,2081,2094,2120,2116,2041,1998,2010,1991,1963,1877,1833,1782,1768,1710,1679,1699,1620,1580,1564,1392,1327,976,982,962,904,915,894,874,901,896,867,867,867,867,867,867,867,867,867,867,867,867,867,867,867,867,867,867,867,867,867,867,867,867,867,867,867,859,861,864,866,923,1385,1853,2083,2200,2236,2233,2193,2162,2123,2093,2055,2011,1965,1922,1889,1842,1807,1755,1717,1687,1637,1597,1562,1381,1139,984,948,905,900,886,887,890,894,807,807,807,807,807,807,807,807,807,807,807,807,807,807,807,807,807,807,807,807,807,807,807,807,807,807,807,0,0,0,0,0,0,0,0,0,0,0,0,0,0,0,0,0,0,0,0,0,0,0,0,0,0,0,0,0,0,0,0,0,0,0,0,0,0,0,0,0,0,0,0,0,0,0,0,0,0,0,0,0,0,0,0,0,0,0,0,0,0,0,0,0,127,127,139,139,192,196,220,244,268,291,308,303,298,294,289,284,279,276,271,266,261,256,252,247,243,238,234,229,224,219,214,211,206,201,196,193,193,194,59,59,59,59,59,59,59,59,59,59,59,59,59,59,59,59,59,59,59,59,59,59,59,59,59,59,59,96,96,108,131,145,148,168,188,206,226,241,237,234,230,225,222,218,214,211,207,202,199,195,192,188,183,180,176,172,169,164,160,157,153,150,146,146,146,26,26,26,26,26,26,26,26,26,26,26,26,26,26,26,26,26,26,26,26,26,26,26,26,26,26,26,909,911,932,946,999,1580,2008,2242,2352,2379,2391,2337,2304,2264,2232,2191,2166,2117,2053,2029,1975,1932,1877,1839,1809,1772,1723,1674,1461,1315,1106,1022,974,950,939,956,944,948,858,858,858,858,858,858,858,858,858,858,858,858,858,858,858,858,858,858,858,858,858,858,858,858,858,858,858,524,525,527,528,553,673,966,1091,1191,1277,1290,1270,1252,1232,1209,1190,1170,1149,1127,1107,1086,1066,1044,1024,1003,983,961,942,920,850,588,574,568,547,536,533,534,523,442,442,442,442,442,442,442,442,442,442,442,442,442,442,442,442,442,442,442,442,442,442,442,442,442,442,442,630,630,634,628,630,763,1196,1357,1442,1516,1515,1506,1431,1456,1436,1392,1391,1361,1340,1284,1279,1232,1210,1220,1184,1127,1129,1112,1070,1005,808,757,663,633,643,634,639,622,595,595,595,595,595,595,595,595,595,595,595,595,595,595,595,595,595,595,595,595,595,595,595,595,595,595,595,724,734,728,731,742,922,1392,1557,1668,1721,1730,1717,1688,1686,1629,1630,1588,1546,1536,1515,1483,1459,1439,1396,1370,1350,1328,1153,1082,1001,821,870,771,773,747,745,753,736,643,643,643,643,643,643,643,643,643,643,643,643,643,643,643,643,643,643,643,643,643,643,643,643,643,643,643,145,145,146,146,170,173,256,286,315,345,367,361,355,349,343,337,331,325,320,314,308,302,296,290,284,278,272,266,261,255,249,243,183,179,175,170,170,171,65,65,65,65,65,65,65,65,65,65,65,65,65,65,65,65,65,65,65,65,65,65,65,65,65,65,65,30,46,46,46,46,46,52,60,66,72,78,76,75,74,73,72,70,69,68,67,66,64,63,62,61,60,58,56,55,54,52,51,50,49,48,46,46,46,6,6,7,7,7,7,7,7,7,7,7,7,7,7,7,6,6,7,7,7,7,7,7,7,7,7,7,924,948,945,960,958,1465,1839,2078,2222,2250,2266,2278,2173,2195,2114,2070,2030,1995,1958,1923,1866,1808,1800,1811,1742,1699,1569,1525,1336,1053,1044,1020,970,973,1014,939,960,980,911,917,917,918,922,923,922,927,925,927,924,923,928,930,932,932,930,925,925,925,925,925,925,925,925,925,925,919,921,924,930,1028,1502,1985,2232,2333,2387,2368,2325,2282,2239,2200,2153,2111,2067,2023,1995,1950,1908,1869,1824,1777,1740,1698,1630,1381,1214,1164,992,985,944,936,935,939,958,876,879,881,886,895,886,899,888,881,880,886,882,898,888,900,888,897,897,897,897,897,897,897,897,897,897,897,142,144,144,144,144,220,246,276,303,330,352,346,341,335,331,325,319,313,309,303,298,292,287,281,277,271,265,258,254,248,242,237,232,226,222,145,145,146,83,80,82,82,85,84,86,82,82,85,87,86,84,85,87,86,84,84,84,84,84,84,84,84,84,84,84,0,0,0,0,0,0,0,0,0,0,0,0,0,0,0,0,0,0,0,0,0,0,0,0,0,0,0,0,0,0,0,0,0,0,0,0,0,0,0,0,0,0,0,0,0,0,0,0,0,0,0,0,0,0,0,0,0,0,0,0,0,0,0,0,0,170,172,173,173,189,193,301,337,371,406,433,425,418,411,405,398,390,384,377,370,363,356,349,343,336,330,322,315,308,301,294,287,203,198,194,189,190,190,95,92,94,95,99,97,98,95,94,98,100,100,100,101,103,100,97,97,97,97,97,97,97,97,97,97,97,969,972,976,1010,1161,1697,2140,2391,2483,2530,2516,2469,2424,2378,2345,2319,2272,2231,2184,2171,2084,2032,1993,1944,1926,1856,1807,1771,1461,1165,1132,1061,1036,1014,1004,1003,993,1012,927,936,931,934,947,939,942,941,944,950,951,951,953,952,954,949,950,944,944,944,944,944,944,944,944,944,944,598,592,586,574,604,771,1116,1240,1380,1394,1399,1422,1400,1376,1310,1333,1310,1246,1265,1240,1220,1196,1132,1153,1088,1068,1081,1020,998,933,830,639,606,592,580,577,608,583,511,509,509,515,517,520,519,521,514,517,519,519,517,517,519,518,516,516,516,516,516,516,516,516,516,516,516,677,677,680,687,688,869,1298,1483,1624,1628,1692,1628,1591,1566,1542,1513,1502,1477,1471,1424,1396,1347,1332,1317,1306,1247,1268,1210,1208,1005,837,805,714,709,720,679,698,715,639,634,640,644,642,643,642,647,645,647,644,639,647,650,652,652,650,645,645,645,645,645,645,645,645,645,645,768,785,792,779,787,953,1524,1717,1804,1837,1832,1839,1786,1764,1760,1705,1723,1641,1620,1588,1577,1552,1523,1484,1462,1453,1388,1174,1150,1072,958,834,825,830,778,785,786,781,712,711,711,716,726,723,720,723,718,721,723,723,721,721,723,722,720,720,720,720,720,720,720,720,720,720,720,30,46,46,46,46,46,52,60,66,72,78,76,75,74,73,72,70,69,68,67,66,64,63,62,61,60,58,56,55,54,52,51,50,49,48,46,46,46,6,6,7,7,7,7,7,7,7,7,7,7,7,7,7,6,6,7,7,7,7,7,7,7,7,7,7,152,152,153,153,154,159,268,300,331,363,384,378,372,366,360,354,346,340,334,328,322,316,310,304,297,291,285,279,273,267,261,169,165,161,157,154,155,155,89,89,89,88,88,90,89,90,89,102,90,90,90,90,90,89,92,90,88,92,88,90,88,88,90,89,89,872,876,894,908,907,1384,1792,1970,2077,2122,2156,2152,2017,2014,2065,2018,1911,1896,1848,1829,1795,1747,1726,1659,1642,1600,1576,1480,1327,1081,984,920,935,942,907,887,908,892,886,892,883,878,886,899,891,902,896,900,900,896,896,899,900,895,900,901,903,902,901,897,899,902,900,901,901,796,790,802,797,828,1292,1685,1881,2034,2051,2036,2012,1979,1941,1895,1868,1825,1786,1747,1714,1679,1656,1601,1569,1538,1503,1462,1416,1381,1196,1044,864,853,816,808,803,805,809,787,789,792,797,803,796,804,796,794,793,791,793,791,801,800,800,799,808,802,799,801,803,801,792,790,799,797,68,68,68,68,103,104,116,128,140,152,163,160,158,156,153,151,148,146,144,141,139,136,134,132,129,127,124,122,120,117,115,112,110,108,105,103,103,103,52,52,52,52,52,55,52,52,52,52,52,52,52,52,52,51,52,52,52,52,52,52,52,52,52,52,52,133,134,134,135,135,208,233,259,283,309,325,320,315,310,306,301,296,290,285,280,276,271,266,261,256,252,247,242,236,231,226,222,217,212,207,204,204,205,83,83,83,82,82,84,83,84,83,96,84,84,84,84,84,83,86,84,82,86,82,84,82,82,84,83,83,0,0,0,0,0,0,0,0,0,0,0,0,0,0,0,0,0,0,0,0,0,0,0,0,0,0,0,0,0,0,0,0,0,0,0,0,0,0,0,0,0,0,0,0,0,0,0,0,0,0,0,0,0,0,0,0,0,0,0,0,0,0,0,0,0,851,841,864,864,904,1487,1840,2037,2186,2201,2184,2155,2121,2083,2034,2005,1963,1939,1878,1863,1822,1778,1731,1708,1688,1621,1578,1579,1461,1315,1085,918,927,888,859,872,859,863,841,843,846,845,853,849,847,849,847,860,861,860,860,865,864,861,860,858,856,863,865,860,858,861,859,864,862,458,459,460,461,480,584,840,949,1047,1122,1128,1109,1096,1078,1052,1038,1022,999,987,969,953,938,916,899,881,866,849,823,809,788,638,578,564,478,468,474,465,455,425,425,423,426,429,432,429,436,428,429,428,428,428,429,429,429,429,429,428,428,429,429,428,428,428,429,428,620,639,621,635,637,877,1203,1358,1488,1544,1547,1525,1448,1472,1453,1424,1401,1378,1356,1330,1306,1276,1257,1209,1190,1147,1152,1117,1110,1005,819,777,760,660,651,641,643,629,614,602,608,610,605,614,610,613,612,609,613,602,606,607,608,608,610,612,610,609,610,611,607,616,607,612,608,656,668,685,668,676,843,1251,1383,1502,1573,1602,1564,1570,1546,1492,1484,1465,1449,1403,1385,1377,1343,1313,1291,1264,1258,1218,1153,970,949,907,791,724,712,672,677,672,672,624,627,625,630,637,635,630,638,632,633,632,632,632,633,633,633,633,633,632,632,633,633,632,632,632,633,632,152,152,153,153,154,159,268,300,331,363,384,378,372,366,360,354,346,340,334,328,322,316,310,304,297,291,285,279,273,267,261,169,165,161,157,154,155,155,89,89,89,88,88,90,89,90,89,102,90,90,90,90,90,89,92,90,88,92,88,90,88,88,90,89,89,1080,1084,1110,1118,1362,2013,2413,2613,2729,2749,2775,2682,2633,2587,2597,2543,2441,2395,2345,2345,2260,2262,2164,2116,2068,2063,1949,1710,1480,1355,1250,1160,1132,1111,1099,1086,1032,1038,1042,1039,1054,1063,1051,1062,1052,1065,1052,1070,1074,1053,1056,1061,1068,1077,1076,1064,1066,1062,1066,1071,1067,1071,1051,1069,1057,1262,1314,1316,1465,2121,2947,3353,3492,3576,3612,3543,3504,3531,3393,3372,3247,3196,3127,3076,2940,2910,2727,2493,2133,2088,1958,1935,1819,1590,1524,1472,1434,1371,1341,1302,1295,1323,1337,1354,1344,1337,1344,1364,1366,1364,1366,1367,1366,1376,1386,1382,1369,1368,1372,1364,1368,1364,1369,1363,1362,1365,1365,1363,1367,1363,236,236,237,238,239,331,427,477,526,576,592,583,573,564,554,546,536,526,517,507,498,488,478,469,459,451,441,432,422,412,403,393,384,339,330,240,325,326,235,236,236,236,240,236,237,243,234,239,236,235,237,257,240,240,240,237,236,236,270,258,236,237,236,237,236,995,999,1025,1033,1210,1723,2192,2403,2519,2548,2578,2484,2440,2396,2412,2361,2264,2220,2173,2177,2094,2100,2004,1960,1915,1917,1827,1620,1512,1289,1230,1073,1045,1024,1007,1012,995,1001,1005,1002,1010,1017,1014,1015,1015,1019,1015,1026,1028,1016,1019,1024,1031,1037,1037,1027,1029,1025,1029,1034,1023,1034,1014,1028,1020,1062,1065,1091,1103,1311,1959,2354,2559,2674,2696,2725,2632,2584,2539,2550,2497,2397,2352,2303,2304,2220,2223,2126,2079,2032,2031,1938,1677,1530,1395,1201,1140,1112,1092,1079,1080,1026,1032,1036,1033,1048,1057,1045,1056,1046,1059,1046,1064,1068,1047,1050,1055,1062,1071,1070,1058,1060,1056,1060,1065,1061,1065,1045,1063,1051,934,938,963,959,1158,1682,2047,2262,2382,2414,2446,2353,2312,2270,2286,2237,2143,2101,2058,2063,1977,1981,1894,1852,1808,1813,1725,1595,1400,1190,1160,1012,984,963,951,950,943,949,953,950,965,973,962,973,963,976,963,981,984,964,967,972,979,987,987,975,977,973,977,982,978,982,962,980,968,0,0,0,0,0,0,0,0,0,0,0,0,0,0,0,0,0,0,0,0,0,0,0,0,0,0,0,0,0,0,0,0,0,0,0,0,0,0,0,0,0,0,0,0,0,0,0,0,0,0,0,0,0,0,0,0,0,0,0,0,0,0,0,0,0,678,679,680,684,719,950,1384,1567,1701,1743,1740,1710,1680,1651,1620,1590,1560,1530,1501,1471,1439,1409,1381,1351,1321,1291,1262,1232,1172,1089,931,779,721,702,689,691,691,671,668,668,670,672,665,673,673,673,680,687,678,683,684,686,684,695,690,689,682,677,683,686,682,680,686,688,686,1212,1225,1227,1334,1467,2455,2722,2932,3027,3045,3018,2967,2984,2876,2877,2760,2708,2656,2698,2558,2510,2455,2463,2289,2098,1850,1755,1518,1617,1359,1348,1291,1277,1242,1249,1241,1235,1240,1238,1261,1247,1258,1258,1259,1258,1261,1261,1257,1268,1256,1261,1260,1272,1286,1280,1271,1283,1267,1283,1275,1268,1273,1268,1276,1268,625,628,629,660,656,790,1238,1383,1490,1606,1555,1601,1491,1467,1442,1418,1393,1399,1344,1320,1294,1291,1245,1240,1196,1171,1156,1122,1107,1010,976,859,665,649,644,635,636,638,634,636,639,656,654,657,654,640,644,656,645,649,645,648,655,688,650,649,656,653,653,648,652,648,645,656,644,1080,1084,1110,1118,1362,2013,2413,2613,2729,2749,2775,2682,2633,2587,2597,2543,2441,2395,2345,2345,2260,2262,2164,2116,2068,2063,1949,1710,1480,1355,1250,1160,1132,1111,1099,1086,1032,1038,1042,1039,1054,1063,1051,1062,1052,1065,1052,1070,1074,1053,1056,1061,1068,1077,1076,1064,1066,1062,1066,1071,1067,1071,1051,1069,1057,514,516,516,518,520,695,982,1096,1203,1265,1273,1252,1235,1212,1191,1171,1150,1130,1110,1089,1069,1048,1031,1008,990,968,948,927,907,885,711,605,579,536,525,522,531,465,422,419,429,430,441,447,433,445,445,447,441,440,442,438,439,453,439,433,441,447,433,435,435,435,435,435,435,1163,1176,1158,1176,1388,1935,2453,2620,2738,2817,2767,2676,2710,2638,2584,2494,2457,2428,2360,2313,2271,2164,2241,2149,1989,1728,1716,1619,1496,1286,1261,1207,1192,1190,1144,1169,1162,1179,1168,1154,1159,1174,1173,1160,1173,1175,1173,1176,1170,1173,1171,1174,1176,1182,1178,1178,1177,1176,1177,1177,1177,1177,1177,1177,1177,548,549,551,553,571,875,1133,1296,1434,1493,1492,1465,1428,1406,1384,1354,1330,1301,1273,1243,1209,1189,1162,1134,1100,1070,1044,1022,988,957,930,788,714,595,562,559,564,565,524,526,531,538,538,542,545,542,535,539,543,544,545,545,545,545,537,538,544,540,541,541,541,541,541,541,541,429,431,431,433,439,543,799,891,980,1045,1058,1042,1027,997,993,976,960,943,925,909,892,876,848,842,824,807,792,766,757,741,641,608,557,444,439,436,432,428,385,382,392,394,388,408,392,408,401,394,404,397,398,400,399,414,394,395,395,403,394,390,390,390,390,390,390,495,497,498,499,501,660,935,1041,1143,1207,1216,1197,1181,1159,1140,1120,1101,1082,1064,1045,1026,1006,988,968,950,930,910,891,872,853,750,574,530,517,506,503,512,459,416,413,423,424,435,441,427,439,439,441,435,434,436,432,433,447,433,427,435,441,427,429,429,429,429,429,429,368,370,370,372,373,427,680,759,837,904,919,903,890,874,860,846,830,816,801,787,771,757,742,728,714,698,684,668,654,639,542,508,497,387,378,374,378,376,333,330,340,342,357,356,343,356,349,358,352,350,354,349,350,369,346,345,351,357,344,346,346,346,346,346,346,598,600,618,613,641,990,1295,1452,1595,1645,1645,1612,1575,1545,1522,1492,1470,1436,1407,1380,1339,1334,1317,1263,1234,1197,1161,1130,1104,1083,1022,669,657,662,629,625,615,624,587,590,587,593,600,603,607,600,594,603,605,605,603,598,600,607,605,601,604,599,599,601,601,601,601,601,601,0,0,0,0,0,0,0,0,0,0,0,0,0,0,0,0,0,0,0,0,0,0,0,0,0,0,0,0,0,0,0,0,0,0,0,0,0,0,0,0,0,0,0,0,0,0,0,0,0,0,0,0,0,0,0,0,0,0,0,0,0,0,0,0,0,905,904,901,906,990,1424,1855,2015,2117,2161,2132,2132,2080,2064,2013,1977,1960,1930,1881,1822,1793,1774,1744,1711,1667,1626,1627,1418,1305,1033,968,967,953,915,904,914,900,907,881,879,889,894,894,879,893,896,891,892,885,888,891,894,902,894,898,891,888,889,897,905,905,905,901,905,905,468,460,460,462,469,636,854,946,1041,1087,1088,1076,1065,1057,1039,1017,996,979,962,946,930,913,897,897,864,848,831,814,793,705,683,646,602,560,468,464,466,467,461,456,451,458,461,461,458,461,461,461,460,461,456,461,461,452,461,461,461,461,460,461,461,461,461,461,461,514,516,516,518,520,695,982,1096,1203,1265,1273,1252,1235,1212,1191,1171,1150,1130,1110,1089,1069,1048,1031,1008,990,968,948,927,907,885,711,605,579,536,525,522,531,465,422,419,429,430,441,447,433,445,445,447,441,440,442,438,439,453,439,433,441,447,433,435,435,435,435,435,435,599,560,564,566,585,1010,1160,1276,1334,1461,1426,1435,1342,1310,1293,1275,1296,1296,1209,1182,1228,1142,1116,1098,1084,1053,1088,1044,1035,1008,833,882,624,584,573,607,567,521,527,521,521,524,533,531,546,538,530,535,534,535,538,530,529,545,538,535,535,535,527,536,544,537,536,539,528,353,375,372,377,382,422,702,783,865,813,825,812,904,836,874,759,844,830,766,794,694,681,756,741,726,711,692,676,662,652,633,559,458,531,416,382,337,339,368,373,369,376,378,377,376,381,369,377,374,374,371,380,380,378,376,376,377,374,383,383,373,378,371,376,374,1154,1160,1164,1203,1665,2147,2675,2839,2908,2906,2895,2847,2791,2748,2695,2638,2587,2540,2486,2423,2389,2358,2307,2258,2111,2072,1805,1688,1490,1308,1283,1236,1207,1190,1176,1178,1184,1172,1167,1170,1177,1180,1200,1196,1226,1201,1191,1214,1207,1205,1209,1197,1199,1219,1202,1199,1214,1218,1216,1210,1214,1237,1205,1221,1204,611,608,615,642,641,1092,1236,1409,1435,1531,1500,1508,1512,1426,1402,1378,1354,1362,1308,1273,1288,1288,1213,1179,1165,1189,1161,1118,1094,1070,930,754,727,634,623,635,616,598,601,596,596,602,610,610,621,613,608,615,613,612,616,610,609,623,617,615,616,614,605,614,622,615,612,615,604,575,542,546,548,563,968,1113,1218,1275,1404,1370,1380,1288,1257,1242,1226,1246,1249,1162,1137,1185,1100,1074,1058,1046,1016,1052,1008,986,965,801,851,579,565,554,583,548,515,521,514,514,517,526,524,540,532,523,528,527,529,531,523,523,539,531,528,529,529,520,529,537,531,529,533,522,637,635,644,641,657,1138,1282,1441,1506,1589,1560,1564,1507,1490,1465,1448,1414,1414,1372,1336,1336,1312,1268,1237,1218,1209,1184,1157,1084,1028,935,802,680,664,652,656,647,610,613,608,609,616,623,622,634,625,621,628,627,628,632,626,623,636,630,628,630,628,618,627,635,627,624,627,616,1205,1229,1225,1291,1802,2381,2824,2986,3054,3050,3040,2988,2933,2884,2830,2775,2750,2668,2622,2592,2512,2479,2428,2377,2315,1989,1868,1733,1413,1379,1351,1305,1276,1265,1244,1236,1241,1234,1217,1207,1208,1241,1252,1253,1268,1255,1248,1259,1262,1260,1266,1249,1261,1305,1272,1253,1271,1253,1243,1264,1259,1303,1252,1264,1251,846,856,868,884,978,1516,1785,2042,2037,2072,2139,2030,2139,1972,1939,2033,1869,1839,1807,1773,1739,1707,1669,1635,1607,1573,1540,1511,1288,1110,1110,911,897,912,912,867,839,872,854,853,857,869,860,870,855,862,890,862,861,858,859,869,858,859,867,866,862,868,858,872,868,935,874,906,870,0,0,0,0,0,0,0,0,0,0,0,0,0,0,0,0,0,0,0,0,0,0,0,0,0,0,0,0,0,0,0,0,0,0,0,0,0,0,0,0,0,0,0,0,0,0,0,0,0,0,0,0,0,0,0,0,0,0,0,0,0,0,0,0,0,1232,1246,1251,1282,1606,2414,2699,2872,2899,2952,2929,2860,2818,2783,2745,2706,2630,2625,2575,2536,2480,2441,2390,2332,2165,1971,1756,1586,1416,1475,1378,1347,1309,1272,1260,1269,1229,1222,1211,1219,1230,1234,1228,1216,1231,1240,1236,1232,1250,1249,1247,1243,1245,1240,1246,1241,1232,1230,1230,1231,1226,1241,1228,1224,1216,599,560,564,566,585,1010,1160,1276,1334,1461,1426,1435,1342,1310,1293,1275,1296,1296,1209,1182,1228,1142,1116,1098,1084,1053,1088,1044,1035,1008,833,882,624,584,573,607,567,521,527,521,521,524,533,531,546,538,530,535,534,535,538,530,529,545,538,535,535,535,527,536,544,537,536,539,528,863,871,869,863,982,1134,1664,1896,2008,2012,2040,2000,1994,1960,1905,1893,1850,1794,1792,1759,1695,1651,1624,1585,1568,1549,1290,1267,1194,1041,988,950,892,857,886,883,798,774,772,767,777,777,779,771,776,777,780,783,778,777,780,785,783,786,787,781,780,780,783,775,781,781,776,777,775,1549,1567,1585,1711,2371,2853,3352,3584,3588,3631,3567,3492,3511,3434,3343,3309,3248,3144,2944,2584,2267,2138,1940,1932,1930,1893,1816,1740,1706,1707,1642,1647,1577,1551,1554,1554,1564,1570,1557,1550,1565,1571,1571,1571,1575,1574,1569,1574,1574,1567,1573,1575,1577,1579,1577,1577,1573,1576,1578,1574,1580,1580,1578,1580,1578,574,576,577,579,597,949,1122,1225,1326,1378,1376,1354,1333,1311,1291,1269,1248,1274,1224,1184,1215,1194,1120,1116,1094,1057,1035,1029,993,972,939,869,605,591,596,674,596,579,564,561,564,570,572,571,573,570,573,580,575,576,581,600,604,645,610,588,582,611,586,581,590,587,587,649,585,737,745,742,735,844,939,1374,1579,1696,1706,1751,1703,1703,1674,1623,1618,1581,1521,1534,1503,1440,1408,1381,1353,1334,1326,1209,1188,1073,945,805,788,761,732,764,754,733,709,708,701,710,710,714,708,709,714,713,716,713,712,716,719,716,719,720,718,721,717,717,716,714,719,715,717,715,844,853,851,844,961,1074,1610,1837,1952,1956,1986,1947,1943,1910,1856,1846,1805,1749,1748,1716,1652,1611,1584,1547,1531,1513,1236,1215,1143,1008,1005,930,873,838,867,872,792,768,766,761,771,771,773,765,770,771,774,777,772,771,774,779,777,780,781,775,774,774,777,769,775,775,770,771,769,723,736,728,726,798,929,1358,1546,1680,1690,1716,1688,1688,1658,1609,1604,1565,1508,1541,1488,1424,1393,1365,1338,1320,1312,1262,1182,1064,936,962,810,738,718,750,745,724,693,692,685,694,694,699,691,696,697,698,701,696,698,702,704,701,703,705,700,698,700,705,695,699,703,699,701,699,767,768,776,781,832,1334,1588,1688,1808,1851,1833,1768,1762,1759,1722,1694,1676,1694,1628,1591,1568,1559,1506,1494,1463,1422,1393,1377,1321,1111,1053,927,821,801,809,837,790,767,762,769,771,782,798,782,780,791,776,784,777,778,774,789,791,806,803,813,806,790,794,782,775,771,790,781,771,629,607,608,608,625,865,1159,1280,1374,1411,1457,1392,1372,1351,1329,1309,1288,1267,1246,1262,1241,1185,1164,1142,1153,1100,1080,1058,1038,1014,791,722,707,622,679,611,616,618,613,615,612,613,620,622,618,625,626,627,617,623,615,624,623,616,626,627,621,620,619,624,632,632,628,632,631,1308,1311,1316,1371,1868,2255,2748,2921,3023,3021,3009,2974,2938,2919,2837,2811,2761,2667,2673,2602,2526,2394,2221,2239,1974,1840,1630,1462,1434,1458,1402,1391,1321,1305,1324,1323,1305,1291,1281,1282,1284,1291,1298,1291,1294,1297,1289,1293,1293,1287,1293,1295,1292,1301,1297,1294,1293,1296,1298,1294,1294,1294,1292,1294,1292,0,0,0,0,0,0,0,0,0,0,0,0,0,0,0,0,0,0,0,0,0,0,0,0,0,0,0,0,0,0,0,0,0,0,0,0,0,0,0,0,0,0,0,0,0,0,0,0,0,0,0,0,0,0,0,0,0,0,0,0,0,0,0,0,0,863,871,869,863,982,1134,1664,1896,2008,2012,2040,2000,1994,1960,1905,1893,1850,1794,1792,1759,1695,1651,1624,1585,1568,1549,1290,1267,1194,1041,988,950,892,857,886,883,798,774,772,767,777,777,779,771,776,777,780,783,778,777,780,785,783,786,787,781,780,780,783,775,781,781,776,777,775,0,0,0,0,0,0,0,0,0,0,0,0,0,0,0,0,0,0,0,0,0,0,0,0,0,0,0,0,0,0,0,0,0,0,0,0,0,0,0,0,0,0,0,0,0,0,0,0,0,0,0,0,0,0,0,0,0,0,0,0,0,0,0,0,0,905,919,908,928,926,1253,1787,2017,2172,2178,2188,2214,2101,2121,2041,1998,2005,1926,1891,1856,1852,1818,1754,1764,1710,1669,1515,1475,1327,999,1046,1006,947,943,968,907,917,934,905,911,910,911,915,916,915,920,918,920,917,916,921,923,925,926,924,920,919,922,920,921,920,925,923,927,924,905,908,892,898,996,1439,1933,2172,2262,2315,2293,2251,2208,2167,2129,2132,2041,2012,1971,1930,1890,1856,1808,1771,1716,1687,1645,1574,1381,1160,1138,960,935,912,904,904,907,912,870,873,874,879,888,879,892,881,874,873,879,875,891,881,893,882,891,892,884,886,894,885,891,873,880,876,876,112,112,112,112,170,174,194,216,237,258,274,270,266,261,258,253,249,244,241,236,232,228,224,219,216,211,207,202,199,194,190,186,182,177,174,170,170,171,77,74,75,75,78,77,79,75,75,78,80,79,77,78,80,80,78,79,80,81,79,78,78,78,78,76,76,100,100,100,141,142,153,171,189,207,225,240,236,232,229,225,222,218,214,211,207,204,200,196,193,189,186,182,180,176,172,169,165,162,158,154,142,142,142,71,69,71,73,70,73,71,72,71,71,72,71,71,71,71,73,71,72,71,72,71,71,72,72,70,71,71,140,141,141,142,143,147,249,277,305,334,355,349,343,338,332,326,320,315,309,303,298,292,286,282,276,270,264,259,253,247,242,236,153,149,146,143,144,144,89,86,87,88,92,90,91,88,87,91,93,93,93,94,96,94,91,92,93,95,93,91,91,91,90,88,88,955,958,943,978,1091,1634,2088,2331,2412,2458,2444,2395,2350,2306,2272,2292,2253,2162,2116,2104,2067,1981,1930,1887,1884,1836,1749,1716,1461,1260,1099,1030,998,982,972,957,961,966,921,930,924,927,940,932,935,934,937,943,944,944,946,945,947,943,944,939,947,954,948,942,942,942,945,941,941,570,572,540,564,558,691,1046,1180,1299,1322,1374,1350,1326,1308,1284,1264,1244,1177,1200,1180,1158,1137,1116,1091,1068,1008,1025,966,998,917,778,588,573,560,579,545,576,550,505,503,502,508,510,513,512,514,507,510,512,512,510,510,512,512,510,511,512,514,513,512,510,511,509,507,507,647,646,656,655,656,810,1246,1385,1558,1556,1614,1559,1528,1520,1509,1462,1432,1408,1404,1357,1363,1341,1285,1270,1248,1215,1216,1197,1148,1005,785,761,733,660,672,660,676,671,633,628,633,637,635,636,635,640,638,640,637,632,640,643,645,646,644,640,635,642,637,640,632,645,638,647,637,738,754,748,744,755,991,1472,1657,1767,1771,1750,1776,1750,1690,1687,1633,1653,1600,1559,1546,1513,1488,1460,1448,1420,1395,1357,1153,1152,1072,958,802,806,781,773,761,765,749,706,705,704,709,719,716,713,716,711,714,716,716,714,714,716,716,714,715,716,718,717,716,714,715,713,711,711,0,0,0,0,0,0,0,0,0,0,0,0,0,0,0,0,0,0,0,0,0,0,0,0,0,0,0,0,0,0,0,0,0,0,0,0,0,0,0,0,0,0,0,0,0,0,0,0,0,0,0,0,0,0,0,0,0,0,0,0,0,0,0,0,0 ]);
