n = 10;
D = [174,207,222,201,143,172,265,87,178,223 ];
q = 0;
prec = array2d(1..0,1..2,[]);
steps = 64;
l = 360;
r = 0;
which = [];
interval = array2d(1..0,1..2,[]);
T = array3d(1..11,1..11,0..64,[0,0,0,0,0,0,0,0,0,0,0,0,0,0,0,0,0,0,0,0,0,0,0,0,0,0,0,0,0,0,0,0,0,0,0,0,0,0,0,0,0,0,0,0,0,0,0,0,0,0,0,0,0,0,0,0,0,0,0,0,0,0,0,0,0,729,732,734,770,785,1327,1489,1651,1749,1806,1785,1756,1728,1700,1671,1642,1614,1585,1556,1528,1500,1471,1442,1425,1386,1357,1328,1299,1270,1214,1139,949,880,780,743,740,742,751,750,745,757,767,770,766,766,779,769,776,773,773,778,777,782,788,780,767,772,780,774,760,763,780,768,787,772,575,577,549,580,567,955,1120,1252,1287,1412,1354,1333,1312,1278,1321,1298,1225,1241,1231,1161,1129,1119,1097,1076,1055,1033,1011,989,969,986,751,734,612,597,598,584,591,562,559,557,551,558,558,563,559,564,564,569,560,564,558,564,565,557,566,567,566,564,562,566,570,572,566,573,566,1003,1004,1012,1062,1724,2221,2598,2790,2897,2912,2874,2803,2756,2700,2640,2582,2523,2463,2404,2347,2290,2231,2172,2116,2193,2058,1936,1688,1681,1562,1399,1098,1059,1031,1023,1116,1021,1030,1053,1076,1058,1064,1085,1080,1066,1079,1076,1087,1090,1068,1075,1082,1088,1096,1097,1097,1086,1095,1101,1119,1128,1164,1124,1128,1127,691,694,696,698,719,1236,1389,1558,1655,1698,1694,1667,1639,1612,1588,1574,1530,1503,1474,1453,1442,1399,1373,1349,1318,1290,1278,1236,1100,1025,769,793,733,716,705,702,704,663,662,663,665,685,695,681,710,712,694,722,686,702,685,683,692,721,727,697,683,672,688,697,695,699,696,698,681,419,420,415,423,427,697,788,880,972,1028,1035,1020,1003,972,969,954,937,907,904,874,859,855,826,843,806,766,772,746,740,723,708,691,674,439,428,425,420,416,413,412,406,412,412,417,413,418,418,423,414,418,412,418,419,411,420,421,420,418,416,420,424,426,420,427,420,871,874,875,880,962,1609,1801,1976,2072,2119,2114,2073,2040,2006,1974,1958,1907,1873,1837,1818,1799,1750,1719,1677,1646,1566,1536,1504,1177,1130,1130,952,934,901,886,883,880,862,857,860,859,862,875,872,879,878,869,887,875,881,881,876,879,883,913,880,878,869,864,878,877,881,876,884,868,755,758,760,763,796,1360,1542,1719,1813,1854,1848,1819,1788,1757,1729,1715,1668,1637,1603,1580,1539,1522,1492,1462,1432,1401,1388,1347,1317,1221,999,929,811,781,769,767,768,742,731,734,734,740,749,747,767,775,747,780,752,759,760,758,754,776,778,752,761,757,749,752,747,759,749,756,739,723,728,727,728,737,1285,1436,1603,1717,1780,1746,1728,1700,1662,1651,1610,1611,1560,1555,1516,1489,1447,1419,1390,1376,1347,1306,1298,1261,1205,948,905,801,775,731,728,730,702,701,703,702,704,714,713,715,721,713,714,715,714,719,719,716,718,720,716,714,710,710,712,713,719,716,724,708,818,820,824,832,896,1499,1686,1862,1958,1983,1975,1944,1976,1892,1861,1828,1797,1759,1723,1701,1668,1637,1606,1577,1545,1513,1482,1450,1284,924,911,882,954,864,827,865,804,806,802,810,815,827,834,842,826,841,832,843,838,842,851,831,854,858,845,834,850,851,838,845,858,854,855,850,842,0,0,0,0,0,0,0,0,0,0,0,0,0,0,0,0,0,0,0,0,0,0,0,0,0,0,0,0,0,0,0,0,0,0,0,0,0,0,0,0,0,0,0,0,0,0,0,0,0,0,0,0,0,0,0,0,0,0,0,0,0,0,0,0,0,805,799,801,846,828,1322,1630,1812,1920,1952,1944,1938,1881,1921,1819,1788,1756,1749,1717,1663,1632,1662,1570,1539,1508,1485,1446,1404,1230,1183,1154,966,852,821,824,808,811,812,809,802,803,813,807,819,812,828,819,813,823,813,813,812,810,814,818,818,814,818,810,812,816,836,824,835,819,0,0,0,0,0,0,0,0,0,0,0,0,0,0,0,0,0,0,0,0,0,0,0,0,0,0,0,0,0,0,0,0,0,0,0,0,0,0,0,0,0,0,0,0,0,0,0,0,0,0,0,0,0,0,0,0,0,0,0,0,0,0,0,0,0,892,904,897,923,969,1490,1849,2038,2144,2185,2173,2145,2089,2095,2039,2003,1970,1935,1900,1849,1830,1813,1746,1725,1690,1644,1564,1526,1371,1166,1038,1010,972,917,908,914,916,909,905,898,905,906,902,906,904,912,911,908,915,910,907,912,908,915,915,915,911,909,907,913,916,913,904,915,907,541,543,579,546,561,960,1125,1288,1432,1495,1494,1466,1437,1414,1381,1353,1325,1296,1269,1244,1219,1186,1160,1131,1104,1075,1051,1020,992,954,935,660,640,570,555,550,553,545,542,542,550,555,555,555,548,554,554,555,555,555,555,555,555,555,555,555,552,555,555,554,550,555,555,555,550,454,455,457,458,459,624,861,957,1052,1120,1125,1107,1090,1072,1058,1041,1023,1000,972,964,946,932,910,896,865,852,835,820,802,782,741,601,514,470,464,468,463,465,435,423,428,433,432,429,426,429,432,435,435,432,432,435,435,435,435,435,430,435,430,431,428,435,435,435,429,785,788,790,833,848,1273,1605,1784,1886,1927,1917,1909,1856,1897,1814,1765,1753,1702,1689,1641,1611,1659,1549,1533,1501,1458,1426,1383,1159,905,1039,950,887,810,800,806,811,802,788,786,787,799,796,796,791,801,796,788,802,797,789,797,801,809,806,804,801,809,803,807,807,810,797,806,801,272,273,274,275,282,274,407,506,543,588,606,598,592,585,579,572,566,559,542,546,535,539,518,514,498,485,478,468,436,349,298,290,284,285,348,265,266,281,204,204,204,204,204,204,204,204,204,204,204,204,204,204,204,204,204,204,204,204,204,204,204,204,204,204,204,514,518,520,522,523,794,994,1105,1214,1278,1281,1261,1239,1213,1198,1178,1162,1137,1117,1096,1080,1056,1035,1018,993,973,954,927,912,856,797,747,572,558,528,521,523,526,495,495,495,495,495,495,495,495,495,495,495,495,495,495,495,495,495,495,495,495,495,495,495,495,495,495,495,502,504,505,507,508,780,963,1069,1176,1240,1244,1224,1204,1184,1165,1144,1128,1105,1084,1065,1048,1026,1005,989,966,945,928,906,886,866,842,673,581,556,513,509,511,486,465,465,461,461,461,461,461,461,461,461,461,461,461,461,461,461,461,461,461,461,461,461,461,461,461,461,461,156,156,156,156,153,158,271,301,330,360,386,378,374,368,359,348,342,336,330,324,318,320,315,309,301,296,289,284,278,272,223,218,213,160,156,153,154,154,119,119,119,119,119,119,119,119,119,119,119,119,119,119,119,119,119,119,119,119,119,119,119,119,119,119,119,805,799,801,846,828,1322,1630,1812,1920,1952,1944,1938,1881,1921,1819,1788,1756,1749,1717,1663,1632,1662,1570,1539,1508,1485,1446,1404,1230,1183,1154,966,852,821,824,808,811,812,809,802,803,813,807,819,812,828,819,813,823,813,813,812,810,814,818,818,814,818,810,812,816,836,824,835,819,580,573,537,587,554,945,1171,1250,1386,1317,1321,1384,1362,1290,1236,1294,1194,1172,1152,1130,1183,1117,1159,1116,1112,1088,1066,1042,1021,998,898,790,832,752,592,542,560,592,577,584,579,592,592,594,592,632,586,596,584,584,591,619,635,596,681,596,584,584,594,590,582,589,588,598,584,783,785,787,798,916,1241,1616,1900,1988,2016,1909,1881,1844,1815,1789,1849,1788,1698,1663,1636,1605,1709,1544,1514,1483,1449,1422,1392,1270,1248,1040,1025,825,812,796,794,795,799,813,812,812,815,813,813,824,829,809,803,817,820,813,810,809,810,811,821,815,816,813,812,808,837,843,894,811,0,0,0,0,0,0,0,0,0,0,0,0,0,0,0,0,0,0,0,0,0,0,0,0,0,0,0,0,0,0,0,0,0,0,0,0,0,0,0,0,0,0,0,0,0,0,0,0,0,0,0,0,0,0,0,0,0,0,0,0,0,0,0,0,0,1266,1270,1277,1332,1885,2492,2932,3090,3155,3157,3138,3084,3024,2970,2922,2869,2817,2754,2695,2633,2589,2558,2492,2149,2126,2060,1733,1487,1464,1432,1377,1357,1334,1299,1286,1276,1284,1273,1259,1259,1281,1304,1264,1291,1288,1272,1272,1277,1298,1275,1277,1285,1288,1306,1278,1284,1278,1313,1303,1278,1291,1277,1274,1340,1284,663,666,668,669,705,775,1332,1481,1599,1630,1689,1602,1603,1550,1524,1498,1476,1451,1423,1398,1368,1342,1319,1292,1264,1239,1240,1186,1040,955,779,760,760,688,676,674,676,648,639,641,625,631,659,661,666,668,651,673,666,681,662,663,666,664,668,655,666,670,664,666,669,668,665,672,658,253,254,255,256,256,406,460,514,568,621,636,625,615,604,595,584,574,564,554,543,534,523,513,504,493,483,472,463,452,442,432,422,411,402,391,256,257,258,247,247,248,248,248,248,249,251,249,252,252,252,253,254,254,255,256,254,255,253,254,255,255,256,254,258,256,863,866,868,872,914,1157,1780,1941,2047,2074,2142,2058,2050,1998,1946,1900,1904,1840,1835,1801,1763,1734,1707,1665,1604,1587,1479,1366,1006,1167,938,928,922,888,880,869,871,848,841,842,827,833,860,855,869,869,854,873,869,883,865,866,867,866,870,858,868,873,867,868,867,870,865,872,858,623,625,627,632,637,812,1247,1383,1488,1539,1592,1513,1516,1465,1439,1413,1392,1367,1341,1317,1289,1264,1240,1217,1190,1165,1141,1115,971,950,841,798,729,720,646,639,641,584,576,579,566,568,593,597,602,606,588,608,601,618,600,598,599,603,603,588,598,603,599,600,602,604,602,605,591,501,503,504,505,507,683,970,1078,1179,1240,1315,1220,1272,1184,1163,1135,1123,1104,1084,1065,1043,1023,1003,983,964,944,924,904,759,741,724,649,634,552,512,508,510,498,493,492,476,479,506,511,516,518,499,519,512,528,510,509,511,512,514,501,510,516,510,513,515,517,513,521,507,872,874,872,898,1025,1423,1818,2083,2193,2218,2097,2077,2031,2006,1976,2032,1967,1877,1840,1857,1775,1870,1708,1674,1640,1598,1576,1534,1247,1250,1079,932,916,896,885,892,857,860,858,881,873,897,877,874,874,891,881,877,871,866,882,880,886,887,888,879,892,889,891,873,887,893,882,950,892,580,573,537,587,554,945,1171,1250,1386,1317,1321,1384,1362,1290,1236,1294,1194,1172,1152,1130,1183,1117,1159,1116,1112,1088,1066,1042,1021,998,898,790,832,752,592,542,560,592,577,584,579,592,592,594,592,632,586,596,584,584,591,619,635,596,681,596,584,584,594,590,582,589,588,598,584,1188,1192,1204,1221,1612,2432,2661,2867,2995,3006,2992,2935,2960,2834,2770,2787,2733,2682,2572,2515,2465,2428,2361,2311,2275,2149,1797,1501,1465,1368,1348,1268,1240,1232,1215,1216,1221,1251,1219,1215,1220,1216,1250,1238,1249,1249,1241,1243,1245,1244,1245,1245,1242,1248,1246,1246,1250,1243,1249,1247,1265,1245,1256,1240,1238,628,641,631,632,721,1095,1284,1470,1618,1701,1663,1634,1635,1597,1538,1508,1489,1460,1431,1390,1372,1332,1296,1291,1243,1206,1184,1146,1141,1069,915,803,765,644,631,629,632,658,638,640,633,651,644,644,650,665,644,640,644,658,652,644,646,652,652,653,650,654,644,650,648,663,663,664,648,1293,1291,1301,1362,1579,2670,2902,3083,3208,3214,3181,3127,3162,3019,2972,2977,2921,2864,2752,2710,2639,2599,2382,2057,1959,1680,1700,1507,1507,1500,1448,1394,1336,1329,1312,1302,1309,1327,1314,1318,1310,1311,1341,1330,1341,1328,1336,1341,1345,1331,1347,1339,1351,1351,1346,1347,1335,1349,1338,1341,1335,1342,1340,1337,1329,0,0,0,0,0,0,0,0,0,0,0,0,0,0,0,0,0,0,0,0,0,0,0,0,0,0,0,0,0,0,0,0,0,0,0,0,0,0,0,0,0,0,0,0,0,0,0,0,0,0,0,0,0,0,0,0,0,0,0,0,0,0,0,0,0,927,928,938,935,1082,1579,1944,2109,2228,2232,2238,2209,2175,2118,2119,2072,2002,1992,1936,1918,1903,1846,1827,1788,1737,1700,1652,1551,1254,1032,1123,1014,985,969,941,939,932,922,922,914,922,922,920,931,921,926,925,938,943,941,938,944,943,948,947,945,937,945,947,948,975,955,949,965,964,1178,1181,1193,1241,1372,2416,2654,2841,2972,2980,2950,2900,2937,2798,2757,2764,2713,2660,2550,2494,2444,2408,2342,2290,2250,1920,1764,1489,1358,1431,1332,1287,1229,1221,1204,1196,1201,1231,1201,1199,1203,1208,1225,1225,1229,1216,1227,1230,1227,1222,1235,1238,1240,1245,1233,1239,1246,1236,1244,1242,1240,1249,1238,1226,1223,664,666,666,672,769,1171,1328,1479,1581,1644,1621,1600,1573,1548,1521,1520,1470,1443,1416,1392,1364,1340,1311,1288,1260,1246,1212,1185,1159,1134,900,872,800,685,675,674,676,676,672,664,670,669,669,678,671,672,676,683,690,688,685,690,690,695,689,691,682,690,690,692,694,692,691,703,694,1011,1005,1023,1034,1106,1769,2162,2318,2434,2434,2436,2404,2340,2292,2309,2250,2184,2167,2107,2084,2069,2007,1984,1906,1887,1599,1802,1552,1357,1285,1202,1110,1044,1042,1027,1016,1018,1002,1003,994,1010,1007,1012,1020,1005,1009,1015,1017,1027,1025,1023,1028,1030,1031,1026,1023,1019,1030,1031,1037,1051,1030,1032,1046,1045,1022,1005,1008,1037,1228,1902,2250,2431,2541,2560,2549,2524,2458,2416,2368,2324,2278,2240,2196,2196,2107,2062,2016,1972,1893,1870,1818,1647,1287,1269,1110,1080,1052,1030,1041,1017,1010,1008,999,999,1010,1018,1018,1026,1009,1009,1016,1029,1024,1017,1025,1029,1038,1032,1040,1028,1016,1030,1019,1022,1016,1034,1021,1034,1010,636,638,640,642,668,1061,1282,1450,1597,1648,1643,1614,1586,1557,1529,1500,1471,1442,1416,1392,1364,1332,1306,1274,1246,1218,1190,1161,1102,1037,884,819,834,661,648,646,649,636,625,620,628,638,630,633,632,639,634,630,634,633,631,633,633,635,634,640,639,638,635,634,639,655,643,652,642,1188,1192,1204,1221,1612,2432,2661,2867,2995,3006,2992,2935,2960,2834,2770,2787,2733,2682,2572,2515,2465,2428,2361,2311,2275,2149,1797,1501,1465,1368,1348,1268,1240,1232,1215,1216,1221,1251,1219,1215,1220,1216,1250,1238,1249,1249,1241,1243,1245,1244,1245,1245,1242,1248,1246,1246,1250,1243,1249,1247,1265,1245,1256,1240,1238,743,746,748,750,757,1255,1486,1668,1763,1818,1817,1789,1759,1729,1700,1677,1645,1625,1587,1566,1539,1500,1471,1450,1421,1383,1353,1324,1296,1187,1072,996,786,768,757,755,757,758,725,725,726,735,740,733,743,735,734,742,735,737,741,754,754,756,764,764,739,756,742,730,730,730,730,730,730,401,403,404,405,409,615,759,889,937,993,1000,984,968,952,936,934,904,888,872,856,853,836,820,792,776,759,744,728,711,696,680,628,577,421,411,408,415,410,410,405,415,422,421,408,420,422,416,417,418,417,419,422,422,422,422,422,413,417,420,420,412,420,416,420,416,640,650,652,655,656,711,1258,1394,1510,1574,1585,1544,1521,1517,1485,1450,1438,1408,1394,1361,1333,1282,1284,1260,1222,1200,1160,1140,1066,897,884,851,692,680,648,658,654,648,617,617,620,617,622,621,628,633,625,641,624,624,622,625,623,644,642,625,626,620,619,623,623,623,623,623,623,902,905,908,921,1021,1551,1929,2137,2278,2338,2329,2291,2248,2206,2165,2123,2081,2040,2000,1960,1918,1876,1833,1791,1752,1706,1664,1618,1314,1273,1187,976,1000,928,919,919,910,915,913,911,914,917,927,930,940,928,918,931,928,927,939,927,932,938,940,939,931,930,931,935,938,926,931,934,929,0,0,0,0,0,0,0,0,0,0,0,0,0,0,0,0,0,0,0,0,0,0,0,0,0,0,0,0,0,0,0,0,0,0,0,0,0,0,0,0,0,0,0,0,0,0,0,0,0,0,0,0,0,0,0,0,0,0,0,0,0,0,0,0,0,664,674,676,669,701,818,1277,1455,1547,1639,1631,1546,1538,1578,1528,1498,1448,1463,1423,1374,1382,1332,1329,1269,1269,1210,1192,1174,1119,1080,958,829,727,696,651,662,679,666,645,648,648,652,657,656,663,662,660,662,659,658,657,655,658,664,664,656,661,655,654,658,658,658,658,658,658,301,304,304,305,372,413,553,619,676,740,747,730,728,710,699,688,678,667,656,645,633,621,609,594,585,573,561,556,537,525,528,502,414,399,391,307,306,376,300,298,300,302,302,303,301,300,301,303,299,301,302,303,303,302,303,303,302,303,301,315,304,304,306,302,302,154,155,155,156,156,243,276,307,340,371,390,384,376,370,364,358,352,345,339,333,327,321,314,308,302,296,290,283,277,271,265,259,252,246,240,156,236,236,131,133,129,131,132,139,131,134,135,136,133,133,128,133,135,129,133,133,133,132,130,131,131,131,131,131,131,142,142,143,152,153,221,249,279,308,338,357,351,346,340,334,328,324,318,312,306,301,295,289,283,278,272,266,260,255,249,243,237,232,226,220,153,217,218,100,103,101,102,103,101,102,102,102,102,102,102,100,102,101,102,102,101,102,100,100,100,100,100,100,100,100,490,492,493,488,527,664,918,1017,1132,1188,1194,1122,1149,1130,1112,1093,1076,1057,994,1020,958,940,966,948,886,868,850,869,813,795,760,632,602,482,520,498,469,472,463,463,463,470,472,469,471,476,466,466,469,472,473,471,475,472,474,472,470,475,471,472,475,475,475,475,474,743,746,748,750,757,1255,1486,1668,1763,1818,1817,1789,1759,1729,1700,1677,1645,1625,1587,1566,1539,1500,1471,1450,1421,1383,1353,1324,1296,1187,1072,996,786,768,757,755,757,758,725,725,726,735,740,733,743,735,734,742,735,737,741,754,754,756,764,764,739,756,742,730,730,730,730,730,730,424,426,427,428,433,481,802,896,988,1045,1045,1028,999,996,986,969,952,936,919,902,885,868,852,835,818,801,784,762,751,729,712,473,465,444,434,431,432,433,418,424,425,425,425,425,425,425,425,425,425,425,425,425,425,425,425,425,425,425,425,425,425,425,425,425,425,803,741,785,816,876,1119,1510,1674,1930,1810,1809,1780,1815,1736,1693,1664,1635,1606,1578,1548,1519,1490,1504,1496,1404,1491,1459,1316,1287,1223,1057,800,781,764,751,750,752,755,757,758,760,760,760,760,760,760,760,760,760,760,760,760,760,760,760,760,760,760,760,760,760,760,760,760,760,162,163,163,200,201,253,285,316,348,380,398,392,386,380,374,368,362,356,349,343,337,331,325,319,313,307,301,295,288,282,276,270,264,258,252,201,247,248,146,146,146,146,146,146,146,146,146,146,146,146,146,146,146,146,146,146,146,146,146,146,146,146,146,146,146,1222,1226,1235,1302,1817,2206,2837,2996,3054,3069,3045,2987,2937,2879,2823,2768,2715,2663,2628,2581,2521,2476,2423,2368,2235,2030,1843,1570,1531,1386,1341,1302,1281,1256,1241,1233,1242,1228,1219,1219,1219,1219,1219,1219,1219,1219,1219,1219,1219,1219,1219,1219,1219,1219,1219,1219,1219,1219,1219,1219,1219,1219,1219,1219,1219,663,664,667,670,704,1114,1377,1480,1598,1661,1624,1634,1561,1536,1521,1495,1503,1495,1417,1392,1365,1340,1314,1302,1289,1282,1237,1176,1080,1036,905,725,809,702,675,689,674,644,640,644,643,645,645,645,645,645,645,645,645,645,645,645,645,645,645,645,645,645,645,645,645,645,645,645,645,0,0,0,0,0,0,0,0,0,0,0,0,0,0,0,0,0,0,0,0,0,0,0,0,0,0,0,0,0,0,0,0,0,0,0,0,0,0,0,0,0,0,0,0,0,0,0,0,0,0,0,0,0,0,0,0,0,0,0,0,0,0,0,0,0,858,849,864,863,937,1424,1789,1975,2040,2076,2083,2056,1991,1948,1957,1913,1880,1866,1820,1781,1756,1720,1693,1635,1622,1599,1476,1359,1294,1136,1037,932,927,888,873,870,868,844,842,845,845,847,847,847,847,847,847,847,847,847,847,847,847,847,847,847,847,847,847,847,847,847,847,847,847,621,623,626,631,656,1017,1275,1380,1489,1536,1535,1512,1473,1450,1436,1412,1389,1359,1329,1310,1287,1262,1237,1215,1188,1189,1138,1103,1079,1063,808,854,831,665,662,645,638,580,577,582,584,582,582,582,582,582,582,582,582,582,582,582,582,582,582,582,582,582,582,582,582,582,582,582,582,496,500,539,503,509,847,1029,1072,1232,1222,1232,1213,1192,1173,1154,1134,1114,1086,1060,1056,1030,1016,996,1008,957,996,948,894,878,858,594,798,726,528,525,515,507,494,494,495,494,495,495,495,495,495,495,495,495,495,495,495,495,495,495,495,495,495,495,495,495,495,495,495,495,891,830,870,899,913,1297,1724,1878,2135,2012,2007,1978,2007,1914,1870,1839,1819,1776,1754,1721,1688,1658,1668,1646,1564,1640,1605,1466,1288,928,1092,900,871,886,835,840,815,815,834,824,826,826,830,825,832,826,834,828,831,827,841,838,839,834,830,836,833,841,832,839,838,845,831,827,826,424,426,427,428,433,481,802,896,988,1045,1045,1028,999,996,986,969,952,936,919,902,885,868,852,835,818,801,784,762,751,729,712,473,465,444,434,431,432,433,418,424,425,425,425,425,425,425,425,425,425,425,425,425,425,425,425,425,425,425,425,425,425,425,425,425,425,936,939,951,948,1022,1640,1958,2123,2212,2245,2228,2192,2157,2122,2088,2052,2017,1984,1954,1921,1895,1852,1824,1789,1753,1720,1684,1566,1304,1176,1020,1009,1017,958,949,949,950,946,926,926,927,930,930,932,946,945,936,946,941,935,944,965,968,972,959,943,968,954,967,954,950,943,947,933,931,268,269,309,271,309,380,477,534,586,625,634,626,621,609,600,591,583,574,565,560,548,540,530,525,513,505,495,471,474,454,446,447,428,337,274,272,272,273,250,247,244,245,246,247,259,258,245,259,254,245,244,258,257,259,261,271,255,255,257,260,257,250,246,246,244,882,883,897,892,950,1596,1808,1985,2074,2109,2091,2068,2032,1998,1968,1933,1897,1869,1837,1812,1773,1742,1717,1684,1658,1611,1426,1170,1130,1024,960,940,916,902,896,892,912,885,864,859,858,859,860,861,881,876,859,876,868,859,858,863,867,877,878,869,881,864,863,878,871,864,860,860,858,696,702,704,722,728,875,1394,1544,1646,1702,1712,1684,1659,1616,1591,1577,1549,1522,1498,1461,1432,1398,1372,1352,1324,1297,1270,1236,1209,1008,782,892,748,723,737,726,734,712,659,659,659,659,659,659,659,659,659,659,659,659,659,659,659,659,659,659,659,659,659,659,659,659,659,659,659,324,325,326,328,328,363,597,664,728,771,774,763,752,747,736,720,709,698,688,677,666,656,645,634,627,612,605,591,573,560,548,536,364,357,332,329,330,331,314,314,314,314,314,314,314,314,314,314,314,314,314,314,314,314,314,314,314,314,314,314,314,314,314,314,314,893,896,908,910,1015,1568,1851,2024,2118,2171,2117,2108,2066,2042,1980,1977,1935,1911,1869,1849,1813,1780,1772,1723,1668,1653,1616,1430,1174,1103,990,953,941,926,915,906,904,912,891,891,890,892,893,893,910,906,891,904,897,892,890,898,902,907,913,904,907,899,898,901,903,896,893,893,891,0,0,0,0,0,0,0,0,0,0,0,0,0,0,0,0,0,0,0,0,0,0,0,0,0,0,0,0,0,0,0,0,0,0,0,0,0,0,0,0,0,0,0,0,0,0,0,0,0,0,0,0,0,0,0,0,0,0,0,0,0,0,0,0,0,411,409,411,412,417,611,768,853,935,987,986,973,962,953,938,921,905,884,878,864,842,836,814,800,788,771,760,742,711,706,671,598,524,426,435,415,424,417,391,391,391,391,391,391,391,391,391,391,391,391,391,391,391,391,391,391,391,391,391,391,391,391,391,391,391,464,467,468,471,475,612,876,976,1070,1119,1113,1098,1086,1074,1058,1037,1018,1005,988,972,956,939,923,906,893,878,863,770,749,732,679,620,590,485,475,473,475,432,411,411,411,411,411,411,411,411,411,411,411,411,411,411,411,411,411,411,411,411,411,411,411,411,411,411,411,249,249,250,251,252,320,448,498,547,617,607,597,588,579,570,560,550,581,532,523,557,505,495,486,507,468,458,477,440,371,365,438,369,262,343,252,253,254,235,231,233,233,234,235,236,240,236,235,237,234,235,235,236,238,238,238,237,237,235,234,236,239,238,240,238,936,939,951,948,1022,1640,1958,2123,2212,2245,2228,2192,2157,2122,2088,2052,2017,1984,1954,1921,1895,1852,1824,1789,1753,1720,1684,1566,1304,1176,1020,1009,1017,958,949,949,950,946,926,926,927,930,930,932,946,945,936,946,941,935,944,965,968,972,959,943,968,954,967,954,950,943,947,933,931,787,790,792,794,802,1290,1611,1808,1894,1933,1925,1894,1861,1831,1799,1769,1737,1706,1674,1644,1612,1581,1556,1524,1501,1461,1441,1409,1369,1208,1113,1044,831,897,820,799,802,797,783,784,792,792,796,796,799,800,803,802,802,802,817,821,818,838,812,802,829,809,802,798,811,819,840,817,811,504,505,507,508,520,720,968,1106,1194,1244,1248,1227,1207,1188,1167,1147,1128,1107,1087,1068,1047,1027,1008,987,979,948,939,908,888,867,840,720,638,560,514,511,512,514,483,489,489,495,495,494,490,497,486,488,488,487,488,488,487,487,487,488,489,489,489,490,490,490,488,487,487,692,686,696,699,694,803,1363,1490,1618,1688,1682,1637,1624,1606,1569,1546,1519,1504,1474,1452,1428,1401,1368,1341,1314,1334,1238,1168,1082,902,919,871,831,732,705,689,697,698,684,684,683,692,684,687,686,689,687,691,689,686,691,688,690,688,690,700,702,696,690,687,702,704,691,690,686,1005,1008,1011,1024,1066,1677,2079,2268,2396,2467,2464,2420,2380,2332,2293,2252,2211,2184,2145,2106,2067,2028,1990,1951,1910,1861,1824,1618,1400,1228,1219,1085,1060,1032,1022,1022,1014,1018,991,995,996,1002,1007,999,1012,1006,994,994,997,994,1009,1002,1005,1000,1009,1009,1002,1004,1007,1005,1012,994,1001,998,998,181,182,182,183,184,278,325,362,400,438,454,447,440,433,426,418,411,404,397,390,382,375,368,361,354,346,339,332,325,318,310,303,296,283,276,271,272,272,174,179,181,174,177,180,177,175,177,183,184,178,176,180,176,178,180,184,176,177,179,177,177,177,177,179,177,716,701,717,713,710,885,1378,1554,1678,1746,1707,1656,1653,1660,1585,1570,1571,1518,1489,1466,1455,1442,1378,1394,1360,1353,1280,1275,1172,1151,1047,755,773,740,709,713,721,711,706,711,717,727,719,722,714,724,714,726,722,721,719,718,725,723,725,723,736,724,725,722,723,732,710,719,713,417,406,420,408,412,481,764,846,926,990,997,976,962,948,933,919,903,886,874,858,842,826,811,792,787,763,757,732,723,555,543,531,518,422,412,411,424,411,383,382,383,385,384,383,386,388,384,386,386,385,386,386,385,385,385,386,387,387,387,388,388,388,386,385,385,0,0,0,0,0,0,0,0,0,0,0,0,0,0,0,0,0,0,0,0,0,0,0,0,0,0,0,0,0,0,0,0,0,0,0,0,0,0,0,0,0,0,0,0,0,0,0,0,0,0,0,0,0,0,0,0,0,0,0,0,0,0,0,0,0,186,187,188,188,188,295,334,373,412,452,469,460,453,446,439,432,423,416,409,402,393,386,379,372,363,356,349,342,334,326,319,312,304,296,289,189,247,285,165,163,168,167,166,166,162,167,168,168,168,168,167,166,169,167,170,170,163,166,164,165,166,164,167,171,164,585,594,567,608,612,774,1124,1278,1379,1429,1386,1364,1384,1366,1343,1320,1298,1231,1209,1232,1165,1143,1120,1144,1116,1101,1033,1010,988,865,835,730,700,608,596,601,596,577,544,543,542,549,547,549,548,555,546,548,548,547,548,548,547,547,547,548,549,549,549,550,550,550,548,547,547,787,790,792,794,802,1290,1611,1808,1894,1933,1925,1894,1861,1831,1799,1769,1737,1706,1674,1644,1612,1581,1556,1524,1501,1461,1441,1409,1369,1208,1113,1044,831,897,820,799,802,797,783,784,792,792,796,796,799,800,803,802,802,802,817,821,818,838,812,802,829,809,802,798,811,819,840,817,811,773,776,764,765,788,1244,1535,1710,1832,1862,1898,1869,1837,1807,1734,1744,1714,1683,1650,1621,1591,1569,1539,1511,1478,1411,1419,1388,1356,1187,907,886,823,804,794,786,793,791,751,751,751,751,751,751,751,751,751,751,751,751,751,751,751,751,751,751,751,751,751,751,751,751,751,751,751,517,519,520,522,545,664,975,1130,1210,1271,1280,1263,1239,1219,1198,1178,1158,1137,1117,1096,1075,1054,1034,1014,993,973,952,932,912,891,714,693,647,562,528,525,527,528,450,450,450,450,450,450,450,450,450,450,450,450,450,450,450,450,450,450,450,450,450,450,450,450,450,450,450,601,604,608,607,619,816,1167,1323,1422,1470,1472,1455,1429,1401,1384,1374,1332,1315,1288,1268,1240,1215,1197,1169,1150,1123,1098,1091,858,838,819,655,722,622,631,612,612,608,591,598,589,598,600,597,605,613,613,594,597,612,603,613,613,609,606,607,600,607,604,608,613,603,605,602,594,1013,1021,1024,1038,1124,1709,2223,2466,2561,2614,2594,2549,2499,2451,2409,2358,2317,2266,2221,2175,2146,2097,2036,1991,1954,1912,1873,1618,1369,1166,1141,1104,1064,1045,1036,1036,1028,1034,958,958,958,958,958,958,958,958,958,958,958,958,958,958,958,958,958,958,958,958,958,958,958,958,958,958,958,195,196,196,196,215,302,344,383,422,464,488,481,474,465,458,450,442,433,426,418,410,403,396,387,379,372,364,356,349,341,333,326,317,306,283,216,217,219,150,150,150,150,150,150,150,150,150,150,150,150,150,150,150,150,150,150,150,150,150,150,150,150,150,150,150,607,629,632,634,660,898,1242,1428,1449,1537,1537,1512,1494,1464,1438,1470,1390,1365,1342,1351,1257,1233,1269,1220,1219,1171,1183,1122,1065,1043,912,836,715,650,673,636,618,640,648,648,648,648,648,648,648,648,648,648,648,648,648,648,648,648,648,648,648,648,648,648,648,648,648,648,648,418,418,420,422,427,508,789,876,950,1017,1030,1012,994,981,966,949,934,919,900,886,872,854,835,818,805,791,769,763,739,723,586,562,530,436,445,424,426,442,350,350,350,350,350,350,350,350,350,350,350,350,350,350,350,350,350,350,350,350,350,350,350,350,350,350,350,129,129,130,130,149,197,225,252,277,305,327,322,316,311,305,301,296,289,285,280,274,269,264,259,253,248,243,238,232,227,222,217,210,206,201,154,155,155,86,86,86,86,86,86,86,86,86,86,86,86,86,86,86,86,86,86,86,86,86,86,86,86,86,86,86,0,0,0,0,0,0,0,0,0,0,0,0,0,0,0,0,0,0,0,0,0,0,0,0,0,0,0,0,0,0,0,0,0,0,0,0,0,0,0,0,0,0,0,0,0,0,0,0,0,0,0,0,0,0,0,0,0,0,0,0,0,0,0,0,0,599,608,598,599,603,699,1131,1284,1396,1413,1432,1447,1420,1351,1342,1306,1284,1261,1238,1215,1237,1215,1148,1125,1102,1083,1096,1034,1012,891,824,654,615,600,605,586,617,589,511,511,511,511,511,511,511,511,511,511,511,511,511,511,511,511,511,511,511,511,511,511,511,511,511,511,511,773,776,764,765,788,1244,1535,1710,1832,1862,1898,1869,1837,1807,1734,1744,1714,1683,1650,1621,1591,1569,1539,1511,1478,1411,1419,1388,1356,1187,907,886,823,804,794,786,793,791,751,751,751,751,751,751,751,751,751,751,751,751,751,751,751,751,751,751,751,751,751,751,751,751,751,751,751,939,941,944,951,1025,1494,1990,2142,2240,2278,2272,2236,2198,2162,2124,2085,2051,2011,1976,1946,1909,1877,1837,1800,1762,1728,1690,1404,1313,1068,1029,1027,995,964,955,952,955,951,919,920,925,931,931,949,928,928,941,935,931,937,945,949,950,965,942,933,945,939,927,925,925,925,925,925,925,170,171,172,172,172,180,306,311,338,407,391,417,413,410,406,402,398,347,342,336,330,326,320,315,308,297,291,337,330,324,305,302,278,300,210,173,173,174,150,158,149,161,160,160,160,161,151,151,152,153,150,150,151,152,150,152,152,152,150,159,159,159,159,159,159,883,886,892,896,954,1523,1829,2010,2100,2144,2131,2101,2067,2034,2000,1970,1936,1898,1867,1830,1800,1769,1743,1703,1664,1627,1426,1379,1292,1240,972,969,953,917,898,896,899,885,862,865,863,868,870,865,867,882,867,870,864,867,865,883,876,876,872,885,875,872,886,886,886,886,886,886,885,639,641,644,645,667,979,1336,1521,1652,1702,1698,1671,1636,1611,1585,1552,1524,1491,1460,1426,1389,1365,1336,1304,1266,1234,1207,1180,1143,1053,938,853,680,680,655,652,657,646,606,608,613,620,620,624,627,626,619,620,626,626,627,627,627,627,621,620,626,621,624,623,623,623,623,623,623,428,424,430,431,433,563,790,882,982,1052,1062,1045,1028,999,997,978,961,944,928,909,892,873,849,842,825,799,792,765,757,724,639,578,492,443,469,443,431,421,394,370,383,382,374,396,380,403,403,385,397,383,388,388,387,403,385,384,383,392,382,378,378,378,378,378,378,912,911,909,914,1018,1445,1885,2044,2144,2188,2158,2157,2106,2088,2036,2000,1983,1955,1902,1843,1812,1792,1762,1728,1683,1642,1640,1383,1265,1207,976,974,960,922,912,921,908,916,892,887,894,903,905,889,902,901,901,901,896,900,900,905,911,904,907,901,898,899,907,911,911,911,911,911,911,223,224,224,224,225,220,313,406,438,461,480,475,472,467,463,457,453,449,444,439,435,430,418,411,403,394,350,346,340,314,308,268,243,237,231,226,226,309,154,153,152,154,155,153,155,157,153,155,155,160,159,160,156,175,154,151,152,154,159,158,158,158,158,158,158,488,492,493,495,497,656,933,1041,1144,1208,1218,1198,1181,1159,1140,1120,1100,1081,1062,1036,1022,1000,981,966,946,925,906,886,863,847,746,654,562,531,502,495,507,499,455,443,454,460,463,475,457,470,465,467,469,471,475,471,471,488,465,463,470,477,466,461,461,461,461,461,461,476,478,478,480,482,628,902,1005,1106,1170,1180,1161,1145,1124,1105,1086,1068,1048,1029,1011,992,973,956,936,918,897,878,860,841,821,720,542,530,497,487,483,492,459,416,413,423,424,435,441,427,439,439,441,435,434,436,432,433,447,433,427,435,441,427,429,429,429,429,429,429,0,0,0,0,0,0,0,0,0,0,0,0,0,0,0,0,0,0,0,0,0,0,0,0,0,0,0,0,0,0,0,0,0,0,0,0,0,0,0,0,0,0,0,0,0,0,0,0,0,0,0,0,0,0,0,0,0,0,0,0,0,0,0,0,0,939,941,944,951,1025,1494,1990,2142,2240,2278,2272,2236,2198,2162,2124,2085,2051,2011,1976,1946,1909,1877,1837,1800,1762,1728,1690,1404,1313,1068,1029,1027,995,964,955,952,955,951,919,920,925,931,931,949,928,928,941,935,931,937,945,949,950,965,942,933,945,939,927,925,925,925,925,925,925,0,0,0,0,0,0,0,0,0,0,0,0,0,0,0,0,0,0,0,0,0,0,0,0,0,0,0,0,0,0,0,0,0,0,0,0,0,0,0,0,0,0,0,0,0,0,0,0,0,0,0,0,0,0,0,0,0,0,0,0,0,0,0,0,0,729,732,734,770,785,1327,1489,1651,1749,1806,1785,1756,1728,1700,1671,1642,1614,1585,1556,1528,1500,1471,1442,1425,1386,1357,1328,1299,1270,1214,1139,949,880,780,743,740,742,751,750,745,757,767,770,766,766,779,769,776,773,773,778,777,782,788,780,767,772,780,774,760,763,780,768,787,772,575,577,549,580,567,955,1120,1252,1287,1412,1354,1333,1312,1278,1321,1298,1225,1241,1231,1161,1129,1119,1097,1076,1055,1033,1011,989,969,986,751,734,612,597,598,584,591,562,559,557,551,558,558,563,559,564,564,569,560,564,558,564,565,557,566,567,566,564,562,566,570,572,566,573,566,1003,1004,1012,1062,1724,2221,2598,2790,2897,2912,2874,2803,2756,2700,2640,2582,2523,2463,2404,2347,2290,2231,2172,2116,2193,2058,1936,1688,1681,1562,1399,1098,1059,1031,1023,1116,1021,1030,1053,1076,1058,1064,1085,1080,1066,1079,1076,1087,1090,1068,1075,1082,1088,1096,1097,1097,1086,1095,1101,1119,1128,1164,1124,1128,1127,691,694,696,698,719,1236,1389,1558,1655,1698,1694,1667,1639,1612,1588,1574,1530,1503,1474,1453,1442,1399,1373,1349,1318,1290,1278,1236,1100,1025,769,793,733,716,705,702,704,663,662,663,665,685,695,681,710,712,694,722,686,702,685,683,692,721,727,697,683,672,688,697,695,699,696,698,681,419,420,415,423,427,697,788,880,972,1028,1035,1020,1003,972,969,954,937,907,904,874,859,855,826,843,806,766,772,746,740,723,708,691,674,439,428,425,420,416,413,412,406,412,412,417,413,418,418,423,414,418,412,418,419,411,420,421,420,418,416,420,424,426,420,427,420,871,874,875,880,962,1609,1801,1976,2072,2119,2114,2073,2040,2006,1974,1958,1907,1873,1837,1818,1799,1750,1719,1677,1646,1566,1536,1504,1177,1130,1130,952,934,901,886,883,880,862,857,860,859,862,875,872,879,878,869,887,875,881,881,876,879,883,913,880,878,869,864,878,877,881,876,884,868,755,758,760,763,796,1360,1542,1719,1813,1854,1848,1819,1788,1757,1729,1715,1668,1637,1603,1580,1539,1522,1492,1462,1432,1401,1388,1347,1317,1221,999,929,811,781,769,767,768,742,731,734,734,740,749,747,767,775,747,780,752,759,760,758,754,776,778,752,761,757,749,752,747,759,749,756,739,723,728,727,728,737,1285,1436,1603,1717,1780,1746,1728,1700,1662,1651,1610,1611,1560,1555,1516,1489,1447,1419,1390,1376,1347,1306,1298,1261,1205,948,905,801,775,731,728,730,702,701,703,702,704,714,713,715,721,713,714,715,714,719,719,716,718,720,716,714,710,710,712,713,719,716,724,708,818,820,824,832,896,1499,1686,1862,1958,1983,1975,1944,1976,1892,1861,1828,1797,1759,1723,1701,1668,1637,1606,1577,1545,1513,1482,1450,1284,924,911,882,954,864,827,865,804,806,802,810,815,827,834,842,826,841,832,843,838,842,851,831,854,858,845,834,850,851,838,845,858,854,855,850,842,0,0,0,0,0,0,0,0,0,0,0,0,0,0,0,0,0,0,0,0,0,0,0,0,0,0,0,0,0,0,0,0,0,0,0,0,0,0,0,0,0,0,0,0,0,0,0,0,0,0,0,0,0,0,0,0,0,0,0,0,0,0,0,0,0 ]);
