n = 10;
D = [112,220,193,69,192,208,156,278,219,254 ];
q = 0;
prec = array2d(1..0,1..2,[]);
steps = 64;
l = 360;
r = 0;
which = [];
interval = array2d(1..0,1..2,[]);
T = array3d(1..11,1..11,0..64,[0,0,0,0,0,0,0,0,0,0,0,0,0,0,0,0,0,0,0,0,0,0,0,0,0,0,0,0,0,0,0,0,0,0,0,0,0,0,0,0,0,0,0,0,0,0,0,0,0,0,0,0,0,0,0,0,0,0,0,0,0,0,0,0,0,746,750,751,753,814,1049,1180,1322,1456,1501,1496,1470,1446,1422,1397,1377,1353,1324,1306,1280,1257,1228,1208,1191,1161,1142,1113,1097,1065,1041,1017,894,793,784,759,758,758,709,706,704,704,718,721,753,731,735,732,721,754,727,716,718,727,739,720,723,728,723,722,718,722,730,722,721,710,837,844,845,850,983,1197,1344,1506,1637,1658,1654,1643,1616,1590,1562,1535,1514,1486,1455,1431,1405,1378,1351,1326,1299,1272,1246,1206,1193,1169,1103,1049,889,869,857,854,847,823,820,825,826,835,834,853,841,849,846,832,853,838,837,840,841,852,831,860,842,862,858,839,859,842,832,844,833,1056,1059,1063,1102,1197,1458,1775,1935,2041,2136,2128,2059,2037,1992,1959,1927,1900,1857,1837,1804,1760,1727,1737,1671,1632,1609,1533,1491,1467,1286,1163,1135,1112,1088,1097,1094,1075,1045,1051,1053,1041,1053,1053,1050,1060,1047,1049,1052,1058,1044,1055,1056,1058,1050,1055,1069,1051,1056,1044,1055,1054,1054,1054,1054,1054,1137,1146,1154,1185,1330,1736,1958,2123,2212,2231,2279,2194,2190,2115,2106,2062,2014,1977,1946,1923,1869,1834,1822,1764,1765,1704,1710,1593,1546,1444,1298,1226,1183,1176,1165,1165,1125,1083,1077,1075,1075,1098,1096,1133,1102,1118,1106,1096,1135,1104,1102,1106,1113,1118,1099,1102,1109,1106,1101,1095,1097,1107,1095,1093,1082,1239,1228,1251,1285,1462,1923,2094,2290,2381,2407,2413,2354,2337,2273,2242,2191,2168,2144,2115,2082,2037,1989,1952,1912,1882,1853,1810,1739,1491,1498,1341,1341,1291,1290,1250,1259,1236,1183,1179,1181,1181,1197,1201,1229,1203,1212,1211,1200,1231,1204,1196,1197,1203,1217,1200,1206,1208,1202,1200,1197,1198,1203,1196,1194,1183,731,720,722,733,767,1024,1158,1311,1365,1462,1452,1457,1391,1382,1339,1344,1339,1287,1279,1207,1228,1209,1158,1148,1131,1103,1085,1045,1045,950,928,810,801,763,749,749,747,691,691,693,693,728,726,730,737,739,743,734,733,758,706,710,728,733,705,731,716,715,711,710,709,719,706,715,704,1092,1090,1099,1140,1196,1553,1851,2010,2115,2207,2197,2130,2105,2059,2029,1990,1963,1918,1898,1863,1819,1784,1787,1719,1683,1607,1575,1532,1416,1241,1200,1172,1149,1124,1134,1131,1118,1086,1083,1083,1085,1097,1097,1094,1102,1091,1093,1096,1102,1089,1100,1099,1102,1111,1101,1110,1096,1097,1090,1100,1101,1101,1101,1101,1101,1554,1547,1629,1755,2424,2965,3298,3414,3480,3495,3473,3419,3348,3286,3221,3133,3087,3044,2962,2917,2861,2656,2671,2484,2349,2259,2165,1981,1818,1763,1734,1643,1581,1535,1541,1539,1557,1578,1688,1674,1699,1710,1753,1729,1735,1751,1730,1757,1764,1755,1768,1764,1747,1755,1767,1771,1764,1784,1753,1762,1759,1759,1759,1759,1759,324,311,312,313,314,408,460,514,567,617,629,647,642,599,589,579,569,559,550,540,530,544,509,499,489,479,469,459,449,458,449,420,427,327,407,329,330,316,315,311,318,324,321,318,313,315,322,326,331,320,322,355,359,410,359,331,318,325,318,319,313,325,321,331,315,0,0,0,0,0,0,0,0,0,0,0,0,0,0,0,0,0,0,0,0,0,0,0,0,0,0,0,0,0,0,0,0,0,0,0,0,0,0,0,0,0,0,0,0,0,0,0,0,0,0,0,0,0,0,0,0,0,0,0,0,0,0,0,0,0,826,827,831,842,855,1131,1373,1541,1617,1645,1696,1637,1592,1566,1540,1532,1488,1464,1435,1405,1397,1373,1322,1306,1290,1251,1225,1237,1172,1069,1040,894,871,851,839,847,866,861,826,832,828,847,838,846,837,866,832,823,841,866,859,850,866,854,841,847,848,857,849,841,840,854,832,839,830,0,0,0,0,0,0,0,0,0,0,0,0,0,0,0,0,0,0,0,0,0,0,0,0,0,0,0,0,0,0,0,0,0,0,0,0,0,0,0,0,0,0,0,0,0,0,0,0,0,0,0,0,0,0,0,0,0,0,0,0,0,0,0,0,0,164,164,165,165,166,171,236,262,289,315,331,326,321,315,311,305,300,294,290,284,279,275,269,264,259,254,248,244,238,233,228,223,217,174,170,166,167,167,159,153,153,153,172,165,157,155,157,155,168,169,221,167,216,161,204,162,166,208,205,170,167,172,204,204,165,585,562,596,606,618,732,905,992,1096,1169,1191,1170,1161,1134,1120,1075,1086,1006,1046,1027,1011,992,971,952,933,916,892,874,842,768,816,669,629,612,635,564,595,608,492,492,492,492,492,492,492,492,492,492,492,492,492,492,492,492,492,492,492,492,492,492,492,492,492,492,492,430,435,430,430,433,474,637,715,791,850,865,851,837,821,808,795,780,767,753,739,725,712,697,684,670,656,643,628,614,601,498,483,460,449,437,434,433,433,367,367,367,367,367,367,367,367,367,367,367,367,367,367,367,367,367,367,367,367,367,367,367,367,367,367,367,554,553,557,558,574,678,852,957,1028,1090,1099,1086,1062,1046,1032,1015,1005,981,962,940,937,913,898,877,858,843,822,809,788,774,734,696,643,577,566,562,571,565,478,478,478,478,478,478,478,478,478,478,478,478,478,478,478,478,478,478,478,478,478,478,478,478,478,478,478,277,278,279,279,280,359,405,451,497,542,557,548,540,531,522,513,504,501,487,479,470,462,453,444,435,426,418,409,401,392,383,375,363,355,329,280,325,325,271,273,265,273,272,272,280,317,270,270,272,315,279,270,271,274,276,272,273,276,269,271,267,272,274,270,263,620,615,631,642,648,781,966,1061,1173,1200,1263,1242,1223,1203,1188,1142,1152,1070,1111,1089,1072,1051,1029,1009,988,971,946,920,893,882,861,748,666,648,671,600,609,651,543,543,543,543,543,543,543,543,543,543,543,543,543,543,543,543,543,543,543,543,543,543,543,543,543,543,543,1173,1184,1187,1207,1326,1716,2110,2332,2421,2464,2445,2404,2356,2312,2273,2231,2185,2145,2102,2061,2021,1977,1921,1879,1843,1802,1765,1721,1572,1359,1314,1277,1233,1211,1200,1181,1172,1178,1093,1093,1093,1093,1093,1093,1093,1093,1093,1093,1093,1093,1093,1093,1093,1093,1093,1093,1093,1093,1093,1093,1093,1093,1093,1093,1093,754,746,747,751,766,1008,1217,1356,1451,1483,1482,1479,1436,1431,1389,1430,1342,1323,1294,1270,1264,1240,1216,1177,1201,1129,1105,1123,1093,1035,1010,883,786,767,757,787,793,795,763,768,761,765,762,777,777,791,777,777,779,783,783,766,771,778,777,773,778,777,773,767,767,777,775,806,795,826,827,831,842,855,1131,1373,1541,1617,1645,1696,1637,1592,1566,1540,1532,1488,1464,1435,1405,1397,1373,1322,1306,1290,1251,1225,1237,1172,1069,1040,894,871,851,839,847,866,861,826,832,828,847,838,846,837,866,832,823,841,866,859,850,866,854,841,847,848,857,849,841,840,854,832,839,830,722,725,725,730,751,993,1123,1257,1404,1446,1475,1449,1400,1405,1356,1336,1285,1284,1258,1265,1215,1192,1192,1146,1123,1100,1076,1053,1008,1007,984,972,915,809,766,743,730,748,718,726,730,753,737,746,725,744,728,729,742,759,747,754,757,765,738,748,749,766,755,742,745,756,726,738,734,135,135,135,135,136,140,193,216,238,261,277,272,268,264,259,255,250,246,242,237,233,228,224,220,215,211,206,202,198,193,189,184,180,176,140,136,137,137,128,126,127,128,128,126,127,128,126,128,128,128,127,128,127,126,126,128,127,129,127,126,127,127,127,126,126,0,0,0,0,0,0,0,0,0,0,0,0,0,0,0,0,0,0,0,0,0,0,0,0,0,0,0,0,0,0,0,0,0,0,0,0,0,0,0,0,0,0,0,0,0,0,0,0,0,0,0,0,0,0,0,0,0,0,0,0,0,0,0,0,0,677,660,673,669,694,829,1025,1154,1266,1300,1346,1322,1282,1261,1258,1247,1210,1171,1150,1151,1129,1122,1083,1013,1042,1020,985,964,935,814,884,775,702,706,671,675,670,663,620,617,622,625,631,632,628,626,623,637,636,636,635,637,638,637,635,638,639,642,637,635,636,636,636,633,633,525,511,508,510,511,590,771,889,969,1019,1024,1007,1013,993,960,942,948,930,943,877,861,880,829,875,814,824,763,803,727,740,685,665,640,588,545,559,520,529,495,498,496,497,500,505,501,508,497,510,501,502,507,505,512,513,512,506,506,507,508,509,505,503,501,503,503,680,681,684,688,690,863,1045,1173,1266,1351,1362,1355,1330,1310,1270,1248,1234,1203,1182,1164,1144,1116,1098,1075,1054,1037,1016,990,971,904,921,817,796,709,694,692,695,688,606,597,601,604,609,604,606,604,598,604,606,606,603,605,606,604,602,605,607,611,607,605,604,605,602,599,599,174,174,175,175,176,221,248,276,303,331,348,343,337,332,333,327,316,311,305,300,294,289,283,279,273,268,262,257,251,247,242,236,231,225,220,176,177,177,163,167,167,172,171,172,168,178,166,176,173,211,169,172,176,219,173,173,174,201,175,172,172,174,168,169,167,712,696,708,705,725,874,1089,1225,1364,1373,1418,1393,1353,1331,1326,1274,1275,1235,1213,1212,1189,1181,1143,1070,1096,1056,1019,1016,976,955,922,832,812,743,708,714,706,706,671,671,677,684,688,685,682,684,673,688,690,689,686,688,689,688,686,689,690,693,688,686,687,687,687,684,684,1273,1287,1284,1304,1481,2009,2365,2540,2616,2653,2613,2567,2530,2489,2449,2382,2344,2296,2247,2201,2151,2103,2063,2028,1977,1963,1886,1815,1474,1436,1441,1404,1327,1305,1305,1261,1264,1271,1221,1221,1224,1230,1243,1230,1246,1231,1224,1224,1233,1226,1241,1234,1241,1232,1241,1243,1238,1241,1242,1235,1243,1224,1231,1226,1226,639,652,644,656,662,870,982,1137,1208,1279,1306,1289,1241,1248,1206,1185,1160,1139,1119,1125,1079,1058,1061,1017,996,976,1006,936,947,895,874,877,761,724,708,683,651,666,655,662,663,716,661,677,671,706,670,680,673,669,670,668,676,723,674,674,674,677,679,668,671,671,669,684,672,722,725,725,730,751,993,1123,1257,1404,1446,1475,1449,1400,1405,1356,1336,1285,1284,1258,1265,1215,1192,1192,1146,1123,1100,1076,1053,1008,1007,984,972,915,809,766,743,730,748,718,726,730,753,737,746,725,744,728,729,742,759,747,754,757,765,738,748,749,766,755,742,745,756,726,738,734,996,1004,1000,1019,1100,1382,1566,1808,1916,1927,1984,1912,1871,1850,1849,1801,1770,1746,1717,1676,1657,1623,1595,1538,1543,1494,1446,1415,1381,1302,1154,1056,1028,1011,1024,1012,1015,1007,967,968,967,969,992,978,977,979,976,992,976,972,975,972,971,980,973,970,978,971,970,977,975,994,975,974,974,503,504,505,506,507,568,749,836,924,1004,1015,998,982,965,950,933,917,900,885,869,852,836,820,804,787,772,755,739,722,707,683,558,545,530,520,509,511,481,431,432,431,433,456,442,441,443,440,461,440,436,439,436,435,444,437,434,442,435,434,441,439,458,439,438,438,667,666,670,670,676,772,1014,1131,1249,1328,1332,1307,1284,1266,1243,1222,1201,1181,1160,1138,1117,1096,1074,1055,1032,1012,991,970,949,931,823,772,719,693,682,673,676,640,590,591,590,592,615,601,600,602,599,620,599,595,598,595,594,603,596,593,601,594,593,600,598,617,598,597,597,0,0,0,0,0,0,0,0,0,0,0,0,0,0,0,0,0,0,0,0,0,0,0,0,0,0,0,0,0,0,0,0,0,0,0,0,0,0,0,0,0,0,0,0,0,0,0,0,0,0,0,0,0,0,0,0,0,0,0,0,0,0,0,0,0,709,711,712,721,731,910,1100,1241,1357,1414,1424,1408,1371,1371,1342,1312,1294,1276,1249,1215,1199,1169,1150,1133,1100,1016,1004,1001,960,948,918,890,784,746,727,719,720,695,649,646,649,651,674,660,659,661,658,679,658,654,657,654,653,662,655,652,660,653,652,659,657,676,657,656,656,681,683,672,673,688,881,1041,1154,1282,1346,1346,1334,1285,1288,1277,1221,1203,1181,1160,1141,1137,1096,1098,1057,1055,1013,995,974,970,955,912,787,769,760,680,676,679,641,634,649,641,660,637,656,643,658,652,660,656,667,668,665,665,663,659,658,658,658,653,658,658,658,658,658,658,704,725,712,720,721,846,1131,1256,1367,1425,1436,1418,1396,1381,1357,1326,1300,1285,1254,1199,1197,1194,1166,1142,1087,1094,1072,1051,937,1011,882,832,789,749,737,723,725,724,658,659,658,660,683,669,668,670,667,688,667,663,666,663,662,671,664,661,669,662,661,668,666,685,666,665,665,141,142,142,143,143,146,203,227,251,276,291,286,281,277,272,267,262,258,254,249,244,239,235,231,225,221,216,212,206,202,198,193,188,183,146,143,144,144,136,135,135,135,143,143,135,142,136,138,140,142,140,141,144,155,147,150,139,144,142,146,152,147,151,153,152,890,887,890,900,985,1351,1552,1743,1864,1902,1890,1843,1828,1797,1753,1706,1682,1650,1606,1591,1557,1513,1493,1461,1408,1387,1351,1317,1284,1208,1000,969,945,920,907,891,867,872,845,847,856,854,860,861,856,859,859,860,867,866,864,863,865,861,867,863,862,864,867,862,861,862,866,865,861,1152,1154,1161,1195,1285,1606,1972,2099,2232,2237,2255,2218,2192,2155,2114,2066,2039,2005,1969,1948,1918,1845,1810,1797,1751,1716,1699,1590,1489,1402,1341,1214,1181,1202,1170,1158,1171,1166,1126,1127,1126,1128,1151,1137,1136,1138,1135,1151,1135,1131,1134,1131,1130,1139,1132,1129,1137,1130,1129,1136,1134,1153,1134,1133,1133,996,1004,1000,1019,1100,1382,1566,1808,1916,1927,1984,1912,1871,1850,1849,1801,1770,1746,1717,1676,1657,1623,1595,1538,1543,1494,1446,1415,1381,1302,1154,1056,1028,1011,1024,1012,1015,1007,967,968,967,969,992,978,977,979,976,992,976,972,975,972,971,980,973,970,978,971,970,977,975,994,975,974,974,1119,1117,1128,1136,1232,1601,1918,2099,2205,2237,2216,2166,2136,2093,2057,2038,1969,1943,1923,1894,1842,1827,1787,1744,1706,1669,1628,1527,1476,1323,1288,1197,1170,1137,1145,1137,1138,1118,1099,1099,1103,1105,1107,1112,1109,1127,1111,1124,1113,1111,1106,1110,1109,1129,1127,1113,1113,1107,1105,1111,1113,1117,1107,1118,1110,375,377,378,379,380,501,568,633,712,770,763,751,739,727,715,701,690,691,666,654,651,637,617,612,596,584,568,556,543,532,520,507,493,400,385,380,381,369,339,343,341,348,346,350,346,349,347,345,349,349,341,345,344,350,348,346,346,344,343,346,346,348,343,348,344,518,495,492,499,499,646,764,852,940,1001,995,980,963,948,950,916,900,900,869,853,843,834,806,804,778,763,743,727,711,705,679,667,531,517,505,502,504,504,479,479,479,479,479,479,479,479,479,479,479,479,479,479,479,479,479,479,479,479,479,479,479,479,479,479,479,756,750,760,756,767,1011,1172,1308,1432,1487,1508,1477,1455,1430,1407,1385,1357,1342,1314,1299,1268,1233,1217,1197,1160,1133,1119,1082,1079,1033,954,855,821,811,759,760,763,753,687,687,688,693,689,695,691,694,692,690,694,693,688,690,691,695,693,693,691,691,690,691,693,693,690,693,691,0,0,0,0,0,0,0,0,0,0,0,0,0,0,0,0,0,0,0,0,0,0,0,0,0,0,0,0,0,0,0,0,0,0,0,0,0,0,0,0,0,0,0,0,0,0,0,0,0,0,0,0,0,0,0,0,0,0,0,0,0,0,0,0,0,408,409,410,411,413,506,605,669,734,786,796,784,772,741,748,722,729,695,700,688,677,665,653,641,629,617,606,597,581,569,544,545,513,416,417,430,414,415,397,395,397,398,402,404,399,405,396,400,403,399,402,405,405,407,408,406,399,410,405,409,407,408,408,406,405,627,628,630,634,634,869,951,1085,1203,1269,1255,1233,1217,1194,1177,1149,1136,1127,1097,1019,1065,1044,1012,1003,986,960,936,914,895,881,856,730,644,629,641,637,604,611,600,602,605,619,608,613,612,619,612,609,615,615,608,609,612,620,615,613,611,613,609,610,613,614,609,617,614,785,787,796,792,813,1029,1238,1383,1513,1562,1580,1549,1525,1497,1473,1449,1428,1407,1387,1359,1329,1307,1274,1253,1215,1187,1172,1133,1129,954,999,889,851,825,813,796,800,801,738,738,739,744,740,746,742,745,743,741,745,744,739,741,742,746,744,744,742,742,741,742,744,744,741,744,742,915,918,934,938,981,1270,1476,1647,1768,1838,1828,1799,1800,1728,1721,1682,1682,1624,1596,1565,1536,1507,1478,1450,1421,1415,1346,1333,1315,1274,1227,1030,959,959,945,942,911,914,894,895,907,914,918,886,911,923,915,905,928,925,922,929,951,944,924,895,925,918,915,941,911,924,919,921,916,1105,1108,1111,1120,1186,1622,1856,2046,2149,2197,2171,2122,2091,2067,2031,1988,1961,1936,1889,1790,1832,1787,1744,1731,1689,1652,1614,1567,1534,1317,1275,1169,1143,1117,1115,1121,1114,1088,1095,1098,1088,1092,1109,1113,1109,1112,1110,1108,1112,1112,1104,1108,1107,1113,1111,1109,1109,1107,1105,1109,1109,1111,1106,1111,1107,1119,1117,1128,1136,1232,1601,1918,2099,2205,2237,2216,2166,2136,2093,2057,2038,1969,1943,1923,1894,1842,1827,1787,1744,1706,1669,1628,1527,1476,1323,1288,1197,1170,1137,1145,1137,1138,1118,1099,1099,1103,1105,1107,1112,1109,1127,1111,1124,1113,1111,1106,1110,1109,1129,1127,1113,1113,1107,1105,1111,1113,1117,1107,1118,1110,1220,1222,1214,1251,1337,1831,2097,2265,2377,2408,2408,2356,2316,2268,2218,2200,2167,2129,2092,2054,2028,1989,1939,1904,1873,1817,1750,1631,1493,1491,1329,1318,1289,1263,1270,1245,1227,1228,1174,1174,1174,1174,1174,1174,1174,1174,1174,1174,1174,1174,1174,1174,1174,1174,1174,1174,1174,1174,1174,1174,1174,1174,1174,1174,1174,532,530,534,534,541,638,808,903,993,1064,1069,1057,1036,1021,1003,987,971,954,932,916,901,883,868,845,833,818,796,781,752,735,655,665,620,568,548,538,539,491,453,453,453,453,453,453,453,453,453,453,453,453,453,453,453,453,453,453,453,453,453,453,453,453,453,453,453,647,650,658,660,667,837,1020,1142,1245,1303,1299,1281,1252,1241,1220,1195,1179,1159,1134,1115,1092,1087,1054,1030,1008,992,972,948,931,910,724,850,693,674,666,665,667,650,612,612,612,612,612,612,612,612,612,612,612,612,612,612,612,612,612,612,612,612,612,612,612,612,612,612,612,658,653,653,653,676,794,1018,1150,1233,1297,1322,1298,1275,1256,1226,1214,1205,1177,1149,1128,1104,1102,1066,1041,1027,990,986,960,941,865,898,726,704,674,682,670,694,661,610,610,610,610,610,610,610,610,610,610,610,610,610,610,610,610,610,610,610,610,610,610,610,610,610,610,610,321,322,311,326,313,333,461,515,574,620,631,620,634,600,589,579,570,559,549,539,528,519,508,498,488,478,468,458,468,438,428,417,334,409,399,314,315,315,297,290,290,295,292,298,293,296,291,296,297,294,295,299,297,304,300,299,299,299,303,301,302,305,298,306,299,0,0,0,0,0,0,0,0,0,0,0,0,0,0,0,0,0,0,0,0,0,0,0,0,0,0,0,0,0,0,0,0,0,0,0,0,0,0,0,0,0,0,0,0,0,0,0,0,0,0,0,0,0,0,0,0,0,0,0,0,0,0,0,0,0,783,782,764,789,829,1011,1228,1380,1491,1556,1552,1532,1448,1478,1456,1434,1407,1384,1325,1331,1308,1254,1263,1232,1214,1190,1161,1137,1101,1081,955,893,846,813,800,761,796,752,712,712,712,712,712,712,712,712,712,712,712,712,712,712,712,712,712,712,712,712,712,712,712,712,712,712,712,693,689,689,689,728,861,1081,1225,1313,1372,1396,1369,1347,1325,1294,1280,1258,1241,1211,1190,1164,1161,1124,1098,1086,1043,1039,1012,992,964,871,765,742,710,708,703,706,706,644,644,644,644,644,644,644,644,644,644,644,644,644,644,644,644,644,644,644,644,644,644,644,644,644,644,644,808,811,813,812,822,1010,1245,1376,1541,1570,1560,1560,1521,1499,1476,1451,1427,1394,1377,1356,1333,1307,1290,1256,1234,1210,1186,1161,1142,1070,1046,1000,852,832,823,823,804,757,734,737,737,745,750,736,747,738,746,742,734,739,741,748,753,753,740,742,739,748,751,749,747,766,744,749,746,1254,1260,1240,1296,1415,1813,2182,2327,2422,2458,2440,2410,2334,2320,2289,2262,2223,2172,2119,2089,2051,2002,1983,1933,1902,1864,1819,1644,1548,1392,1379,1364,1334,1286,1274,1273,1280,1247,1207,1207,1207,1207,1207,1207,1207,1207,1207,1207,1207,1207,1207,1207,1207,1207,1207,1207,1207,1207,1207,1207,1207,1207,1207,1207,1207,1220,1222,1214,1251,1337,1831,2097,2265,2377,2408,2408,2356,2316,2268,2218,2200,2167,2129,2092,2054,2028,1989,1939,1904,1873,1817,1750,1631,1493,1491,1329,1318,1289,1263,1270,1245,1227,1228,1174,1174,1174,1174,1174,1174,1174,1174,1174,1174,1174,1174,1174,1174,1174,1174,1174,1174,1174,1174,1174,1174,1174,1174,1174,1174,1174,587,561,563,563,575,772,853,981,1085,1120,1127,1160,1089,1073,1056,1037,1019,998,983,965,948,927,911,869,873,855,839,819,828,785,767,750,731,584,555,567,553,571,555,559,563,581,566,574,557,566,562,553,569,567,578,582,581,580,565,575,575,581,580,570,573,582,558,569,567,431,432,433,435,448,557,661,735,810,869,878,864,850,836,820,807,793,779,764,752,736,722,708,694,680,666,651,637,624,610,598,587,573,511,450,447,448,444,397,403,401,409,409,411,405,417,403,435,411,435,408,412,438,439,416,417,419,421,420,418,418,419,411,413,410,423,423,402,403,405,524,641,674,743,843,807,839,781,811,798,743,730,717,705,731,679,666,653,641,628,616,602,589,559,547,535,441,454,443,432,429,430,431,424,409,410,410,435,432,422,417,420,423,439,441,450,448,440,432,442,435,439,438,447,450,432,439,455,460,439,793,794,791,800,843,1086,1290,1425,1538,1586,1574,1558,1533,1501,1482,1464,1435,1409,1381,1359,1343,1314,1289,1264,1245,1206,1195,1122,1098,1073,980,961,840,821,830,805,806,782,771,781,788,778,782,783,778,784,780,798,784,785,785,787,794,799,795,792,804,791,797,795,819,800,797,799,795,816,819,838,834,851,1124,1354,1494,1586,1625,1641,1614,1604,1544,1513,1525,1471,1466,1437,1395,1415,1341,1311,1288,1259,1230,1210,1217,1174,1106,1078,942,889,842,859,828,830,811,769,773,771,782,789,786,786,789,786,809,786,815,786,798,825,825,795,796,797,802,804,797,795,793,789,786,783,929,947,954,958,998,1236,1555,1700,1835,1876,1873,1809,1775,1777,1752,1718,1681,1621,1598,1604,1574,1515,1505,1480,1454,1428,1389,1356,1325,1250,1168,1029,992,1003,945,950,965,922,868,878,878,891,888,891,882,890,880,914,890,911,886,892,916,915,894,897,901,901,900,896,897,894,885,887,884,0,0,0,0,0,0,0,0,0,0,0,0,0,0,0,0,0,0,0,0,0,0,0,0,0,0,0,0,0,0,0,0,0,0,0,0,0,0,0,0,0,0,0,0,0,0,0,0,0,0,0,0,0,0,0,0,0,0,0,0,0,0,0,0,0,828,830,833,836,884,1168,1358,1501,1613,1660,1645,1629,1602,1569,1551,1530,1498,1472,1443,1420,1402,1373,1348,1321,1300,1260,1225,1164,1139,1068,1031,895,877,857,866,841,843,825,812,813,818,822,826,827,822,826,824,842,828,829,830,832,837,843,856,838,845,836,838,841,864,847,839,842,838,1449,1477,1486,1590,1961,2395,2708,2880,2974,3013,2977,2902,2876,2771,2758,2699,2671,2638,2521,2498,2396,2423,2346,2339,2230,2045,1955,1692,1699,1627,1628,1563,1540,1529,1472,1459,1485,1467,1465,1473,1470,1483,1479,1499,1499,1483,1485,1499,1489,1491,1496,1505,1509,1510,1500,1504,1509,1517,1518,1503,1494,1505,1501,1504,1500,477,478,480,481,486,649,734,862,905,954,961,946,931,916,900,885,932,854,839,825,809,794,778,763,748,766,751,752,719,750,656,641,625,499,488,507,578,554,492,495,496,546,490,505,503,542,507,507,507,497,504,496,500,504,501,501,505,501,504,496,500,505,501,561,551,587,561,563,563,575,772,853,981,1085,1120,1127,1160,1089,1073,1056,1037,1019,998,983,965,948,927,911,869,873,855,839,819,828,785,767,750,731,584,555,567,553,571,555,559,563,581,566,574,557,566,562,553,569,567,578,582,581,580,565,575,575,581,580,570,573,582,558,569,567,1051,1056,1044,1065,1157,1491,1735,1925,2073,2061,2077,2054,2033,1964,1922,1886,1852,1832,1788,1734,1722,1706,1675,1624,1626,1576,1507,1493,1387,1314,1141,1128,1088,1097,1062,1065,1057,1086,1023,1023,1023,1023,1023,1023,1023,1023,1023,1023,1023,1023,1023,1023,1023,1023,1023,1023,1023,1023,1023,1023,1023,1023,1023,1023,1023,558,559,561,563,564,684,833,980,1066,1120,1125,1112,1090,1076,1053,1036,1017,999,984,963,946,928,909,893,874,855,841,819,801,786,763,715,612,597,570,566,568,539,487,487,487,487,487,487,487,487,487,487,487,487,487,487,487,487,487,487,487,487,487,487,487,487,487,487,487,720,722,725,726,733,831,1098,1292,1391,1438,1438,1420,1392,1377,1345,1324,1301,1278,1259,1236,1213,1186,1166,1144,1118,1098,1077,1049,1027,981,901,876,786,749,736,730,733,698,646,646,646,646,646,646,646,646,646,646,646,646,646,646,646,646,646,646,646,646,646,646,646,646,646,646,646,156,157,157,193,193,199,224,250,276,302,319,314,309,304,299,293,289,283,279,273,269,264,258,254,248,244,238,234,228,223,218,213,209,203,199,194,194,195,145,145,145,145,145,145,145,145,145,145,145,145,145,145,145,145,145,145,145,145,145,145,145,145,145,145,145,764,767,768,780,788,973,1191,1386,1493,1535,1537,1516,1490,1476,1457,1415,1391,1367,1339,1306,1293,1259,1244,1220,1188,1101,1146,1053,1038,1017,993,870,841,802,781,782,774,759,705,705,705,705,705,705,705,705,705,705,705,705,705,705,705,705,705,705,705,705,705,705,705,705,705,705,705,737,739,726,740,745,940,1129,1272,1396,1460,1460,1437,1418,1365,1369,1357,1323,1276,1281,1235,1232,1208,1189,1142,1118,1118,1094,1050,1031,1026,912,864,836,764,749,733,754,721,706,704,707,709,708,709,709,709,710,710,709,709,709,709,709,709,709,709,709,709,709,709,709,709,709,709,709,760,787,780,786,778,1025,1224,1349,1506,1551,1545,1525,1501,1462,1428,1412,1387,1363,1354,1297,1289,1265,1258,1210,1176,1181,1130,1117,1018,1079,976,832,830,806,787,780,782,782,714,714,714,714,714,714,714,714,714,714,714,714,714,714,714,714,714,714,714,714,714,714,714,714,714,714,714,0,0,0,0,0,0,0,0,0,0,0,0,0,0,0,0,0,0,0,0,0,0,0,0,0,0,0,0,0,0,0,0,0,0,0,0,0,0,0,0,0,0,0,0,0,0,0,0,0,0,0,0,0,0,0,0,0,0,0,0,0,0,0,0,0,987,1008,1017,1026,1130,1458,1738,1956,2075,2093,2083,2048,2010,1974,1932,1900,1863,1826,1789,1755,1716,1678,1643,1611,1564,1523,1493,1459,1420,1208,1190,1066,1041,1016,1007,999,976,981,983,983,983,983,983,983,983,983,983,983,983,983,983,983,983,983,983,983,983,983,983,983,983,983,983,983,983,1226,1224,1229,1245,1335,1730,2056,2192,2358,2393,2377,2327,2299,2224,2180,2145,2112,2074,2074,1978,1959,1932,1908,1851,1833,1803,1733,1652,1595,1427,1313,1286,1258,1253,1213,1234,1216,1245,1182,1182,1182,1182,1182,1182,1182,1182,1182,1182,1182,1182,1182,1182,1182,1182,1182,1182,1182,1182,1182,1182,1182,1182,1182,1182,1182,1051,1056,1044,1065,1157,1491,1735,1925,2073,2061,2077,2054,2033,1964,1922,1886,1852,1832,1788,1734,1722,1706,1675,1624,1626,1576,1507,1493,1387,1314,1141,1128,1088,1097,1062,1065,1057,1086,1023,1023,1023,1023,1023,1023,1023,1023,1023,1023,1023,1023,1023,1023,1023,1023,1023,1023,1023,1023,1023,1023,1023,1023,1023,1023,1023,1440,1445,1464,1612,2115,2685,3123,3289,3410,3426,3389,3309,3242,3150,3084,3035,2942,2896,2806,2744,2660,2598,2527,2306,2218,2171,2133,1889,1828,1672,1606,1546,1515,1479,1468,1471,1493,1516,1529,1556,1541,1556,1557,1554,1552,1561,1561,1558,1565,1557,1559,1558,1556,1562,1556,1556,1558,1561,1557,1555,1558,1558,1556,1559,1554,1162,1164,1176,1261,1417,1797,2124,2315,2397,2423,2401,2359,2369,2274,2232,2198,2152,2147,2115,2077,2023,1943,1901,1860,1817,1782,1739,1707,1537,1417,1338,1256,1223,1194,1181,1173,1143,1162,1151,1148,1176,1181,1161,1181,1171,1178,1171,1173,1175,1174,1167,1184,1173,1187,1191,1191,1177,1186,1188,1191,1179,1173,1170,1187,1175,1289,1279,1305,1374,1626,2000,2375,2544,2656,2698,2625,2614,2588,2531,2464,2412,2412,2341,2314,2267,2220,2180,2129,2079,2043,1976,1930,1855,1601,1553,1413,1398,1338,1324,1307,1305,1302,1315,1306,1302,1311,1311,1313,1340,1317,1324,1320,1323,1328,1333,1326,1343,1331,1338,1337,1337,1336,1345,1334,1350,1337,1332,1329,1342,1334,881,906,922,899,946,1325,1506,1709,1864,1918,1890,1842,1808,1775,1756,1709,1675,1655,1623,1576,1597,1525,1476,1443,1425,1376,1343,1309,1290,1269,1068,1000,973,926,896,919,898,900,907,907,916,927,914,933,914,927,917,922,927,925,926,925,922,928,931,928,927,931,927,927,928,937,928,934,933,917,892,881,894,978,1274,1469,1596,1731,1778,1747,1718,1690,1684,1634,1631,1578,1550,1545,1534,1466,1439,1411,1383,1373,1327,1316,1271,1243,1215,1086,996,929,906,891,889,879,882,875,883,894,912,897,903,892,911,890,893,897,896,895,905,914,952,918,912,915,906,915,908,893,895,905,906,893,809,813,848,820,861,1019,1304,1459,1552,1634,1588,1564,1538,1514,1518,1489,1472,1414,1388,1363,1363,1312,1287,1262,1240,1216,1215,1205,1143,1052,1034,934,862,866,853,832,794,794,792,789,790,794,803,795,804,808,799,812,809,809,810,803,795,804,808,813,802,805,795,802,799,812,821,824,797,1404,1418,1434,1530,1768,2280,2589,2779,2867,2887,2858,2804,2755,2708,2661,2612,2567,2525,2492,2420,2380,2323,2273,2224,2173,2057,1848,1794,1742,1592,1548,1514,1475,1449,1436,1413,1387,1389,1389,1388,1403,1408,1393,1408,1398,1405,1398,1400,1402,1401,1394,1411,1400,1414,1418,1418,1408,1413,1415,1418,1406,1400,1397,1414,1402,917,951,963,938,990,1361,1599,1785,1927,2006,1962,1927,1877,1857,1823,1774,1739,1705,1684,1635,1656,1582,1532,1498,1479,1428,1394,1359,1304,1287,1056,1013,971,982,932,940,936,941,959,966,967,978,969,972,968,974,974,973,969,979,978,973,978,976,976,980,976,977,976,975,980,990,983,985,973,0,0,0,0,0,0,0,0,0,0,0,0,0,0,0,0,0,0,0,0,0,0,0,0,0,0,0,0,0,0,0,0,0,0,0,0,0,0,0,0,0,0,0,0,0,0,0,0,0,0,0,0,0,0,0,0,0,0,0,0,0,0,0,0,0,1445,1438,1517,1607,2139,2601,3008,3208,3345,3337,3302,3213,3191,3140,3061,2981,2911,2854,2754,2688,2608,2563,2486,2453,2354,2240,2152,1951,1819,1649,1606,1551,1511,1469,1454,1459,1475,1495,1519,1501,1519,1525,1526,1528,1525,1531,1530,1527,1534,1526,1528,1527,1525,1531,1525,1525,1527,1530,1526,1524,1527,1527,1525,1528,1523,1440,1445,1464,1612,2115,2685,3123,3289,3410,3426,3389,3309,3242,3150,3084,3035,2942,2896,2806,2744,2660,2598,2527,2306,2218,2171,2133,1889,1828,1672,1606,1546,1515,1479,1468,1471,1493,1516,1529,1556,1541,1556,1557,1554,1552,1561,1561,1558,1565,1557,1559,1558,1556,1562,1556,1556,1558,1561,1557,1555,1558,1558,1556,1559,1554,364,365,366,368,369,481,540,600,660,719,730,718,707,696,684,673,662,650,639,628,616,605,594,581,570,559,547,536,525,513,502,491,479,468,457,369,370,371,353,354,355,355,357,356,360,360,360,360,361,362,363,365,365,367,366,366,369,368,368,368,366,374,364,369,369,786,789,804,797,840,1098,1287,1397,1524,1585,1593,1567,1520,1511,1469,1475,1420,1399,1369,1320,1320,1322,1297,1272,1272,1245,1210,1177,1118,982,959,910,833,840,801,798,801,796,784,785,784,795,798,803,794,803,794,797,792,796,789,794,796,802,801,804,800,801,806,803,812,823,818,807,803,737,738,729,731,811,995,1172,1301,1406,1447,1445,1442,1399,1392,1354,1331,1307,1315,1261,1249,1243,1192,1197,1173,1145,1115,1102,1079,1031,1003,1013,957,902,756,759,735,737,749,725,739,747,752,742,748,744,750,748,752,745,750,748,753,757,780,759,752,752,749,754,746,751,768,746,751,747,1152,1161,1166,1196,1327,1687,1954,2133,2234,2290,2279,2251,2206,2177,2159,2099,2072,2041,2005,1967,1924,1886,1861,1814,1777,1704,1668,1614,1490,1471,1376,1260,1215,1188,1190,1177,1152,1132,1149,1149,1135,1138,1135,1138,1148,1151,1159,1146,1137,1144,1144,1163,1164,1178,1148,1155,1159,1162,1156,1173,1169,1159,1164,1178,1161,1179,1166,1164,1176,1454,1724,1961,2128,2273,2291,2258,2216,2177,2196,2117,2117,2071,2029,1953,1942,1934,1892,1878,1826,1789,1742,1727,1658,1599,1328,1331,1292,1210,1188,1179,1171,1168,1168,1153,1155,1157,1175,1172,1182,1165,1186,1167,1171,1172,1173,1174,1181,1182,1180,1179,1182,1181,1184,1184,1179,1186,1196,1177,1179,1175,1324,1313,1328,1370,1591,1985,2266,2435,2509,2568,2567,2519,2499,2444,2399,2346,2316,2281,2251,2204,2160,2125,2060,2048,1993,1960,1912,1659,1697,1579,1462,1433,1384,1348,1335,1339,1279,1267,1258,1262,1266,1274,1277,1279,1266,1280,1272,1275,1268,1273,1268,1272,1272,1279,1280,1286,1280,1280,1283,1281,1287,1296,1291,1280,1276,626,628,602,615,641,830,983,1093,1149,1194,1219,1178,1181,1184,1142,1102,1133,1113,1093,1064,1052,988,999,969,949,930,910,892,897,870,812,794,774,646,678,607,621,622,615,613,620,630,635,633,623,629,631,624,634,639,635,637,641,642,631,635,637,638,634,648,640,639,642,636,631,1188,1197,1203,1238,1382,1755,2030,2207,2307,2361,2348,2319,2273,2248,2222,2162,2135,2102,2064,2026,1982,1943,1911,1868,1784,1746,1709,1628,1504,1510,1345,1273,1251,1224,1226,1214,1195,1173,1181,1179,1179,1182,1179,1182,1190,1195,1203,1190,1181,1189,1189,1206,1208,1239,1194,1196,1204,1203,1202,1225,1216,1201,1207,1221,1204,1475,1476,1524,1703,2385,2829,3155,3302,3380,3369,3456,3230,3193,3095,3080,2960,2913,2876,2763,2690,2643,2575,2488,2439,2331,2249,1896,1852,1704,1649,1594,1541,1513,1474,1469,1509,1559,1547,1610,1612,1627,1651,1625,1649,1627,1630,1627,1639,1670,1637,1674,1724,1737,1733,1756,1745,1634,1646,1657,1656,1648,1653,1643,1692,1668,0,0,0,0,0,0,0,0,0,0,0,0,0,0,0,0,0,0,0,0,0,0,0,0,0,0,0,0,0,0,0,0,0,0,0,0,0,0,0,0,0,0,0,0,0,0,0,0,0,0,0,0,0,0,0,0,0,0,0,0,0,0,0,0,0,364,365,366,368,369,481,540,600,660,719,730,718,707,696,684,673,662,650,639,628,616,605,594,581,570,559,547,536,525,513,502,491,479,468,457,369,370,371,353,354,355,355,357,356,360,360,360,360,361,362,363,365,365,367,366,366,369,368,368,368,366,374,364,369,369,0,0,0,0,0,0,0,0,0,0,0,0,0,0,0,0,0,0,0,0,0,0,0,0,0,0,0,0,0,0,0,0,0,0,0,0,0,0,0,0,0,0,0,0,0,0,0,0,0,0,0,0,0,0,0,0,0,0,0,0,0,0,0,0,0,746,750,751,753,814,1049,1180,1322,1456,1501,1496,1470,1446,1422,1397,1377,1353,1324,1306,1280,1257,1228,1208,1191,1161,1142,1113,1097,1065,1041,1017,894,793,784,759,758,758,709,706,704,704,718,721,753,731,735,732,721,754,727,716,718,727,739,720,723,728,723,722,718,722,730,722,721,710,837,844,845,850,983,1197,1344,1506,1637,1658,1654,1643,1616,1590,1562,1535,1514,1486,1455,1431,1405,1378,1351,1326,1299,1272,1246,1206,1193,1169,1103,1049,889,869,857,854,847,823,820,825,826,835,834,853,841,849,846,832,853,838,837,840,841,852,831,860,842,862,858,839,859,842,832,844,833,1056,1059,1063,1102,1197,1458,1775,1935,2041,2136,2128,2059,2037,1992,1959,1927,1900,1857,1837,1804,1760,1727,1737,1671,1632,1609,1533,1491,1467,1286,1163,1135,1112,1088,1097,1094,1075,1045,1051,1053,1041,1053,1053,1050,1060,1047,1049,1052,1058,1044,1055,1056,1058,1050,1055,1069,1051,1056,1044,1055,1054,1054,1054,1054,1054,1137,1146,1154,1185,1330,1736,1958,2123,2212,2231,2279,2194,2190,2115,2106,2062,2014,1977,1946,1923,1869,1834,1822,1764,1765,1704,1710,1593,1546,1444,1298,1226,1183,1176,1165,1165,1125,1083,1077,1075,1075,1098,1096,1133,1102,1118,1106,1096,1135,1104,1102,1106,1113,1118,1099,1102,1109,1106,1101,1095,1097,1107,1095,1093,1082,1239,1228,1251,1285,1462,1923,2094,2290,2381,2407,2413,2354,2337,2273,2242,2191,2168,2144,2115,2082,2037,1989,1952,1912,1882,1853,1810,1739,1491,1498,1341,1341,1291,1290,1250,1259,1236,1183,1179,1181,1181,1197,1201,1229,1203,1212,1211,1200,1231,1204,1196,1197,1203,1217,1200,1206,1208,1202,1200,1197,1198,1203,1196,1194,1183,731,720,722,733,767,1024,1158,1311,1365,1462,1452,1457,1391,1382,1339,1344,1339,1287,1279,1207,1228,1209,1158,1148,1131,1103,1085,1045,1045,950,928,810,801,763,749,749,747,691,691,693,693,728,726,730,737,739,743,734,733,758,706,710,728,733,705,731,716,715,711,710,709,719,706,715,704,1092,1090,1099,1140,1196,1553,1851,2010,2115,2207,2197,2130,2105,2059,2029,1990,1963,1918,1898,1863,1819,1784,1787,1719,1683,1607,1575,1532,1416,1241,1200,1172,1149,1124,1134,1131,1118,1086,1083,1083,1085,1097,1097,1094,1102,1091,1093,1096,1102,1089,1100,1099,1102,1111,1101,1110,1096,1097,1090,1100,1101,1101,1101,1101,1101,1554,1547,1629,1755,2424,2965,3298,3414,3480,3495,3473,3419,3348,3286,3221,3133,3087,3044,2962,2917,2861,2656,2671,2484,2349,2259,2165,1981,1818,1763,1734,1643,1581,1535,1541,1539,1557,1578,1688,1674,1699,1710,1753,1729,1735,1751,1730,1757,1764,1755,1768,1764,1747,1755,1767,1771,1764,1784,1753,1762,1759,1759,1759,1759,1759,324,311,312,313,314,408,460,514,567,617,629,647,642,599,589,579,569,559,550,540,530,544,509,499,489,479,469,459,449,458,449,420,427,327,407,329,330,316,315,311,318,324,321,318,313,315,322,326,331,320,322,355,359,410,359,331,318,325,318,319,313,325,321,331,315,0,0,0,0,0,0,0,0,0,0,0,0,0,0,0,0,0,0,0,0,0,0,0,0,0,0,0,0,0,0,0,0,0,0,0,0,0,0,0,0,0,0,0,0,0,0,0,0,0,0,0,0,0,0,0,0,0,0,0,0,0,0,0,0,0 ]);
