n = 10;
D = [184,115,250,208,107,255,68,99,221,236 ];
q = 0;
prec = array2d(1..0,1..2,[]);
steps = 64;
l = 360;
r = 0;
which = [];
interval = array2d(1..0,1..2,[]);
T = array3d(1..11,1..11,0..64,[0,0,0,0,0,0,0,0,0,0,0,0,0,0,0,0,0,0,0,0,0,0,0,0,0,0,0,0,0,0,0,0,0,0,0,0,0,0,0,0,0,0,0,0,0,0,0,0,0,0,0,0,0,0,0,0,0,0,0,0,0,0,0,0,0,408,410,411,420,414,447,507,566,619,673,672,668,659,649,638,621,616,605,594,576,566,555,551,540,529,518,502,497,487,475,464,449,442,431,414,425,417,415,408,403,404,403,416,419,417,418,411,429,422,411,417,409,410,420,417,415,419,408,408,415,417,422,419,439,419,937,1003,923,933,1035,1073,1272,1376,1518,1551,1460,1593,1441,1475,1395,1371,1336,1300,1297,1275,1253,1354,1230,1156,1155,1135,1111,1096,1064,1051,1017,995,949,967,974,949,938,936,939,980,939,942,966,947,954,962,959,962,975,957,973,961,968,970,977,983,975,981,1007,967,988,996,1014,991,983,1290,1356,1301,1393,1510,1623,1879,2086,2049,2104,2109,2135,2103,2123,1932,1877,1835,1876,1829,1746,1835,1832,1677,1645,1591,1635,1550,1549,1537,1447,1494,1356,1324,1322,1330,1321,1315,1375,1395,1373,1387,1386,1387,1404,1396,1397,1401,1413,1440,1420,1426,1432,1432,1443,1428,1434,1424,1449,1453,1452,1449,1438,1460,1473,1476,863,928,868,875,970,1001,1160,1291,1403,1509,1380,1514,1363,1435,1319,1331,1297,1227,1225,1178,1183,1262,1138,1090,1120,1071,1049,1035,1004,992,959,944,893,892,899,873,882,906,911,861,856,858,883,891,885,877,885,896,930,897,909,916,919,917,890,909,930,937,957,958,905,905,950,905,907,668,611,672,631,645,750,817,902,960,1044,1015,998,994,983,972,967,927,941,937,902,862,882,845,870,815,799,808,735,713,727,717,700,678,675,622,650,651,664,649,644,647,647,646,641,648,646,649,645,645,646,652,653,655,654,652,651,653,653,655,663,654,662,652,651,657,1106,1135,1120,1142,1225,1460,1654,1737,1943,1820,1875,1834,1746,1703,1879,1664,1636,1619,1579,1571,1499,1538,1525,1435,1462,1388,1330,1301,1331,1279,1251,1193,1186,1138,1191,1151,1250,1172,1182,1202,1200,1215,1231,1210,1208,1244,1210,1214,1218,1200,1214,1223,1239,1241,1310,1317,1246,1230,1231,1222,1213,1218,1236,1256,1218,1142,1209,1150,1229,1331,1429,1679,1854,1854,1912,1913,1941,1808,1784,1749,1696,1656,1701,1654,1573,1631,1544,1510,1480,1473,1476,1391,1393,1383,1295,1355,1207,1176,1174,1182,1179,1167,1166,1222,1213,1205,1218,1221,1241,1222,1231,1236,1379,1226,1219,1226,1228,1241,1200,1222,1236,1222,1243,1203,1210,1233,1229,1211,1221,1206,380,368,369,373,374,412,466,520,574,620,630,599,610,600,574,580,554,560,535,540,530,520,510,500,474,464,470,448,432,425,430,420,410,400,377,375,376,388,364,365,365,365,366,366,370,369,371,371,370,372,372,373,374,376,377,379,377,378,378,379,383,381,381,380,381,1274,1278,1288,1359,1461,1589,1836,1980,2111,2098,2085,2021,2059,1931,1993,1885,1834,1802,1814,1754,1747,1773,1706,1730,1638,1559,1531,1558,1467,1434,1402,1403,1417,1315,1301,1311,1302,1319,1389,1381,1365,1384,1372,1410,1379,1382,1415,1464,1391,1403,1407,1404,1402,1410,1417,1402,1386,1392,1384,1396,1398,1403,1397,1394,1374,0,0,0,0,0,0,0,0,0,0,0,0,0,0,0,0,0,0,0,0,0,0,0,0,0,0,0,0,0,0,0,0,0,0,0,0,0,0,0,0,0,0,0,0,0,0,0,0,0,0,0,0,0,0,0,0,0,0,0,0,0,0,0,0,0,316,317,318,319,320,339,384,429,474,516,553,520,535,526,518,509,477,469,461,452,444,435,427,418,410,401,412,403,376,368,359,351,342,334,325,321,322,323,310,308,310,314,324,327,318,337,332,328,333,326,322,316,317,327,318,316,324,326,315,322,320,326,319,326,319,0,0,0,0,0,0,0,0,0,0,0,0,0,0,0,0,0,0,0,0,0,0,0,0,0,0,0,0,0,0,0,0,0,0,0,0,0,0,0,0,0,0,0,0,0,0,0,0,0,0,0,0,0,0,0,0,0,0,0,0,0,0,0,0,0,659,659,663,665,679,748,869,963,1051,1064,1097,1049,1033,1016,1029,1119,1031,950,930,917,897,944,882,851,831,875,801,785,768,743,788,739,702,686,672,669,671,686,679,671,683,674,694,718,678,679,686,698,699,695,695,702,700,700,694,694,683,700,684,701,701,699,697,698,718,1067,1031,1121,1144,1285,1284,1561,1652,1593,1686,1622,1597,1573,1730,1610,1690,1537,1614,1422,1449,1420,1519,1322,1413,1319,1328,1271,1300,1220,1164,1182,1168,1118,1179,1110,1108,1047,1100,1113,1110,1110,1130,1112,1111,1126,1136,1127,1144,1149,1128,1119,1120,1137,1127,1135,1147,1133,1154,1161,1137,1143,1139,1142,1129,1118,605,604,608,610,619,682,795,882,934,981,984,968,991,937,922,1015,956,876,857,845,826,875,789,784,765,810,738,722,707,683,729,661,646,630,617,614,640,630,609,622,609,626,625,632,619,622,628,619,616,621,615,618,617,616,622,626,623,618,618,624,624,644,631,640,626,528,530,532,534,554,590,684,758,831,883,886,870,847,833,831,818,804,792,776,750,736,721,721,708,733,720,650,638,624,610,594,610,598,554,541,568,538,539,539,545,544,544,552,552,553,549,550,555,550,552,560,561,561,552,552,565,559,561,562,554,563,557,556,555,549,931,966,979,993,977,1124,1233,1367,1569,1607,1557,1453,1468,1412,1388,1360,1355,1353,1290,1371,1243,1219,1247,1251,1153,1126,1102,1079,1056,1047,1009,985,962,1029,968,924,980,997,962,961,1006,1272,1014,947,996,1090,1030,968,1066,1040,988,996,1073,1050,1046,954,989,980,1028,1028,971,1007,976,980,996,920,883,926,934,942,1100,1312,1344,1438,1492,1428,1445,1384,1455,1339,1373,1358,1339,1244,1276,1249,1288,1149,1289,1155,1167,1136,1155,1064,1010,1031,1019,971,976,963,960,899,952,945,939,942,946,936,947,942,940,957,1035,947,958,967,968,977,980,991,976,963,968,966,974,974,971,969,983,977,449,449,452,454,457,493,558,625,688,736,743,731,717,705,698,684,672,661,649,642,625,613,602,590,578,567,553,541,531,520,508,496,484,475,461,459,461,457,450,455,450,462,527,498,491,514,471,537,498,531,496,468,477,498,481,472,515,493,471,500,486,529,499,494,478,1192,1228,1190,1250,1379,1576,1843,1953,2016,2081,2040,2066,1948,1937,1956,1846,1806,1867,1739,1782,1690,1626,1644,1633,1527,1473,1483,1418,1384,1353,1333,1297,1247,1244,1227,1210,1301,1216,1296,1288,1284,1290,1285,1309,1357,1358,1295,1323,1311,1294,1297,1336,1346,1361,1359,1334,1344,1356,1365,1343,1319,1329,1304,1309,1302,316,317,318,319,320,339,384,429,474,516,553,520,535,526,518,509,477,469,461,452,444,435,427,418,410,401,412,403,376,368,359,351,342,334,325,321,322,323,310,308,310,314,324,327,318,337,332,328,333,326,322,316,317,327,318,316,324,326,315,322,320,326,319,326,319,895,873,917,918,935,1052,1258,1350,1481,1467,1505,1431,1417,1380,1368,1379,1320,1300,1276,1234,1227,1204,1211,1169,1168,1109,1085,1052,1071,1022,979,960,955,925,899,899,901,903,923,927,925,936,937,942,931,954,925,937,930,931,930,958,946,945,939,952,945,939,950,957,936,946,925,940,934,604,606,608,619,623,683,774,865,949,992,997,995,965,963,933,917,902,886,882,854,838,822,806,801,774,758,753,727,711,704,679,663,647,631,618,614,615,617,611,614,611,622,611,609,613,614,616,608,611,610,615,611,614,616,617,618,613,617,614,622,615,629,616,619,618,0,0,0,0,0,0,0,0,0,0,0,0,0,0,0,0,0,0,0,0,0,0,0,0,0,0,0,0,0,0,0,0,0,0,0,0,0,0,0,0,0,0,0,0,0,0,0,0,0,0,0,0,0,0,0,0,0,0,0,0,0,0,0,0,0,534,535,537,538,542,581,649,718,786,833,842,829,817,805,792,780,767,755,743,730,718,706,693,681,669,656,644,632,619,607,595,582,570,557,546,541,542,544,539,541,544,541,548,561,554,546,547,545,549,548,548,549,554,562,555,571,554,561,559,548,549,545,563,556,545,174,175,175,176,176,181,204,228,251,275,290,286,281,277,272,267,263,258,254,249,245,240,235,231,226,222,217,213,208,203,199,194,190,185,181,177,177,178,162,163,163,163,163,163,165,164,165,165,164,165,165,166,165,166,167,169,166,166,166,169,171,170,167,167,167,737,722,716,743,787,866,957,1044,1089,1173,1197,1178,1145,1091,1119,1106,1123,1046,1054,1009,1011,976,965,923,903,916,897,850,842,831,822,776,774,762,749,722,750,751,728,766,720,717,743,722,735,744,739,762,769,737,736,749,755,751,738,762,755,753,774,730,751,754,775,735,733,1387,1378,1393,1461,1589,1742,1952,2083,2200,2227,2189,2128,2119,2035,2011,1967,1933,1899,1910,1858,1813,1820,1751,1710,1716,1667,1588,1643,1526,1531,1471,1449,1413,1424,1362,1432,1443,1425,1474,1466,1465,1478,1465,1484,1470,1472,1499,1551,1474,1496,1502,1504,1493,1504,1520,1494,1481,1488,1491,1514,1493,1498,1509,1509,1491,387,388,390,391,392,419,474,529,584,633,643,633,623,613,602,592,582,572,561,551,541,531,521,510,500,490,480,469,459,449,439,429,418,408,398,393,394,395,389,389,391,386,385,385,395,394,384,387,393,388,388,389,392,387,392,388,391,392,389,384,393,388,392,391,393,662,665,667,669,688,757,857,957,1044,1086,1089,1072,1054,1035,1068,1002,983,968,979,933,916,899,881,864,847,829,812,795,776,769,741,725,708,691,710,672,675,677,676,671,668,675,690,689,683,707,700,712,697,702,699,693,685,701,694,712,720,691,691,729,693,705,694,691,687,996,999,1039,1092,1199,1267,1560,1644,1725,1744,1738,1804,1676,1645,1610,1583,1552,1521,1490,1459,1429,1396,1448,1334,1297,1266,1293,1210,1179,1168,1111,1078,1120,1027,1016,1007,1087,1025,1057,1067,1062,1110,1111,1083,1060,1074,1077,1128,1161,1116,1161,1120,1123,1080,1143,1108,1097,1134,1223,1147,1119,1107,1166,1185,1111,895,873,917,918,935,1052,1258,1350,1481,1467,1505,1431,1417,1380,1368,1379,1320,1300,1276,1234,1227,1204,1211,1169,1168,1109,1085,1052,1071,1022,979,960,955,925,899,899,901,903,923,927,925,936,937,942,931,954,925,937,930,931,930,958,946,945,939,952,945,939,950,957,936,946,925,940,934,1363,1391,1399,1462,1522,1767,1950,2087,2253,2145,2140,2104,2048,2057,2060,1988,1923,1899,1893,1880,1797,1785,1728,1706,1731,1606,1607,1564,1513,1500,1421,1432,1428,1395,1372,1368,1340,1376,1398,1403,1421,1434,1417,1437,1417,1434,1414,1437,1442,1430,1429,1445,1448,1457,1447,1448,1432,1448,1457,1448,1448,1436,1433,1468,1457,1086,1120,1061,1085,1124,1306,1465,1602,1791,1663,1690,1637,1611,1628,1601,1573,1546,1519,1491,1476,1437,1383,1382,1355,1365,1265,1352,1250,1185,1249,1132,1136,1118,1096,1082,1070,1043,1076,1088,1105,1101,1113,1146,1151,1134,1152,1112,1153,1135,1159,1128,1124,1143,1166,1143,1147,1150,1154,1143,1141,1134,1145,1139,1142,1115,573,575,577,591,586,636,719,802,903,930,943,928,930,898,900,868,853,838,823,808,794,779,764,749,735,719,716,690,675,659,644,629,625,600,599,594,584,585,577,579,590,601,608,609,587,614,586,629,602,614,601,595,613,630,609,599,616,603,603,613,608,621,594,600,594,0,0,0,0,0,0,0,0,0,0,0,0,0,0,0,0,0,0,0,0,0,0,0,0,0,0,0,0,0,0,0,0,0,0,0,0,0,0,0,0,0,0,0,0,0,0,0,0,0,0,0,0,0,0,0,0,0,0,0,0,0,0,0,0,0,561,563,564,566,558,623,705,788,868,887,927,913,898,883,868,853,839,824,809,794,780,765,750,735,725,706,691,681,662,647,632,617,602,588,575,569,555,573,555,601,559,560,563,557,561,568,572,591,587,560,563,567,579,571,575,584,572,575,587,563,587,588,600,573,572,1162,1197,1170,1218,1305,1501,1680,1832,1880,1840,1840,1824,1808,1822,1764,1772,1734,1698,1676,1648,1584,1537,1534,1511,1480,1390,1458,1369,1321,1332,1255,1272,1246,1227,1183,1208,1168,1211,1234,1231,1237,1290,1248,1267,1244,1246,1246,1241,1280,1249,1261,1266,1254,1265,1268,1275,1249,1248,1260,1252,1251,1257,1250,1280,1249,1247,1250,1257,1315,1514,1968,2081,2247,2311,2323,2304,2259,2214,2169,2124,2090,2034,1989,1944,1898,1853,1808,1763,1718,1683,1628,1583,1538,1493,1572,1402,1357,1314,1290,1273,1275,1285,1303,1330,1380,1335,1352,1364,1357,1352,1364,1361,1353,1374,1351,1359,1368,1364,1371,1379,1392,1384,1386,1420,1368,1387,1411,1410,1395,1382,362,363,364,365,366,383,433,483,532,579,599,589,580,570,561,552,542,533,523,514,505,495,486,476,467,458,448,439,429,420,411,401,392,382,373,367,368,369,362,366,362,366,369,369,369,371,366,364,369,368,362,368,369,371,369,368,371,366,370,370,368,373,363,369,368,1113,1162,1120,1152,1198,1392,1562,1694,1893,1751,1766,1723,1697,1711,1684,1656,1627,1598,1622,1541,1512,1446,1455,1426,1426,1334,1340,1316,1250,1254,1193,1270,1168,1198,1142,1130,1102,1136,1144,1160,1158,1175,1169,1156,1161,1170,1173,1168,1191,1165,1166,1176,1176,1182,1180,1200,1192,1187,1202,1175,1198,1229,1226,1210,1203,1248,1251,1330,1345,1497,1749,2004,2145,2263,2388,2433,2168,2127,2086,2045,2134,1963,2008,1902,1923,1789,1792,1726,1675,1634,1678,1552,1511,1470,1437,1463,1407,1327,1282,1274,1275,1326,1290,1346,1334,1342,1359,1357,1379,1353,1366,1352,1383,1399,1373,1380,1373,1383,1409,1388,1380,1380,1392,1390,1405,1392,1388,1394,1407,1406,1363,1391,1399,1462,1522,1767,1950,2087,2253,2145,2140,2104,2048,2057,2060,1988,1923,1899,1893,1880,1797,1785,1728,1706,1731,1606,1607,1564,1513,1500,1421,1432,1428,1395,1372,1368,1340,1376,1398,1403,1421,1434,1417,1437,1417,1434,1414,1437,1442,1430,1429,1445,1448,1457,1447,1448,1432,1448,1457,1448,1448,1436,1433,1468,1457,864,832,846,843,871,984,1100,1208,1332,1361,1400,1343,1303,1275,1278,1277,1231,1212,1210,1145,1138,1110,1107,1081,1083,1054,1002,978,978,945,926,879,857,895,856,834,837,838,855,832,837,836,845,859,844,853,850,863,877,875,867,876,875,886,870,878,873,878,884,894,886,882,888,902,896,549,551,554,547,555,606,687,767,846,891,896,882,867,853,839,825,810,796,782,767,753,739,725,721,696,682,667,653,639,624,610,596,582,567,562,550,552,553,549,553,596,850,606,536,587,679,615,559,655,629,575,585,657,637,624,542,565,565,606,607,546,584,567,563,569,172,173,173,174,174,178,200,222,244,266,280,275,271,267,263,258,254,250,246,242,237,233,229,225,220,216,212,208,203,199,195,191,186,182,178,174,175,175,166,162,162,162,164,164,165,166,166,171,169,173,174,170,169,173,167,167,170,171,174,179,174,175,181,175,175,491,492,493,495,497,530,592,653,715,762,771,767,748,737,726,715,703,692,681,670,658,647,636,625,614,602,591,580,569,563,546,535,529,513,502,497,498,500,487,493,491,506,493,496,491,506,493,492,494,490,491,496,494,495,495,499,493,499,501,502,492,503,492,501,494,0,0,0,0,0,0,0,0,0,0,0,0,0,0,0,0,0,0,0,0,0,0,0,0,0,0,0,0,0,0,0,0,0,0,0,0,0,0,0,0,0,0,0,0,0,0,0,0,0,0,0,0,0,0,0,0,0,0,0,0,0,0,0,0,0,674,676,653,655,699,737,877,966,1016,1095,1097,1076,1043,1032,1037,978,961,957,927,910,932,876,884,841,849,810,805,777,788,775,737,710,689,685,663,659,661,663,656,645,647,647,657,655,657,655,657,662,672,668,672,671,671,674,677,674,675,684,691,690,682,679,700,692,698,1291,1293,1392,1360,1490,1681,1845,2011,2111,2052,2093,2058,2027,2030,1935,1927,1867,1882,1801,1812,1776,1727,1698,1710,1619,1572,1590,1544,1465,1441,1441,1373,1325,1325,1330,1328,1312,1338,1365,1360,1366,1407,1368,1410,1376,1378,1376,1373,1406,1378,1388,1389,1392,1409,1419,1397,1375,1390,1386,1395,1379,1383,1384,1418,1380,344,345,346,347,348,370,419,467,515,562,572,563,554,545,536,526,517,508,499,490,481,472,463,454,445,436,427,418,408,399,390,382,372,363,354,349,350,351,341,345,345,350,351,349,357,350,343,355,348,346,351,354,350,351,372,358,350,351,350,345,353,351,349,353,345,601,603,625,606,618,679,768,858,939,985,989,973,957,939,926,910,892,877,863,847,831,816,827,784,794,751,762,767,743,690,710,657,643,626,612,608,612,613,634,617,622,615,622,621,668,647,611,614,632,637,629,616,618,623,618,626,624,625,618,617,610,623,629,630,606,889,891,887,890,968,1196,1287,1540,1544,1582,1599,1642,1516,1488,1556,1508,1478,1359,1321,1398,1376,1260,1232,1203,1157,1142,1113,1089,1061,1028,1004,992,967,920,906,887,916,904,915,950,908,909,931,919,921,928,925,940,945,920,935,928,936,937,942,947,938,944,971,936,946,948,965,945,938,864,832,846,843,871,984,1100,1208,1332,1361,1400,1343,1303,1275,1278,1277,1231,1212,1210,1145,1138,1110,1107,1081,1083,1054,1002,978,978,945,926,879,857,895,856,834,837,838,855,832,837,836,845,859,844,853,850,863,877,875,867,876,875,886,870,878,873,878,884,894,886,882,888,902,896,575,582,567,569,578,653,751,837,903,907,906,926,920,866,853,839,864,834,799,785,782,737,731,767,718,737,690,708,675,691,657,641,610,596,601,582,594,591,586,593,588,608,646,622,614,642,608,648,636,651,638,619,626,642,621,609,641,614,608,619,622,641,625,628,617,557,558,558,562,570,623,712,779,890,889,885,873,863,853,841,824,811,798,784,771,761,745,735,718,711,695,684,668,652,642,652,615,602,589,567,565,566,567,564,579,568,583,584,588,575,595,575,578,576,572,572,584,583,584,580,582,583,577,594,593,576,588,572,586,579,771,762,783,766,794,892,999,1119,1210,1212,1203,1207,1189,1146,1125,1107,1143,1107,1047,1035,1088,1053,1056,992,947,1012,922,915,875,859,866,828,809,792,784,776,772,780,784,764,767,769,795,797,807,800,787,812,794,781,794,775,776,789,789,779,793,774,771,790,787,804,794,799,792,1233,1134,1243,1162,1295,1449,1559,1766,1837,1853,1813,1816,1751,1675,1646,1620,1669,1642,1537,1516,1560,1523,1511,1506,1388,1421,1449,1310,1324,1265,1238,1218,1225,1279,1159,1195,1186,1252,1248,1259,1215,1212,1256,1236,1245,1252,1249,1251,1303,1257,1264,1282,1277,1275,1260,1281,1288,1294,1323,1275,1273,1282,1327,1267,1260,741,707,728,736,733,824,922,1035,1126,1130,1122,1096,1080,1105,1048,1067,1068,1005,1009,964,1019,985,1020,925,882,925,859,859,814,799,786,771,778,761,753,720,716,724,726,731,726,737,741,740,751,760,738,741,746,752,747,745,748,754,744,739,746,748,744,738,737,751,738,743,729,0,0,0,0,0,0,0,0,0,0,0,0,0,0,0,0,0,0,0,0,0,0,0,0,0,0,0,0,0,0,0,0,0,0,0,0,0,0,0,0,0,0,0,0,0,0,0,0,0,0,0,0,0,0,0,0,0,0,0,0,0,0,0,0,0,1518,1491,1583,1603,1745,2030,2191,2269,2354,2329,2298,2339,2231,2246,2160,2252,2089,2056,2020,2037,1952,1918,1893,1872,1955,1785,1751,1738,1741,1736,1631,1559,1571,1546,1490,1490,1511,1549,1648,1609,1617,1643,1624,1656,1624,1629,1662,1728,1641,1657,1709,1700,1711,1750,1713,1664,1649,1659,1697,1754,1770,1810,1793,1709,1672,1097,987,1163,1004,1123,1260,1356,1560,1641,1658,1620,1627,1562,1488,1462,1437,1489,1464,1360,1342,1388,1347,1344,1335,1224,1259,1260,1152,1169,1106,1087,1063,1078,1061,1012,1046,1037,1046,1059,1062,1047,1158,1087,1061,1069,1093,1065,1066,1072,1078,1081,1068,1057,1065,1069,1078,1068,1072,1063,1068,1061,1073,1074,1070,1049,245,246,247,247,248,258,295,320,346,372,365,375,361,365,360,355,350,345,340,335,360,325,320,316,311,306,301,296,291,286,281,276,271,266,251,248,249,249,236,234,235,236,238,235,236,238,235,234,236,236,238,238,239,239,238,239,239,238,239,240,236,239,240,240,239,884,879,888,912,952,1070,1200,1322,1399,1524,1420,1398,1377,1356,1334,1312,1290,1269,1247,1233,1204,1183,1173,1136,1118,1096,1075,1053,1039,1013,987,954,935,910,890,898,902,926,898,915,913,921,944,920,921,952,919,925,927,909,921,930,946,948,1098,1043,952,935,936,928,915,915,930,947,912,575,582,567,569,578,653,751,837,903,907,906,926,920,866,853,839,864,834,799,785,782,737,731,767,718,737,690,708,675,691,657,641,610,596,601,582,594,591,586,593,588,608,646,622,614,642,608,648,636,651,638,619,626,642,621,609,641,614,608,619,622,641,625,628,617,1170,1166,1171,1302,1412,1455,1670,1778,1877,1943,2052,1879,1812,1814,1801,1722,1743,1692,1711,1636,1629,1542,1543,1649,1452,1422,1392,1362,1341,1350,1356,1243,1217,1224,1179,1180,1315,1183,1268,1246,1237,1253,1260,1305,1314,1318,1279,1313,1276,1262,1260,1306,1312,1304,1309,1330,1314,1333,1306,1292,1297,1287,1266,1269,1250,935,938,941,1052,1106,1123,1268,1409,1491,1566,1650,1537,1474,1483,1426,1401,1377,1353,1362,1304,1295,1255,1263,1308,1182,1158,1134,1106,1085,1061,1118,1012,988,1002,964,961,1033,954,999,970,969,984,993,1012,983,1019,1007,1057,1016,982,1003,983,1012,1003,1004,984,1009,994,985,996,1005,1024,1001,1027,1000,1361,1364,1367,1438,1593,1772,1983,2087,2168,2193,2163,2133,2114,2078,2066,1988,1972,1940,1922,1865,1830,1825,1774,1736,1715,1641,1699,1572,1539,1505,1495,1441,1411,1393,1383,1373,1382,1382,1458,1455,1453,1470,1478,1468,1457,1483,1453,1475,1463,1467,1459,1532,1482,1473,1512,1486,1472,1472,1484,1502,1467,1476,1461,1478,1466,960,963,961,974,1072,1276,1526,1726,1823,1850,1832,1790,1753,1717,1680,1644,1613,1684,1540,1503,1462,1425,1389,1352,1316,1280,1243,1211,1170,1134,1101,1065,1024,994,978,980,984,995,1023,1027,1022,1108,1087,1059,1046,1036,1047,1077,1054,1054,1065,1045,1024,1031,1038,1059,1057,1036,1053,1067,1046,1038,1062,1032,1029,1321,1294,1354,1425,1490,1689,1867,2005,2087,2114,2085,2093,2018,2003,1964,1915,1900,1871,1827,1797,1762,1734,1788,1679,1681,1579,1624,1512,1508,1448,1444,1386,1355,1337,1358,1319,1370,1326,1402,1394,1409,1421,1410,1407,1415,1411,1412,1422,1425,1414,1445,1451,1474,1447,1443,1425,1409,1424,1414,1410,1412,1425,1415,1433,1412,1398,1383,1390,1619,1701,1905,2047,2124,2215,2314,2203,2198,2131,2152,2086,2035,2072,1995,1989,1934,1921,1859,1811,1781,1794,1727,1646,1608,1639,1665,1614,1481,1457,1544,1405,1435,1480,1410,1560,1548,1524,1542,1542,1583,1550,1559,1579,1640,1568,1587,1586,1591,1579,1619,1588,1564,1557,1566,1570,1585,1579,1598,1587,1585,1548,0,0,0,0,0,0,0,0,0,0,0,0,0,0,0,0,0,0,0,0,0,0,0,0,0,0,0,0,0,0,0,0,0,0,0,0,0,0,0,0,0,0,0,0,0,0,0,0,0,0,0,0,0,0,0,0,0,0,0,0,0,0,0,0,0,1136,1139,1141,1180,1316,1505,1733,1866,2010,1999,1930,1966,1918,1862,1807,1800,1752,1738,1707,1731,1664,1592,1583,1569,1528,1489,1447,1428,1396,1326,1286,1245,1205,1171,1173,1158,1185,1174,1235,1214,1205,1221,1229,1272,1284,1287,1248,1273,1245,1231,1228,1275,1281,1275,1277,1298,1285,1303,1276,1260,1266,1253,1233,1234,1216,1336,1359,1352,1505,1600,1756,1888,2016,2124,2175,2150,2065,2030,2065,2001,1974,1919,1896,1880,1835,1818,1773,1740,1665,1706,1638,1617,1559,1525,1493,1518,1403,1440,1404,1364,1356,1424,1366,1461,1445,1450,1452,1486,1506,1478,1494,1499,1524,1499,1540,1545,1524,1479,1510,1506,1498,1516,1491,1528,1601,1568,1574,1583,1526,1518,1696,1736,1741,1934,2329,2809,3027,3148,3263,3213,3161,3093,3026,3047,2930,2824,2757,2734,2623,2606,2488,2421,2354,2328,2275,2152,2085,2088,1950,1945,1809,1752,1767,1692,1667,1744,1735,1712,1889,1900,1903,1925,1957,1970,1935,1957,1958,1978,1998,2000,1999,2029,2027,2045,2052,2045,2060,2078,2078,2078,2096,2099,2113,2123,2139,1170,1166,1171,1302,1412,1455,1670,1778,1877,1943,2052,1879,1812,1814,1801,1722,1743,1692,1711,1636,1629,1542,1543,1649,1452,1422,1392,1362,1341,1350,1356,1243,1217,1224,1179,1180,1315,1183,1268,1246,1237,1253,1260,1305,1314,1318,1279,1313,1276,1262,1260,1306,1312,1304,1309,1330,1314,1333,1306,1292,1297,1287,1266,1269,1250,1127,1128,1142,1155,1278,1436,1570,1748,1836,1872,1858,1819,1763,1748,1705,1693,1676,1666,1604,1556,1540,1517,1459,1454,1413,1382,1401,1335,1336,1279,1227,1222,1181,1146,1144,1166,1182,1154,1205,1202,1197,1202,1231,1282,1216,1246,1244,1259,1265,1267,1261,1265,1241,1276,1237,1237,1250,1238,1244,1302,1269,1300,1266,1272,1273,846,849,924,857,902,1001,1134,1264,1362,1430,1382,1395,1338,1329,1294,1272,1262,1228,1206,1184,1162,1140,1117,1095,1073,1062,1029,1033,985,963,950,919,897,875,885,859,861,863,850,852,863,876,889,888,866,894,866,914,884,897,885,877,894,915,893,883,904,889,889,900,897,913,886,891,885,263,263,264,265,266,276,312,347,382,418,433,427,420,413,406,400,393,386,379,373,366,359,352,346,339,332,325,318,312,305,298,291,285,278,271,266,267,268,247,247,248,248,249,249,250,250,251,251,253,253,254,255,255,256,256,257,257,258,258,259,259,261,261,262,262,334,335,336,337,337,350,387,424,462,498,513,506,499,492,485,478,471,464,457,449,442,435,428,421,414,407,400,393,386,378,371,364,357,350,343,338,339,340,322,318,319,323,323,324,323,325,323,326,326,326,325,327,326,324,326,330,330,331,328,327,331,331,331,331,330,353,355,356,357,358,380,430,480,530,549,587,578,569,559,550,541,531,522,513,503,494,485,475,466,457,447,438,429,420,410,401,392,382,373,364,359,360,361,350,345,353,362,358,356,348,349,357,365,368,357,361,392,408,392,389,366,353,365,354,358,348,364,360,371,354,978,957,984,982,1061,1213,1344,1480,1561,1643,1524,1592,1566,1540,1446,1476,1432,1452,1387,1349,1344,1307,1248,1223,1223,1223,1204,1182,1142,1097,1072,1031,1006,1015,1002,993,986,994,1001,1009,994,1022,1012,1012,1019,1043,1007,1008,1014,1023,1019,1012,1013,1017,1019,1021,1015,1022,1015,1019,1006,1023,1016,1019,1003,1348,1352,1351,1432,1532,1798,1932,2118,2158,2209,2185,2086,2100,2073,2010,2011,1941,1932,1873,1855,1847,1771,1798,1697,1669,1629,1614,1566,1532,1544,1509,1430,1400,1369,1362,1368,1368,1368,1437,1437,1441,1473,1463,1481,1450,1453,1457,1456,1486,1457,1473,1471,1460,1476,1487,1480,1450,1457,1468,1470,1457,1458,1465,1493,1450,0,0,0,0,0,0,0,0,0,0,0,0,0,0,0,0,0,0,0,0,0,0,0,0,0,0,0,0,0,0,0,0,0,0,0,0,0,0,0,0,0,0,0,0,0,0,0,0,0,0,0,0,0,0,0,0,0,0,0,0,0,0,0,0,0,905,908,933,918,972,1082,1258,1359,1475,1550,1473,1447,1426,1402,1427,1356,1387,1338,1285,1262,1236,1215,1190,1168,1192,1121,1096,1074,1051,1027,1002,980,957,935,922,919,960,923,921,919,924,925,928,920,924,936,930,936,939,942,1013,1013,965,940,953,977,983,1047,1043,944,983,1060,1065,1035,974,1144,1237,1150,1205,1345,1561,1788,1932,2035,1984,2059,1972,1931,1901,1866,1815,1781,1793,1805,1743,1640,1618,1610,1551,1512,1475,1435,1397,1358,1320,1281,1242,1204,1176,1166,1262,1203,1220,1225,1239,1236,1256,1292,1304,1288,1307,1276,1321,1298,1280,1294,1273,1302,1319,1307,1285,1304,1287,1289,1304,1303,1309,1294,1322,1295,1127,1128,1142,1155,1278,1436,1570,1748,1836,1872,1858,1819,1763,1748,1705,1693,1676,1666,1604,1556,1540,1517,1459,1454,1413,1382,1401,1335,1336,1279,1227,1222,1181,1146,1144,1166,1182,1154,1205,1202,1197,1202,1231,1282,1216,1246,1244,1259,1265,1267,1261,1265,1241,1276,1237,1237,1250,1238,1244,1302,1269,1300,1266,1272,1273,324,325,326,327,328,348,395,441,487,531,542,533,524,516,507,498,490,481,472,464,455,446,438,429,420,412,403,394,386,377,368,360,351,342,334,329,330,331,320,323,322,322,333,330,339,356,330,339,332,332,331,328,328,341,343,328,334,325,324,332,330,338,330,335,328,413,417,415,420,422,451,511,573,631,694,691,679,671,657,669,630,624,613,602,587,580,566,558,547,536,522,511,500,489,478,467,459,445,435,426,419,456,421,414,420,418,423,433,423,430,424,419,424,418,423,423,432,426,433,472,464,429,430,426,419,420,420,438,431,422,696,698,720,714,741,814,931,1006,1127,1136,1166,1118,1096,1083,1064,1046,1095,1039,1020,971,970,1002,935,927,903,886,839,849,810,786,791,798,755,756,702,726,708,710,713,720,717,730,708,725,724,752,715,721,762,730,763,729,733,739,745,753,739,729,743,741,732,721,714,752,710,1152,1133,1110,1082,1179,1330,1451,1596,1726,1731,1720,1672,1635,1620,1646,1644,1573,1509,1604,1460,1625,1473,1393,1504,1394,1363,1285,1267,1261,1228,1224,1201,1192,1111,1118,1185,1122,1226,1169,1197,1192,1200,1245,1212,1211,1257,1204,1237,1239,1237,1222,1211,1238,1254,1397,1338,1267,1238,1220,1223,1213,1228,1225,1258,1196,641,643,645,639,709,747,827,964,1011,1053,1084,1038,1055,1004,987,970,1028,972,920,933,899,933,899,860,837,822,776,787,749,726,733,720,699,681,646,676,653,654,659,656,674,670,668,690,672,691,689,679,713,685,680,687,685,699,677,676,682,686,677,677,679,689,667,691,689,364,365,352,354,355,378,429,451,539,560,571,567,563,561,557,550,541,533,525,500,534,482,472,446,439,409,454,439,398,407,398,388,379,383,360,370,357,358,356,348,353,354,371,376,351,371,358,351,364,371,362,366,377,400,383,389,357,377,370,381,394,384,394,409,389,1394,1346,1415,1448,1580,1711,1916,2105,2224,2192,2233,2146,2060,2069,2112,1992,1993,1948,1915,1810,1780,1843,1728,1812,1653,1605,1582,1586,1525,1499,1517,1428,1379,1358,1396,1371,1371,1507,1463,1460,1470,1472,1494,1536,1488,1518,1510,1522,1534,1524,1509,1521,1512,1526,1494,1494,1520,1507,1501,1534,1518,1531,1506,1514,1516,957,959,1031,926,1010,1145,1251,1388,1528,1529,1528,1474,1446,1426,1454,1377,1393,1330,1356,1279,1271,1297,1225,1329,1225,1201,1124,1109,1106,1074,1072,1051,985,1032,965,1017,973,939,982,990,989,1003,1029,1020,1008,1020,999,1020,1023,1047,1044,1050,1042,1022,1015,1016,1035,1039,1030,1014,1032,1036,1009,1013,1009,0,0,0,0,0,0,0,0,0,0,0,0,0,0,0,0,0,0,0,0,0,0,0,0,0,0,0,0,0,0,0,0,0,0,0,0,0,0,0,0,0,0,0,0,0,0,0,0,0,0,0,0,0,0,0,0,0,0,0,0,0,0,0,0,0,1044,1102,1049,1072,1131,1257,1424,1561,1652,1701,1693,1666,1639,1612,1585,1558,1531,1504,1477,1502,1423,1396,1369,1359,1316,1317,1262,1235,1215,1181,1154,1127,1100,1094,1064,1059,1061,1064,1116,1105,1097,1184,1162,1154,1139,1127,1145,1185,1152,1185,1189,1176,1121,1130,1156,1162,1166,1141,1182,1236,1176,1168,1197,1153,1153,324,325,326,327,328,348,395,441,487,531,542,533,524,516,507,498,490,481,472,464,455,446,438,429,420,412,403,394,386,377,368,360,351,342,334,329,330,331,320,323,322,322,333,330,339,356,330,339,332,332,331,328,328,341,343,328,334,325,324,332,330,338,330,335,328,1320,1343,1331,1386,1492,1676,1883,2016,2136,2121,2122,2086,2100,2011,1975,1973,1918,1991,1860,1808,1782,1739,1723,1671,1666,1645,1610,1574,1545,1503,1468,1401,1407,1345,1364,1339,1342,1347,1394,1381,1384,1387,1384,1419,1420,1418,1407,1419,1436,1418,1424,1418,1420,1445,1455,1428,1433,1443,1444,1456,1448,1440,1463,1504,1471,1166,1178,1174,1213,1339,1501,1726,1883,1976,2008,2027,1958,1923,1935,1928,1865,1784,1780,1769,1680,1685,1610,1613,1582,1567,1471,1436,1436,1367,1332,1330,1272,1229,1286,1237,1215,1190,1255,1254,1295,1254,1266,1284,1265,1275,1283,1281,1283,1294,1282,1302,1284,1288,1295,1299,1297,1298,1299,1334,1291,1319,1328,1345,1306,1299,944,927,964,937,992,1136,1319,1541,1617,1625,1615,1617,1588,1529,1588,1500,1443,1480,1456,1404,1329,1325,1271,1267,1238,1185,1157,1150,1099,1071,1042,1013,985,958,960,939,943,968,966,974,946,959,965,951,954,971,976,969,988,974,993,975,983,984,965,993,996,980,993,976,990,978,1017,966,966,1296,1340,1325,1361,1485,1717,1969,2111,2179,2267,2159,2133,2086,2102,2023,1977,2000,2003,1895,1959,1795,1785,1722,1724,1668,1668,1577,1567,1508,1486,1459,1399,1359,1337,1325,1360,1321,1334,1402,1414,1406,1467,1455,1450,1440,1437,1443,1475,1451,1464,1463,1467,1433,1444,1429,1453,1459,1429,1450,1468,1444,1434,1449,1426,1422,869,872,906,880,928,1063,1237,1451,1503,1582,1535,1534,1480,1453,1450,1398,1370,1343,1358,1329,1260,1232,1205,1177,1150,1122,1095,1067,1039,1039,984,957,952,903,885,883,888,910,897,891,908,937,908,917,905,919,922,916,932,905,920,950,970,954,943,929,906,936,912,907,904,939,921,938,907,880,883,886,888,969,1043,1166,1338,1392,1429,1414,1392,1368,1347,1335,1312,1293,1272,1237,1225,1193,1180,1187,1126,1112,1083,1067,1052,1022,1017,972,950,929,907,894,905,896,895,894,909,906,923,967,936,928,962,915,954,931,960,927,932,944,969,1074,1014,966,952,934,934,927,947,945,937,919,1742,1707,1797,2086,2432,2831,3096,3205,3253,3242,3210,3209,3065,2999,2933,2859,2793,2734,2671,2594,2528,2469,2402,2437,2270,2223,2225,2071,2004,1932,1870,1810,1773,1858,1729,1747,1764,1778,2062,2054,2061,2101,2122,2119,2090,2106,2113,2156,2119,2149,2159,2180,2146,2137,2152,2148,2125,2115,2152,2193,2132,2144,2170,2141,2114,1149,1261,1191,1191,1305,1572,1735,1914,1985,1984,1968,1945,1899,1918,1842,1796,1791,1727,1721,1704,1625,1616,1555,1521,1506,1508,1419,1440,1350,1315,1318,1246,1212,1185,1205,1247,1172,1185,1243,1244,1254,1358,1277,1248,1280,1318,1273,1276,1281,1282,1276,1266,1271,1276,1274,1262,1266,1260,1271,1280,1253,1276,1257,1262,1252,1039,1037,1045,1083,1139,1268,1415,1556,1600,1665,1675,1610,1587,1629,1568,1553,1515,1500,1450,1428,1408,1381,1365,1336,1313,1296,1248,1221,1194,1200,1160,1114,1087,1084,1052,1050,1095,1060,1087,1055,1066,1065,1119,1105,1075,1082,1077,1091,1143,1133,1126,1129,1145,1131,1158,1133,1110,1149,1164,1142,1135,1130,1168,1190,1146,0,0,0,0,0,0,0,0,0,0,0,0,0,0,0,0,0,0,0,0,0,0,0,0,0,0,0,0,0,0,0,0,0,0,0,0,0,0,0,0,0,0,0,0,0,0,0,0,0,0,0,0,0,0,0,0,0,0,0,0,0,0,0,0,0,1320,1343,1331,1386,1492,1676,1883,2016,2136,2121,2122,2086,2100,2011,1975,1973,1918,1991,1860,1808,1782,1739,1723,1671,1666,1645,1610,1574,1545,1503,1468,1401,1407,1345,1364,1339,1342,1347,1394,1381,1384,1387,1384,1419,1420,1418,1407,1419,1436,1418,1424,1418,1420,1445,1455,1428,1433,1443,1444,1456,1448,1440,1463,1504,1471,0,0,0,0,0,0,0,0,0,0,0,0,0,0,0,0,0,0,0,0,0,0,0,0,0,0,0,0,0,0,0,0,0,0,0,0,0,0,0,0,0,0,0,0,0,0,0,0,0,0,0,0,0,0,0,0,0,0,0,0,0,0,0,0,0,408,410,411,420,414,447,507,566,619,673,672,668,659,649,638,621,616,605,594,576,566,555,551,540,529,518,502,497,487,475,464,449,442,431,414,425,417,415,408,403,404,403,416,419,417,418,411,429,422,411,417,409,410,420,417,415,419,408,408,415,417,422,419,439,419,937,1003,923,933,1035,1073,1272,1376,1518,1551,1460,1593,1441,1475,1395,1371,1336,1300,1297,1275,1253,1354,1230,1156,1155,1135,1111,1096,1064,1051,1017,995,949,967,974,949,938,936,939,980,939,942,966,947,954,962,959,962,975,957,973,961,968,970,977,983,975,981,1007,967,988,996,1014,991,983,1290,1356,1301,1393,1510,1623,1879,2086,2049,2104,2109,2135,2103,2123,1932,1877,1835,1876,1829,1746,1835,1832,1677,1645,1591,1635,1550,1549,1537,1447,1494,1356,1324,1322,1330,1321,1315,1375,1395,1373,1387,1386,1387,1404,1396,1397,1401,1413,1440,1420,1426,1432,1432,1443,1428,1434,1424,1449,1453,1452,1449,1438,1460,1473,1476,863,928,868,875,970,1001,1160,1291,1403,1509,1380,1514,1363,1435,1319,1331,1297,1227,1225,1178,1183,1262,1138,1090,1120,1071,1049,1035,1004,992,959,944,893,892,899,873,882,906,911,861,856,858,883,891,885,877,885,896,930,897,909,916,919,917,890,909,930,937,957,958,905,905,950,905,907,668,611,672,631,645,750,817,902,960,1044,1015,998,994,983,972,967,927,941,937,902,862,882,845,870,815,799,808,735,713,727,717,700,678,675,622,650,651,664,649,644,647,647,646,641,648,646,649,645,645,646,652,653,655,654,652,651,653,653,655,663,654,662,652,651,657,1106,1135,1120,1142,1225,1460,1654,1737,1943,1820,1875,1834,1746,1703,1879,1664,1636,1619,1579,1571,1499,1538,1525,1435,1462,1388,1330,1301,1331,1279,1251,1193,1186,1138,1191,1151,1250,1172,1182,1202,1200,1215,1231,1210,1208,1244,1210,1214,1218,1200,1214,1223,1239,1241,1310,1317,1246,1230,1231,1222,1213,1218,1236,1256,1218,1142,1209,1150,1229,1331,1429,1679,1854,1854,1912,1913,1941,1808,1784,1749,1696,1656,1701,1654,1573,1631,1544,1510,1480,1473,1476,1391,1393,1383,1295,1355,1207,1176,1174,1182,1179,1167,1166,1222,1213,1205,1218,1221,1241,1222,1231,1236,1379,1226,1219,1226,1228,1241,1200,1222,1236,1222,1243,1203,1210,1233,1229,1211,1221,1206,380,368,369,373,374,412,466,520,574,620,630,599,610,600,574,580,554,560,535,540,530,520,510,500,474,464,470,448,432,425,430,420,410,400,377,375,376,388,364,365,365,365,366,366,370,369,371,371,370,372,372,373,374,376,377,379,377,378,378,379,383,381,381,380,381,1274,1278,1288,1359,1461,1589,1836,1980,2111,2098,2085,2021,2059,1931,1993,1885,1834,1802,1814,1754,1747,1773,1706,1730,1638,1559,1531,1558,1467,1434,1402,1403,1417,1315,1301,1311,1302,1319,1389,1381,1365,1384,1372,1410,1379,1382,1415,1464,1391,1403,1407,1404,1402,1410,1417,1402,1386,1392,1384,1396,1398,1403,1397,1394,1374,0,0,0,0,0,0,0,0,0,0,0,0,0,0,0,0,0,0,0,0,0,0,0,0,0,0,0,0,0,0,0,0,0,0,0,0,0,0,0,0,0,0,0,0,0,0,0,0,0,0,0,0,0,0,0,0,0,0,0,0,0,0,0,0,0 ]);
