n = 10;
D = [280,216,149,195,167,180,226,97,201,83 ];
q = 0;
prec = array2d(1..0,1..2,[]);
steps = 64;
l = 360;
r = 0;
which = [];
interval = array2d(1..0,1..2,[]);
T = array3d(1..11,1..11,0..64,[0,0,0,0,0,0,0,0,0,0,0,0,0,0,0,0,0,0,0,0,0,0,0,0,0,0,0,0,0,0,0,0,0,0,0,0,0,0,0,0,0,0,0,0,0,0,0,0,0,0,0,0,0,0,0,0,0,0,0,0,0,0,0,0,0,1134,1152,1159,1172,1381,1806,2112,2301,2393,2428,2407,2364,2321,2281,2250,2206,2157,2081,2073,2034,1995,1948,1881,1839,1795,1755,1714,1697,1647,1385,1308,1260,1196,1170,1153,1171,1172,1159,1149,1149,1149,1149,1149,1149,1149,1149,1149,1149,1149,1149,1149,1149,1149,1149,1149,1149,1149,1149,1149,1149,1149,1149,1149,1149,1149,522,525,525,527,538,620,778,868,958,1035,1067,1036,1019,1010,994,969,959,936,919,903,892,869,857,842,819,816,786,774,758,741,698,617,561,555,550,531,533,524,490,486,485,487,490,487,487,487,487,487,487,487,487,487,487,487,487,487,487,487,487,487,487,487,487,487,487,1006,989,1010,1024,1121,1570,1920,2082,2215,2207,2186,2134,2127,2075,2044,1942,1903,1900,1859,1815,1786,1746,1738,1654,1623,1612,1499,1537,1470,1430,1139,1093,1052,1024,1009,997,994,999,1019,1019,1019,1019,1019,1019,1019,1019,1019,1019,1019,1019,1019,1019,1019,1019,1019,1019,1019,1019,1019,1019,1019,1019,1019,1019,1019,362,364,365,365,393,417,521,605,667,721,744,733,721,708,697,685,673,661,649,637,625,613,601,591,586,575,555,549,538,519,463,427,426,406,394,394,395,380,310,306,305,307,310,307,307,307,307,307,307,307,307,307,307,307,307,307,307,307,307,307,307,307,307,307,307,748,750,743,728,776,987,1170,1320,1406,1494,1448,1413,1451,1393,1403,1386,1354,1332,1270,1249,1257,1221,1211,1163,1143,1140,1120,1029,991,970,826,888,802,788,784,755,770,730,695,691,690,692,695,692,692,692,692,692,692,692,692,692,692,692,692,692,692,692,692,692,692,692,692,692,692,523,525,526,526,538,687,825,872,968,1042,1059,1043,1025,1009,993,975,958,940,924,905,934,871,854,838,820,804,787,770,753,741,612,588,575,547,535,531,532,513,484,484,484,484,483,484,484,484,484,484,484,484,484,484,484,484,484,484,484,484,484,484,484,484,484,484,484,432,433,435,436,446,512,635,709,781,854,866,853,840,827,819,800,787,773,759,745,731,718,704,702,676,667,654,635,621,608,594,517,512,460,455,446,447,423,404,398,398,402,400,404,404,404,404,404,404,404,404,404,404,404,404,404,404,404,404,404,404,404,404,404,404,303,304,305,306,308,386,440,490,541,593,621,611,601,594,584,572,564,552,542,532,522,512,502,492,482,473,463,453,443,433,423,413,403,393,384,309,310,311,286,286,286,286,286,286,286,286,286,286,286,286,286,286,286,286,286,286,286,286,286,286,286,286,286,286,286,468,441,441,443,473,525,680,761,819,914,954,938,943,888,874,904,888,829,813,798,749,727,754,755,684,746,731,642,628,580,490,638,507,495,445,492,503,515,468,468,468,468,468,468,468,468,468,468,468,468,468,468,468,468,468,468,468,468,468,468,468,468,468,468,468,0,0,0,0,0,0,0,0,0,0,0,0,0,0,0,0,0,0,0,0,0,0,0,0,0,0,0,0,0,0,0,0,0,0,0,0,0,0,0,0,0,0,0,0,0,0,0,0,0,0,0,0,0,0,0,0,0,0,0,0,0,0,0,0,0,1030,1032,1035,1063,1197,1647,1980,2144,2260,2275,2272,2251,2209,2148,2123,2080,2037,1967,1950,1907,1863,1859,1777,1714,1690,1695,1637,1560,1516,1408,1170,1122,1087,1056,1062,1068,1062,1062,1084,1087,1090,1096,1098,1110,1098,1113,1096,1116,1120,1109,1107,1119,1112,1124,1120,1121,1106,1117,1123,1119,1118,1112,1107,1124,1115,0,0,0,0,0,0,0,0,0,0,0,0,0,0,0,0,0,0,0,0,0,0,0,0,0,0,0,0,0,0,0,0,0,0,0,0,0,0,0,0,0,0,0,0,0,0,0,0,0,0,0,0,0,0,0,0,0,0,0,0,0,0,0,0,0,1258,1250,1276,1325,1527,2047,2323,2465,2537,2556,2559,2527,2479,2438,2436,2362,2312,2265,2263,2175,2135,2088,2039,2059,1949,1907,1920,1818,1669,1499,1450,1355,1330,1285,1267,1228,1206,1215,1233,1230,1245,1243,1249,1257,1294,1278,1254,1274,1268,1256,1267,1274,1273,1266,1308,1280,1266,1263,1270,1269,1266,1280,1275,1289,1270,496,498,499,501,506,658,731,804,876,928,937,1009,962,949,937,871,858,844,831,818,805,792,778,765,752,739,726,711,698,685,672,658,612,517,507,503,504,505,496,497,499,504,515,500,498,504,500,499,506,519,577,506,560,555,582,566,518,506,510,507,514,504,503,501,497,1189,1211,1222,1287,1517,1979,2281,2461,2582,2580,2578,2526,2479,2439,2381,2337,2286,2241,2193,2151,2106,2108,2008,1955,1916,1925,1868,1761,1717,1407,1363,1303,1269,1242,1237,1173,1169,1173,1201,1192,1198,1189,1216,1226,1205,1205,1209,1222,1244,1240,1240,1240,1228,1246,1239,1235,1235,1245,1244,1240,1248,1229,1240,1242,1231,1044,1026,1047,1070,1199,1647,1954,2050,2165,2274,2194,2154,2113,2152,2071,1998,1960,1917,1918,1838,1798,1758,1720,1742,1639,1602,1622,1550,1482,1490,1333,1225,1105,1057,1038,1036,1034,1044,1058,1055,1072,1069,1074,1084,1106,1104,1078,1107,1123,1089,1092,1108,1099,1082,1124,1099,1097,1112,1108,1113,1115,1119,1100,1114,1095,979,989,1002,1011,1122,1445,1680,1829,1921,1961,1938,1906,1888,1844,1873,1839,1777,1720,1725,1669,1628,1597,1566,1602,1534,1494,1505,1452,1383,1104,1077,1055,1027,1008,996,1029,999,1024,1019,1016,1024,1019,1023,1024,1026,1030,1026,1020,1054,1031,1042,1058,1048,1046,1041,1031,1036,1050,1045,1037,1036,1050,1025,1048,1035,972,982,968,966,1125,1507,1759,1949,2073,2103,2089,2060,2015,1993,1937,1917,1857,1855,1801,1763,1700,1717,1674,1582,1543,1576,1516,1424,1419,1330,1124,1106,1035,976,981,1013,972,995,1008,1013,1010,1017,1022,1015,1015,1036,1006,1018,1011,1011,1017,1041,1027,1023,1041,1021,1020,1020,1035,1029,1013,1020,1020,1024,1017,1129,1144,1134,1197,1422,1857,2159,2346,2465,2468,2464,2416,2373,2334,2279,2234,2186,2140,2092,2054,2005,2008,1918,1864,1819,1830,1776,1678,1641,1463,1299,1235,1199,1186,1150,1163,1145,1155,1182,1178,1174,1176,1195,1208,1183,1184,1189,1202,1219,1219,1219,1221,1210,1226,1219,1212,1217,1227,1221,1232,1219,1210,1220,1222,1211,1350,1308,1344,1413,1892,2224,2589,2735,2845,2839,2846,2809,2708,2654,2633,2579,2535,2451,2385,2332,2279,2255,2171,2117,2064,2089,1991,1837,1791,1481,1447,1403,1371,1327,1328,1332,1320,1403,1419,1414,1412,1427,1423,1424,1413,1418,1424,1426,1430,1425,1425,1423,1416,1428,1424,1425,1417,1429,1427,1423,1428,1416,1428,1430,1419,1030,1032,1035,1063,1197,1647,1980,2144,2260,2275,2272,2251,2209,2148,2123,2080,2037,1967,1950,1907,1863,1859,1777,1714,1690,1695,1637,1560,1516,1408,1170,1122,1087,1056,1062,1068,1062,1062,1084,1087,1090,1096,1098,1110,1098,1113,1096,1116,1120,1109,1107,1119,1112,1124,1120,1121,1106,1117,1123,1119,1118,1112,1107,1124,1115,530,531,533,534,548,624,810,893,982,1043,1049,1032,1016,998,984,968,950,936,919,903,885,870,854,838,821,808,789,773,756,743,661,646,632,552,540,538,539,530,435,435,435,435,435,435,435,435,435,435,435,435,435,435,435,435,435,435,435,435,435,435,435,435,435,435,435,1265,1281,1255,1276,1504,2007,2303,2479,2604,2635,2631,2582,2528,2477,2452,2396,2354,2270,2255,2177,2168,2111,2061,2030,1980,1933,1885,1732,1630,1426,1399,1359,1319,1296,1274,1272,1278,1315,1245,1245,1245,1245,1245,1245,1245,1245,1245,1245,1245,1245,1245,1245,1245,1245,1245,1245,1245,1245,1245,1245,1245,1245,1245,1245,1245,0,0,0,0,0,0,0,0,0,0,0,0,0,0,0,0,0,0,0,0,0,0,0,0,0,0,0,0,0,0,0,0,0,0,0,0,0,0,0,0,0,0,0,0,0,0,0,0,0,0,0,0,0,0,0,0,0,0,0,0,0,0,0,0,0,1265,1251,1258,1333,1630,1956,2414,2570,2685,2692,2680,2633,2584,2531,2481,2447,2380,2329,2291,2239,2180,2130,2080,2025,1993,1953,1875,1814,1700,1466,1411,1368,1324,1315,1281,1300,1291,1315,1214,1214,1214,1214,1214,1214,1214,1214,1214,1214,1214,1214,1214,1214,1214,1214,1214,1214,1214,1214,1214,1214,1214,1214,1214,1214,1214,308,308,310,340,341,371,447,498,551,604,633,624,614,604,593,583,573,564,553,543,533,521,513,501,492,482,472,462,452,441,428,419,386,354,345,342,341,343,225,225,225,225,225,225,225,225,225,225,225,225,225,225,225,225,225,225,225,225,225,225,225,225,225,225,225,294,306,286,287,287,326,435,480,506,550,595,591,581,569,579,561,540,503,540,487,479,493,489,491,460,446,450,452,442,418,422,412,402,335,320,288,289,298,252,252,252,252,252,252,252,252,252,252,252,252,252,252,252,252,252,252,252,252,252,252,252,252,252,252,252,459,460,462,462,456,501,647,718,788,856,882,869,854,841,826,815,803,788,775,761,748,735,721,708,695,683,670,654,641,629,614,540,493,490,474,467,474,449,348,348,348,348,348,348,348,348,348,348,348,348,348,348,348,348,348,348,348,348,348,348,348,348,348,348,348,531,533,534,536,555,621,799,891,984,1056,1077,1060,1043,1026,1009,993,974,957,941,924,907,890,872,856,839,816,798,788,770,748,735,636,653,575,567,555,556,548,441,441,441,441,441,441,441,441,441,441,441,441,441,441,441,441,441,441,441,441,441,441,441,441,441,441,441,270,270,271,272,273,295,393,436,479,523,537,529,521,512,504,496,488,479,471,464,455,447,438,431,422,415,405,398,389,382,317,309,303,296,289,280,285,286,180,180,180,180,180,180,180,180,180,180,180,180,180,180,180,180,180,180,180,180,180,180,180,180,180,180,180,797,811,801,806,841,910,1285,1441,1532,1608,1575,1574,1556,1523,1481,1524,1438,1406,1389,1373,1378,1303,1297,1257,1176,1210,1188,1130,1097,977,890,857,846,820,816,824,817,845,762,762,762,762,762,762,762,762,762,762,762,762,762,762,762,762,762,762,762,762,762,762,762,762,762,762,762,530,531,533,534,548,624,810,893,982,1043,1049,1032,1016,998,984,968,950,936,919,903,885,870,854,838,821,808,789,773,756,743,661,646,632,552,540,538,539,530,435,435,435,435,435,435,435,435,435,435,435,435,435,435,435,435,435,435,435,435,435,435,435,435,435,435,435,930,930,932,930,960,1309,1575,1807,2046,2049,1999,1985,1956,1904,1853,1832,1799,1782,1718,1705,1646,1608,1569,1551,1512,1474,1443,1397,1358,1320,1161,1023,985,946,944,945,930,948,943,934,944,942,954,931,952,953,958,962,950,956,959,966,963,958,964,947,958,964,962,967,965,967,967,967,966,538,539,540,545,552,729,816,892,982,1021,1030,1006,1005,976,962,947,947,1006,903,894,873,859,844,842,815,799,785,771,755,745,727,716,711,558,548,549,546,547,542,546,548,546,548,548,548,548,548,548,548,548,548,548,548,548,548,548,548,548,548,548,548,548,548,548,548,1208,1210,1240,1246,1322,1805,2158,2389,2581,2596,2540,2499,2479,2431,2360,2312,2294,2244,2194,2151,2101,2091,2011,1965,1917,1871,1857,1777,1626,1495,1397,1310,1283,1241,1233,1218,1211,1218,1227,1219,1199,1196,1249,1223,1228,1229,1224,1239,1261,1247,1262,1266,1267,1270,1259,1258,1258,1265,1265,1265,1265,1265,1265,1265,1265,0,0,0,0,0,0,0,0,0,0,0,0,0,0,0,0,0,0,0,0,0,0,0,0,0,0,0,0,0,0,0,0,0,0,0,0,0,0,0,0,0,0,0,0,0,0,0,0,0,0,0,0,0,0,0,0,0,0,0,0,0,0,0,0,0,1078,1076,1105,1121,1163,1582,1918,2142,2345,2356,2307,2264,2242,2203,2136,2091,2075,2031,1991,1949,1911,1868,1822,1772,1739,1696,1687,1602,1566,1516,1251,1198,1153,1128,1117,1100,1049,1053,1047,1039,1057,1063,1070,1065,1062,1078,1056,1074,1081,1089,1090,1086,1087,1090,1088,1079,1090,1085,1085,1085,1085,1085,1085,1085,1085,1314,1330,1299,1382,1505,2012,2427,2635,2759,2691,2701,2612,2565,2550,2470,2459,2379,2333,2289,2239,2191,2144,2097,2139,2002,1958,1939,1921,1699,1450,1487,1428,1360,1312,1321,1340,1305,1309,1348,1367,1366,1379,1385,1346,1366,1379,1387,1395,1394,1380,1396,1384,1376,1392,1376,1376,1376,1376,1376,1376,1376,1376,1376,1376,1376,1014,998,1000,1010,1047,1415,1700,1925,2118,2158,2114,2075,2065,2033,1963,1931,1917,1876,1840,1793,1763,1728,1689,1650,1610,1574,1485,1414,1377,1327,1113,1080,1071,1020,1015,1014,971,976,968,951,965,964,984,955,958,961,962,983,989,991,981,992,991,974,989,979,980,981,981,981,981,981,981,981,981,849,835,837,843,896,1142,1428,1612,1832,1861,1818,1811,1777,1760,1699,1666,1658,1625,1570,1587,1525,1479,1432,1398,1390,1355,1293,1259,1224,1190,1155,1005,907,880,847,847,854,858,865,843,856,858,866,859,860,863,864,873,878,878,878,878,878,878,878,878,865,878,878,878,878,878,878,878,878,1018,1017,1022,1043,1079,1477,1793,2023,2227,2241,2192,2150,2136,2094,2030,1989,1975,1932,1890,1848,1814,1764,1723,1681,1644,1603,1595,1518,1482,1244,1224,1146,1084,1056,1044,1044,1025,1034,1029,1024,1034,1049,1049,1047,1040,1057,1035,1063,1056,1071,1071,1067,1069,1071,1068,1056,1071,1066,1066,1066,1066,1066,1066,1066,1066,1192,1195,1182,1201,1534,1813,2155,2405,2599,2605,2585,2500,2483,2481,2389,2306,2316,2234,2185,2180,2114,2054,2030,1940,1920,1842,1859,1782,1722,1667,1363,1267,1250,1200,1188,1212,1219,1228,1252,1277,1239,1256,1268,1254,1265,1271,1268,1271,1288,1277,1290,1280,1288,1283,1293,1285,1296,1285,1284,1282,1285,1285,1279,1285,1275,930,930,932,930,960,1309,1575,1807,2046,2049,1999,1985,1956,1904,1853,1832,1799,1782,1718,1705,1646,1608,1569,1551,1512,1474,1443,1397,1358,1320,1161,1023,985,946,944,945,930,948,943,934,944,942,954,931,952,953,958,962,950,956,959,966,963,958,964,947,958,964,962,967,965,967,967,967,966,379,384,387,383,390,484,573,640,705,765,774,767,743,736,725,713,700,688,671,663,650,638,627,647,597,643,578,566,596,544,545,474,433,399,395,385,392,393,372,375,373,377,395,377,378,377,373,374,383,382,380,381,415,401,381,379,397,382,396,401,378,400,380,378,378,1324,1327,1344,1393,1557,2012,2375,2547,2639,2666,2649,2622,2574,2517,2472,2451,2389,2375,2342,2279,2260,2231,2135,2093,2041,2015,1962,1781,1647,1491,1449,1404,1388,1338,1351,1334,1355,1319,1308,1306,1312,1322,1316,1317,1315,1323,1317,1323,1326,1337,1331,1335,1331,1334,1314,1321,1327,1324,1313,1316,1321,1319,1318,1319,1313,213,216,216,217,217,272,307,340,375,408,433,426,420,413,407,400,393,387,379,369,366,356,353,346,339,328,325,319,309,302,299,289,284,278,271,243,244,244,180,180,180,183,183,186,180,184,182,184,182,183,182,188,184,183,182,185,184,183,181,185,183,184,179,183,180,1182,1163,1154,1206,1381,1821,2231,2431,2545,2521,2498,2481,2432,2365,2358,2301,2216,2191,2163,2116,2069,2015,1966,1919,1881,1811,1788,1729,1553,1502,1362,1233,1238,1195,1180,1188,1188,1212,1207,1217,1243,1249,1227,1229,1232,1242,1231,1240,1234,1229,1229,1241,1249,1262,1214,1228,1223,1241,1250,1254,1250,1223,1228,1242,1241,0,0,0,0,0,0,0,0,0,0,0,0,0,0,0,0,0,0,0,0,0,0,0,0,0,0,0,0,0,0,0,0,0,0,0,0,0,0,0,0,0,0,0,0,0,0,0,0,0,0,0,0,0,0,0,0,0,0,0,0,0,0,0,0,0,439,439,435,450,452,485,650,720,789,879,879,864,838,793,831,828,790,780,785,724,711,703,708,696,676,655,658,657,642,561,476,516,545,475,461,454,455,444,385,383,379,389,416,418,402,417,405,420,414,406,421,396,397,418,410,396,420,403,390,422,415,422,418,421,410,418,418,420,421,423,459,634,685,753,825,832,818,807,794,781,769,756,742,729,717,705,691,675,663,650,639,624,611,614,593,586,574,490,477,427,436,424,405,384,380,381,392,389,388,387,394,386,392,394,396,401,405,401,424,386,391,395,395,385,386,392,392,387,391,385,492,446,447,446,452,590,679,757,837,885,895,937,948,861,847,822,810,796,786,767,790,745,724,710,697,730,668,653,640,620,612,600,570,536,455,450,452,434,429,430,428,432,438,428,438,431,436,441,428,433,434,440,432,438,453,457,435,440,433,431,433,432,468,438,432,205,154,155,155,156,196,223,249,275,301,316,311,306,301,297,291,287,281,276,271,266,261,256,250,246,240,236,231,226,221,215,211,205,201,195,156,192,192,145,144,144,145,146,147,146,149,153,179,150,153,147,148,148,148,148,150,153,152,148,153,149,149,149,150,150,603,648,672,608,625,737,957,1091,1252,1286,1288,1320,1174,1243,1136,1116,1097,1078,1058,1117,1019,999,981,1041,933,872,903,883,897,835,782,765,643,627,665,612,696,671,657,627,630,629,648,642,645,636,638,646,683,656,666,665,670,668,657,656,662,683,709,679,659,659,683,666,668,379,384,387,383,390,484,573,640,705,765,774,767,743,736,725,713,700,688,671,663,650,638,627,647,597,643,578,566,596,544,545,474,433,399,395,385,392,393,372,375,373,377,395,377,378,377,373,374,383,382,380,381,415,401,381,379,397,382,396,401,378,400,380,378,378,668,671,672,675,679,781,1008,1144,1261,1335,1338,1315,1297,1275,1253,1233,1213,1189,1167,1148,1125,1103,1082,1061,1039,1021,1008,980,966,858,813,766,777,696,684,682,683,670,605,603,603,603,612,611,605,611,606,607,609,609,610,610,612,625,615,616,608,613,611,617,617,648,618,624,622,1066,1068,1073,1081,1154,1589,1863,2159,2266,2292,2279,2238,2197,2148,2114,2072,2039,1987,1944,1907,1861,1838,1794,1736,1695,1653,1612,1578,1544,1291,1260,1151,1115,1108,1089,1086,1092,1098,1105,1092,1093,1118,1123,1125,1119,1123,1133,1150,1121,1131,1139,1130,1111,1119,1143,1141,1140,1129,1137,1136,1148,1142,1140,1138,1135,226,225,237,238,240,255,325,361,397,435,454,449,442,434,428,421,414,407,401,391,385,378,372,364,357,350,342,334,329,321,314,268,261,255,244,228,229,230,186,184,184,184,193,192,186,192,187,188,190,190,190,191,193,198,196,197,189,194,192,198,197,243,193,199,196,1256,1259,1270,1291,1388,1922,2236,2527,2616,2659,2638,2578,2545,2477,2438,2391,2346,2295,2272,2204,2164,2123,2076,2012,1965,1933,1872,1703,1729,1501,1457,1342,1305,1300,1281,1279,1286,1293,1290,1287,1284,1294,1317,1274,1298,1290,1311,1324,1319,1319,1317,1351,1335,1330,1351,1346,1334,1353,1352,1353,1349,1354,1348,1350,1343,459,460,461,478,480,548,697,775,853,916,934,919,903,888,874,856,844,826,810,799,783,768,752,738,724,709,693,678,663,649,633,542,547,480,497,490,491,461,395,393,393,393,402,401,395,401,396,397,399,399,400,400,402,413,405,406,398,403,401,407,407,439,409,415,413,0,0,0,0,0,0,0,0,0,0,0,0,0,0,0,0,0,0,0,0,0,0,0,0,0,0,0,0,0,0,0,0,0,0,0,0,0,0,0,0,0,0,0,0,0,0,0,0,0,0,0,0,0,0,0,0,0,0,0,0,0,0,0,0,0,519,507,522,540,516,580,770,854,938,987,1026,979,1002,949,933,918,903,930,873,858,920,854,812,797,782,836,782,764,721,744,565,552,540,528,531,527,529,544,513,516,513,516,524,524,518,524,518,520,522,519,518,523,524,529,526,525,521,524,522,525,522,526,518,523,521,614,616,610,628,629,767,959,1073,1168,1213,1247,1197,1183,1159,1138,1120,1166,1089,1060,1051,1081,1030,983,964,944,966,906,887,879,886,796,778,709,630,619,615,617,633,593,595,600,609,599,611,597,602,602,601,607,603,616,616,618,613,603,612,608,612,614,603,605,616,594,605,604,409,410,411,415,418,489,599,681,750,820,833,816,806,792,779,765,753,739,725,713,699,685,672,658,644,635,621,608,595,581,526,514,502,432,422,418,419,435,350,348,348,348,357,356,350,356,351,352,354,354,355,355,357,370,360,361,353,358,356,362,362,391,361,367,365,939,956,947,942,1013,1307,1506,1686,1832,1868,1872,1868,1808,1769,1739,1722,1692,1664,1640,1622,1570,1547,1498,1409,1427,1420,1391,1338,1199,1077,1062,1078,1045,1014,965,956,965,951,932,930,930,930,939,938,932,938,933,934,936,936,937,937,939,955,942,943,935,940,938,944,944,982,952,958,956,668,671,672,675,679,781,1008,1144,1261,1335,1338,1315,1297,1275,1253,1233,1213,1189,1167,1148,1125,1103,1082,1061,1039,1021,1008,980,966,858,813,766,777,696,684,682,683,670,605,603,603,603,612,611,605,611,606,607,609,609,610,610,612,625,615,616,608,613,611,617,617,648,618,624,622,582,586,600,602,591,658,862,986,1100,1161,1149,1161,1099,1122,1076,1055,1051,1011,1001,985,957,959,929,913,889,876,849,883,852,845,811,729,689,634,619,605,607,596,566,563,566,570,570,578,565,574,565,569,567,567,572,575,574,583,578,574,569,576,574,582,574,577,571,584,572,1007,995,997,1019,1098,1364,1675,1835,1964,2019,1972,1938,1912,1907,1880,1834,1801,1742,1711,1708,1648,1624,1613,1568,1524,1495,1490,1428,1407,1292,1107,1076,1065,1021,1009,1007,1012,992,952,953,962,971,975,970,974,969,964,978,974,969,967,972,973,970,984,984,971,970,969,967,980,986,970,971,966,513,514,522,517,525,683,781,871,960,1033,1039,1030,1013,985,964,976,930,916,926,883,887,871,849,842,826,784,768,753,740,732,725,687,656,551,524,520,538,523,493,490,502,503,497,512,500,511,505,502,514,507,508,510,509,509,505,506,506,509,504,501,506,509,501,514,509,913,938,917,918,1042,1407,1703,1944,2016,2085,2075,2035,1977,1951,1912,1839,1834,1763,1757,1719,1699,1679,1592,1564,1492,1487,1475,1375,1339,1266,1071,1019,995,954,928,929,952,935,950,935,947,963,954,952,946,973,954,995,976,965,963,952,1007,999,1002,975,953,976,970,975,991,974,983,986,978,519,531,527,526,530,695,788,910,971,1047,1068,1052,1035,1003,1000,976,943,942,910,906,902,881,843,827,817,793,776,770,764,744,730,693,630,540,542,539,557,489,485,478,480,482,479,486,480,485,481,485,485,480,480,481,483,503,487,486,484,483,486,487,482,496,482,489,483,559,548,563,551,563,697,838,960,1020,1083,1088,1054,1058,1041,1029,1011,1018,952,992,964,931,921,910,892,875,851,833,821,800,780,766,629,623,584,571,568,542,571,558,561,556,566,571,572,573,575,561,576,576,578,576,564,567,581,573,571,569,566,564,565,563,570,570,578,558,0,0,0,0,0,0,0,0,0,0,0,0,0,0,0,0,0,0,0,0,0,0,0,0,0,0,0,0,0,0,0,0,0,0,0,0,0,0,0,0,0,0,0,0,0,0,0,0,0,0,0,0,0,0,0,0,0,0,0,0,0,0,0,0,0,172,172,174,174,175,214,238,295,314,334,349,346,341,338,334,331,327,323,319,314,310,308,304,268,296,258,254,248,245,240,235,231,226,223,178,175,176,176,139,141,141,142,142,142,141,142,141,142,141,143,142,143,144,144,143,143,144,144,144,145,144,146,143,144,143,394,399,396,403,399,507,588,658,727,790,822,787,774,771,749,737,723,710,698,685,672,660,646,634,621,608,596,583,570,557,544,532,518,488,404,400,401,402,388,379,378,383,383,378,380,386,379,407,378,378,380,383,394,380,393,386,388,388,386,384,386,388,386,388,388,871,877,878,892,904,1136,1399,1630,1730,1805,1789,1796,1708,1697,1678,1618,1632,1568,1528,1508,1488,1469,1421,1400,1381,1331,1303,1302,1249,1177,981,985,981,981,914,886,890,900,892,886,891,902,901,900,903,909,895,897,892,900,900,918,905,908,902,908,904,903,899,918,904,920,897,903,901,582,586,600,602,591,658,862,986,1100,1161,1149,1161,1099,1122,1076,1055,1051,1011,1001,985,957,959,929,913,889,876,849,883,852,845,811,729,689,634,619,605,607,596,566,563,566,570,570,578,565,574,565,569,567,567,572,575,574,583,578,574,569,576,574,582,574,577,571,584,572,477,489,491,492,498,524,708,788,835,893,890,877,882,845,856,829,816,819,773,779,781,772,780,767,751,724,725,711,685,674,670,656,543,494,496,495,495,489,461,464,466,470,471,471,470,474,467,472,469,469,473,475,473,476,474,477,472,475,475,474,475,475,473,473,473,1022,1016,1022,1037,1147,1529,1792,1924,2083,2136,2132,2084,2050,2050,1988,1972,1942,1882,1854,1814,1785,1757,1685,1651,1637,1576,1540,1520,1466,1283,1148,1113,1078,1057,1033,1027,1047,1039,1005,1006,1018,1031,1012,1033,1032,1033,1035,1036,1040,1028,1036,1029,1035,1042,1035,1039,1039,1037,1042,1034,1038,1045,1034,1033,1033,520,522,523,525,533,710,802,878,951,1003,998,984,970,959,946,927,915,889,886,873,855,871,859,817,801,779,775,748,731,709,704,564,551,533,530,528,522,519,496,501,500,501,496,508,507,515,499,500,511,505,513,506,510,514,522,520,515,508,514,515,503,500,495,522,491,879,884,855,855,956,1319,1469,1722,1859,1925,1935,1900,1865,1830,1755,1729,1695,1669,1639,1627,1570,1502,1484,1432,1414,1383,1356,1311,1276,1236,1097,1063,947,918,866,868,899,901,867,866,874,891,878,872,874,895,881,910,896,886,889,876,918,898,916,890,878,897,892,895,891,889,890,889,889,527,525,512,513,537,648,787,873,977,985,982,996,988,969,953,938,906,910,896,882,867,856,845,830,787,796,760,753,717,702,688,649,615,543,532,531,539,491,490,487,493,492,497,493,497,497,493,495,502,497,492,492,497,504,500,499,492,495,491,491,493,491,496,498,497,670,676,701,680,691,795,1022,1176,1237,1276,1271,1271,1256,1249,1211,1210,1197,1158,1157,1147,1117,1132,1068,1036,1038,1022,1001,964,963,916,839,785,712,710,685,660,681,689,650,651,646,655,660,664,671,677,658,664,666,678,667,665,668,695,673,660,666,668,658,664,658,668,663,677,677,221,221,222,223,223,232,323,348,371,394,407,402,397,393,387,384,380,375,370,365,361,353,348,344,339,335,333,312,306,301,297,238,234,285,278,224,276,225,189,184,184,188,187,190,189,197,189,189,189,195,187,192,189,215,190,186,189,193,189,191,189,189,189,188,188,0,0,0,0,0,0,0,0,0,0,0,0,0,0,0,0,0,0,0,0,0,0,0,0,0,0,0,0,0,0,0,0,0,0,0,0,0,0,0,0,0,0,0,0,0,0,0,0,0,0,0,0,0,0,0,0,0,0,0,0,0,0,0,0,0,387,387,388,389,391,515,588,642,696,737,737,727,717,707,697,687,677,667,657,647,638,656,647,608,598,588,578,554,544,533,523,512,502,491,394,391,392,393,384,387,393,389,380,390,387,384,387,401,400,400,401,399,396,399,397,396,387,399,423,407,413,391,391,415,403,775,797,768,781,837,1068,1234,1364,1461,1536,1527,1520,1514,1454,1431,1404,1380,1357,1315,1307,1324,1283,1289,1232,1236,1210,1171,1130,1150,1060,951,948,834,847,813,796,810,782,781,776,781,780,781,777,783,788,785,787,780,787,792,822,796,798,794,798,794,793,790,790,790,790,790,790,790,477,489,491,492,498,524,708,788,835,893,890,877,882,845,856,829,816,819,773,779,781,772,780,767,751,724,725,711,685,674,670,656,543,494,496,495,495,489,461,464,466,470,471,471,470,474,467,472,469,469,473,475,473,476,474,477,472,475,475,474,475,475,473,473,473,355,356,358,359,360,386,525,583,643,705,716,705,693,682,671,660,649,636,625,614,603,591,580,569,558,595,535,524,513,502,491,394,385,376,367,360,361,360,342,334,339,340,335,344,339,347,344,339,345,338,340,339,339,347,344,344,339,343,341,341,343,345,344,348,348,1258,1257,1259,1275,1356,1928,2210,2388,2521,2499,2471,2435,2435,2406,2349,2306,2232,2218,2179,2128,2100,2064,2038,1961,1936,1892,1849,1778,1556,1448,1386,1373,1314,1299,1272,1277,1267,1253,1204,1199,1204,1213,1208,1210,1207,1212,1209,1214,1214,1211,1230,1232,1233,1212,1210,1209,1211,1215,1204,1202,1210,1209,1205,1210,1203,227,227,228,229,281,293,331,378,405,443,457,451,443,436,429,422,413,408,400,393,385,379,371,365,357,349,343,336,328,322,314,308,300,293,286,281,282,283,208,213,211,214,215,218,212,214,211,216,211,212,211,215,217,221,220,216,214,212,216,214,214,215,210,215,211,1090,1113,1095,1135,1249,1725,2020,2307,2368,2422,2373,2316,2322,2269,2219,2187,2167,2076,2055,1985,1969,1922,1854,1810,1788,1736,1658,1624,1585,1486,1278,1237,1188,1160,1121,1106,1132,1114,1128,1124,1150,1165,1147,1139,1165,1189,1170,1152,1172,1158,1160,1160,1168,1172,1190,1187,1159,1152,1167,1171,1149,1166,1153,1164,1162,233,234,234,234,235,261,341,381,394,460,477,469,462,454,446,446,431,423,416,409,401,400,386,354,347,339,362,347,339,282,275,269,274,267,261,253,256,256,188,185,182,185,182,197,207,212,182,206,192,183,183,214,213,215,214,210,206,207,213,209,197,190,185,185,182,455,450,438,434,466,538,671,755,827,902,903,893,852,818,856,852,833,820,805,747,739,762,734,718,715,661,667,657,644,577,541,540,560,453,447,466,468,468,415,411,412,425,422,426,430,442,424,431,433,442,435,422,429,439,430,425,434,444,429,428,435,450,435,436,433,317,318,319,321,322,414,470,529,582,635,650,639,629,616,609,596,588,575,566,557,547,536,523,515,505,492,481,471,462,451,441,430,420,410,326,323,324,324,283,274,276,282,278,283,278,284,280,283,283,279,277,280,277,275,279,281,281,283,275,274,280,280,278,279,275,375,385,378,378,380,497,557,631,687,749,762,737,734,713,713,701,689,674,654,654,639,630,614,602,590,589,559,547,542,531,519,507,406,395,407,381,384,377,359,356,353,359,359,361,361,363,362,367,373,359,366,360,364,367,365,364,363,365,359,362,358,365,361,363,351,0,0,0,0,0,0,0,0,0,0,0,0,0,0,0,0,0,0,0,0,0,0,0,0,0,0,0,0,0,0,0,0,0,0,0,0,0,0,0,0,0,0,0,0,0,0,0,0,0,0,0,0,0,0,0,0,0,0,0,0,0,0,0,0,0,690,702,665,698,693,766,1066,1186,1274,1328,1327,1386,1375,1413,1365,1349,1312,1253,1226,1136,1183,1162,1171,1051,1003,999,1054,996,932,875,772,755,785,763,742,671,672,746,711,722,718,727,717,738,722,752,720,737,732,723,737,733,743,745,740,737,738,739,753,731,738,755,735,746,738,355,356,358,359,360,386,525,583,643,705,716,705,693,682,671,660,649,636,625,614,603,591,580,569,558,595,535,524,513,502,491,394,385,376,367,360,361,360,342,334,339,340,335,344,339,347,344,339,345,338,340,339,339,347,344,344,339,343,341,341,343,345,344,348,348,370,371,373,374,375,496,557,588,686,701,750,701,727,678,702,690,645,666,655,643,655,624,607,596,584,572,559,547,536,524,512,500,381,477,363,376,413,377,344,343,343,344,351,347,347,348,348,349,351,351,354,355,357,354,360,355,358,359,359,360,357,360,355,359,356,1269,1292,1295,1377,1727,2233,2505,2687,2736,2933,2748,2696,2645,2608,2557,2501,2424,2406,2351,2304,2237,2196,2126,2080,2033,2005,1958,1870,1829,1650,1436,1384,1331,1295,1292,1300,1302,1301,1322,1310,1324,1320,1352,1381,1333,1364,1366,1378,1374,1371,1387,1383,1385,1415,1355,1371,1371,1379,1365,1406,1368,1379,1371,1369,1366,703,706,714,717,760,953,1203,1359,1375,1513,1416,1488,1371,1352,1325,1307,1281,1261,1236,1215,1261,1169,1138,1124,1102,1079,1047,1034,1010,988,936,802,783,742,723,720,728,676,668,662,669,672,665,668,665,674,670,668,671,666,668,670,668,673,672,675,674,672,674,674,671,712,670,675,673,1140,1128,1137,1184,1594,1955,2360,2512,2501,2706,2559,2439,2391,2382,2294,2284,2256,2186,2137,2189,2058,1991,1941,1859,1843,1762,1713,1665,1624,1546,1326,1285,1171,1158,1147,1127,1174,1166,1183,1187,1201,1215,1199,1216,1198,1215,1197,1214,1222,1210,1209,1220,1240,1279,1224,1224,1209,1221,1282,1242,1221,1216,1211,1241,1233,524,525,526,545,554,721,831,1003,1006,1151,1059,1138,1025,1008,992,973,956,940,925,909,957,875,858,842,833,816,790,781,764,747,721,704,688,561,549,546,547,496,488,482,489,492,485,488,485,494,490,488,491,486,488,490,488,493,492,495,494,492,494,494,491,533,490,495,493,907,915,944,936,1004,1256,1620,1805,1788,1932,1798,1913,1798,1776,1720,1718,1624,1585,1576,1586,1612,1500,1500,1447,1433,1412,1375,1289,1237,1219,1183,1020,995,954,946,935,928,881,873,867,874,877,870,873,870,879,875,873,876,871,873,875,873,878,877,880,879,877,879,879,876,918,875,880,878,790,765,767,801,829,1118,1306,1470,1575,1647,1608,1581,1554,1527,1499,1445,1442,1436,1387,1356,1328,1341,1314,1246,1216,1191,1161,1133,1105,1078,1044,945,874,791,777,775,758,756,760,767,761,797,778,772,781,797,771,793,793,785,781,776,772,782,776,778,776,776,770,769,768,778,770,775,755,682,700,685,687,710,980,1130,1279,1386,1441,1431,1403,1379,1354,1339,1291,1279,1257,1229,1204,1191,1165,1129,1105,1081,1056,1041,1005,981,955,903,748,729,709,694,693,687,671,685,675,670,678,680,694,695,703,688,706,696,681,688,719,737,713,711,707,692,718,703,695,690,693,683,679,670,538,540,541,542,554,722,896,1022,1032,1181,1085,1162,1050,1034,1016,998,981,964,947,929,979,895,877,860,842,825,808,786,768,752,733,721,683,591,549,546,548,532,515,510,516,520,513,516,513,521,518,515,520,514,517,518,517,521,521,523,522,520,522,522,517,548,517,522,520,0,0,0,0,0,0,0,0,0,0,0,0,0,0,0,0,0,0,0,0,0,0,0,0,0,0,0,0,0,0,0,0,0,0,0,0,0,0,0,0,0,0,0,0,0,0,0,0,0,0,0,0,0,0,0,0,0,0,0,0,0,0,0,0,0,370,371,373,374,375,496,557,588,686,701,750,701,727,678,702,690,645,666,655,643,655,624,607,596,584,572,559,547,536,524,512,500,381,477,363,376,413,377,344,343,343,344,351,347,347,348,348,349,351,351,354,355,357,354,360,355,358,359,359,360,357,360,355,359,356,0,0,0,0,0,0,0,0,0,0,0,0,0,0,0,0,0,0,0,0,0,0,0,0,0,0,0,0,0,0,0,0,0,0,0,0,0,0,0,0,0,0,0,0,0,0,0,0,0,0,0,0,0,0,0,0,0,0,0,0,0,0,0,0,0,1134,1152,1159,1172,1381,1806,2112,2301,2393,2428,2407,2364,2321,2281,2250,2206,2157,2081,2073,2034,1995,1948,1881,1839,1795,1755,1714,1697,1647,1385,1308,1260,1196,1170,1153,1171,1172,1159,1149,1149,1149,1149,1149,1149,1149,1149,1149,1149,1149,1149,1149,1149,1149,1149,1149,1149,1149,1149,1149,1149,1149,1149,1149,1149,1149,522,525,525,527,538,620,778,868,958,1035,1067,1036,1019,1010,994,969,959,936,919,903,892,869,857,842,819,816,786,774,758,741,698,617,561,555,550,531,533,524,490,486,485,487,490,487,487,487,487,487,487,487,487,487,487,487,487,487,487,487,487,487,487,487,487,487,487,1006,989,1010,1024,1121,1570,1920,2082,2215,2207,2186,2134,2127,2075,2044,1942,1903,1900,1859,1815,1786,1746,1738,1654,1623,1612,1499,1537,1470,1430,1139,1093,1052,1024,1009,997,994,999,1019,1019,1019,1019,1019,1019,1019,1019,1019,1019,1019,1019,1019,1019,1019,1019,1019,1019,1019,1019,1019,1019,1019,1019,1019,1019,1019,362,364,365,365,393,417,521,605,667,721,744,733,721,708,697,685,673,661,649,637,625,613,601,591,586,575,555,549,538,519,463,427,426,406,394,394,395,380,310,306,305,307,310,307,307,307,307,307,307,307,307,307,307,307,307,307,307,307,307,307,307,307,307,307,307,748,750,743,728,776,987,1170,1320,1406,1494,1448,1413,1451,1393,1403,1386,1354,1332,1270,1249,1257,1221,1211,1163,1143,1140,1120,1029,991,970,826,888,802,788,784,755,770,730,695,691,690,692,695,692,692,692,692,692,692,692,692,692,692,692,692,692,692,692,692,692,692,692,692,692,692,523,525,526,526,538,687,825,872,968,1042,1059,1043,1025,1009,993,975,958,940,924,905,934,871,854,838,820,804,787,770,753,741,612,588,575,547,535,531,532,513,484,484,484,484,483,484,484,484,484,484,484,484,484,484,484,484,484,484,484,484,484,484,484,484,484,484,484,432,433,435,436,446,512,635,709,781,854,866,853,840,827,819,800,787,773,759,745,731,718,704,702,676,667,654,635,621,608,594,517,512,460,455,446,447,423,404,398,398,402,400,404,404,404,404,404,404,404,404,404,404,404,404,404,404,404,404,404,404,404,404,404,404,303,304,305,306,308,386,440,490,541,593,621,611,601,594,584,572,564,552,542,532,522,512,502,492,482,473,463,453,443,433,423,413,403,393,384,309,310,311,286,286,286,286,286,286,286,286,286,286,286,286,286,286,286,286,286,286,286,286,286,286,286,286,286,286,286,468,441,441,443,473,525,680,761,819,914,954,938,943,888,874,904,888,829,813,798,749,727,754,755,684,746,731,642,628,580,490,638,507,495,445,492,503,515,468,468,468,468,468,468,468,468,468,468,468,468,468,468,468,468,468,468,468,468,468,468,468,468,468,468,468,0,0,0,0,0,0,0,0,0,0,0,0,0,0,0,0,0,0,0,0,0,0,0,0,0,0,0,0,0,0,0,0,0,0,0,0,0,0,0,0,0,0,0,0,0,0,0,0,0,0,0,0,0,0,0,0,0,0,0,0,0,0,0,0,0 ]);
