n = 10;
D = [189,133,148,285,164,172,216,235,138,102 ];
q = 0;
prec = array2d(1..0,1..2,[]);
steps = 64;
l = 360;
r = 0;
which = [];
interval = array2d(1..0,1..2,[]);
T = array3d(1..11,1..11,0..64,[0,0,0,0,0,0,0,0,0,0,0,0,0,0,0,0,0,0,0,0,0,0,0,0,0,0,0,0,0,0,0,0,0,0,0,0,0,0,0,0,0,0,0,0,0,0,0,0,0,0,0,0,0,0,0,0,0,0,0,0,0,0,0,0,0,1112,1115,1127,1135,1232,1430,1836,2018,2153,2155,2159,2124,2099,2070,2020,1985,1963,1922,1888,1854,1823,1807,1777,1725,1690,1653,1644,1388,1344,1285,1222,1181,1154,1139,1131,1095,1089,1053,1035,1040,1035,1051,1052,1065,1052,1060,1060,1062,1065,1070,1066,1063,1060,1066,1072,1058,1068,1067,1066,1069,1064,1088,1082,1077,1070,1169,1167,1179,1198,1270,1613,1969,2173,2296,2315,2298,2277,2230,2174,2161,2121,2097,2059,2017,1974,1915,1910,1872,1811,1772,1735,1725,1573,1554,1316,1297,1242,1212,1208,1198,1180,1177,1150,1128,1135,1131,1147,1150,1165,1147,1155,1155,1157,1160,1165,1161,1158,1155,1161,1167,1153,1163,1162,1161,1164,1159,1183,1177,1172,1165,995,999,997,1004,1053,1233,1610,1792,1928,1933,1941,1907,1886,1869,1812,1781,1762,1724,1692,1661,1649,1616,1592,1568,1548,1515,1492,1419,1378,1195,1080,1045,1063,1007,1001,1011,965,927,911,918,909,929,927,940,931,939,939,941,944,949,945,942,939,945,951,937,947,946,945,948,943,967,961,956,949,1038,1043,1041,1049,1116,1304,1694,1872,2013,2017,2023,1987,1966,1947,1888,1856,1835,1798,1760,1728,1715,1681,1660,1634,1612,1577,1551,1468,1179,1238,1125,1100,1110,1051,1044,1051,1017,981,962,971,965,979,980,996,973,989,986,986,990,999,996,994,988,994,999,986,1000,993,992,998,989,1015,1009,1004,997,1369,1370,1376,1410,1597,2015,2388,2527,2688,2679,2711,2649,2590,2547,2522,2464,2450,2403,2354,2299,2237,2232,2146,2125,2065,2025,2003,1771,1549,1568,1522,1469,1413,1414,1380,1368,1372,1369,1363,1350,1352,1356,1368,1373,1354,1364,1363,1365,1369,1374,1370,1367,1365,1371,1376,1363,1373,1372,1371,1374,1369,1393,1387,1382,1375,1623,1654,1686,1837,2227,2743,3091,3217,3349,3298,3299,3246,3203,3123,3079,3022,2982,2942,2866,2792,2737,2619,2259,2114,2042,2012,1988,1953,1872,1841,1818,1732,1709,1700,1676,1668,1675,1671,1653,1651,1668,1672,1681,1692,1668,1682,1675,1680,1680,1685,1690,1682,1681,1683,1691,1674,1682,1686,1685,1687,1695,1711,1705,1700,1693,893,907,908,920,955,1144,1436,1613,1784,1807,1800,1779,1751,1730,1675,1647,1655,1590,1588,1558,1526,1494,1446,1410,1408,1383,1351,1314,1289,1155,1051,996,951,944,940,917,915,907,895,896,897,900,905,912,910,909,915,914,915,924,919,916,914,923,929,913,918,919,921,927,925,932,929,939,926,857,860,863,907,919,1194,1441,1577,1704,1749,1750,1721,1693,1628,1625,1607,1578,1550,1522,1494,1433,1438,1409,1353,1330,1302,1290,1246,1233,1180,1144,984,922,933,894,871,887,857,865,844,857,853,856,874,868,856,855,865,891,869,873,872,876,917,905,868,867,883,884,880,871,865,883,876,870,1189,1191,1194,1208,1294,1553,1997,2171,2307,2302,2310,2260,2235,2215,2153,2108,2083,2045,2007,1972,1953,1914,1885,1850,1828,1787,1742,1654,1455,1317,1290,1242,1228,1203,1196,1202,1153,1118,1108,1117,1100,1113,1113,1127,1114,1122,1122,1124,1127,1132,1128,1125,1122,1128,1134,1120,1130,1129,1128,1131,1126,1150,1144,1139,1132,0,0,0,0,0,0,0,0,0,0,0,0,0,0,0,0,0,0,0,0,0,0,0,0,0,0,0,0,0,0,0,0,0,0,0,0,0,0,0,0,0,0,0,0,0,0,0,0,0,0,0,0,0,0,0,0,0,0,0,0,0,0,0,0,0,1165,1167,1171,1194,1243,1651,2022,2154,2282,2295,2257,2242,2217,2115,2136,2115,2007,2036,1958,1965,1935,1904,1796,1763,1789,1738,1707,1585,1453,1364,1362,1286,1227,1204,1199,1168,1184,1164,1128,1146,1138,1140,1148,1148,1150,1166,1164,1166,1162,1168,1166,1157,1165,1168,1158,1159,1159,1155,1147,1149,1148,1163,1151,1154,1145,0,0,0,0,0,0,0,0,0,0,0,0,0,0,0,0,0,0,0,0,0,0,0,0,0,0,0,0,0,0,0,0,0,0,0,0,0,0,0,0,0,0,0,0,0,0,0,0,0,0,0,0,0,0,0,0,0,0,0,0,0,0,0,0,0,164,164,165,166,166,208,236,263,290,318,357,353,347,322,316,314,305,302,294,289,283,278,272,268,262,257,251,246,240,235,229,224,218,213,207,204,167,168,132,134,134,134,134,134,134,134,135,135,135,135,135,136,136,136,136,136,136,136,136,136,135,135,135,135,135,235,235,236,237,258,305,346,386,426,467,480,473,465,457,449,442,434,426,419,411,403,397,389,381,374,371,358,350,343,335,327,320,312,304,297,260,260,261,216,221,220,225,224,224,220,224,216,228,219,218,223,228,229,229,230,225,224,219,225,225,224,226,218,225,218,417,419,420,421,424,446,614,710,781,842,849,836,823,810,795,781,768,754,740,728,713,700,685,673,658,651,631,618,605,594,543,496,458,447,430,428,426,430,360,364,365,372,370,369,368,370,361,375,369,363,371,376,378,376,386,374,369,365,369,370,369,374,365,372,363,408,409,461,411,463,495,616,685,756,815,823,810,797,784,772,759,745,732,719,706,694,680,667,654,640,627,614,601,589,576,521,509,496,485,418,414,467,416,396,399,396,399,411,410,403,408,405,418,407,425,417,421,419,427,420,418,418,410,422,442,420,447,416,423,416,723,726,749,729,783,1025,1248,1408,1534,1569,1573,1538,1515,1494,1473,1437,1402,1373,1345,1316,1314,1260,1232,1207,1166,1147,1118,1090,1061,1025,996,881,775,787,738,733,780,723,711,714,715,718,717,727,724,724,722,733,742,722,725,729,733,750,736,735,731,725,734,734,737,736,729,749,732,475,477,478,480,481,561,700,817,898,954,959,945,930,914,899,883,868,853,837,822,807,791,775,762,745,736,715,699,688,676,617,598,588,560,506,482,484,484,419,428,428,440,435,440,427,446,423,439,427,422,431,442,441,441,441,435,433,427,449,449,431,435,423,434,425,455,473,473,455,464,617,695,810,862,916,952,904,914,897,883,860,842,819,822,815,775,760,743,729,739,701,686,693,656,647,647,614,489,477,466,496,478,438,417,416,428,425,425,415,422,425,425,421,425,425,421,427,426,428,428,434,431,431,432,434,421,432,428,427,424,192,194,194,197,197,242,275,309,341,373,398,392,390,379,373,366,360,354,347,341,335,327,322,316,310,302,296,289,284,275,271,264,257,252,201,239,198,198,144,143,144,147,146,144,145,145,145,147,147,148,168,169,169,153,149,145,146,148,145,144,146,145,144,147,144,1165,1167,1171,1194,1243,1651,2022,2154,2282,2295,2257,2242,2217,2115,2136,2115,2007,2036,1958,1965,1935,1904,1796,1763,1789,1738,1707,1585,1453,1364,1362,1286,1227,1204,1199,1168,1184,1164,1128,1146,1138,1140,1148,1148,1150,1166,1164,1166,1162,1168,1166,1157,1165,1168,1158,1159,1159,1155,1147,1149,1148,1163,1151,1154,1145,1144,1151,1151,1172,1221,1572,1988,2154,2242,2264,2253,2202,2184,2143,2056,2064,1971,2006,1976,1936,1883,1867,1766,1730,1757,1706,1670,1585,1391,1362,1340,1221,1227,1177,1129,1126,1131,1131,1117,1134,1136,1130,1137,1151,1135,1162,1163,1158,1159,1154,1160,1147,1155,1168,1139,1140,1153,1155,1142,1141,1146,1157,1141,1151,1148,128,128,129,129,159,162,183,204,226,245,262,258,255,250,246,241,237,234,230,226,222,218,211,206,203,199,194,191,187,182,179,174,170,167,162,159,159,160,92,92,90,92,93,93,93,95,92,93,93,99,99,99,94,119,93,89,90,92,99,99,101,121,100,101,96,0,0,0,0,0,0,0,0,0,0,0,0,0,0,0,0,0,0,0,0,0,0,0,0,0,0,0,0,0,0,0,0,0,0,0,0,0,0,0,0,0,0,0,0,0,0,0,0,0,0,0,0,0,0,0,0,0,0,0,0,0,0,0,0,0,349,351,351,352,353,450,525,587,636,683,689,680,671,662,653,654,642,631,620,609,599,590,575,563,552,541,529,518,507,495,478,469,459,411,395,354,355,356,308,313,310,317,317,317,313,319,308,321,312,317,322,327,323,348,323,314,314,311,324,324,325,347,318,326,314,532,535,535,538,540,657,819,912,992,1056,1056,1041,1027,1010,997,990,974,956,937,923,909,894,871,853,836,820,802,786,766,751,696,667,624,598,550,540,543,504,452,456,455,464,463,462,461,465,453,468,462,462,470,475,472,504,477,463,459,457,468,469,470,494,465,473,459,311,311,311,313,314,414,449,501,552,616,627,617,607,599,589,579,568,558,550,540,530,520,510,500,490,480,470,460,451,441,431,421,411,375,366,315,361,362,296,294,293,297,306,307,306,310,305,312,311,308,311,310,310,308,310,308,315,310,313,306,312,314,312,313,314,621,622,630,631,634,886,988,1133,1275,1389,1386,1359,1331,1298,1283,1257,1231,1204,1182,1157,1131,1106,1081,1056,1020,1013,1001,953,919,903,802,781,676,656,639,634,641,633,611,609,612,616,638,629,624,626,622,621,634,628,623,628,624,662,627,625,632,625,628,629,630,631,625,625,625,590,593,594,595,598,737,917,1019,1107,1169,1168,1152,1135,1117,1103,1095,1076,1058,1037,1018,1003,985,961,940,922,905,886,867,845,829,752,762,669,658,602,599,600,563,511,520,518,532,528,533,520,541,515,532,520,521,530,541,535,560,534,524,523,519,548,548,532,556,523,535,521,433,453,441,438,472,609,665,770,853,901,917,896,887,839,852,842,822,808,794,754,764,750,735,721,706,691,677,641,647,633,625,605,570,455,459,441,457,458,413,406,408,410,407,414,408,413,409,413,413,408,408,408,410,432,414,413,411,410,413,414,409,450,408,415,410,316,317,318,319,322,359,455,510,574,624,633,626,628,619,608,598,586,578,568,558,546,536,522,512,500,491,481,471,462,450,441,430,420,363,353,340,324,326,236,235,234,239,239,237,238,240,237,240,240,247,267,268,263,272,242,234,236,240,244,243,247,266,244,248,240,1144,1151,1151,1172,1221,1572,1988,2154,2242,2264,2253,2202,2184,2143,2056,2064,1971,2006,1976,1936,1883,1867,1766,1730,1757,1706,1670,1585,1391,1362,1340,1221,1227,1177,1129,1126,1131,1131,1117,1134,1136,1130,1137,1151,1135,1162,1163,1158,1159,1154,1160,1147,1155,1168,1139,1140,1153,1155,1142,1141,1146,1157,1141,1151,1148,1053,1047,1049,1052,1124,1369,1734,1954,1989,2034,2005,1975,1938,1906,1879,1867,1831,1824,1757,1729,1736,1665,1655,1634,1610,1554,1530,1502,1443,1264,1153,1127,1092,1078,1060,1072,1041,1046,991,991,991,991,991,991,991,991,991,991,991,991,991,991,991,991,991,991,991,991,991,991,991,991,991,991,991,316,278,279,279,280,357,398,438,479,519,533,525,518,510,502,495,523,479,471,464,456,448,441,433,425,418,410,402,394,387,379,371,364,356,374,280,281,282,261,263,264,265,265,266,267,265,265,265,266,265,265,273,266,271,266,266,266,266,267,267,267,266,265,265,264,369,371,372,384,375,421,565,625,685,735,745,734,726,712,704,692,682,667,658,646,633,622,611,599,588,577,566,555,536,532,452,442,431,389,379,376,387,378,357,360,357,360,361,362,366,367,360,360,362,365,364,369,363,367,364,363,363,364,362,363,362,364,364,362,357,0,0,0,0,0,0,0,0,0,0,0,0,0,0,0,0,0,0,0,0,0,0,0,0,0,0,0,0,0,0,0,0,0,0,0,0,0,0,0,0,0,0,0,0,0,0,0,0,0,0,0,0,0,0,0,0,0,0,0,0,0,0,0,0,0,185,185,186,186,187,233,264,294,325,356,377,371,366,358,353,347,340,334,329,322,317,311,305,298,293,286,281,275,269,263,257,250,245,239,191,188,188,189,144,144,144,144,144,144,144,144,144,144,144,144,144,144,144,144,144,144,144,144,144,144,144,144,144,144,144,579,581,583,648,601,708,912,1019,1125,1182,1184,1222,1146,1126,1107,1087,1068,1049,1029,1010,991,971,952,932,913,894,874,854,836,816,741,725,707,656,592,588,591,575,566,579,597,579,580,567,573,589,577,576,589,587,579,580,590,590,591,591,590,586,587,580,573,579,579,591,571,876,878,881,931,1032,1318,1546,1715,1846,1882,1853,1827,1800,1772,1743,1709,1685,1666,1608,1614,1564,1507,1472,1439,1405,1382,1337,1295,1234,1215,1087,956,955,903,892,885,885,889,870,881,885,880,897,883,898,904,891,904,901,902,890,891,908,905,907,903,905,897,896,894,887,892,908,908,889,242,243,243,244,245,312,352,392,432,473,489,481,474,465,457,451,442,434,427,419,411,404,396,388,382,373,366,359,350,343,336,327,320,313,250,246,246,247,203,203,203,203,203,203,203,203,203,203,203,203,203,203,203,203,203,203,203,203,203,203,203,203,203,203,203,441,437,438,442,444,513,637,718,793,834,841,836,824,811,790,776,765,759,743,738,721,712,688,699,692,666,652,643,634,614,608,584,525,470,445,441,445,415,362,362,362,362,362,362,362,362,362,362,362,362,362,362,362,362,362,362,362,362,362,362,362,362,362,362,362,278,288,275,292,292,282,364,384,404,425,436,433,430,423,420,417,411,408,405,399,396,393,387,384,381,375,372,369,317,314,309,305,285,282,295,277,277,303,240,240,240,240,240,240,240,240,240,240,240,240,240,240,240,240,240,240,240,240,240,240,240,240,240,240,240,1053,1047,1049,1052,1124,1369,1734,1954,1989,2034,2005,1975,1938,1906,1879,1867,1831,1824,1757,1729,1736,1665,1655,1634,1610,1554,1530,1502,1443,1264,1153,1127,1092,1078,1060,1072,1041,1046,991,991,991,991,991,991,991,991,991,991,991,991,991,991,991,991,991,991,991,991,991,991,991,991,991,991,991,1042,1033,1043,1041,1105,1398,1686,1939,1986,2068,2032,2028,1959,1965,1900,1865,1859,1806,1765,1724,1721,1647,1639,1606,1589,1557,1539,1485,1429,1259,1151,1133,1090,1056,1049,1039,1021,1038,1012,1020,1015,1015,1014,1018,1028,1032,1032,1026,1039,1028,1028,1028,1028,1035,1025,1025,1021,1021,1020,1020,1023,1030,1025,1026,1020,396,397,398,402,405,428,570,631,691,751,776,761,752,741,730,718,702,691,679,668,656,649,637,626,610,599,587,581,570,553,547,498,424,476,405,401,409,404,321,321,321,321,321,321,321,321,321,321,321,321,321,321,321,321,321,321,321,321,321,321,321,321,321,321,321,490,490,492,496,506,558,738,817,904,968,988,968,956,944,927,911,894,878,865,848,832,822,804,792,772,757,742,725,705,671,656,578,564,552,500,496,497,499,417,417,417,417,417,417,417,417,417,417,417,417,417,417,417,417,417,417,417,417,417,417,417,417,417,417,417,212,207,213,216,225,269,290,339,373,407,425,419,412,405,398,391,385,378,371,365,357,350,344,337,312,324,316,297,291,286,280,230,276,226,211,226,226,227,177,177,177,177,177,177,177,177,177,177,177,177,177,177,177,177,177,177,177,177,177,177,177,177,177,177,177,0,0,0,0,0,0,0,0,0,0,0,0,0,0,0,0,0,0,0,0,0,0,0,0,0,0,0,0,0,0,0,0,0,0,0,0,0,0,0,0,0,0,0,0,0,0,0,0,0,0,0,0,0,0,0,0,0,0,0,0,0,0,0,0,0,699,701,702,708,740,952,1084,1232,1350,1415,1422,1393,1384,1352,1329,1306,1278,1255,1232,1208,1185,1167,1144,1116,1093,1070,1046,1024,1001,977,789,770,800,747,712,710,711,696,653,653,653,653,653,653,653,653,653,653,653,653,653,653,653,653,653,653,653,653,653,653,653,653,653,653,653,885,888,891,904,976,1260,1427,1589,1703,1768,1761,1741,1705,1677,1648,1621,1592,1565,1536,1509,1494,1453,1424,1397,1368,1340,1313,1284,1249,1223,1098,1062,936,916,902,899,892,893,882,883,889,889,889,886,889,889,889,889,889,889,889,889,889,889,889,889,889,889,889,889,889,889,889,889,889,196,196,197,198,198,251,283,330,360,390,407,400,394,389,382,377,371,365,359,354,347,327,336,330,324,319,297,290,284,278,271,266,259,254,247,198,244,244,191,188,194,188,189,188,193,194,189,195,197,190,189,196,194,198,194,198,197,247,243,196,195,191,189,189,190,415,416,418,425,422,505,615,714,793,845,843,830,817,804,789,772,770,757,744,722,717,702,682,675,654,654,628,614,510,600,487,475,465,494,425,422,423,407,383,384,388,392,391,395,391,421,393,398,398,396,389,388,392,395,393,389,394,390,388,390,390,396,386,394,388,204,205,206,206,207,264,299,334,369,404,419,412,405,399,392,386,379,371,365,358,352,345,338,332,325,319,312,305,298,291,284,278,271,265,258,254,254,255,180,180,180,180,180,180,180,180,180,180,180,180,180,180,180,180,180,180,180,180,180,180,180,180,180,180,180,1042,1033,1043,1041,1105,1398,1686,1939,1986,2068,2032,2028,1959,1965,1900,1865,1859,1806,1765,1724,1721,1647,1639,1606,1589,1557,1539,1485,1429,1259,1151,1133,1090,1056,1049,1039,1021,1038,1012,1020,1015,1015,1014,1018,1028,1032,1032,1026,1039,1028,1028,1028,1028,1035,1025,1025,1021,1021,1020,1020,1023,1030,1025,1026,1020,1452,1420,1460,1535,1747,2189,2523,2670,2753,2813,2803,2753,2708,2659,2597,2575,2498,2427,2443,2385,2341,2272,2250,2189,2169,1976,1718,1665,1670,1646,1571,1523,1525,1487,1473,1479,1461,1420,1403,1392,1406,1424,1415,1408,1397,1407,1411,1423,1445,1408,1415,1418,1418,1433,1421,1422,1406,1418,1408,1414,1419,1416,1412,1416,1409,479,479,481,482,505,559,701,780,854,915,933,919,902,890,876,862,849,833,822,808,793,777,763,755,736,722,709,695,680,667,647,587,512,516,499,501,503,452,395,395,399,408,399,398,398,401,401,401,401,406,406,415,441,446,406,399,397,404,406,409,405,408,407,411,408,351,351,352,353,354,376,501,553,605,654,676,666,656,646,636,627,617,607,597,587,577,567,557,552,537,528,518,508,498,488,478,417,375,367,359,355,356,357,304,302,309,316,306,305,305,306,309,308,308,307,307,316,347,346,312,310,307,312,307,312,308,312,310,314,311,594,595,597,599,634,798,922,1010,1116,1186,1195,1177,1157,1138,1130,1084,1090,1071,1052,1047,1004,985,966,947,928,896,889,871,851,820,807,686,670,654,606,603,632,606,584,590,594,604,596,595,596,608,603,600,604,600,601,602,597,601,602,603,602,603,599,602,606,606,602,618,603,777,780,782,786,830,946,1247,1367,1486,1550,1553,1528,1502,1478,1462,1412,1411,1388,1367,1354,1307,1279,1255,1232,1207,1169,1158,1132,1107,1034,906,889,832,805,794,790,806,750,727,735,741,750,740,743,742,747,746,750,749,748,749,751,744,757,751,748,748,747,744,747,754,751,749,763,748,0,0,0,0,0,0,0,0,0,0,0,0,0,0,0,0,0,0,0,0,0,0,0,0,0,0,0,0,0,0,0,0,0,0,0,0,0,0,0,0,0,0,0,0,0,0,0,0,0,0,0,0,0,0,0,0,0,0,0,0,0,0,0,0,0,459,459,461,462,504,655,754,871,984,1053,1058,1037,1055,997,986,957,937,917,885,876,856,836,816,796,775,755,745,715,695,719,654,634,614,486,470,515,468,460,476,449,450,450,466,465,469,455,458,467,487,471,479,484,483,486,470,470,478,490,490,487,473,472,479,474,473,835,838,841,843,926,1039,1354,1482,1596,1659,1660,1632,1606,1580,1562,1511,1508,1482,1463,1450,1400,1373,1346,1317,1292,1253,1239,1212,1185,1065,1036,908,892,866,849,847,859,809,791,798,809,815,812,802,818,815,810,808,808,808,815,814,809,812,812,812,810,827,823,809,815,811,811,825,810,621,622,623,645,657,781,974,1080,1195,1249,1252,1232,1220,1191,1172,1150,1130,1110,1098,1081,1053,1033,1013,1008,981,952,939,920,906,882,770,752,688,668,659,660,629,583,566,555,569,587,578,571,560,570,574,586,608,571,578,581,581,596,584,585,569,581,571,577,582,579,575,579,572,548,550,555,554,579,727,823,935,1027,1094,1112,1088,1072,1054,1036,1003,985,983,972,953,929,911,894,875,859,830,825,807,788,759,753,725,639,633,561,558,559,541,500,491,493,502,490,511,497,497,502,503,512,507,507,509,516,514,517,502,499,514,501,512,506,501,510,516,507,1452,1420,1460,1535,1747,2189,2523,2670,2753,2813,2803,2753,2708,2659,2597,2575,2498,2427,2443,2385,2341,2272,2250,2189,2169,1976,1718,1665,1670,1646,1571,1523,1525,1487,1473,1479,1461,1420,1403,1392,1406,1424,1415,1408,1397,1407,1411,1423,1445,1408,1415,1418,1418,1433,1421,1422,1406,1418,1408,1414,1419,1416,1412,1416,1409,1556,1568,1620,1677,2293,2701,3162,3324,3382,3364,3369,3316,3256,3229,3165,3094,3020,2946,2892,2820,2760,2700,2609,2559,2302,2205,2014,1890,1829,1773,1723,1659,1630,1602,1592,1586,1604,1594,1619,1603,1625,1626,1627,1630,1629,1637,1633,1629,1637,1628,1629,1628,1627,1635,1628,1627,1629,1632,1629,1626,1629,1630,1627,1632,1626,780,814,783,792,819,1130,1369,1520,1619,1664,1676,1606,1580,1578,1553,1527,1517,1450,1445,1398,1378,1346,1335,1289,1281,1228,1196,1177,1164,1107,1007,867,833,828,793,792,769,745,748,746,751,748,751,754,756,752,751,752,758,760,755,752,761,762,755,755,757,755,757,756,756,760,760,761,749,684,686,687,689,703,930,1135,1280,1402,1450,1447,1422,1400,1371,1346,1321,1296,1271,1249,1221,1195,1172,1146,1120,1095,1070,1045,1019,995,968,865,780,731,711,696,693,697,653,655,654,659,656,658,661,664,660,658,659,662,668,663,658,660,668,666,665,665,663,660,659,660,663,668,664,652,896,899,901,936,976,1274,1507,1652,1772,1787,1779,1778,1722,1720,1716,1662,1609,1580,1552,1523,1494,1466,1458,1428,1381,1377,1324,1295,1267,1237,1124,967,944,940,912,909,911,903,898,886,889,893,895,899,900,894,903,915,928,910,923,926,924,923,917,922,921,927,937,935,928,921,948,948,936,902,917,908,923,969,1322,1497,1672,1785,1806,1797,1768,1764,1711,1683,1676,1646,1617,1591,1538,1533,1481,1470,1424,1414,1367,1337,1327,1298,1269,1216,977,980,933,918,916,918,919,918,921,927,932,945,931,936,941,933,932,930,939,942,943,935,946,955,964,944,944,937,931,938,936,953,941,931,475,476,477,478,484,639,784,898,1009,1067,1069,1049,1029,1070,1049,970,949,929,909,889,870,850,882,810,790,771,751,731,711,691,657,638,516,584,485,483,486,488,489,492,487,499,497,497,495,515,494,499,493,493,494,503,501,497,496,499,498,495,507,497,496,501,495,501,496,0,0,0,0,0,0,0,0,0,0,0,0,0,0,0,0,0,0,0,0,0,0,0,0,0,0,0,0,0,0,0,0,0,0,0,0,0,0,0,0,0,0,0,0,0,0,0,0,0,0,0,0,0,0,0,0,0,0,0,0,0,0,0,0,0,1097,1113,1106,1148,1224,1564,1897,2035,2173,2176,2171,2140,2126,2073,2026,2003,1956,1944,1910,1866,1828,1784,1765,1712,1696,1649,1612,1595,1456,1272,1229,1178,1177,1130,1130,1114,1092,1098,1096,1101,1100,1109,1102,1117,1107,1105,1111,1111,1113,1123,1123,1134,1124,1122,1124,1128,1132,1130,1124,1121,1124,1125,1131,1126,1116,881,878,895,911,981,1334,1551,1733,1845,1880,1871,1841,1809,1774,1745,1701,1672,1641,1609,1575,1550,1508,1482,1450,1409,1383,1356,1316,1280,1235,997,975,945,927,917,915,856,853,836,845,845,857,856,866,855,870,850,877,853,849,853,861,871,874,881,862,863,863,867,862,857,858,848,856,846,795,798,800,818,860,1028,1325,1449,1555,1623,1653,1565,1539,1515,1517,1463,1437,1422,1386,1361,1335,1310,1282,1258,1232,1207,1183,1157,1153,1107,1005,982,843,823,811,809,790,782,781,768,772,769,773,779,779,774,779,793,804,788,798,802,800,799,794,798,796,806,809,800,796,799,812,814,793,1556,1568,1620,1677,2293,2701,3162,3324,3382,3364,3369,3316,3256,3229,3165,3094,3020,2946,2892,2820,2760,2700,2609,2559,2302,2205,2014,1890,1829,1773,1723,1659,1630,1602,1592,1586,1604,1594,1619,1603,1625,1626,1627,1630,1629,1637,1633,1629,1637,1628,1629,1628,1627,1635,1628,1627,1629,1632,1629,1626,1629,1630,1627,1632,1626,942,947,923,932,985,1285,1540,1707,1859,1884,1832,1803,1768,1814,1711,1714,1686,1670,1648,1598,1537,1507,1518,1493,1419,1439,1395,1373,1310,1163,1039,1093,1053,991,958,972,968,936,925,934,942,940,934,930,939,938,947,947,942,949,943,943,937,949,940,932,940,939,938,938,933,947,937,937,932,521,503,520,517,525,576,739,837,942,952,996,1016,929,990,899,932,914,892,886,828,855,840,825,806,795,773,764,761,748,699,704,667,591,522,526,523,523,501,485,471,471,473,474,473,481,477,477,475,480,483,492,481,486,495,482,482,482,488,500,498,496,496,496,496,496,608,595,613,611,622,796,921,1034,1127,1168,1174,1224,1131,1184,1097,1126,1061,1040,1067,1005,1029,1010,992,964,954,892,917,893,867,841,842,738,699,628,630,622,619,597,582,564,566,569,570,572,583,572,572,570,575,578,587,576,581,590,577,577,577,583,595,593,591,591,591,591,591,294,303,303,324,297,380,438,489,545,555,603,618,551,542,565,556,546,509,501,518,508,498,488,497,469,459,435,426,435,426,421,393,401,373,302,300,298,299,281,277,280,285,286,284,283,280,283,289,285,284,286,293,292,308,301,287,283,290,284,281,285,286,284,292,281,172,172,173,173,213,220,249,278,308,336,352,346,341,335,330,324,319,313,308,302,297,290,284,279,273,268,262,257,251,246,271,265,229,223,217,214,214,215,163,162,162,163,163,163,165,165,163,167,167,166,166,167,166,166,167,168,168,169,168,167,169,169,169,169,169,818,807,824,823,850,1110,1314,1445,1565,1675,1597,1642,1545,1585,1492,1511,1447,1415,1432,1362,1378,1358,1325,1298,1271,1207,1217,1193,1160,1120,987,944,862,830,842,832,833,822,805,807,820,817,813,815,812,814,812,806,816,812,813,816,821,828,823,823,814,822,819,816,815,828,813,828,812,1035,1038,1043,1054,1097,1414,1651,1833,1973,2059,2043,2020,1995,1947,1914,1882,1850,1823,1784,1753,1719,1686,1653,1621,1588,1556,1523,1491,1458,1270,1140,1113,1099,1066,1053,1050,1044,1046,1038,1031,1042,1053,1049,1049,1053,1055,1058,1064,1061,1056,1071,1071,1071,1057,1051,1070,1049,1070,1054,1054,1050,1069,1057,1069,1058,0,0,0,0,0,0,0,0,0,0,0,0,0,0,0,0,0,0,0,0,0,0,0,0,0,0,0,0,0,0,0,0,0,0,0,0,0,0,0,0,0,0,0,0,0,0,0,0,0,0,0,0,0,0,0,0,0,0,0,0,0,0,0,0,0,487,487,489,506,497,612,738,822,920,983,989,972,972,954,940,910,894,878,862,847,829,815,797,782,767,751,735,719,703,685,641,622,606,563,497,519,520,494,420,423,419,425,429,426,426,426,422,423,424,425,422,421,422,424,423,423,424,423,422,426,421,429,422,424,421,351,351,352,353,355,381,512,572,634,693,715,702,690,679,669,657,646,635,622,611,600,589,580,566,557,543,532,520,508,497,486,387,378,369,362,356,357,358,343,328,328,329,331,330,337,334,335,333,339,341,350,339,343,352,339,340,341,347,357,356,355,355,355,355,355,942,947,923,932,985,1285,1540,1707,1859,1884,1832,1803,1768,1814,1711,1714,1686,1670,1648,1598,1537,1507,1518,1493,1419,1439,1395,1373,1310,1163,1039,1093,1053,991,958,972,968,936,925,934,942,940,934,930,939,938,947,947,942,949,943,943,937,949,940,932,940,939,938,938,933,947,937,937,932,841,837,851,854,870,1102,1320,1488,1618,1691,1677,1654,1627,1599,1589,1523,1498,1506,1479,1452,1392,1404,1364,1337,1326,1283,1256,1248,1228,1053,960,904,916,891,865,867,868,880,837,840,836,838,847,846,843,851,844,847,847,844,845,840,841,845,843,840,846,842,838,844,842,847,844,844,840,405,400,402,403,405,445,604,651,714,785,794,780,769,757,743,732,720,707,695,684,672,659,644,632,620,611,596,584,612,596,586,572,466,454,408,414,405,380,363,359,361,372,368,368,366,374,366,372,374,376,381,385,381,402,365,371,375,375,365,366,372,371,367,371,365,456,458,459,460,465,545,694,748,825,904,909,895,881,866,852,838,825,810,796,782,767,753,739,724,710,697,683,668,696,674,567,556,542,529,467,463,464,466,448,452,453,462,460,458,458,465,454,458,461,463,468,476,474,465,459,463,467,465,458,459,463,465,458,464,458,337,337,339,341,356,397,473,527,580,660,685,649,638,649,638,631,618,605,598,589,579,568,551,540,529,525,507,496,486,416,446,417,348,398,360,340,358,359,280,281,281,289,298,301,291,306,300,301,301,298,300,297,296,303,301,295,300,294,290,304,298,301,296,301,300,377,378,378,381,383,470,547,619,685,748,767,755,742,730,718,706,693,681,669,657,644,631,620,607,594,583,575,559,547,534,522,510,495,397,387,384,409,386,332,335,332,342,356,356,344,361,343,363,353,345,357,347,347,357,350,344,360,343,343,358,354,356,355,357,346,629,631,633,631,657,813,991,1107,1237,1278,1280,1314,1317,1225,1204,1174,1155,1134,1117,1092,1107,1057,1029,1008,987,1002,944,922,904,877,862,838,774,656,641,639,640,624,621,621,642,650,632,618,624,626,629,627,626,620,624,627,631,654,621,622,619,627,625,658,628,628,622,634,631,925,911,914,947,974,1320,1656,1803,1921,1970,1934,1926,1865,1872,1837,1791,1758,1722,1691,1661,1636,1584,1520,1512,1450,1416,1381,1382,1336,1131,1026,989,977,959,942,942,935,923,922,923,933,955,943,934,941,949,936,939,938,935,935,938,942,955,937,934,934,938,934,955,942,941,957,952,951,441,443,445,447,448,515,645,716,795,871,891,875,854,847,834,820,805,795,777,760,737,732,720,706,686,676,657,656,636,607,561,548,524,469,458,450,450,435,382,384,379,387,410,410,393,411,396,409,405,413,405,391,391,407,398,391,410,392,386,410,402,410,406,409,398,0,0,0,0,0,0,0,0,0,0,0,0,0,0,0,0,0,0,0,0,0,0,0,0,0,0,0,0,0,0,0,0,0,0,0,0,0,0,0,0,0,0,0,0,0,0,0,0,0,0,0,0,0,0,0,0,0,0,0,0,0,0,0,0,0,496,502,495,501,508,644,770,854,929,998,1016,996,971,966,944,924,907,903,882,859,843,827,821,795,790,760,757,731,725,696,693,674,592,519,507,504,505,506,468,472,475,485,476,485,477,487,483,485,484,480,483,480,479,483,482,478,487,477,473,479,483,487,482,489,484,841,837,851,854,870,1102,1320,1488,1618,1691,1677,1654,1627,1599,1589,1523,1498,1506,1479,1452,1392,1404,1364,1337,1326,1283,1256,1248,1228,1053,960,904,916,891,865,867,868,880,837,840,836,838,847,846,843,851,844,847,847,844,845,840,841,845,843,840,846,842,838,844,842,847,844,844,840,1131,1116,1112,1158,1193,1588,1911,2101,2157,2200,2175,2181,2093,2103,2079,2001,1975,1932,1880,1861,1872,1788,1799,1739,1716,1663,1640,1594,1508,1360,1320,1191,1205,1151,1150,1109,1151,1107,1096,1101,1112,1118,1093,1103,1104,1115,1113,1110,1117,1109,1111,1107,1119,1123,1107,1112,1105,1110,1109,1102,1115,1115,1106,1105,1103,214,215,215,216,205,270,298,327,355,367,381,399,392,387,384,378,349,365,359,354,347,343,336,331,325,320,314,309,302,297,291,286,280,213,269,216,217,217,141,143,143,143,144,143,144,144,142,142,141,142,142,142,143,143,143,142,141,141,143,142,141,140,140,140,140,310,311,312,313,314,353,449,496,555,585,596,609,600,590,587,576,544,556,545,536,527,520,509,499,489,480,470,462,453,444,379,371,362,321,325,339,315,316,237,240,236,238,240,239,243,246,237,237,236,237,237,237,238,238,238,237,236,236,238,237,236,235,235,235,235,155,155,156,156,192,198,224,250,277,303,317,313,308,302,298,292,288,282,277,272,267,262,257,251,247,242,237,232,226,222,216,211,206,201,196,192,193,193,146,149,150,152,152,152,149,152,146,192,149,148,152,150,156,198,155,153,153,148,153,153,153,154,148,152,148,337,338,340,341,346,358,487,544,605,650,663,666,647,640,632,636,617,614,602,590,580,569,558,548,538,527,516,505,494,431,422,411,371,363,351,343,343,348,290,292,295,299,298,297,297,298,291,312,299,293,300,298,305,310,311,302,298,294,297,298,298,302,295,299,293,519,521,522,523,526,652,799,899,992,1058,1067,1049,1031,1014,996,979,961,943,926,908,891,874,856,839,821,804,789,768,751,733,692,653,640,564,531,527,529,531,486,486,490,515,496,502,492,498,494,499,502,498,496,505,505,506,505,500,504,497,519,509,498,504,496,499,499,815,817,820,822,840,1041,1314,1465,1578,1640,1663,1606,1579,1573,1528,1501,1482,1467,1424,1399,1383,1347,1321,1294,1269,1245,1217,1193,1164,966,947,921,868,858,831,828,821,785,770,760,763,768,771,763,768,766,772,766,764,766,763,775,779,776,772,771,766,768,771,771,770,780,769,775,771,395,396,398,400,400,458,575,642,708,761,773,764,767,758,748,742,717,715,703,690,676,665,651,638,627,612,600,589,575,563,550,537,501,487,410,402,402,420,349,356,358,367,363,368,356,374,353,376,357,352,360,364,368,375,366,363,362,356,377,377,360,363,353,361,355,489,491,493,494,515,573,733,801,881,951,969,975,966,925,900,891,901,881,864,829,814,817,777,762,770,731,738,700,684,669,654,639,549,497,486,497,504,477,427,423,426,425,427,426,431,432,429,430,430,431,433,434,433,436,435,432,436,434,434,431,436,436,436,436,436,0,0,0,0,0,0,0,0,0,0,0,0,0,0,0,0,0,0,0,0,0,0,0,0,0,0,0,0,0,0,0,0,0,0,0,0,0,0,0,0,0,0,0,0,0,0,0,0,0,0,0,0,0,0,0,0,0,0,0,0,0,0,0,0,0,1131,1116,1112,1158,1193,1588,1911,2101,2157,2200,2175,2181,2093,2103,2079,2001,1975,1932,1880,1861,1872,1788,1799,1739,1716,1663,1640,1594,1508,1360,1320,1191,1205,1151,1150,1109,1151,1107,1096,1101,1112,1118,1093,1103,1104,1115,1113,1110,1117,1109,1111,1107,1119,1123,1107,1112,1105,1110,1109,1102,1115,1115,1106,1105,1103,0,0,0,0,0,0,0,0,0,0,0,0,0,0,0,0,0,0,0,0,0,0,0,0,0,0,0,0,0,0,0,0,0,0,0,0,0,0,0,0,0,0,0,0,0,0,0,0,0,0,0,0,0,0,0,0,0,0,0,0,0,0,0,0,0,1112,1115,1127,1135,1232,1430,1836,2018,2153,2155,2159,2124,2099,2070,2020,1985,1963,1922,1888,1854,1823,1807,1777,1725,1690,1653,1644,1388,1344,1285,1222,1181,1154,1139,1131,1095,1089,1053,1035,1040,1035,1051,1052,1065,1052,1060,1060,1062,1065,1070,1066,1063,1060,1066,1072,1058,1068,1067,1066,1069,1064,1088,1082,1077,1070,1169,1167,1179,1198,1270,1613,1969,2173,2296,2315,2298,2277,2230,2174,2161,2121,2097,2059,2017,1974,1915,1910,1872,1811,1772,1735,1725,1573,1554,1316,1297,1242,1212,1208,1198,1180,1177,1150,1128,1135,1131,1147,1150,1165,1147,1155,1155,1157,1160,1165,1161,1158,1155,1161,1167,1153,1163,1162,1161,1164,1159,1183,1177,1172,1165,995,999,997,1004,1053,1233,1610,1792,1928,1933,1941,1907,1886,1869,1812,1781,1762,1724,1692,1661,1649,1616,1592,1568,1548,1515,1492,1419,1378,1195,1080,1045,1063,1007,1001,1011,965,927,911,918,909,929,927,940,931,939,939,941,944,949,945,942,939,945,951,937,947,946,945,948,943,967,961,956,949,1038,1043,1041,1049,1116,1304,1694,1872,2013,2017,2023,1987,1966,1947,1888,1856,1835,1798,1760,1728,1715,1681,1660,1634,1612,1577,1551,1468,1179,1238,1125,1100,1110,1051,1044,1051,1017,981,962,971,965,979,980,996,973,989,986,986,990,999,996,994,988,994,999,986,1000,993,992,998,989,1015,1009,1004,997,1369,1370,1376,1410,1597,2015,2388,2527,2688,2679,2711,2649,2590,2547,2522,2464,2450,2403,2354,2299,2237,2232,2146,2125,2065,2025,2003,1771,1549,1568,1522,1469,1413,1414,1380,1368,1372,1369,1363,1350,1352,1356,1368,1373,1354,1364,1363,1365,1369,1374,1370,1367,1365,1371,1376,1363,1373,1372,1371,1374,1369,1393,1387,1382,1375,1623,1654,1686,1837,2227,2743,3091,3217,3349,3298,3299,3246,3203,3123,3079,3022,2982,2942,2866,2792,2737,2619,2259,2114,2042,2012,1988,1953,1872,1841,1818,1732,1709,1700,1676,1668,1675,1671,1653,1651,1668,1672,1681,1692,1668,1682,1675,1680,1680,1685,1690,1682,1681,1683,1691,1674,1682,1686,1685,1687,1695,1711,1705,1700,1693,893,907,908,920,955,1144,1436,1613,1784,1807,1800,1779,1751,1730,1675,1647,1655,1590,1588,1558,1526,1494,1446,1410,1408,1383,1351,1314,1289,1155,1051,996,951,944,940,917,915,907,895,896,897,900,905,912,910,909,915,914,915,924,919,916,914,923,929,913,918,919,921,927,925,932,929,939,926,857,860,863,907,919,1194,1441,1577,1704,1749,1750,1721,1693,1628,1625,1607,1578,1550,1522,1494,1433,1438,1409,1353,1330,1302,1290,1246,1233,1180,1144,984,922,933,894,871,887,857,865,844,857,853,856,874,868,856,855,865,891,869,873,872,876,917,905,868,867,883,884,880,871,865,883,876,870,1189,1191,1194,1208,1294,1553,1997,2171,2307,2302,2310,2260,2235,2215,2153,2108,2083,2045,2007,1972,1953,1914,1885,1850,1828,1787,1742,1654,1455,1317,1290,1242,1228,1203,1196,1202,1153,1118,1108,1117,1100,1113,1113,1127,1114,1122,1122,1124,1127,1132,1128,1125,1122,1128,1134,1120,1130,1129,1128,1131,1126,1150,1144,1139,1132,0,0,0,0,0,0,0,0,0,0,0,0,0,0,0,0,0,0,0,0,0,0,0,0,0,0,0,0,0,0,0,0,0,0,0,0,0,0,0,0,0,0,0,0,0,0,0,0,0,0,0,0,0,0,0,0,0,0,0,0,0,0,0,0,0 ]);
