n = 10;
D = [259,287,64,144,260,222,79,162,293,91 ];
q = 0;
prec = array2d(1..0,1..2,[]);
steps = 64;
l = 360;
r = 0;
which = [];
interval = array2d(1..0,1..2,[]);
T = array3d(1..11,1..11,0..64,[0,0,0,0,0,0,0,0,0,0,0,0,0,0,0,0,0,0,0,0,0,0,0,0,0,0,0,0,0,0,0,0,0,0,0,0,0,0,0,0,0,0,0,0,0,0,0,0,0,0,0,0,0,0,0,0,0,0,0,0,0,0,0,0,0,699,708,711,712,720,945,1100,1210,1299,1346,1349,1337,1318,1293,1283,1255,1239,1222,1203,1190,1171,1148,1135,1116,1092,1064,1059,1019,966,874,847,831,816,725,728,717,711,729,689,692,699,701,700,699,699,700,700,703,700,700,702,699,701,701,701,701,700,704,700,702,701,701,701,702,701,708,718,690,692,699,902,1179,1207,1316,1379,1357,1336,1314,1280,1272,1237,1229,1195,1188,1166,1145,1124,1102,1080,1059,1037,1006,996,974,783,773,866,745,714,729,689,711,688,616,618,619,624,621,624,623,625,626,635,629,628,633,630,640,641,640,637,640,634,639,642,664,684,636,660,637,867,878,881,883,908,1210,1371,1542,1635,1677,1675,1657,1632,1601,1586,1546,1534,1511,1486,1467,1443,1413,1390,1367,1345,1312,1279,1239,1196,984,954,942,944,896,899,888,857,862,816,825,826,828,827,826,826,827,827,830,827,827,829,826,828,828,828,828,827,831,828,829,828,828,828,829,828,433,435,435,437,441,454,593,637,680,722,734,726,718,709,701,693,684,676,667,660,651,642,634,625,618,609,600,592,527,518,464,457,450,443,462,440,435,441,387,389,390,392,390,390,389,391,391,390,391,390,390,390,391,392,392,392,390,395,391,393,392,392,392,393,392,848,858,831,833,888,1128,1449,1504,1592,1665,1624,1603,1573,1547,1522,1497,1471,1446,1421,1395,1370,1345,1319,1293,1267,1241,1217,1192,1167,1074,1058,903,872,852,871,838,830,853,797,798,802,805,811,808,806,811,814,826,819,824,819,856,835,856,829,827,870,828,839,835,859,867,826,855,832,536,537,541,576,552,706,783,869,958,1016,1054,1024,996,996,977,965,949,930,917,902,888,871,855,840,816,812,794,777,762,746,731,716,628,569,549,543,547,540,499,499,499,501,500,499,499,500,500,503,500,500,502,499,501,501,501,501,500,504,501,502,501,501,501,502,501,657,663,661,695,688,889,999,1110,1216,1285,1306,1285,1248,1228,1208,1189,1169,1149,1143,1124,1105,1070,1065,1044,1023,1003,971,951,931,911,729,712,696,680,669,684,668,670,635,635,635,637,636,635,635,636,636,639,636,636,638,635,637,637,637,637,636,640,637,638,637,637,637,638,637,656,657,660,662,674,789,1003,1146,1290,1315,1318,1298,1277,1256,1251,1213,1192,1171,1150,1128,1107,1099,1062,1056,1023,1002,981,977,952,917,781,763,744,682,669,666,667,667,647,647,651,660,660,654,649,659,655,674,671,663,667,668,667,666,670,670,661,660,661,659,657,665,658,668,654,576,569,578,596,611,799,955,1122,1217,1288,1299,1274,1239,1227,1224,1180,1182,1176,1117,1085,1080,1089,1032,991,986,963,952,925,872,849,845,704,682,625,600,597,616,592,588,593,593,601,610,593,599,600,600,595,597,600,599,607,604,629,611,601,610,605,601,597,601,601,607,602,598,0,0,0,0,0,0,0,0,0,0,0,0,0,0,0,0,0,0,0,0,0,0,0,0,0,0,0,0,0,0,0,0,0,0,0,0,0,0,0,0,0,0,0,0,0,0,0,0,0,0,0,0,0,0,0,0,0,0,0,0,0,0,0,0,0,492,494,495,496,499,578,773,862,949,1001,1004,987,971,954,939,922,906,889,873,856,841,825,809,792,775,760,743,727,710,694,677,662,590,574,503,500,501,503,479,483,481,491,497,497,507,504,498,500,540,501,501,497,501,500,504,492,504,505,494,496,512,501,517,503,502,0,0,0,0,0,0,0,0,0,0,0,0,0,0,0,0,0,0,0,0,0,0,0,0,0,0,0,0,0,0,0,0,0,0,0,0,0,0,0,0,0,0,0,0,0,0,0,0,0,0,0,0,0,0,0,0,0,0,0,0,0,0,0,0,0,944,938,948,947,970,1257,1655,1816,1916,1960,1949,1919,1903,1876,1812,1816,1768,1747,1715,1676,1630,1607,1565,1536,1493,1461,1419,1385,1306,1279,1114,1084,1000,973,960,959,886,891,881,882,884,890,910,913,902,919,909,916,908,913,910,911,904,933,911,910,910,905,901,908,898,918,903,909,895,275,276,276,277,278,339,399,440,481,521,530,522,514,507,499,491,484,476,468,460,453,445,437,430,421,413,405,398,390,382,375,367,359,276,270,340,341,342,250,256,248,259,252,257,249,253,251,245,252,251,245,250,251,252,251,258,252,255,256,258,251,271,249,256,252,324,324,325,326,327,421,478,531,584,631,641,631,621,611,601,591,581,572,563,553,543,533,523,513,503,493,484,474,464,455,445,435,425,407,332,328,329,330,319,327,324,324,329,329,329,333,324,329,324,325,326,338,351,332,351,332,326,332,333,328,328,324,326,328,326,1081,1074,1080,1091,1145,1501,1801,1969,2063,2103,2089,2056,2039,2009,1959,1947,1893,1883,1852,1793,1759,1728,1730,1677,1630,1596,1563,1530,1352,1198,1184,1178,1141,1102,1088,1086,1052,1016,989,988,995,1002,1006,993,996,998,997,995,1007,1006,1016,1024,1053,1029,1025,1018,1007,1003,998,995,994,997,1002,995,990,273,274,275,276,276,290,390,437,477,520,497,529,515,506,498,491,485,478,471,446,438,431,437,430,422,414,405,398,390,382,375,368,293,287,280,277,278,279,247,247,251,254,255,247,251,253,250,245,254,255,244,251,257,258,254,257,255,252,250,248,245,249,253,245,243,162,162,163,163,164,170,229,254,278,268,279,275,271,268,264,294,290,286,280,276,271,266,261,257,253,247,243,238,233,228,183,179,175,171,167,164,165,165,105,105,106,106,107,106,106,107,107,108,106,108,108,113,109,110,106,109,107,107,105,110,107,106,105,107,106,472,474,474,476,480,511,702,779,864,911,919,905,890,874,862,847,833,819,805,790,777,760,747,734,718,705,690,677,661,639,609,594,504,498,478,467,477,447,430,428,432,446,451,448,441,439,445,449,444,447,451,435,448,455,436,439,439,447,444,448,437,455,444,454,442,796,798,800,820,841,1087,1442,1598,1709,1755,1739,1699,1680,1650,1618,1594,1592,1545,1494,1518,1433,1451,1374,1339,1348,1311,1247,1241,1185,1154,1105,920,891,842,836,829,821,819,811,811,820,819,843,860,834,860,839,848,859,850,851,846,847,867,849,837,855,847,838,859,855,853,848,863,859,492,494,495,496,499,578,773,862,949,1001,1004,987,971,954,939,922,906,889,873,856,841,825,809,792,775,760,743,727,710,694,677,662,590,574,503,500,501,503,479,483,481,491,497,497,507,504,498,500,540,501,501,497,501,500,504,492,504,505,494,496,512,501,517,503,502,648,650,652,655,668,917,1096,1247,1375,1415,1412,1387,1360,1335,1310,1345,1259,1233,1277,1182,1211,1131,1152,1080,1054,1029,1004,979,952,927,902,849,735,709,665,660,664,667,624,636,631,639,635,635,639,645,631,625,636,638,634,628,631,637,635,633,635,634,630,633,627,632,632,632,632,1027,1062,1035,1071,1160,1580,1815,2028,2141,2168,2202,2142,2076,2038,2000,2020,1926,1939,1916,1890,1827,1736,1744,1662,1667,1630,1582,1511,1472,1461,1215,1113,1128,1069,1050,1045,1054,1060,1037,1040,1037,1047,1051,1056,1052,1058,1058,1052,1059,1051,1053,1052,1052,1052,1052,1052,1052,1055,1052,1051,1052,1053,1052,1056,1052,0,0,0,0,0,0,0,0,0,0,0,0,0,0,0,0,0,0,0,0,0,0,0,0,0,0,0,0,0,0,0,0,0,0,0,0,0,0,0,0,0,0,0,0,0,0,0,0,0,0,0,0,0,0,0,0,0,0,0,0,0,0,0,0,0,1194,1201,1204,1267,1344,1884,2158,2350,2419,2450,2456,2414,2374,2322,2284,2259,2198,2178,2138,2108,2088,1998,1989,1911,1867,1827,1783,1738,1590,1410,1337,1323,1294,1234,1221,1191,1182,1189,1160,1172,1172,1175,1170,1179,1175,1181,1181,1175,1182,1174,1176,1175,1175,1179,1175,1175,1175,1178,1175,1174,1175,1176,1175,1179,1175,839,842,844,847,906,1204,1409,1597,1714,1750,1742,1712,1683,1653,1622,1655,1563,1533,1575,1474,1498,1414,1431,1355,1325,1299,1266,1236,1206,1174,988,914,906,878,858,853,813,823,776,783,790,789,792,799,791,801,792,795,795,786,787,794,793,784,794,794,790,795,792,789,786,786,786,786,786,368,369,370,371,372,411,546,608,670,730,747,735,719,711,696,688,673,661,653,638,628,613,605,590,581,567,555,543,532,520,427,417,406,397,378,373,374,367,328,321,330,338,335,338,327,331,338,342,341,337,337,350,349,375,365,339,329,343,331,335,323,336,336,336,336,911,913,913,924,977,1319,1470,1643,1731,1794,1773,1760,1717,1703,1685,1649,1607,1604,1562,1544,1524,1499,1448,1435,1392,1364,1328,1298,1272,1242,1109,1046,954,930,918,925,922,930,886,885,886,892,893,899,901,905,903,904,906,904,907,908,908,907,916,916,915,928,918,913,911,928,928,928,928,1029,1033,1041,1075,1203,1536,1793,1900,1995,2037,2051,1993,1983,1951,1906,1879,1847,1832,1784,1758,1757,1692,1636,1620,1571,1538,1526,1474,1442,1373,1135,1130,1080,1071,1043,1074,1052,1051,1036,1040,1031,1043,1037,1041,1049,1066,1048,1035,1051,1072,1066,1049,1053,1050,1047,1053,1045,1052,1035,1055,1041,1076,1067,1065,1058,1019,988,992,1021,1099,1487,1731,1945,2062,2088,2074,2037,2000,1964,1925,1946,1854,1818,1848,1745,1761,1669,1680,1599,1562,1525,1540,1453,1416,1330,1146,1069,1054,1026,1003,999,1005,1005,976,987,985,998,986,997,993,1001,994,991,998,992,992,1001,1001,1005,999,999,1002,997,996,996,989,1002,995,999,995,224,225,225,225,226,287,323,358,393,429,445,438,432,425,419,411,404,398,391,385,378,370,364,357,350,344,337,330,323,316,310,303,295,289,282,227,227,228,217,218,221,220,221,222,223,253,225,227,223,225,222,231,224,239,251,228,224,222,217,225,224,224,218,224,222,648,650,652,655,668,917,1096,1247,1375,1415,1412,1387,1360,1335,1310,1345,1259,1233,1277,1182,1211,1131,1152,1080,1054,1029,1004,979,952,927,902,849,735,709,665,660,664,667,624,636,631,639,635,635,639,645,631,625,636,638,634,628,631,637,635,633,635,634,630,633,627,632,632,632,632,695,696,698,705,732,865,1087,1232,1354,1414,1426,1403,1380,1355,1332,1308,1285,1255,1230,1214,1185,1165,1141,1109,1095,1071,1047,1028,1004,966,889,845,748,732,726,715,716,711,639,639,639,639,639,639,639,639,639,639,639,639,639,639,639,639,639,639,639,639,639,639,639,639,639,639,639,261,262,262,263,264,307,382,426,467,509,538,555,506,507,489,490,475,473,466,452,443,441,428,416,417,401,401,387,377,372,360,329,297,291,300,269,266,266,200,200,200,200,200,200,200,200,200,200,200,200,200,200,200,200,200,200,200,200,200,200,200,200,200,200,200,1130,1139,1136,1157,1199,1582,1832,2044,2180,2241,2239,2209,2170,2134,2093,2063,2026,1994,1958,1931,1884,1850,1802,1778,1742,1705,1670,1640,1538,1312,1283,1220,1205,1169,1161,1120,1104,1113,1040,1040,1040,1040,1040,1040,1040,1040,1040,1040,1040,1040,1040,1040,1040,1040,1040,1040,1040,1040,1040,1040,1040,1040,1040,1040,1040,0,0,0,0,0,0,0,0,0,0,0,0,0,0,0,0,0,0,0,0,0,0,0,0,0,0,0,0,0,0,0,0,0,0,0,0,0,0,0,0,0,0,0,0,0,0,0,0,0,0,0,0,0,0,0,0,0,0,0,0,0,0,0,0,0,525,527,528,531,540,600,795,887,980,1048,1060,1043,1034,1009,993,976,959,942,926,908,892,875,858,841,825,807,793,774,756,740,723,664,595,550,543,534,536,538,469,469,469,469,469,469,469,469,469,469,469,469,469,469,469,469,469,469,469,469,469,469,469,469,469,469,469,1213,1211,1220,1259,1316,1756,2014,2190,2323,2407,2405,2356,2317,2271,2234,2202,2165,2122,2093,2051,2015,1970,1938,1898,1861,1808,1790,1528,1488,1363,1334,1304,1276,1263,1239,1215,1212,1190,1110,1110,1110,1110,1110,1110,1110,1110,1110,1110,1110,1110,1110,1110,1110,1110,1110,1110,1110,1110,1110,1110,1110,1110,1110,1110,1110,384,383,383,387,388,418,558,621,700,760,781,766,752,752,740,729,718,707,695,665,658,641,630,616,603,590,581,566,553,541,529,423,412,402,392,388,389,390,309,309,309,309,309,309,309,309,309,309,309,309,309,309,309,309,309,309,309,309,309,309,309,309,309,309,309,249,250,250,252,257,298,360,402,443,486,512,504,496,488,479,471,463,455,446,438,431,422,414,405,398,389,381,373,365,356,348,339,332,324,272,272,272,269,172,172,172,172,172,172,172,172,172,172,172,172,172,172,172,172,172,172,172,172,172,172,172,172,172,172,172,338,339,340,341,342,447,507,568,626,679,689,678,667,656,644,633,622,611,600,589,578,567,556,545,534,523,512,501,490,479,468,457,446,435,347,342,344,345,310,313,310,316,320,317,323,316,314,317,313,317,318,322,316,320,341,341,319,325,317,312,316,314,338,320,314,999,1001,1024,1035,1087,1494,1774,1977,2113,2146,2146,2110,2080,2029,2000,1979,1942,1896,1838,1819,1801,1730,1681,1645,1620,1587,1543,1516,1483,1424,1149,1131,1074,1039,1041,1039,1033,1043,967,967,967,967,967,967,967,967,967,967,967,967,967,967,967,967,967,967,967,967,967,967,967,967,967,967,967,695,696,698,705,732,865,1087,1232,1354,1414,1426,1403,1380,1355,1332,1308,1285,1255,1230,1214,1185,1165,1141,1109,1095,1071,1047,1028,1004,966,889,845,748,732,726,715,716,711,639,639,639,639,639,639,639,639,639,639,639,639,639,639,639,639,639,639,639,639,639,639,639,639,639,639,639,332,332,332,334,336,424,481,537,613,664,675,664,652,643,630,621,611,598,589,577,566,556,546,537,524,513,503,492,481,426,417,407,398,388,341,337,338,339,316,312,314,317,328,325,318,328,318,316,320,322,320,320,323,354,326,326,322,325,323,327,322,333,339,341,336,335,336,339,340,341,368,496,556,625,669,701,677,665,654,643,632,621,610,599,588,577,565,555,544,533,522,511,500,488,478,394,383,374,392,356,342,342,343,314,308,308,311,314,323,318,321,324,321,337,323,328,327,324,344,320,322,322,330,321,316,323,324,317,327,327,772,774,787,774,797,968,1219,1346,1499,1544,1541,1516,1495,1468,1444,1421,1397,1372,1335,1324,1317,1291,1252,1221,1204,1180,1157,1087,1063,1041,974,899,818,855,786,783,760,747,726,729,734,739,740,744,756,750,740,736,745,746,758,755,756,757,741,741,744,739,745,745,737,745,733,732,730,504,505,508,510,511,579,773,863,948,1010,1036,1008,990,972,944,940,924,906,892,874,859,832,816,809,784,775,761,738,728,711,695,612,596,558,526,513,514,490,438,435,447,448,442,464,445,464,456,447,460,452,453,454,453,478,449,450,450,458,448,445,450,452,443,456,455,0,0,0,0,0,0,0,0,0,0,0,0,0,0,0,0,0,0,0,0,0,0,0,0,0,0,0,0,0,0,0,0,0,0,0,0,0,0,0,0,0,0,0,0,0,0,0,0,0,0,0,0,0,0,0,0,0,0,0,0,0,0,0,0,0,849,851,854,859,870,1075,1365,1474,1651,1691,1685,1658,1635,1604,1578,1551,1525,1498,1470,1444,1433,1405,1366,1337,1312,1283,1257,1230,1203,1127,940,931,896,937,864,861,839,829,778,783,786,808,799,790,789,798,791,808,823,821,807,807,820,835,810,796,804,805,813,806,808,822,802,803,803,266,249,259,260,306,263,297,393,422,446,465,460,455,451,447,441,438,434,428,425,420,415,405,397,390,367,360,300,294,327,281,275,289,273,256,331,261,332,178,178,176,178,179,177,179,181,176,176,176,182,182,182,177,202,176,172,173,175,182,182,184,204,182,183,177,406,407,409,415,418,459,594,684,745,798,811,798,800,787,774,761,748,733,722,709,695,687,669,656,641,632,614,598,587,575,563,463,449,440,422,418,414,394,340,345,341,344,347,346,348,350,343,348,343,350,352,359,358,370,357,345,341,345,355,352,351,373,351,359,347,630,638,638,646,646,760,967,1045,1148,1238,1247,1228,1219,1192,1178,1159,1139,1118,1098,1080,1058,1037,1019,997,978,950,937,917,896,836,816,696,681,650,654,646,637,611,582,568,579,585,585,591,578,584,589,581,584,588,586,577,583,582,583,580,578,588,583,614,587,590,587,583,580,655,656,681,681,718,909,1058,1209,1430,1474,1468,1442,1451,1389,1392,1364,1333,1283,1257,1278,1193,1224,1174,1168,1100,1071,1046,1034,1000,982,957,788,726,722,677,677,672,683,666,668,666,674,683,685,678,683,676,676,682,686,682,674,680,691,683,681,681,678,678,683,675,691,682,690,674,332,332,332,334,336,424,481,537,613,664,675,664,652,643,630,621,611,598,589,577,566,556,546,537,524,513,503,492,481,426,417,407,398,388,341,337,338,339,316,312,314,317,328,325,318,328,318,316,320,322,320,320,323,354,326,326,322,325,323,327,322,333,339,341,336,763,770,766,771,779,1123,1325,1488,1602,1646,1639,1617,1588,1558,1522,1500,1471,1435,1405,1377,1353,1318,1289,1264,1235,1213,1177,1146,1118,1085,1060,920,824,790,778,779,783,786,767,767,769,771,769,768,772,774,772,770,775,769,770,770,771,773,768,771,773,773,774,767,772,777,772,775,774,1112,1095,1101,1141,1193,1697,1930,2054,2135,2171,2214,2139,2105,2066,2013,1978,1965,1944,1889,1867,1807,1772,1738,1745,1690,1634,1622,1583,1252,1224,1197,1199,1144,1122,1131,1108,1095,1134,1109,1114,1131,1130,1114,1131,1117,1135,1124,1133,1160,1142,1132,1152,1136,1161,1134,1139,1129,1138,1133,1135,1137,1135,1129,1163,1163,283,284,285,286,287,370,420,468,519,570,598,588,578,569,559,532,522,513,504,512,502,492,484,458,448,440,431,421,412,416,393,385,375,366,357,352,353,354,263,264,275,274,266,267,265,266,266,265,266,267,264,267,267,269,267,270,269,269,267,270,270,271,267,270,270,1248,1231,1242,1292,1387,1969,2207,2323,2398,2426,2469,2387,2348,2301,2257,2249,2188,2162,2112,2085,2018,1980,1944,1949,1867,1808,1786,1748,1607,1384,1334,1341,1283,1258,1269,1233,1221,1259,1235,1234,1246,1250,1240,1249,1242,1245,1244,1247,1281,1257,1253,1256,1258,1295,1260,1261,1250,1262,1261,1264,1264,1264,1255,1284,1284,953,936,958,961,983,1399,1585,1735,1822,1857,1911,1819,1790,1761,1731,1701,1730,1643,1654,1584,1554,1524,1496,1466,1487,1406,1425,1347,1318,1054,1169,1006,981,982,950,947,932,937,925,917,927,928,931,935,935,940,936,938,941,932,932,934,936,937,935,936,936,939,939,936,935,942,936,940,939,0,0,0,0,0,0,0,0,0,0,0,0,0,0,0,0,0,0,0,0,0,0,0,0,0,0,0,0,0,0,0,0,0,0,0,0,0,0,0,0,0,0,0,0,0,0,0,0,0,0,0,0,0,0,0,0,0,0,0,0,0,0,0,0,0,890,894,895,932,953,1318,1474,1639,1729,1766,1821,1719,1691,1678,1650,1619,1615,1566,1513,1500,1482,1445,1433,1442,1364,1343,1326,1278,1252,1025,1017,958,939,929,903,902,897,926,905,903,907,906,909,912,910,919,913,919,929,926,921,925,927,932,930,929,917,928,927,927,925,923,925,930,924,1031,1014,1044,1055,1179,1544,1765,1931,1977,2009,2061,1990,1957,1921,1871,1839,1827,1801,1756,1735,1678,1646,1614,1624,1571,1519,1505,1472,1423,1212,1111,1145,1060,1040,1063,1026,1015,1048,1025,1025,1037,1039,1027,1040,1031,1038,1034,1039,1074,1058,1050,1055,1056,1085,1046,1056,1039,1052,1044,1056,1054,1058,1044,1078,1078,1099,1106,1108,1115,1160,1693,2018,2187,2288,2314,2294,2299,2228,2188,2134,2103,2065,2014,1985,1933,1900,1853,1813,1799,1740,1721,1656,1618,1576,1254,1347,1194,1200,1141,1119,1120,1125,1124,1111,1112,1112,1116,1112,1112,1116,1115,1116,1113,1116,1112,1114,1114,1115,1118,1112,1115,1118,1118,1117,1115,1115,1122,1116,1119,1118,507,508,495,511,513,524,691,770,848,924,948,932,918,903,916,931,915,899,864,814,851,817,770,784,768,777,761,742,726,619,658,643,528,543,519,536,544,538,480,482,491,491,487,489,488,499,491,492,489,492,486,493,491,503,505,498,493,491,484,495,494,495,485,490,490,763,770,766,771,779,1123,1325,1488,1602,1646,1639,1617,1588,1558,1522,1500,1471,1435,1405,1377,1353,1318,1289,1264,1235,1213,1177,1146,1118,1085,1060,920,824,790,778,779,783,786,767,767,769,771,769,768,772,774,772,770,775,769,770,770,771,773,768,771,773,773,774,767,772,777,772,775,774,480,481,483,484,491,632,723,796,869,926,926,914,898,913,872,858,844,830,817,803,789,775,762,748,734,720,706,693,679,665,652,621,608,586,489,487,488,481,471,465,471,479,471,474,473,473,474,479,480,481,473,475,486,473,483,482,486,485,480,483,484,502,492,511,487,282,282,283,284,285,368,421,462,502,540,546,540,532,524,517,509,501,493,486,478,470,463,455,447,440,432,430,416,414,401,394,391,379,367,357,289,286,287,280,287,283,288,289,290,288,324,282,291,286,284,286,337,341,290,340,290,285,286,320,289,283,283,284,290,284,810,817,820,833,869,1037,1316,1447,1549,1579,1577,1554,1531,1510,1483,1457,1436,1413,1377,1366,1344,1318,1309,1268,1242,1225,1185,1133,1110,1088,981,872,907,849,838,827,824,803,773,776,781,782,782,782,783,788,788,782,782,782,782,783,783,788,783,782,782,783,782,782,781,781,781,781,781,417,420,419,420,423,476,620,701,763,812,810,799,793,784,773,756,744,732,720,709,697,685,673,661,652,638,631,613,589,577,565,554,470,443,434,423,423,407,396,397,402,412,406,411,397,407,401,403,404,403,402,407,410,438,411,412,406,407,409,412,418,428,405,412,405,252,252,253,290,290,299,359,391,424,456,465,458,453,446,440,434,427,421,415,409,402,397,390,383,378,371,365,359,353,346,341,334,327,299,315,291,291,292,239,236,237,236,236,244,243,244,243,243,245,239,239,238,238,243,242,241,239,239,239,237,238,239,238,243,242,892,895,897,905,962,1147,1457,1601,1701,1734,1720,1694,1669,1647,1617,1590,1565,1538,1512,1486,1459,1434,1420,1377,1356,1328,1302,1274,1247,1050,1041,957,936,917,906,905,883,864,810,816,818,819,819,819,820,825,824,819,819,819,819,820,820,825,820,819,819,820,819,819,818,818,818,818,818,0,0,0,0,0,0,0,0,0,0,0,0,0,0,0,0,0,0,0,0,0,0,0,0,0,0,0,0,0,0,0,0,0,0,0,0,0,0,0,0,0,0,0,0,0,0,0,0,0,0,0,0,0,0,0,0,0,0,0,0,0,0,0,0,0,201,202,202,203,203,258,297,322,348,375,383,379,374,368,364,358,354,348,344,338,333,328,323,319,313,309,303,298,293,288,283,278,273,268,207,204,204,205,195,195,194,202,200,194,199,199,197,198,207,207,244,239,237,245,202,198,201,198,196,194,199,196,196,198,197,666,660,677,667,691,880,1012,1119,1215,1260,1255,1245,1218,1201,1183,1173,1149,1129,1112,1095,1078,1058,1047,1029,1005,993,969,937,918,875,844,764,730,692,678,676,671,640,608,605,602,603,605,606,610,612,604,609,610,604,603,612,612,612,612,612,612,612,614,617,612,616,612,612,609,804,807,829,833,890,1228,1395,1561,1686,1723,1709,1692,1650,1635,1580,1563,1568,1504,1464,1500,1427,1407,1358,1328,1329,1275,1236,1210,1188,1153,1089,1035,873,828,818,845,829,831,827,819,828,836,831,834,837,831,834,841,845,843,827,832,852,840,838,841,839,854,836,838,842,839,853,832,828,480,481,483,484,491,632,723,796,869,926,926,914,898,913,872,858,844,830,817,803,789,775,762,748,734,720,706,693,679,665,652,621,608,586,489,487,488,481,471,465,471,479,471,474,473,473,474,479,480,481,473,475,486,473,483,482,486,485,480,483,484,502,492,511,487,535,537,539,540,542,660,845,944,1042,1101,1104,1085,1067,1049,1030,1068,994,975,958,939,921,903,885,866,848,830,811,794,775,756,739,720,575,559,547,543,545,599,537,538,537,548,549,551,558,565,556,552,565,550,553,577,550,554,584,570,551,552,543,544,544,577,567,554,542,145,145,146,146,180,185,211,235,260,284,300,294,290,284,280,276,270,266,261,256,251,247,242,237,232,227,223,217,213,209,203,199,193,189,184,180,181,181,140,142,136,139,141,143,143,183,143,140,144,145,145,140,141,142,142,141,142,143,139,140,138,141,142,141,136,983,982,991,994,1013,1347,1612,1785,1909,1970,1933,1903,1875,1848,1860,1790,1760,1718,1702,1689,1644,1620,1584,1561,1534,1490,1428,1411,1364,1313,1194,1102,1045,1019,1005,1002,930,972,939,937,940,947,948,949,956,956,944,952,948,948,945,969,953,956,977,978,960,952,950,955,949,950,966,949,944,306,307,310,310,311,371,449,503,556,613,631,616,610,596,586,580,566,555,549,535,525,515,506,496,491,476,466,456,427,417,409,397,385,377,315,312,313,313,284,285,281,282,284,284,285,293,283,283,287,287,287,285,283,288,285,285,284,286,282,288,284,285,285,285,284,375,367,368,369,379,435,552,616,668,739,727,716,705,694,683,697,662,651,646,629,623,611,616,588,576,564,553,542,554,518,518,515,488,436,375,371,372,373,357,358,365,370,371,367,363,374,362,371,367,365,378,370,372,372,381,381,365,367,367,370,370,371,369,367,363,1061,1071,1080,1091,1151,1470,1760,1944,2061,2113,2073,2040,2013,1981,1989,1917,1885,1854,1835,1806,1758,1728,1693,1667,1638,1590,1571,1436,1350,1253,1192,1161,1153,1092,1079,1087,1044,1018,998,997,1003,1007,1018,1007,1007,1015,1005,1012,1008,1013,1015,1006,1003,1010,1014,1018,1006,1005,1005,1011,1007,1015,1007,1005,1002,206,206,207,207,207,265,300,336,385,421,435,429,418,412,407,400,394,389,383,360,354,367,341,334,326,320,313,306,300,293,287,280,272,266,302,208,234,234,203,207,203,207,224,207,207,207,204,204,205,207,202,207,207,208,205,207,207,207,208,208,205,208,202,207,204,0,0,0,0,0,0,0,0,0,0,0,0,0,0,0,0,0,0,0,0,0,0,0,0,0,0,0,0,0,0,0,0,0,0,0,0,0,0,0,0,0,0,0,0,0,0,0,0,0,0,0,0,0,0,0,0,0,0,0,0,0,0,0,0,0,544,541,548,550,554,655,836,932,1025,1075,1078,1062,1043,1025,1007,990,975,991,940,923,905,887,898,853,834,819,800,786,768,706,704,688,657,571,558,554,555,522,506,503,507,506,513,513,514,513,516,517,524,519,525,515,522,518,514,518,526,528,549,543,533,530,528,537,527,840,841,843,866,884,1328,1568,1680,1802,1838,1838,1820,1773,1740,1707,1736,1641,1682,1591,1543,1510,1523,1453,1437,1414,1378,1342,1280,1251,1218,1164,986,904,891,865,856,865,908,869,866,876,876,874,880,894,874,874,891,901,889,894,903,891,892,905,913,884,894,887,892,899,906,914,904,890,535,537,539,540,542,660,845,944,1042,1101,1104,1085,1067,1049,1030,1068,994,975,958,939,921,903,885,866,848,830,811,794,775,756,739,720,575,559,547,543,545,599,537,538,537,548,549,551,558,565,556,552,565,550,553,577,550,554,584,570,551,552,543,544,544,577,567,554,542,556,557,558,593,573,754,872,975,1093,1147,1120,1102,1084,1067,1049,1030,1013,995,977,959,941,924,905,887,870,869,833,816,815,781,762,744,658,579,567,564,566,567,555,563,558,567,557,568,561,575,569,573,573,567,576,572,576,579,579,576,584,580,577,575,582,590,589,584,581,378,378,379,380,396,431,510,609,651,711,769,757,730,705,693,682,670,658,646,635,623,611,600,587,575,564,552,540,520,496,484,482,462,412,406,383,395,395,326,316,315,319,317,321,316,320,319,325,325,324,325,321,325,328,326,323,324,329,325,328,324,324,324,324,323,947,950,953,1019,1077,1440,1698,1899,2006,2027,2010,1973,1938,1902,1870,1818,1796,1760,1724,1679,1653,1618,1570,1547,1510,1493,1438,1401,1321,1285,1086,1035,1004,977,956,952,891,897,900,897,909,921,916,900,918,943,912,910,912,916,915,916,921,923,919,911,916,912,967,962,912,960,905,909,908,397,399,401,403,406,508,584,652,721,790,808,800,786,770,757,744,731,718,706,696,682,669,654,641,631,614,605,592,579,566,555,540,524,433,408,406,405,390,337,336,340,345,339,341,335,344,345,340,338,338,338,345,339,340,338,342,340,345,337,346,342,341,335,342,338,489,491,492,486,492,623,745,830,914,977,983,967,951,935,920,927,892,877,860,845,830,814,799,774,755,751,736,720,704,688,684,633,551,504,500,505,490,451,432,439,440,447,446,458,440,458,438,453,441,439,442,449,456,459,451,446,444,441,460,457,442,443,439,447,440,1088,1091,1094,1194,1246,1701,1995,2171,2275,2292,2269,2230,2190,2150,2113,2069,2031,1992,1952,1916,1873,1832,1793,1755,1714,1694,1634,1593,1406,1240,1207,1197,1146,1118,1106,1087,1074,1078,1080,1080,1090,1111,1100,1083,1104,1136,1103,1100,1108,1102,1141,1111,1144,1112,1109,1141,1110,1112,1169,1159,1131,1168,1100,1104,1103,547,565,550,552,553,616,834,940,1007,1060,1084,1077,1046,1025,1017,1032,999,982,966,939,919,904,886,853,838,820,794,760,743,727,722,671,632,566,558,555,557,522,505,505,509,513,512,513,512,513,514,515,513,513,512,514,517,517,515,515,517,518,519,519,519,519,519,519,518,427,428,429,430,432,495,623,691,766,852,866,852,839,825,825,797,784,768,757,749,736,721,708,693,690,666,652,637,622,585,554,563,493,467,456,433,434,414,357,358,358,364,364,362,364,370,360,366,366,374,361,362,366,370,364,366,370,378,368,367,367,367,367,367,366,0,0,0,0,0,0,0,0,0,0,0,0,0,0,0,0,0,0,0,0,0,0,0,0,0,0,0,0,0,0,0,0,0,0,0,0,0,0,0,0,0,0,0,0,0,0,0,0,0,0,0,0,0,0,0,0,0,0,0,0,0,0,0,0,0,819,822,824,870,891,1259,1515,1631,1745,1819,1786,1809,1695,1739,1632,1625,1634,1599,1507,1529,1443,1475,1386,1349,1356,1303,1255,1251,1196,1180,1148,945,854,852,839,828,836,832,857,838,846,843,850,856,862,871,846,842,879,861,857,850,851,897,853,858,847,862,848,855,846,853,855,873,851,556,557,558,593,573,754,872,975,1093,1147,1120,1102,1084,1067,1049,1030,1013,995,977,959,941,924,905,887,870,869,833,816,815,781,762,744,658,579,567,564,566,567,555,563,558,567,557,568,561,575,569,573,573,567,576,572,576,579,579,576,584,580,577,575,582,590,589,584,581,587,589,590,592,613,848,988,1128,1249,1293,1293,1270,1246,1223,1199,1175,1152,1128,1105,1081,1058,1034,1010,986,963,939,916,892,869,844,821,798,633,614,600,597,601,604,593,583,601,619,609,609,593,600,611,608,610,613,613,613,610,614,615,617,602,615,613,611,601,625,618,664,608,966,969,999,995,1095,1472,1704,1939,2020,2050,2099,2002,1965,1929,1948,1910,1822,1786,1750,1817,1678,1703,1607,1570,1535,1548,1464,1427,1391,1307,1226,1093,1021,997,983,982,987,991,1007,1007,1006,1012,1017,1011,1016,1020,1026,1025,1023,1022,1017,1026,1025,1022,1026,1031,1028,1026,1025,1033,1026,1024,1029,1035,1020,188,188,189,189,189,239,270,302,332,364,385,378,371,366,359,354,347,342,335,330,323,316,311,304,299,292,287,280,275,268,261,256,249,244,237,190,201,201,161,157,157,155,159,157,158,159,159,166,163,167,168,164,161,167,160,160,164,166,168,188,168,189,183,189,184,1135,1139,1168,1194,1335,1778,2048,2250,2345,2372,2410,2310,2270,2228,2242,2195,2111,2068,2027,2035,1945,1952,1862,1822,1780,1780,1704,1659,1549,1516,1323,1224,1192,1168,1149,1139,1120,1126,1130,1140,1136,1142,1144,1139,1144,1146,1154,1155,1156,1154,1163,1165,1167,1168,1166,1173,1157,1156,1165,1167,1152,1166,1157,1167,1167,779,780,782,784,837,996,1298,1468,1591,1630,1624,1597,1569,1542,1513,1485,1457,1430,1407,1373,1346,1318,1290,1266,1235,1206,1179,1151,1123,1095,995,931,897,806,792,791,762,755,758,752,752,750,757,761,758,764,756,757,761,761,762,760,765,764,774,771,763,762,768,763,766,767,767,772,764,449,450,451,453,457,523,660,734,810,886,905,903,890,862,848,833,819,805,790,776,762,748,733,719,705,690,676,662,647,640,626,548,535,576,459,456,457,434,418,411,413,413,421,421,421,421,422,424,448,426,444,425,428,431,432,434,432,428,430,431,431,429,428,474,425,933,917,917,936,977,1200,1501,1652,1742,1793,1789,1776,1747,1719,1690,1650,1621,1593,1565,1537,1542,1490,1453,1469,1402,1376,1340,1310,1290,1253,1082,1078,962,954,940,925,921,928,928,925,925,921,930,935,929,934,927,934,937,931,932,930,935,934,942,941,933,932,939,938,936,937,937,942,934,1036,1040,1058,1067,1203,1439,1775,1959,2030,2035,2068,2008,1976,1943,1933,1877,1866,1832,1805,1747,1740,1681,1671,1652,1605,1571,1538,1504,1453,1378,1252,1136,1082,1075,1054,1065,1038,1043,1052,1053,1056,1059,1061,1060,1070,1071,1068,1067,1076,1074,1076,1078,1074,1079,1074,1081,1073,1079,1066,1079,1065,1085,1077,1095,1061,923,926,928,963,1043,1432,1622,1825,1939,1971,1959,1921,1970,1855,1881,1786,1751,1716,1758,1644,1612,1575,1598,1508,1474,1493,1401,1369,1334,1258,1109,1079,978,952,950,939,942,942,936,945,947,965,956,954,948,953,952,949,951,952,982,985,986,968,963,973,975,974,970,959,967,963,962,970,951,0,0,0,0,0,0,0,0,0,0,0,0,0,0,0,0,0,0,0,0,0,0,0,0,0,0,0,0,0,0,0,0,0,0,0,0,0,0,0,0,0,0,0,0,0,0,0,0,0,0,0,0,0,0,0,0,0,0,0,0,0,0,0,0,0,587,589,590,592,613,848,988,1128,1249,1293,1293,1270,1246,1223,1199,1175,1152,1128,1105,1081,1058,1034,1010,986,963,939,916,892,869,844,821,798,633,614,600,597,601,604,593,583,601,619,609,609,593,600,611,608,610,613,613,613,610,614,615,617,602,615,613,611,601,625,618,664,608,0,0,0,0,0,0,0,0,0,0,0,0,0,0,0,0,0,0,0,0,0,0,0,0,0,0,0,0,0,0,0,0,0,0,0,0,0,0,0,0,0,0,0,0,0,0,0,0,0,0,0,0,0,0,0,0,0,0,0,0,0,0,0,0,0,699,708,711,712,720,945,1100,1210,1299,1346,1349,1337,1318,1293,1283,1255,1239,1222,1203,1190,1171,1148,1135,1116,1092,1064,1059,1019,966,874,847,831,816,725,728,717,711,729,689,692,699,701,700,699,699,700,700,703,700,700,702,699,701,701,701,701,700,704,700,702,701,701,701,702,701,708,718,690,692,699,902,1179,1207,1316,1379,1357,1336,1314,1280,1272,1237,1229,1195,1188,1166,1145,1124,1102,1080,1059,1037,1006,996,974,783,773,866,745,714,729,689,711,688,616,618,619,624,621,624,623,625,626,635,629,628,633,630,640,641,640,637,640,634,639,642,664,684,636,660,637,867,878,881,883,908,1210,1371,1542,1635,1677,1675,1657,1632,1601,1586,1546,1534,1511,1486,1467,1443,1413,1390,1367,1345,1312,1279,1239,1196,984,954,942,944,896,899,888,857,862,816,825,826,828,827,826,826,827,827,830,827,827,829,826,828,828,828,828,827,831,828,829,828,828,828,829,828,433,435,435,437,441,454,593,637,680,722,734,726,718,709,701,693,684,676,667,660,651,642,634,625,618,609,600,592,527,518,464,457,450,443,462,440,435,441,387,389,390,392,390,390,389,391,391,390,391,390,390,390,391,392,392,392,390,395,391,393,392,392,392,393,392,848,858,831,833,888,1128,1449,1504,1592,1665,1624,1603,1573,1547,1522,1497,1471,1446,1421,1395,1370,1345,1319,1293,1267,1241,1217,1192,1167,1074,1058,903,872,852,871,838,830,853,797,798,802,805,811,808,806,811,814,826,819,824,819,856,835,856,829,827,870,828,839,835,859,867,826,855,832,536,537,541,576,552,706,783,869,958,1016,1054,1024,996,996,977,965,949,930,917,902,888,871,855,840,816,812,794,777,762,746,731,716,628,569,549,543,547,540,499,499,499,501,500,499,499,500,500,503,500,500,502,499,501,501,501,501,500,504,501,502,501,501,501,502,501,657,663,661,695,688,889,999,1110,1216,1285,1306,1285,1248,1228,1208,1189,1169,1149,1143,1124,1105,1070,1065,1044,1023,1003,971,951,931,911,729,712,696,680,669,684,668,670,635,635,635,637,636,635,635,636,636,639,636,636,638,635,637,637,637,637,636,640,637,638,637,637,637,638,637,656,657,660,662,674,789,1003,1146,1290,1315,1318,1298,1277,1256,1251,1213,1192,1171,1150,1128,1107,1099,1062,1056,1023,1002,981,977,952,917,781,763,744,682,669,666,667,667,647,647,651,660,660,654,649,659,655,674,671,663,667,668,667,666,670,670,661,660,661,659,657,665,658,668,654,576,569,578,596,611,799,955,1122,1217,1288,1299,1274,1239,1227,1224,1180,1182,1176,1117,1085,1080,1089,1032,991,986,963,952,925,872,849,845,704,682,625,600,597,616,592,588,593,593,601,610,593,599,600,600,595,597,600,599,607,604,629,611,601,610,605,601,597,601,601,607,602,598,0,0,0,0,0,0,0,0,0,0,0,0,0,0,0,0,0,0,0,0,0,0,0,0,0,0,0,0,0,0,0,0,0,0,0,0,0,0,0,0,0,0,0,0,0,0,0,0,0,0,0,0,0,0,0,0,0,0,0,0,0,0,0,0,0 ]);
