n = 10;
D = [228,146,262,146,215,173,169,282,144,276 ];
q = 0;
prec = array2d(1..0,1..2,[]);
steps = 64;
l = 360;
r = 0;
which = [];
interval = array2d(1..0,1..2,[]);
T = array3d(1..11,1..11,0..64,[0,0,0,0,0,0,0,0,0,0,0,0,0,0,0,0,0,0,0,0,0,0,0,0,0,0,0,0,0,0,0,0,0,0,0,0,0,0,0,0,0,0,0,0,0,0,0,0,0,0,0,0,0,0,0,0,0,0,0,0,0,0,0,0,0,272,274,275,276,277,292,396,442,489,536,558,550,540,531,522,513,504,496,487,479,469,460,452,442,433,424,415,407,398,389,380,371,297,288,281,278,279,279,212,212,212,212,212,212,212,212,212,212,212,212,212,212,212,212,212,212,212,212,212,212,212,212,212,212,212,190,191,191,192,236,245,277,309,341,372,388,382,376,369,364,357,352,345,338,333,326,321,314,309,302,295,290,283,278,271,266,259,253,247,240,236,237,237,128,128,128,128,128,128,128,128,128,128,128,128,128,128,128,128,128,128,128,128,128,128,128,128,128,128,128,280,281,282,283,284,367,416,465,513,567,584,564,564,555,545,537,518,509,499,490,481,473,463,454,445,435,435,425,408,399,390,380,371,363,288,285,286,287,264,264,264,264,264,264,264,264,264,264,264,264,264,264,264,264,264,264,264,264,264,264,264,264,264,264,264,1339,1298,1324,1378,1517,2044,2512,2681,2778,2765,2774,2717,2643,2585,2579,2527,2439,2427,2376,2341,2275,2183,2146,2123,2075,2013,1949,1863,1556,1494,1462,1408,1355,1358,1318,1334,1325,1353,1285,1285,1285,1285,1285,1285,1285,1285,1285,1285,1285,1285,1285,1285,1285,1285,1285,1285,1285,1285,1285,1285,1285,1285,1285,1285,1285,430,431,433,436,440,493,628,705,779,862,872,860,845,831,818,804,788,776,762,749,735,720,707,694,679,665,650,638,623,609,511,499,474,463,441,438,439,441,340,340,340,340,340,340,340,340,340,340,340,340,340,340,340,340,340,340,340,340,340,340,340,340,340,340,340,500,502,502,506,518,610,721,804,883,970,977,964,948,934,920,906,889,876,861,847,832,817,803,788,773,757,741,728,713,698,635,612,556,534,512,507,517,499,402,402,402,402,402,402,402,402,402,402,402,402,402,402,402,402,402,402,402,402,402,402,402,402,402,402,402,520,506,511,512,544,651,786,869,947,976,1004,988,993,958,942,944,911,896,875,864,865,860,814,803,808,805,795,740,724,699,710,669,573,530,518,531,516,527,465,465,465,465,465,465,465,465,465,465,465,465,465,465,465,465,465,465,465,465,465,465,465,465,465,465,465,285,287,287,288,288,314,406,451,498,544,576,568,560,551,542,533,524,516,506,497,489,479,469,461,452,441,433,422,415,350,341,334,326,318,295,291,292,293,246,243,248,258,250,250,250,250,250,250,250,250,250,250,250,250,250,250,250,250,250,250,250,250,250,250,250,367,368,369,370,371,480,552,617,669,732,753,731,729,717,694,693,672,650,649,636,624,613,592,589,577,566,562,550,531,526,499,496,484,459,370,367,373,369,357,357,357,357,357,357,357,357,357,357,357,357,357,357,357,357,357,357,357,357,357,357,357,357,357,357,357,0,0,0,0,0,0,0,0,0,0,0,0,0,0,0,0,0,0,0,0,0,0,0,0,0,0,0,0,0,0,0,0,0,0,0,0,0,0,0,0,0,0,0,0,0,0,0,0,0,0,0,0,0,0,0,0,0,0,0,0,0,0,0,0,0,277,278,279,279,280,364,411,460,522,552,579,555,560,550,528,519,522,502,505,484,486,479,470,462,440,430,433,412,411,402,393,383,372,365,356,281,314,315,255,259,256,259,259,259,258,257,256,257,258,260,254,258,272,273,258,254,265,256,256,259,258,260,254,258,255,0,0,0,0,0,0,0,0,0,0,0,0,0,0,0,0,0,0,0,0,0,0,0,0,0,0,0,0,0,0,0,0,0,0,0,0,0,0,0,0,0,0,0,0,0,0,0,0,0,0,0,0,0,0,0,0,0,0,0,0,0,0,0,0,0,279,279,279,280,281,274,380,424,468,555,524,557,543,499,531,521,509,502,457,480,441,432,424,415,441,447,391,382,375,366,357,322,279,272,265,317,345,361,239,239,239,240,238,240,239,238,237,238,239,240,237,239,252,250,239,237,246,239,239,240,241,241,237,239,238,169,169,170,170,171,217,245,274,303,331,347,342,336,330,324,319,313,309,303,298,292,286,280,275,269,264,258,254,247,242,236,231,225,220,177,174,174,175,160,153,155,163,162,161,150,155,159,169,168,163,168,162,165,162,168,163,153,166,154,162,155,152,165,161,152,1255,1258,1267,1299,1399,1923,2218,2386,2522,2590,2629,2546,2493,2458,2418,2378,2340,2289,2245,2196,2174,2105,2066,2011,1951,1900,1872,1718,1595,1521,1388,1350,1306,1295,1278,1257,1265,1271,1273,1264,1264,1277,1299,1259,1270,1275,1290,1308,1304,1316,1327,1348,1320,1331,1375,1328,1319,1337,1341,1355,1348,1345,1358,1354,1340,407,405,405,406,397,449,600,670,739,786,817,812,792,778,784,759,739,685,720,661,687,674,661,671,635,643,609,596,581,569,550,537,514,451,401,397,434,400,398,405,402,407,408,412,403,410,405,414,409,406,407,406,411,422,414,410,414,407,409,412,409,416,406,412,407,476,473,475,476,468,548,694,769,844,894,936,918,896,882,888,860,840,785,819,759,784,771,756,778,729,735,700,687,671,658,655,631,560,493,471,467,495,462,461,468,465,470,469,472,466,470,468,467,472,469,466,469,471,474,470,473,473,470,472,475,469,478,468,475,470,601,602,603,611,612,732,921,992,1149,1209,1199,1193,1152,1139,1124,1104,1082,1065,1038,1012,1004,996,972,950,935,940,891,871,863,834,809,725,632,621,613,617,613,657,576,576,576,577,575,577,576,575,574,575,576,577,574,576,604,590,576,574,583,576,576,577,578,578,574,576,575,438,439,432,441,443,515,650,726,839,858,895,852,866,852,809,811,795,791,779,756,752,722,712,718,681,667,664,632,625,630,611,541,528,463,452,435,469,444,425,427,426,433,447,449,444,447,446,447,448,449,446,437,466,463,446,432,455,446,435,449,450,450,446,448,447,292,293,294,297,298,307,417,472,514,572,589,586,570,565,552,544,532,526,516,509,497,490,483,473,460,455,441,435,420,410,404,394,337,327,306,300,301,301,264,260,259,264,266,265,265,267,263,273,265,279,285,279,268,279,274,267,267,270,271,279,272,269,282,278,269,277,278,279,279,280,364,411,460,522,552,579,555,560,550,528,519,522,502,505,484,486,479,470,462,440,430,433,412,411,402,393,383,372,365,356,281,314,315,255,259,256,259,259,259,258,257,256,257,258,260,254,258,272,273,258,254,265,256,256,259,258,260,254,258,255,203,204,205,205,207,232,291,326,360,394,415,409,402,396,389,382,376,369,363,356,349,343,336,330,326,316,310,303,297,290,283,279,271,238,233,222,227,228,153,155,154,156,155,156,156,158,158,156,159,156,154,156,154,158,157,155,156,154,153,156,155,157,155,159,155,229,229,230,230,260,253,328,352,364,396,422,415,408,402,396,389,381,375,368,361,354,367,342,358,327,348,343,338,333,328,311,305,299,294,255,251,251,251,202,199,201,206,202,206,202,208,202,207,207,202,204,204,205,207,206,205,205,205,205,203,205,205,205,207,205,0,0,0,0,0,0,0,0,0,0,0,0,0,0,0,0,0,0,0,0,0,0,0,0,0,0,0,0,0,0,0,0,0,0,0,0,0,0,0,0,0,0,0,0,0,0,0,0,0,0,0,0,0,0,0,0,0,0,0,0,0,0,0,0,0,332,331,332,333,334,366,483,540,597,653,672,661,651,595,627,618,613,597,590,579,547,536,543,532,522,495,485,489,483,468,442,369,441,366,357,334,352,353,296,299,289,297,318,303,299,325,297,300,302,301,297,293,295,301,298,298,301,298,295,301,296,328,322,325,323,1149,1129,1153,1212,1391,1797,2218,2357,2453,2460,2435,2391,2383,2297,2256,2249,2180,2145,2130,2065,2038,1992,1914,1869,1837,1790,1741,1684,1605,1469,1278,1240,1217,1178,1173,1164,1154,1182,1157,1166,1170,1159,1170,1172,1176,1189,1183,1183,1183,1183,1183,1183,1183,1183,1183,1183,1183,1183,1183,1183,1183,1183,1183,1183,1183,244,244,245,246,260,268,356,397,438,480,498,490,482,475,466,458,451,443,434,426,419,411,403,394,387,379,371,364,355,347,339,332,279,271,265,260,261,261,212,212,212,214,224,230,226,233,230,230,230,230,230,230,230,230,230,230,230,230,230,230,230,230,230,230,230,314,315,315,317,327,374,449,494,540,587,605,596,587,578,569,561,552,543,534,525,519,508,499,490,481,473,464,455,446,437,427,423,401,390,372,317,330,359,274,275,275,277,276,279,277,282,279,279,279,279,279,279,279,279,279,279,279,279,279,279,279,279,279,279,279,382,380,393,386,387,481,599,641,701,760,768,742,744,732,720,708,696,678,667,655,647,635,611,611,601,576,564,563,553,529,526,525,473,394,385,388,388,390,366,369,368,372,372,371,373,373,370,369,370,370,372,372,393,374,370,372,374,374,394,375,372,393,370,370,370,358,364,367,368,369,395,524,584,644,699,719,709,698,685,665,660,651,641,630,619,606,596,584,573,562,552,541,528,518,503,492,436,403,402,360,361,357,374,323,323,324,330,327,331,328,331,328,331,330,326,329,330,327,327,331,331,332,328,329,327,328,329,331,331,331,458,454,458,462,472,538,684,751,836,907,923,908,894,823,852,839,830,810,810,783,756,742,734,729,717,678,671,672,654,644,613,506,604,513,474,470,472,473,413,416,406,414,435,420,420,436,415,418,421,419,414,410,413,419,417,416,420,415,413,419,415,445,440,442,440,203,204,205,205,207,232,291,326,360,394,415,409,402,396,389,382,376,369,363,356,349,343,336,330,326,316,310,303,297,290,283,279,271,238,233,222,227,228,153,155,154,156,155,156,156,158,158,156,159,156,154,156,154,158,157,155,156,154,153,156,155,157,155,159,155,370,369,372,370,375,492,558,623,684,737,752,740,771,710,698,693,680,668,656,644,632,620,608,596,579,572,561,548,536,524,508,496,485,461,428,376,377,413,356,359,358,360,362,363,364,365,365,365,366,367,364,367,364,367,366,365,370,368,367,369,369,372,370,371,371,211,212,213,213,256,265,298,334,364,404,416,420,411,405,398,386,384,378,371,355,350,343,343,337,330,315,312,311,297,296,289,278,275,270,258,258,212,212,175,170,172,174,175,172,173,173,172,174,175,172,174,174,172,172,171,174,174,177,172,172,177,174,172,169,169,424,434,433,433,431,527,632,713,781,844,862,844,832,814,804,790,779,763,757,731,724,710,691,683,667,653,640,627,612,599,547,534,522,457,434,431,432,410,340,339,341,341,342,344,345,346,346,346,347,347,347,348,347,348,347,348,351,351,350,350,352,353,353,352,352,0,0,0,0,0,0,0,0,0,0,0,0,0,0,0,0,0,0,0,0,0,0,0,0,0,0,0,0,0,0,0,0,0,0,0,0,0,0,0,0,0,0,0,0,0,0,0,0,0,0,0,0,0,0,0,0,0,0,0,0,0,0,0,0,0,1131,1133,1142,1188,1294,1778,2050,2269,2379,2434,2411,2379,2303,2281,2238,2193,2149,2087,2063,2021,1976,1934,1873,1849,1804,1758,1718,1658,1632,1367,1286,1258,1195,1170,1149,1135,1152,1157,1147,1142,1144,1153,1174,1134,1145,1148,1168,1176,1179,1178,1178,1211,1193,1189,1210,1204,1195,1209,1204,1211,1208,1211,1207,1209,1203,578,558,568,564,584,711,841,974,1037,1110,1113,1090,1076,1084,1042,1023,1005,992,1015,969,949,916,931,924,899,862,863,810,786,634,621,617,618,603,570,571,561,571,489,490,491,494,495,499,498,500,497,499,499,500,501,512,509,509,505,505,504,505,508,507,503,507,502,502,502,648,628,638,652,656,753,938,1078,1185,1217,1218,1195,1180,1225,1144,1124,1105,1091,1087,1068,1046,1012,1026,1017,992,954,935,900,875,759,745,739,737,677,641,641,663,633,552,553,554,558,558,562,561,561,558,560,560,561,562,573,570,570,566,566,565,566,569,568,564,568,563,563,563,761,781,776,775,779,1016,1201,1334,1461,1520,1529,1490,1472,1442,1421,1403,1383,1354,1338,1302,1288,1262,1234,1212,1178,1153,1140,1117,1101,1047,972,847,823,809,776,775,777,747,677,676,678,678,679,681,682,683,683,683,684,684,684,685,684,685,684,685,688,688,687,687,689,690,690,689,689,572,575,578,582,579,741,866,954,1071,1144,1144,1120,1099,1077,1064,1058,1039,1007,993,966,955,948,919,898,884,862,844,838,810,801,726,708,691,609,585,580,582,583,526,527,528,534,551,553,550,555,555,555,556,556,556,546,549,557,554,543,559,558,546,559,561,562,562,561,561,126,126,126,156,156,160,172,201,211,242,255,251,247,243,228,225,221,217,213,220,205,212,207,203,200,195,183,188,183,171,176,171,168,163,160,157,157,157,117,117,117,117,117,117,121,126,118,118,119,118,117,117,118,118,119,118,119,117,118,118,119,119,118,120,119,370,369,372,370,375,492,558,623,684,737,752,740,771,710,698,693,680,668,656,644,632,620,608,596,579,572,561,548,536,524,508,496,485,461,428,376,377,413,356,359,358,360,362,363,364,365,365,365,366,367,364,367,364,367,366,365,370,368,367,369,369,372,370,371,371,1266,1270,1274,1311,1477,1944,2268,2610,2669,2718,2652,2654,2583,2541,2480,2440,2393,2347,2298,2248,2170,2149,2101,2054,2003,1954,1906,1818,1529,1440,1431,1346,1319,1325,1294,1272,1267,1274,1268,1274,1274,1264,1297,1285,1289,1293,1285,1298,1305,1285,1297,1316,1304,1302,1304,1308,1310,1315,1310,1304,1300,1305,1300,1305,1287,1340,1326,1346,1367,1535,2036,2400,2579,2648,2655,2638,2595,2576,2534,2471,2452,2414,2374,2315,2272,2220,2182,2149,2101,2052,1991,1963,1834,1586,1530,1489,1418,1398,1371,1337,1358,1360,1356,1347,1351,1364,1361,1367,1346,1354,1362,1374,1387,1384,1390,1379,1400,1376,1379,1400,1391,1375,1378,1382,1391,1378,1378,1399,1380,1378,1164,1171,1177,1198,1352,1761,2072,2422,2483,2535,2465,2470,2409,2367,2312,2264,2230,2188,2139,2094,2019,2000,1954,1909,1863,1818,1764,1719,1697,1337,1330,1247,1206,1199,1187,1188,1197,1186,1184,1190,1166,1167,1209,1188,1187,1197,1186,1197,1221,1194,1209,1232,1220,1218,1206,1219,1218,1231,1226,1211,1204,1220,1216,1220,1194,1219,1211,1224,1285,1367,1978,2242,2412,2498,2508,2564,2500,2433,2383,2365,2263,2278,2175,2131,2090,2073,1998,1954,1936,1895,1853,1852,1791,1677,1349,1332,1320,1241,1235,1204,1201,1248,1251,1257,1247,1253,1256,1273,1254,1269,1280,1279,1286,1288,1284,1288,1283,1286,1285,1287,1288,1289,1287,1292,1292,1290,1288,1287,1288,1282,0,0,0,0,0,0,0,0,0,0,0,0,0,0,0,0,0,0,0,0,0,0,0,0,0,0,0,0,0,0,0,0,0,0,0,0,0,0,0,0,0,0,0,0,0,0,0,0,0,0,0,0,0,0,0,0,0,0,0,0,0,0,0,0,0,1042,1047,1051,1061,1150,1539,1820,2173,2245,2288,2238,2196,2183,2140,2089,2056,2014,1977,1932,1894,1824,1806,1763,1722,1679,1650,1594,1555,1513,1360,1218,1120,1087,1075,1062,1063,1015,1019,1008,1001,1016,1017,1028,1003,1001,1010,1006,1030,1033,1032,1025,1036,1024,1009,1035,1023,1023,1027,1030,1026,1025,1026,1029,1038,1028,1019,999,1002,1009,1093,1458,1765,2079,2155,2217,2157,2126,2118,2050,2028,2003,1963,1910,1880,1844,1750,1733,1697,1657,1611,1573,1565,1507,1476,1377,1293,1118,1053,1026,1027,1009,967,972,960,952,968,967,978,953,951,959,958,980,984,977,968,983,970,958,987,974,973,977,982,977,977,974,981,990,980,908,909,911,916,985,1303,1552,1905,1975,2029,1983,1945,1937,1898,1852,1822,1785,1746,1713,1674,1609,1595,1557,1520,1481,1444,1405,1368,1329,1292,1254,1147,948,936,923,924,929,936,923,926,933,930,935,929,940,942,939,929,949,941,937,937,965,969,969,969,944,946,968,940,942,949,950,952,945,1250,1244,1259,1290,1477,1909,2262,2534,2638,2646,2623,2552,2555,2487,2431,2382,2317,2285,2259,2222,2105,2081,2055,2016,1953,1924,1874,1796,1741,1632,1422,1320,1308,1269,1238,1268,1235,1234,1215,1221,1236,1240,1244,1232,1236,1240,1233,1250,1252,1249,1244,1263,1251,1249,1251,1255,1257,1262,1257,1251,1259,1252,1247,1252,1248,1138,1108,1114,1158,1470,1815,2079,2253,2341,2355,2395,2350,2250,2240,2223,2125,2142,2041,1999,1961,1947,1874,1832,1817,1749,1709,1712,1669,1581,1481,1394,1193,1158,1133,1121,1124,1166,1174,1171,1156,1160,1166,1181,1161,1176,1188,1187,1196,1195,1191,1195,1192,1193,1192,1195,1195,1195,1194,1195,1195,1195,1195,1194,1195,1194,1266,1270,1274,1311,1477,1944,2268,2610,2669,2718,2652,2654,2583,2541,2480,2440,2393,2347,2298,2248,2170,2149,2101,2054,2003,1954,1906,1818,1529,1440,1431,1346,1319,1325,1294,1272,1267,1274,1268,1274,1274,1264,1297,1285,1289,1293,1285,1298,1305,1285,1297,1316,1304,1302,1304,1308,1310,1315,1310,1304,1300,1305,1300,1305,1287,472,473,474,475,482,526,715,814,895,948,957,939,924,908,893,878,863,848,832,817,801,786,772,756,740,725,710,695,680,665,650,519,506,502,483,479,480,468,431,431,431,431,431,431,431,431,431,431,431,431,431,431,431,431,431,431,431,431,431,431,431,431,431,431,431,372,381,398,399,378,418,526,630,691,739,751,741,732,720,709,696,685,673,661,649,650,638,612,619,567,555,546,535,526,517,518,412,402,414,405,378,403,404,380,380,380,380,380,380,380,380,380,380,380,380,380,380,380,380,380,380,380,380,380,380,380,380,380,380,380,369,370,377,372,379,477,547,632,697,739,760,737,735,723,709,689,687,675,653,651,639,627,606,602,589,569,564,554,542,530,518,499,498,394,384,379,381,382,358,352,354,357,356,357,357,358,354,358,358,357,358,358,358,356,358,358,358,358,358,358,358,358,358,358,358,503,512,506,508,516,612,772,871,948,996,1003,988,975,969,952,932,920,903,887,848,866,852,822,821,789,787,757,741,724,676,702,637,621,591,514,511,513,513,466,466,466,466,466,466,466,466,466,466,466,466,466,466,466,466,466,466,466,466,466,466,466,466,466,466,466,1015,1002,997,1008,1074,1485,1903,2104,2190,2265,2192,2158,2159,2108,2034,1995,1976,1907,1862,1820,1815,1775,1699,1657,1614,1605,1556,1489,1463,1355,1178,1107,1089,1037,1041,1024,1030,1026,1018,1018,1018,1018,1018,1018,1018,1018,1018,1018,1018,1018,1018,1018,1018,1018,1018,1018,1018,1018,1018,1018,1018,1018,1018,1018,1018,0,0,0,0,0,0,0,0,0,0,0,0,0,0,0,0,0,0,0,0,0,0,0,0,0,0,0,0,0,0,0,0,0,0,0,0,0,0,0,0,0,0,0,0,0,0,0,0,0,0,0,0,0,0,0,0,0,0,0,0,0,0,0,0,0,116,116,116,116,116,117,126,135,144,152,160,158,156,155,152,151,149,148,146,144,143,140,139,137,136,134,132,130,128,127,125,124,122,119,118,116,117,117,62,62,62,62,62,62,62,62,62,62,62,62,62,62,62,62,62,62,62,62,62,62,62,62,62,62,62,484,485,488,489,490,572,748,817,896,962,969,953,939,923,924,897,878,863,847,832,821,802,787,771,761,742,725,724,698,680,665,652,554,516,504,491,490,494,455,455,455,455,455,455,455,455,455,455,455,455,455,455,455,455,455,455,455,455,455,455,455,455,455,455,455,525,527,529,530,539,722,817,911,1003,1051,1056,1039,1023,1023,988,972,955,939,921,905,888,872,855,838,821,805,788,771,766,738,721,705,687,549,537,533,534,536,519,519,519,519,519,519,519,519,519,519,519,519,519,519,519,519,519,519,519,519,519,519,519,519,519,519,519,629,638,633,635,656,756,973,1094,1201,1244,1247,1229,1203,1194,1173,1149,1133,1120,1092,1057,1062,1055,1020,1007,972,975,940,912,899,819,755,749,656,654,642,639,640,630,557,557,557,557,557,557,557,557,557,557,557,557,557,557,557,557,557,557,557,557,557,557,557,557,557,557,557,472,473,474,475,482,526,715,814,895,948,957,939,924,908,893,878,863,848,832,817,801,786,772,756,740,725,710,695,680,665,650,519,506,502,483,479,480,468,431,431,431,431,431,431,431,431,431,431,431,431,431,431,431,431,431,431,431,431,431,431,431,431,431,431,431,505,506,508,510,512,601,785,872,959,1016,1025,1005,988,972,955,939,924,907,891,874,860,842,826,809,793,776,760,744,728,711,694,635,578,529,517,513,514,500,467,465,465,474,488,479,482,485,483,492,481,489,485,484,484,489,491,487,485,481,474,479,474,489,482,485,476,430,428,432,433,413,460,619,694,751,801,819,808,798,785,773,759,745,733,719,706,707,695,682,672,616,610,593,583,573,573,562,485,495,464,416,436,457,438,416,407,409,412,422,425,413,417,412,417,426,425,421,430,432,432,432,424,422,432,430,430,432,432,428,432,427,403,410,411,406,414,491,617,691,761,807,805,814,800,787,774,749,748,734,721,709,696,683,660,656,642,621,617,595,581,576,563,551,498,486,418,414,415,417,394,377,380,386,383,382,391,385,379,390,382,381,387,393,392,388,409,398,383,383,382,383,381,388,384,389,383,528,524,540,528,542,658,817,937,1010,1057,1071,1055,1041,1032,1014,995,980,957,921,928,922,907,892,876,841,839,806,755,772,742,724,640,634,561,534,545,547,555,502,507,509,514,511,510,505,515,511,516,508,506,512,521,519,523,522,519,518,511,516,520,519,524,512,520,512,982,983,1004,960,1077,1464,1805,2019,2102,2181,2147,2121,2026,1986,2043,1919,1906,1829,1827,1776,1772,1713,1666,1626,1558,1513,1485,1437,1434,1339,1113,1045,1048,985,996,972,1022,978,987,992,992,992,1007,999,999,1009,1004,1038,1019,1009,1016,1002,1043,1062,1038,1023,1008,1020,1023,1026,1025,1023,1013,1021,1008,85,85,85,85,105,106,121,135,148,162,173,170,168,166,162,160,157,155,151,149,146,144,140,138,135,133,129,127,124,122,118,116,113,111,107,105,105,106,48,47,48,49,48,50,50,50,50,51,48,50,49,55,57,53,54,51,48,49,50,50,48,49,48,52,48,0,0,0,0,0,0,0,0,0,0,0,0,0,0,0,0,0,0,0,0,0,0,0,0,0,0,0,0,0,0,0,0,0,0,0,0,0,0,0,0,0,0,0,0,0,0,0,0,0,0,0,0,0,0,0,0,0,0,0,0,0,0,0,0,0,518,520,521,523,541,661,789,895,963,1037,1031,1025,1016,1000,971,951,937,938,906,894,890,858,857,840,809,807,776,773,740,727,725,707,664,575,529,527,537,517,491,488,513,513,500,513,498,515,498,508,501,498,507,517,514,515,511,503,514,506,503,507,500,509,502,503,500,558,560,562,584,592,770,873,974,1072,1115,1123,1158,1086,1069,1051,1034,1016,997,980,962,944,927,925,908,873,855,838,819,801,779,765,700,683,660,571,567,569,570,555,553,553,558,563,554,564,557,559,558,555,559,562,569,567,569,578,575,563,569,560,558,563,563,570,566,559,653,650,667,655,684,802,1028,1179,1261,1308,1315,1296,1269,1257,1232,1212,1193,1172,1126,1127,1125,1104,1089,1061,1024,1027,988,926,948,807,818,774,747,688,690,692,675,667,593,597,609,631,604,605,602,603,598,607,600,597,605,610,614,613,614,609,606,605,610,608,610,607,600,609,601,505,506,508,510,512,601,785,872,959,1016,1025,1005,988,972,955,939,924,907,891,874,860,842,826,809,793,776,760,744,728,711,694,635,578,529,517,513,514,500,467,465,465,474,488,479,482,485,483,492,481,489,485,484,484,489,491,487,485,481,474,479,474,489,482,485,476,430,432,432,434,436,535,641,706,789,852,871,858,844,830,816,803,788,774,761,746,740,726,705,690,677,663,650,642,621,608,594,547,535,451,441,437,438,439,373,371,369,378,369,378,369,373,374,374,373,374,376,371,377,379,381,372,375,376,374,380,374,374,375,375,373,558,560,561,563,560,710,832,899,1003,1065,1086,1068,1054,1036,1019,994,984,965,938,933,931,897,901,860,835,827,804,789,774,768,734,717,659,571,578,556,557,558,491,489,487,496,487,496,487,491,492,492,491,492,494,489,495,497,499,490,493,494,492,498,492,492,493,493,491,329,330,331,331,337,391,480,535,595,646,674,664,655,644,633,623,612,601,580,579,564,555,543,533,521,512,501,490,480,469,459,443,417,393,390,338,339,340,289,287,285,294,285,294,285,289,290,290,289,290,292,287,293,295,297,288,291,292,290,296,290,290,291,291,289,657,655,655,663,671,808,1014,1130,1242,1309,1299,1304,1250,1269,1242,1221,1204,1166,1154,1121,1096,1095,1060,1054,1013,997,990,964,947,901,769,751,750,690,675,672,675,653,585,581,581,590,581,590,581,585,586,586,585,586,588,583,589,591,593,584,587,588,586,592,586,586,587,587,585,1036,1038,1059,1089,1179,1708,2014,2132,2225,2284,2261,2178,2178,2136,2115,2051,2014,1933,1926,1886,1866,1819,1757,1683,1641,1632,1590,1548,1514,1417,1140,1106,1089,1080,1060,1054,1061,1067,1095,1091,1091,1105,1089,1112,1102,1103,1110,1105,1106,1121,1112,1107,1106,1104,1110,1111,1110,1119,1100,1105,1104,1130,1118,1137,1102,477,478,482,484,489,602,738,811,895,975,966,950,935,954,903,891,876,861,844,829,842,797,782,767,752,754,721,731,707,698,665,640,624,561,513,509,499,492,454,451,451,465,457,463,457,466,455,464,462,470,460,457,465,469,466,460,466,472,461,465,462,460,463,462,460,475,451,453,454,459,613,711,794,853,943,912,898,883,909,853,839,824,808,796,781,804,751,735,721,707,727,678,696,680,668,651,635,620,495,484,500,481,455,445,438,437,447,440,443,441,439,444,443,439,444,447,444,448,448,453,444,442,453,442,448,445,446,449,443,443,0,0,0,0,0,0,0,0,0,0,0,0,0,0,0,0,0,0,0,0,0,0,0,0,0,0,0,0,0,0,0,0,0,0,0,0,0,0,0,0,0,0,0,0,0,0,0,0,0,0,0,0,0,0,0,0,0,0,0,0,0,0,0,0,0,351,352,353,355,393,450,526,577,647,700,710,699,653,677,665,654,643,632,621,579,598,574,576,565,553,542,531,520,509,497,486,475,441,402,439,357,358,359,320,318,316,325,316,325,316,320,321,321,320,321,323,318,324,326,328,319,322,323,321,327,321,321,322,322,320,778,776,782,791,809,1009,1225,1375,1493,1555,1540,1532,1475,1490,1459,1434,1424,1371,1363,1328,1299,1289,1256,1249,1196,1183,1173,1135,1123,1072,935,913,837,817,801,806,802,770,702,698,698,707,698,707,698,702,703,703,702,703,705,700,706,708,710,701,704,705,703,709,703,703,704,704,702,430,432,432,434,436,535,641,706,789,852,871,858,844,830,816,803,788,774,761,746,740,726,705,690,677,663,650,642,621,608,594,547,535,451,441,437,438,439,373,371,369,378,369,378,369,373,374,374,373,374,376,371,377,379,381,372,375,376,374,380,374,374,375,375,373,261,262,263,263,264,341,386,431,476,520,533,524,517,508,499,490,482,474,465,457,448,440,431,423,414,405,398,389,380,371,364,355,346,337,270,265,266,267,248,238,239,238,245,244,245,242,242,246,252,247,248,249,249,250,248,246,249,255,270,267,251,247,258,265,258,508,515,516,517,522,591,762,852,941,1022,1047,1031,1014,996,981,944,939,922,914,880,880,847,830,829,812,796,779,763,745,729,712,657,551,541,530,524,525,527,457,445,445,443,450,457,454,454,455,460,464,458,467,462,463,463,465,460,465,474,484,487,467,461,473,477,474,406,418,419,420,421,443,623,701,764,828,822,809,805,792,788,751,738,725,727,705,699,686,674,638,640,635,621,614,595,561,450,448,442,437,416,423,424,409,373,359,362,361,371,370,372,365,366,373,381,375,377,378,379,377,375,375,381,390,403,399,381,378,386,389,384,458,459,469,462,468,627,719,814,888,920,946,936,904,889,869,884,844,845,809,799,785,770,755,735,734,706,690,676,661,646,631,617,606,602,477,465,467,468,465,464,465,468,484,461,461,463,462,470,469,468,468,471,470,465,480,470,466,468,468,477,466,465,472,471,466,1434,1416,1497,1504,1862,2421,2780,2873,3022,3006,2988,2928,2873,2841,2791,2715,2680,2632,2599,2499,2454,2397,2378,2285,2213,2159,2012,1874,1629,1574,1564,1521,1500,1431,1493,1446,1447,1474,1466,1468,1480,1494,1472,1491,1477,1496,1492,1481,1501,1503,1498,1504,1518,1512,1495,1503,1496,1518,1523,1498,1514,1505,1497,1513,1507,640,622,624,626,632,799,988,1090,1195,1259,1247,1240,1207,1200,1167,1120,1115,1093,1083,1074,1058,1028,1008,965,968,958,928,913,896,858,758,721,713,645,642,634,631,621,585,571,576,585,598,596,600,593,594,601,609,602,604,605,606,605,603,603,608,616,628,624,608,604,615,618,613,666,679,681,673,690,853,1027,1174,1252,1362,1278,1280,1258,1214,1232,1175,1155,1136,1145,1113,1095,1077,1054,1041,1014,1015,976,953,951,910,828,775,709,712,668,676,698,648,637,623,630,636,641,632,642,642,645,645,646,640,644,643,641,645,649,644,646,647,643,647,647,653,647,647,645,563,565,565,572,579,781,865,968,1071,1144,1130,1112,1094,1076,1058,1041,1021,1003,982,964,949,932,914,900,880,864,846,829,810,792,798,749,681,592,579,575,577,544,545,553,549,554,556,560,558,561,557,563,561,554,555,554,567,566,555,558,559,558,564,560,555,559,552,559,554,0,0,0,0,0,0,0,0,0,0,0,0,0,0,0,0,0,0,0,0,0,0,0,0,0,0,0,0,0,0,0,0,0,0,0,0,0,0,0,0,0,0,0,0,0,0,0,0,0,0,0,0,0,0,0,0,0,0,0,0,0,0,0,0,0,544,546,548,549,560,756,851,970,1042,1091,1095,1084,1067,1038,1026,1077,996,1036,955,943,926,909,892,860,843,826,817,845,782,764,746,597,585,571,556,553,554,556,555,567,573,581,568,578,578,576,568,575,583,585,585,589,587,582,590,557,568,585,585,580,566,572,584,561,540,261,262,263,263,264,341,386,431,476,520,533,524,517,508,499,490,482,474,465,457,448,440,431,423,414,405,398,389,380,371,364,355,346,337,270,265,266,267,248,238,239,238,245,244,245,242,242,246,252,247,248,249,249,250,248,246,249,255,270,267,251,247,258,265,258,405,406,408,409,412,540,616,688,761,815,822,809,790,777,765,757,744,731,718,699,691,674,665,647,634,689,612,636,583,574,561,543,511,500,413,412,410,449,405,406,404,405,406,409,436,412,407,410,410,441,409,410,409,412,410,412,451,410,409,409,409,410,411,447,409,262,263,263,280,281,312,377,422,460,511,528,530,521,513,504,490,486,478,469,452,445,436,434,426,417,409,395,392,377,374,341,334,325,317,309,304,276,276,248,241,240,242,248,248,245,248,247,250,250,249,250,250,247,249,245,249,267,251,248,266,252,253,252,248,247,480,478,478,482,487,567,711,801,878,951,970,959,942,924,898,897,876,862,842,827,810,792,783,761,753,742,722,709,695,676,624,609,569,523,491,485,502,440,413,410,409,409,415,420,417,421,421,422,422,424,423,424,422,425,421,423,444,425,426,441,427,432,433,431,429,103,104,104,127,128,130,147,165,182,199,213,210,206,202,199,195,192,189,185,182,179,175,171,168,165,162,158,155,151,147,145,141,138,135,132,128,129,129,91,88,86,86,91,93,90,92,93,93,92,92,93,93,93,93,91,93,93,92,93,94,93,97,97,95,93,1012,1014,1016,1040,1153,1618,1878,2068,2168,2192,2172,2194,2126,2053,2047,1975,1936,1953,1856,1831,1777,1738,1698,1658,1620,1580,1541,1513,1461,1422,1153,1098,1067,1040,1028,1030,1017,1024,1071,1073,1072,1081,1084,1085,1113,1144,1084,1106,1103,1091,1086,1107,1123,1186,1284,1190,1179,1112,1116,1110,1098,1097,1089,1089,1084,613,604,617,618,621,724,919,1026,1152,1222,1234,1200,1191,1173,1153,1133,1114,1092,1074,1053,1040,1018,1000,981,954,940,921,891,866,781,766,733,656,664,637,622,623,583,526,526,527,531,532,532,535,535,535,536,537,538,539,549,545,543,541,542,544,544,544,546,542,542,542,542,542,682,674,685,688,691,849,1016,1129,1268,1328,1338,1305,1294,1276,1255,1234,1208,1191,1172,1150,1136,1121,1095,1074,1055,1032,1021,981,955,905,888,793,722,735,710,693,717,645,589,589,590,595,595,595,598,596,596,597,598,599,600,610,606,604,602,603,605,605,605,607,603,603,603,603,603,814,828,821,825,873,1085,1287,1454,1567,1627,1629,1603,1582,1552,1517,1504,1467,1442,1417,1386,1375,1334,1320,1295,1264,1241,1215,1192,1165,931,1028,884,897,858,832,829,843,777,750,747,746,746,752,757,754,758,758,759,759,761,760,761,759,762,758,760,781,762,763,778,764,769,770,768,766,619,621,629,622,642,801,945,1042,1174,1244,1240,1241,1209,1184,1172,1159,1123,1103,1091,1062,1045,1039,1010,987,963,953,922,905,890,866,781,763,744,653,632,627,639,626,601,597,596,602,624,625,626,630,630,631,631,633,621,626,631,632,616,632,645,621,635,639,636,641,642,640,638,0,0,0,0,0,0,0,0,0,0,0,0,0,0,0,0,0,0,0,0,0,0,0,0,0,0,0,0,0,0,0,0,0,0,0,0,0,0,0,0,0,0,0,0,0,0,0,0,0,0,0,0,0,0,0,0,0,0,0,0,0,0,0,0,0,405,406,408,409,412,540,616,688,761,815,822,809,790,777,765,757,744,731,718,699,691,674,665,647,634,689,612,636,583,574,561,543,511,500,413,412,410,449,405,406,404,405,406,409,436,412,407,410,410,441,409,410,409,412,410,412,451,410,409,409,409,410,411,447,409,0,0,0,0,0,0,0,0,0,0,0,0,0,0,0,0,0,0,0,0,0,0,0,0,0,0,0,0,0,0,0,0,0,0,0,0,0,0,0,0,0,0,0,0,0,0,0,0,0,0,0,0,0,0,0,0,0,0,0,0,0,0,0,0,0,272,274,275,276,277,292,396,442,489,536,558,550,540,531,522,513,504,496,487,479,469,460,452,442,433,424,415,407,398,389,380,371,297,288,281,278,279,279,212,212,212,212,212,212,212,212,212,212,212,212,212,212,212,212,212,212,212,212,212,212,212,212,212,212,212,190,191,191,192,236,245,277,309,341,372,388,382,376,369,364,357,352,345,338,333,326,321,314,309,302,295,290,283,278,271,266,259,253,247,240,236,237,237,128,128,128,128,128,128,128,128,128,128,128,128,128,128,128,128,128,128,128,128,128,128,128,128,128,128,128,280,281,282,283,284,367,416,465,513,567,584,564,564,555,545,537,518,509,499,490,481,473,463,454,445,435,435,425,408,399,390,380,371,363,288,285,286,287,264,264,264,264,264,264,264,264,264,264,264,264,264,264,264,264,264,264,264,264,264,264,264,264,264,264,264,1339,1298,1324,1378,1517,2044,2512,2681,2778,2765,2774,2717,2643,2585,2579,2527,2439,2427,2376,2341,2275,2183,2146,2123,2075,2013,1949,1863,1556,1494,1462,1408,1355,1358,1318,1334,1325,1353,1285,1285,1285,1285,1285,1285,1285,1285,1285,1285,1285,1285,1285,1285,1285,1285,1285,1285,1285,1285,1285,1285,1285,1285,1285,1285,1285,430,431,433,436,440,493,628,705,779,862,872,860,845,831,818,804,788,776,762,749,735,720,707,694,679,665,650,638,623,609,511,499,474,463,441,438,439,441,340,340,340,340,340,340,340,340,340,340,340,340,340,340,340,340,340,340,340,340,340,340,340,340,340,340,340,500,502,502,506,518,610,721,804,883,970,977,964,948,934,920,906,889,876,861,847,832,817,803,788,773,757,741,728,713,698,635,612,556,534,512,507,517,499,402,402,402,402,402,402,402,402,402,402,402,402,402,402,402,402,402,402,402,402,402,402,402,402,402,402,402,520,506,511,512,544,651,786,869,947,976,1004,988,993,958,942,944,911,896,875,864,865,860,814,803,808,805,795,740,724,699,710,669,573,530,518,531,516,527,465,465,465,465,465,465,465,465,465,465,465,465,465,465,465,465,465,465,465,465,465,465,465,465,465,465,465,285,287,287,288,288,314,406,451,498,544,576,568,560,551,542,533,524,516,506,497,489,479,469,461,452,441,433,422,415,350,341,334,326,318,295,291,292,293,246,243,248,258,250,250,250,250,250,250,250,250,250,250,250,250,250,250,250,250,250,250,250,250,250,250,250,367,368,369,370,371,480,552,617,669,732,753,731,729,717,694,693,672,650,649,636,624,613,592,589,577,566,562,550,531,526,499,496,484,459,370,367,373,369,357,357,357,357,357,357,357,357,357,357,357,357,357,357,357,357,357,357,357,357,357,357,357,357,357,357,357,0,0,0,0,0,0,0,0,0,0,0,0,0,0,0,0,0,0,0,0,0,0,0,0,0,0,0,0,0,0,0,0,0,0,0,0,0,0,0,0,0,0,0,0,0,0,0,0,0,0,0,0,0,0,0,0,0,0,0,0,0,0,0,0,0 ]);
