n = 10;
D = [280,216,149,195,167,180,226,97,201,83 ];
q = 0;
prec = array2d(1..0,1..2,[]);
steps = 64;
l = 360;
r = 0;
which = [];
interval = array2d(1..0,1..2,[]);
T = array3d(1..11,1..11,0..64,[0,0,0,0,0,0,0,0,0,0,0,0,0,0,0,0,0,0,0,0,0,0,0,0,0,0,0,0,0,0,0,0,0,0,0,0,0,0,0,0,0,0,0,0,0,0,0,0,0,0,0,0,0,0,0,0,0,0,0,0,0,0,0,0,0,1261,1280,1288,1326,1488,1737,1979,2092,2198,2287,2235,2222,2116,2078,2086,2035,1961,1901,1885,1880,1856,1791,1710,1672,1706,1596,1559,1545,1527,1458,1429,1401,1329,1300,1282,1307,1303,1316,1363,1345,1345,1351,1374,1391,1381,1392,1373,1383,1417,1399,1418,1418,1425,1428,1441,1388,1396,1412,1411,1422,1398,1395,1425,1470,1413,606,584,595,588,616,664,740,826,908,951,970,942,927,938,949,881,891,851,836,821,817,790,786,781,745,750,715,710,693,679,654,648,624,617,612,591,593,595,601,579,582,584,645,607,596,588,592,594,625,630,634,623,626,607,652,611,615,632,668,623,605,611,634,642,603,1118,1099,1123,1138,1269,1428,1746,1893,2014,2007,1988,1940,1934,1896,1859,1766,1730,1728,1690,1650,1624,1596,1580,1504,1504,1466,1363,1398,1337,1300,1217,1206,1169,1138,1122,1108,1105,1111,1166,1160,1165,1167,1162,1164,1179,1184,1170,1176,1173,1174,1174,1187,1191,1192,1191,1190,1181,1188,1205,1192,1185,1202,1176,1176,1180,419,426,428,429,437,455,535,580,641,700,697,699,672,674,666,641,618,631,620,608,586,589,563,552,541,527,516,511,500,485,474,466,465,443,438,438,439,440,431,427,432,430,430,429,432,435,431,431,429,432,435,441,439,437,438,435,439,440,444,447,439,446,434,434,439,863,849,841,809,913,1005,1120,1247,1351,1371,1381,1347,1330,1267,1333,1260,1231,1214,1195,1176,1143,1133,1121,1091,1049,1062,1023,995,1001,972,919,922,892,876,872,851,856,859,854,858,882,893,914,912,921,870,883,907,868,861,871,871,868,866,893,884,861,861,861,863,867,874,882,897,864,582,584,585,587,598,682,810,864,999,1030,994,979,964,949,934,919,904,889,874,823,895,792,777,762,746,731,716,700,685,703,654,639,623,608,595,591,592,594,599,603,594,596,613,610,633,646,608,622,613,621,618,614,610,632,625,611,617,608,602,619,608,619,613,621,603,489,484,486,487,496,534,600,666,733,780,788,776,764,752,745,728,716,703,690,678,665,653,640,639,615,607,595,578,565,553,540,528,524,512,506,496,497,498,490,483,493,513,500,498,492,500,499,506,502,498,508,540,560,541,534,508,491,518,500,492,490,516,503,521,494,356,340,341,342,343,364,413,461,510,554,565,556,547,565,555,520,536,502,493,484,475,466,457,448,439,430,421,412,403,394,385,376,367,358,366,344,345,346,339,332,334,343,332,346,341,337,339,339,356,341,340,339,339,357,350,345,335,342,337,340,341,337,340,358,343,539,490,491,493,551,600,681,761,745,885,894,879,858,851,836,822,808,793,779,765,681,661,716,702,622,679,665,584,571,558,545,593,579,574,495,547,549,550,533,532,531,536,546,531,541,534,536,533,532,536,539,544,536,546,586,578,542,546,538,534,539,538,554,541,538,0,0,0,0,0,0,0,0,0,0,0,0,0,0,0,0,0,0,0,0,0,0,0,0,0,0,0,0,0,0,0,0,0,0,0,0,0,0,0,0,0,0,0,0,0,0,0,0,0,0,0,0,0,0,0,0,0,0,0,0,0,0,0,0,0,1145,1147,1151,1182,1331,1558,1816,2014,2103,2069,2066,2108,2009,1956,1930,1891,1852,1789,1773,1734,1694,1741,1616,1559,1537,1552,1489,1419,1379,1340,1301,1247,1208,1174,1180,1187,1189,1188,1242,1212,1212,1220,1312,1303,1262,1266,1258,1312,1311,1285,1345,1279,1300,1317,1335,1267,1314,1313,1337,1369,1338,1388,1397,1424,1318,0,0,0,0,0,0,0,0,0,0,0,0,0,0,0,0,0,0,0,0,0,0,0,0,0,0,0,0,0,0,0,0,0,0,0,0,0,0,0,0,0,0,0,0,0,0,0,0,0,0,0,0,0,0,0,0,0,0,0,0,0,0,0,0,0,1416,1397,1424,1511,1635,1885,2112,2264,2307,2324,2327,2334,2272,2232,2248,2175,2104,2060,2084,1978,1941,1900,1854,1872,1793,1755,1759,1695,1625,1625,1564,1506,1478,1438,1416,1404,1415,1443,1510,1513,1471,1464,1511,1493,1505,1511,1509,1513,1566,1517,1526,1541,1537,1545,1518,1547,1558,1560,1591,1550,1539,1545,1601,1531,1536,552,554,555,557,563,599,665,731,797,844,852,918,875,863,852,792,780,768,756,744,732,720,708,696,684,672,660,647,635,623,611,599,587,575,564,559,561,562,552,553,555,560,573,556,554,561,556,555,563,577,605,563,579,592,653,602,576,563,567,564,572,560,559,557,553,1348,1346,1367,1431,1620,1933,2158,2323,2414,2355,2374,2375,2302,2244,2167,2158,2104,2076,2040,1987,1934,1987,1843,1805,1761,1775,1714,1627,1575,1541,1493,1448,1411,1381,1383,1373,1352,1394,1432,1484,1440,1458,1470,1461,1458,1470,1464,1464,1478,1455,1465,1473,1474,1482,1490,1496,1488,1486,1525,1473,1489,1506,1512,1502,1486,1194,1140,1181,1211,1318,1514,1800,1891,1994,2068,2000,1982,1925,1958,1906,1828,1782,1743,1760,1672,1654,1600,1569,1605,1499,1472,1493,1412,1350,1355,1315,1271,1230,1179,1157,1155,1174,1183,1205,1246,1208,1208,1233,1212,1229,1234,1231,1231,1248,1230,1246,1236,1241,1248,1249,1252,1254,1256,1280,1237,1260,1266,1287,1259,1253,1088,1099,1114,1124,1265,1374,1528,1663,1747,1783,1762,1733,1717,1677,1828,1792,1616,1564,1709,1518,1480,1452,1424,1510,1395,1359,1449,1419,1258,1227,1197,1173,1142,1120,1107,1148,1111,1138,1172,1151,1154,1157,1192,1237,1176,1198,1204,1222,1236,1243,1237,1245,1206,1228,1212,1199,1212,1214,1227,1284,1237,1256,1245,1236,1243,1080,1092,1076,1074,1263,1423,1675,1818,1904,1993,1904,1943,1832,1812,1761,1743,1689,1696,1638,1603,1546,1572,1537,1439,1403,1441,1379,1295,1290,1272,1188,1187,1151,1085,1091,1126,1081,1106,1145,1133,1126,1137,1146,1176,1150,1152,1165,1172,1154,1151,1147,1160,1164,1145,1157,1170,1159,1168,1150,1144,1168,1174,1152,1157,1139,1293,1272,1281,1332,1494,1781,2026,2199,2298,2304,2260,2219,2175,2158,2091,2048,1989,1987,1922,1911,1836,1894,1752,1711,1668,1680,1631,1542,1492,1474,1469,1373,1333,1318,1278,1293,1301,1334,1355,1380,1381,1369,1392,1366,1390,1419,1396,1379,1424,1388,1486,1468,1491,1441,1557,1510,1448,1407,1387,1390,1401,1375,1390,1438,1367,1510,1454,1494,1571,1803,2124,2359,2552,2587,2605,2591,2600,2506,2413,2394,2345,2393,2275,2169,2120,2072,2050,1974,1925,1877,1906,1825,1731,1766,1646,1608,1559,1524,1475,1476,1480,1467,1559,1595,1598,1635,1910,1658,1593,1649,1751,1671,1613,1715,1696,1636,1637,1718,1704,1690,1596,1636,1627,1671,1673,1611,1657,1616,1621,1627,1145,1147,1151,1182,1331,1558,1816,2014,2103,2069,2066,2108,2009,1956,1930,1891,1852,1789,1773,1734,1694,1741,1616,1559,1537,1552,1489,1419,1379,1340,1301,1247,1208,1174,1180,1187,1189,1188,1242,1212,1212,1220,1312,1303,1262,1266,1258,1312,1311,1285,1345,1279,1300,1317,1335,1267,1314,1313,1337,1369,1338,1388,1397,1424,1318,589,591,593,594,624,660,744,827,907,950,954,939,924,908,895,880,864,851,836,821,805,791,777,762,747,760,718,703,688,697,659,644,650,614,601,598,599,601,601,603,606,602,611,625,618,609,610,610,614,611,613,614,618,621,616,631,623,637,628,611,630,607,622,618,607,1436,1428,1444,1551,1751,2007,2184,2403,2399,2452,2427,2427,2331,2282,2254,2191,2157,2134,2097,2005,1997,1927,1880,1853,1812,1774,1723,1681,1624,1585,1564,1510,1481,1441,1416,1458,1467,1472,1520,1524,1528,1533,1537,1520,1539,1554,1532,1535,1542,1545,1623,1617,1565,1547,1565,1593,1587,1651,1649,1550,1588,1667,1671,1640,1578,0,0,0,0,0,0,0,0,0,0,0,0,0,0,0,0,0,0,0,0,0,0,0,0,0,0,0,0,0,0,0,0,0,0,0,0,0,0,0,0,0,0,0,0,0,0,0,0,0,0,0,0,0,0,0,0,0,0,0,0,0,0,0,0,0,1406,1435,1432,1563,1800,2052,2366,2413,2446,2488,2522,2416,2401,2344,2336,2253,2252,2118,2109,2036,1982,2014,1938,1864,1812,1796,1735,1711,1641,1601,1568,1546,1472,1465,1452,1473,1462,1489,1544,1545,1564,1579,1562,1595,1559,1580,1559,1575,1585,1575,1554,1575,1591,1597,1588,1608,1594,1591,1597,1589,1578,1567,1602,1667,1604,374,375,377,378,379,402,470,515,569,628,624,614,616,594,584,574,564,554,544,534,524,514,514,486,484,496,464,448,439,434,420,408,422,394,384,380,379,382,371,369,372,378,393,400,389,407,396,401,406,396,392,379,383,396,385,380,394,389,379,387,386,399,389,396,384,339,340,341,342,343,352,412,460,460,510,563,554,545,518,527,510,509,500,491,466,458,449,456,447,419,429,420,411,402,380,384,375,366,358,349,344,345,346,334,334,335,337,335,335,338,337,337,334,335,334,337,341,341,339,335,337,339,339,341,339,337,341,335,337,339,511,516,518,519,507,547,614,681,748,795,802,790,777,765,751,741,730,717,705,692,680,669,656,644,632,656,630,595,583,572,559,547,535,536,527,519,524,522,500,511,511,532,521,513,523,522,508,514,511,513,513,507,508,515,515,509,516,509,507,516,509,522,515,518,510,611,614,616,618,629,692,783,843,961,1001,1009,968,974,958,945,924,911,894,885,852,830,815,814,798,782,742,726,734,769,680,699,671,665,639,639,621,636,625,617,629,628,638,639,639,632,646,625,656,636,653,637,640,656,670,652,646,646,644,647,645,648,649,633,639,630,300,301,302,303,304,320,360,399,439,478,489,481,474,466,459,451,444,436,429,422,414,407,399,392,384,405,369,362,354,371,339,332,346,317,309,305,306,306,297,297,299,300,300,300,300,303,299,300,299,299,300,305,305,305,301,302,303,303,305,301,302,307,297,300,300,945,962,965,969,943,1053,1210,1367,1550,1634,1580,1434,1545,1388,1364,1408,1328,1399,1373,1341,1346,1345,1237,1303,1134,1109,1192,1193,1024,1084,1037,953,954,912,999,954,1016,1038,963,967,965,982,997,986,1006,996,989,989,1015,1004,999,1027,1031,1030,996,1009,1007,996,985,1038,993,1003,992,1062,993,589,591,593,594,624,660,744,827,907,950,954,939,924,908,895,880,864,851,836,821,805,791,777,762,747,760,718,703,688,697,659,644,650,614,601,598,599,601,601,603,606,602,611,625,618,609,610,610,614,611,613,614,618,621,616,631,623,637,628,611,630,607,622,618,607,1036,1034,1036,1039,1155,1331,1588,1744,1860,1882,1818,1805,1795,1731,1685,1666,1636,1620,1592,1550,1497,1462,1427,1410,1375,1340,1399,1270,1235,1200,1165,1135,1095,1052,1049,1050,1047,1062,1063,1061,1060,1065,1066,1070,1072,1074,1070,1076,1076,1080,1082,1085,1087,1084,1097,1097,1088,1095,1091,1088,1098,1099,1092,1098,1097,598,599,601,606,614,663,742,811,893,929,937,915,914,888,875,861,861,951,821,813,794,781,768,766,741,727,714,701,687,678,661,651,647,620,609,610,607,608,603,607,609,607,615,626,622,615,613,613,616,614,614,618,623,629,623,637,622,632,628,616,621,610,628,624,609,1343,1347,1405,1437,1581,1902,2100,2276,2418,2362,2313,2319,2254,2210,2167,2124,2120,2041,1999,1990,1914,1912,1829,1787,1743,1702,1702,1627,1575,1562,1629,1456,1466,1379,1397,1366,1416,1397,1432,1474,1444,1459,1475,1460,1456,1468,1476,1471,1484,1461,1468,1480,1481,1486,1498,1503,1498,1497,1509,1506,1518,1552,1565,1550,1547,0,0,0,0,0,0,0,0,0,0,0,0,0,0,0,0,0,0,0,0,0,0,0,0,0,0,0,0,0,0,0,0,0,0,0,0,0,0,0,0,0,0,0,0,0,0,0,0,0,0,0,0,0,0,0,0,0,0,0,0,0,0,0,0,0,1223,1210,1229,1263,1414,1660,1901,2079,2168,2181,2145,2095,2039,2043,1970,1924,1936,1887,1865,1812,1767,1721,1661,1642,1602,1560,1614,1482,1432,1394,1371,1332,1282,1254,1251,1239,1247,1264,1276,1322,1288,1315,1305,1296,1295,1306,1307,1298,1318,1298,1303,1305,1310,1313,1320,1336,1327,1327,1356,1314,1332,1372,1373,1357,1346,1461,1482,1472,1536,1723,1974,2208,2420,2525,2470,2459,2381,2343,2341,2248,2238,2163,2121,2089,2054,1992,1951,1925,1946,1833,1787,1772,1750,1654,1612,1618,1587,1513,1460,1474,1514,1468,1468,1554,1585,1582,1591,1611,1589,1596,1628,1596,1590,1612,1578,1603,1604,1614,1620,1785,1734,1647,1608,1612,1603,1596,1616,1632,1678,1609,1127,1109,1112,1156,1257,1447,1673,1847,1926,1964,1922,1888,1879,1860,1785,1813,1788,1706,1713,1638,1603,1601,1538,1501,1466,1431,1396,1374,1317,1280,1237,1201,1191,1134,1128,1147,1183,1142,1195,1176,1168,1180,1228,1259,1206,1211,1220,1230,1205,1242,1252,1236,1214,1242,1220,1222,1248,1222,1253,1330,1304,1326,1322,1262,1265,944,928,930,992,1014,1200,1388,1595,1666,1692,1653,1647,1616,1600,1545,1515,1508,1478,1428,1467,1387,1345,1302,1271,1264,1234,1176,1145,1113,1082,1050,1048,1039,984,942,942,981,954,996,981,985,988,992,985,993,992,998,993,989,990,1004,1003,1005,997,993,1003,996,1004,992,1006,1004,1007,991,990,991,1141,1168,1147,1168,1303,1526,1785,1991,2040,2058,2038,2052,1987,1926,1958,1826,1880,1774,1749,1698,1660,1644,1604,1565,1508,1470,1553,1394,1348,1305,1280,1268,1205,1174,1160,1161,1168,1174,1199,1188,1202,1221,1200,1226,1200,1213,1208,1220,1238,1231,1222,1235,1231,1246,1228,1238,1233,1239,1245,1258,1242,1246,1235,1260,1254,1331,1338,1314,1403,1580,1834,2142,2313,2473,2369,2350,2273,2340,2288,2172,2097,2106,2031,1987,1982,1926,1881,1887,1764,1746,1675,1703,1624,1566,1611,1484,1408,1389,1334,1321,1347,1364,1365,1432,1424,1412,1425,1427,1452,1435,1444,1448,1587,1442,1432,1434,1447,1461,1426,1445,1457,1440,1460,1427,1425,1451,1452,1422,1434,1417,1036,1034,1036,1039,1155,1331,1588,1744,1860,1882,1818,1805,1795,1731,1685,1666,1636,1620,1592,1550,1497,1462,1427,1410,1375,1340,1399,1270,1235,1200,1165,1135,1095,1052,1049,1050,1047,1062,1063,1061,1060,1065,1066,1070,1072,1074,1070,1076,1076,1080,1082,1085,1087,1084,1097,1097,1088,1095,1091,1088,1098,1099,1092,1098,1097,422,430,431,426,434,468,521,592,653,701,709,698,676,675,664,653,642,639,610,608,597,585,574,589,543,585,529,518,542,495,496,489,466,444,439,428,436,437,432,432,435,439,439,439,439,434,438,441,454,440,449,455,456,446,454,449,442,441,440,446,439,445,445,446,440,1475,1498,1499,1609,1806,2110,2271,2435,2451,2527,2474,2427,2340,2312,2248,2256,2195,2180,2156,2135,2104,2052,1994,1906,1856,1851,1784,1774,1721,1657,1610,1561,1543,1487,1543,1483,1512,1502,1603,1603,1605,1610,1662,1637,1649,1673,1619,1677,1650,1693,1672,1657,1640,1696,1665,1682,1669,1651,1642,1685,1682,1680,1672,1670,1696,237,240,241,242,242,252,285,317,349,381,395,388,382,376,370,364,358,352,345,336,333,324,321,315,309,299,296,290,281,275,272,263,259,253,247,243,244,244,232,231,232,232,238,232,235,240,232,272,235,232,238,236,234,235,240,240,239,240,233,236,234,239,239,239,240,1314,1328,1283,1341,1552,1810,2086,2210,2314,2328,2353,2256,2211,2230,2267,2092,2017,2031,1970,1924,1881,1849,1795,1754,1710,1647,1626,1608,1561,1495,1428,1371,1376,1328,1360,1320,1347,1353,1403,1404,1396,1403,1406,1409,1418,1426,1412,1420,1415,1421,1425,1411,1414,1415,1417,1430,1405,1421,1409,1411,1405,1426,1413,1412,1394,0,0,0,0,0,0,0,0,0,0,0,0,0,0,0,0,0,0,0,0,0,0,0,0,0,0,0,0,0,0,0,0,0,0,0,0,0,0,0,0,0,0,0,0,0,0,0,0,0,0,0,0,0,0,0,0,0,0,0,0,0,0,0,0,0,493,488,504,505,540,525,628,663,718,808,827,814,801,783,770,762,719,714,722,698,656,660,644,633,633,620,599,604,584,556,565,543,535,525,513,508,510,494,515,487,495,499,490,509,500,506,504,500,518,498,496,500,496,509,502,503,499,501,500,500,503,503,500,523,509,516,465,467,468,471,510,618,677,736,786,771,781,813,757,746,734,723,711,735,667,656,665,614,603,591,619,568,556,607,573,580,566,537,524,475,523,472,473,484,488,491,503,500,507,506,521,507,500,517,506,513,509,510,517,498,496,508,510,509,494,502,513,499,507,496,524,496,497,496,503,546,618,689,761,805,814,852,875,783,770,748,737,724,715,698,719,678,659,646,634,700,608,594,582,564,557,546,562,520,506,501,503,504,498,499,495,508,501,502,532,506,500,504,504,509,506,507,501,507,504,508,508,504,503,504,506,504,509,509,501,218,172,173,173,174,179,203,227,250,274,288,283,279,274,270,265,261,256,251,247,242,238,233,228,224,219,215,210,206,201,196,192,187,183,178,174,175,175,162,161,161,162,163,164,163,166,170,177,167,170,164,165,165,165,165,167,171,169,165,170,166,166,166,167,167,670,747,749,676,695,767,870,1096,1162,1292,1194,1211,1068,1136,1033,1015,998,980,962,1028,927,909,892,1077,856,967,821,803,930,851,801,768,715,697,750,680,772,746,731,697,700,699,721,714,717,707,709,718,753,729,741,739,745,743,731,729,736,760,772,756,733,733,776,741,743,422,430,431,426,434,468,521,592,653,701,709,698,676,675,664,653,642,639,610,608,597,585,574,589,543,585,529,518,542,495,496,489,466,444,439,428,436,437,432,432,435,439,439,439,439,434,438,441,454,440,449,455,456,446,454,449,442,441,440,446,439,445,445,446,440,747,772,751,753,782,865,978,1092,1201,1214,1217,1199,1211,1161,1142,1122,1103,1084,1064,1045,1024,1005,987,968,945,929,928,891,889,851,833,814,856,774,761,758,759,792,768,777,768,783,785,794,781,807,781,785,779,784,775,790,789,790,794,786,789,783,797,797,782,797,777,789,782,1198,1203,1193,1266,1418,1677,1911,2024,2086,2085,2086,2093,2011,1953,1935,1895,1860,1874,1784,1744,1708,1671,1638,1595,1584,1517,1482,1502,1411,1367,1370,1279,1239,1232,1223,1224,1232,1238,1290,1297,1251,1246,1295,1279,1284,1298,1302,1296,1345,1299,1299,1314,1313,1318,1291,1332,1357,1329,1357,1337,1309,1317,1360,1291,1295,268,251,270,271,272,284,321,357,394,430,413,436,429,422,415,408,401,394,387,381,374,367,360,353,346,339,332,304,318,311,304,298,291,284,277,254,255,256,270,270,258,259,273,278,276,287,269,287,273,307,305,304,276,334,284,263,271,271,302,330,331,353,332,319,301,1409,1415,1415,1520,1711,1976,2215,2353,2455,2451,2399,2353,2314,2252,2280,2197,2144,2153,2071,2013,1986,1931,1888,1904,1863,1758,1718,1719,1666,1590,1587,1492,1450,1445,1437,1440,1449,1457,1519,1525,1543,1563,1588,1566,1555,1566,1549,1557,1547,1537,1551,1559,1565,1577,1589,1578,1548,1548,1560,1560,1558,1577,1583,1598,1567,542,535,545,547,541,592,687,769,847,894,900,884,869,846,822,779,811,751,737,778,736,739,725,700,697,682,667,653,639,624,610,583,576,534,554,550,551,570,548,553,546,547,562,561,584,595,560,569,563,569,565,556,557,572,571,562,565,556,553,561,557,569,562,570,554,0,0,0,0,0,0,0,0,0,0,0,0,0,0,0,0,0,0,0,0,0,0,0,0,0,0,0,0,0,0,0,0,0,0,0,0,0,0,0,0,0,0,0,0,0,0,0,0,0,0,0,0,0,0,0,0,0,0,0,0,0,0,0,0,0,577,564,581,601,574,645,700,777,853,898,933,890,923,863,849,835,821,846,794,780,844,777,739,725,711,792,720,695,656,677,628,614,601,587,590,586,588,605,576,590,583,600,706,654,614,663,610,721,639,666,649,605,624,657,632,608,675,625,613,655,634,701,648,646,619,689,691,678,698,699,796,872,976,1062,1103,1134,1089,1076,1054,1035,1019,1060,990,964,956,984,937,894,877,859,879,824,807,802,806,754,736,733,701,688,684,686,729,691,689,698,713,709,703,699,703,701,713,715,706,710,746,764,748,739,714,706,718,712,707,699,722,707,723,702,458,482,460,462,465,504,571,638,705,747,758,747,767,723,711,699,687,675,662,650,637,625,614,602,586,578,565,553,541,529,517,505,493,481,469,465,466,497,469,462,475,469,472,481,470,465,468,473,486,475,481,480,479,487,479,475,470,478,473,485,477,475,469,483,493,1137,1144,1138,1179,1163,1282,1612,1812,1842,1892,1716,1937,1667,1609,1767,1662,1551,1519,1696,1685,1520,1407,1484,1459,1349,1441,1429,1430,1292,1197,1181,1299,1190,1145,1136,1185,1238,1194,1197,1198,1221,1236,1213,1236,1208,1230,1210,1242,1241,1225,1227,1238,1246,1264,1245,1242,1227,1234,1249,1248,1243,1239,1225,1258,1251,747,772,751,753,782,865,978,1092,1201,1214,1217,1199,1211,1161,1142,1122,1103,1084,1064,1045,1024,1005,987,968,945,929,928,891,889,851,833,814,856,774,761,758,759,792,768,777,768,783,785,794,781,807,781,785,779,784,775,790,789,790,794,786,789,783,797,797,782,797,777,789,782,649,658,691,671,729,742,839,923,1066,1145,1114,1128,1013,1070,979,981,1037,929,917,896,884,882,845,830,842,797,837,835,785,782,768,765,732,705,704,684,682,701,690,684,691,707,692,705,691,701,710,699,700,693,692,699,692,691,695,701,700,706,694,697,703,713,702,714,705,1121,1135,1139,1140,1264,1476,1552,1744,1820,1855,1868,1764,1740,1757,1712,1843,1638,1584,1556,1571,1499,1526,1483,1426,1421,1390,1391,1299,1291,1275,1230,1196,1184,1135,1122,1149,1152,1134,1153,1175,1172,1183,1243,1212,1192,1234,1187,1264,1207,1241,1215,1190,1216,1238,1219,1205,1234,1206,1203,1227,1214,1258,1208,1213,1192,570,572,591,575,584,661,723,834,917,961,945,949,934,896,877,888,846,833,842,803,812,797,772,766,751,713,699,685,673,674,675,625,629,613,583,578,598,582,586,587,582,592,594,587,591,592,592,596,602,611,684,683,693,626,591,593,609,617,601,601,621,591,593,596,594,1015,1043,1046,1082,1158,1320,1594,1801,1833,1896,1890,1865,1798,1774,1739,1693,1668,1633,1598,1563,1545,1527,1448,1422,1357,1352,1355,1281,1218,1211,1190,1133,1106,1060,1032,1033,1065,1089,1114,1087,1095,1097,1128,1168,1116,1137,1146,1170,1162,1203,1236,1200,1142,1199,1162,1142,1149,1151,1207,1312,1277,1298,1273,1218,1226,590,598,602,585,589,677,740,828,901,985,971,960,945,912,914,898,858,867,828,872,820,804,767,752,767,721,706,719,695,679,664,630,615,600,603,599,628,586,590,588,582,591,595,623,592,599,610,611,594,599,590,596,598,584,598,601,600,600,593,595,606,610,603,610,601,622,609,626,613,626,709,778,892,1007,1021,1024,959,991,985,936,942,926,866,913,877,847,838,828,826,796,774,758,747,728,714,733,666,669,649,635,632,603,635,631,638,634,642,645,648,637,653,638,641,641,645,657,685,674,661,647,660,654,649,653,663,648,657,634,651,644,0,0,0,0,0,0,0,0,0,0,0,0,0,0,0,0,0,0,0,0,0,0,0,0,0,0,0,0,0,0,0,0,0,0,0,0,0,0,0,0,0,0,0,0,0,0,0,0,0,0,0,0,0,0,0,0,0,0,0,0,0,0,0,0,0,193,193,194,194,195,199,220,271,289,306,318,315,312,308,305,301,298,294,291,288,284,281,277,244,270,236,231,227,223,219,215,211,207,203,198,195,196,196,186,185,185,185,190,189,187,189,188,188,190,188,192,192,192,195,194,194,192,194,194,200,196,210,210,213,211,438,445,441,448,444,481,552,666,672,720,750,716,704,701,681,670,658,646,635,623,611,600,588,577,565,553,542,530,519,507,495,484,472,460,449,445,446,447,438,440,444,454,458,449,450,457,447,456,452,456,456,462,469,467,456,448,457,460,458,453,453,467,453,458,452,968,975,1007,992,1096,1213,1355,1534,1638,1657,1647,1656,1590,1574,1526,1516,1491,1426,1414,1371,1359,1359,1292,1289,1266,1244,1223,1184,1275,1143,1090,1095,1090,1091,1016,994,1041,1001,1057,1051,1057,1055,1085,1131,1073,1100,1098,1108,1121,1115,1104,1112,1095,1121,1090,1087,1103,1091,1085,1124,1105,1123,1100,1114,1114,649,658,691,671,729,742,839,923,1066,1145,1114,1128,1013,1070,979,981,1037,929,917,896,884,882,845,830,842,797,837,835,785,782,768,765,732,705,704,684,682,701,690,684,691,707,692,705,691,701,710,699,700,693,692,699,692,691,695,701,700,706,694,697,703,713,702,714,705,543,544,546,547,554,581,671,757,798,833,832,820,809,797,786,774,742,751,703,709,719,727,714,702,689,659,679,667,645,613,633,621,604,549,552,550,551,552,557,554,550,583,560,567,557,548,553,557,556,583,580,557,590,631,554,552,564,552,563,570,580,556,546,559,548,1136,1134,1163,1185,1281,1554,1681,1882,1993,2007,2005,1943,1903,1885,1808,1821,1774,1746,1709,1652,1637,1623,1532,1501,1490,1433,1400,1415,1333,1315,1276,1237,1198,1175,1148,1156,1164,1181,1231,1231,1205,1221,1219,1261,1226,1242,1260,1322,1245,1297,1281,1295,1251,1307,1296,1241,1236,1239,1279,1312,1289,1312,1299,1298,1268,579,581,582,584,593,648,738,807,891,925,908,895,882,894,870,843,832,809,806,794,778,792,782,743,729,709,705,690,665,645,640,627,613,593,589,587,581,589,598,584,580,585,586,606,646,644,594,621,605,590,593,633,640,649,638,653,639,655,644,626,616,605,591,590,580,993,995,980,985,1063,1212,1464,1599,1781,1782,1760,1755,1699,1664,1596,1600,1541,1545,1513,1482,1428,1366,1380,1302,1301,1328,1233,1192,1168,1135,1103,1070,1069,1026,963,965,1028,1002,1014,1021,1008,1028,1028,1030,1021,1029,1022,1020,1017,1023,1019,1022,1021,1016,1022,1029,1026,1023,1020,1030,1022,1040,1032,1038,1024,608,584,569,570,597,634,723,794,889,896,893,906,905,921,867,854,824,828,815,802,789,779,823,759,716,724,691,685,652,639,626,631,617,604,592,590,599,626,587,584,586,606,593,586,616,594,591,601,608,599,598,598,593,593,593,601,593,590,590,591,592,592,596,601,588,787,803,800,771,803,907,988,1218,1189,1198,1190,1197,1151,1139,1107,1100,1103,1086,1068,1045,1016,1032,971,942,944,945,910,896,945,833,843,809,792,789,762,734,757,842,762,805,762,760,777,763,772,781,779,806,801,771,776,783,791,786,784,801,792,792,806,777,797,801,818,783,779,246,246,247,248,248,258,362,356,375,394,399,395,375,388,384,380,377,373,369,365,362,321,317,313,309,305,364,284,279,274,270,265,260,277,272,249,270,250,266,232,233,233,262,250,246,235,235,242,282,255,265,266,277,259,261,248,254,282,294,269,243,247,286,255,239,0,0,0,0,0,0,0,0,0,0,0,0,0,0,0,0,0,0,0,0,0,0,0,0,0,0,0,0,0,0,0,0,0,0,0,0,0,0,0,0,0,0,0,0,0,0,0,0,0,0,0,0,0,0,0,0,0,0,0,0,0,0,0,0,0,430,431,432,433,435,469,535,584,633,670,670,661,652,643,634,625,616,607,598,589,580,597,589,553,544,535,526,504,495,485,476,466,457,447,438,435,436,437,427,430,437,433,423,434,431,427,430,446,455,445,446,444,441,444,442,441,431,444,465,447,447,435,435,453,455,873,895,854,883,930,1020,1159,1348,1425,1490,1442,1401,1396,1356,1301,1279,1301,1234,1196,1211,1204,1167,1172,1120,1139,1100,1121,1043,1051,993,1001,954,927,942,920,885,901,869,896,907,909,920,946,919,916,944,912,925,913,915,911,928,939,953,1108,1040,948,936,934,922,912,912,930,924,909,543,544,546,547,554,581,671,757,798,833,832,820,809,797,786,774,742,751,703,709,719,727,714,702,689,659,679,667,645,613,633,621,604,549,552,550,551,552,557,554,550,583,560,567,557,548,553,557,556,583,580,557,590,631,554,552,564,552,563,570,580,556,546,559,548,395,396,398,399,400,428,483,539,594,641,651,641,630,620,610,600,590,579,569,559,549,538,528,518,508,541,487,477,467,457,447,436,426,416,406,401,402,403,396,397,399,401,397,404,399,402,401,400,402,395,399,399,400,403,404,402,400,399,402,404,397,409,397,406,401,1424,1402,1417,1529,1716,1912,2105,2272,2307,2365,2309,2275,2226,2193,2160,2150,2092,2020,1984,2090,1924,1895,1872,1816,1778,1720,1721,1656,1641,1594,1541,1526,1461,1472,1435,1423,1431,1436,1501,1487,1491,1493,1495,1526,1527,1526,1516,1528,1545,1529,1533,1527,1528,1554,1568,1539,1543,1554,1556,1567,1559,1550,1577,1619,1589,253,253,254,255,256,267,301,347,369,403,416,410,403,397,390,384,376,371,364,358,350,345,338,332,325,318,312,306,299,293,286,280,273,267,260,256,257,258,241,243,242,250,243,246,246,253,246,242,247,247,247,242,242,246,245,243,243,247,241,243,241,245,243,243,239,1212,1259,1266,1319,1422,1705,1975,2127,2156,2235,2222,2106,2111,2063,2033,1989,1970,1930,1869,1805,1790,1748,1705,1668,1644,1579,1508,1527,1441,1394,1354,1357,1320,1289,1253,1260,1284,1269,1328,1333,1327,1340,1344,1340,1333,1357,1328,1337,1334,1332,1332,1355,1349,1349,1349,1344,1346,1340,1352,1363,1336,1351,1337,1349,1340,259,260,261,261,262,275,353,348,359,422,434,427,420,413,406,449,392,385,379,372,365,394,351,322,316,309,363,316,309,283,277,270,281,274,267,263,264,264,251,254,251,254,255,254,255,257,253,254,251,254,254,257,258,257,256,255,255,254,259,269,255,261,255,256,257,507,501,487,483,520,547,642,724,786,833,839,812,813,803,784,776,758,746,732,719,689,693,668,669,656,601,607,598,586,585,575,546,546,504,497,518,520,521,507,506,507,510,570,539,531,548,532,560,534,533,537,514,521,550,530,516,545,523,518,539,531,561,540,553,530,353,354,355,357,358,381,432,521,571,615,626,617,608,560,589,542,570,523,549,543,533,522,476,505,496,448,438,429,420,410,401,391,382,373,363,359,360,361,353,358,353,358,363,363,358,368,355,360,357,362,356,364,364,364,362,362,363,361,369,376,360,370,357,363,361,417,462,420,421,423,455,507,574,625,681,693,670,668,649,649,638,627,613,595,595,581,573,559,548,537,573,509,498,493,483,472,461,452,439,453,424,427,421,411,400,416,437,431,424,406,410,426,447,432,437,453,541,626,550,495,439,414,448,424,425,411,432,427,458,419,0,0,0,0,0,0,0,0,0,0,0,0,0,0,0,0,0,0,0,0,0,0,0,0,0,0,0,0,0,0,0,0,0,0,0,0,0,0,0,0,0,0,0,0,0,0,0,0,0,0,0,0,0,0,0,0,0,0,0,0,0,0,0,0,0,810,812,739,832,770,852,1090,1079,1159,1208,1207,1326,1292,1329,1241,1227,1199,1197,1175,1033,1114,1110,1074,956,1084,909,1003,906,955,938,916,895,873,848,825,746,747,843,791,807,804,821,889,862,833,879,832,909,854,886,859,829,853,892,858,835,881,848,837,868,861,896,859,853,840,395,396,398,399,400,428,483,539,594,641,651,641,630,620,610,600,590,579,569,559,549,538,528,518,508,541,487,477,467,457,447,436,426,416,406,401,402,403,396,397,399,401,397,404,399,402,401,400,402,395,399,399,400,403,404,402,400,399,402,404,397,409,397,406,401,412,413,415,416,417,472,507,535,624,638,682,638,661,617,639,628,587,606,596,585,596,585,552,542,531,520,509,498,488,477,466,455,424,434,404,418,446,420,411,420,415,425,425,431,423,426,415,424,419,417,417,430,426,432,434,432,426,427,435,427,424,434,416,429,419,1410,1436,1439,1562,1768,2047,2291,2443,2488,2694,2502,2600,2432,2394,2342,2274,2204,2202,2144,2095,2053,2056,1933,1891,1903,1830,1794,1700,1684,1630,1596,1538,1479,1439,1436,1445,1452,1482,1565,1573,1548,1562,1556,1588,1567,1582,1594,1658,1573,1619,1611,1617,1587,1663,1620,1574,1571,1566,1596,1639,1614,1647,1631,1624,1593,782,785,794,797,833,996,1105,1346,1250,1376,1288,1366,1247,1236,1205,1262,1165,1154,1124,1115,1233,1063,1053,1022,1002,981,952,997,919,899,879,859,845,825,804,801,812,805,820,815,814,814,817,816,815,816,814,868,817,821,822,823,822,818,820,823,823,827,817,821,821,825,828,825,831,1267,1254,1264,1316,1493,1778,2146,2380,2274,2460,2327,2218,2174,2166,2086,2077,2051,1988,1943,1990,1871,1810,1765,1690,1676,1602,1558,1514,1477,1453,1408,1363,1302,1287,1275,1253,1305,1296,1315,1319,1337,1351,1333,1352,1332,1350,1330,1352,1358,1345,1344,1359,1363,1372,1361,1361,1344,1357,1371,1364,1357,1352,1346,1381,1373,598,603,601,606,616,745,756,943,940,1072,988,1058,956,940,925,909,893,877,876,846,890,814,798,782,766,751,735,713,703,687,672,656,640,624,611,607,608,610,607,606,613,606,609,619,642,629,608,623,629,628,622,618,623,637,624,625,621,617,617,616,618,619,617,644,630,1008,1017,1053,1041,1183,1310,1528,1752,1682,1786,1659,1767,1642,1626,1564,1637,1477,1441,1487,1450,1540,1364,1383,1342,1315,1292,1254,1237,1191,1180,1161,1129,1106,1060,1064,1069,1032,1059,1066,1070,1076,1087,1096,1078,1084,1098,1081,1087,1103,1107,1128,1154,1136,1124,1090,1091,1100,1104,1098,1081,1107,1093,1103,1091,1095,878,850,853,890,908,1066,1203,1366,1463,1529,1494,1469,1444,1402,1394,1314,1345,1339,1295,1233,1208,1242,1195,1170,1106,1133,1056,1030,1005,980,954,929,904,879,864,862,866,869,859,862,881,898,877,896,870,892,869,890,885,873,875,884,893,912,896,890,882,879,893,892,889,889,875,899,886,758,778,762,764,789,891,1028,1163,1260,1310,1301,1276,1254,1231,1218,1186,1163,1143,1118,1095,1084,1060,1027,1005,983,960,951,914,892,869,847,832,810,788,772,770,764,776,762,777,774,792,859,833,802,850,801,879,825,858,829,799,823,862,828,802,852,820,808,838,830,866,830,824,812,598,600,602,603,616,745,815,943,939,1101,987,1057,955,940,924,908,892,877,861,845,890,814,798,782,766,750,735,719,703,687,672,656,640,624,611,607,609,610,613,609,607,614,613,614,613,621,609,613,617,608,609,614,611,613,615,617,613,615,619,617,611,623,611,621,615,0,0,0,0,0,0,0,0,0,0,0,0,0,0,0,0,0,0,0,0,0,0,0,0,0,0,0,0,0,0,0,0,0,0,0,0,0,0,0,0,0,0,0,0,0,0,0,0,0,0,0,0,0,0,0,0,0,0,0,0,0,0,0,0,0,412,413,415,416,417,472,507,535,624,638,682,638,661,617,639,628,587,606,596,585,596,585,552,542,531,520,509,498,488,477,466,455,424,434,404,418,446,420,411,420,415,425,425,431,423,426,415,424,419,417,417,430,426,432,434,432,426,427,435,427,424,434,416,429,419,0,0,0,0,0,0,0,0,0,0,0,0,0,0,0,0,0,0,0,0,0,0,0,0,0,0,0,0,0,0,0,0,0,0,0,0,0,0,0,0,0,0,0,0,0,0,0,0,0,0,0,0,0,0,0,0,0,0,0,0,0,0,0,0,0,1261,1280,1288,1326,1488,1737,1979,2092,2198,2287,2235,2222,2116,2078,2086,2035,1961,1901,1885,1880,1856,1791,1710,1672,1706,1596,1559,1545,1527,1458,1429,1401,1329,1300,1282,1307,1303,1316,1363,1345,1345,1351,1374,1391,1381,1392,1373,1383,1417,1399,1418,1418,1425,1428,1441,1388,1396,1412,1411,1422,1398,1395,1425,1470,1413,606,584,595,588,616,664,740,826,908,951,970,942,927,938,949,881,891,851,836,821,817,790,786,781,745,750,715,710,693,679,654,648,624,617,612,591,593,595,601,579,582,584,645,607,596,588,592,594,625,630,634,623,626,607,652,611,615,632,668,623,605,611,634,642,603,1118,1099,1123,1138,1269,1428,1746,1893,2014,2007,1988,1940,1934,1896,1859,1766,1730,1728,1690,1650,1624,1596,1580,1504,1504,1466,1363,1398,1337,1300,1217,1206,1169,1138,1122,1108,1105,1111,1166,1160,1165,1167,1162,1164,1179,1184,1170,1176,1173,1174,1174,1187,1191,1192,1191,1190,1181,1188,1205,1192,1185,1202,1176,1176,1180,419,426,428,429,437,455,535,580,641,700,697,699,672,674,666,641,618,631,620,608,586,589,563,552,541,527,516,511,500,485,474,466,465,443,438,438,439,440,431,427,432,430,430,429,432,435,431,431,429,432,435,441,439,437,438,435,439,440,444,447,439,446,434,434,439,863,849,841,809,913,1005,1120,1247,1351,1371,1381,1347,1330,1267,1333,1260,1231,1214,1195,1176,1143,1133,1121,1091,1049,1062,1023,995,1001,972,919,922,892,876,872,851,856,859,854,858,882,893,914,912,921,870,883,907,868,861,871,871,868,866,893,884,861,861,861,863,867,874,882,897,864,582,584,585,587,598,682,810,864,999,1030,994,979,964,949,934,919,904,889,874,823,895,792,777,762,746,731,716,700,685,703,654,639,623,608,595,591,592,594,599,603,594,596,613,610,633,646,608,622,613,621,618,614,610,632,625,611,617,608,602,619,608,619,613,621,603,489,484,486,487,496,534,600,666,733,780,788,776,764,752,745,728,716,703,690,678,665,653,640,639,615,607,595,578,565,553,540,528,524,512,506,496,497,498,490,483,493,513,500,498,492,500,499,506,502,498,508,540,560,541,534,508,491,518,500,492,490,516,503,521,494,356,340,341,342,343,364,413,461,510,554,565,556,547,565,555,520,536,502,493,484,475,466,457,448,439,430,421,412,403,394,385,376,367,358,366,344,345,346,339,332,334,343,332,346,341,337,339,339,356,341,340,339,339,357,350,345,335,342,337,340,341,337,340,358,343,539,490,491,493,551,600,681,761,745,885,894,879,858,851,836,822,808,793,779,765,681,661,716,702,622,679,665,584,571,558,545,593,579,574,495,547,549,550,533,532,531,536,546,531,541,534,536,533,532,536,539,544,536,546,586,578,542,546,538,534,539,538,554,541,538,0,0,0,0,0,0,0,0,0,0,0,0,0,0,0,0,0,0,0,0,0,0,0,0,0,0,0,0,0,0,0,0,0,0,0,0,0,0,0,0,0,0,0,0,0,0,0,0,0,0,0,0,0,0,0,0,0,0,0,0,0,0,0,0,0 ]);
