n = 10;
D = [87,76,275,262,132,245,261,159,225,140 ];
q = 0;
prec = array2d(1..0,1..2,[]);
steps = 64;
l = 360;
r = 0;
which = [];
interval = array2d(1..0,1..2,[]);
T = array3d(1..11,1..11,0..64,[0,0,0,0,0,0,0,0,0,0,0,0,0,0,0,0,0,0,0,0,0,0,0,0,0,0,0,0,0,0,0,0,0,0,0,0,0,0,0,0,0,0,0,0,0,0,0,0,0,0,0,0,0,0,0,0,0,0,0,0,0,0,0,0,0,561,563,564,566,574,629,712,796,877,923,927,867,898,883,868,853,839,783,809,794,764,764,750,735,720,705,690,642,661,646,631,616,602,587,573,540,571,573,555,561,562,591,565,573,560,564,560,554,570,569,610,622,619,578,563,576,577,578,582,568,571,582,556,568,564,684,700,703,691,712,810,910,1017,1082,1131,1146,1106,1096,1078,1073,1034,1037,1018,980,1012,964,953,950,909,879,872,861,819,789,799,781,741,745,712,717,714,716,730,695,699,708,732,709,708,703,713,709,709,703,705,705,712,708,712,717,723,721,717,715,717,718,756,744,749,745,953,1090,952,991,1047,1149,1430,1433,1549,1548,1527,1524,1490,1571,1551,1557,1395,1490,1452,1318,1291,1271,1264,1341,1300,1161,1155,1115,1098,1089,1050,1126,1003,1083,983,1006,1061,972,1016,1007,1026,1080,1046,1052,1043,1026,1034,1050,1044,1034,1037,1069,1099,1089,1062,1045,1032,1046,1032,1028,1027,1051,1039,1060,1026,409,409,410,412,413,446,503,561,621,667,675,665,654,643,634,622,611,602,590,579,568,558,582,536,525,515,506,493,483,472,461,451,504,429,419,414,415,479,419,426,431,454,429,437,424,431,422,426,426,425,420,432,431,437,432,437,434,433,440,435,432,442,423,431,426,495,497,498,500,504,549,622,695,768,815,821,807,795,781,768,755,742,729,716,734,690,676,663,679,637,624,611,599,585,572,558,545,532,519,530,503,504,505,502,499,508,527,508,500,510,523,518,502,506,503,504,500,509,503,511,502,499,501,509,509,503,504,498,502,500,961,933,936,980,1118,1130,1280,1498,1499,1532,1627,1502,1477,1453,1428,1404,1380,1476,1408,1318,1313,1280,1297,1277,1290,1161,1143,1112,1111,1063,1039,1036,1008,980,1021,952,954,975,986,984,988,986,1008,1008,1027,1037,1003,1021,1008,1006,1011,1003,1001,1030,1021,1009,1007,1008,994,1016,1004,1013,1001,1020,1013,489,490,492,493,539,539,610,680,751,814,820,807,794,782,769,756,743,730,717,714,677,688,687,653,626,614,622,588,589,583,563,538,543,512,500,496,497,516,503,493,499,521,501,514,500,507,511,506,527,507,509,506,496,515,510,509,500,502,502,504,509,502,509,533,507,789,788,782,781,824,903,1033,1146,1243,1275,1340,1260,1240,1220,1195,1179,1220,1147,1119,1136,1121,1085,1060,1018,1006,964,1004,964,917,892,904,875,864,804,840,797,815,830,829,823,822,818,851,881,835,848,844,870,860,877,864,870,855,870,851,851,861,846,848,889,868,882,866,868,876,697,699,701,703,784,800,906,1105,1100,1141,1211,1123,1105,1087,1069,1051,1033,1082,1074,1002,960,965,958,975,965,869,869,833,815,797,779,811,761,724,770,707,709,729,713,722,728,745,778,766,738,778,735,807,761,795,760,743,769,804,767,746,785,762,752,769,768,795,754,753,744,0,0,0,0,0,0,0,0,0,0,0,0,0,0,0,0,0,0,0,0,0,0,0,0,0,0,0,0,0,0,0,0,0,0,0,0,0,0,0,0,0,0,0,0,0,0,0,0,0,0,0,0,0,0,0,0,0,0,0,0,0,0,0,0,0,642,644,615,617,629,681,765,894,931,975,981,966,951,936,921,906,932,916,900,846,831,816,801,787,772,757,742,727,712,758,682,667,652,637,624,620,624,623,616,621,623,624,626,623,633,624,630,625,632,626,630,628,636,645,640,649,637,636,638,633,637,637,640,644,633,0,0,0,0,0,0,0,0,0,0,0,0,0,0,0,0,0,0,0,0,0,0,0,0,0,0,0,0,0,0,0,0,0,0,0,0,0,0,0,0,0,0,0,0,0,0,0,0,0,0,0,0,0,0,0,0,0,0,0,0,0,0,0,0,0,1101,1104,1065,1102,1188,1329,1473,1650,1687,1738,1704,1686,1654,1627,1620,1593,1591,1583,1517,1489,1461,1427,1399,1354,1327,1322,1289,1267,1234,1206,1178,1151,1123,1101,1068,1076,1071,1136,1123,1100,1114,1137,1122,1127,1121,1124,1129,1133,1134,1120,1158,1156,1177,1158,1152,1138,1114,1137,1124,1121,1116,1146,1126,1151,1118,963,961,968,979,1066,1231,1447,1620,1716,1742,1730,1692,1666,1632,1602,1567,1538,1506,1468,1441,1407,1377,1340,1313,1281,1249,1219,1180,1152,1116,1088,1056,1024,990,979,981,987,993,1001,988,988,996,1083,1067,1031,1042,1027,1110,1067,1040,1066,1020,1027,1069,1066,1024,1081,1045,1035,1085,1060,1103,1092,1114,1069,925,928,899,907,958,1077,1207,1388,1424,1460,1457,1432,1409,1435,1362,1339,1363,1341,1329,1248,1230,1210,1177,1154,1131,1118,1093,1061,1038,1015,992,968,945,923,912,913,911,912,905,919,913,927,922,917,931,943,920,921,919,927,922,920,919,924,929,927,929,923,921,924,925,958,955,965,946,580,596,583,586,596,653,738,827,909,953,959,943,928,913,896,882,867,852,836,821,806,790,775,760,744,766,714,698,683,668,652,669,621,606,593,619,610,610,591,596,598,607,605,603,603,607,600,613,601,600,610,616,625,617,618,615,609,611,614,608,614,621,609,619,605,1217,1227,1225,1280,1387,1513,1748,1935,1944,2026,1982,2009,1940,1936,1859,1816,1779,1753,1711,1674,1671,1617,1616,1548,1551,1512,1432,1481,1409,1380,1348,1325,1358,1260,1257,1254,1250,1252,1314,1280,1281,1327,1283,1307,1375,1418,1392,1329,1299,1281,1307,1310,1337,1335,1399,1342,1327,1349,1333,1336,1346,1311,1302,1306,1284,890,904,865,870,970,1024,1151,1327,1381,1416,1414,1376,1369,1347,1309,1344,1327,1289,1278,1198,1197,1168,1132,1110,1101,1079,1043,1034,1011,977,954,932,910,889,888,877,908,932,889,881,878,882,882,915,909,909,898,908,919,906,905,901,902,929,932,906,914,914,913,930,919,916,924,968,930,1186,1145,1138,1148,1243,1404,1560,1839,1801,1843,1858,1761,1733,1704,1664,1708,1637,1587,1562,1523,1515,1474,1449,1420,1416,1379,1353,1307,1278,1271,1232,1203,1165,1180,1150,1147,1131,1134,1157,1154,1169,1196,1162,1202,1165,1187,1168,1189,1193,1173,1177,1179,1190,1218,1218,1183,1177,1188,1188,1198,1185,1181,1177,1207,1176,969,978,1020,993,1067,1150,1343,1524,1539,1596,1595,1607,1545,1510,1498,1461,1439,1407,1395,1344,1328,1312,1287,1243,1260,1191,1164,1160,1135,1097,1087,1070,1034,1007,1005,987,998,996,991,1004,1017,1035,1013,1020,1012,1032,1013,1031,1012,1006,1007,1020,1026,1037,1030,1031,1017,1009,1028,1028,1022,1027,1008,1019,1009,642,644,615,617,629,681,765,894,931,975,981,966,951,936,921,906,932,916,900,846,831,816,801,787,772,757,742,727,712,758,682,667,652,637,624,620,624,623,616,621,623,624,626,623,633,624,630,625,632,626,630,628,636,645,640,649,637,636,638,633,637,637,640,644,633,742,743,746,746,774,879,997,1073,1157,1301,1204,1185,1166,1142,1123,1109,1084,1072,1053,1034,1014,996,977,953,940,918,902,883,861,844,826,807,785,816,756,753,752,757,751,767,746,764,767,772,763,770,768,759,756,767,760,759,759,756,763,767,763,760,758,762,762,779,772,781,762,1231,1127,1111,1142,1238,1387,1556,1692,1749,1795,1798,1824,1729,1726,1761,1643,1639,1641,1558,1514,1511,1472,1454,1435,1386,1367,1316,1301,1325,1244,1215,1183,1221,1185,1163,1121,1146,1127,1204,1176,1196,1198,1196,1187,1239,1242,1199,1231,1216,1185,1191,1251,1259,1269,1242,1253,1237,1256,1248,1258,1229,1212,1185,1195,1202,0,0,0,0,0,0,0,0,0,0,0,0,0,0,0,0,0,0,0,0,0,0,0,0,0,0,0,0,0,0,0,0,0,0,0,0,0,0,0,0,0,0,0,0,0,0,0,0,0,0,0,0,0,0,0,0,0,0,0,0,0,0,0,0,0,1211,1226,1160,1264,1296,1491,1875,1863,1955,2048,2134,1940,1934,1899,1998,1948,1766,1722,1697,1662,1631,1618,1558,1524,1562,1454,1420,1385,1372,1316,1284,1246,1212,1246,1232,1246,1175,1173,1276,1239,1249,1249,1282,1321,1275,1284,1282,1290,1346,1298,1302,1318,1314,1328,1269,1282,1300,1318,1318,1317,1288,1303,1314,1287,1287,462,466,468,469,469,537,608,641,707,755,769,751,739,727,715,702,690,678,666,654,642,630,618,606,594,586,573,557,545,533,521,509,497,485,479,469,470,471,468,460,463,465,480,483,477,491,480,491,487,483,477,465,469,477,473,469,480,472,467,473,471,484,475,481,475,1039,991,990,964,1099,1231,1373,1509,1582,1622,1627,1591,1563,1552,1553,1471,1479,1434,1394,1380,1378,1339,1337,1285,1240,1232,1176,1176,1157,1124,1087,1058,1093,1024,1032,1013,1000,1012,1026,1026,1023,1038,1062,1027,1036,1063,1045,1043,1047,1055,1127,1131,1150,1104,1127,1118,1082,1073,1046,1045,1058,1035,1054,1043,1036,804,794,796,799,835,924,1060,1169,1256,1296,1315,1276,1265,1234,1213,1192,1172,1189,1130,1110,1089,1084,1048,1027,1006,986,965,944,937,903,896,862,841,833,807,803,813,808,808,807,804,812,816,831,813,815,831,822,812,817,814,820,818,814,825,827,822,821,817,830,829,852,855,855,846,286,286,287,288,289,303,342,380,419,457,471,463,456,449,441,434,427,419,412,405,397,390,382,375,368,360,353,346,338,331,324,316,309,302,294,290,291,291,278,280,278,284,323,309,300,305,299,326,303,296,309,288,292,303,299,287,314,289,285,308,304,322,309,307,300,295,296,297,297,298,312,352,392,431,470,484,477,469,462,454,447,439,432,424,417,409,402,394,386,379,371,364,356,349,341,334,326,319,311,304,299,300,301,292,289,289,295,294,292,292,299,287,292,293,291,292,295,294,293,292,294,293,293,296,291,289,291,292,293,291,563,577,579,581,592,648,705,818,935,912,927,935,889,937,892,875,898,845,830,815,800,765,769,779,753,739,751,677,662,678,633,645,619,589,590,586,568,589,575,594,602,570,575,578,607,603,588,586,646,579,603,590,595,605,621,629,622,593,601,600,590,586,579,639,568,742,743,746,746,774,879,997,1073,1157,1301,1204,1185,1166,1142,1123,1109,1084,1072,1053,1034,1014,996,977,953,940,918,902,883,861,844,826,807,785,816,756,753,752,757,751,767,746,764,767,772,763,770,768,759,756,767,760,759,759,756,763,767,763,760,758,762,762,779,772,781,762,1005,1008,1028,1069,1104,1202,1349,1528,1567,1641,1690,1608,1553,1532,1506,1479,1451,1430,1415,1380,1354,1329,1326,1300,1267,1232,1206,1181,1156,1132,1126,1082,1057,1028,1027,1037,1022,1129,1058,1060,1081,1104,1121,1119,1128,1084,1080,1116,1074,1062,1073,1080,1075,1067,1098,1088,1063,1063,1072,1063,1060,1069,1078,1098,1060,1105,1107,1110,1138,1228,1423,1660,1831,1931,1965,1948,1913,1877,1842,1806,1771,1736,1700,1665,1629,1594,1559,1618,1581,1452,1417,1467,1346,1311,1275,1240,1204,1169,1140,1122,1199,1128,1135,1177,1175,1180,1193,1177,1212,1188,1192,1192,1198,1204,1195,1188,1187,1202,1206,1203,1216,1211,1213,1205,1198,1200,1199,1208,1206,1192,1122,1117,1113,1159,1293,1484,1682,1823,1935,1952,1929,1915,1848,1840,1794,1771,1737,1692,1631,1625,1583,1539,1529,1499,1465,1431,1397,1363,1328,1286,1248,1224,1178,1140,1142,1143,1151,1159,1203,1202,1181,1198,1189,1234,1193,1208,1236,1285,1211,1233,1225,1227,1220,1242,1243,1218,1218,1207,1216,1244,1220,1233,1229,1229,1211,0,0,0,0,0,0,0,0,0,0,0,0,0,0,0,0,0,0,0,0,0,0,0,0,0,0,0,0,0,0,0,0,0,0,0,0,0,0,0,0,0,0,0,0,0,0,0,0,0,0,0,0,0,0,0,0,0,0,0,0,0,0,0,0,0,1033,1070,1059,1058,1174,1359,1581,1692,1816,1797,1792,1880,1743,1704,1694,1666,1620,1569,1534,1523,1505,1463,1431,1387,1357,1324,1292,1261,1238,1189,1186,1152,1124,1086,1055,1056,1060,1068,1085,1098,1083,1103,1112,1095,1089,1115,1090,1114,1100,1122,1106,1115,1108,1126,1124,1126,1114,1116,1116,1127,1130,1127,1124,1123,1146,1096,1099,1102,1132,1218,1470,1647,1875,1918,1952,1978,1900,1925,1830,1934,1759,1724,1738,1694,1665,1619,1586,1513,1477,1487,1407,1415,1337,1363,1266,1231,1196,1163,1225,1113,1113,1120,1126,1179,1139,1149,1145,1159,1173,1158,1166,1159,1174,1199,1190,1188,1196,1200,1215,1198,1207,1184,1213,1218,1218,1221,1206,1234,1246,1237,1681,1710,1757,1898,2126,2412,2676,2733,2804,2798,2769,2786,2739,2708,2598,2544,2513,2474,2439,2353,2340,2289,2211,2165,2200,2093,2023,1975,1928,1880,1890,1788,1796,1756,1708,1724,1720,1729,1927,1979,1945,1963,1989,1978,1972,1985,1975,1985,1993,1962,1978,1999,1995,1999,2030,2017,2007,1999,2027,2016,2016,2045,2050,2046,2032,1178,1194,1185,1224,1413,1568,1807,1945,2020,2028,2012,1989,1954,1928,1920,1848,1822,1766,1742,1706,1665,1626,1591,1566,1531,1534,1455,1433,1389,1381,1321,1288,1249,1244,1199,1200,1216,1211,1273,1272,1273,1402,1315,1279,1305,1332,1297,1290,1299,1311,1311,1295,1295,1304,1299,1295,1296,1290,1298,1305,1287,1306,1296,1291,1277,1242,1259,1252,1300,1455,1669,1996,2035,2120,2127,2139,2166,2048,2085,1963,1937,1928,1853,1842,1938,1754,1707,1670,1643,1677,1610,1533,1518,1459,1435,1388,1347,1354,1276,1284,1266,1274,1302,1335,1352,1348,1382,1388,1389,1396,1387,1360,1394,1363,1351,1383,1372,1373,1369,1405,1387,1372,1361,1373,1360,1359,1378,1382,1391,1372,1451,1483,1499,1564,1823,2011,2330,2425,2514,2472,2397,2432,2447,2365,2260,2249,2187,2154,2192,2044,2038,1986,1920,1911,1891,1829,1800,1741,1728,1629,1645,1572,1566,1503,1535,1478,1501,1502,1595,1585,1616,1628,1633,1667,1620,1635,1644,1654,1680,1643,1650,1688,1704,1695,1665,1649,1636,1658,1637,1640,1636,1669,1642,1671,1651,1005,1008,1028,1069,1104,1202,1349,1528,1567,1641,1690,1608,1553,1532,1506,1479,1451,1430,1415,1380,1354,1329,1326,1300,1267,1232,1206,1181,1156,1132,1126,1082,1057,1028,1027,1037,1022,1129,1058,1060,1081,1104,1121,1119,1128,1084,1080,1116,1074,1062,1073,1080,1075,1067,1098,1088,1063,1063,1072,1063,1060,1069,1078,1098,1060,397,398,399,400,406,400,446,495,558,592,582,603,599,594,570,566,592,576,567,571,542,518,489,479,470,475,454,446,437,429,415,411,403,415,406,388,412,379,381,385,384,388,397,389,389,393,386,393,389,395,389,393,393,395,389,386,397,392,394,404,393,402,391,392,393,904,916,919,919,972,1083,1241,1350,1446,1463,1455,1435,1413,1422,1370,1357,1346,1322,1287,1263,1204,1220,1203,1168,1145,1097,1074,1041,1051,996,1014,989,935,934,921,910,921,902,913,920,920,931,928,922,935,952,927,929,924,929,925,927,923,936,938,932,935,925,923,931,931,961,953,965,951,497,513,500,516,521,568,643,702,769,872,859,858,846,813,802,784,771,768,737,746,729,697,665,670,656,630,619,604,571,577,576,562,534,521,517,513,514,501,500,502,515,532,511,518,502,522,514,519,511,504,511,519,521,529,519,519,522,523,525,532,523,552,539,547,548,1043,1048,1109,1135,1170,1299,1514,1827,1726,1754,1772,1711,1709,1662,1635,1608,1581,1698,1533,1500,1470,1440,1537,1378,1328,1317,1278,1384,1225,1194,1163,1198,1198,1137,1062,1056,1064,1136,1124,1124,1123,1124,1154,1199,1139,1168,1165,1174,1188,1181,1172,1177,1162,1187,1157,1156,1168,1159,1153,1193,1170,1193,1168,1181,1182,0,0,0,0,0,0,0,0,0,0,0,0,0,0,0,0,0,0,0,0,0,0,0,0,0,0,0,0,0,0,0,0,0,0,0,0,0,0,0,0,0,0,0,0,0,0,0,0,0,0,0,0,0,0,0,0,0,0,0,0,0,0,0,0,0,818,839,845,864,894,1058,1104,1240,1365,1340,1348,1312,1326,1257,1237,1267,1213,1192,1170,1149,1135,1131,1109,1077,1047,1041,987,975,975,939,939,910,888,867,841,838,852,855,871,827,823,824,847,855,848,843,851,860,890,861,873,877,881,878,855,873,893,898,915,921,869,869,909,870,874,853,888,882,888,909,1093,1145,1310,1360,1430,1389,1370,1384,1361,1338,1282,1259,1237,1215,1221,1170,1148,1126,1143,1107,1059,1035,1090,993,993,946,950,902,882,869,866,868,861,873,885,893,911,914,901,898,909,885,900,893,891,888,908,908,915,1001,965,908,902,907,896,885,891,907,899,884,404,405,407,408,421,439,554,568,626,657,682,656,661,635,640,614,618,608,582,586,576,551,540,530,533,523,512,535,478,467,469,459,448,437,415,410,429,412,415,418,411,411,422,423,453,442,417,424,426,432,427,418,422,432,426,425,427,422,420,423,419,427,425,435,417,651,633,635,637,651,714,808,884,988,1063,1048,1043,1029,1044,1029,1037,971,957,903,928,909,854,863,821,805,776,772,767,728,712,707,691,695,718,639,655,637,638,671,649,647,652,657,660,721,710,661,693,678,656,661,708,713,717,708,728,715,731,709,690,689,672,657,653,644,612,646,616,618,630,692,783,874,959,999,1002,990,974,958,942,926,910,894,878,862,846,830,814,838,782,766,748,784,718,702,684,671,652,639,625,621,623,625,618,628,628,639,647,647,651,645,626,646,634,623,634,641,639,636,664,649,626,625,636,634,623,634,638,639,625,397,398,399,400,406,400,446,495,558,592,582,603,599,594,570,566,592,576,567,571,542,518,489,479,470,475,454,446,437,429,415,411,403,415,406,388,412,379,381,385,384,388,397,389,389,393,386,393,389,395,389,393,393,395,389,386,397,392,394,404,393,402,391,392,393,539,540,542,543,548,664,665,737,810,1043,911,850,837,824,858,830,814,771,789,745,732,719,706,693,680,706,654,702,688,677,626,589,599,563,550,577,548,571,570,562,560,562,567,569,573,569,572,575,576,570,576,579,584,582,578,586,577,585,577,571,582,584,569,568,561,545,547,548,550,557,608,690,799,970,897,949,887,873,859,842,830,922,801,787,797,758,743,727,752,700,708,671,657,642,661,614,599,615,645,556,542,543,545,579,554,553,554,598,588,570,568,573,573,606,599,628,607,623,592,615,588,603,630,653,632,605,618,653,659,599,943,1000,989,1020,1088,1226,1353,1458,1609,1552,1611,1585,1544,1526,1492,1486,1458,1436,1335,1366,1382,1333,1314,1264,1256,1219,1181,1203,1142,1127,1057,1061,1040,997,1030,1007,1014,963,1016,1012,1023,1015,1035,1040,1059,1057,1027,1047,1047,1045,1049,1043,1043,1070,1052,1047,1037,1036,1026,1049,1036,1043,1028,1052,1051,995,997,1112,1011,1110,1289,1505,1675,1768,1793,1772,1745,1710,1679,1646,1614,1578,1548,1515,1480,1449,1416,1562,1525,1318,1285,1252,1219,1184,1153,1120,1088,1053,1025,1008,1011,1018,1026,1029,1043,1043,1051,1070,1035,1053,1075,1055,1047,1090,1067,1174,1169,1188,1100,1218,1170,1106,1076,1060,1043,1060,1042,1054,1085,1040,828,823,826,830,870,977,1094,1220,1320,1470,1348,1391,1297,1287,1287,1284,1228,1203,1176,1148,1129,1105,1084,1063,1041,1026,1000,1002,961,936,945,892,877,896,836,871,836,844,866,870,824,822,871,855,850,853,854,873,917,867,882,896,900,875,874,888,888,909,944,891,876,886,938,889,859,0,0,0,0,0,0,0,0,0,0,0,0,0,0,0,0,0,0,0,0,0,0,0,0,0,0,0,0,0,0,0,0,0,0,0,0,0,0,0,0,0,0,0,0,0,0,0,0,0,0,0,0,0,0,0,0,0,0,0,0,0,0,0,0,0,842,850,850,865,995,998,1152,1260,1345,1404,1379,1355,1347,1319,1309,1269,1268,1225,1203,1181,1178,1137,1115,1093,1071,1049,984,1116,942,961,939,916,895,947,864,857,822,872,871,869,868,867,867,868,864,866,867,908,868,873,871,875,874,869,870,874,871,875,867,869,871,875,877,876,879,770,777,780,802,829,918,1039,1136,1216,1270,1291,1247,1238,1199,1227,1292,1232,1136,1094,1117,1072,1083,1039,1000,1011,983,945,934,900,897,871,857,840,815,802,852,788,787,817,786,790,793,781,791,787,791,791,820,808,801,800,806,817,804,809,805,802,809,813,809,815,810,802,824,823,1023,987,1022,1010,1092,1207,1359,1515,1556,1688,1611,1633,1614,1552,1484,1494,1455,1423,1398,1376,1348,1367,1310,1317,1243,1214,1253,1223,1135,1123,1148,1124,1047,1024,997,1012,1018,1000,1024,1035,1038,1058,1058,1063,1060,1060,1040,1059,1049,1036,1050,1058,1058,1055,1084,1070,1045,1044,1057,1054,1046,1065,1067,1074,1055,672,680,669,723,698,761,866,956,1029,1086,1071,1077,1058,1041,1033,1000,989,972,941,946,910,894,893,870,854,833,812,819,770,771,748,735,711,680,679,683,670,683,670,677,667,684,680,686,675,682,682,677,676,678,672,677,676,671,678,684,682,680,677,678,680,695,687,694,683,539,540,542,543,548,664,665,737,810,1043,911,850,837,824,858,830,814,771,789,745,732,719,706,693,680,706,654,702,688,677,626,589,599,563,550,577,548,571,570,562,560,562,567,569,573,569,572,575,576,570,576,579,584,582,578,586,577,585,577,571,582,584,569,568,561,1041,1052,1044,1061,1160,1314,1409,1573,1713,1689,1705,1677,1616,1631,1572,1543,1564,1544,1484,1434,1411,1384,1388,1332,1320,1259,1276,1242,1184,1173,1151,1166,1094,1053,1089,1083,1079,1057,1067,1113,1077,1085,1096,1088,1085,1105,1096,1097,1112,1082,1092,1100,1099,1103,1108,1118,1111,1104,1123,1098,1115,1131,1144,1118,1115,1327,1301,1326,1346,1515,1638,1862,1975,2093,2089,2048,2090,1987,1970,1917,1896,1881,1849,1815,1770,1737,1693,1660,1679,1650,1577,1524,1499,1464,1455,1445,1378,1329,1307,1354,1299,1323,1301,1389,1384,1381,1411,1440,1432,1411,1407,1426,1461,1428,1467,1468,1470,1420,1421,1445,1445,1448,1426,1471,1513,1458,1457,1470,1443,1438,923,927,932,973,1011,1103,1246,1392,1475,1501,1502,1476,1468,1428,1415,1383,1377,1342,1322,1273,1266,1252,1215,1215,1161,1144,1131,1104,1069,1055,1032,997,978,953,933,957,960,942,951,965,966,981,996,978,976,996,970,976,967,966,970,989,988,998,1118,1066,999,984,990,977,969,978,997,994,980,1771,1807,1927,2160,2361,2655,2795,2931,2975,2999,3043,2931,2849,2789,2768,2680,2627,2597,2533,2478,2411,2378,2372,2263,2243,2172,2114,2066,2016,1949,1952,1924,1897,1809,1819,1840,1833,1836,2150,2162,2115,2125,2157,2144,2156,2168,2165,2174,2217,2171,2177,2194,2193,2201,2184,2217,2217,2216,2254,2210,2208,2215,2263,2197,2203,961,967,969,980,1046,1212,1369,1456,1551,1571,1581,1534,1572,1484,1469,1447,1415,1390,1386,1381,1356,1453,1266,1235,1232,1192,1168,1183,1146,1091,1129,1042,999,994,981,979,1002,984,996,999,988,1046,1024,1012,1006,1024,1021,1022,1040,1021,1022,1009,997,999,1011,1021,1006,1004,994,1003,1005,1016,1026,1023,993,773,772,778,814,810,936,1017,1197,1224,1287,1262,1337,1288,1201,1222,1161,1141,1156,1150,1079,1060,1045,1076,1041,1008,964,978,919,899,879,894,864,866,798,800,781,787,786,804,789,802,812,822,799,798,824,812,823,824,814,800,807,831,828,912,917,860,841,816,817,817,809,832,823,808,0,0,0,0,0,0,0,0,0,0,0,0,0,0,0,0,0,0,0,0,0,0,0,0,0,0,0,0,0,0,0,0,0,0,0,0,0,0,0,0,0,0,0,0,0,0,0,0,0,0,0,0,0,0,0,0,0,0,0,0,0,0,0,0,0,781,784,783,795,833,967,1036,1153,1266,1279,1290,1252,1295,1217,1193,1184,1157,1136,1122,1098,1115,1098,1035,1011,1011,975,956,941,940,890,903,850,815,812,803,800,828,806,793,799,789,807,801,809,807,820,812,799,799,813,807,800,798,800,807,806,805,805,795,802,804,818,817,818,801,956,914,919,938,970,1094,1194,1338,1442,1459,1451,1450,1412,1390,1396,1336,1322,1296,1277,1262,1232,1210,1198,1174,1129,1115,1093,1071,1052,1019,997,982,965,940,900,916,926,909,931,931,924,989,968,942,947,966,947,969,1000,965,971,957,951,957,960,955,948,950,943,940,939,948,953,950,921,492,485,495,497,501,542,614,691,763,790,817,799,791,778,742,730,739,722,713,686,688,671,652,645,632,619,605,594,586,574,555,542,529,516,519,500,501,503,508,502,500,500,504,508,513,509,510,514,514,509,513,518,522,522,518,525,515,522,517,510,518,523,508,508,501,1041,1052,1044,1061,1160,1314,1409,1573,1713,1689,1705,1677,1616,1631,1572,1543,1564,1544,1484,1434,1411,1384,1388,1332,1320,1259,1276,1242,1184,1173,1151,1166,1094,1053,1089,1083,1079,1057,1067,1113,1077,1085,1096,1088,1085,1105,1096,1097,1112,1082,1092,1100,1099,1103,1108,1118,1111,1104,1123,1098,1115,1131,1144,1118,1115,581,583,585,626,595,649,732,815,889,937,942,931,915,902,887,872,858,843,828,813,799,784,769,754,734,725,723,695,681,665,664,634,622,607,591,587,591,590,591,592,590,602,600,592,598,599,595,602,614,614,691,690,697,630,611,616,609,608,595,603,609,599,600,600,596,967,1011,973,987,1036,1173,1390,1468,1547,1580,1555,1702,1523,1498,1623,1511,1422,1397,1372,1347,1322,1297,1271,1256,1231,1196,1171,1146,1121,1104,1070,1086,1020,1030,973,982,984,987,989,999,1003,1023,1087,1065,1027,1074,1029,1116,1055,1088,1062,1028,1059,1105,1061,1036,1091,1054,1038,1078,1072,1111,1063,1057,1046,183,184,184,185,186,191,216,241,266,291,305,300,296,291,286,281,276,272,267,262,257,252,248,243,238,233,228,223,219,214,209,204,199,195,190,186,187,187,173,173,174,174,177,175,177,177,178,180,175,177,178,178,175,178,179,179,179,178,177,177,180,188,189,189,187,1097,1081,1084,1109,1194,1372,1621,1750,1848,1878,1863,1830,1819,1765,1760,1699,1666,1633,1635,1691,1560,1502,1469,1462,1403,1370,1360,1412,1271,1238,1206,1173,1140,1115,1176,1115,1168,1106,1169,1162,1159,1166,1165,1173,1192,1181,1165,1153,1166,1172,1161,1159,1158,1154,1160,1174,1164,1165,1160,1161,1158,1181,1180,1188,1157,305,306,307,308,309,325,368,410,453,493,506,498,490,482,474,466,458,450,442,434,426,418,410,402,394,386,378,370,362,354,346,338,330,322,314,309,310,311,299,300,300,303,305,304,305,301,303,307,301,305,305,317,315,310,315,311,307,317,308,301,310,303,307,312,302,847,850,851,848,901,1036,1095,1303,1390,1404,1405,1374,1406,1342,1298,1290,1251,1232,1223,1184,1174,1121,1103,1118,1094,1070,1040,1023,995,972,938,946,901,868,864,845,866,873,871,876,874,884,884,890,879,902,876,886,878,879,877,902,893,893,889,900,893,889,899,906,886,898,876,890,884,694,673,675,677,696,768,900,1009,1133,1101,1141,1119,1090,1086,1125,1015,997,980,995,956,900,909,972,904,857,839,821,893,786,854,834,756,716,722,706,681,706,745,692,699,705,737,706,714,699,705,701,694,709,708,737,753,746,721,710,723,721,724,728,717,720,744,720,731,725,0,0,0,0,0,0,0,0,0,0,0,0,0,0,0,0,0,0,0,0,0,0,0,0,0,0,0,0,0,0,0,0,0,0,0,0,0,0,0,0,0,0,0,0,0,0,0,0,0,0,0,0,0,0,0,0,0,0,0,0,0,0,0,0,0,298,298,299,300,301,316,356,396,436,476,488,481,473,466,530,521,512,504,428,420,413,405,397,390,407,399,391,360,352,344,359,351,322,314,306,302,303,303,293,300,312,376,308,289,303,335,315,300,373,353,302,319,374,360,350,288,303,312,328,317,293,310,309,299,295,430,432,433,434,436,470,531,593,773,702,749,734,725,713,666,654,643,632,654,621,571,587,624,595,553,542,531,547,508,524,526,498,463,452,441,437,438,439,435,432,440,450,446,442,444,448,441,449,448,455,449,467,475,468,460,447,448,460,455,447,445,458,446,455,446,581,583,585,626,595,649,732,815,889,937,942,931,915,902,887,872,858,843,828,813,799,784,769,754,734,725,723,695,681,665,664,634,622,607,591,587,591,590,591,592,590,602,600,592,598,599,595,602,614,614,691,690,697,630,611,616,609,608,595,603,609,599,600,600,596,826,822,807,835,921,936,1079,1224,1270,1334,1328,1307,1304,1241,1245,1241,1203,1160,1170,1123,1124,1099,1082,1088,1017,1023,1013,959,938,938,917,876,875,849,833,819,840,843,837,831,840,854,840,843,848,841,838,855,867,869,866,861,860,866,858,863,848,861,854,855,859,852,854,866,875,1083,1087,1090,1163,1200,1342,1521,1657,1798,1762,1754,1726,1698,1670,1674,1614,1673,1618,1640,1501,1473,1445,1403,1389,1361,1333,1292,1277,1236,1230,1193,1165,1137,1115,1125,1099,1102,1157,1138,1126,1120,1133,1246,1227,1174,1203,1175,1273,1227,1225,1237,1184,1190,1228,1228,1170,1245,1213,1199,1262,1222,1285,1271,1299,1225,261,262,263,263,264,275,309,344,379,413,428,422,415,408,402,395,389,382,375,369,362,355,349,342,336,329,322,316,309,303,296,289,283,276,269,265,266,266,251,249,255,258,249,255,256,256,257,255,257,250,251,250,250,253,253,253,251,251,251,250,249,253,250,254,254,1389,1333,1399,1546,1565,1783,2026,2177,2247,2287,2397,2204,2165,2165,2083,2075,2009,1970,1959,1895,1855,1814,1777,1763,1806,1761,1620,1605,1542,1503,1478,1494,1452,1442,1374,1345,1447,1449,1496,1484,1465,1484,1480,1522,1484,1494,1527,1578,1502,1519,1521,1519,1512,1525,1527,1512,1506,1503,1497,1526,1512,1520,1513,1510,1487,555,556,533,560,568,589,701,783,822,908,914,900,885,833,856,842,827,777,798,749,769,755,740,694,680,696,682,638,624,638,624,583,595,580,567,538,565,566,557,553,560,577,571,564,572,563,563,577,590,573,610,615,609,598,618,590,563,567,561,564,556,572,575,577,562,995,966,986,1002,1050,1162,1339,1482,1551,1588,1584,1551,1536,1463,1480,1453,1429,1410,1405,1341,1326,1303,1248,1264,1201,1193,1185,1150,1128,1108,1074,1074,1023,981,1020,982,988,991,998,993,1022,1044,1028,1037,1020,1047,1044,1040,1087,1063,1215,1249,1352,1141,1046,1032,1036,1059,1038,1019,1030,1046,1027,1059,1049,730,733,735,737,764,854,955,1067,1155,1197,1199,1180,1161,1160,1133,1121,1102,1082,1046,1036,1024,1005,969,966,931,912,901,874,869,835,816,805,778,759,758,741,743,777,737,741,741,758,745,764,746,761,771,748,756,749,751,751,746,752,752,754,752,755,746,751,755,768,762,772,758,350,351,353,354,355,376,424,473,522,566,578,569,560,551,542,533,523,514,505,496,487,478,469,460,451,442,433,424,415,406,397,388,379,369,360,356,357,358,349,351,347,347,355,356,379,378,353,360,358,362,358,351,355,362,361,356,361,354,355,356,355,361,358,370,353,0,0,0,0,0,0,0,0,0,0,0,0,0,0,0,0,0,0,0,0,0,0,0,0,0,0,0,0,0,0,0,0,0,0,0,0,0,0,0,0,0,0,0,0,0,0,0,0,0,0,0,0,0,0,0,0,0,0,0,0,0,0,0,0,0,547,548,532,514,527,549,628,723,798,845,896,838,868,789,768,763,749,736,761,703,697,684,690,658,663,649,612,605,592,579,580,547,555,541,514,525,526,558,522,539,509,507,524,514,518,523,525,521,553,527,532,532,530,537,522,544,529,536,557,533,540,534,559,523,531,826,822,807,835,921,936,1079,1224,1270,1334,1328,1307,1304,1241,1245,1241,1203,1160,1170,1123,1124,1099,1082,1088,1017,1023,1013,959,938,938,917,876,875,849,833,819,840,843,837,831,840,854,840,843,848,841,838,855,867,869,866,861,860,866,858,863,848,861,854,855,859,852,854,866,875,868,838,843,843,888,997,1107,1325,1322,1367,1357,1382,1314,1304,1271,1226,1240,1230,1176,1179,1191,1136,1098,1059,1058,1056,1016,1035,1007,992,971,892,929,864,886,869,853,855,866,860,870,937,875,890,862,875,876,882,898,881,885,875,869,890,908,882,870,882,879,884,881,870,883,900,871,1071,1076,1078,1119,1300,1325,1502,1736,1733,1754,1753,1735,1694,1666,1696,1597,1569,1543,1526,1486,1508,1452,1414,1375,1346,1329,1324,1275,1235,1234,1171,1152,1140,1125,1102,1097,1096,1112,1126,1130,1115,1138,1130,1126,1139,1151,1131,1123,1131,1144,1143,1128,1133,1138,1141,1141,1135,1141,1128,1138,1129,1149,1141,1138,1127,759,719,756,717,761,878,1007,1047,1203,1212,1182,1173,1198,1149,1167,1148,1096,1097,1090,1045,1032,1003,1007,945,971,889,924,919,850,881,832,803,805,755,778,770,740,727,741,743,744,745,746,746,746,749,746,752,753,753,754,755,756,759,760,762,759,764,762,763,763,767,768,769,767,1573,1582,1637,1788,2014,2300,2502,2656,2666,2653,2638,2600,2550,2515,2500,2435,2394,2304,2268,2221,2174,2134,2088,2060,1990,1941,1894,1835,1800,1752,1736,1661,1634,1608,1606,1607,1617,1622,1750,1757,1709,1719,1750,1742,1747,1759,1754,1764,1811,1761,1774,1785,1787,1792,1766,1796,1810,1809,1843,1796,1789,1799,1850,1784,1789,761,764,820,771,800,957,1048,1124,1276,1259,1269,1226,1262,1201,1218,1170,1145,1126,1134,1063,1084,1066,1055,983,976,948,967,942,889,904,866,828,810,790,809,800,777,777,767,770,787,801,785,798,777,797,779,807,790,781,789,791,802,816,800,795,802,791,800,802,799,807,785,795,790,606,566,568,570,614,678,764,826,883,928,933,975,974,894,922,917,849,834,859,804,789,774,759,780,724,749,745,680,665,650,635,655,609,594,577,573,574,609,584,578,580,580,580,576,582,584,583,579,578,580,586,588,590,588,587,584,586,586,588,596,588,595,585,584,590,271,272,273,274,275,288,325,363,401,439,452,445,438,431,423,416,409,402,395,388,380,373,366,359,352,345,337,330,323,316,309,301,294,287,280,275,276,277,258,259,266,274,259,269,262,270,273,262,273,261,264,264,262,268,264,264,264,269,264,264,263,269,263,270,264,586,581,618,584,594,695,780,819,955,957,990,939,981,939,951,902,887,875,883,814,844,828,821,753,751,724,747,732,680,670,670,636,619,605,624,589,592,591,595,588,590,593,602,585,586,588,586,594,594,593,593,639,596,591,636,596,591,593,594,600,590,590,599,598,595,746,728,724,796,775,861,951,1063,1149,1195,1174,1204,1178,1207,1110,1100,1082,1063,1045,1033,988,1016,972,940,931,974,885,881,846,845,829,841,772,774,741,757,739,741,748,752,746,759,758,766,779,769,759,764,767,772,770,781,774,778,763,764,771,764,761,762,762,764,760,759,749,0,0,0,0,0,0,0,0,0,0,0,0,0,0,0,0,0,0,0,0,0,0,0,0,0,0,0,0,0,0,0,0,0,0,0,0,0,0,0,0,0,0,0,0,0,0,0,0,0,0,0,0,0,0,0,0,0,0,0,0,0,0,0,0,0,868,838,843,843,888,997,1107,1325,1322,1367,1357,1382,1314,1304,1271,1226,1240,1230,1176,1179,1191,1136,1098,1059,1058,1056,1016,1035,1007,992,971,892,929,864,886,869,853,855,866,860,870,937,875,890,862,875,876,882,898,881,885,875,869,890,908,882,870,882,879,884,881,870,883,900,871,0,0,0,0,0,0,0,0,0,0,0,0,0,0,0,0,0,0,0,0,0,0,0,0,0,0,0,0,0,0,0,0,0,0,0,0,0,0,0,0,0,0,0,0,0,0,0,0,0,0,0,0,0,0,0,0,0,0,0,0,0,0,0,0,0,561,563,564,566,574,629,712,796,877,923,927,867,898,883,868,853,839,783,809,794,764,764,750,735,720,705,690,642,661,646,631,616,602,587,573,540,571,573,555,561,562,591,565,573,560,564,560,554,570,569,610,622,619,578,563,576,577,578,582,568,571,582,556,568,564,684,700,703,691,712,810,910,1017,1082,1131,1146,1106,1096,1078,1073,1034,1037,1018,980,1012,964,953,950,909,879,872,861,819,789,799,781,741,745,712,717,714,716,730,695,699,708,732,709,708,703,713,709,709,703,705,705,712,708,712,717,723,721,717,715,717,718,756,744,749,745,953,1090,952,991,1047,1149,1430,1433,1549,1548,1527,1524,1490,1571,1551,1557,1395,1490,1452,1318,1291,1271,1264,1341,1300,1161,1155,1115,1098,1089,1050,1126,1003,1083,983,1006,1061,972,1016,1007,1026,1080,1046,1052,1043,1026,1034,1050,1044,1034,1037,1069,1099,1089,1062,1045,1032,1046,1032,1028,1027,1051,1039,1060,1026,409,409,410,412,413,446,503,561,621,667,675,665,654,643,634,622,611,602,590,579,568,558,582,536,525,515,506,493,483,472,461,451,504,429,419,414,415,479,419,426,431,454,429,437,424,431,422,426,426,425,420,432,431,437,432,437,434,433,440,435,432,442,423,431,426,495,497,498,500,504,549,622,695,768,815,821,807,795,781,768,755,742,729,716,734,690,676,663,679,637,624,611,599,585,572,558,545,532,519,530,503,504,505,502,499,508,527,508,500,510,523,518,502,506,503,504,500,509,503,511,502,499,501,509,509,503,504,498,502,500,961,933,936,980,1118,1130,1280,1498,1499,1532,1627,1502,1477,1453,1428,1404,1380,1476,1408,1318,1313,1280,1297,1277,1290,1161,1143,1112,1111,1063,1039,1036,1008,980,1021,952,954,975,986,984,988,986,1008,1008,1027,1037,1003,1021,1008,1006,1011,1003,1001,1030,1021,1009,1007,1008,994,1016,1004,1013,1001,1020,1013,489,490,492,493,539,539,610,680,751,814,820,807,794,782,769,756,743,730,717,714,677,688,687,653,626,614,622,588,589,583,563,538,543,512,500,496,497,516,503,493,499,521,501,514,500,507,511,506,527,507,509,506,496,515,510,509,500,502,502,504,509,502,509,533,507,789,788,782,781,824,903,1033,1146,1243,1275,1340,1260,1240,1220,1195,1179,1220,1147,1119,1136,1121,1085,1060,1018,1006,964,1004,964,917,892,904,875,864,804,840,797,815,830,829,823,822,818,851,881,835,848,844,870,860,877,864,870,855,870,851,851,861,846,848,889,868,882,866,868,876,697,699,701,703,784,800,906,1105,1100,1141,1211,1123,1105,1087,1069,1051,1033,1082,1074,1002,960,965,958,975,965,869,869,833,815,797,779,811,761,724,770,707,709,729,713,722,728,745,778,766,738,778,735,807,761,795,760,743,769,804,767,746,785,762,752,769,768,795,754,753,744,0,0,0,0,0,0,0,0,0,0,0,0,0,0,0,0,0,0,0,0,0,0,0,0,0,0,0,0,0,0,0,0,0,0,0,0,0,0,0,0,0,0,0,0,0,0,0,0,0,0,0,0,0,0,0,0,0,0,0,0,0,0,0,0,0 ]);
