n = 10;
D = [208,148,164,188,249,198,196,104,199,246 ];
q = 0;
prec = array2d(1..0,1..2,[]);
steps = 64;
l = 360;
r = 0;
which = [];
interval = array2d(1..0,1..2,[]);
T = array3d(1..11,1..11,0..64,[0,0,0,0,0,0,0,0,0,0,0,0,0,0,0,0,0,0,0,0,0,0,0,0,0,0,0,0,0,0,0,0,0,0,0,0,0,0,0,0,0,0,0,0,0,0,0,0,0,0,0,0,0,0,0,0,0,0,0,0,0,0,0,0,0,527,530,530,531,541,658,967,1089,1201,1284,1314,1278,1257,1247,1226,1196,1185,1154,1134,1113,1102,1072,1064,1040,1010,1005,969,956,935,896,718,594,573,556,553,536,537,496,466,462,461,463,466,463,463,463,463,463,463,463,463,463,463,463,463,463,463,463,463,463,463,463,463,463,463,361,362,364,365,368,503,652,728,804,880,897,891,877,862,840,832,818,804,789,775,760,746,732,710,703,681,667,658,644,624,615,537,490,478,372,368,369,370,349,349,349,349,349,349,349,349,349,349,349,349,349,349,349,349,349,349,349,349,349,349,349,349,349,349,349,487,490,490,492,504,600,891,1006,1109,1193,1225,1190,1171,1161,1141,1113,1102,1075,1056,1035,1025,997,984,967,939,936,901,882,860,713,681,585,529,523,519,496,497,465,435,431,430,432,435,432,432,432,432,432,432,432,432,432,432,432,432,432,432,432,432,432,432,432,432,432,432,595,597,599,600,612,669,1033,1242,1368,1453,1454,1431,1408,1386,1363,1340,1317,1294,1270,1248,1225,1202,1179,1156,1134,1129,1106,1065,1041,961,849,751,658,618,627,612,605,607,592,593,592,601,592,595,595,598,595,597,596,596,598,596,598,598,598,601,601,599,601,597,601,601,600,601,601,293,294,295,296,321,339,495,581,641,740,757,745,733,701,689,677,667,655,643,632,616,607,596,582,573,561,550,538,526,487,371,364,338,320,316,322,332,333,258,254,253,255,258,255,255,255,255,255,255,255,255,255,255,255,255,255,255,255,255,255,255,255,255,255,255,475,471,472,474,481,569,803,947,1042,1146,1144,1128,1118,1111,1093,1056,1102,1021,1003,985,967,949,931,914,902,902,860,842,824,785,717,565,502,490,527,476,502,479,445,441,440,442,445,442,442,442,442,442,442,442,442,442,442,442,442,442,442,442,442,442,442,442,442,442,442,757,765,772,774,808,1141,1393,1646,1780,1846,1842,1811,1773,1789,1759,1721,1700,1659,1627,1598,1539,1522,1507,1479,1417,1395,1383,1360,1221,1081,835,858,829,799,779,794,784,766,716,712,711,713,716,713,713,713,713,713,713,713,713,713,713,713,713,713,713,713,713,713,713,713,713,713,713,735,731,741,748,810,1381,1605,1786,1907,1957,1946,1911,1876,1839,1804,1768,1734,1689,1666,1630,1600,1561,1526,1490,1455,1419,1384,1348,1314,1192,842,817,783,761,748,777,733,719,718,718,718,718,718,718,718,718,718,718,718,718,718,718,718,718,718,718,718,718,718,718,718,718,718,718,718,964,974,976,986,1108,1625,2048,2178,2263,2321,2331,2286,2280,2217,2211,2116,2114,2065,2006,1974,2000,1914,1878,1862,1825,1778,1676,1334,1095,1188,1047,1080,1023,987,981,973,982,929,906,906,906,906,906,906,906,906,906,906,906,906,906,906,906,906,906,906,906,906,906,906,906,906,906,906,906,0,0,0,0,0,0,0,0,0,0,0,0,0,0,0,0,0,0,0,0,0,0,0,0,0,0,0,0,0,0,0,0,0,0,0,0,0,0,0,0,0,0,0,0,0,0,0,0,0,0,0,0,0,0,0,0,0,0,0,0,0,0,0,0,0,546,551,552,557,562,684,1015,1124,1244,1318,1332,1310,1302,1270,1249,1236,1207,1187,1174,1154,1125,1104,1091,1062,1042,1022,1001,978,958,803,753,617,610,584,575,561,562,554,457,452,454,463,458,466,460,463,460,461,465,462,465,463,468,468,463,463,463,463,463,463,463,463,463,463,463,0,0,0,0,0,0,0,0,0,0,0,0,0,0,0,0,0,0,0,0,0,0,0,0,0,0,0,0,0,0,0,0,0,0,0,0,0,0,0,0,0,0,0,0,0,0,0,0,0,0,0,0,0,0,0,0,0,0,0,0,0,0,0,0,0,509,517,512,514,538,700,960,1075,1194,1252,1261,1240,1220,1200,1180,1160,1140,1119,1099,1080,1059,1039,1018,998,978,958,938,918,897,877,699,678,638,591,520,517,518,534,450,455,456,461,465,465,461,463,454,457,459,459,457,457,459,458,456,456,456,456,456,456,456,456,456,456,456,106,108,108,122,162,163,185,208,229,250,268,264,259,256,251,248,242,239,234,231,226,222,217,214,209,206,200,196,191,188,182,179,174,171,166,162,162,162,69,66,68,68,72,71,72,68,68,71,73,73,71,71,73,72,70,70,70,70,70,70,70,70,70,70,70,615,615,618,624,625,727,1163,1326,1467,1476,1542,1481,1446,1423,1401,1376,1366,1344,1319,1296,1272,1224,1210,1200,1188,1133,1157,1102,1102,967,944,793,650,647,657,616,635,626,575,571,578,586,579,583,578,584,586,585,583,576,583,592,594,594,592,582,582,582,582,582,582,582,582,582,582,339,342,342,347,349,422,601,670,735,800,828,820,801,789,776,764,750,738,725,712,700,686,683,667,661,637,628,610,602,585,545,390,381,372,406,359,350,359,252,250,254,258,260,262,256,258,252,262,260,263,259,261,264,260,259,259,259,259,259,259,259,259,259,259,259,203,205,206,206,208,270,356,397,439,482,513,504,496,488,480,472,463,456,447,440,432,423,415,407,399,391,382,374,366,358,349,341,283,276,270,208,208,257,158,156,158,162,160,160,159,164,162,163,160,159,163,165,167,166,164,159,159,159,159,159,159,159,159,159,159,572,583,577,578,611,915,1082,1214,1325,1402,1434,1404,1381,1365,1343,1314,1289,1268,1245,1229,1199,1190,1154,1133,1112,1087,1062,1040,1017,959,854,655,622,621,592,607,606,579,524,523,528,537,532,535,534,535,531,531,532,531,537,537,537,538,534,534,534,534,534,534,534,534,534,534,534,1041,1045,1047,1065,1189,1778,2287,2524,2621,2670,2646,2597,2549,2501,2458,2411,2364,2314,2265,2233,2184,2137,2093,2042,1995,1953,1898,1676,1426,1197,1171,1116,1108,1074,1059,1059,1033,1053,971,974,976,981,990,983,996,985,975,976,981,979,991,984,990,984,991,990,990,990,990,990,990,990,990,990,990,882,888,874,904,936,1166,1755,1956,2103,2097,2109,2074,2042,2051,2016,1926,1948,1910,1869,1791,1777,1772,1735,1670,1620,1587,1410,1258,1273,1259,984,934,912,920,913,892,890,900,830,832,829,834,844,841,839,841,836,839,841,841,839,839,841,840,838,838,838,838,838,838,838,838,838,838,838,546,551,552,557,562,684,1015,1124,1244,1318,1332,1310,1302,1270,1249,1236,1207,1187,1174,1154,1125,1104,1091,1062,1042,1022,1001,978,958,803,753,617,610,584,575,561,562,554,457,452,454,463,458,466,460,463,460,461,465,462,465,463,468,468,463,463,463,463,463,463,463,463,463,463,463,304,316,317,319,308,379,580,646,714,769,762,750,756,717,730,703,691,694,658,655,657,622,633,621,608,596,584,572,547,547,535,523,328,324,324,320,321,322,306,308,310,314,315,314,312,316,309,316,311,311,313,315,313,315,313,316,314,314,315,313,313,316,312,316,311,517,519,521,522,533,807,990,1099,1207,1272,1274,1254,1234,1214,1194,1173,1157,1132,1113,1093,1076,1052,1032,1016,992,972,953,931,910,890,866,572,572,548,529,526,528,486,465,465,461,461,461,461,461,461,461,461,461,461,461,461,461,461,461,461,461,461,461,461,461,461,461,461,461,0,0,0,0,0,0,0,0,0,0,0,0,0,0,0,0,0,0,0,0,0,0,0,0,0,0,0,0,0,0,0,0,0,0,0,0,0,0,0,0,0,0,0,0,0,0,0,0,0,0,0,0,0,0,0,0,0,0,0,0,0,0,0,0,0,478,480,481,483,484,739,910,1013,1115,1180,1185,1166,1147,1129,1108,1090,1071,1053,1034,1015,999,978,958,942,920,901,872,864,844,827,803,631,512,500,488,485,486,455,434,434,431,431,431,431,431,431,431,431,431,431,431,431,431,431,431,431,431,431,431,431,431,431,431,431,431,716,719,720,756,765,1124,1435,1597,1704,1748,1742,1736,1687,1731,1651,1605,1596,1550,1539,1495,1467,1520,1412,1398,1370,1329,1302,1288,1246,1125,964,941,758,740,729,736,740,731,725,718,726,724,723,733,731,735,730,728,733,732,728,729,730,735,742,744,733,736,729,738,734,736,742,731,726,410,411,412,413,418,505,784,870,946,1039,1046,1029,981,993,950,933,934,901,885,870,853,837,818,805,802,772,770,739,743,721,533,510,472,429,419,416,430,403,386,378,386,403,394,379,377,385,386,405,401,389,402,399,395,388,388,402,384,387,389,386,389,386,396,393,380,564,537,539,540,570,768,1094,1215,1250,1300,1390,1352,1263,1302,1302,1279,1237,1220,1213,1196,1145,1147,1112,1088,1071,1045,1038,1014,926,748,801,616,706,583,546,572,574,564,536,536,536,536,536,536,536,536,536,536,536,536,536,536,536,536,536,536,536,536,536,536,536,536,536,536,536,846,848,849,854,912,1472,1758,1927,2021,2058,2051,2014,2043,1948,1915,1887,1853,1816,1784,1760,1719,1686,1702,1640,1587,1555,1425,1263,1316,1159,961,940,910,866,886,881,878,843,842,836,842,842,842,837,835,842,842,842,842,842,842,842,842,842,842,842,842,842,842,842,842,842,842,842,838,572,574,610,577,615,1022,1195,1367,1511,1573,1570,1542,1512,1487,1452,1422,1393,1364,1335,1310,1282,1249,1222,1192,1163,1132,1107,1074,1044,1006,975,717,696,601,586,581,585,558,555,555,563,568,568,568,561,567,567,568,568,568,568,568,568,568,568,568,565,568,568,567,563,568,567,568,563,724,717,721,722,734,968,1375,1553,1685,1728,1735,1708,1667,1654,1655,1606,1536,1545,1495,1456,1436,1445,1410,1386,1339,1342,1299,1276,1162,935,768,870,777,763,723,722,732,728,638,638,638,638,638,638,638,638,638,638,638,638,638,638,638,638,638,638,638,638,638,638,638,638,638,638,638,304,316,317,319,308,379,580,646,714,769,762,750,756,717,730,703,691,694,658,655,657,622,633,621,608,596,584,572,547,547,535,523,328,324,324,320,321,322,306,308,310,314,315,314,312,316,309,316,311,311,313,315,313,315,313,316,314,314,315,313,313,316,312,316,311,441,443,444,445,451,549,830,916,1007,1068,1072,1067,1051,1023,1006,988,973,956,940,924,907,890,874,858,840,833,807,790,774,758,571,558,545,461,451,448,464,444,388,386,386,395,386,395,388,395,392,390,392,389,394,392,395,396,393,393,393,393,393,393,393,393,392,392,391,152,153,169,169,180,184,265,295,325,355,376,371,365,359,355,348,342,337,330,324,320,313,308,302,295,290,284,278,273,267,260,255,193,188,185,181,181,182,73,76,74,75,76,74,75,75,75,75,75,75,73,75,74,75,75,74,75,73,73,73,73,73,73,73,73,420,422,423,424,430,624,775,867,960,1031,1053,1035,1019,1002,985,968,952,930,923,901,885,867,856,834,816,800,800,766,760,733,711,610,543,484,441,431,432,460,381,389,388,393,393,394,389,395,386,386,386,386,386,386,386,386,386,386,386,386,387,388,386,387,385,385,384,0,0,0,0,0,0,0,0,0,0,0,0,0,0,0,0,0,0,0,0,0,0,0,0,0,0,0,0,0,0,0,0,0,0,0,0,0,0,0,0,0,0,0,0,0,0,0,0,0,0,0,0,0,0,0,0,0,0,0,0,0,0,0,0,0,599,600,617,611,606,691,1107,1258,1348,1427,1435,1420,1356,1396,1356,1314,1320,1298,1279,1217,1227,1181,1161,1165,1125,1069,1072,1058,1027,977,908,683,646,628,628,614,605,599,545,547,549,558,552,559,555,558,558,557,559,554,554,554,557,557,557,555,559,559,554,560,555,555,554,554,553,233,234,234,235,236,310,416,462,506,550,574,556,558,547,530,522,522,505,496,488,480,510,466,453,455,436,428,421,411,403,393,331,322,316,240,236,256,237,183,184,186,190,188,191,184,190,184,191,187,190,188,190,191,188,189,189,189,189,189,189,189,189,188,188,187,199,199,215,216,218,234,350,391,433,474,497,490,481,474,467,458,450,443,434,426,421,412,404,396,388,380,372,365,357,259,254,249,244,237,233,228,229,229,155,152,155,158,153,154,154,156,154,156,154,154,157,160,168,161,156,156,157,157,156,156,156,156,156,156,156,575,576,594,596,592,664,1104,1224,1346,1414,1420,1403,1366,1356,1334,1297,1292,1265,1246,1219,1195,1148,1151,1128,1095,1072,1048,1028,1014,970,877,794,638,624,604,605,602,599,520,521,523,521,526,525,529,531,528,527,528,528,526,529,527,534,532,529,530,524,523,527,527,527,527,527,527,951,955,958,974,1024,1605,2069,2283,2428,2453,2448,2415,2376,2320,2286,2247,2198,2144,2101,2064,2018,1980,1921,1889,1847,1799,1750,1676,1431,1094,1110,1041,1037,989,980,972,946,959,902,908,908,913,918,912,924,917,907,905,908,906,920,913,917,912,921,920,912,914,918,916,921,903,911,909,908,808,813,790,828,860,1044,1527,1748,1890,1922,1933,1942,1865,1836,1856,1774,1751,1747,1736,1657,1628,1637,1578,1529,1489,1465,1410,1214,1144,1140,986,932,828,836,815,798,818,826,761,766,761,766,772,770,767,773,768,768,768,768,768,768,768,768,768,768,768,768,769,770,768,769,767,767,766,441,443,444,445,451,549,830,916,1007,1068,1072,1067,1051,1023,1006,988,973,956,940,924,907,890,874,858,840,833,807,790,774,758,571,558,545,461,451,448,464,444,388,386,386,395,386,395,388,395,392,390,392,389,394,392,395,396,393,393,393,393,393,393,393,393,392,392,391,720,723,726,731,773,1104,1457,1614,1721,1760,1761,1736,1707,1680,1653,1624,1598,1614,1543,1515,1489,1458,1428,1396,1387,1296,1271,1212,1186,1161,821,815,767,762,738,731,738,697,680,695,701,729,701,691,701,702,690,701,697,698,697,695,691,706,700,694,705,697,695,699,698,721,722,717,705,577,579,543,545,584,919,1053,1156,1355,1312,1327,1306,1285,1264,1243,1222,1211,1196,1146,1138,1117,1096,1075,1053,1033,1078,1044,999,949,927,760,600,581,589,547,544,549,521,512,515,519,540,519,529,516,522,516,515,523,520,517,527,527,533,523,531,528,528,532,524,524,535,515,526,522,766,768,771,837,896,1302,1655,1837,1837,1873,1887,1842,1812,1850,1752,1722,1825,1710,1645,1603,1628,1664,1525,1570,1567,1423,1393,1363,1394,1034,1035,940,808,788,780,777,780,782,792,798,797,809,793,797,803,812,805,813,804,795,806,807,818,804,810,807,800,813,805,800,807,834,804,816,808,649,651,632,646,681,971,1265,1406,1515,1545,1560,1532,1511,1476,1451,1428,1415,1406,1355,1337,1302,1277,1262,1238,1211,1255,1188,1127,1110,1047,923,698,682,660,653,650,651,590,578,583,587,612,590,601,584,590,587,588,596,590,588,600,599,603,595,604,602,600,603,595,595,605,584,594,590,0,0,0,0,0,0,0,0,0,0,0,0,0,0,0,0,0,0,0,0,0,0,0,0,0,0,0,0,0,0,0,0,0,0,0,0,0,0,0,0,0,0,0,0,0,0,0,0,0,0,0,0,0,0,0,0,0,0,0,0,0,0,0,0,0,554,556,557,559,576,945,1077,1203,1309,1360,1363,1341,1320,1298,1336,1272,1233,1264,1190,1184,1147,1125,1102,1081,1059,1038,1016,994,986,951,930,919,591,584,565,562,564,565,555,567,564,576,572,590,572,583,569,604,576,576,572,577,592,565,580,580,577,584,572,572,585,584,572,583,574,457,459,440,447,469,628,843,943,1039,1082,1104,1084,1066,1036,1020,1002,998,996,962,943,915,897,890,874,854,906,846,793,784,758,703,686,614,464,453,450,446,452,445,443,447,451,468,448,449,455,455,455,451,450,451,458,483,497,490,499,492,468,456,452,460,452,461,456,449,308,309,310,311,312,468,567,634,703,758,772,759,747,735,722,710,698,707,695,681,649,657,645,633,598,586,574,561,570,559,545,512,500,430,316,312,314,315,306,305,304,305,309,305,307,305,306,306,306,306,308,307,308,347,310,309,308,307,308,310,310,312,308,308,308,1280,1287,1295,1370,1926,2414,2971,3135,3190,3182,3169,3116,3060,3008,2951,2893,2837,2828,2726,2658,2617,2581,2470,2110,2060,2010,1650,1643,1466,1467,1428,1387,1351,1313,1302,1273,1282,1268,1252,1265,1272,1291,1274,1281,1299,1277,1271,1276,1273,1276,1280,1282,1283,1289,1277,1279,1283,1310,1303,1282,1288,1295,1299,1298,1286,1378,1371,1376,1445,1840,2659,3019,3179,3234,3242,3225,3204,3098,3090,3020,2940,2915,2916,2824,2758,2561,2246,2182,2052,1692,1665,1619,1601,1596,1515,1456,1475,1414,1399,1393,1387,1339,1339,1327,1336,1348,1353,1348,1348,1349,1353,1347,1356,1362,1358,1356,1360,1354,1352,1363,1368,1346,1336,1347,1350,1337,1351,1348,1348,1336,720,723,726,731,773,1104,1457,1614,1721,1760,1761,1736,1707,1680,1653,1624,1598,1614,1543,1515,1489,1458,1428,1396,1387,1296,1271,1212,1186,1161,821,815,767,762,738,731,738,697,680,695,701,729,701,691,701,702,690,701,697,698,697,695,691,706,700,694,705,697,695,699,698,721,722,717,705,323,327,328,329,332,430,600,669,735,806,809,796,782,777,764,745,732,720,707,694,680,674,656,643,630,618,605,592,578,552,541,499,427,362,337,333,334,335,299,294,305,329,303,302,300,300,299,298,308,305,303,301,304,303,307,305,300,303,304,300,301,302,304,307,302,290,294,298,301,299,375,520,578,638,697,730,718,708,696,686,673,662,650,641,626,615,602,592,580,570,552,541,535,435,422,413,406,385,374,303,300,300,301,208,207,207,210,208,212,207,213,210,221,212,212,212,217,211,213,214,214,209,214,207,213,210,211,209,213,209,356,360,360,369,365,444,674,750,832,885,894,879,865,855,837,823,808,807,780,765,751,736,722,708,694,679,668,650,645,625,608,459,456,374,367,372,364,366,360,366,362,372,369,392,366,371,364,364,368,364,362,374,370,374,373,375,374,395,378,421,371,405,364,373,368,252,255,256,258,259,296,369,501,554,605,639,625,619,604,595,589,580,568,558,544,537,525,517,507,493,481,471,466,410,368,358,310,303,294,263,260,260,259,177,176,176,180,178,183,176,181,179,179,180,180,180,185,179,181,178,180,177,178,175,179,178,179,175,180,176,508,510,523,515,525,586,947,1066,1176,1262,1250,1230,1195,1191,1174,1155,1131,1093,1075,1088,1053,1034,1016,994,976,944,922,915,896,877,595,593,559,532,520,527,519,531,482,479,485,491,478,488,483,487,489,481,488,480,482,481,480,486,483,485,481,484,481,484,482,490,482,488,484,0,0,0,0,0,0,0,0,0,0,0,0,0,0,0,0,0,0,0,0,0,0,0,0,0,0,0,0,0,0,0,0,0,0,0,0,0,0,0,0,0,0,0,0,0,0,0,0,0,0,0,0,0,0,0,0,0,0,0,0,0,0,0,0,0,228,228,231,232,232,359,387,423,463,505,528,520,512,504,496,488,481,472,465,456,448,441,433,424,417,409,428,418,409,400,391,382,373,364,236,233,233,234,187,184,187,192,186,187,187,188,186,185,189,188,187,188,186,188,187,187,185,187,185,185,187,187,187,188,187,497,497,505,505,508,668,936,1047,1172,1227,1239,1215,1195,1179,1158,1137,1120,1097,1078,1054,1035,1026,998,978,956,948,926,897,884,867,848,786,684,541,508,527,506,528,458,457,455,459,465,463,461,472,462,465,466,459,465,461,459,465,463,461,464,462,457,462,462,467,464,465,461,874,891,872,898,916,1542,1946,2181,2288,2312,2296,2265,2215,2184,2138,2098,2054,2019,1975,1931,1889,1850,1817,1776,1731,1689,1650,1610,1495,1249,1075,949,956,911,893,891,865,871,867,868,875,904,876,884,875,884,876,877,873,882,872,890,880,889,885,898,887,889,886,889,882,892,886,891,873,897,900,894,904,998,1343,1826,1950,2125,2157,2164,2140,2111,2064,2047,1985,1972,1939,1878,1849,1836,1804,1763,1743,1672,1658,1556,1371,1286,1123,1070,1047,956,912,923,920,924,875,837,828,831,840,839,838,838,840,836,841,841,841,854,857,852,840,838,835,839,841,831,831,836,839,832,838,830,323,327,328,329,332,430,600,669,735,806,809,796,782,777,764,745,732,720,707,694,680,674,656,643,630,618,605,592,578,552,541,499,427,362,337,333,334,335,299,294,305,329,303,302,300,300,299,298,308,305,303,301,304,303,307,305,300,303,304,300,301,302,304,307,302,465,467,467,472,473,552,857,990,1080,1125,1152,1113,1114,1087,1077,1063,1048,1023,1010,997,974,957,937,921,884,891,813,796,747,732,737,508,510,481,476,474,472,459,425,431,431,448,450,435,430,434,431,440,438,452,430,433,432,458,438,434,438,439,432,438,433,455,434,437,433,176,176,176,187,187,199,312,346,382,417,434,427,421,414,406,400,393,387,380,373,367,360,352,346,339,333,326,319,313,306,298,213,208,202,198,195,195,196,140,142,141,144,157,152,153,152,153,153,152,153,153,147,151,156,156,147,161,155,147,152,160,152,158,153,152,505,495,496,512,509,566,886,1044,1135,1178,1255,1170,1150,1131,1126,1092,1078,1069,1078,1058,1024,1015,981,966,969,926,903,888,870,840,770,759,574,501,490,514,502,504,503,498,504,504,492,516,504,512,507,509,511,507,503,500,510,510,511,511,511,511,513,524,506,504,505,514,495,191,192,192,192,231,259,343,382,422,463,478,471,463,456,448,440,433,426,417,410,403,394,387,380,372,364,357,349,342,334,326,319,261,261,296,250,251,252,181,185,181,185,188,185,187,188,185,188,187,186,185,183,184,186,186,184,188,185,183,186,185,188,186,187,185,434,415,437,437,442,457,783,831,953,1034,1056,1041,984,973,988,974,955,903,888,872,856,879,856,808,793,811,766,775,729,746,706,690,621,453,444,440,441,422,417,415,420,424,419,423,419,420,424,422,423,417,420,427,427,428,428,423,418,422,418,421,414,428,418,426,418,255,255,296,297,297,242,491,542,554,542,631,558,549,540,531,522,568,558,552,564,536,525,489,480,470,485,474,465,452,445,432,422,247,240,235,386,387,367,235,236,235,240,236,238,236,239,239,240,239,236,236,237,240,239,239,240,238,237,236,237,239,242,242,242,237,0,0,0,0,0,0,0,0,0,0,0,0,0,0,0,0,0,0,0,0,0,0,0,0,0,0,0,0,0,0,0,0,0,0,0,0,0,0,0,0,0,0,0,0,0,0,0,0,0,0,0,0,0,0,0,0,0,0,0,0,0,0,0,0,0,410,412,413,414,416,524,767,856,942,999,1022,1005,990,973,956,940,932,907,891,874,859,842,825,810,793,776,760,744,727,711,694,679,572,538,486,416,441,419,386,386,387,387,387,388,388,388,388,389,389,389,390,390,390,391,391,391,391,391,391,391,392,392,392,391,391,1022,1024,1031,1039,1112,1718,2209,2496,2542,2594,2616,2495,2449,2392,2388,2324,2275,2267,2245,2200,2145,2098,2050,2018,1968,1902,1873,1649,1454,1304,1145,1134,1043,1043,1028,1039,1014,1022,998,1003,997,992,1028,1009,1021,1030,1005,1015,1013,1020,1009,1014,1023,1030,1021,1012,1021,1015,1040,1027,1015,1040,1009,1018,1014,970,963,953,978,1028,1435,1956,2177,2264,2307,2319,2267,2232,2220,2140,2114,2116,2088,1993,1971,1941,1880,1860,1831,1783,1763,1423,1407,1286,1094,1137,1032,1019,1019,974,984,970,943,924,917,921,925,922,928,924,931,929,933,930,940,939,940,930,925,928,927,931,928,922,923,927,928,928,925,924,465,467,467,472,473,552,857,990,1080,1125,1152,1113,1114,1087,1077,1063,1048,1023,1010,997,974,957,937,921,884,891,813,796,747,732,737,508,510,481,476,474,472,459,425,431,431,448,450,435,430,434,431,440,438,452,430,433,432,458,438,434,438,439,432,438,433,455,434,437,433,672,682,684,689,718,957,1352,1489,1585,1642,1648,1637,1601,1585,1524,1534,1484,1440,1420,1406,1386,1360,1334,1332,1308,1225,1201,1141,1085,921,908,795,707,692,691,692,678,655,622,645,643,644,634,625,628,639,636,670,631,626,633,633,644,641,650,631,644,645,644,630,650,654,636,645,638,338,333,335,336,337,474,604,674,743,806,827,814,798,784,771,760,745,737,720,706,693,680,672,655,642,628,615,603,593,577,546,499,487,381,376,336,339,340,278,281,275,276,283,284,298,291,281,286,285,298,286,281,281,289,285,285,286,286,282,284,281,285,284,289,279,680,689,704,722,746,1050,1380,1557,1616,1663,1677,1672,1632,1618,1570,1551,1512,1489,1434,1434,1387,1377,1354,1334,1313,1274,1247,1239,1204,1026,1016,918,722,712,713,707,694,698,674,682,699,715,720,726,712,697,699,720,690,679,689,696,693,691,714,702,682,682,691,690,680,689,693,712,681,426,427,428,428,441,535,796,890,981,1046,1058,1041,1027,1009,991,975,956,939,924,908,889,872,855,838,821,805,788,771,754,736,714,606,464,494,436,439,439,412,347,347,343,344,355,355,369,358,349,357,358,371,356,352,354,361,355,357,359,360,354,355,352,356,354,358,347,252,253,254,255,256,296,489,543,596,646,700,657,640,630,626,610,600,596,542,574,560,550,543,530,523,511,502,490,481,471,460,376,368,358,351,256,256,257,251,255,254,255,253,251,258,255,258,256,252,255,252,256,254,257,302,288,253,252,254,258,330,330,255,253,253,432,433,483,461,457,512,817,912,990,1114,1068,1076,1039,1051,999,982,966,954,932,915,897,880,864,893,858,818,796,813,767,750,728,607,528,477,475,453,439,440,415,417,425,440,417,422,415,421,424,417,418,418,416,423,421,425,422,429,424,433,427,424,429,442,432,433,429,235,235,236,236,237,270,420,470,518,568,590,580,571,561,552,542,532,524,514,505,495,486,476,466,457,448,439,429,420,410,400,287,281,273,266,238,239,240,205,209,206,209,240,240,225,232,222,240,228,225,236,214,215,231,224,213,235,214,212,240,228,235,234,231,221,0,0,0,0,0,0,0,0,0,0,0,0,0,0,0,0,0,0,0,0,0,0,0,0,0,0,0,0,0,0,0,0,0,0,0,0,0,0,0,0,0,0,0,0,0,0,0,0,0,0,0,0,0,0,0,0,0,0,0,0,0,0,0,0,0,1212,1223,1236,1272,1544,2140,2812,2969,3009,3024,3027,2959,2921,2897,2812,2773,2706,2623,2584,2533,2483,2438,2378,2353,2218,1858,1736,1702,1596,1372,1334,1300,1260,1249,1249,1220,1209,1205,1189,1198,1197,1201,1198,1215,1209,1214,1214,1214,1207,1199,1216,1210,1225,1221,1227,1216,1218,1222,1246,1213,1221,1228,1213,1221,1216,1178,1157,1171,1224,1389,1905,2528,2656,2756,2771,2751,2705,2709,2607,2626,2552,2517,2445,2423,2398,2333,2281,2245,2188,2130,1871,1825,1706,1514,1310,1288,1236,1226,1209,1179,1170,1163,1151,1113,1108,1109,1116,1125,1122,1132,1126,1117,1125,1126,1138,1124,1120,1122,1129,1123,1125,1127,1129,1123,1125,1120,1125,1121,1125,1114,672,682,684,689,718,957,1352,1489,1585,1642,1648,1637,1601,1585,1524,1534,1484,1440,1420,1406,1386,1360,1334,1332,1308,1225,1201,1141,1085,921,908,795,707,692,691,692,678,655,622,645,643,644,634,625,628,639,636,670,631,626,633,633,644,641,650,631,644,645,644,630,650,654,636,645,638,725,728,748,736,773,1321,1505,1741,1876,1917,1932,1898,1827,1828,1759,1760,1692,1658,1657,1630,1621,1554,1520,1485,1430,1396,1369,1347,1314,1181,927,802,784,751,749,745,735,750,740,745,751,749,766,764,760,752,756,773,769,759,770,762,773,762,771,766,767,760,760,766,762,762,760,772,752,1049,1050,1068,1085,1203,1962,2349,2545,2645,2673,2629,2602,2577,2510,2463,2418,2369,2339,2320,2273,2212,2146,2101,2054,2003,1945,1685,1671,1451,1289,1216,1132,1108,1084,1065,1073,1016,1035,1023,1021,1040,1054,1032,1060,1033,1047,1041,1043,1063,1044,1038,1051,1048,1064,1060,1056,1045,1057,1056,1057,1054,1059,1041,1055,1047,658,652,672,675,689,1145,1340,1533,1686,1774,1728,1705,1675,1635,1615,1585,1544,1524,1483,1521,1497,1413,1374,1322,1317,1282,1230,1243,1189,1069,966,768,708,696,662,680,664,689,688,686,675,691,689,688,696,701,693,695,701,699,695,696,688,693,708,706,690,694,685,691,683,695,695,696,679,1009,1011,1022,1041,1136,1785,2200,2359,2470,2518,2451,2442,2405,2350,2295,2256,2251,2182,2163,2122,2060,2024,1984,1960,1844,1786,1748,1658,1298,1148,1130,1084,1058,1037,1024,1033,985,1002,992,991,1005,1008,998,1010,999,1005,1004,1012,1021,1013,1007,1017,1012,1020,1020,1024,1013,1021,1012,1019,1018,1022,1010,1024,1013,1140,1172,1191,1195,1368,2278,2527,2726,2854,2916,2852,2805,2769,2719,2685,2619,2559,2520,2472,2413,2425,2320,2266,2217,2188,2047,1687,1658,1427,1389,1250,1218,1189,1200,1165,1164,1164,1167,1173,1195,1171,1171,1187,1190,1190,1197,1190,1192,1191,1187,1198,1188,1192,1212,1213,1200,1214,1189,1214,1216,1195,1220,1197,1207,1199,842,839,849,860,932,1557,1797,2028,2178,2192,2173,2134,2096,2056,2018,1980,1939,1901,1862,1823,1843,1752,1713,1674,1636,1598,1565,1521,1305,1287,1152,974,916,879,856,884,833,827,826,824,832,846,828,852,834,839,833,835,855,836,830,843,840,864,853,848,843,849,848,849,846,853,833,847,839,1026,1023,1033,1065,1081,1954,2217,2416,2554,2606,2577,2530,2511,2440,2395,2396,2295,2249,2203,2176,2172,2081,2035,2032,1946,1919,1759,1492,1448,1283,1131,1134,1091,1053,1042,1055,1020,1014,1013,1011,1019,1033,1015,1039,1021,1026,1020,1022,1042,1023,1017,1030,1027,1051,1040,1035,1030,1036,1035,1036,1033,1040,1020,1034,1026,1323,1321,1339,1378,1625,2684,2966,3112,3228,3278,3251,3178,3129,3060,3002,2942,2877,2824,2780,2756,2695,2547,2376,2226,2052,1825,1665,1652,1554,1474,1435,1411,1377,1355,1344,1330,1291,1285,1284,1282,1290,1304,1286,1310,1292,1297,1291,1293,1313,1294,1288,1301,1298,1322,1311,1306,1301,1307,1306,1307,1304,1311,1291,1305,1297,0,0,0,0,0,0,0,0,0,0,0,0,0,0,0,0,0,0,0,0,0,0,0,0,0,0,0,0,0,0,0,0,0,0,0,0,0,0,0,0,0,0,0,0,0,0,0,0,0,0,0,0,0,0,0,0,0,0,0,0,0,0,0,0,0,528,530,532,580,548,907,1042,1149,1255,1305,1322,1286,1264,1314,1222,1202,1262,1160,1153,1118,1111,1089,1069,1047,1014,993,972,951,931,921,889,867,564,550,540,536,545,547,539,530,544,592,551,545,551,542,549,555,557,547,541,537,552,546,549,548,547,553,548,549,546,547,559,564,536,725,728,748,736,773,1321,1505,1741,1876,1917,1932,1898,1827,1828,1759,1760,1692,1658,1657,1630,1621,1554,1520,1485,1430,1396,1369,1347,1314,1181,927,802,784,751,749,745,735,750,740,745,751,749,766,764,760,752,756,773,769,759,770,762,773,762,771,766,767,760,760,766,762,762,760,772,752,1000,1004,1018,1029,1166,1602,2023,2335,2322,2355,2359,2327,2274,2238,2217,2173,2134,2146,2107,2076,2038,2008,1966,1908,1868,1653,1562,1423,1357,1157,1136,1099,1096,1062,1057,1052,1026,1003,949,944,943,953,951,947,962,949,954,948,946,949,953,959,963,969,971,958,948,956,956,950,961,960,962,962,961,930,936,885,902,956,1159,1706,1935,2130,2148,2166,2098,2085,2018,1984,2000,1945,1918,1872,1845,1801,1758,1759,1717,1711,1612,1252,1192,1175,1116,979,966,957,924,896,909,871,898,834,837,842,845,843,848,843,851,843,855,843,842,850,855,863,873,874,851,850,852,849,849,851,854,849,851,850,774,776,785,781,824,1199,1488,1775,1789,1836,1831,1802,1774,1744,1734,1704,1673,1687,1655,1633,1603,1576,1545,1492,1464,1408,1280,1148,1082,1181,998,842,847,825,817,809,813,796,725,714,715,730,731,727,725,728,729,739,729,735,736,740,736,729,746,734,740,741,731,725,728,729,724,726,725,843,856,806,822,866,1025,1522,1744,1945,1967,1987,1921,1912,1847,1817,1823,1782,1758,1713,1692,1650,1629,1614,1568,1572,1468,1136,1076,1059,1030,902,885,864,836,816,828,812,836,774,776,779,784,782,787,782,790,782,793,783,781,790,794,802,813,813,791,790,791,789,788,791,793,789,791,790,1332,1335,1350,1422,1784,2150,2716,3015,3089,3115,3108,3038,3001,2941,2907,2860,2807,2788,2740,2695,2644,2530,2377,2017,2076,1751,1679,1527,1516,1489,1448,1408,1391,1364,1353,1348,1343,1365,1304,1302,1296,1307,1312,1305,1309,1316,1312,1307,1308,1306,1309,1314,1309,1324,1327,1310,1312,1311,1313,1313,1309,1310,1310,1312,1311,899,903,912,902,972,1297,1652,1970,2059,2102,2088,2054,2026,1997,2002,1946,1910,1918,1884,1855,1821,1781,1754,1701,1660,1475,1224,1164,1138,1112,1102,959,964,936,909,906,902,896,833,827,827,830,830,834,836,838,836,833,835,835,839,838,842,845,852,842,837,839,835,839,841,842,842,844,843,983,995,948,965,1030,1281,1856,2088,2275,2291,2308,2235,2221,2150,2116,2116,2072,2042,1994,1966,1920,1894,1871,1820,1819,1636,1365,1302,1254,1182,1042,1042,1004,976,956,976,953,974,915,917,919,925,922,929,922,931,922,934,925,926,933,933,944,955,955,935,931,933,930,930,933,936,932,934,933,1317,1328,1332,1382,1583,2114,2719,3014,3076,3098,3076,3026,2985,2923,2892,2855,2797,2782,2739,2680,2628,2572,2519,2159,2108,1748,1561,1555,1492,1513,1433,1411,1372,1359,1342,1338,1319,1332,1277,1267,1275,1277,1282,1273,1281,1284,1275,1279,1280,1269,1279,1279,1283,1290,1295,1282,1275,1280,1278,1276,1284,1285,1285,1287,1286,505,507,508,510,542,862,978,1093,1197,1248,1257,1216,1212,1191,1171,1152,1116,1144,1092,1071,1051,1032,1011,991,972,951,931,912,891,871,850,761,692,520,516,592,515,642,494,495,505,510,495,513,500,516,519,500,524,504,508,508,506,528,505,507,505,516,505,507,505,515,500,533,516,0,0,0,0,0,0,0,0,0,0,0,0,0,0,0,0,0,0,0,0,0,0,0,0,0,0,0,0,0,0,0,0,0,0,0,0,0,0,0,0,0,0,0,0,0,0,0,0,0,0,0,0,0,0,0,0,0,0,0,0,0,0,0,0,0,1000,1004,1018,1029,1166,1602,2023,2335,2322,2355,2359,2327,2274,2238,2217,2173,2134,2146,2107,2076,2038,2008,1966,1908,1868,1653,1562,1423,1357,1157,1136,1099,1096,1062,1057,1052,1026,1003,949,944,943,953,951,947,962,949,954,948,946,949,953,959,963,969,971,958,948,956,956,950,961,960,962,962,961,0,0,0,0,0,0,0,0,0,0,0,0,0,0,0,0,0,0,0,0,0,0,0,0,0,0,0,0,0,0,0,0,0,0,0,0,0,0,0,0,0,0,0,0,0,0,0,0,0,0,0,0,0,0,0,0,0,0,0,0,0,0,0,0,0,527,530,530,531,541,658,967,1089,1201,1284,1314,1278,1257,1247,1226,1196,1185,1154,1134,1113,1102,1072,1064,1040,1010,1005,969,956,935,896,718,594,573,556,553,536,537,496,466,462,461,463,466,463,463,463,463,463,463,463,463,463,463,463,463,463,463,463,463,463,463,463,463,463,463,361,362,364,365,368,503,652,728,804,880,897,891,877,862,840,832,818,804,789,775,760,746,732,710,703,681,667,658,644,624,615,537,490,478,372,368,369,370,349,349,349,349,349,349,349,349,349,349,349,349,349,349,349,349,349,349,349,349,349,349,349,349,349,349,349,487,490,490,492,504,600,891,1006,1109,1193,1225,1190,1171,1161,1141,1113,1102,1075,1056,1035,1025,997,984,967,939,936,901,882,860,713,681,585,529,523,519,496,497,465,435,431,430,432,435,432,432,432,432,432,432,432,432,432,432,432,432,432,432,432,432,432,432,432,432,432,432,595,597,599,600,612,669,1033,1242,1368,1453,1454,1431,1408,1386,1363,1340,1317,1294,1270,1248,1225,1202,1179,1156,1134,1129,1106,1065,1041,961,849,751,658,618,627,612,605,607,592,593,592,601,592,595,595,598,595,597,596,596,598,596,598,598,598,601,601,599,601,597,601,601,600,601,601,293,294,295,296,321,339,495,581,641,740,757,745,733,701,689,677,667,655,643,632,616,607,596,582,573,561,550,538,526,487,371,364,338,320,316,322,332,333,258,254,253,255,258,255,255,255,255,255,255,255,255,255,255,255,255,255,255,255,255,255,255,255,255,255,255,475,471,472,474,481,569,803,947,1042,1146,1144,1128,1118,1111,1093,1056,1102,1021,1003,985,967,949,931,914,902,902,860,842,824,785,717,565,502,490,527,476,502,479,445,441,440,442,445,442,442,442,442,442,442,442,442,442,442,442,442,442,442,442,442,442,442,442,442,442,442,757,765,772,774,808,1141,1393,1646,1780,1846,1842,1811,1773,1789,1759,1721,1700,1659,1627,1598,1539,1522,1507,1479,1417,1395,1383,1360,1221,1081,835,858,829,799,779,794,784,766,716,712,711,713,716,713,713,713,713,713,713,713,713,713,713,713,713,713,713,713,713,713,713,713,713,713,713,735,731,741,748,810,1381,1605,1786,1907,1957,1946,1911,1876,1839,1804,1768,1734,1689,1666,1630,1600,1561,1526,1490,1455,1419,1384,1348,1314,1192,842,817,783,761,748,777,733,719,718,718,718,718,718,718,718,718,718,718,718,718,718,718,718,718,718,718,718,718,718,718,718,718,718,718,718,964,974,976,986,1108,1625,2048,2178,2263,2321,2331,2286,2280,2217,2211,2116,2114,2065,2006,1974,2000,1914,1878,1862,1825,1778,1676,1334,1095,1188,1047,1080,1023,987,981,973,982,929,906,906,906,906,906,906,906,906,906,906,906,906,906,906,906,906,906,906,906,906,906,906,906,906,906,906,906,0,0,0,0,0,0,0,0,0,0,0,0,0,0,0,0,0,0,0,0,0,0,0,0,0,0,0,0,0,0,0,0,0,0,0,0,0,0,0,0,0,0,0,0,0,0,0,0,0,0,0,0,0,0,0,0,0,0,0,0,0,0,0,0,0 ]);
