n = 10;
D = [275,172,168,62,299,153,126,285,72,262 ];
q = 0;
prec = array2d(1..0,1..2,[]);
steps = 64;
l = 360;
r = 0;
which = [];
interval = array2d(1..0,1..2,[]);
T = array3d(1..11,1..11,0..64,[0,0,0,0,0,0,0,0,0,0,0,0,0,0,0,0,0,0,0,0,0,0,0,0,0,0,0,0,0,0,0,0,0,0,0,0,0,0,0,0,0,0,0,0,0,0,0,0,0,0,0,0,0,0,0,0,0,0,0,0,0,0,0,0,0,437,438,439,433,443,608,720,832,942,1016,1002,995,975,955,925,917,897,882,859,839,819,804,781,761,732,722,702,686,664,644,624,606,586,569,448,443,440,442,442,437,438,438,450,452,450,451,445,556,554,446,451,444,446,557,452,450,455,444,444,450,453,558,557,560,558,770,773,776,778,811,980,1270,1402,1506,1546,1511,1519,1492,1468,1442,1418,1392,1369,1344,1357,1293,1268,1243,1245,1194,1163,1143,1124,1100,1072,922,857,834,803,787,783,771,721,711,729,753,734,726,726,728,741,727,738,732,727,734,728,755,736,743,737,742,736,738,737,739,734,729,743,730,346,343,348,349,349,452,513,573,633,686,697,685,674,662,652,640,629,618,607,597,585,575,563,552,541,529,517,507,495,484,473,461,451,439,351,350,351,349,322,314,314,322,310,335,318,318,322,321,341,326,325,319,324,344,342,319,318,333,319,329,324,318,327,347,324,1145,1149,1161,1169,1235,1601,1873,2143,2216,2240,2223,2185,2151,2116,2101,2066,2013,1994,1959,1922,1872,1839,1805,1769,1731,1700,1666,1586,1322,1293,1249,1221,1214,1176,1166,1165,1168,1161,1110,1109,1112,1128,1130,1118,1134,1127,1123,1125,1136,1130,1127,1129,1131,1136,1142,1136,1132,1136,1130,1145,1138,1146,1151,1144,1139,978,979,972,981,1116,1341,1544,1714,1852,1862,1838,1832,1838,1764,1778,1691,1707,1696,1648,1604,1601,1522,1494,1491,1485,1456,1432,1339,1262,1278,1103,1124,1026,1008,965,959,975,960,908,906,934,941,925,942,937,939,942,934,937,938,937,939,941,952,928,937,942,941,934,934,932,934,934,935,934,470,472,473,475,480,641,744,811,896,946,952,937,921,906,892,876,861,845,830,853,800,785,770,783,739,723,709,694,678,663,647,517,505,493,481,477,478,480,472,479,482,495,482,483,486,502,489,494,505,490,507,485,511,492,510,494,499,493,495,494,495,491,484,499,486,793,793,796,799,854,1015,1332,1439,1533,1576,1554,1549,1532,1505,1482,1457,1430,1405,1380,1392,1328,1301,1276,1280,1225,1182,1173,1156,1129,1107,880,878,846,823,812,801,804,768,762,768,771,786,779,779,781,793,783,792,785,782,787,780,805,790,794,792,791,784,790,789,793,785,779,793,780,301,302,303,294,304,329,411,426,480,515,528,521,514,507,500,494,486,480,473,466,460,454,447,440,433,444,437,413,422,414,406,344,337,331,325,305,321,322,246,245,251,258,247,246,247,249,250,248,249,250,245,247,247,248,246,248,248,250,246,248,245,248,246,248,247,1212,1221,1222,1237,1376,1782,2023,2208,2328,2315,2283,2276,2268,2187,2194,2101,2107,2100,2034,1987,1991,1887,1852,1845,1826,1789,1689,1605,1393,1354,1352,1306,1260,1253,1201,1172,1179,1181,1130,1134,1152,1169,1156,1165,1163,1169,1170,1161,1159,1160,1165,1162,1166,1185,1155,1159,1166,1165,1162,1159,1156,1159,1158,1160,1159,0,0,0,0,0,0,0,0,0,0,0,0,0,0,0,0,0,0,0,0,0,0,0,0,0,0,0,0,0,0,0,0,0,0,0,0,0,0,0,0,0,0,0,0,0,0,0,0,0,0,0,0,0,0,0,0,0,0,0,0,0,0,0,0,0,405,405,406,407,410,564,665,766,867,931,936,918,899,882,864,847,828,810,793,775,756,739,721,704,685,667,661,631,613,596,578,559,553,524,414,411,422,520,422,416,417,417,420,415,418,417,421,416,416,417,422,423,422,423,424,422,423,423,424,516,506,514,423,422,508,0,0,0,0,0,0,0,0,0,0,0,0,0,0,0,0,0,0,0,0,0,0,0,0,0,0,0,0,0,0,0,0,0,0,0,0,0,0,0,0,0,0,0,0,0,0,0,0,0,0,0,0,0,0,0,0,0,0,0,0,0,0,0,0,0,1067,1059,1062,1081,1231,1563,1792,1949,2054,2095,2085,2052,2040,1984,1950,1916,1883,1849,1838,1782,1750,1720,1688,1650,1620,1585,1552,1486,1437,1243,1167,1135,1127,1087,1073,1070,1044,1046,1059,1052,1059,1069,1061,1072,1070,1084,1067,1069,1080,1072,1091,1094,1116,1109,1069,1064,1078,1073,1077,1069,1067,1077,1064,1075,1070,652,655,657,708,684,924,1047,1170,1267,1312,1312,1336,1270,1249,1227,1226,1185,1164,1170,1123,1127,1081,1060,1039,1017,996,975,977,933,913,892,891,738,678,666,662,664,663,643,651,657,659,661,671,655,690,654,691,663,654,660,663,665,680,671,668,668,661,661,682,665,668,658,667,659,1219,1224,1258,1278,1370,1943,2194,2401,2483,2536,2494,2451,2496,2365,2393,2306,2236,2204,2211,2106,2075,2030,1985,1933,1890,1846,1830,1688,1621,1369,1375,1299,1276,1255,1228,1239,1241,1237,1230,1231,1250,1247,1244,1252,1255,1276,1252,1248,1247,1256,1255,1259,1259,1269,1256,1263,1269,1269,1268,1274,1271,1298,1267,1277,1264,1251,1267,1269,1309,1573,2052,2288,2523,2576,2645,2589,2538,2498,2395,2407,2365,2318,2244,2259,2179,2149,2089,2060,2034,1966,1923,1821,1743,1673,1538,1422,1355,1332,1286,1281,1251,1257,1245,1240,1237,1241,1251,1254,1253,1252,1245,1257,1256,1262,1264,1261,1266,1267,1274,1266,1265,1257,1257,1255,1261,1255,1262,1252,1262,1246,836,838,841,869,916,1242,1399,1552,1656,1669,1664,1683,1611,1585,1582,1549,1504,1499,1452,1425,1398,1371,1345,1318,1314,1265,1260,1235,1185,1159,1095,904,882,863,851,848,851,850,826,835,843,871,851,857,847,880,844,891,851,844,848,857,876,895,861,857,858,852,875,884,853,856,846,855,847,1129,1121,1134,1156,1338,1692,1935,2077,2184,2228,2210,2181,2156,2108,2062,2031,1991,1965,1942,1886,1855,1820,1786,1743,1722,1679,1636,1585,1474,1334,1235,1227,1185,1157,1136,1131,1098,1099,1110,1102,1113,1121,1114,1125,1123,1140,1123,1124,1136,1128,1143,1144,1170,1164,1124,1119,1132,1125,1129,1121,1121,1128,1114,1125,1120,636,652,642,640,659,896,1031,1167,1285,1344,1343,1345,1296,1273,1267,1228,1224,1214,1159,1170,1136,1138,1086,1046,1064,999,998,971,937,911,798,776,778,665,666,646,675,659,639,643,642,660,645,655,644,652,646,642,649,646,642,661,650,653,653,666,660,669,664,655,655,662,653,669,653,1497,1511,1522,1629,1853,2446,2729,2916,3013,3053,2977,2924,2902,2817,2746,2745,2679,2620,2577,2544,2512,2389,2270,2199,2150,2055,2007,1755,1692,1712,1650,1597,1567,1521,1487,1465,1476,1464,1459,1456,1460,1470,1473,1472,1471,1464,1476,1475,1481,1483,1480,1485,1486,1493,1485,1484,1476,1476,1474,1480,1474,1481,1471,1481,1465,405,405,406,407,410,564,665,766,867,931,936,918,899,882,864,847,828,810,793,775,756,739,721,704,685,667,661,631,613,596,578,559,553,524,414,411,422,520,422,416,417,417,420,415,418,417,421,416,416,417,422,423,422,423,424,422,423,423,424,516,506,514,423,422,508,894,896,899,901,914,1216,1426,1631,1749,1803,1803,1779,1744,1714,1682,1648,1625,1595,1560,1535,1505,1472,1446,1416,1390,1356,1326,1310,1272,1208,1165,970,951,929,913,908,910,909,833,824,841,858,854,856,848,852,858,850,867,855,860,859,881,877,862,874,852,858,875,873,874,876,870,871,870,1062,1065,1068,1078,1116,1443,1700,1915,2041,2107,2102,2064,2030,1997,1963,1933,1896,1863,1830,1796,1761,1731,1696,1662,1627,1596,1563,1529,1503,1242,1187,1142,1116,1098,1080,1078,1060,1062,1018,1012,1024,1039,1035,1038,1029,1039,1038,1051,1041,1032,1050,1064,1057,1045,1037,1050,1030,1052,1035,1036,1034,1042,1034,1037,1036,0,0,0,0,0,0,0,0,0,0,0,0,0,0,0,0,0,0,0,0,0,0,0,0,0,0,0,0,0,0,0,0,0,0,0,0,0,0,0,0,0,0,0,0,0,0,0,0,0,0,0,0,0,0,0,0,0,0,0,0,0,0,0,0,0,536,534,540,540,543,661,774,854,926,985,1008,992,983,970,957,944,932,917,902,890,871,858,845,827,812,797,783,789,772,738,648,630,603,560,549,545,541,542,467,469,472,477,478,479,478,474,474,485,478,477,482,488,491,496,487,486,489,483,485,490,489,490,484,486,485,970,976,976,986,1049,1443,1668,1775,1915,1981,1928,1901,1864,1870,1850,1749,1766,1744,1731,1656,1632,1589,1488,1547,1516,1460,1443,1383,1365,1304,1148,1117,1059,1010,996,986,989,995,981,976,979,975,982,980,981,981,981,980,984,983,981,984,983,983,978,982,983,983,985,980,980,980,982,979,978,487,491,490,494,499,686,776,804,948,1021,982,972,951,961,968,896,935,867,923,842,842,832,743,781,785,750,757,716,735,691,672,656,628,633,500,496,498,512,493,484,490,489,490,491,492,492,492,491,495,494,492,495,494,494,489,493,494,494,496,491,491,491,493,490,489,420,428,429,427,436,498,596,692,765,802,823,811,792,779,796,753,749,742,729,729,695,706,690,656,661,638,627,613,596,589,567,497,491,473,461,437,438,425,364,366,370,373,372,374,371,371,371,379,372,372,374,374,378,383,376,377,379,372,373,374,378,379,373,374,373,72,72,72,72,90,91,103,115,127,139,149,147,145,141,139,137,135,133,130,127,125,123,121,118,116,113,111,108,106,104,102,99,96,94,92,90,90,90,54,53,51,50,54,52,53,53,53,52,56,55,53,56,55,55,50,54,55,55,57,52,52,52,54,51,50,728,731,733,735,737,872,1096,1252,1376,1441,1448,1419,1403,1379,1351,1328,1317,1287,1260,1241,1218,1193,1173,1153,1131,1102,1080,1066,1039,968,809,795,793,762,745,740,741,722,661,659,665,669,668,674,675,666,665,673,667,668,671,678,680,683,674,673,676,672,671,677,675,676,670,671,670,701,678,692,694,747,940,1136,1240,1346,1407,1416,1442,1413,1347,1319,1303,1281,1290,1266,1187,1189,1210,1136,1115,1055,1077,1055,994,1029,955,833,812,747,746,736,739,734,711,714,699,703,714,711,715,717,717,717,712,720,710,717,720,719,719,713,718,712,719,721,716,716,716,718,715,708,894,896,899,901,914,1216,1426,1631,1749,1803,1803,1779,1744,1714,1682,1648,1625,1595,1560,1535,1505,1472,1446,1416,1390,1356,1326,1310,1272,1208,1165,970,951,929,913,908,910,909,833,824,841,858,854,856,848,852,858,850,867,855,860,859,881,877,862,874,852,858,875,873,874,876,870,871,870,464,465,466,469,475,539,699,780,860,928,941,925,913,899,881,869,851,840,821,806,790,776,764,745,731,718,700,685,673,659,632,627,521,508,476,472,488,454,433,432,433,437,435,432,435,438,439,438,437,438,442,459,459,444,484,446,443,438,439,447,442,447,435,438,438,668,703,673,675,681,812,1014,1138,1254,1330,1356,1335,1296,1274,1254,1233,1219,1190,1169,1147,1126,1104,1080,1063,1040,1019,998,943,912,930,871,753,716,694,682,679,681,627,603,605,606,611,612,603,607,603,614,607,603,607,604,614,623,614,608,609,604,606,609,609,608,625,607,613,610,462,463,464,466,468,596,666,735,834,912,911,899,879,878,857,856,844,829,799,787,762,773,737,721,708,695,680,669,656,642,629,616,602,482,498,468,469,471,441,444,448,459,447,453,447,460,454,448,458,452,455,453,448,455,451,454,451,455,451,453,453,454,454,455,453,0,0,0,0,0,0,0,0,0,0,0,0,0,0,0,0,0,0,0,0,0,0,0,0,0,0,0,0,0,0,0,0,0,0,0,0,0,0,0,0,0,0,0,0,0,0,0,0,0,0,0,0,0,0,0,0,0,0,0,0,0,0,0,0,0,1073,1067,1080,1094,1203,1554,1793,1969,2114,2152,2124,2062,2079,2036,1983,1968,1947,1862,1866,1812,1794,1747,1695,1699,1642,1617,1576,1556,1353,1271,1205,1140,1135,1137,1092,1091,1088,1094,1080,1076,1079,1082,1093,1096,1088,1094,1094,1089,1089,1093,1089,1094,1090,1089,1095,1095,1094,1090,1091,1094,1096,1092,1092,1092,1092,798,800,778,802,861,1007,1260,1420,1493,1586,1581,1529,1522,1511,1479,1457,1424,1353,1346,1355,1331,1305,1281,1222,1235,1204,1182,1145,1122,1097,994,901,877,827,817,775,819,767,756,758,775,772,763,765,767,764,771,765,767,767,765,773,779,773,768,774,771,772,768,771,779,768,768,768,768,216,217,218,218,219,280,317,355,392,430,443,436,430,422,415,408,401,393,387,380,372,366,358,352,344,337,331,323,316,309,302,294,288,281,273,269,270,270,211,211,210,209,212,210,214,216,211,230,214,210,215,215,211,211,215,216,212,216,208,214,210,212,211,212,212,530,531,527,534,531,667,766,829,891,957,955,950,931,919,908,896,884,872,860,849,850,825,812,800,789,792,774,760,752,737,721,696,684,574,534,538,533,525,494,495,498,498,499,506,500,513,506,504,512,505,511,508,503,505,505,509,506,508,499,505,505,508,505,505,503,321,330,331,333,333,413,439,501,550,597,625,615,606,596,587,578,569,559,550,540,532,523,513,503,498,486,493,483,462,462,453,430,436,363,338,334,335,335,269,272,269,274,271,271,269,274,274,273,275,276,272,278,277,292,278,274,277,275,273,280,276,275,271,272,272,1008,1022,1028,1054,1135,1375,1715,1904,1965,2046,2047,1966,1974,1918,1900,1867,1805,1753,1738,1722,1718,1664,1613,1584,1590,1544,1488,1398,1330,1270,1116,1111,1098,1043,1055,1012,1009,993,976,976,999,1001,989,996,985,1001,996,995,994,991,998,1000,1007,1004,999,1001,997,1001,999,999,1008,997,997,997,997,464,465,466,469,475,539,699,780,860,928,941,925,913,899,881,869,851,840,821,806,790,776,764,745,731,718,700,685,673,659,632,627,521,508,476,472,488,454,433,432,433,437,435,432,435,438,439,438,437,438,442,459,459,444,484,446,443,438,439,447,442,447,435,438,438,1063,1026,1070,1085,1232,1442,1785,1941,2088,2050,2041,2008,2035,1942,1974,1875,1841,1808,1776,1742,1713,1676,1639,1656,1576,1598,1563,1476,1441,1394,1300,1184,1072,1052,1039,1040,1038,1039,1029,1029,1029,1029,1029,1029,1029,1029,1029,1029,1029,1029,1029,1029,1029,1029,1029,1029,1029,1029,1029,1029,1029,1029,1029,1029,1029,1271,1276,1281,1340,1630,1920,2402,2552,2625,2625,2607,2556,2538,2482,2444,2399,2352,2304,2258,2206,2155,2117,2072,2025,1978,1932,1883,1838,1639,1550,1404,1361,1338,1308,1292,1296,1304,1288,1278,1278,1278,1278,1278,1278,1278,1278,1278,1278,1278,1278,1278,1278,1278,1278,1278,1278,1278,1278,1278,1278,1278,1278,1278,1278,1278,820,823,862,834,876,1201,1431,1514,1644,1692,1633,1608,1642,1555,1530,1503,1477,1443,1416,1404,1378,1347,1321,1323,1269,1290,1279,1210,1164,1138,996,980,902,851,855,847,863,825,842,840,837,842,838,845,845,845,845,841,840,840,840,840,840,840,840,840,840,840,840,840,840,840,840,840,840,1052,1038,1063,1073,1167,1528,1798,1946,2063,2056,2071,2015,1983,1952,1952,1885,1851,1815,1784,1750,1717,1718,1654,1627,1587,1570,1559,1470,1383,1245,1137,1123,1109,1081,1051,1072,997,997,978,978,978,978,978,978,978,978,978,978,978,978,978,978,978,978,978,978,978,978,978,978,978,978,978,978,978,0,0,0,0,0,0,0,0,0,0,0,0,0,0,0,0,0,0,0,0,0,0,0,0,0,0,0,0,0,0,0,0,0,0,0,0,0,0,0,0,0,0,0,0,0,0,0,0,0,0,0,0,0,0,0,0,0,0,0,0,0,0,0,0,0,598,591,602,604,615,782,940,1037,1141,1178,1166,1163,1144,1110,1128,1104,1088,1050,1031,999,980,962,974,955,935,913,895,876,859,828,765,778,705,628,611,611,599,593,559,561,563,585,585,580,584,585,585,581,585,585,573,572,584,582,569,585,571,573,572,573,572,571,571,571,571,885,869,889,883,952,1289,1467,1637,1700,1737,1743,1729,1655,1655,1625,1605,1574,1559,1535,1494,1478,1449,1409,1384,1353,1332,1311,1205,1221,989,989,934,950,913,899,898,870,833,829,834,837,836,836,836,836,836,836,836,836,836,836,836,836,836,836,836,836,836,836,836,836,836,836,836,836,762,804,802,772,806,1103,1329,1398,1530,1581,1523,1499,1541,1450,1425,1401,1377,1349,1320,1309,1284,1255,1230,1235,1240,1211,1196,1128,1089,1060,1017,910,903,792,795,787,831,777,792,803,803,803,803,803,803,803,801,798,802,803,803,803,803,803,803,803,803,803,803,803,803,803,803,803,803,954,896,937,968,978,1254,1478,1625,1865,1752,1750,1721,1756,1663,1632,1604,1582,1549,1531,1498,1471,1444,1416,1436,1360,1439,1409,1285,1257,1188,1168,978,932,911,897,897,860,861,882,870,872,874,878,872,880,873,882,876,880,876,891,887,888,881,878,885,881,888,880,888,886,894,879,875,874,481,482,485,486,492,651,737,822,917,968,976,959,944,928,912,897,881,866,849,834,820,804,787,772,757,740,726,710,695,679,662,647,531,504,505,488,502,468,440,440,440,440,440,440,440,440,440,440,440,440,440,440,440,440,440,440,440,440,440,440,440,440,440,440,440,1063,1026,1070,1085,1232,1442,1785,1941,2088,2050,2041,2008,2035,1942,1974,1875,1841,1808,1776,1742,1713,1676,1639,1656,1576,1598,1563,1476,1441,1394,1300,1184,1072,1052,1039,1040,1038,1039,1029,1029,1029,1029,1029,1029,1029,1029,1029,1029,1029,1029,1029,1029,1029,1029,1029,1029,1029,1029,1029,1029,1029,1029,1029,1029,1029,1041,1082,1062,1112,1233,1511,1790,1978,2085,2181,2160,2093,2059,2011,1971,1928,1944,1906,1829,1799,1762,1750,1694,1697,1674,1568,1598,1524,1512,1188,1270,1133,1133,1119,1077,1099,1093,1073,1068,1080,1091,1099,1092,1108,1106,1114,1097,1130,1106,1110,1104,1123,1117,1120,1125,1116,1115,1125,1130,1127,1117,1125,1116,1118,1115,1311,1339,1336,1408,1717,2114,2436,2616,2715,2760,2728,2657,2636,2535,2526,2469,2444,2415,2303,2284,2186,2218,2143,2139,2052,1981,1995,1842,1626,1484,1488,1423,1400,1389,1353,1353,1378,1360,1358,1366,1363,1376,1370,1390,1390,1377,1377,1392,1380,1384,1388,1398,1401,1403,1393,1398,1401,1411,1411,1398,1387,1398,1394,1397,1393,688,690,695,697,716,813,1106,1241,1333,1382,1384,1364,1338,1316,1289,1275,1253,1222,1229,1183,1162,1138,1117,1093,1073,1043,1026,1004,987,852,843,814,742,716,701,699,700,679,667,684,678,692,697,692,690,698,676,694,683,694,687,693,682,695,696,700,695,690,684,690,687,692,699,691,671,935,954,956,967,1004,1259,1571,1718,1835,1883,1873,1820,1791,1785,1753,1717,1694,1639,1606,1586,1576,1531,1519,1487,1469,1440,1401,1369,1270,1158,1061,1063,997,991,954,965,911,904,848,859,868,872,874,878,868,877,867,901,877,898,873,879,903,902,881,884,888,888,887,883,884,881,872,874,871,517,483,485,486,492,607,763,832,919,971,975,960,946,929,913,952,882,921,851,896,819,858,842,827,811,785,777,710,726,678,633,672,517,505,588,512,490,491,494,495,492,497,499,494,497,499,501,499,497,498,500,499,501,494,503,504,501,500,498,499,504,498,504,511,495,0,0,0,0,0,0,0,0,0,0,0,0,0,0,0,0,0,0,0,0,0,0,0,0,0,0,0,0,0,0,0,0,0,0,0,0,0,0,0,0,0,0,0,0,0,0,0,0,0,0,0,0,0,0,0,0,0,0,0,0,0,0,0,0,0,768,773,780,796,829,939,1243,1359,1503,1566,1549,1514,1490,1489,1449,1423,1402,1362,1354,1329,1302,1279,1261,1229,1186,1184,1155,1075,1090,1046,988,855,844,826,789,783,790,722,670,680,682,690,696,694,688,701,691,725,701,722,697,703,727,726,705,708,712,712,711,707,708,705,696,698,695,629,631,636,637,655,835,1024,1124,1218,1269,1278,1253,1229,1210,1184,1170,1152,1128,1131,1093,1068,1047,1027,1006,986,962,947,921,907,884,877,765,709,657,645,639,643,634,632,624,625,635,639,635,635,645,631,648,646,641,649,643,650,654,652,648,644,651,645,645,645,646,652,647,627,901,942,920,968,1021,1252,1486,1658,1782,1881,1871,1800,1778,1734,1699,1658,1691,1653,1582,1568,1525,1514,1474,1479,1456,1356,1399,1335,1234,1131,1086,989,991,979,950,955,914,896,914,914,914,921,927,901,931,934,930,923,927,938,932,927,923,923,929,913,930,931,922,927,922,943,939,929,923,265,265,266,268,269,266,310,403,446,498,512,503,495,486,478,471,463,455,446,438,456,447,438,430,421,412,403,395,387,378,318,310,302,294,288,270,270,270,235,227,225,228,256,252,237,242,238,252,260,258,267,248,257,253,256,238,251,256,246,266,250,270,269,303,250,1041,1082,1062,1112,1233,1511,1790,1978,2085,2181,2160,2093,2059,2011,1971,1928,1944,1906,1829,1799,1762,1750,1694,1697,1674,1568,1598,1524,1512,1188,1270,1133,1133,1119,1077,1099,1093,1073,1068,1080,1091,1099,1092,1108,1106,1114,1097,1130,1106,1110,1104,1123,1117,1120,1125,1116,1115,1125,1130,1127,1117,1125,1116,1118,1115,560,562,564,628,577,769,883,987,1091,1150,1152,1190,1114,1095,1076,1058,1038,1019,1001,981,962,943,924,905,886,867,848,829,810,790,772,753,724,586,572,569,571,569,560,556,557,567,570,562,567,573,584,571,569,575,566,574,573,561,574,577,576,576,569,572,584,584,601,596,576,830,832,834,880,980,1244,1453,1623,1755,1787,1772,1747,1721,1694,1661,1629,1596,1579,1531,1513,1466,1434,1402,1369,1337,1317,1274,1234,1215,1178,1001,994,965,856,846,838,849,854,845,852,853,853,853,849,853,853,853,853,853,853,853,853,853,853,853,853,853,853,853,853,853,853,853,853,853,301,302,303,304,305,332,440,490,542,592,611,601,592,582,572,563,552,543,533,524,514,504,494,485,475,464,456,446,436,427,417,407,397,330,319,306,306,307,241,241,241,241,241,241,241,241,241,241,241,241,241,241,241,241,241,241,241,241,241,241,241,241,241,241,241,296,296,296,297,297,368,387,406,425,444,455,452,448,443,440,436,431,428,424,420,417,414,409,406,403,398,395,392,387,384,380,375,372,369,365,299,363,362,248,248,248,248,248,248,248,248,248,248,248,248,248,248,248,248,248,248,248,248,248,248,248,248,248,248,248,961,995,967,992,1023,1282,1580,1783,1855,1908,1899,1847,1815,1786,1767,1736,1728,1706,1652,1646,1596,1571,1531,1536,1489,1458,1427,1397,1319,1111,1071,1045,1035,1004,998,987,981,990,936,936,936,936,936,936,936,936,936,936,936,936,936,936,936,936,936,936,936,936,936,936,936,936,936,936,936,667,669,670,641,675,813,1007,1137,1205,1286,1285,1270,1232,1230,1207,1192,1172,1145,1136,1105,1100,1078,1054,1027,1041,974,991,973,931,915,848,795,724,694,682,676,645,654,583,583,583,583,583,583,583,583,583,583,583,583,583,583,583,583,583,583,583,583,583,583,583,583,583,583,583,0,0,0,0,0,0,0,0,0,0,0,0,0,0,0,0,0,0,0,0,0,0,0,0,0,0,0,0,0,0,0,0,0,0,0,0,0,0,0,0,0,0,0,0,0,0,0,0,0,0,0,0,0,0,0,0,0,0,0,0,0,0,0,0,0,321,323,324,324,325,408,479,534,591,642,655,645,634,622,612,603,592,582,571,560,550,540,529,518,508,498,487,477,466,456,446,435,411,341,330,339,327,328,288,288,288,288,288,288,288,288,288,288,288,288,288,288,288,288,288,288,288,288,288,288,288,288,288,288,288,396,396,397,399,400,430,592,658,726,778,787,783,763,751,738,726,713,701,689,677,665,653,641,629,617,605,592,580,568,556,544,434,424,414,405,401,402,391,374,383,383,388,388,390,383,390,380,413,383,385,390,392,415,417,412,392,392,385,408,395,395,409,387,395,388,897,888,890,891,931,1109,1432,1609,1680,1731,1707,1681,1670,1674,1600,1594,1591,1560,1508,1473,1484,1416,1431,1395,1376,1326,1314,1283,1186,1134,1090,980,959,936,899,911,858,869,809,809,809,809,809,809,809,809,809,809,809,809,809,809,809,809,809,809,809,809,809,809,809,809,809,809,809,560,562,564,628,577,769,883,987,1091,1150,1152,1190,1114,1095,1076,1058,1038,1019,1001,981,962,943,924,905,886,867,848,829,810,790,772,753,724,586,572,569,571,569,560,556,557,567,570,562,567,573,584,571,569,575,566,574,573,561,574,577,576,576,569,572,584,584,601,596,576,886,859,892,897,910,1150,1451,1630,1744,1778,1769,1697,1712,1709,1680,1608,1611,1597,1546,1516,1462,1452,1423,1408,1369,1339,1317,1249,1260,1165,1152,955,927,908,872,898,901,909,869,859,869,889,888,889,887,893,896,879,904,891,898,898,915,904,896,909,884,900,915,905,909,907,897,908,897,1102,1106,1112,1123,1163,1504,1791,2012,2147,2195,2184,2141,2114,2047,2042,2007,1943,1909,1896,1860,1800,1796,1739,1727,1688,1652,1619,1585,1506,1326,1236,1189,1161,1139,1125,1102,1106,1111,1054,1047,1059,1076,1069,1071,1068,1080,1076,1080,1078,1068,1082,1082,1082,1072,1071,1082,1062,1082,1075,1068,1069,1079,1075,1075,1075,95,95,104,104,106,119,135,150,166,181,192,189,187,183,180,177,174,171,168,166,162,159,156,154,150,147,145,141,138,135,133,129,126,124,121,106,106,118,65,65,66,69,65,65,67,70,66,65,66,65,69,67,67,66,65,66,66,71,70,65,69,71,69,69,69,575,591,591,596,597,679,822,891,960,1014,1019,1038,994,982,969,1007,943,930,917,905,892,880,866,853,866,828,816,803,789,777,764,696,684,594,585,598,605,576,503,504,507,514,512,512,517,515,512,514,515,513,520,527,525,523,521,521,521,525,525,522,524,527,525,525,525,925,929,931,936,962,1291,1505,1698,1788,1842,1837,1804,1797,1756,1711,1612,1646,1612,1612,1594,1559,1523,1493,1475,1410,1413,1374,1343,1259,1284,1156,1018,990,983,931,906,936,947,928,923,928,925,928,928,928,928,928,928,928,928,928,928,928,928,928,928,928,928,928,928,928,928,928,928,928,442,444,445,447,450,596,673,756,827,882,891,875,884,848,829,759,806,735,793,776,749,735,721,712,693,679,665,651,638,624,609,592,538,567,453,416,448,460,439,431,439,439,436,439,439,439,439,439,439,439,439,439,439,439,439,439,439,439,439,439,439,439,439,439,439,385,378,379,383,384,420,575,667,713,786,781,777,735,756,727,730,674,712,677,656,657,634,633,621,599,586,581,552,534,526,532,426,422,411,387,385,386,396,393,360,355,357,377,384,374,374,382,384,396,383,388,392,393,390,370,389,398,399,392,392,377,378,394,369,369,0,0,0,0,0,0,0,0,0,0,0,0,0,0,0,0,0,0,0,0,0,0,0,0,0,0,0,0,0,0,0,0,0,0,0,0,0,0,0,0,0,0,0,0,0,0,0,0,0,0,0,0,0,0,0,0,0,0,0,0,0,0,0,0,0,722,693,726,700,733,783,1128,1252,1368,1417,1415,1349,1371,1388,1350,1284,1308,1265,1246,1223,1180,1171,1149,1142,1108,1085,1064,1008,981,977,878,850,777,740,704,734,731,730,697,694,695,700,702,707,714,707,703,702,704,704,709,717,714,710,708,708,708,714,711,709,710,713,711,711,710,629,631,634,637,657,837,1033,1118,1223,1268,1267,1349,1347,1206,1278,1167,1148,1160,1196,1115,1065,1117,1024,1005,1011,964,945,986,913,890,870,809,690,671,688,652,645,622,660,655,655,655,655,655,655,655,655,655,655,655,655,655,655,655,655,655,655,655,655,655,655,655,655,655,655,886,859,892,897,910,1150,1451,1630,1744,1778,1769,1697,1712,1709,1680,1608,1611,1597,1546,1516,1462,1452,1423,1408,1369,1339,1317,1249,1260,1165,1152,955,927,908,872,898,901,909,869,859,869,889,888,889,887,893,896,879,904,891,898,898,915,904,896,909,884,900,915,905,909,907,897,908,897,333,333,330,330,336,421,462,503,559,611,616,602,601,595,579,579,569,562,553,536,528,516,512,508,496,490,479,471,463,455,447,438,427,422,339,337,337,338,307,302,303,304,309,311,307,314,307,308,309,312,312,318,315,316,314,320,313,313,310,313,317,315,313,315,315,622,623,620,621,623,832,951,1078,1252,1329,1315,1291,1276,1252,1224,1194,1184,1159,1139,1105,1075,1049,1037,1017,992,962,946,924,900,878,859,818,774,647,630,624,635,638,613,609,614,618,620,626,630,629,617,618,626,628,634,633,634,645,625,629,629,628,628,625,632,630,626,625,625,676,678,676,682,709,857,1044,1168,1266,1313,1304,1288,1272,1256,1235,1219,1209,1187,1166,1145,1126,1104,1087,1065,1041,1022,1003,982,962,935,857,828,712,713,690,687,689,624,574,574,586,601,580,588,581,591,580,588,587,578,584,587,590,594,591,588,585,581,586,585,586,589,579,594,582,260,261,261,262,267,329,368,410,447,486,509,501,492,487,478,470,464,457,449,441,435,427,415,408,400,391,385,377,371,363,356,348,344,333,271,267,268,268,195,191,194,198,195,198,197,202,200,199,205,200,218,217,218,208,200,198,198,201,197,195,199,198,196,205,198,1002,1005,1004,1017,1105,1415,1643,1815,1923,1962,1934,1933,1885,1856,1839,1830,1780,1733,1681,1690,1663,1615,1598,1568,1514,1502,1458,1444,1318,1179,1082,1080,1107,1024,1013,1012,1010,1019,992,994,994,1006,1011,1009,1003,1008,1001,1003,1009,1002,1002,1013,1018,1021,1028,1015,1011,1019,1015,1020,1022,1023,1023,1017,1012,775,778,778,783,852,1095,1238,1370,1484,1524,1524,1494,1471,1453,1429,1401,1324,1354,1331,1294,1283,1260,1187,1165,1192,1167,1142,1121,1089,1073,1001,907,886,801,791,789,791,782,732,743,746,747,762,762,757,765,759,768,758,771,765,760,767,776,765,757,773,766,762,768,767,785,769,769,764,376,377,378,378,380,485,561,621,671,713,715,706,697,688,679,671,669,658,647,636,628,613,602,591,580,569,558,547,536,525,509,500,490,459,384,381,382,383,333,335,336,342,339,344,338,347,337,346,343,336,342,345,347,350,347,344,342,338,343,342,343,345,336,349,338,697,698,696,703,754,889,1081,1209,1298,1343,1337,1319,1312,1298,1279,1256,1247,1228,1201,1185,1165,1142,1120,1098,1067,1054,1030,1012,987,968,798,781,733,730,695,705,707,671,621,625,625,631,632,641,634,644,632,644,641,631,639,640,642,644,645,639,640,630,634,637,638,643,630,644,632,0,0,0,0,0,0,0,0,0,0,0,0,0,0,0,0,0,0,0,0,0,0,0,0,0,0,0,0,0,0,0,0,0,0,0,0,0,0,0,0,0,0,0,0,0,0,0,0,0,0,0,0,0,0,0,0,0,0,0,0,0,0,0,0,0,1009,1018,1020,1034,1117,1474,1704,1872,1971,1984,1983,1942,1921,1820,1854,1826,1746,1775,1731,1680,1672,1640,1550,1523,1558,1508,1477,1374,1363,1228,1216,1099,1093,1048,1041,1044,1007,1007,952,961,970,972,988,990,974,1002,983,998,985,991,991,984,994,1004,996,982,997,990,990,993,991,1010,993,994,989,333,333,330,330,336,421,462,503,559,611,616,602,601,595,579,579,569,562,553,536,528,516,512,508,496,490,479,471,463,455,447,438,427,422,339,337,337,338,307,302,303,304,309,311,307,314,307,308,309,312,312,318,315,316,314,320,313,313,310,313,317,315,313,315,315,1203,1203,1208,1211,1430,1791,2096,2220,2338,2402,2384,2332,2321,2301,2226,2193,2146,2136,2088,2021,1988,1984,1916,1873,1848,1800,1761,1688,1501,1353,1338,1288,1263,1260,1238,1220,1216,1185,1160,1161,1173,1184,1174,1186,1182,1178,1189,1184,1187,1177,1183,1184,1179,1181,1183,1185,1188,1186,1185,1184,1185,1199,1183,1198,1188,1456,1461,1482,1604,1964,2416,2712,2852,2937,3007,2951,2914,2868,2778,2769,2684,2664,2633,2580,2460,2461,2403,2358,2297,2247,1997,1923,1904,1666,1645,1632,1559,1536,1505,1497,1475,1476,1472,1456,1458,1463,1488,1464,1487,1471,1465,1471,1471,1469,1479,1474,1486,1469,1483,1485,1478,1480,1488,1478,1486,1466,1490,1472,1487,1477,724,728,728,729,761,986,1146,1287,1368,1431,1453,1428,1389,1383,1354,1338,1329,1270,1249,1218,1221,1197,1168,1125,1103,1072,1078,1035,1024,976,805,789,780,730,741,733,720,703,699,696,703,711,716,701,704,711,711,706,710,704,705,719,711,711,715,713,717,715,711,709,717,712,709,712,709,1051,1050,1045,1045,1104,1424,1740,1925,2014,2054,2027,2009,1983,1955,1903,1933,1835,1804,1766,1736,1712,1686,1638,1604,1581,1545,1523,1483,1282,1249,1159,1127,1088,1067,1071,1046,1016,946,919,923,942,944,933,943,936,934,945,940,943,933,939,940,935,937,939,942,944,942,941,940,941,955,939,954,944,567,569,592,573,586,779,907,1002,1111,1157,1159,1140,1123,1104,1105,1067,1067,1029,1010,980,974,955,937,918,899,881,881,863,826,746,732,770,614,599,586,576,598,579,566,562,562,567,589,580,593,577,569,591,576,577,575,573,570,570,570,575,581,574,569,571,575,593,574,575,569,300,301,302,303,304,367,455,506,520,609,641,630,621,610,601,572,581,571,561,550,540,530,520,511,501,468,457,449,439,450,440,392,384,374,365,305,306,306,301,300,295,299,311,313,305,314,306,314,314,312,313,320,318,314,314,306,306,315,320,313,313,314,315,323,314,849,852,850,838,900,1082,1363,1528,1629,1662,1658,1635,1619,1587,1550,1588,1497,1470,1444,1416,1390,1368,1341,1315,1288,1260,1233,1208,1199,1158,1053,990,886,860,873,846,837,764,741,744,756,762,755,759,756,758,769,764,767,757,763,764,759,761,763,766,768,766,765,764,765,779,763,778,768,669,668,669,670,709,901,1042,1172,1261,1317,1355,1318,1292,1285,1256,1235,1228,1177,1159,1128,1133,1105,1083,1036,1015,986,993,952,946,910,895,877,865,671,681,705,673,658,657,655,662,670,668,656,662,660,669,664,667,663,662,679,677,670,672,672,674,676,672,666,675,666,664,668,664,1062,1062,1068,1066,1175,1511,1768,1911,2039,2112,2094,2050,2045,2025,1954,1931,1889,1885,1843,1778,1755,1750,1701,1654,1634,1596,1565,1510,1388,1356,1294,1164,1117,1118,1096,1076,1037,1011,985,985,998,1008,1005,1004,1002,1013,1020,1005,1015,999,1009,1011,996,1008,1010,1012,1012,1009,1010,1016,1018,1032,1019,1032,1024,0,0,0,0,0,0,0,0,0,0,0,0,0,0,0,0,0,0,0,0,0,0,0,0,0,0,0,0,0,0,0,0,0,0,0,0,0,0,0,0,0,0,0,0,0,0,0,0,0,0,0,0,0,0,0,0,0,0,0,0,0,0,0,0,0,1203,1203,1208,1211,1430,1791,2096,2220,2338,2402,2384,2332,2321,2301,2226,2193,2146,2136,2088,2021,1988,1984,1916,1873,1848,1800,1761,1688,1501,1353,1338,1288,1263,1260,1238,1220,1216,1185,1160,1161,1173,1184,1174,1186,1182,1178,1189,1184,1187,1177,1183,1184,1179,1181,1183,1185,1188,1186,1185,1184,1185,1199,1183,1198,1188,0,0,0,0,0,0,0,0,0,0,0,0,0,0,0,0,0,0,0,0,0,0,0,0,0,0,0,0,0,0,0,0,0,0,0,0,0,0,0,0,0,0,0,0,0,0,0,0,0,0,0,0,0,0,0,0,0,0,0,0,0,0,0,0,0,437,438,439,433,443,608,720,832,942,1016,1002,995,975,955,925,917,897,882,859,839,819,804,781,761,732,722,702,686,664,644,624,606,586,569,448,443,440,442,442,437,438,438,450,452,450,451,445,556,554,446,451,444,446,557,452,450,455,444,444,450,453,558,557,560,558,770,773,776,778,811,980,1270,1402,1506,1546,1511,1519,1492,1468,1442,1418,1392,1369,1344,1357,1293,1268,1243,1245,1194,1163,1143,1124,1100,1072,922,857,834,803,787,783,771,721,711,729,753,734,726,726,728,741,727,738,732,727,734,728,755,736,743,737,742,736,738,737,739,734,729,743,730,346,343,348,349,349,452,513,573,633,686,697,685,674,662,652,640,629,618,607,597,585,575,563,552,541,529,517,507,495,484,473,461,451,439,351,350,351,349,322,314,314,322,310,335,318,318,322,321,341,326,325,319,324,344,342,319,318,333,319,329,324,318,327,347,324,1145,1149,1161,1169,1235,1601,1873,2143,2216,2240,2223,2185,2151,2116,2101,2066,2013,1994,1959,1922,1872,1839,1805,1769,1731,1700,1666,1586,1322,1293,1249,1221,1214,1176,1166,1165,1168,1161,1110,1109,1112,1128,1130,1118,1134,1127,1123,1125,1136,1130,1127,1129,1131,1136,1142,1136,1132,1136,1130,1145,1138,1146,1151,1144,1139,978,979,972,981,1116,1341,1544,1714,1852,1862,1838,1832,1838,1764,1778,1691,1707,1696,1648,1604,1601,1522,1494,1491,1485,1456,1432,1339,1262,1278,1103,1124,1026,1008,965,959,975,960,908,906,934,941,925,942,937,939,942,934,937,938,937,939,941,952,928,937,942,941,934,934,932,934,934,935,934,470,472,473,475,480,641,744,811,896,946,952,937,921,906,892,876,861,845,830,853,800,785,770,783,739,723,709,694,678,663,647,517,505,493,481,477,478,480,472,479,482,495,482,483,486,502,489,494,505,490,507,485,511,492,510,494,499,493,495,494,495,491,484,499,486,793,793,796,799,854,1015,1332,1439,1533,1576,1554,1549,1532,1505,1482,1457,1430,1405,1380,1392,1328,1301,1276,1280,1225,1182,1173,1156,1129,1107,880,878,846,823,812,801,804,768,762,768,771,786,779,779,781,793,783,792,785,782,787,780,805,790,794,792,791,784,790,789,793,785,779,793,780,301,302,303,294,304,329,411,426,480,515,528,521,514,507,500,494,486,480,473,466,460,454,447,440,433,444,437,413,422,414,406,344,337,331,325,305,321,322,246,245,251,258,247,246,247,249,250,248,249,250,245,247,247,248,246,248,248,250,246,248,245,248,246,248,247,1212,1221,1222,1237,1376,1782,2023,2208,2328,2315,2283,2276,2268,2187,2194,2101,2107,2100,2034,1987,1991,1887,1852,1845,1826,1789,1689,1605,1393,1354,1352,1306,1260,1253,1201,1172,1179,1181,1130,1134,1152,1169,1156,1165,1163,1169,1170,1161,1159,1160,1165,1162,1166,1185,1155,1159,1166,1165,1162,1159,1156,1159,1158,1160,1159,0,0,0,0,0,0,0,0,0,0,0,0,0,0,0,0,0,0,0,0,0,0,0,0,0,0,0,0,0,0,0,0,0,0,0,0,0,0,0,0,0,0,0,0,0,0,0,0,0,0,0,0,0,0,0,0,0,0,0,0,0,0,0,0,0 ]);
