n = 30;
D = [131,283,173,179,187,72,274,161,113,91,254,187,97,251,79,239,295,85,135,274,208,102,132,282,236,281,228,269,279,126 ];
q = 0;
prec = array2d(1..0,1..2,[]);
steps = 64;
l = 360;
r = 0;
which = [];
interval = array2d(1..0,1..2,[]);
T = array3d(1..31,1..31,0..64,[0,0,0,0,0,0,0,0,0,0,0,0,0,0,0,0,0,0,0,0,0,0,0,0,0,0,0,0,0,0,0,0,0,0,0,0,0,0,0,0,0,0,0,0,0,0,0,0,0,0,0,0,0,0,0,0,0,0,0,0,0,0,0,0,0,1338,1345,1352,1405,1744,2201,2540,2816,2742,2758,2731,2681,2634,2585,2536,2502,2549,2403,2369,2323,2264,2224,2272,2126,2078,2028,1979,1897,1846,1617,1481,1442,1415,1374,1362,1355,1366,1337,1343,1343,1350,1357,1375,1358,1366,1365,1386,1396,1371,1379,1397,1397,1395,1390,1391,1380,1384,1394,1372,1400,1392,1380,1375,1375,1374,1530,1535,1556,1640,2040,2532,2848,2993,3047,2995,3022,2967,2874,2778,2846,2685,2785,2588,2586,2540,2512,2452,2445,2287,1940,1915,1844,1819,1820,1717,1674,1593,1583,1566,1556,1559,1565,1554,1580,1555,1567,1579,1578,1581,1589,1589,1585,1614,1586,1580,1604,1601,1606,1675,1623,1611,1595,1629,1578,1626,1615,1629,1593,1595,1594,984,998,1002,996,1102,1491,1663,1916,1972,1961,1952,1931,1902,1871,1840,1807,1843,1744,1712,1711,1635,1610,1644,1562,1528,1526,1470,1389,1400,1342,1093,1076,1068,1048,1012,1010,933,908,914,911,942,967,943,954,941,960,958,950,960,942,942,949,960,954,949,953,946,944,957,959,948,966,953,968,950,1044,1062,1098,1107,1259,1630,1827,1967,2058,2125,2125,2036,2005,1969,1944,1970,1938,1813,1829,1802,1716,1690,1657,1623,1596,1562,1521,1535,1454,1276,1245,1227,1089,1073,1094,1067,1044,1051,1026,1026,1035,1057,1034,1041,1043,1049,1044,1042,1046,1032,1041,1052,1068,1096,1053,1043,1034,1053,1041,1037,1038,1071,1050,1062,1044,1008,1011,1015,1017,1127,1547,1721,1967,1993,2006,2002,1972,1943,1911,1890,1842,1866,1776,1743,1729,1686,1649,1669,1576,1548,1498,1467,1400,1414,1245,1136,1097,1116,1057,1025,1036,1010,1000,1005,1002,1016,1029,1018,1039,1025,1029,1032,1026,1036,1031,1030,1035,1030,1032,1028,1032,1030,1030,1031,1025,1029,1035,1028,1046,1037,1024,1028,1031,1035,1099,1562,1738,1999,2034,2036,2034,1997,1959,1925,1902,1865,1894,1802,1765,1754,1712,1673,1695,1624,1586,1560,1450,1418,1408,1252,1224,1115,1120,1068,1042,1040,1035,1014,1018,1019,1029,1043,1036,1048,1037,1044,1059,1044,1059,1045,1042,1051,1045,1049,1043,1041,1045,1043,1047,1040,1045,1062,1043,1062,1052,550,552,628,556,644,761,862,963,1160,1105,1109,1218,1198,1057,1136,1020,1003,1068,947,950,955,915,919,880,862,844,827,808,790,773,755,738,720,575,562,646,575,576,565,573,566,574,575,580,574,628,573,577,567,569,573,580,581,576,580,576,573,569,623,625,572,575,573,580,573,1451,1456,1478,1582,1850,2403,2638,2885,2831,2843,2810,2781,2736,2688,2650,2611,2655,2518,2462,2406,2368,2333,2371,2241,2136,1776,1711,1674,1730,1635,1581,1539,1533,1492,1515,1465,1414,1415,1438,1439,1437,1436,1434,1433,1433,1435,1435,1462,1437,1439,1439,1444,1483,1437,1440,1440,1438,1472,1434,1435,1439,1441,1442,1443,1442,696,698,700,705,722,974,1115,1373,1345,1390,1387,1365,1344,1321,1299,1280,1363,1235,1213,1193,1169,1147,1222,1102,1080,1059,1038,1014,1078,971,947,925,914,724,712,710,712,680,689,684,692,685,695,700,695,698,698,715,706,693,705,702,704,721,702,699,692,714,694,725,697,696,692,701,700,744,740,765,769,808,1097,1253,1349,1432,1553,1513,1458,1435,1412,1388,1393,1369,1317,1342,1270,1247,1214,1200,1168,1152,1128,1097,1125,1059,1035,905,910,790,839,758,749,793,755,730,729,738,764,740,747,739,752,752,745,754,738,751,762,776,782,758,753,747,765,750,744,744,777,749,762,744,1493,1502,1510,1597,2009,2509,2845,3104,3037,3049,3019,2962,2900,2857,2803,2767,2797,2671,2612,2560,2501,2460,2494,2351,2300,2171,1965,1835,1828,1688,1634,1597,1544,1532,1480,1451,1459,1444,1449,1451,1461,1452,1458,1479,1482,1465,1467,1484,1468,1463,1474,1481,1482,1521,1472,1474,1467,1504,1497,1495,1478,1460,1458,1466,1465,1471,1480,1498,1575,1918,2459,2717,2960,2905,2916,2883,2852,2805,2756,2716,2678,2720,2583,2526,2468,2428,2392,2429,2297,2241,1899,1832,1718,1845,1656,1614,1578,1529,1512,1497,1492,1455,1455,1480,1484,1478,1478,1476,1476,1474,1477,1478,1502,1479,1481,1482,1485,1523,1480,1481,1483,1480,1513,1479,1475,1481,1483,1484,1485,1484,1292,1296,1303,1350,1667,2110,2443,2715,2655,2673,2650,2599,2553,2505,2457,2424,2471,2342,2295,2249,2191,2153,2203,2059,2011,1965,1916,1863,1827,1472,1434,1398,1344,1326,1317,1320,1327,1312,1319,1319,1332,1322,1326,1345,1348,1334,1334,1352,1336,1331,1343,1351,1347,1389,1341,1345,1334,1373,1367,1368,1352,1334,1332,1340,1339,970,972,976,1000,1080,1466,1666,1938,1899,1931,1921,1890,1908,1902,1796,1768,1843,1707,1676,1646,1612,1581,1645,1520,1489,1498,1428,1398,1449,1223,1153,1058,1062,998,1038,984,966,964,975,995,991,1004,991,1007,1000,1013,996,1010,990,995,994,1002,1013,1012,1017,1014,999,991,1009,1013,1010,1018,998,1005,997,939,954,1000,988,1089,1416,1606,1711,1872,1892,1918,1795,1769,1773,1741,1747,1761,1620,1614,1621,1557,1535,1496,1444,1451,1427,1392,1363,1317,1274,1194,1201,986,980,954,963,926,952,945,953,956,959,970,967,967,967,954,967,961,959,967,974,972,976,983,976,971,972,969,968,972,1004,966,973,967,934,959,1017,980,1113,1435,1584,1730,1852,1899,1910,1813,1788,1744,1758,1734,1755,1636,1598,1636,1532,1520,1490,1459,1434,1410,1376,1347,1314,1289,1267,1240,973,956,965,945,942,972,963,972,964,978,975,985,980,1000,985,993,978,983,979,975,969,973,981,987,974,976,968,973,974,1020,992,1002,970,897,927,980,938,1057,1370,1512,1659,1828,1842,1843,1746,1722,1690,1695,1768,1694,1576,1597,1578,1483,1463,1434,1404,1381,1357,1324,1337,1265,1240,1166,1173,941,925,927,945,904,935,933,940,942,956,947,944,955,956,954,952,960,952,953,954,955,960,967,968,953,961,956,948,958,965,957,967,955,989,1007,986,1011,1073,1483,1687,1953,1920,1964,1944,1904,1873,1826,1810,1779,1854,1718,1732,1656,1625,1595,1666,1533,1541,1459,1441,1410,1450,1348,1098,1053,1059,1008,1068,994,971,976,996,999,1003,1001,994,1000,992,1005,998,1024,998,1000,1002,1011,1028,999,1006,1003,1003,1031,998,1005,1001,1006,1004,1005,1004,1468,1478,1498,1572,2051,2605,2883,3159,3086,3056,3059,3002,2949,2925,2868,2823,2798,2672,2644,2600,2563,2450,2497,2334,2295,2180,1830,1862,1834,1698,1653,1611,1521,1508,1500,1508,1510,1517,1521,1528,1534,1531,1537,1551,1553,1537,1541,1557,1541,1540,1547,1554,1555,1597,1545,1546,1540,1578,1561,1572,1551,1533,1531,1539,1538,554,549,574,576,666,793,860,973,1056,1115,1150,1101,1082,1064,1047,1058,1040,993,975,957,939,913,904,876,867,849,823,806,796,778,752,763,689,579,566,557,564,626,554,551,560,580,560,563,553,563,557,552,558,560,556,562,563,572,569,576,566,569,568,573,575,648,595,605,600,1589,1606,1650,1744,2225,2745,3059,3309,3240,3248,3215,3154,3098,3050,2991,2944,2983,2846,2790,2733,2665,2624,2657,2511,2271,2217,1942,1881,1834,1735,1759,1617,1603,1630,1559,1566,1555,1576,1625,1625,1644,1629,1634,1655,1663,1649,1652,1673,1649,1706,1664,1730,1662,1704,1727,1662,1658,1691,1680,1742,1663,1648,1646,1654,1653,1034,1064,1081,1090,1240,1621,1808,1931,2084,2116,2120,2049,2005,1947,1936,1948,1925,1837,1821,1806,1700,1699,1643,1609,1587,1593,1508,1525,1421,1253,1223,1155,1091,1082,1085,1062,1057,1035,1011,1008,1018,1041,1023,1029,1019,1042,1032,1023,1033,1025,1039,1050,1067,1079,1039,1032,1031,1045,1037,1027,1022,1060,1029,1041,1023,1001,997,1024,1030,1182,1535,1701,1844,1959,1987,2009,1924,1892,1886,1859,1858,1813,1732,1723,1701,1662,1628,1596,1543,1539,1506,1466,1434,1410,1115,1087,1171,1052,1032,1018,1010,976,980,963,962,977,999,971,976,994,983,984,975,985,971,985,996,1021,1028,988,988,976,1007,985,979,984,1004,984,993,975,986,989,993,995,1081,1485,1644,1914,1882,1917,1908,1878,1876,1846,1817,1786,1823,1725,1696,1667,1634,1604,1633,1542,1511,1485,1449,1420,1425,1167,1138,1067,1073,1022,1003,1001,980,960,963,963,978,984,980,995,980,992,991,989,1005,991,990,988,989,995,992,988,991,988,992,987,993,993,985,1007,994,1390,1395,1397,1456,1728,2230,2482,2733,2686,2704,2695,2652,2626,2615,2508,2460,2519,2379,2352,2306,2244,2216,2269,2134,2072,2021,1957,1819,1846,1548,1498,1470,1491,1425,1428,1349,1288,1289,1302,1325,1320,1330,1319,1334,1328,1343,1326,1341,1342,1348,1349,1338,1343,1339,1346,1345,1327,1318,1338,1341,1338,1348,1327,1334,1326,1432,1429,1446,1505,1785,2335,2585,2798,2762,2783,2756,2712,2698,2681,2557,2536,2579,2436,2406,2384,2319,2284,2325,2184,2135,2133,1960,1918,1872,1584,1539,1491,1528,1458,1472,1453,1392,1393,1406,1429,1424,1434,1423,1438,1432,1447,1430,1445,1446,1452,1448,1442,1447,1443,1450,1449,1431,1422,1442,1445,1442,1452,1431,1438,1430,687,688,765,693,787,969,1105,1234,1432,1376,1375,1479,1452,1310,1382,1263,1294,1305,1174,1177,1180,1135,1135,1092,1070,1047,1025,1003,981,960,938,939,731,713,702,785,714,714,711,714,711,725,725,720,729,759,708,727,724,714,723,730,726,720,757,755,718,717,725,715,711,720,724,724,713,1020,1024,1021,1037,1108,1510,1755,2042,1998,2029,2025,1985,1951,1920,1893,1863,1927,1790,1757,1735,1695,1662,1719,1597,1563,1534,1501,1468,1401,1298,1263,1096,1105,1058,1042,1041,1013,1015,1023,1032,1037,1037,1047,1044,1041,1045,1046,1051,1044,1050,1059,1068,1063,1060,1060,1045,1056,1051,1038,1058,1054,1050,1056,1051,1050,640,643,645,647,668,902,1021,1217,1280,1282,1282,1262,1241,1222,1201,1181,1227,1140,1119,1135,1079,1058,1098,1064,1042,1049,987,966,969,895,875,742,803,687,653,650,652,654,654,664,661,668,674,675,671,683,668,683,666,666,667,679,685,694,689,676,676,669,684,675,676,690,671,678,670,0,0,0,0,0,0,0,0,0,0,0,0,0,0,0,0,0,0,0,0,0,0,0,0,0,0,0,0,0,0,0,0,0,0,0,0,0,0,0,0,0,0,0,0,0,0,0,0,0,0,0,0,0,0,0,0,0,0,0,0,0,0,0,0,0,1309,1314,1364,1351,1662,2126,2414,2645,2663,2691,2665,2622,2565,2541,2535,2450,2382,2347,2311,2314,2216,2154,2117,2063,2017,1967,1942,1794,1725,1580,1441,1390,1354,1333,1319,1330,1329,1331,1330,1335,1321,1335,1336,1351,1365,1348,1350,1353,1355,1352,1358,1336,1352,1355,1353,1343,1365,1370,1352,1369,1368,1396,1372,1369,1354,0,0,0,0,0,0,0,0,0,0,0,0,0,0,0,0,0,0,0,0,0,0,0,0,0,0,0,0,0,0,0,0,0,0,0,0,0,0,0,0,0,0,0,0,0,0,0,0,0,0,0,0,0,0,0,0,0,0,0,0,0,0,0,0,0,653,655,722,659,680,917,1040,1262,1350,1312,1313,1292,1393,1250,1229,1208,1188,1167,1146,1125,1103,1082,1061,1104,1019,998,977,957,936,915,883,863,696,679,666,663,665,666,673,672,670,676,680,696,675,676,684,684,674,679,675,685,679,673,686,684,680,680,676,686,684,729,684,694,685,897,900,902,931,978,1180,1487,1637,1750,1795,1787,1782,1730,1724,1673,1644,1637,1587,1558,1530,1501,1472,1445,1416,1388,1359,1331,1302,1273,1201,1089,984,948,940,913,923,926,916,918,905,909,906,910,916,916,911,916,930,941,925,935,939,937,936,931,935,933,943,948,945,941,936,953,953,939,986,1002,991,1023,1097,1468,1662,1813,1945,1986,1950,1942,1912,1860,1849,1795,1766,1753,1725,1671,1640,1609,1594,1546,1533,1486,1454,1440,1409,1357,1210,1092,1037,1017,1003,1000,971,972,972,978,984,989,995,988,989,998,986,985,987,994,992,1002,993,992,998,1002,999,1000,995,992,994,994,1008,996,986,792,794,797,799,853,1102,1282,1425,1531,1571,1555,1531,1504,1481,1468,1443,1422,1399,1360,1347,1312,1298,1293,1238,1223,1191,1173,1156,1124,1092,1021,855,836,816,804,814,798,798,797,785,787,785,792,795,796,790,801,810,817,805,815,818,818,818,813,814,812,821,816,810,822,811,824,822,815,816,819,821,837,883,1147,1359,1487,1591,1631,1639,1626,1574,1573,1573,1520,1470,1444,1417,1392,1366,1340,1335,1308,1262,1259,1211,1184,1158,1108,1033,936,863,860,831,828,830,821,816,803,807,810,813,820,817,812,819,834,846,830,840,844,842,840,835,839,839,850,856,854,847,840,858,864,852,1642,1639,1679,1758,2098,2768,3062,3203,3272,3297,3266,3229,3157,3101,3045,2986,2929,2845,2803,2757,2717,2616,2390,2105,2059,2013,1915,1943,1918,1791,1784,1741,1691,1693,1671,1668,1629,1626,1609,1618,1618,1630,1629,1639,1628,1643,1623,1650,1626,1622,1626,1634,1644,1647,1654,1635,1636,1636,1640,1635,1630,1631,1621,1629,1619,430,431,432,433,434,467,638,705,772,825,833,821,808,796,784,772,760,746,734,722,710,697,685,673,661,647,635,623,611,598,586,469,459,450,439,435,437,438,429,427,430,432,441,420,441,472,469,436,475,443,439,432,434,441,439,427,441,437,432,437,425,457,438,435,436,690,692,725,695,724,1012,1179,1409,1463,1511,1505,1478,1450,1423,1461,1369,1342,1314,1288,1312,1233,1205,1178,1151,1124,1096,1069,1042,1015,987,960,849,826,719,702,701,704,709,711,696,699,701,721,724,792,728,720,724,727,713,728,704,706,720,720,711,729,706,702,723,720,726,723,720,711,1010,1012,1016,1044,1114,1569,1800,1988,2096,2130,2115,2077,2040,2055,2024,1931,1892,1856,1866,1780,1744,1709,1673,1680,1638,1562,1524,1526,1450,1363,1176,1105,1066,1043,1052,1052,1008,1012,1016,1013,1013,1017,1034,1040,1035,1037,1030,1049,1033,1029,1033,1041,1048,1054,1040,1037,1043,1043,1047,1035,1037,1038,1028,1036,1026,222,223,223,224,225,241,321,358,393,430,453,446,438,432,424,418,410,402,396,388,381,374,367,359,352,345,337,331,323,316,309,302,294,287,240,236,236,236,177,176,176,176,178,176,179,181,177,179,180,179,178,178,177,181,178,177,179,179,179,177,179,179,177,178,176,241,242,243,243,243,254,350,389,429,467,481,474,466,459,452,444,437,430,422,414,408,400,392,385,378,370,363,356,348,341,333,326,261,254,248,244,245,246,233,235,233,239,242,242,241,241,236,243,235,237,238,242,248,256,252,243,241,239,242,242,239,242,237,245,238,155,156,157,157,158,199,225,251,278,304,320,315,310,304,300,294,289,284,279,273,269,264,259,254,248,244,238,233,228,223,217,213,207,202,198,158,159,159,146,146,146,149,157,147,144,150,153,159,160,154,155,150,150,148,153,150,147,146,148,149,150,146,154,155,144,798,810,802,811,839,1118,1314,1445,1545,1590,1593,1555,1530,1504,1479,1454,1455,1403,1413,1354,1333,1303,1308,1256,1227,1202,1177,1125,1090,1063,1031,859,838,819,812,810,794,770,768,771,773,773,771,775,781,777,771,772,781,785,780,772,786,783,775,775,777,780,777,776,777,780,785,781,769,1083,1101,1091,1150,1206,1642,1859,2012,2138,2173,2136,2105,2091,2038,2002,1968,1936,1919,1889,1830,1797,1761,1745,1693,1677,1628,1593,1576,1542,1469,1314,1163,1135,1116,1103,1100,1061,1062,1062,1068,1074,1079,1085,1078,1079,1088,1076,1075,1077,1084,1082,1092,1083,1082,1088,1092,1089,1090,1085,1082,1084,1084,1098,1086,1076,1130,1132,1138,1146,1290,1599,1968,2116,2239,2275,2234,2221,2186,2131,2116,2058,2024,2006,1974,1914,1878,1842,1823,1768,1751,1701,1665,1647,1550,1400,1260,1252,1188,1160,1150,1146,1116,1117,1117,1123,1129,1134,1140,1133,1134,1143,1131,1130,1132,1139,1137,1147,1138,1137,1143,1147,1144,1145,1140,1137,1139,1139,1153,1141,1131,1104,1121,1112,1177,1250,1682,1903,2055,2181,2215,2177,2145,2131,2077,2040,2006,1972,1955,1924,1866,1830,1794,1777,1724,1708,1658,1623,1606,1571,1465,1336,1184,1157,1137,1124,1122,1088,1089,1089,1095,1101,1106,1112,1105,1106,1115,1103,1102,1104,1111,1109,1119,1110,1109,1115,1119,1116,1117,1112,1109,1111,1111,1125,1113,1103,610,626,612,614,633,833,1030,1178,1326,1347,1331,1321,1295,1271,1247,1222,1197,1199,1148,1109,1087,1074,1050,1026,1001,988,951,917,903,877,813,670,657,646,621,620,623,615,620,616,621,618,632,632,626,622,630,639,628,630,625,627,631,645,635,632,642,625,628,629,630,630,630,637,627,306,307,308,309,310,349,440,489,536,584,612,603,594,584,575,565,556,546,536,528,518,509,499,489,480,470,462,452,442,433,423,414,404,394,315,311,312,313,249,247,248,249,250,253,252,260,256,252,260,251,252,251,250,258,251,250,252,255,252,249,252,253,250,255,249,1053,1052,1055,1096,1102,1597,1893,2104,2164,2194,2168,2146,2108,2074,2026,1987,1985,1906,1868,1829,1810,1753,1740,1696,1641,1611,1594,1534,1325,1293,1160,1188,1098,1091,1078,1070,1046,1043,1026,1035,1035,1047,1046,1056,1045,1060,1040,1067,1043,1039,1043,1051,1061,1064,1071,1052,1053,1053,1057,1052,1047,1048,1038,1046,1036,439,439,441,378,379,479,594,631,697,751,760,748,735,756,711,699,687,675,694,651,639,627,614,602,590,605,566,554,542,530,542,506,493,481,384,380,381,382,377,379,380,375,374,381,381,376,380,381,384,378,377,380,378,383,384,383,380,380,381,382,380,380,379,387,383,927,945,934,952,1028,1372,1550,1702,1838,1881,1846,1840,1811,1759,1750,1698,1690,1659,1633,1580,1551,1521,1509,1462,1451,1404,1373,1361,1332,1297,1157,1125,980,959,945,942,935,936,936,942,948,953,959,952,953,962,950,949,951,958,956,966,957,956,962,966,963,964,959,956,958,958,972,960,950,1012,1029,1020,1057,1114,1518,1722,1872,2004,2042,2006,1977,1966,1914,1881,1847,1816,1803,1773,1718,1686,1654,1638,1589,1575,1526,1494,1427,1396,1365,1246,1092,1065,1045,1032,1029,1002,1003,1003,1009,1017,1022,1028,1021,1022,1031,1019,1019,1021,1028,1026,1036,1027,1026,1032,1037,1034,1035,1030,1027,1029,1029,1044,1032,1022,823,843,820,829,872,1160,1351,1480,1580,1626,1630,1592,1579,1543,1518,1493,1494,1444,1453,1394,1375,1345,1351,1313,1270,1246,1221,1201,1181,1159,948,913,884,865,830,834,812,787,792,791,795,792,795,798,800,797,795,796,803,808,803,800,809,807,799,800,801,799,801,801,800,806,804,805,793,723,722,727,732,769,892,1152,1290,1381,1424,1422,1400,1378,1356,1332,1346,1288,1267,1243,1221,1212,1186,1158,1134,1112,1116,1068,1054,1023,982,953,804,772,755,742,744,720,707,710,709,708,705,714,718,714,720,718,711,724,724,726,726,735,738,728,742,734,735,736,732,724,726,733,732,724,494,460,496,463,467,568,690,766,842,895,903,888,875,861,848,833,820,806,793,778,765,814,738,723,710,697,683,669,655,642,628,614,579,480,469,466,467,468,462,462,463,466,466,465,463,463,464,466,462,464,464,472,465,464,466,466,464,465,463,467,465,465,466,463,463,1580,1581,1656,1747,2279,2749,3322,3459,3493,3540,3500,3461,3390,3331,3258,3179,3108,3060,2966,2891,2857,2757,2689,2404,2337,2268,2001,1935,1853,1789,1734,1684,1638,1642,1609,1612,1638,1644,1671,1652,1670,1678,1679,1682,1681,1689,1685,1681,1689,1680,1681,1680,1679,1687,1680,1679,1681,1684,1681,1678,1681,1682,1679,1684,1678,544,565,547,548,560,805,916,1059,1207,1222,1222,1206,1175,1153,1130,1107,1085,1095,1039,1049,994,971,948,926,903,880,858,834,818,789,792,695,675,586,555,553,556,559,557,552,542,540,565,549,551,552,552,560,560,559,559,586,562,557,568,562,558,561,561,608,559,558,601,570,565,848,845,848,860,925,1262,1504,1698,1796,1814,1802,1776,1744,1712,1686,1646,1614,1580,1549,1516,1491,1451,1418,1386,1357,1327,1300,1262,1236,1197,1141,926,910,900,868,881,836,833,816,825,825,837,836,846,835,850,830,857,833,829,833,841,851,854,861,842,843,843,847,842,837,838,828,836,826,1309,1314,1364,1351,1662,2126,2414,2645,2663,2691,2665,2622,2565,2541,2535,2450,2382,2347,2311,2314,2216,2154,2117,2063,2017,1967,1942,1794,1725,1580,1441,1390,1354,1333,1319,1330,1329,1331,1330,1335,1321,1335,1336,1351,1365,1348,1350,1353,1355,1352,1358,1336,1352,1355,1353,1343,1365,1370,1352,1369,1368,1396,1372,1369,1354,1484,1507,1520,1647,2200,2590,2775,2926,3008,3022,2990,2937,2885,2846,2803,2751,2699,2631,2599,2538,2488,2436,2384,2326,2274,2305,2152,2005,1707,1665,1616,1584,1556,1528,1507,1518,1513,1519,1532,1551,1526,1546,1554,1530,1575,1555,1542,1564,1559,1542,1538,1565,1545,1553,1557,1565,1567,1571,1573,1576,1562,1594,1569,1568,1551,621,622,624,626,662,839,981,1096,1205,1244,1257,1230,1210,1190,1170,1150,1130,1111,1090,1070,1050,1030,1010,991,970,950,961,910,899,871,850,808,787,718,634,630,631,622,604,615,615,630,626,617,629,627,618,620,617,621,622,617,617,624,625,621,628,620,620,629,624,632,634,638,629,0,0,0,0,0,0,0,0,0,0,0,0,0,0,0,0,0,0,0,0,0,0,0,0,0,0,0,0,0,0,0,0,0,0,0,0,0,0,0,0,0,0,0,0,0,0,0,0,0,0,0,0,0,0,0,0,0,0,0,0,0,0,0,0,0,1088,1092,1108,1147,1275,1749,1897,2051,2137,2265,2150,2113,2090,2043,2023,1978,1989,1913,1907,1849,1815,1773,1739,1705,1664,1644,1633,1569,1536,1335,1300,1174,1167,1136,1117,1112,1087,1061,1058,1085,1046,1047,1058,1048,1053,1057,1061,1062,1106,1057,1060,1067,1119,1069,1057,1074,1067,1074,1099,1058,1075,1070,1100,1056,1055,1321,1326,1341,1416,1629,2210,2366,2508,2587,2698,2583,2539,2510,2455,2428,2374,2378,2294,2281,2219,2177,2133,2092,2049,2001,1973,1956,1874,1530,1481,1467,1411,1404,1372,1354,1337,1305,1285,1282,1296,1270,1271,1282,1272,1277,1281,1285,1286,1318,1281,1284,1291,1321,1293,1281,1298,1291,1298,1309,1282,1299,1294,1313,1280,1279,917,923,934,938,1046,1405,1529,1689,1792,1925,1808,1793,1746,1733,1705,1677,1683,1624,1625,1571,1534,1490,1463,1441,1412,1394,1365,1336,1309,1279,1091,1059,978,954,946,944,937,911,908,928,896,897,908,898,903,907,911,912,960,907,910,917,974,919,907,924,917,924,965,908,925,920,957,906,905,944,947,961,978,1074,1477,1603,1762,1853,1991,1877,1846,1826,1785,1768,1729,1744,1672,1672,1615,1588,1549,1519,1490,1454,1437,1432,1373,1344,1314,1113,1079,1054,990,971,969,974,944,941,959,929,930,941,931,936,940,944,945,993,940,943,950,979,952,940,957,950,957,979,941,958,953,990,939,938,1817,1822,1919,2164,2807,3164,3438,3556,3627,3626,3595,3530,3465,3411,3331,3276,3205,3140,3095,3056,2936,2875,2836,2489,2225,2416,2165,2185,2063,2014,1953,1916,1873,1861,1836,1844,1805,1808,1816,1808,1830,1841,1840,1838,1841,1830,1834,1853,1845,1833,1840,1854,1853,1849,1858,1852,1836,1848,1835,1832,1832,1849,1836,1855,1821,815,819,837,825,1020,1119,1232,1369,1452,1494,1494,1472,1452,1430,1439,1386,1365,1364,1321,1332,1384,1256,1234,1212,1205,1178,1169,1149,1124,1102,1079,1046,1035,828,817,813,815,817,815,810,807,811,809,822,828,821,817,830,901,834,830,828,828,896,835,831,830,910,835,835,837,831,834,1019,994,873,875,877,889,1172,1402,1548,1728,1828,1862,1854,1821,1788,1755,1722,1690,1657,1624,1591,1558,1525,1493,1460,1427,1394,1406,1400,1295,1263,1230,1197,1164,926,901,889,888,892,897,913,918,906,1028,993,915,921,990,919,932,998,931,1005,924,913,918,924,1030,918,921,915,920,912,924,926,925,902,1192,1196,1210,1257,1533,1945,2178,2318,2378,2474,2407,2360,2325,2289,2258,2222,2199,2155,2112,2073,2057,1988,1947,1904,1861,1818,1769,1642,1608,1433,1315,1281,1250,1252,1214,1202,1194,1200,1220,1215,1223,1224,1226,1221,1230,1234,1229,1234,1235,1234,1237,1244,1260,1239,1234,1251,1243,1251,1242,1235,1239,1247,1243,1233,1228,667,675,671,679,718,864,1090,1221,1320,1364,1364,1343,1321,1323,1277,1279,1234,1212,1190,1168,1146,1125,1103,1081,1059,1037,1034,994,983,943,920,784,765,694,687,684,688,671,666,674,667,678,682,678,679,677,678,685,685,679,684,686,680,684,684,689,687,686,678,684,680,686,682,684,664,756,758,761,763,826,1082,1215,1351,1456,1504,1500,1479,1460,1431,1407,1389,1365,1337,1313,1293,1262,1244,1220,1194,1171,1147,1124,1100,1075,1052,1026,931,914,782,779,764,765,758,755,748,743,755,759,791,752,759,783,765,755,760,757,760,761,752,762,768,767,772,760,759,774,861,767,842,765,576,576,578,580,594,794,899,1006,1102,1156,1160,1141,1127,1104,1085,1067,1052,1030,1012,993,974,955,937,919,900,882,863,844,826,807,788,771,752,733,589,583,585,586,581,574,568,579,582,698,577,585,696,591,581,585,576,584,584,572,584,588,587,586,580,581,594,723,591,704,588,913,912,929,937,971,1375,1478,1628,1722,1867,1757,1731,1699,1675,1660,1626,1644,1577,1580,1529,1512,1461,1436,1416,1389,1367,1347,1315,1289,1267,1208,990,970,1011,939,936,942,905,902,928,890,891,902,892,897,901,905,906,947,901,904,911,954,913,901,918,911,918,944,902,919,914,942,900,899,1356,1361,1376,1484,1688,2284,2436,2576,2653,2763,2643,2603,2572,2516,2487,2433,2435,2351,2337,2275,2232,2172,2141,2100,2043,2021,1975,1867,1564,1517,1491,1447,1437,1410,1390,1342,1317,1289,1286,1334,1274,1275,1286,1276,1281,1285,1289,1290,1339,1285,1288,1295,1352,1297,1285,1302,1295,1302,1331,1286,1303,1298,1333,1284,1283,1336,1303,1327,1410,1886,2330,2603,2748,2813,2888,2786,2761,2744,2659,2637,2572,2527,2477,2418,2365,2361,2255,2201,2146,2091,2084,1982,1928,1674,1675,1443,1399,1360,1333,1408,1327,1337,1384,1401,1441,1389,1390,1401,1391,1396,1400,1404,1405,1456,1400,1403,1410,1466,1412,1400,1417,1410,1417,1452,1401,1418,1413,1450,1399,1398,1395,1369,1403,1496,1755,2367,2515,2654,2730,2837,2717,2676,2644,2586,2557,2501,2503,2415,2399,2337,2293,2234,2200,2158,2100,2076,2057,1969,1617,1585,1509,1486,1425,1399,1429,1394,1370,1341,1338,1386,1326,1327,1338,1328,1333,1337,1341,1342,1393,1337,1340,1347,1404,1349,1337,1354,1347,1354,1387,1338,1355,1350,1387,1336,1335,792,794,789,812,884,1211,1289,1419,1497,1666,1557,1530,1503,1489,1468,1448,1459,1408,1414,1360,1346,1307,1285,1263,1241,1234,1202,1180,1152,1123,1083,896,844,820,808,806,799,803,793,803,802,803,814,804,809,813,817,818,840,813,816,823,853,825,813,830,823,830,827,814,822,826,835,812,811,701,702,705,707,788,893,1122,1251,1349,1358,1393,1371,1349,1327,1305,1252,1261,1239,1217,1195,1173,1151,1129,1081,1086,1038,986,1030,944,980,954,856,705,779,759,711,713,715,694,698,700,701,697,705,705,713,711,711,713,708,714,713,714,719,720,718,724,721,720,718,723,745,747,752,737,1237,1235,1252,1269,1675,1992,2265,2429,2509,2538,2506,2486,2475,2389,2341,2311,2249,2205,2167,2134,2073,2055,2007,2001,1909,1880,1848,1721,1640,1527,1478,1324,1324,1269,1261,1251,1222,1225,1233,1225,1247,1258,1257,1255,1258,1247,1251,1270,1262,1250,1257,1271,1270,1266,1275,1269,1253,1265,1252,1249,1249,1266,1253,1272,1238,840,855,842,853,926,1243,1479,1630,1727,1772,1766,1723,1712,1674,1643,1626,1596,1560,1534,1512,1483,1442,1393,1380,1350,1307,1289,1245,1216,1189,1157,919,895,865,867,865,861,864,883,871,864,869,894,903,885,891,903,906,899,906,889,908,898,900,899,903,928,903,904,899,907,918,902,928,902,1280,1284,1304,1346,1533,2134,2285,2419,2507,2625,2500,2466,2420,2382,2357,2307,2310,2232,2219,2153,2116,2066,2029,1989,1941,1917,1899,1797,1631,1531,1408,1395,1357,1349,1313,1302,1269,1260,1257,1260,1245,1246,1257,1247,1252,1256,1260,1261,1282,1256,1259,1266,1285,1268,1256,1273,1266,1273,1273,1257,1274,1269,1277,1255,1254,1307,1312,1327,1446,1608,2184,2340,2482,2561,2674,2559,2515,2486,2432,2405,2352,2356,2272,2259,2198,2157,2112,2071,2029,1981,1953,1936,1865,1652,1467,1455,1397,1390,1358,1340,1323,1301,1274,1271,1300,1259,1260,1271,1261,1266,1270,1274,1275,1322,1270,1273,1280,1331,1282,1270,1287,1280,1287,1318,1271,1288,1283,1312,1269,1268,953,952,968,974,1006,1413,1513,1662,1757,1904,1794,1768,1748,1713,1699,1665,1683,1618,1621,1569,1545,1503,1479,1460,1428,1411,1379,1353,1273,1246,1183,1095,1008,990,978,975,965,944,941,953,929,930,941,931,936,940,944,945,982,940,943,950,987,952,940,957,950,957,990,941,958,953,985,939,938,1140,1125,1171,1184,1345,1838,1951,2153,2217,2359,2211,2167,2145,2134,2112,2065,2079,2001,1990,1928,1904,1854,1811,1761,1707,1660,1653,1574,1467,1499,1252,1217,1224,1192,1172,1103,1093,1078,1075,1112,1063,1064,1075,1065,1070,1074,1078,1079,1123,1074,1077,1084,1137,1086,1074,1091,1084,1091,1126,1075,1092,1087,1114,1073,1072,975,977,981,985,1122,1450,1620,1779,1873,1915,1908,1876,1849,1816,1785,1767,1740,1706,1677,1646,1607,1584,1555,1525,1494,1465,1431,1402,1372,1342,1287,1187,1025,1002,994,985,988,969,964,970,997,967,972,1061,966,974,1020,980,972,973,967,977,980,967,980,982,982,980,976,981,1035,1032,1027,1074,1026,1759,1818,1977,2209,2904,3410,3678,3762,3816,3857,3761,3727,3612,3591,3539,3479,3427,3350,3265,3227,3120,2935,2686,2649,2511,2406,2170,2137,2061,2010,1923,1871,1817,1788,1800,1801,1834,1835,1952,1944,1966,1977,1976,1974,1977,1966,1970,1989,1981,1969,1976,1990,1989,1985,1994,1988,1972,1984,1971,1968,1968,1985,1972,1991,1957,726,729,730,733,781,1089,1263,1449,1529,1577,1587,1553,1518,1489,1460,1433,1437,1376,1347,1386,1322,1262,1234,1205,1177,1148,1147,1092,1063,1035,1006,800,777,754,741,739,743,747,758,746,738,742,796,810,766,765,780,793,774,805,799,799,773,776,799,787,836,783,796,799,796,839,791,800,795,1031,1029,1042,1091,1370,1625,1892,2063,2159,2159,2147,2122,2076,2037,2000,1961,1923,1886,1854,1809,1771,1733,1708,1662,1623,1586,1576,1510,1472,1186,1167,1137,1093,1066,1071,1061,1012,1015,1023,1015,1037,1048,1047,1045,1048,1037,1041,1060,1052,1040,1047,1061,1060,1056,1065,1059,1043,1055,1042,1039,1039,1056,1043,1062,1028,1484,1507,1520,1647,2200,2590,2775,2926,3008,3022,2990,2937,2885,2846,2803,2751,2699,2631,2599,2538,2488,2436,2384,2326,2274,2305,2152,2005,1707,1665,1616,1584,1556,1528,1507,1518,1513,1519,1532,1551,1526,1546,1554,1530,1575,1555,1542,1564,1559,1542,1538,1565,1545,1553,1557,1565,1567,1571,1573,1576,1562,1594,1569,1568,1551,1034,1027,1042,1067,1080,1391,1741,1927,2000,2008,2018,2022,2011,1915,1899,1886,1824,1773,1757,1708,1727,1656,1653,1648,1548,1560,1527,1394,1373,1284,1207,1084,1087,1066,1057,1048,1052,1039,1030,1028,1031,1032,1033,1031,1042,1046,1028,1028,1028,1028,1028,1028,1028,1028,1028,1028,1028,1028,1028,1028,1028,1028,1028,1028,1028,872,875,878,890,970,1224,1448,1590,1690,1741,1747,1732,1691,1667,1644,1620,1596,1571,1547,1513,1489,1463,1441,1416,1392,1367,1334,1300,1220,1142,1050,1031,926,900,949,882,875,887,870,856,879,892,863,883,868,881,881,869,880,874,873,874,876,887,887,883,874,882,876,885,885,884,883,891,889,1061,1065,1070,1098,1179,1440,1721,1909,2039,2025,2019,2002,1964,1930,1914,1869,1836,1834,1807,1812,1706,1719,1646,1598,1576,1544,1592,1385,1177,1278,1125,1179,1116,1091,1080,1078,1080,1091,1056,1060,1105,1116,1085,1084,1071,1080,1071,1094,1090,1099,1104,1107,1109,1100,1096,1111,1102,1104,1094,1111,1144,1096,1095,1097,1095,0,0,0,0,0,0,0,0,0,0,0,0,0,0,0,0,0,0,0,0,0,0,0,0,0,0,0,0,0,0,0,0,0,0,0,0,0,0,0,0,0,0,0,0,0,0,0,0,0,0,0,0,0,0,0,0,0,0,0,0,0,0,0,0,0,302,303,304,304,305,388,441,491,543,592,616,601,592,583,576,563,553,544,534,524,514,506,496,486,476,466,457,447,437,427,419,409,399,389,330,321,323,323,272,278,276,277,279,279,279,283,276,276,276,276,276,276,276,276,276,276,276,276,276,276,276,276,276,276,276,249,314,251,252,252,324,368,411,415,418,421,420,419,419,418,416,418,416,415,415,414,412,413,412,411,387,379,371,363,355,346,338,331,322,257,252,253,254,242,244,244,252,252,249,251,260,245,258,252,251,252,255,255,256,252,252,260,260,259,252,253,257,250,250,250,287,267,268,288,268,311,357,376,394,413,418,413,410,407,402,399,396,391,388,385,380,377,374,369,366,363,358,355,334,329,325,322,317,314,270,268,269,269,257,245,246,246,251,252,252,251,252,256,262,256,262,260,260,262,256,257,261,266,292,293,261,260,282,264,267,1095,1100,1113,1085,1163,1496,1806,2030,2093,2171,2170,2134,2101,2058,2027,1989,1953,1934,1883,1846,1824,1785,1753,1714,1690,1612,1619,1425,1399,1307,1239,1208,1150,1125,1120,1122,1127,1110,1057,1058,1063,1072,1073,1067,1069,1072,1069,1069,1069,1069,1069,1069,1069,1069,1069,1069,1069,1069,1069,1069,1069,1069,1069,1069,1069,672,674,675,710,694,881,968,1055,1142,1204,1221,1214,1181,1166,1150,1133,1117,1101,1086,1062,1046,1029,1014,998,982,966,950,935,919,903,726,713,700,687,679,679,681,665,635,638,638,646,644,648,640,638,644,637,638,636,640,652,674,673,650,649,644,651,672,647,650,649,642,644,641,492,493,495,496,586,664,748,848,911,977,1002,986,953,937,938,911,891,892,876,845,830,818,814,798,783,755,736,735,719,690,688,672,645,548,508,499,500,498,486,476,493,508,498,493,492,502,498,505,501,497,506,511,506,504,512,503,490,511,498,492,490,516,543,544,496,309,310,313,312,313,398,452,502,555,603,624,614,605,594,586,575,568,555,545,535,526,517,507,497,487,477,467,459,447,437,427,418,410,398,318,314,315,315,271,272,272,273,274,274,275,273,274,274,274,274,274,274,274,274,274,274,274,274,274,274,274,274,274,274,274,927,932,934,946,994,1242,1466,1606,1707,1758,1768,1750,1708,1685,1659,1637,1614,1589,1555,1531,1507,1482,1459,1435,1411,1387,1316,1297,1275,1192,1129,1088,982,970,965,941,948,935,905,907,913,932,923,924,919,919,923,918,918,919,915,932,928,927,922,928,926,925,949,930,945,933,925,930,927,711,714,715,766,771,842,1035,1128,1223,1283,1299,1291,1256,1239,1223,1206,1189,1171,1154,1128,1111,1093,1076,1060,1042,1025,1008,991,974,957,841,828,802,727,720,720,721,705,675,678,678,689,682,688,681,681,680,679,681,676,677,689,684,688,685,689,684,688,712,686,701,689,681,686,683,826,829,832,837,984,1151,1369,1502,1605,1658,1665,1652,1611,1589,1567,1544,1521,1498,1475,1443,1420,1396,1373,1351,1327,1304,1268,1214,1191,1170,993,975,879,854,863,836,842,849,819,824,826,836,831,831,828,823,835,824,824,823,823,843,842,837,832,833,827,835,851,834,849,837,829,834,831,306,306,307,332,345,332,423,467,511,554,567,558,550,542,533,525,517,509,500,491,484,475,467,458,451,442,433,425,416,409,400,392,383,306,300,297,336,336,290,278,273,275,290,283,277,283,282,288,295,290,295,293,294,292,284,290,279,289,284,286,284,283,285,281,276,336,337,338,339,340,364,496,552,610,666,682,677,661,650,639,628,617,606,595,585,574,563,552,541,530,520,514,498,398,481,380,371,363,354,345,355,342,342,277,275,287,323,278,281,280,282,280,280,280,280,280,280,280,280,280,280,280,280,280,280,280,280,280,280,280,450,455,455,458,459,583,682,759,837,906,918,897,889,866,855,838,826,814,795,782,773,755,743,729,714,695,678,670,651,639,623,606,595,478,467,463,464,445,391,390,402,421,395,398,395,399,393,393,393,393,393,393,393,393,393,393,393,393,393,393,393,393,393,393,393,375,377,378,378,380,493,558,623,688,749,763,751,740,727,715,701,696,677,671,653,641,629,617,605,592,580,568,556,543,531,519,507,495,411,385,381,382,383,329,328,339,374,332,335,332,336,331,331,331,331,331,331,331,331,331,331,331,331,331,331,331,331,331,331,331,483,501,495,496,494,590,759,847,925,994,998,985,953,966,938,924,897,893,851,849,818,803,801,798,770,766,739,724,695,691,676,641,599,555,504,499,508,476,476,477,465,491,486,476,488,483,490,482,487,491,487,483,476,482,484,490,483,481,479,478,481,476,490,477,462,1000,1006,1020,1039,1113,1381,1618,1768,1864,1912,1920,1899,1855,1830,1802,1779,1753,1726,1692,1664,1637,1610,1586,1559,1535,1507,1437,1415,1355,1250,1226,1090,1068,1055,1051,1027,1020,1006,977,980,985,1007,996,1003,998,992,997,990,992,992,988,1009,1001,1000,995,1004,999,997,1028,1004,1018,1007,998,1003,1000,490,491,492,494,497,563,723,818,904,979,992,974,960,940,928,913,897,876,858,844,830,816,798,783,767,752,735,720,668,653,596,579,566,556,501,497,498,493,429,423,429,432,430,430,429,433,428,428,428,428,428,428,428,428,428,428,428,428,428,428,428,428,428,428,428,979,983,998,1016,1039,1316,1552,1703,1800,1849,1857,1835,1793,1767,1743,1717,1691,1663,1638,1602,1576,1548,1526,1498,1477,1451,1420,1386,1282,1221,1076,1056,1040,1022,1007,1004,1002,965,935,940,943,962,954,958,949,953,949,962,960,955,957,968,963,965,960,965,964,968,994,965,985,972,966,971,968,286,288,288,288,289,317,417,466,514,564,587,575,566,561,548,537,528,518,508,499,489,481,471,462,452,442,434,425,415,405,396,337,332,321,314,290,291,292,251,249,254,256,249,257,257,253,258,258,256,258,258,255,257,255,254,255,253,254,257,258,258,255,257,258,252,288,288,289,290,291,371,420,468,518,566,586,576,567,557,548,539,530,520,511,501,492,482,474,464,455,445,436,427,418,409,399,390,380,304,296,306,292,293,264,263,268,267,261,275,270,269,265,265,265,265,265,265,265,265,265,265,265,265,265,265,265,265,265,265,265,227,228,229,258,266,276,331,367,404,442,456,448,442,434,427,421,413,407,399,392,386,378,371,365,357,350,343,336,330,322,315,308,301,279,272,267,269,269,211,200,197,197,211,212,211,205,204,210,216,212,213,215,215,219,203,211,215,223,215,220,207,210,220,203,201,562,564,564,579,578,729,785,867,939,955,969,961,942,942,923,931,915,906,906,867,887,873,845,824,809,804,788,780,766,750,742,695,604,642,597,579,580,519,485,492,491,494,496,500,495,494,491,502,500,493,493,506,504,503,502,508,502,504,515,504,502,506,495,503,500,614,615,613,616,674,767,873,956,1002,1056,1071,1060,1037,1039,1014,999,1004,984,960,946,931,916,915,902,889,864,860,846,836,822,789,775,760,630,611,625,613,628,575,583,578,610,598,607,586,595,585,605,602,604,601,612,597,618,602,605,613,614,619,607,602,628,605,602,599,1138,1144,1156,1130,1215,1568,1889,2111,2173,2250,2248,2210,2177,2132,2100,2061,2024,1989,1950,1912,1890,1850,1817,1776,1752,1672,1678,1633,1453,1314,1294,1251,1193,1169,1163,1165,1170,1143,1093,1093,1086,1086,1106,1104,1103,1105,1102,1102,1102,1102,1102,1102,1102,1102,1102,1102,1102,1102,1102,1102,1102,1102,1102,1102,1102,522,523,540,531,536,656,804,899,1003,1043,1040,1026,1008,993,990,961,964,929,920,903,904,870,871,833,834,801,785,785,751,738,717,715,611,596,549,545,531,517,512,505,511,517,507,527,519,523,522,518,540,514,514,515,513,542,514,520,513,515,513,515,520,518,517,535,522,404,405,406,403,410,481,591,657,744,790,816,803,782,749,763,750,705,726,705,674,686,674,636,647,634,622,596,596,583,550,551,544,531,483,414,395,406,391,357,360,362,367,364,367,362,372,361,361,361,361,361,361,361,361,361,361,361,361,361,361,361,361,361,361,361,1034,1027,1042,1067,1080,1391,1741,1927,2000,2008,2018,2022,2011,1915,1899,1886,1824,1773,1757,1708,1727,1656,1653,1648,1548,1560,1527,1394,1373,1284,1207,1084,1087,1066,1057,1048,1052,1039,1030,1028,1031,1032,1033,1031,1042,1046,1028,1028,1028,1028,1028,1028,1028,1028,1028,1028,1028,1028,1028,1028,1028,1028,1028,1028,1028,1102,1122,1126,1135,1225,1624,1873,2043,2143,2192,2222,2144,2119,2062,2019,2027,1982,1951,1942,1893,1844,1823,1797,1750,1718,1656,1613,1490,1538,1240,1223,1212,1177,1149,1132,1129,1152,1135,1102,1097,1099,1107,1108,1114,1111,1128,1112,1121,1115,1112,1108,1112,1111,1128,1125,1115,1115,1109,1107,1113,1115,1119,1109,1120,1111,978,981,984,1005,1042,1364,1565,1743,1898,1948,1938,1907,1876,1845,1815,1792,1752,1721,1690,1685,1629,1598,1567,1574,1505,1475,1444,1413,1392,1323,1229,1055,1030,1010,996,993,986,989,980,973,979,990,987,979,989,993,992,994,999,994,1004,1007,1013,1000,1006,1010,990,1002,994,992,995,983,994,1001,979,1292,1311,1349,1345,1654,2005,2214,2354,2484,2572,2513,2472,2468,2414,2341,2337,2313,2237,2194,2147,2140,2069,2040,2023,1940,1894,1744,1685,1449,1438,1437,1418,1409,1359,1304,1315,1319,1300,1358,1353,1366,1371,1362,1357,1367,1374,1366,1383,1376,1367,1368,1356,1381,1399,1385,1368,1374,1372,1376,1373,1366,1375,1383,1369,1361,333,343,334,345,362,393,507,575,634,686,696,685,674,663,652,641,630,619,607,605,585,574,547,552,541,530,519,508,497,485,474,416,406,395,351,351,349,353,308,305,304,306,306,308,308,306,304,305,305,304,304,314,307,308,310,313,310,310,316,310,313,310,307,305,302,0,0,0,0,0,0,0,0,0,0,0,0,0,0,0,0,0,0,0,0,0,0,0,0,0,0,0,0,0,0,0,0,0,0,0,0,0,0,0,0,0,0,0,0,0,0,0,0,0,0,0,0,0,0,0,0,0,0,0,0,0,0,0,0,0,535,528,520,531,549,646,810,901,1014,1078,1080,1065,1046,1030,995,978,989,947,941,919,906,876,843,845,825,828,792,776,757,740,724,655,630,579,531,534,536,516,506,502,502,504,505,506,507,503,504,503,504,505,506,513,512,512,515,511,512,514,511,510,515,512,514,509,507,470,481,473,485,502,579,732,817,916,965,970,955,971,944,909,893,907,866,874,841,836,800,770,770,754,764,723,708,693,677,662,518,515,505,492,487,489,462,450,448,451,449,446,450,453,451,445,458,455,448,452,462,461,465,457,456,460,459,456,451,459,460,455,454,452,1042,1044,1038,1075,1139,1514,1738,1897,2030,2087,2051,2003,1976,1938,1918,1899,1869,1820,1797,1765,1766,1737,1654,1626,1616,1553,1547,1482,1396,1232,1201,1139,1119,1061,1073,1063,1050,1065,1069,1074,1080,1080,1088,1095,1089,1092,1090,1097,1097,1102,1107,1098,1101,1098,1098,1092,1097,1102,1098,1104,1116,1100,1106,1100,1099,867,877,886,879,913,1091,1368,1523,1665,1721,1722,1669,1645,1633,1599,1579,1537,1519,1514,1470,1454,1417,1397,1367,1339,1300,1281,1258,1226,1193,1083,1015,917,892,882,884,882,861,857,843,849,857,849,855,852,855,859,846,855,847,856,853,891,872,867,860,854,854,855,854,862,855,855,857,849,778,770,785,785,809,1039,1201,1360,1492,1543,1544,1504,1484,1466,1440,1411,1389,1367,1344,1323,1293,1261,1243,1224,1198,1183,1149,1141,1117,1077,987,841,818,844,785,786,785,757,724,717,718,724,719,726,722,725,722,721,725,723,719,721,722,725,725,724,722,722,721,722,724,724,721,724,721,405,415,422,431,425,467,597,664,746,813,815,803,791,779,766,753,740,737,712,701,697,684,663,658,640,627,611,598,586,572,561,472,456,443,433,429,431,386,353,346,347,353,348,353,351,354,351,350,354,352,348,350,351,354,354,353,351,351,350,351,353,353,350,353,350,933,943,939,970,1000,1301,1491,1659,1817,1870,1861,1832,1802,1774,1744,1716,1686,1648,1628,1614,1569,1541,1511,1470,1453,1423,1394,1365,1356,1306,1173,1053,998,964,950,947,963,953,950,948,957,968,957,937,967,969,962,969,985,975,977,984,989,984,966,951,974,972,986,974,960,959,973,967,949,887,905,892,906,934,1157,1398,1561,1723,1776,1768,1741,1712,1684,1655,1628,1606,1570,1543,1539,1486,1480,1430,1401,1372,1345,1316,1288,1259,1232,1082,961,938,933,903,900,902,901,897,883,889,900,887,886,893,898,889,888,898,887,893,890,898,901,902,897,894,891,895,893,893,895,894,899,891,935,937,940,959,990,1291,1484,1664,1813,1873,1855,1827,1797,1767,1738,1717,1678,1648,1619,1614,1559,1539,1501,1505,1442,1412,1382,1353,1332,1286,1162,1073,986,965,951,948,930,933,925,917,923,934,938,921,931,935,934,936,943,936,966,963,963,979,962,952,932,949,936,934,937,925,938,951,923,627,628,639,631,650,742,947,1067,1184,1251,1253,1226,1210,1196,1156,1156,1139,1119,1098,1082,1060,1023,1005,1002,982,963,943,924,896,843,742,688,681,664,639,635,656,568,558,550,551,555,555,561,564,554,551,553,554,554,554,561,560,560,562,558,562,561,559,557,560,561,559,558,556,104,105,105,105,129,132,148,166,182,200,212,209,205,202,199,195,192,189,185,182,179,176,172,169,166,162,159,156,152,149,146,143,139,136,133,129,129,130,90,90,92,94,90,92,91,94,93,91,94,90,92,91,90,92,91,91,91,92,90,90,90,91,91,92,91,155,155,156,156,192,198,224,250,277,303,319,313,308,303,298,293,288,282,278,272,268,262,257,253,247,243,237,232,227,222,216,212,206,202,196,192,193,193,145,144,146,148,144,154,148,184,156,148,182,147,150,148,147,153,148,148,148,152,147,146,147,149,147,153,147,125,126,126,155,155,159,180,201,222,243,257,253,248,244,240,236,232,228,224,220,215,212,207,203,200,195,191,187,183,179,174,171,167,162,158,155,156,156,117,117,117,117,116,117,119,121,119,117,119,118,117,117,117,118,119,117,118,117,118,117,118,118,117,118,119,816,832,829,840,864,1043,1285,1476,1628,1671,1655,1630,1587,1579,1547,1509,1496,1470,1444,1413,1388,1363,1324,1319,1283,1268,1234,1203,1181,1031,1005,898,904,859,850,849,832,789,782,778,777,786,785,787,785,787,785,785,785,783,788,796,786,789,797,793,791,794,791,791,792,785,795,782,764,1020,1028,1030,1060,1119,1444,1656,1820,1974,2024,2013,1982,1950,1918,1887,1856,1824,1785,1765,1749,1699,1668,1636,1595,1576,1546,1512,1480,1472,1382,1232,1114,1096,1054,1045,1034,1035,1024,1022,1021,1020,1019,1030,1016,1041,1042,1039,1041,1059,1044,1047,1058,1062,1057,1039,1027,1047,1044,1059,1043,1033,1036,1046,1040,1022,519,521,537,537,544,636,787,877,978,1049,1049,1033,1018,1001,984,967,950,945,917,900,894,877,851,843,820,803,783,767,751,735,717,625,613,563,540,546,544,528,493,488,492,496,489,498,495,496,495,492,496,499,496,501,509,503,498,494,497,495,496,493,499,499,494,498,495,998,988,991,1017,1045,1376,1604,1761,1905,1988,1944,1945,1914,1851,1851,1789,1788,1756,1705,1708,1642,1602,1598,1567,1516,1503,1447,1386,1375,1340,1082,1075,1049,1011,1018,999,998,1017,1008,1017,1014,1024,1014,1033,1010,1034,1012,1038,1009,1026,1024,1025,1062,1014,1036,1036,1040,1029,1015,1027,1035,1029,1031,1028,1013,75,75,93,93,93,94,106,118,130,141,151,149,147,145,143,140,138,135,133,130,128,126,124,122,119,116,114,112,110,107,105,103,101,97,95,93,94,94,64,57,57,58,57,58,58,58,57,58,58,57,58,58,58,57,59,58,58,58,58,58,58,58,58,58,59,160,160,171,171,171,201,227,253,279,303,324,320,315,311,305,300,295,290,284,279,274,270,264,260,254,249,243,239,234,229,223,219,214,208,202,172,172,200,131,124,124,125,126,127,127,127,126,127,127,127,128,128,128,127,129,128,128,129,129,129,129,129,129,129,129,560,563,563,566,582,697,851,958,1072,1140,1144,1119,1101,1083,1052,1054,1037,1018,999,984,963,927,911,909,891,873,855,837,819,757,733,642,637,611,581,569,583,489,477,474,473,475,476,479,479,476,473,475,476,476,476,483,482,482,484,480,484,483,481,479,482,483,481,480,478,653,663,686,681,722,798,1007,1108,1218,1276,1314,1275,1263,1238,1214,1173,1182,1134,1117,1124,1081,1060,1038,1048,1002,987,962,971,918,901,888,769,708,730,691,681,689,614,615,609,609,613,611,618,617,614,617,622,620,615,622,622,625,630,623,623,623,623,616,620,622,627,619,618,611,733,735,749,740,771,922,1153,1286,1428,1470,1468,1444,1452,1397,1373,1350,1326,1324,1279,1283,1231,1208,1194,1186,1128,1114,1120,1093,1043,937,917,907,771,764,740,743,746,765,724,718,716,750,728,734,729,736,739,744,741,737,745,746,737,765,755,736,765,762,746,738,757,773,760,737,729,1084,1087,1082,1119,1193,1588,1821,1979,2111,2166,2129,2080,2052,2013,1990,1970,1941,1889,1867,1832,1833,1802,1718,1689,1678,1612,1606,1541,1525,1354,1208,1182,1148,1114,1111,1106,1087,1102,1105,1106,1116,1114,1123,1126,1125,1127,1126,1126,1125,1121,1121,1131,1137,1131,1131,1128,1133,1138,1126,1128,1131,1136,1142,1136,1135,833,845,838,845,894,1104,1349,1494,1650,1675,1680,1661,1644,1617,1572,1530,1533,1497,1464,1450,1415,1387,1347,1335,1305,1298,1237,1217,1191,1164,1073,892,891,873,859,859,863,814,795,791,793,799,801,803,812,797,794,796,797,797,797,804,803,803,805,801,805,804,802,800,803,804,802,801,799,601,601,603,604,607,730,897,1030,1139,1201,1207,1178,1159,1145,1124,1102,1087,1078,1049,1031,1020,992,979,956,946,927,896,804,771,784,737,653,677,667,608,608,607,575,542,535,536,542,537,544,540,543,540,539,543,541,537,539,540,543,543,542,540,540,539,540,542,542,539,542,539,1102,1122,1126,1135,1225,1624,1873,2043,2143,2192,2222,2144,2119,2062,2019,2027,1982,1951,1942,1893,1844,1823,1797,1750,1718,1656,1613,1490,1538,1240,1223,1212,1177,1149,1132,1129,1152,1135,1102,1097,1099,1107,1108,1114,1111,1128,1112,1121,1115,1112,1108,1112,1111,1128,1125,1115,1115,1109,1107,1113,1115,1119,1109,1120,1111,1101,1085,1131,1144,1249,1640,1897,1993,2080,2135,2137,2080,2023,2039,1960,1945,1897,1914,1834,1815,1783,1742,1763,1714,1646,1622,1582,1483,1464,1249,1215,1151,1175,1141,1134,1102,1137,1131,1122,1118,1123,1121,1119,1119,1131,1134,1119,1126,1130,1122,1124,1130,1132,1134,1134,1135,1134,1132,1135,1139,1138,1142,1138,1138,1135,794,791,798,801,856,1017,1299,1430,1533,1571,1561,1537,1514,1491,1467,1443,1419,1395,1371,1350,1324,1301,1290,1249,1229,1205,1182,1158,1134,1011,992,963,841,819,801,807,791,772,743,748,750,752,752,747,753,753,758,751,749,752,750,753,753,758,753,752,751,753,752,752,751,751,751,751,751,927,936,930,939,994,1295,1487,1602,1671,1742,1727,1694,1677,1617,1590,1567,1584,1533,1501,1519,1488,1471,1436,1417,1416,1409,1339,1334,1260,1198,1017,1026,963,944,929,937,974,963,954,945,952,973,956,958,961,957,963,959,972,961,977,966,970,984,988,970,959,977,974,972,978,951,970,984,964,249,251,252,264,309,318,364,396,430,466,464,473,457,462,455,448,442,434,429,422,416,409,402,396,389,382,376,370,363,357,350,343,337,330,313,309,309,311,207,210,207,215,210,212,211,215,208,207,209,212,210,210,209,210,210,211,209,211,210,210,207,211,209,208,206,482,484,485,485,488,559,711,785,861,933,929,930,908,903,892,878,864,850,837,822,808,795,780,766,751,736,724,710,696,684,673,646,552,540,498,489,491,474,432,434,436,444,437,441,441,449,437,441,439,443,443,442,448,447,443,444,442,443,439,443,443,445,441,447,440,0,0,0,0,0,0,0,0,0,0,0,0,0,0,0,0,0,0,0,0,0,0,0,0,0,0,0,0,0,0,0,0,0,0,0,0,0,0,0,0,0,0,0,0,0,0,0,0,0,0,0,0,0,0,0,0,0,0,0,0,0,0,0,0,0,107,132,132,132,132,134,155,163,173,182,188,187,184,182,181,179,177,176,173,171,170,168,167,165,162,161,159,157,156,154,151,150,148,146,134,132,133,133,99,100,95,98,99,99,100,106,98,98,99,104,101,98,99,99,99,99,99,99,98,99,97,99,99,98,94,1190,1195,1178,1230,1323,1712,2015,2217,2302,2328,2296,2266,2230,2203,2129,2135,2087,2053,2015,1989,1951,1917,1887,1840,1811,1772,1738,1576,1455,1387,1358,1286,1252,1231,1211,1210,1219,1193,1186,1188,1201,1209,1201,1209,1196,1206,1200,1202,1204,1200,1201,1204,1209,1218,1208,1211,1203,1204,1208,1209,1217,1222,1204,1206,1199,534,536,537,539,581,625,817,898,980,1031,1030,1015,999,985,969,953,938,922,908,893,877,862,860,828,816,800,785,770,754,739,723,660,617,601,543,541,542,536,503,506,506,507,507,507,508,512,505,507,506,506,506,508,508,513,508,507,507,508,507,507,506,506,506,506,506,569,571,588,574,604,755,856,943,1043,1079,1077,1059,1044,1029,1015,1005,985,975,959,945,931,920,910,902,876,862,837,828,794,796,770,732,687,639,580,578,579,569,541,538,535,536,538,539,543,545,537,542,543,537,536,545,545,545,545,545,545,545,547,550,545,549,545,545,542,403,405,405,405,407,537,597,673,772,778,824,771,759,752,739,724,715,702,691,680,668,658,646,635,628,613,634,590,579,568,584,546,535,492,411,408,409,410,396,397,407,420,406,411,397,408,401,403,404,403,402,407,410,438,411,412,406,407,409,412,426,438,410,428,410,810,817,820,833,869,1037,1316,1447,1549,1579,1577,1554,1531,1510,1483,1457,1436,1413,1377,1366,1344,1318,1309,1268,1242,1225,1185,1133,1110,1088,981,872,907,849,838,827,824,803,773,776,781,782,782,782,783,788,788,782,782,782,782,783,783,788,783,782,782,783,782,782,781,781,781,781,781,573,576,576,579,621,674,883,971,1060,1111,1108,1092,1075,1059,1042,1026,1009,992,975,959,942,926,922,889,876,860,843,826,809,793,776,704,665,639,584,582,583,576,543,547,546,549,552,548,549,553,548,548,548,549,546,548,548,550,549,547,550,549,549,549,547,547,547,547,547,747,744,751,754,811,951,1220,1343,1447,1487,1478,1456,1434,1412,1389,1366,1344,1322,1299,1279,1254,1232,1223,1183,1164,1141,1119,1049,1026,1006,958,907,835,772,754,761,756,716,687,693,694,696,696,691,696,695,702,693,691,696,692,697,697,702,696,696,693,696,696,696,695,695,695,695,695,165,165,165,218,218,233,227,261,262,275,290,286,282,273,272,270,292,288,267,265,264,262,261,260,240,257,234,231,226,223,220,216,213,210,168,220,167,167,153,151,154,154,152,156,156,158,159,156,158,155,156,154,155,156,155,156,155,155,154,154,155,160,156,163,162,516,518,520,521,539,604,766,849,928,1010,1003,998,976,974,959,944,929,913,898,886,868,852,836,822,806,791,776,761,745,732,657,641,623,610,552,525,527,504,437,438,447,475,440,443,443,448,441,439,442,444,443,440,442,445,443,441,441,443,438,441,439,442,443,442,439,623,630,612,639,638,735,951,1054,1157,1188,1187,1170,1146,1141,1123,1098,1086,1076,1049,1040,1032,972,971,971,943,946,913,891,873,714,727,690,659,644,624,622,646,604,552,553,564,588,557,558,560,561,558,554,557,559,560,557,561,561,561,560,558,564,559,560,560,557,559,559,556,555,557,559,560,565,671,830,918,1009,1087,1080,1076,1053,1048,1033,1016,1000,983,967,951,935,917,900,884,867,850,834,818,801,787,750,701,671,594,573,566,568,556,490,490,501,529,494,495,497,499,495,491,494,496,497,494,497,498,498,497,495,500,495,497,495,494,496,496,493,355,356,357,358,359,469,520,570,622,657,663,661,644,642,625,622,613,603,595,585,569,566,556,546,537,528,518,509,499,490,480,466,411,406,405,360,360,393,345,348,352,360,347,359,350,360,361,348,360,350,354,353,350,360,352,353,353,368,352,354,351,366,352,368,353,896,903,916,920,983,1164,1468,1607,1709,1734,1729,1704,1679,1658,1628,1600,1577,1551,1512,1499,1478,1448,1435,1393,1366,1345,1304,1251,1226,1064,1048,984,990,935,926,913,896,874,845,849,853,853,853,853,854,859,859,853,853,853,853,854,854,859,854,853,853,854,853,853,852,852,852,852,852,583,586,586,587,592,706,880,998,1101,1144,1137,1122,1110,1096,1077,1057,1039,1022,1006,988,971,959,938,920,906,886,877,852,800,766,747,753,630,612,594,591,593,565,551,556,564,570,564,569,557,565,561,561,563,565,566,584,575,596,571,572,568,568,571,570,578,588,566,573,566,861,864,866,870,928,1100,1402,1543,1644,1678,1666,1640,1617,1594,1565,1540,1514,1488,1463,1437,1412,1387,1375,1332,1312,1285,1259,1233,1207,1118,1028,974,904,886,875,874,876,857,803,809,811,812,812,812,813,818,817,812,812,812,812,813,813,818,813,812,812,813,812,812,811,811,811,811,811,441,442,454,445,457,479,686,751,820,865,890,853,867,852,814,802,789,775,763,773,737,746,712,700,707,673,680,649,635,623,602,571,479,468,450,449,475,438,407,409,412,423,411,419,420,414,416,417,411,417,416,409,412,411,411,411,408,412,408,412,409,411,413,416,404,467,469,471,471,474,600,690,762,835,907,907,904,882,879,868,853,841,827,813,800,786,773,758,745,731,715,703,691,676,665,653,639,590,575,484,475,476,499,418,423,422,430,423,425,426,430,420,429,422,427,426,423,436,455,438,426,428,426,423,427,425,428,426,427,418,169,169,169,169,169,166,166,166,166,166,166,166,166,166,166,166,166,166,166,166,166,166,166,166,166,166,166,166,173,166,166,166,166,166,166,169,169,166,93,90,87,88,90,91,95,97,89,94,95,89,88,97,97,97,97,97,97,97,99,100,97,99,97,97,94,433,434,442,447,451,537,646,719,775,824,846,830,816,811,795,771,787,746,734,716,752,691,707,691,661,648,637,625,613,558,560,540,489,461,477,450,465,418,353,352,353,353,353,353,354,359,359,353,353,353,353,354,354,359,354,353,353,354,353,353,352,352,352,352,352,483,485,486,487,489,549,724,787,867,923,944,932,878,884,872,857,846,831,818,805,791,759,746,733,728,723,710,696,682,669,657,556,544,495,504,483,513,514,457,456,457,457,457,457,458,463,463,457,457,457,457,458,458,463,458,457,457,458,457,457,456,456,456,456,456,1233,1239,1223,1279,1409,1789,2099,2298,2382,2405,2373,2342,2305,2277,2201,2207,2170,2121,2082,2055,2016,1981,1949,1903,1872,1832,1797,1644,1548,1474,1380,1316,1296,1274,1255,1253,1262,1229,1221,1211,1215,1246,1238,1243,1229,1239,1233,1235,1237,1233,1234,1237,1242,1270,1241,1244,1236,1236,1241,1242,1250,1258,1237,1242,1235,364,365,366,367,369,485,539,592,646,690,695,685,675,692,655,645,635,624,614,605,595,585,575,565,554,544,534,524,514,504,495,485,474,464,371,369,369,370,365,359,364,368,360,366,360,365,366,369,369,370,362,362,368,367,367,370,372,406,367,370,368,366,370,367,363,482,483,485,486,476,626,715,768,834,891,885,877,856,850,826,834,809,803,786,774,784,750,743,731,720,710,696,687,675,651,630,636,561,487,490,473,474,469,443,441,441,441,444,443,449,450,443,448,447,443,442,451,451,451,451,451,451,451,452,450,451,455,451,451,448,1101,1085,1131,1144,1249,1640,1897,1993,2080,2135,2137,2080,2023,2039,1960,1945,1897,1914,1834,1815,1783,1742,1763,1714,1646,1622,1582,1483,1464,1249,1215,1151,1175,1141,1134,1102,1137,1131,1122,1118,1123,1121,1119,1119,1131,1134,1119,1126,1130,1122,1124,1130,1132,1134,1134,1135,1134,1132,1135,1139,1138,1142,1138,1138,1135,1013,985,1019,1015,1173,1476,1711,1839,1987,1955,2007,1965,1882,1866,1843,1838,1862,1775,1747,1716,1679,1602,1617,1552,1553,1528,1487,1354,1335,1304,1196,1214,1102,1005,1025,1026,1031,1001,1029,1027,1029,1038,1045,1020,1031,1035,1033,1041,1039,1034,1039,1038,1040,1040,1041,1046,1042,1037,1045,1047,1050,1062,1049,1055,1052,741,743,746,748,794,1044,1196,1478,1585,1638,1625,1596,1566,1535,1505,1479,1446,1416,1388,1384,1360,1298,1267,1238,1208,1179,1140,1119,1090,1012,992,962,794,832,749,753,758,745,744,735,743,750,742,764,748,788,752,762,757,744,752,753,764,767,760,757,754,750,767,756,754,754,747,775,753,930,932,932,940,968,1272,1459,1694,1721,1774,1751,1757,1714,1689,1667,1625,1597,1630,1541,1596,1485,1502,1475,1443,1372,1351,1336,1347,1213,1198,1119,1059,978,961,946,906,947,950,928,935,943,949,947,949,949,953,943,940,952,944,964,956,956,955,966,958,955,962,966,958,967,967,959,967,959,261,263,264,265,265,280,381,424,470,521,533,525,517,508,501,491,482,474,465,458,449,441,433,425,415,407,398,390,381,372,364,291,284,277,270,266,267,268,222,224,221,227,228,229,226,229,222,223,227,236,221,230,229,229,226,230,230,231,233,233,228,235,223,223,223,494,495,496,497,500,638,728,813,901,992,997,982,967,948,934,917,902,886,870,854,840,827,811,794,778,761,744,730,711,697,683,654,560,534,511,503,503,503,447,448,450,456,455,458,456,463,451,457,457,467,454,462,468,466,459,463,463,463,462,466,464,469,455,462,462,104,104,128,128,128,130,146,161,176,191,202,200,196,193,191,188,184,182,179,176,173,170,167,165,161,158,155,152,149,146,144,140,137,135,132,129,129,129,85,88,85,87,90,86,87,87,86,86,86,87,84,86,86,87,86,86,87,85,86,87,85,87,85,86,85,0,0,0,0,0,0,0,0,0,0,0,0,0,0,0,0,0,0,0,0,0,0,0,0,0,0,0,0,0,0,0,0,0,0,0,0,0,0,0,0,0,0,0,0,0,0,0,0,0,0,0,0,0,0,0,0,0,0,0,0,0,0,0,0,0,1109,1117,1120,1126,1235,1655,1915,2095,2223,2216,2192,2157,2121,2077,2042,2014,1976,1941,1916,1867,1843,1798,1763,1729,1702,1667,1631,1563,1499,1333,1247,1186,1159,1148,1160,1158,1129,1125,1117,1128,1117,1131,1128,1148,1123,1127,1134,1124,1122,1125,1122,1124,1123,1122,1127,1131,1127,1123,1124,1128,1130,1157,1153,1142,1131,592,603,598,599,601,638,928,1029,1145,1200,1201,1182,1162,1144,1126,1119,1100,1081,1073,1057,1037,1006,987,955,936,928,898,871,862,832,814,730,642,619,615,610,612,627,560,559,560,563,572,568,564,565,563,568,564,570,563,562,563,566,564,562,567,564,563,567,564,564,564,564,564,464,465,467,466,471,632,720,782,857,959,936,914,918,883,888,874,858,844,813,795,800,785,755,740,722,727,711,697,681,653,652,636,608,503,477,472,473,474,460,466,460,472,474,468,484,491,467,473,474,484,481,511,518,509,481,471,472,504,470,467,467,486,476,486,465,413,414,415,417,420,513,602,700,772,824,833,820,806,794,781,767,754,739,729,714,701,688,673,662,649,640,622,609,548,554,540,528,516,500,423,420,421,419,388,385,388,401,394,391,393,401,392,394,395,397,398,412,411,423,400,398,394,409,400,395,396,421,399,403,398,875,881,881,878,908,1063,1427,1578,1710,1753,1747,1717,1689,1663,1636,1622,1595,1569,1547,1522,1494,1454,1433,1393,1364,1353,1300,1235,1217,1180,1061,945,931,922,895,900,851,841,831,828,835,838,847,843,839,843,838,844,840,845,838,837,838,841,839,837,842,839,838,842,839,839,835,839,839,631,643,637,639,641,758,994,1102,1226,1279,1278,1258,1238,1217,1197,1191,1170,1150,1141,1123,1103,1070,1050,1016,996,986,955,927,917,886,866,801,673,659,656,650,652,667,601,599,602,608,611,610,606,608,604,610,607,610,605,604,606,607,604,605,608,607,605,608,609,609,609,609,609,695,697,699,701,707,973,1117,1386,1494,1544,1528,1508,1479,1452,1426,1394,1366,1338,1310,1283,1254,1224,1186,1167,1138,1114,1073,1058,1026,988,972,941,747,723,702,707,711,710,706,710,714,722,724,731,714,719,714,739,714,715,715,751,740,755,730,746,724,722,724,727,721,736,709,725,715,172,172,173,173,174,164,221,241,261,282,294,291,287,283,279,275,271,267,264,259,255,251,247,243,239,235,232,227,223,220,176,172,170,166,163,161,161,176,108,110,106,108,110,112,112,116,108,108,109,113,112,108,109,109,110,109,109,111,108,109,107,107,107,107,107,528,527,531,533,535,622,783,887,970,1063,1067,1050,1033,1020,999,981,964,947,929,913,897,884,861,850,833,816,797,781,763,745,663,614,630,566,544,533,543,516,452,452,461,487,458,460,458,462,455,455,460,468,454,460,462,464,459,460,462,463,461,464,460,466,457,457,457,636,613,630,631,652,753,968,1089,1196,1237,1241,1222,1196,1187,1185,1142,1143,1115,1118,1094,1056,1052,993,1020,986,954,936,908,895,860,762,743,667,692,660,621,637,630,567,567,578,600,575,575,575,575,572,570,575,583,571,577,581,580,577,579,579,584,582,583,581,581,573,574,574,567,568,570,572,575,689,847,946,1051,1144,1146,1128,1110,1093,1073,1054,1036,1017,999,981,965,949,925,912,894,875,855,838,819,800,712,641,682,605,583,576,578,568,505,504,515,541,512,512,512,513,509,507,512,520,508,514,517,517,514,516,516,520,518,520,516,518,510,511,511,360,369,363,364,357,432,534,617,651,732,720,718,726,709,694,667,671,649,638,625,619,602,591,566,568,555,559,521,535,510,488,500,440,430,408,368,367,369,334,336,333,336,343,344,339,344,336,344,339,342,340,339,341,344,345,339,344,342,338,343,340,340,340,340,340,869,911,874,915,941,1195,1535,1738,1867,1910,1899,1866,1839,1809,1780,1763,1735,1705,1684,1645,1627,1582,1499,1518,1424,1390,1408,1353,1332,1121,1156,1057,927,900,924,922,923,912,903,901,906,909,918,914,910,914,909,915,911,916,909,908,909,912,910,908,913,910,909,913,910,910,908,910,910,536,504,538,540,542,673,772,913,1027,1075,1080,984,1046,1028,991,974,906,959,925,908,907,875,859,855,826,821,813,787,761,753,696,718,574,581,548,543,544,513,510,501,505,518,519,518,515,524,513,522,521,520,524,529,527,549,524,518,525,526,519,522,519,544,523,526,521,919,931,927,930,948,1135,1513,1674,1803,1846,1832,1806,1778,1745,1718,1700,1670,1642,1624,1597,1568,1530,1498,1456,1426,1413,1374,1336,1317,1155,1018,994,968,959,951,942,945,948,861,861,865,868,877,873,869,873,868,874,870,875,868,867,868,871,869,867,872,869,868,872,869,869,869,869,869,453,478,456,458,462,558,703,780,862,914,946,932,891,873,859,870,854,860,843,785,793,778,741,727,733,718,702,705,672,657,608,583,487,475,464,460,461,467,422,423,426,435,429,436,435,428,430,433,429,441,427,429,432,430,427,430,429,432,431,435,430,435,427,431,431,479,480,482,483,486,619,707,790,876,966,971,956,941,924,910,893,878,863,847,832,818,805,789,773,758,740,723,711,693,678,664,595,598,504,494,489,489,490,433,437,436,442,441,442,441,444,434,445,440,451,437,443,456,474,454,445,449,446,446,450,446,452,440,442,442,94,94,116,116,116,118,132,145,159,172,183,180,178,174,172,170,167,165,161,159,156,154,151,148,146,143,140,138,135,133,129,127,124,122,119,116,117,117,29,29,30,30,30,33,30,31,30,30,30,30,30,30,30,29,29,30,30,31,31,31,30,30,30,30,30,493,501,518,523,513,586,756,841,939,997,1002,1004,974,949,952,930,928,921,901,879,864,834,818,799,783,780,763,747,720,615,616,595,547,514,517,528,520,452,406,411,406,409,418,414,410,414,409,415,411,416,409,408,409,412,410,408,413,410,409,413,410,410,410,410,410,533,545,538,539,550,658,835,923,1005,1096,1078,1074,1067,1050,1045,1027,1013,984,977,953,926,893,888,859,859,852,835,793,796,754,734,682,616,585,559,550,550,555,510,515,510,513,522,518,514,518,513,519,515,520,513,512,513,516,514,512,517,514,513,517,514,514,514,514,514,1153,1189,1200,1215,1340,1738,2011,2228,2316,2356,2340,2300,2263,2218,2177,2113,2046,2064,2001,1990,1913,1929,1826,1835,1789,1764,1750,1644,1534,1324,1328,1299,1236,1245,1206,1202,1205,1206,1176,1167,1167,1190,1208,1201,1194,1206,1193,1206,1202,1208,1205,1209,1208,1224,1207,1196,1203,1207,1200,1202,1198,1223,1205,1206,1200,395,389,402,391,394,488,582,650,716,765,774,763,751,739,728,720,704,700,706,673,663,667,642,630,612,599,587,574,562,548,523,510,501,408,418,414,408,409,354,347,347,350,354,358,354,364,351,351,359,362,356,356,359,367,355,357,354,362,358,358,363,363,363,363,363,377,378,379,380,382,502,568,607,667,722,732,750,738,726,713,674,689,677,665,628,616,629,617,605,592,558,568,556,544,512,520,508,496,380,452,382,448,369,357,357,354,355,356,355,357,356,357,355,356,357,360,357,360,360,361,374,359,360,360,386,361,386,360,378,380,1013,985,1019,1015,1173,1476,1711,1839,1987,1955,2007,1965,1882,1866,1843,1838,1862,1775,1747,1716,1679,1602,1617,1552,1553,1528,1487,1354,1335,1304,1196,1214,1102,1005,1025,1026,1031,1001,1029,1027,1029,1038,1045,1020,1031,1035,1033,1041,1039,1034,1039,1038,1040,1040,1041,1046,1042,1037,1045,1047,1050,1062,1049,1055,1052,572,574,576,577,592,733,903,997,1104,1152,1155,1137,1129,1087,1094,1062,1045,1026,1014,988,972,951,933,916,896,877,864,842,822,804,785,709,692,598,585,588,583,585,576,573,584,576,574,581,579,575,579,590,590,589,587,592,601,599,594,597,588,602,592,589,588,587,591,591,587,1580,1597,1621,1855,2214,2749,2995,3111,3183,3182,3171,3155,3099,3025,2938,2884,2835,2776,2746,2676,2639,2582,2530,2380,2020,1959,1959,1828,1798,1763,1724,1658,1651,1633,1614,1606,1601,1605,1571,1590,1579,1603,1589,1616,1598,1642,1601,1626,1609,1593,1610,1609,1640,1651,1623,1616,1618,1615,1637,1619,1630,1634,1604,1626,1613,1772,1789,1840,1995,2198,2954,3167,3374,3378,3432,3402,3339,3266,3203,3177,3145,3021,2982,2919,2883,2812,2601,2241,2242,2173,2077,2074,2030,1995,1935,1921,1849,1842,1825,1813,1764,1772,1811,1780,1812,1801,1804,1792,1809,1791,1841,1827,1841,1820,1826,1840,1822,1855,1883,1845,1840,1832,1833,1860,1831,1832,1842,1820,1846,1833,1056,1060,1059,1070,1125,1591,1762,1951,2032,2079,2087,2020,1994,1962,1932,1926,1879,1835,1823,1795,1743,1713,1663,1651,1615,1589,1475,1434,1332,1407,1238,1129,1114,1078,1060,1056,984,955,913,925,934,944,942,954,945,991,932,968,944,952,942,945,975,972,957,948,955,948,971,962,940,947,936,946,929,1063,1079,1078,1104,1184,1639,1819,1982,2098,2098,2144,2057,2033,2017,1967,1947,1882,1882,1842,1819,1811,1733,1712,1671,1646,1599,1579,1563,1492,1447,1171,1229,1128,1101,1094,1080,1094,1051,1010,1022,1017,1026,1033,1041,1047,1076,1018,1060,1030,1042,1029,1029,1061,1064,1042,1034,1034,1026,1055,1040,1029,1035,1031,1040,1023,1076,1076,1068,1123,1144,1659,1823,1995,2089,2102,2118,2079,2060,2036,2000,1950,1923,1879,1849,1830,1757,1754,1704,1670,1633,1611,1547,1445,1307,1393,1220,1161,1125,1107,1081,1082,1078,1050,1009,1020,1016,1029,1034,1043,1038,1074,1021,1059,1034,1044,1035,1034,1064,1063,1043,1041,1045,1036,1060,1044,1030,1035,1024,1034,1017,1092,1093,1081,1132,1131,1684,1841,2027,2106,2132,2147,2094,2074,2049,2011,1973,1951,1904,1875,1855,1783,1779,1729,1690,1657,1634,1497,1463,1376,1411,1215,1179,1142,1125,1098,1099,1096,1063,1036,1038,1030,1055,1053,1066,1063,1099,1046,1084,1059,1068,1060,1059,1089,1088,1068,1066,1070,1061,1085,1069,1055,1060,1049,1059,1042,0,0,0,0,0,0,0,0,0,0,0,0,0,0,0,0,0,0,0,0,0,0,0,0,0,0,0,0,0,0,0,0,0,0,0,0,0,0,0,0,0,0,0,0,0,0,0,0,0,0,0,0,0,0,0,0,0,0,0,0,0,0,0,0,0,1577,1573,1591,1656,1831,2612,2776,2938,2993,3025,3025,2954,2922,2849,2813,2758,2732,2670,2632,2584,2529,2476,2408,2259,1899,1898,1835,1855,1792,1746,1661,1670,1638,1601,1578,1563,1533,1538,1498,1514,1517,1527,1529,1540,1534,1569,1516,1555,1530,1540,1531,1530,1560,1559,1539,1537,1541,1532,1556,1539,1526,1530,1519,1529,1512,967,968,975,979,1006,1366,1618,1777,1868,1907,1912,1867,1837,1803,1782,1741,1712,1686,1654,1633,1610,1572,1544,1510,1484,1454,1411,1390,1287,1273,1222,1123,1017,997,979,984,944,954,918,939,939,943,946,945,931,954,938,961,933,930,941,947,968,962,951,941,954,949,957,948,957,951,930,952,939,767,770,772,775,780,1096,1231,1364,1486,1534,1531,1507,1484,1459,1435,1416,1386,1366,1337,1318,1289,1265,1240,1219,1191,1167,1148,1118,1094,1070,980,963,895,796,784,779,781,755,714,725,721,733,739,747,743,779,726,763,738,748,739,739,769,768,747,744,747,738,764,747,735,741,730,740,723,1539,1556,1604,1810,2371,2903,3262,3405,3473,3468,3441,3417,3349,3256,3191,3144,3092,3026,2951,2883,2804,2703,2491,2533,2228,1978,1917,1859,1802,1757,1754,1636,1600,1638,1600,1593,1602,1633,1674,1691,1691,1701,1688,1714,1693,1720,1704,1725,1701,1701,1720,1710,1745,1733,1723,1714,1730,1719,1727,1709,1713,1717,1695,1714,1703,1617,1613,1639,1707,1902,2692,2853,3014,3066,3098,3097,3023,2992,2916,2880,2824,2797,2733,2693,2645,2589,2535,2314,2299,1944,1942,1879,1898,1834,1787,1701,1710,1678,1641,1619,1603,1574,1578,1540,1559,1556,1569,1571,1583,1575,1611,1559,1595,1572,1582,1574,1571,1600,1602,1580,1580,1583,1573,1601,1579,1568,1572,1561,1571,1554,1534,1550,1568,1680,2130,2656,2921,3023,3097,3099,3080,3074,3011,2947,2861,2808,2762,2704,2666,2605,2568,2505,2438,2432,2127,2065,1844,1779,1749,1715,1679,1611,1599,1586,1578,1569,1566,1570,1542,1562,1561,1569,1557,1580,1562,1590,1572,1591,1571,1568,1590,1579,1613,1601,1593,1583,1598,1588,1598,1581,1587,1591,1569,1588,1577,1102,1089,1076,1095,1133,1659,1816,1994,2067,2149,2160,2067,2046,2012,1984,1943,1933,1883,1865,1830,1792,1731,1678,1674,1634,1624,1561,1534,1408,1419,1169,1186,1169,1110,1090,1085,1057,1069,1033,1049,1049,1061,1071,1071,1053,1104,1052,1090,1061,1062,1067,1062,1098,1104,1079,1069,1076,1059,1095,1077,1071,1076,1063,1072,1058,952,951,950,957,979,1402,1615,1784,1847,1914,1925,1845,1832,1811,1793,1751,1711,1701,1643,1625,1596,1574,1523,1513,1457,1427,1400,1398,1360,1309,1080,1117,1013,976,965,962,958,950,914,925,933,949,938,942,924,1011,923,961,936,930,930,950,972,1000,942,948,947,951,966,950,941,944,921,941,930,958,961,960,967,991,1420,1597,1763,1867,1891,1896,1863,1834,1811,1774,1734,1713,1696,1660,1631,1592,1563,1538,1506,1464,1442,1414,1389,1350,1163,1056,1131,1007,986,976,967,975,975,938,943,948,962,964,964,953,1034,953,987,962,963,979,984,1010,1017,979,973,969,981,980,963,968,958,955,966,945,921,924,923,930,949,1357,1528,1692,1797,1893,1869,1797,1769,1755,1710,1681,1652,1635,1600,1582,1547,1505,1482,1452,1419,1389,1364,1369,1301,1274,1093,1089,969,949,938,935,937,935,898,916,920,941,945,947,933,989,928,960,935,938,938,940,969,990,951,943,944,941,970,953,943,951,947,951,934,1212,1221,1234,1285,1465,1871,2121,2250,2338,2394,2367,2358,2338,2270,2203,2181,2150,2091,2076,2022,1997,1963,1924,1906,1847,1802,1679,1668,1590,1484,1323,1318,1264,1242,1239,1194,1204,1207,1189,1194,1195,1202,1208,1207,1214,1259,1204,1242,1215,1199,1215,1222,1249,1298,1236,1227,1226,1218,1255,1234,1221,1217,1195,1202,1186,1584,1602,1653,1751,2467,2978,3335,3471,3509,3541,3511,3467,3400,3308,3276,3178,3084,3043,2974,2857,2864,2754,2612,2568,2345,1997,1935,1878,1846,1801,1705,1680,1618,1656,1620,1590,1645,1633,1746,1757,1762,1779,1767,1787,1773,1773,1778,1797,1774,1778,1793,1783,1815,1809,1796,1786,1779,1783,1800,1786,1786,1783,1768,1787,1776,578,579,581,583,585,799,900,999,1100,1166,1169,1150,1131,1113,1094,1075,1057,1038,1019,1004,982,963,944,927,907,888,870,851,832,813,744,726,707,604,592,587,589,579,542,552,552,561,590,588,570,595,564,602,577,570,576,566,607,662,575,564,576,560,607,593,579,590,577,581,564,1533,1548,1629,1788,2330,2867,3192,3441,3445,3458,3477,3400,3329,3202,3189,3122,3050,3002,2916,2833,2773,2669,2550,2510,2321,1961,1903,1880,1829,1780,1731,1629,1592,1663,1590,1558,1582,1618,1684,1692,1679,1726,1723,1704,1693,1706,1707,1793,1700,1713,1725,1704,1684,1692,1709,1801,1697,1697,1686,1694,1698,1779,1754,1736,1690,1058,1073,1072,1082,1158,1629,1838,1986,2089,2080,2151,2057,2036,2035,1951,1939,1873,1866,1827,1804,1784,1719,1715,1657,1652,1586,1571,1536,1458,1411,1215,1211,1123,1096,1089,1074,1086,1035,995,1004,1000,1010,1022,1029,1023,1069,1006,1041,1017,1035,1027,1027,1060,1055,1028,1023,1031,1018,1051,1030,1013,1024,1010,1019,1002,1018,1017,1016,1023,1076,1521,1729,1894,1979,2038,2028,1968,1955,1930,1894,1866,1829,1793,1754,1737,1706,1678,1628,1612,1554,1528,1499,1479,1446,1343,1168,1185,1079,1043,1031,1028,1008,980,947,958,959,968,970,976,975,1010,958,993,969,981,973,973,1023,999,977,979,976,980,999,982,975,968,965,971,954,1054,1054,1043,1091,1083,1607,1766,1942,2023,2052,2073,2017,1998,1974,1938,1900,1880,1833,1808,1789,1719,1713,1662,1634,1599,1577,1515,1491,1323,1387,1204,1190,1103,1086,1059,1061,1038,1008,968,981,975,992,995,1008,1001,1037,984,1022,997,1007,998,997,1027,1026,1006,1004,1008,999,1023,1007,993,998,987,997,980,1478,1482,1497,1586,1775,2438,2627,2775,2844,2874,2860,2794,2759,2723,2675,2620,2588,2539,2513,2466,2387,2361,2294,2251,2213,2080,1720,1713,1733,1701,1598,1580,1543,1528,1457,1422,1379,1390,1344,1360,1363,1373,1375,1391,1380,1416,1363,1401,1376,1386,1377,1376,1406,1405,1385,1383,1387,1378,1402,1386,1372,1377,1366,1376,1359,1523,1523,1519,1614,1844,2537,2720,2860,2927,2950,2917,2863,2836,2803,2759,2694,2662,2612,2555,2540,2465,2417,2355,2315,2144,2143,1783,1785,1776,1724,1656,1602,1586,1553,1529,1526,1483,1494,1448,1464,1467,1477,1479,1495,1484,1520,1467,1505,1480,1490,1481,1480,1510,1509,1489,1487,1491,1482,1506,1490,1476,1481,1470,1480,1463,206,206,207,254,254,264,298,332,366,401,416,410,403,397,390,383,377,370,364,357,350,344,338,332,325,319,312,305,299,292,286,279,272,266,259,255,256,256,196,197,200,204,202,203,200,204,198,205,201,207,198,199,203,254,202,201,203,201,201,202,201,204,196,200,198,1241,1252,1282,1348,1488,1939,2226,2333,2427,2476,2451,2433,2405,2345,2293,2260,2221,2158,2141,2083,2059,2028,1976,1958,1908,1862,1751,1712,1658,1552,1415,1333,1306,1294,1283,1236,1244,1250,1214,1228,1249,1264,1267,1269,1263,1311,1246,1266,1241,1226,1242,1255,1269,1320,1269,1249,1237,1232,1271,1246,1234,1248,1240,1248,1227,800,802,823,824,832,1163,1305,1431,1577,1609,1595,1601,1584,1527,1494,1469,1443,1417,1392,1372,1346,1321,1291,1294,1248,1215,1216,1170,1138,1113,1022,996,848,826,817,805,813,815,778,786,798,805,794,802,784,829,791,816,791,788,789,801,825,868,804,807,802,806,825,808,805,822,800,808,798,572,574,576,577,592,733,903,997,1104,1152,1155,1137,1129,1087,1094,1062,1045,1026,1014,988,972,951,933,916,896,877,864,842,822,804,785,709,692,598,585,588,583,585,576,573,584,576,574,581,579,575,579,590,590,589,587,592,601,599,594,597,588,602,592,589,588,587,591,591,587,1508,1513,1546,1645,1867,2401,2704,2949,3049,3089,3065,3003,2938,2884,2840,2780,2737,2685,2622,2580,2517,2477,2434,2372,2191,2189,2042,1801,1726,1692,1691,1629,1575,1557,1530,1528,1566,1543,1489,1501,1494,1510,1497,1505,1505,1505,1505,1505,1505,1505,1505,1505,1505,1505,1505,1505,1505,1505,1505,1505,1505,1505,1505,1505,1505,320,321,322,323,324,410,465,518,571,625,646,636,627,616,606,596,586,575,565,555,545,534,524,514,504,493,484,474,463,453,443,433,422,412,359,324,325,326,268,272,272,276,275,279,271,271,271,271,271,271,271,271,271,271,271,271,271,271,271,271,271,271,271,271,271,747,749,751,756,895,1123,1274,1354,1448,1491,1555,1469,1446,1422,1398,1375,1350,1326,1303,1279,1255,1232,1207,1183,1160,1170,1112,1089,1064,1026,980,956,792,774,793,758,760,762,773,776,770,774,781,776,769,782,769,789,785,811,793,811,783,811,792,811,787,787,789,811,811,794,791,786,811,757,758,761,766,801,1033,1210,1336,1439,1488,1490,1464,1441,1406,1388,1360,1347,1323,1297,1273,1252,1287,1206,1207,1159,1138,1113,1092,1069,1046,837,837,801,801,771,768,754,730,726,728,726,731,743,762,753,760,745,762,763,757,756,740,745,766,752,745,763,756,741,765,757,770,760,770,753,909,925,927,924,989,1239,1440,1603,1742,1804,1827,1776,1769,1720,1689,1661,1632,1603,1574,1546,1519,1489,1480,1430,1403,1374,1345,1316,1286,1276,1165,1116,960,940,926,934,891,897,874,885,881,889,876,887,883,905,889,896,895,889,900,896,900,903,902,904,913,901,899,906,900,922,901,927,920,606,605,607,612,637,836,942,1061,1157,1189,1208,1175,1171,1152,1130,1114,1095,1076,1058,1038,1009,1049,971,968,933,924,905,880,858,840,824,778,661,646,632,615,617,609,605,608,604,610,611,606,612,610,613,608,610,610,615,616,617,617,614,613,615,616,618,647,618,688,614,613,612,630,632,648,637,657,924,1005,1123,1219,1263,1266,1246,1226,1205,1185,1166,1145,1125,1105,1084,1064,1141,1024,1004,983,963,943,941,903,882,862,842,718,656,672,640,642,633,624,626,624,635,639,666,645,671,649,649,666,649,648,645,650,666,655,648,656,657,648,648,650,657,645,661,650,1719,1716,1774,1906,2235,2978,3129,3267,3311,3319,3307,3230,3150,3137,3090,3020,2976,2905,2871,2843,2755,2480,2197,2104,2166,2073,2010,1982,1908,1915,1845,1816,1778,1772,1761,1752,1722,1722,1721,1735,1734,1735,1749,1743,1748,1756,1751,1754,1755,1759,1763,1751,1755,1766,1769,1754,1766,1767,1750,1766,1767,1787,1773,1775,1758,0,0,0,0,0,0,0,0,0,0,0,0,0,0,0,0,0,0,0,0,0,0,0,0,0,0,0,0,0,0,0,0,0,0,0,0,0,0,0,0,0,0,0,0,0,0,0,0,0,0,0,0,0,0,0,0,0,0,0,0,0,0,0,0,0,899,901,904,907,930,1219,1465,1727,1873,1929,1905,1883,1837,1803,1769,1735,1702,1667,1634,1599,1566,1544,1497,1477,1429,1408,1362,1334,1307,1253,1015,987,959,936,916,913,941,921,863,867,868,871,870,874,866,866,866,866,866,866,866,866,866,866,866,866,866,866,866,866,866,866,866,866,866,931,943,949,951,1020,1431,1595,1720,1810,1877,1870,1839,1783,1783,1717,1692,1670,1636,1603,1596,1546,1611,1482,1457,1428,1400,1367,1359,1307,1132,1025,999,975,977,957,962,936,936,936,939,942,945,955,944,953,957,952,957,959,964,966,960,965,970,975,969,976,970,953,967,971,1001,980,981,964,337,338,339,340,341,387,485,536,588,641,663,653,643,632,622,612,602,592,583,573,563,553,543,533,522,512,502,492,482,429,420,412,403,395,345,342,342,343,299,302,300,307,315,319,307,307,307,307,307,307,307,307,307,307,307,307,307,307,307,307,307,307,307,307,307,86,86,86,106,106,107,122,136,150,165,176,173,170,168,165,162,159,157,154,151,148,146,143,139,137,134,132,128,126,123,121,117,115,112,108,106,106,107,72,72,71,72,72,74,72,72,72,72,72,72,72,72,72,72,72,72,72,72,72,72,72,72,72,72,72,276,277,278,279,279,295,399,445,491,537,561,552,543,534,525,517,508,498,489,480,471,463,454,445,436,427,419,410,401,346,314,306,299,292,285,280,281,282,212,216,217,220,219,223,215,215,215,215,215,215,215,215,215,215,215,215,215,215,215,215,215,215,215,215,215,606,608,611,612,670,850,963,1075,1186,1217,1221,1201,1181,1201,1142,1123,1104,1084,1064,1045,1026,1064,986,966,948,928,908,888,878,850,830,820,697,679,664,616,617,619,614,618,612,628,623,670,620,623,623,621,620,621,615,621,618,614,620,627,623,621,620,621,622,699,629,678,624,1006,1011,1016,1030,1107,1421,1634,1802,1917,1997,1994,1961,1934,1892,1866,1832,1803,1769,1738,1705,1677,1645,1615,1581,1549,1518,1485,1453,1377,1322,1125,1118,1062,1039,1025,1021,981,976,964,975,971,978,966,977,973,995,979,986,985,979,990,986,990,993,992,994,1003,991,989,996,990,1012,991,1006,1003,1057,1061,1105,1087,1178,1516,1738,1906,2042,2098,2116,2060,2048,1993,1957,1924,1891,1856,1823,1789,1758,1725,1713,1659,1625,1592,1557,1524,1489,1406,1179,1165,1124,1091,1078,1086,1036,1042,1019,1030,1026,1034,1021,1032,1028,1050,1034,1041,1040,1034,1045,1041,1045,1048,1047,1049,1058,1046,1044,1051,1045,1067,1046,1072,1065,1027,1031,1037,1053,1135,1461,1678,1846,1961,2040,2035,2003,1992,1939,1904,1872,1839,1806,1773,1741,1711,1678,1665,1613,1581,1549,1514,1482,1448,1376,1147,1134,1080,1060,1046,1043,1008,1014,991,1002,998,1006,993,1004,1000,1022,1006,1013,1012,1006,1017,1013,1017,1020,1019,1021,1030,1018,1016,1023,1017,1039,1018,1044,1037,751,750,786,760,840,1092,1283,1366,1459,1500,1499,1475,1450,1427,1403,1379,1408,1332,1307,1283,1260,1294,1252,1189,1209,1140,1117,1136,1069,1031,983,956,889,778,787,763,765,786,765,772,775,783,785,787,784,784,776,784,784,774,784,784,784,784,784,784,782,779,784,784,777,784,784,784,784,422,423,424,425,428,506,611,675,740,803,820,808,796,784,772,760,748,735,722,710,698,686,674,662,650,638,624,612,600,547,536,526,515,505,453,427,448,432,371,373,372,380,387,391,380,380,380,380,380,380,380,380,380,380,380,380,380,380,380,380,380,380,380,380,380,1112,1124,1130,1145,1264,1762,1969,2089,2167,2184,2208,2143,2116,2103,2039,2002,1978,1933,1904,1863,1835,1894,1761,1728,1695,1643,1588,1519,1463,1339,1232,1184,1158,1157,1139,1127,1094,1087,1089,1098,1091,1098,1109,1104,1107,1117,1110,1113,1119,1124,1125,1117,1116,1129,1130,1119,1132,1130,1111,1127,1130,1155,1140,1142,1125,373,374,375,376,378,428,548,610,674,737,756,744,732,720,708,696,685,673,661,649,636,624,612,600,588,576,564,552,540,528,515,454,444,433,422,378,379,416,353,332,333,337,349,346,345,345,345,345,345,345,345,345,345,345,345,345,345,345,345,345,345,345,345,345,345,851,855,897,862,909,1147,1335,1492,1634,1697,1722,1672,1667,1619,1590,1564,1537,1509,1482,1455,1446,1400,1392,1345,1319,1292,1264,1237,1209,1201,1145,1043,901,882,867,864,855,861,838,849,845,853,840,851,847,869,853,860,859,853,864,860,864,867,866,868,877,865,863,870,864,886,865,891,884,936,939,946,954,994,1290,1497,1663,1781,1863,1863,1832,1824,1774,1741,1713,1683,1653,1622,1593,1565,1535,1525,1474,1446,1416,1386,1323,1311,1266,1146,1110,989,969,967,951,922,928,905,916,914,922,909,920,916,938,922,930,929,923,934,930,934,937,936,939,948,936,934,941,935,957,937,963,956,646,648,649,651,668,892,1002,1111,1219,1252,1256,1237,1218,1238,1180,1161,1142,1124,1104,1085,1067,1106,1028,1009,1003,972,953,933,925,907,877,866,743,671,699,655,657,646,638,639,642,648,638,662,649,656,651,657,652,648,655,652,656,665,666,656,650,658,653,663,658,652,657,658,657,540,541,542,548,559,731,818,922,1009,1054,1060,1043,1026,1010,994,977,960,944,928,911,945,878,862,849,830,814,798,783,764,749,743,717,699,566,554,551,552,518,514,517,523,527,525,527,524,524,523,527,527,525,532,531,533,530,529,533,536,531,531,538,529,527,527,527,527,274,275,276,276,277,353,394,435,476,517,531,523,515,508,500,492,485,477,468,460,453,445,437,430,422,414,407,399,391,383,376,368,360,353,281,278,279,279,266,272,273,279,277,278,272,279,269,339,271,270,277,277,339,339,339,278,279,273,282,279,279,339,271,278,271,1683,1727,1764,1909,2372,3059,3208,3345,3387,3402,3379,3303,3222,3209,3159,3087,3042,2971,2936,2886,2831,2785,2496,2152,2242,2106,2056,2003,1950,1940,1831,1776,1737,1722,1716,1736,1747,1757,1744,1749,1765,1772,1783,1776,1781,1789,1784,1787,1788,1792,1796,1784,1788,1799,1802,1787,1801,1800,1783,1799,1800,1802,1802,1802,1794,752,755,757,760,768,993,1204,1392,1485,1524,1522,1498,1474,1477,1425,1400,1376,1351,1327,1303,1279,1321,1229,1205,1203,1157,1133,1108,1083,1058,1012,983,810,787,767,764,769,777,713,716,722,739,723,742,721,721,721,721,721,721,721,721,721,721,721,721,721,721,721,721,721,721,721,721,721,1003,995,995,1010,1121,1501,1670,1840,1944,1972,1949,1920,1897,1866,1831,1814,1767,1739,1712,1688,1643,1671,1604,1560,1521,1490,1458,1422,1416,1349,1091,1097,1040,1020,1021,1007,1004,978,970,974,973,977,989,1003,996,997,997,997,997,997,997,991,997,996,997,997,997,997,995,994,994,994,994,994,994,1508,1513,1546,1645,1867,2401,2704,2949,3049,3089,3065,3003,2938,2884,2840,2780,2737,2685,2622,2580,2517,2477,2434,2372,2191,2189,2042,1801,1726,1692,1691,1629,1575,1557,1530,1528,1566,1543,1489,1501,1494,1510,1497,1505,1505,1505,1505,1505,1505,1505,1505,1505,1505,1505,1505,1505,1505,1505,1505,1505,1505,1505,1505,1505,1505,630,620,633,632,654,836,973,1072,1182,1235,1239,1233,1200,1180,1160,1174,1120,1101,1081,1062,1042,1023,1034,983,963,943,937,904,900,896,723,707,722,643,630,627,629,630,629,622,626,639,626,639,627,631,654,630,633,632,649,632,630,645,632,635,633,635,657,650,658,668,650,670,666,783,800,787,792,891,1193,1389,1566,1673,1702,1700,1669,1639,1634,1569,1538,1512,1482,1447,1421,1396,1357,1336,1285,1266,1235,1228,1174,1144,1123,970,861,837,873,815,796,789,787,804,780,785,784,793,789,791,803,790,791,797,795,798,800,804,803,810,801,808,807,805,800,807,810,809,830,816,972,974,977,998,1087,1451,1722,1891,2021,2032,2005,1898,1935,1943,1915,1779,1812,1768,1735,1663,1631,1654,1618,1589,1546,1510,1453,1437,1357,1284,1250,1206,1028,1003,989,989,993,1005,1011,1042,997,1007,1025,1011,1019,1032,1023,1023,1084,1023,1028,1038,1041,1044,1025,1089,1083,1044,1087,1016,1036,1045,1085,1026,1024,511,512,515,518,520,623,759,851,936,1013,1031,1016,999,983,965,955,932,916,901,885,868,851,833,817,802,793,769,753,737,719,703,628,650,536,524,519,522,480,425,421,422,448,437,440,425,431,430,443,440,435,437,428,438,442,451,439,431,437,429,441,432,430,433,432,430,667,671,672,673,680,891,1038,1144,1273,1331,1358,1322,1303,1292,1278,1235,1216,1202,1162,1151,1132,1120,1089,1078,1045,1025,1001,981,956,945,903,816,760,706,689,682,687,673,606,604,602,611,602,611,602,606,607,607,606,607,609,604,610,612,614,605,608,609,607,613,607,607,608,608,606,535,529,530,531,532,664,812,907,973,1063,1026,1013,999,1028,972,979,955,938,921,905,916,870,854,821,807,820,763,763,746,729,713,706,612,573,557,553,558,524,500,498,501,512,503,512,503,506,508,509,505,510,508,505,513,514,514,505,508,518,508,514,509,507,510,509,507,538,540,541,543,555,636,839,920,1015,1098,1085,1067,1050,1068,1014,1002,984,966,949,931,942,895,879,862,844,844,810,799,792,782,746,728,601,581,572,568,561,554,516,512,514,529,516,530,521,527,520,524,532,532,520,519,525,538,529,522,525,534,523,528,525,523,526,525,523,964,963,965,969,1064,1300,1604,1746,1863,1914,1904,1873,1809,1802,1781,1751,1709,1681,1648,1607,1606,1553,1536,1504,1475,1442,1423,1391,1353,1252,1156,1045,985,1000,977,986,972,968,932,930,928,937,928,937,928,932,933,933,932,933,935,930,936,938,940,931,934,935,933,939,933,933,934,934,932,953,959,963,966,991,1300,1591,1800,1866,1940,1892,1868,1837,1829,1782,1751,1720,1689,1659,1629,1634,1547,1536,1503,1474,1471,1426,1366,1299,1318,1190,1071,1027,999,987,986,986,928,902,907,906,921,913,930,903,928,907,925,908,910,916,915,927,924,928,912,910,917,925,924,906,906,911,910,903,0,0,0,0,0,0,0,0,0,0,0,0,0,0,0,0,0,0,0,0,0,0,0,0,0,0,0,0,0,0,0,0,0,0,0,0,0,0,0,0,0,0,0,0,0,0,0,0,0,0,0,0,0,0,0,0,0,0,0,0,0,0,0,0,0,392,392,394,395,397,478,570,636,709,767,788,777,765,752,740,728,715,702,690,677,671,659,640,627,611,602,590,584,565,553,541,496,486,453,402,397,398,400,339,337,335,344,335,344,335,339,340,340,339,340,342,337,343,345,347,338,341,342,340,346,340,340,341,341,339,941,943,939,951,1045,1459,1686,1882,1982,2008,1977,1956,1920,1889,1853,1836,1772,1755,1710,1699,1640,1593,1558,1527,1499,1465,1419,1383,1307,1277,1113,1050,999,972,957,956,885,883,890,895,897,901,911,923,931,937,901,937,906,899,907,913,913,907,943,929,900,898,911,901,895,907,907,912,898,918,927,924,939,1024,1366,1645,1826,1926,1956,1940,1906,1871,1842,1806,1820,1736,1701,1667,1694,1599,1565,1529,1490,1463,1429,1394,1355,1326,1296,1192,1115,991,948,972,940,926,925,932,947,941,962,955,972,946,969,944,968,948,946,953,957,963,952,971,953,953,947,957,950,941,948,953,952,945,736,738,740,744,826,1115,1300,1472,1580,1612,1602,1574,1544,1520,1490,1588,1433,1406,1370,1480,1312,1283,1255,1218,1196,1168,1138,1109,1081,1051,1025,960,907,765,750,749,754,751,758,772,765,844,781,818,827,847,770,846,774,765,777,780,783,774,831,850,770,767,779,770,766,779,781,786,772,493,469,471,473,478,638,742,833,894,983,950,936,920,947,890,875,859,842,829,814,836,782,766,751,737,754,706,723,707,695,675,660,610,596,502,519,499,480,466,458,457,467,461,463,462,459,464,463,459,464,467,464,468,470,474,464,462,473,462,468,465,466,469,463,463,703,694,703,712,717,867,1086,1177,1326,1386,1372,1382,1322,1336,1334,1294,1270,1232,1232,1208,1160,1164,1143,1120,1071,1068,1047,969,924,879,812,843,771,749,724,721,724,695,615,608,609,632,620,629,611,619,623,628,627,628,630,625,631,633,635,626,629,630,628,630,624,622,625,624,622,778,776,782,791,809,1009,1225,1375,1493,1555,1540,1532,1475,1490,1459,1434,1424,1371,1363,1328,1299,1289,1256,1249,1196,1183,1173,1135,1123,1072,935,913,837,817,801,806,802,770,702,698,698,707,698,707,698,702,703,703,702,703,705,700,706,708,710,701,704,705,703,709,703,703,704,704,702,746,734,746,753,765,949,1158,1257,1408,1466,1450,1460,1398,1418,1402,1366,1347,1301,1300,1269,1226,1228,1199,1182,1138,1131,1104,1089,1056,1008,887,862,823,781,765,758,767,729,661,657,657,666,657,666,657,661,662,662,661,662,664,659,665,667,669,660,663,664,662,668,662,662,663,663,661,486,479,481,483,488,667,755,843,915,1009,964,949,926,970,926,900,872,841,841,826,848,808,792,765,762,767,719,743,720,704,688,672,656,523,512,537,517,485,460,466,465,487,476,490,469,487,473,483,473,472,477,478,492,489,490,477,474,482,489,488,475,472,473,475,465,963,962,968,972,1046,1510,1795,1977,2040,2113,2094,1965,1928,1960,1921,1883,1819,1780,1768,1733,1664,1625,1633,1577,1538,1500,1461,1437,1386,1341,1221,1127,1086,990,992,977,957,954,962,968,969,978,984,992,997,1010,981,1001,980,972,980,990,986,980,1008,1005,973,970,984,975,968,984,980,985,971,378,379,380,401,402,452,558,609,671,772,754,788,730,718,708,696,683,701,661,651,657,645,615,603,592,589,577,617,603,542,555,510,465,453,421,403,403,399,349,347,345,354,345,354,345,349,350,350,349,350,352,347,353,355,357,348,351,352,350,356,350,350,351,351,349,1051,1053,1056,1093,1184,1679,1924,2097,2196,2217,2198,2159,2119,2085,2045,2131,1971,1936,1894,1984,1813,1775,1736,1691,1659,1621,1582,1542,1402,1201,1171,1260,1109,1082,1068,1068,1061,1057,1063,1078,1071,1150,1088,1126,1137,1156,1085,1152,1095,1078,1157,1101,1157,1089,1146,1156,1087,1091,1097,1083,1140,1090,1095,1100,1086,652,654,655,656,664,851,1013,1119,1244,1300,1318,1296,1276,1260,1244,1207,1191,1175,1138,1126,1105,1095,1064,1053,1021,1000,919,958,877,868,828,809,780,688,673,666,668,656,591,587,586,596,587,596,587,591,592,592,591,592,594,589,595,597,599,590,593,594,592,598,592,592,593,593,591,653,655,657,657,666,870,1015,1120,1248,1305,1332,1296,1279,1272,1254,1227,1192,1183,1140,1129,1109,1099,1067,1058,1023,1004,982,961,952,871,851,790,756,689,674,667,670,667,599,597,595,604,595,604,595,599,600,600,599,600,602,597,603,605,607,598,601,602,600,606,600,600,601,601,599,493,488,504,491,496,589,762,839,872,963,932,919,906,935,878,892,852,863,826,833,856,803,787,775,760,776,728,744,729,708,621,608,595,532,521,522,518,498,461,459,459,473,465,471,465,474,463,472,470,478,468,465,472,476,474,468,474,480,469,473,470,468,471,470,468,904,889,883,894,964,1178,1464,1636,1718,1783,1744,1713,1704,1715,1650,1590,1570,1538,1506,1489,1521,1445,1417,1383,1366,1368,1308,1273,1237,1041,1012,995,969,937,912,941,857,802,791,785,787,796,787,791,789,787,794,793,790,816,820,819,804,800,801,793,793,801,789,797,793,795,798,790,790,931,925,926,930,976,1256,1559,1732,1817,1863,1824,1801,1772,1782,1712,1665,1653,1600,1580,1543,1566,1513,1488,1453,1415,1418,1363,1367,1240,1216,1133,1079,1002,972,952,979,959,906,895,889,891,900,891,895,893,891,898,897,894,920,924,923,908,904,905,897,897,905,893,901,897,899,902,894,894,1103,1107,1104,1110,1227,1530,1887,2005,2129,2177,2130,2126,2030,2048,1995,1992,1942,1910,1873,1824,1826,1776,1756,1708,1686,1637,1614,1520,1476,1361,1229,1160,1124,1113,1102,1125,1111,1104,1068,1066,1064,1073,1064,1073,1064,1068,1069,1069,1068,1069,1071,1066,1072,1074,1076,1067,1070,1071,1069,1075,1069,1069,1070,1070,1068,467,468,469,471,517,520,755,804,888,935,940,926,910,896,881,866,855,841,822,810,793,777,763,748,733,719,704,689,674,660,644,515,504,491,477,474,475,477,471,477,473,487,500,517,499,506,501,500,503,506,507,490,505,520,507,492,501,513,492,517,512,507,519,508,503,189,190,190,191,213,243,275,305,337,368,383,378,371,366,359,354,348,342,336,330,324,317,312,305,300,293,288,281,276,269,264,257,251,246,239,235,236,236,139,137,135,144,135,144,135,139,140,140,139,140,142,137,143,145,147,138,141,142,140,146,140,140,141,141,139,630,620,633,632,654,836,973,1072,1182,1235,1239,1233,1200,1180,1160,1174,1120,1101,1081,1062,1042,1023,1034,983,963,943,937,904,900,896,723,707,722,643,630,627,629,630,629,622,626,639,626,639,627,631,654,630,633,632,649,632,630,645,632,635,633,635,657,650,658,668,650,670,666,791,806,809,787,799,1033,1259,1402,1567,1532,1548,1519,1539,1518,1453,1407,1398,1421,1346,1321,1311,1271,1273,1262,1218,1192,1161,1113,1043,1058,977,936,850,835,786,790,786,801,767,767,767,767,767,767,767,767,767,767,767,767,767,767,767,767,767,767,767,767,767,767,767,767,767,767,767,1012,1015,1017,1025,1116,1425,1759,2004,2107,2144,2144,2110,2075,2029,1999,1961,1932,1878,1840,1812,1762,1728,1679,1643,1611,1566,1528,1495,1454,1323,1148,1111,1065,1059,1043,1044,1038,1038,931,931,931,931,931,931,931,931,931,931,931,931,931,931,931,931,931,931,931,931,931,931,931,931,931,931,931,1167,1206,1191,1238,1277,1688,2030,2173,2255,2295,2286,2266,2217,2187,2148,2111,2085,2078,2033,1962,1938,1906,1871,1807,1777,1762,1665,1604,1523,1360,1320,1304,1252,1246,1216,1236,1225,1220,1135,1135,1135,1135,1135,1135,1135,1135,1135,1135,1135,1135,1135,1135,1135,1135,1135,1135,1135,1135,1135,1135,1135,1135,1135,1135,1135,361,363,364,365,370,418,520,585,650,715,738,728,716,704,691,679,667,657,644,633,621,609,597,585,572,560,549,539,526,514,502,492,406,396,375,369,372,372,215,215,215,215,215,215,215,215,215,215,215,215,215,215,215,215,215,215,215,215,215,215,215,215,215,215,215,421,423,423,435,439,502,627,707,786,833,849,834,825,809,795,792,767,757,743,729,716,701,692,673,656,653,638,624,606,570,589,579,563,452,430,438,437,434,367,367,367,367,367,367,367,367,367,367,367,367,367,367,367,367,367,367,367,367,367,367,367,367,367,367,367,405,407,407,410,412,448,592,661,742,806,829,813,800,797,783,759,762,749,737,706,699,682,670,653,642,628,617,603,587,575,560,457,445,435,416,418,413,420,309,309,309,309,309,309,309,309,309,309,309,309,309,309,309,309,309,309,309,309,309,309,309,309,309,309,309,422,423,423,425,430,481,616,689,760,831,855,842,829,815,799,787,775,761,746,733,719,707,693,678,665,651,638,627,610,597,583,569,490,443,433,429,430,432,328,328,328,328,328,328,328,328,328,328,328,328,328,328,328,328,328,328,328,328,328,328,328,328,328,328,328,807,810,813,773,859,1003,1271,1420,1537,1590,1600,1562,1545,1507,1505,1460,1439,1422,1390,1382,1334,1321,1286,1262,1249,1207,1192,1161,1131,1106,897,863,876,826,839,808,816,838,786,786,786,786,786,786,786,786,786,786,786,786,786,786,786,786,786,786,786,786,786,786,786,786,786,786,786,908,908,913,910,954,1229,1430,1620,1711,1776,1792,1754,1724,1706,1673,1651,1627,1598,1567,1537,1518,1488,1460,1437,1406,1375,1350,1315,1289,1222,1006,994,963,942,919,922,920,906,800,800,800,800,800,800,800,800,800,800,800,800,800,800,800,800,800,800,800,800,800,800,800,800,800,800,800,470,471,473,476,477,521,710,783,861,924,929,928,900,893,877,863,855,834,819,811,791,778,767,744,741,724,699,689,675,664,526,512,522,491,487,477,478,482,387,387,387,387,387,387,387,387,387,387,387,387,387,387,387,387,387,387,387,387,387,387,387,387,387,387,387,0,0,0,0,0,0,0,0,0,0,0,0,0,0,0,0,0,0,0,0,0,0,0,0,0,0,0,0,0,0,0,0,0,0,0,0,0,0,0,0,0,0,0,0,0,0,0,0,0,0,0,0,0,0,0,0,0,0,0,0,0,0,0,0,0,1154,1163,1160,1177,1223,1612,1866,2082,2225,2287,2287,2256,2218,2180,2136,2108,2069,2037,2000,1960,1925,1886,1842,1817,1778,1739,1703,1658,1538,1330,1303,1244,1224,1196,1180,1141,1133,1138,1040,1040,1040,1040,1040,1040,1040,1040,1040,1040,1040,1040,1040,1040,1040,1040,1040,1040,1040,1040,1040,1040,1040,1040,1040,1040,1040,948,948,953,950,1000,1293,1503,1700,1789,1853,1867,1829,1797,1779,1744,1721,1695,1664,1633,1602,1580,1549,1521,1497,1465,1432,1406,1370,1343,1073,1051,1035,1016,982,960,963,960,947,841,841,841,841,841,841,841,841,841,841,841,841,841,841,841,841,841,841,841,841,841,841,841,841,841,841,841,966,969,971,974,1095,1346,1673,1908,2016,2054,2059,2022,1994,1946,1918,1885,1843,1801,1762,1731,1688,1656,1609,1573,1546,1500,1464,1432,1393,1266,1099,1066,1018,1012,997,997,1002,1006,908,908,908,908,908,908,908,908,908,908,908,908,908,908,908,908,908,908,908,908,908,908,908,908,908,908,908,459,460,462,462,456,501,647,718,788,856,882,869,854,841,826,815,803,788,775,761,748,735,721,708,695,683,670,654,641,629,614,540,493,490,474,467,474,449,348,348,348,348,348,348,348,348,348,348,348,348,348,348,348,348,348,348,348,348,348,348,348,348,348,348,348,393,412,392,377,379,423,572,633,711,753,784,771,750,735,778,722,718,666,693,644,650,638,620,638,617,612,586,583,561,536,506,525,436,412,401,380,381,409,335,335,335,335,335,335,335,335,335,335,335,335,335,335,335,335,335,335,335,335,335,335,335,335,335,335,335,469,470,464,466,469,592,704,772,852,910,948,933,899,873,879,855,849,812,825,784,777,764,754,750,733,704,695,690,669,646,648,622,575,507,459,468,469,478,410,410,410,410,410,410,410,410,410,410,410,410,410,410,410,410,410,410,410,410,410,410,410,410,410,410,410,432,434,428,417,419,488,641,705,782,836,866,851,831,814,823,795,794,744,763,713,719,704,684,693,673,655,641,638,618,591,597,578,488,482,441,419,431,437,369,369,369,369,369,369,369,369,369,369,369,369,369,369,369,369,369,369,369,369,369,369,369,369,369,369,369,631,632,634,636,652,765,966,1091,1195,1245,1275,1249,1228,1214,1194,1159,1153,1124,1113,1092,1064,1052,1016,1012,992,964,943,938,910,883,838,712,697,666,666,655,656,643,538,538,538,538,538,538,538,538,538,538,538,538,538,538,538,538,538,538,538,538,538,538,538,538,538,538,538,1154,1144,1164,1209,1325,1756,2026,2242,2380,2439,2436,2403,2363,2323,2277,2242,2198,2142,2123,2063,2004,2012,1966,1859,1833,1824,1755,1705,1580,1432,1287,1266,1225,1188,1187,1189,1204,1208,1108,1108,1108,1108,1108,1108,1108,1108,1108,1108,1108,1108,1108,1108,1108,1108,1108,1108,1108,1108,1108,1108,1108,1108,1108,1108,1108,189,190,191,191,192,199,275,306,339,370,387,380,375,368,363,356,350,344,338,332,325,320,313,308,301,295,289,283,277,221,216,211,207,201,197,193,193,194,158,158,158,158,158,158,158,158,158,158,158,158,158,158,158,158,158,158,158,158,158,158,158,158,158,158,158,1205,1204,1213,1249,1302,1761,1990,2171,2325,2398,2384,2352,2314,2263,2226,2193,2158,2117,2088,2038,2003,1957,1917,1880,1851,1795,1746,1517,1503,1405,1338,1291,1269,1242,1227,1238,1231,1207,1103,1103,1103,1103,1103,1103,1103,1103,1103,1103,1103,1103,1103,1103,1103,1103,1103,1103,1103,1103,1103,1103,1103,1103,1103,1103,1103,422,424,426,427,433,460,603,698,773,842,859,847,815,800,806,783,778,748,750,720,707,691,680,679,660,639,626,595,610,491,521,508,490,447,436,432,433,429,352,352,352,352,352,352,352,352,352,352,352,352,352,352,352,352,352,352,352,352,352,352,352,352,352,352,352,357,358,359,360,361,437,517,583,645,706,726,713,684,671,679,658,656,629,632,603,592,581,573,574,558,541,529,528,517,491,493,481,470,443,366,362,363,364,307,307,307,307,307,307,307,307,307,307,307,307,307,307,307,307,307,307,307,307,307,307,307,307,307,307,307,384,385,386,387,389,421,556,618,680,744,772,760,748,735,721,711,700,687,675,663,651,640,627,614,602,590,578,566,554,542,528,432,421,413,395,390,391,376,269,269,269,269,269,269,269,269,269,269,269,269,269,269,269,269,269,269,269,269,269,269,269,269,269,269,269,803,809,810,806,829,929,1243,1377,1521,1579,1589,1561,1532,1510,1481,1462,1442,1412,1385,1353,1342,1306,1290,1271,1253,1220,1195,1168,1074,1064,1027,946,859,852,832,835,769,752,646,646,646,646,646,646,646,646,646,646,646,646,646,646,646,646,646,646,646,646,646,646,646,646,646,646,646,846,857,855,852,902,1136,1333,1518,1628,1673,1680,1658,1633,1615,1573,1572,1531,1489,1474,1441,1427,1400,1380,1344,1317,1295,1274,1233,1218,1093,993,966,907,896,868,862,875,856,750,750,750,750,750,750,750,750,750,750,750,750,750,750,750,750,750,750,750,750,750,750,750,750,750,750,750,849,853,855,818,908,1218,1348,1505,1619,1671,1679,1640,1622,1582,1581,1534,1508,1494,1459,1451,1401,1387,1351,1325,1311,1268,1253,1219,1189,1162,1048,942,919,869,882,851,863,871,819,819,819,819,819,819,819,819,819,819,819,819,819,819,819,819,819,819,819,819,819,819,819,819,819,819,819,663,664,666,672,693,836,1023,1144,1256,1324,1332,1314,1289,1267,1246,1228,1203,1182,1166,1139,1118,1096,1078,1060,1039,1012,991,969,948,926,895,789,757,697,675,673,675,676,571,571,571,571,571,571,571,571,571,571,571,571,571,571,571,571,571,571,571,571,571,571,571,571,571,571,571,295,296,297,299,305,350,430,478,524,570,593,579,577,566,553,544,540,526,517,508,500,508,485,468,459,455,445,433,424,417,371,364,325,348,310,299,300,301,205,205,205,205,205,205,205,205,205,205,205,205,205,205,205,205,205,205,205,205,205,205,205,205,205,205,205,791,806,809,787,799,1033,1259,1402,1567,1532,1548,1519,1539,1518,1453,1407,1398,1421,1346,1321,1311,1271,1273,1262,1218,1192,1161,1113,1043,1058,977,936,850,835,786,790,786,801,767,767,767,767,767,767,767,767,767,767,767,767,767,767,767,767,767,767,767,767,767,767,767,767,767,767,767,1510,1496,1510,1645,1851,2427,2704,2901,2990,2996,2991,2920,2864,2825,2782,2787,2663,2612,2637,2523,2511,2418,2415,2316,2258,2207,2006,1736,1687,1678,1636,1583,1560,1527,1497,1506,1501,1506,1480,1495,1486,1508,1495,1504,1504,1505,1502,1499,1505,1499,1497,1514,1501,1508,1502,1504,1511,1518,1518,1517,1512,1540,1518,1522,1518,332,333,333,334,335,411,490,546,601,655,680,665,654,644,633,626,615,596,595,575,564,563,543,532,522,511,501,490,479,482,458,448,437,426,341,336,337,338,311,313,314,320,313,320,314,318,315,313,320,319,313,316,325,332,318,314,322,318,317,316,318,317,317,317,317,661,663,666,667,693,935,1059,1183,1281,1326,1328,1307,1285,1265,1244,1222,1201,1180,1158,1137,1116,1095,1073,1052,1031,1009,988,968,946,925,904,882,861,687,676,671,675,675,670,657,663,662,663,673,664,669,666,677,687,685,679,685,686,717,687,692,678,690,692,713,717,760,718,766,755,960,963,966,985,1047,1416,1577,1767,1863,1917,1908,1877,1846,1816,1786,1755,1724,1695,1664,1648,1602,1588,1542,1511,1572,1450,1420,1389,1389,1299,1157,1094,1068,991,977,975,977,980,980,980,983,988,984,990,996,1009,996,1000,993,996,994,995,1002,1001,1007,1027,1008,1008,1010,1004,1004,1003,1003,1003,1003,1061,1057,1056,1099,1164,1546,1771,1936,2048,2088,2071,2037,2022,1988,1937,1904,1874,1840,1823,1809,1756,1724,1694,1641,1624,1575,1556,1540,1507,1197,1168,1128,1131,1081,1067,1077,1034,1040,1029,1025,1029,1031,1029,1041,1024,1042,1034,1042,1064,1047,1040,1052,1045,1062,1059,1057,1053,1052,1051,1058,1057,1051,1051,1051,1051,911,913,913,924,977,1319,1470,1643,1731,1794,1773,1760,1717,1703,1685,1649,1607,1604,1562,1544,1524,1499,1448,1435,1392,1364,1328,1298,1272,1242,1109,1046,954,930,918,925,922,930,886,885,886,892,893,899,901,905,903,904,906,904,907,908,908,907,916,916,915,928,918,913,911,928,928,928,928,935,938,945,952,1007,1364,1597,1706,1806,1851,1868,1813,1808,1754,1736,1711,1666,1651,1608,1602,1596,1541,1490,1476,1431,1401,1385,1343,1313,1283,1161,1067,983,975,946,966,955,956,936,940,935,947,944,943,950,957,949,939,952,959,960,944,948,952,953,951,950,957,943,953,943,972,971,969,962,1490,1501,1561,1668,2247,2790,3185,3376,3512,3528,3482,3395,3337,3271,3212,3139,3067,2975,2889,2831,2758,2678,2501,2465,2352,2281,2211,1851,1773,1723,1714,1626,1562,1537,1512,1523,1551,1563,1633,1632,1633,1634,1633,1638,1634,1640,1640,1634,1641,1633,1635,1634,1634,1638,1634,1634,1634,1637,1634,1633,1634,1635,1634,1638,1634,556,558,558,560,569,744,833,922,1011,1075,1092,1076,1048,1031,1016,999,983,966,950,933,918,902,885,869,852,836,830,804,787,771,754,738,592,578,567,564,565,582,543,542,544,547,552,548,551,561,555,550,554,551,549,555,563,572,571,573,564,579,556,548,558,546,546,546,546,892,864,865,881,910,1265,1484,1684,1810,1842,1831,1799,1766,1734,1701,1727,1636,1604,1639,1540,1559,1475,1488,1410,1377,1345,1362,1280,1247,1215,1138,1071,955,900,880,876,881,884,861,866,861,872,873,877,872,882,869,867,876,868,867,876,876,880,874,874,876,871,876,875,865,877,876,880,876,1178,1185,1204,1247,1346,1850,2119,2320,2387,2418,2426,2402,2343,2294,2253,2231,2177,2151,2109,2082,2067,1971,1966,1886,1864,1834,1760,1716,1569,1422,1304,1303,1284,1218,1206,1191,1182,1189,1160,1172,1172,1175,1170,1179,1175,1181,1181,1175,1182,1174,1176,1175,1175,1179,1175,1175,1175,1178,1175,1174,1175,1176,1175,1179,1175,0,0,0,0,0,0,0,0,0,0,0,0,0,0,0,0,0,0,0,0,0,0,0,0,0,0,0,0,0,0,0,0,0,0,0,0,0,0,0,0,0,0,0,0,0,0,0,0,0,0,0,0,0,0,0,0,0,0,0,0,0,0,0,0,0,360,360,361,362,367,464,523,581,639,698,709,698,687,676,652,654,643,647,621,610,599,588,577,566,555,544,533,521,509,499,497,487,431,372,363,368,369,369,337,337,336,338,343,351,345,355,348,351,352,350,345,342,344,365,359,344,347,344,341,348,346,352,352,361,357,288,288,289,290,291,363,422,472,519,567,589,580,570,562,552,537,529,519,510,500,491,482,473,464,454,445,436,426,418,420,399,390,380,371,357,328,329,330,284,268,268,269,274,278,271,278,272,273,278,272,276,275,274,279,276,275,274,276,274,282,274,273,273,273,273,911,913,916,926,979,1328,1497,1664,1759,1831,1798,1769,1741,1712,1697,1670,1625,1611,1568,1568,1550,1511,1454,1439,1395,1367,1348,1310,1284,1201,1180,1108,946,934,922,928,930,949,905,910,915,914,917,928,915,927,921,924,925,915,913,923,919,906,916,923,919,924,921,918,915,915,915,915,915,1099,1103,1109,1122,1195,1646,1956,2133,2241,2278,2257,2221,2201,2149,2110,2075,2043,2005,1987,1968,1913,1876,1845,1788,1753,1715,1680,1664,1624,1328,1296,1225,1161,1162,1112,1130,1124,1130,1109,1109,1113,1112,1114,1125,1114,1132,1124,1125,1134,1121,1125,1126,1128,1132,1129,1129,1129,1132,1130,1129,1130,1131,1130,1134,1130,976,979,990,991,1253,1436,1730,1957,2104,2178,2169,2128,2091,2047,2006,1965,1933,1884,1852,1810,1763,1722,1690,1641,1607,1559,1519,1486,1437,1395,1304,1278,1043,1039,994,989,1006,1003,980,978,982,983,983,994,994,1001,999,993,1002,994,993,993,995,999,995,995,995,998,995,994,995,996,995,999,995,1041,1044,1056,1063,1168,1588,1863,2086,2231,2308,2298,2260,2208,2162,2148,2086,2044,1993,1959,1916,1873,1822,1789,1736,1703,1652,1609,1576,1524,1356,1203,1179,1108,1105,1060,1055,1071,1069,1053,1052,1056,1057,1048,1065,1062,1066,1073,1066,1073,1071,1069,1069,1072,1073,1069,1069,1069,1075,1069,1070,1069,1070,1069,1073,1069,781,775,785,789,843,1118,1334,1549,1676,1667,1674,1672,1614,1584,1576,1578,1494,1479,1502,1420,1416,1334,1348,1274,1256,1238,1217,1167,1157,1091,1050,917,884,820,799,794,787,797,750,757,764,769,766,773,766,775,766,769,772,760,765,768,768,771,769,768,764,769,768,768,760,760,760,760,760,87,87,87,87,107,108,119,132,143,155,165,162,160,157,155,152,150,148,146,144,141,139,137,135,133,129,127,125,123,121,118,116,114,112,110,107,107,107,72,71,72,73,72,77,73,79,79,73,80,72,74,73,73,77,73,73,73,76,73,72,73,74,73,77,73,1221,1224,1239,1256,1425,1909,2206,2395,2491,2515,2484,2455,2453,2366,2333,2359,2236,2185,2216,2123,2115,2022,2039,1975,1892,1863,1809,1742,1631,1382,1348,1313,1296,1269,1250,1250,1210,1213,1170,1184,1184,1186,1180,1190,1186,1191,1192,1185,1192,1184,1187,1186,1186,1190,1186,1186,1186,1189,1185,1186,1185,1187,1186,1190,1186,337,338,339,341,342,365,499,558,615,672,686,675,664,662,642,631,620,609,598,587,576,565,554,544,542,522,511,500,489,478,382,373,364,355,346,342,343,344,321,314,323,331,328,331,320,324,331,335,334,330,332,343,342,368,358,332,322,336,324,328,316,329,329,329,329,1006,999,999,1033,1083,1449,1660,1828,1941,1983,1967,1935,1921,1889,1840,1809,1779,1746,1731,1718,1667,1636,1609,1557,1542,1494,1477,1463,1430,1122,1095,1069,1072,1022,1010,1018,998,1004,993,989,993,995,993,1005,988,1006,998,1006,1028,1011,1004,1016,1009,1026,1023,1021,1017,1016,1015,1022,1021,1015,1015,1015,1015,1078,1084,1087,1125,1206,1599,1816,1996,2107,2145,2127,2092,2061,2027,1989,1955,1925,1890,1871,1856,1802,1769,1738,1684,1652,1616,1595,1529,1494,1235,1206,1157,1130,1109,1096,1106,1065,1071,1060,1056,1062,1064,1062,1074,1057,1075,1067,1076,1098,1081,1074,1086,1079,1096,1093,1092,1088,1087,1086,1093,1092,1086,1086,1086,1086,950,953,956,964,1017,1367,1533,1698,1794,1868,1834,1807,1778,1750,1744,1708,1665,1652,1609,1609,1592,1552,1508,1482,1439,1411,1393,1359,1330,1280,1159,1060,986,983,962,967,956,964,924,931,934,937,940,947,939,950,940,943,947,938,940,946,945,930,940,943,938,943,942,943,934,936,936,936,936,786,794,791,806,847,1115,1267,1414,1535,1579,1640,1549,1537,1500,1501,1449,1449,1399,1387,1410,1334,1296,1270,1258,1233,1197,1173,1169,1121,1096,883,913,842,822,810,807,785,785,761,755,762,764,763,767,767,774,770,770,778,772,777,769,774,781,775,778,781,771,767,777,777,779,779,779,779,578,579,580,585,597,772,910,1016,1058,1139,1127,1139,1121,1103,1045,1093,1074,1020,1015,971,979,980,961,942,924,877,886,832,815,798,791,746,646,596,584,589,591,627,573,576,577,581,580,589,601,594,585,583,592,594,591,594,598,601,584,586,590,587,586,584,585,584,584,584,584,1440,1443,1466,1592,2123,2586,3001,3199,3346,3335,3327,3247,3183,3142,3088,2952,2902,2836,2745,2697,2622,2545,2487,2421,2354,2287,2182,2098,1886,1651,1592,1568,1512,1492,1450,1455,1487,1486,1501,1496,1501,1502,1501,1506,1502,1508,1508,1502,1509,1501,1503,1502,1502,1506,1502,1502,1502,1505,1502,1501,1502,1503,1502,1506,1502,715,717,719,722,743,1026,1219,1428,1551,1557,1552,1559,1503,1467,1474,1479,1383,1355,1406,1332,1325,1244,1261,1188,1159,1131,1130,1075,1068,1025,996,788,785,754,732,728,731,740,710,712,716,715,709,716,725,731,714,711,732,719,726,725,725,729,718,716,720,721,718,709,718,712,712,712,712,1015,1018,1035,1051,1103,1545,1809,2040,2152,2145,2129,2091,2054,2015,1987,2000,1910,1866,1903,1798,1813,1720,1723,1651,1608,1569,1538,1494,1463,1408,1207,1123,1114,1065,1053,1055,1000,1003,960,974,974,976,970,980,976,981,982,975,982,974,977,976,976,980,976,976,976,979,975,976,975,977,976,980,976,1510,1496,1510,1645,1851,2427,2704,2901,2990,2996,2991,2920,2864,2825,2782,2787,2663,2612,2637,2523,2511,2418,2415,2316,2258,2207,2006,1736,1687,1678,1636,1583,1560,1527,1497,1506,1501,1506,1480,1495,1486,1508,1495,1504,1504,1505,1502,1499,1505,1499,1497,1514,1501,1508,1502,1504,1511,1518,1518,1517,1512,1540,1518,1522,1518,1423,1427,1460,1559,1794,2306,2567,2748,2871,2924,2894,2862,2805,2745,2710,2661,2610,2559,2508,2458,2406,2350,2319,2251,2195,2164,1998,1947,1640,1637,1603,1537,1496,1476,1458,1459,1464,1466,1417,1429,1423,1438,1425,1431,1433,1428,1426,1438,1432,1426,1428,1437,1437,1449,1436,1433,1441,1436,1447,1452,1452,1452,1452,1452,1452,235,235,236,237,256,303,343,382,420,460,475,467,460,453,445,437,431,423,415,408,400,393,386,378,370,364,356,348,341,334,326,319,311,304,261,256,257,257,196,200,201,204,203,205,199,205,200,213,203,201,203,204,212,216,210,205,206,201,205,206,206,206,206,206,206,769,779,774,776,810,1028,1207,1337,1459,1490,1549,1502,1500,1475,1450,1426,1401,1377,1352,1327,1302,1278,1253,1229,1204,1179,1145,1130,1105,1026,883,863,816,812,792,789,799,801,736,740,742,744,743,745,739,743,738,751,741,739,743,742,750,759,748,743,745,739,743,744,744,744,744,744,744,760,760,779,794,804,903,1214,1387,1443,1492,1492,1473,1445,1425,1394,1371,1351,1359,1329,1281,1283,1232,1210,1186,1163,1142,1119,1095,1072,1081,841,822,803,803,792,789,773,741,734,728,728,727,734,739,736,737,740,747,749,748,754,755,753,756,749,754,762,758,758,755,758,757,757,757,757,900,905,895,910,963,1257,1443,1603,1707,1776,1769,1739,1711,1684,1655,1627,1599,1570,1542,1515,1508,1479,1442,1401,1374,1346,1318,1289,1261,1242,1129,1000,941,920,907,903,871,873,875,857,859,862,868,871,877,876,870,889,888,872,877,894,896,896,894,896,891,888,893,899,893,899,899,899,897,606,611,612,639,631,848,955,1113,1161,1208,1213,1179,1177,1144,1138,1119,1100,1081,1062,1042,1024,1004,985,966,947,928,908,889,861,877,827,661,649,631,621,618,617,612,610,603,604,606,616,620,616,616,625,634,630,618,629,610,614,624,624,618,631,612,610,625,627,638,638,638,631,646,635,637,663,694,876,1009,1175,1224,1268,1271,1265,1230,1237,1190,1182,1149,1129,1108,1089,1104,1048,1028,1007,997,966,947,927,924,937,859,809,675,658,646,642,661,644,634,626,626,631,637,645,637,638,644,656,661,662,661,669,661,662,653,658,670,664,666,668,662,661,661,661,653,1656,1684,1751,1849,2150,2862,3132,3320,3279,3327,3298,3273,3185,3151,3094,3033,2973,2930,2880,2788,2755,2484,2390,2277,2097,2106,2033,1936,1940,1878,1837,1754,1724,1685,1712,1713,1748,1733,1711,1714,1724,1723,1722,1725,1718,1722,1718,1730,1721,1719,1724,1725,1728,1742,1729,1728,1729,1722,1724,1729,1729,1729,1729,1729,1729,409,410,412,413,414,453,602,664,725,783,793,781,770,757,745,734,722,710,699,687,675,664,652,641,629,617,606,594,581,570,558,546,457,447,418,414,415,417,388,389,391,405,416,405,399,462,400,416,412,408,411,420,469,478,408,398,414,411,403,404,404,404,404,404,404,814,815,818,820,858,1124,1343,1527,1671,1748,1755,1727,1692,1662,1631,1599,1568,1536,1505,1475,1443,1412,1380,1349,1317,1287,1245,1224,1193,1142,1110,900,866,849,836,835,839,844,791,795,797,799,798,800,794,798,793,806,796,794,798,797,805,814,803,798,800,794,798,799,799,799,799,799,799,944,933,962,977,1057,1339,1579,1774,1815,1850,1845,1843,1816,1779,1725,1697,1662,1637,1612,1575,1585,1524,1491,1483,1433,1400,1373,1347,1328,1228,1044,1097,1007,958,960,957,963,947,946,939,944,941,945,952,952,949,955,967,970,973,976,982,981,977,972,978,985,975,983,988,972,971,971,971,971,252,252,253,254,254,280,363,400,438,476,491,484,476,469,462,455,447,440,433,425,419,411,403,397,389,382,375,367,360,308,302,296,290,284,278,306,273,274,227,230,229,235,243,245,235,244,233,243,240,237,241,238,243,244,243,237,244,238,237,243,244,244,244,245,244,0,0,0,0,0,0,0,0,0,0,0,0,0,0,0,0,0,0,0,0,0,0,0,0,0,0,0,0,0,0,0,0,0,0,0,0,0,0,0,0,0,0,0,0,0,0,0,0,0,0,0,0,0,0,0,0,0,0,0,0,0,0,0,0,0,191,192,192,193,194,200,277,309,341,372,388,382,376,370,364,358,352,345,339,333,327,321,315,309,303,297,291,284,278,223,217,213,207,203,198,194,195,195,140,144,146,148,147,149,143,147,142,155,145,143,147,146,154,163,152,147,149,143,147,148,148,148,148,148,148,609,611,674,641,633,864,972,1128,1177,1222,1226,1206,1186,1173,1160,1127,1120,1089,1073,1053,1029,1010,991,971,951,931,921,893,900,886,833,790,773,634,629,618,627,621,621,626,628,627,634,640,627,637,625,628,630,629,624,639,640,660,646,655,637,640,690,644,642,645,636,657,639,986,996,994,1019,1111,1316,1637,1802,1904,1969,1959,1925,1895,1863,1832,1800,1770,1736,1706,1676,1662,1628,1594,1552,1520,1489,1458,1426,1377,1333,1172,1088,1040,1019,1005,1002,961,963,965,947,949,952,958,961,967,966,960,979,978,962,967,984,986,986,984,986,981,978,983,989,983,989,989,989,987,1037,1055,1045,1079,1156,1514,1741,1906,2007,2070,2058,2023,1990,1957,1923,1890,1858,1823,1791,1764,1750,1716,1675,1630,1596,1564,1530,1497,1464,1406,1245,1141,1092,1071,1059,1055,1016,1018,1020,1002,1004,1007,1013,1016,1022,1021,1015,1034,1033,1017,1022,1039,1041,1041,1039,1041,1036,1033,1038,1044,1038,1044,1044,1044,1042,1007,1016,1015,1044,1116,1383,1681,1846,1947,2011,2000,1966,1934,1903,1870,1838,1806,1773,1741,1711,1696,1661,1627,1584,1552,1519,1487,1455,1423,1360,1264,1086,1062,1040,1026,1024,988,990,992,974,976,979,985,988,994,993,987,1006,1005,989,994,1011,1013,1013,1011,1013,1008,1005,1010,1016,1010,1016,1016,1016,1014,726,735,738,731,769,997,1195,1347,1457,1504,1540,1479,1456,1432,1401,1383,1425,1336,1312,1307,1265,1240,1211,1186,1186,1145,1129,1111,1075,1031,886,863,784,782,755,754,749,750,705,699,704,714,719,719,715,713,716,726,720,715,716,716,725,734,722,720,720,712,719,719,719,719,719,719,719,337,338,339,340,341,388,489,539,590,638,650,641,631,621,612,602,592,584,574,565,555,545,536,526,517,508,498,488,479,429,420,412,404,396,345,342,342,342,299,301,301,308,315,317,308,322,312,316,317,309,315,311,316,321,316,310,317,314,310,315,317,318,317,318,317,1125,1114,1139,1171,1266,1652,1952,2136,2172,2200,2187,2181,2108,2105,2048,2015,1974,1945,1909,1870,1871,1808,1766,1726,1698,1647,1594,1504,1466,1390,1240,1254,1185,1141,1134,1140,1120,1098,1099,1098,1093,1094,1102,1111,1102,1108,1109,1124,1127,1131,1135,1140,1127,1129,1127,1128,1141,1132,1133,1146,1132,1130,1130,1130,1130,288,288,289,290,291,321,426,474,524,572,586,577,567,558,548,540,530,521,511,502,492,484,474,465,455,446,436,427,419,409,400,338,331,322,315,310,310,311,281,260,262,265,277,272,273,268,272,269,283,279,279,280,279,279,284,275,276,280,280,282,279,284,283,285,285,831,849,837,848,894,1161,1338,1492,1599,1669,1664,1635,1609,1583,1556,1530,1504,1476,1450,1423,1417,1390,1354,1316,1290,1264,1237,1210,1184,1167,1054,927,882,862,847,844,835,837,839,821,823,826,832,835,841,840,834,853,852,836,841,858,860,860,858,860,855,852,857,863,857,863,863,863,861,916,920,924,941,996,1236,1500,1663,1767,1834,1826,1795,1766,1738,1707,1679,1650,1620,1590,1563,1553,1519,1487,1445,1417,1388,1359,1323,1269,1240,1167,993,969,948,936,932,902,904,906,888,892,895,901,904,910,909,903,923,922,906,911,928,930,930,928,931,926,923,928,934,928,934,935,935,933,648,650,659,681,693,906,1025,1163,1211,1257,1261,1243,1223,1211,1197,1166,1159,1128,1114,1094,1071,1052,1032,1026,995,975,966,938,946,932,891,812,689,674,668,669,668,646,638,642,644,644,652,660,650,655,647,657,652,645,649,655,658,675,659,656,650,650,666,655,647,648,644,658,650,538,547,541,550,562,624,821,933,1013,1059,1065,1047,1031,1015,999,981,965,1051,932,915,899,883,866,849,835,818,802,786,775,752,622,609,590,568,557,554,555,530,531,525,525,529,554,534,537,536,535,534,534,539,537,539,559,567,558,540,541,537,556,540,546,561,535,538,537,277,278,278,279,342,356,398,440,480,521,536,529,520,512,504,497,489,481,474,465,457,449,442,434,426,419,410,402,394,387,379,371,364,355,347,343,344,344,264,263,271,324,264,270,267,270,269,267,269,264,265,265,264,265,266,266,266,265,265,264,264,265,263,266,266,1612,1620,1675,1765,2315,2943,3211,3398,3356,3402,3372,3346,3257,3223,3163,3100,3039,3001,2945,2853,2831,2776,2548,2315,2299,2223,1997,1928,1866,1817,1794,1717,1685,1642,1645,1648,1667,1682,1687,1683,1694,1737,1744,1716,1730,1751,1724,1745,1746,1734,1743,1740,1745,1750,1745,1736,1717,1724,1714,1717,1717,1717,1717,1717,1717,667,669,671,673,702,898,1082,1236,1376,1458,1474,1446,1420,1394,1368,1342,1314,1288,1285,1234,1207,1180,1152,1128,1102,1072,1041,1019,992,942,915,890,737,716,688,687,691,694,641,644,651,667,651,668,649,662,661,668,661,650,654,657,661,671,662,660,662,658,655,656,656,656,656,656,656,972,970,987,1005,1068,1375,1674,1873,1939,1960,1955,1946,1902,1870,1835,1790,1775,1736,1712,1690,1671,1615,1608,1563,1523,1512,1461,1425,1402,1291,1107,1082,1043,1018,992,999,960,962,918,921,931,930,929,932,925,929,925,937,928,926,931,932,935,949,936,935,936,929,931,936,936,936,936,936,936,1423,1427,1460,1559,1794,2306,2567,2748,2871,2924,2894,2862,2805,2745,2710,2661,2610,2559,2508,2458,2406,2350,2319,2251,2195,2164,1998,1947,1640,1637,1603,1537,1496,1476,1458,1459,1464,1466,1417,1429,1423,1438,1425,1431,1433,1428,1426,1438,1432,1426,1428,1437,1437,1449,1436,1433,1441,1436,1447,1452,1452,1452,1452,1452,1452,1259,1251,1306,1299,1500,2038,2267,2458,2577,2611,2561,2541,2560,2429,2459,2359,2308,2263,2261,2165,2121,2087,2041,1997,1944,1900,1875,1722,1654,1425,1386,1350,1345,1292,1278,1277,1285,1287,1277,1288,1287,1301,1288,1289,1322,1337,1294,1288,1291,1302,1290,1294,1309,1301,1298,1298,1302,1316,1315,1331,1325,1335,1326,1338,1325,112,112,112,138,138,140,158,176,193,211,223,220,216,213,210,206,203,200,196,192,189,185,182,179,176,172,169,166,162,158,155,151,148,145,141,138,139,139,101,100,101,101,106,101,104,103,103,104,101,100,101,103,104,104,100,100,99,99,99,105,101,104,100,103,101,594,603,598,600,616,828,948,1048,1145,1192,1195,1177,1174,1138,1119,1101,1081,1062,1058,1024,1005,986,966,961,929,909,891,872,864,833,666,650,635,619,607,603,605,606,596,606,609,624,688,688,629,690,628,690,657,690,669,624,650,690,655,629,688,641,631,692,661,688,664,659,638,835,850,840,864,888,1158,1364,1512,1624,1699,1668,1642,1615,1588,1562,1535,1509,1482,1455,1428,1402,1395,1348,1322,1295,1269,1241,1215,1189,1201,1025,907,885,865,851,896,863,852,846,854,858,855,864,874,858,887,857,891,866,857,863,869,873,889,874,871,871,864,873,893,868,871,861,870,862,936,951,943,947,1047,1353,1529,1688,1795,1843,1880,1804,1797,1746,1716,1686,1659,1628,1620,1569,1540,1512,1484,1454,1425,1396,1366,1353,1307,1294,1039,1111,1011,955,953,937,906,908,921,914,921,931,923,934,932,946,929,931,942,934,968,956,966,969,931,926,940,935,939,931,929,939,926,937,932,731,734,734,737,776,1043,1169,1301,1419,1454,1452,1476,1409,1386,1349,1358,1304,1298,1270,1248,1225,1206,1179,1162,1125,1109,1080,1058,1033,1011,948,906,837,757,746,743,737,738,725,732,730,738,739,753,738,739,742,768,734,736,738,741,741,735,744,746,741,741,736,763,746,752,741,751,743,763,758,761,776,831,1109,1250,1387,1497,1513,1510,1531,1461,1437,1438,1408,1366,1353,1317,1293,1269,1245,1221,1196,1194,1148,1145,1124,1076,1038,1010,918,801,783,771,767,776,769,744,752,761,783,767,778,759,798,761,797,770,762,768,774,793,807,778,775,775,770,786,777,772,775,765,774,766,1596,1606,1617,1706,1956,2681,2924,3104,3185,3205,3155,3109,3056,3001,2918,2896,2839,2783,2725,2681,2652,2539,2390,2168,2001,1956,1980,1849,1807,1761,1760,1687,1643,1635,1593,1620,1589,1577,1572,1569,1573,1583,1586,1585,1584,1577,1589,1588,1594,1596,1593,1598,1599,1606,1598,1597,1589,1589,1587,1593,1587,1594,1584,1594,1578,327,328,329,330,331,426,474,522,643,618,629,619,610,601,591,583,574,565,555,546,537,529,519,510,501,492,482,474,465,456,446,437,429,420,335,332,333,333,315,315,324,331,318,321,321,322,325,322,324,320,321,322,320,324,324,325,324,324,324,325,326,407,406,409,406,639,640,674,643,664,924,1079,1235,1356,1411,1406,1381,1423,1329,1360,1278,1252,1227,1254,1175,1150,1124,1098,1073,1047,1021,1007,970,944,919,893,867,825,667,651,648,660,665,651,663,661,675,663,657,669,745,664,657,661,665,662,662,661,666,666,666,668,672,665,673,666,743,742,745,742,958,961,964,993,1138,1471,1735,1938,1985,2084,2018,1982,1947,1912,1873,1841,1804,1769,1777,1700,1707,1675,1595,1610,1523,1488,1464,1417,1381,1275,1197,1044,1024,990,1001,973,964,984,979,976,980,985,993,992,991,984,994,995,1001,1003,1000,995,998,1013,1005,1004,996,996,994,1000,994,1001,991,1001,985,203,204,205,205,206,207,285,317,350,383,415,411,402,396,389,382,376,369,363,356,349,343,336,330,323,316,310,303,297,290,283,226,221,216,210,207,207,207,131,132,132,130,132,129,130,132,131,134,131,133,132,134,130,133,130,133,132,132,130,131,132,131,129,126,126,181,181,182,224,224,232,259,288,316,345,359,354,348,344,338,333,327,322,316,311,305,300,294,289,283,278,272,267,261,256,250,245,239,234,228,225,225,226,172,174,174,175,176,177,176,175,174,174,174,174,175,181,176,177,180,178,180,180,197,180,178,180,175,176,177,0,0,0,0,0,0,0,0,0,0,0,0,0,0,0,0,0,0,0,0,0,0,0,0,0,0,0,0,0,0,0,0,0,0,0,0,0,0,0,0,0,0,0,0,0,0,0,0,0,0,0,0,0,0,0,0,0,0,0,0,0,0,0,0,0,747,734,737,744,778,1078,1206,1332,1425,1467,1493,1492,1417,1394,1371,1367,1328,1313,1278,1254,1230,1207,1183,1183,1137,1118,1090,1076,1018,993,914,900,777,758,747,764,766,742,724,722,731,722,725,720,727,724,726,722,727,727,733,729,749,729,727,724,729,733,736,761,748,756,735,733,732,1034,1025,1042,1062,1190,1529,1724,1887,1991,2036,2065,1990,1980,1925,1893,1859,1830,1794,1784,1728,1697,1668,1636,1603,1572,1536,1506,1489,1441,1283,1126,1100,1097,1054,1040,1037,996,998,1011,1004,1011,1021,1013,1024,1022,1036,1019,1021,1032,1024,1058,1046,1057,1060,1021,1016,1030,1025,1029,1021,1019,1029,1016,1027,1022,1085,1100,1108,1123,1261,1572,1831,1991,2095,2137,2169,2088,2073,2019,1984,1949,1918,1881,1869,1812,1778,1749,1716,1680,1647,1614,1578,1560,1510,1312,1180,1152,1149,1107,1105,1115,1051,1053,1066,1059,1066,1076,1068,1079,1077,1091,1074,1076,1087,1079,1115,1101,1114,1117,1076,1071,1085,1080,1084,1076,1074,1084,1071,1082,1077,1055,1045,1078,1087,1221,1567,1769,1931,2033,2079,2106,2031,2018,1964,1931,1897,1866,1831,1819,1764,1730,1702,1669,1635,1603,1567,1535,1519,1469,1336,1149,1122,1118,1075,1061,1058,1023,1025,1038,1031,1038,1048,1040,1051,1049,1063,1046,1048,1059,1051,1085,1073,1085,1086,1048,1043,1057,1052,1056,1048,1046,1056,1043,1054,1049,558,560,561,563,575,797,949,1064,1206,1233,1262,1223,1200,1177,1153,1146,1095,1084,1061,1053,1001,1017,970,947,937,889,889,854,831,820,671,651,656,586,582,560,579,587,569,582,578,583,593,587,588,589,587,586,586,588,589,593,594,661,593,591,591,588,597,617,593,601,588,590,594,290,291,291,292,313,298,336,448,493,537,577,571,557,551,541,532,524,515,507,500,490,482,473,464,456,445,437,428,340,410,401,342,335,328,320,314,314,314,203,203,204,203,204,206,203,211,210,207,211,205,206,207,203,210,203,206,205,208,203,203,205,205,202,203,203,997,1005,996,1044,1042,1506,1732,1957,2058,2092,2085,2049,2021,1963,1944,1909,1881,1818,1781,1753,1726,1676,1646,1627,1568,1536,1526,1468,1446,1296,1210,1216,1097,1029,1024,1006,1006,994,989,986,990,1000,1003,1002,1001,994,1006,1005,1011,1013,1010,1015,1016,1023,1015,1014,1006,1006,1004,1010,1004,1011,1001,1011,995,313,314,315,315,316,411,466,520,679,624,635,625,616,606,596,585,575,565,555,545,534,524,514,504,495,484,474,464,454,444,433,423,413,403,322,317,318,319,307,306,305,306,306,312,307,308,310,315,315,318,321,313,382,321,379,315,315,386,317,324,318,313,373,311,314,880,894,900,883,967,1257,1424,1577,1687,1736,1775,1700,1695,1645,1617,1589,1585,1534,1528,1478,1451,1423,1396,1369,1341,1314,1285,1274,1230,1231,964,1045,939,897,882,879,870,872,885,878,885,895,887,898,896,910,893,895,906,898,949,920,944,948,895,890,904,899,903,895,893,903,890,901,896,964,954,958,981,1088,1406,1586,1747,1855,1901,1936,1860,1852,1800,1768,1738,1710,1678,1668,1616,1586,1558,1529,1498,1468,1437,1407,1340,1316,1301,1077,1128,1046,983,981,966,937,939,952,945,954,964,956,967,965,979,962,965,976,968,1007,990,1006,1008,965,961,975,970,974,966,964,974,962,973,968,765,774,772,773,810,1105,1244,1371,1460,1502,1530,1529,1455,1432,1410,1405,1368,1353,1317,1294,1305,1271,1238,1226,1180,1162,1135,1122,1089,1078,971,835,816,790,785,782,771,760,742,746,753,746,748,744,750,748,751,746,751,752,761,756,772,755,751,748,754,757,760,786,767,777,761,757,756,665,662,664,675,701,870,1045,1161,1260,1304,1304,1284,1320,1244,1226,1269,1185,1164,1145,1135,1103,1082,1062,1040,1021,1012,981,970,988,917,870,851,710,693,682,678,684,660,653,656,655,655,657,658,655,653,658,664,656,663,659,663,663,659,658,663,664,663,661,659,666,677,670,676,672,399,400,401,403,405,489,592,656,721,773,783,771,759,748,735,722,712,700,688,676,665,653,641,629,618,606,594,583,570,558,546,535,501,490,480,405,405,473,383,383,396,429,388,390,387,389,389,387,389,391,388,391,393,396,395,396,394,395,394,396,400,445,405,442,441,1573,1563,1638,1729,2274,2722,3182,3358,3435,3441,3398,3323,3284,3203,3128,3131,3055,2999,2948,2883,2826,2739,2598,2460,2293,2242,1944,1938,1897,1813,1777,1657,1652,1611,1590,1619,1602,1641,1625,1608,1626,1632,1633,1635,1632,1640,1639,1636,1640,1634,1635,1636,1632,1639,1632,1635,1634,1637,1632,1632,1634,1634,1631,1632,1632,493,498,514,496,508,698,821,953,1061,1120,1122,1101,1079,1058,1072,1051,995,981,952,963,910,913,867,847,826,804,795,762,741,719,698,677,690,523,522,500,512,535,519,519,517,527,529,521,525,526,524,528,534,542,599,606,601,602,525,532,540,542,528,527,562,521,524,528,523,792,799,796,808,865,1175,1365,1588,1691,1753,1709,1679,1657,1618,1585,1556,1532,1492,1462,1440,1401,1374,1344,1314,1280,1252,1230,1196,1166,1128,1097,1012,867,824,808,805,796,784,779,776,780,790,793,792,791,784,796,795,801,803,800,805,806,813,805,804,796,796,794,800,794,801,791,801,785,1259,1251,1306,1299,1500,2038,2267,2458,2577,2611,2561,2541,2560,2429,2459,2359,2308,2263,2261,2165,2121,2087,2041,1997,1944,1900,1875,1722,1654,1425,1386,1350,1345,1292,1278,1277,1285,1287,1277,1288,1287,1301,1288,1289,1322,1337,1294,1288,1291,1302,1290,1294,1309,1301,1298,1298,1302,1316,1315,1331,1325,1335,1326,1338,1325,1128,1103,1112,1152,1239,1592,1927,2026,2131,2164,2184,2138,2126,2070,2064,2010,1967,1963,1884,1869,1870,1800,1794,1763,1668,1659,1608,1518,1455,1231,1228,1199,1178,1157,1142,1143,1139,1148,1137,1137,1139,1144,1139,1155,1145,1142,1140,1142,1140,1141,1143,1144,1147,1142,1147,1148,1147,1145,1150,1156,1151,1163,1151,1155,1152,677,680,683,684,686,913,1178,1329,1446,1495,1486,1455,1432,1404,1386,1350,1323,1298,1304,1243,1215,1217,1171,1125,1107,1071,1071,1024,999,966,923,897,729,707,692,687,691,676,671,657,663,665,664,680,671,675,672,672,681,678,672,679,678,687,682,687,676,681,681,683,692,687,699,716,702,846,825,833,850,824,1032,1317,1486,1460,1552,1490,1513,1526,1511,1388,1425,1344,1375,1424,1362,1338,1307,1307,1307,1283,1222,1201,1187,1111,1064,959,887,832,852,837,838,821,826,831,839,835,839,850,850,847,868,849,856,851,850,849,863,860,866,860,865,867,852,857,869,862,872,848,863,863,360,361,362,363,365,416,535,602,664,722,732,719,708,697,685,674,661,650,645,627,622,603,591,596,568,556,545,533,522,509,485,473,463,418,369,366,367,368,320,325,326,332,331,334,325,329,320,336,330,324,331,334,337,335,337,335,329,323,336,330,331,332,326,330,323,593,594,595,597,599,706,917,1026,1125,1191,1192,1173,1160,1137,1119,1100,1081,1062,1050,1023,1011,985,965,964,928,909,889,870,851,832,738,682,678,620,606,602,603,605,545,549,548,551,558,555,554,563,549,555,554,554,552,551,552,555,555,552,557,551,551,555,552,566,553,555,552,170,170,205,205,205,208,165,224,256,268,281,277,273,269,265,260,256,251,248,244,239,243,231,226,223,218,222,218,168,164,162,158,154,212,209,206,206,206,135,135,135,135,135,135,135,136,136,136,138,138,138,139,139,139,138,140,141,140,141,140,140,140,141,140,139,207,207,207,208,208,266,301,336,378,405,421,414,408,401,393,387,380,374,367,360,354,347,341,334,327,321,314,308,300,293,287,280,273,267,260,209,210,210,194,195,195,205,205,205,198,203,198,207,204,205,205,202,202,200,201,203,203,206,201,202,201,207,201,202,199,1224,1231,1238,1262,1347,1830,2126,2291,2381,2423,2424,2358,2321,2290,2251,2205,2172,2132,2090,2051,2034,1984,1937,1907,1876,1822,1785,1713,1553,1417,1334,1301,1275,1261,1256,1243,1247,1242,1230,1226,1231,1237,1239,1236,1236,1252,1235,1239,1232,1236,1234,1235,1239,1247,1243,1243,1244,1232,1234,1248,1243,1259,1233,1244,1240,524,526,528,529,531,619,814,906,996,1070,1072,1052,1041,1027,1010,997,958,941,924,907,891,874,856,854,822,806,818,772,755,738,718,660,628,549,536,532,534,535,510,509,508,515,515,514,519,512,507,522,516,509,515,521,519,545,540,535,518,518,519,514,528,522,517,519,511,555,554,560,563,563,616,797,909,1017,1079,1082,1082,1060,1046,1025,996,993,962,939,928,906,893,878,860,846,824,808,837,807,789,773,703,655,606,591,565,567,579,558,529,527,528,547,550,545,535,531,542,544,540,539,540,540,544,544,546,543,545,541,555,541,546,545,549,535,513,514,522,517,525,683,781,871,960,1033,1039,1030,1013,985,964,976,930,916,926,883,887,871,849,842,826,784,768,753,740,732,725,687,656,551,524,520,538,523,493,490,502,503,497,512,500,511,505,502,514,507,508,510,509,509,505,506,506,509,504,501,506,509,501,514,509,806,803,806,808,831,1044,1313,1455,1564,1625,1618,1590,1570,1548,1523,1505,1453,1431,1396,1380,1357,1325,1305,1296,1248,1229,1217,1136,1111,1087,968,970,902,846,831,813,792,772,772,758,768,770,770,780,796,783,773,771,785,785,789,791,795,791,783,786,779,780,784,783,793,783,790,783,781,564,566,567,569,571,732,880,979,1076,1149,1149,1128,1116,1101,1083,1070,1028,1010,992,974,955,938,919,916,883,865,876,828,810,792,771,768,738,588,576,573,574,576,550,549,548,555,558,552,559,553,550,558,558,552,555,558,556,552,566,570,558,558,556,554,567,573,557,558,553,631,633,635,637,639,849,1086,1236,1353,1401,1405,1362,1345,1320,1294,1268,1243,1210,1195,1166,1140,1147,1088,1053,1038,1003,1007,958,933,903,884,859,811,663,645,640,646,641,640,628,636,641,640,650,680,649,639,640,652,653,657,659,664,661,648,654,648,651,651,652,663,656,664,657,655,0,0,0,0,0,0,0,0,0,0,0,0,0,0,0,0,0,0,0,0,0,0,0,0,0,0,0,0,0,0,0,0,0,0,0,0,0,0,0,0,0,0,0,0,0,0,0,0,0,0,0,0,0,0,0,0,0,0,0,0,0,0,0,0,0,627,628,630,632,634,681,978,1093,1199,1261,1263,1237,1224,1209,1184,1164,1143,1112,1109,1082,1068,1042,1021,1019,981,960,941,921,899,879,787,693,679,667,642,635,639,616,550,553,566,592,561,565,557,562,553,568,563,556,564,564,570,570,570,565,561,555,564,561,563,563,560,564,556,724,726,729,732,757,925,1138,1278,1380,1438,1438,1386,1385,1381,1344,1321,1309,1261,1278,1239,1230,1215,1188,1161,1137,1118,1093,1047,1043,878,889,848,813,750,732,742,717,728,665,668,683,696,678,680,674,675,670,683,678,671,681,681,689,686,688,684,678,676,685,680,684,678,676,681,673,666,667,669,671,674,810,1049,1171,1282,1342,1342,1315,1301,1282,1258,1237,1213,1181,1179,1150,1136,1106,1083,1080,1041,1019,998,976,954,933,836,772,720,695,683,676,678,668,603,605,620,646,615,617,611,613,607,620,615,608,618,618,625,623,625,621,615,612,621,617,619,615,613,618,610,262,240,241,242,239,291,345,391,432,471,486,478,470,463,455,447,440,432,424,416,409,434,393,387,379,398,393,356,348,341,333,353,313,298,291,286,240,287,228,228,227,228,234,232,231,237,234,236,232,236,231,231,232,235,235,230,235,232,230,234,233,238,234,234,233,806,844,832,817,864,1117,1465,1615,1721,1780,1770,1740,1718,1693,1667,1647,1592,1572,1535,1498,1464,1454,1394,1391,1326,1347,1336,1225,1227,1158,1079,992,926,858,860,856,864,843,844,831,840,847,843,859,854,856,853,843,859,858,862,868,868,864,856,862,852,852,857,857,866,860,863,856,854,650,625,630,631,658,829,988,1113,1178,1283,1255,1232,1241,1250,1193,1188,1161,1149,1130,1117,1035,1075,1016,1034,977,981,919,951,899,861,860,841,658,672,664,634,629,650,608,606,619,619,622,637,622,633,627,630,631,628,636,629,628,635,628,626,635,636,623,628,629,639,629,640,632,852,855,857,860,871,1116,1399,1551,1657,1716,1707,1676,1656,1631,1604,1584,1533,1505,1479,1452,1425,1398,1370,1358,1316,1291,1292,1235,1208,1129,1028,1010,900,880,868,865,867,857,810,811,813,832,830,825,827,825,819,841,837,831,835,837,835,836,841,846,838,838,838,833,851,856,842,843,838,551,553,555,557,568,636,848,929,1047,1095,1112,1102,1078,1059,1056,1024,1005,988,983,966,947,931,913,896,863,860,827,809,791,774,716,607,605,576,563,560,582,572,513,517,512,515,532,519,518,528,516,519,518,518,516,515,516,519,519,516,521,515,515,519,516,532,517,519,516,578,579,581,583,585,688,894,1001,1099,1165,1167,1147,1132,1113,1095,1076,1053,1039,1027,1001,989,963,943,943,907,888,869,850,831,812,718,702,636,606,592,591,589,590,531,538,541,547,544,547,540,544,532,558,543,539,547,547,562,565,565,550,548,538,549,547,549,549,543,549,535,133,159,159,159,159,166,178,191,203,216,226,224,222,218,216,214,211,209,206,204,201,199,196,194,191,189,187,184,181,179,177,174,171,169,167,159,165,165,115,115,118,124,118,118,116,116,116,125,131,118,121,120,119,115,117,121,116,116,119,116,118,116,120,118,116,499,502,504,516,513,613,727,827,928,967,998,962,961,954,934,927,916,890,874,831,824,795,821,800,757,765,734,729,702,670,670,641,611,536,524,513,528,461,413,417,412,415,442,419,418,443,416,419,418,418,416,415,416,419,419,416,421,415,415,419,416,447,417,419,416,536,537,553,540,542,618,813,896,994,1068,1054,1060,1056,1029,1013,995,979,962,921,914,907,875,869,876,839,840,807,789,774,752,725,634,620,581,566,546,562,564,517,521,516,519,555,523,522,542,520,523,522,522,520,519,520,523,523,520,525,519,519,523,520,547,521,523,520,1299,1307,1320,1338,1493,1907,2279,2441,2530,2558,2527,2501,2452,2434,2360,2288,2255,2270,2207,2178,2128,2098,2013,2018,1977,1930,1638,1623,1590,1485,1425,1410,1388,1344,1316,1311,1322,1318,1283,1272,1279,1299,1312,1317,1302,1316,1317,1319,1313,1310,1314,1310,1310,1319,1308,1304,1315,1315,1305,1307,1308,1320,1309,1319,1311,249,250,251,252,252,324,368,411,455,497,511,502,495,486,478,470,462,454,445,437,429,479,412,404,397,388,433,371,364,355,347,338,331,323,314,253,253,254,251,237,241,242,244,250,242,248,243,243,250,250,244,248,250,300,252,255,245,251,250,252,271,256,268,268,267,480,491,479,486,486,637,720,829,885,960,984,968,953,924,921,899,869,868,838,835,832,812,777,762,746,731,717,710,707,688,675,640,579,499,503,499,500,469,465,458,460,462,459,466,460,465,461,465,465,460,460,461,463,483,467,466,464,463,466,467,462,476,462,469,463,1128,1103,1112,1152,1239,1592,1927,2026,2131,2164,2184,2138,2126,2070,2064,2010,1967,1963,1884,1869,1870,1800,1794,1763,1668,1659,1608,1518,1455,1231,1228,1199,1178,1157,1142,1143,1139,1148,1137,1137,1139,1144,1139,1155,1145,1142,1140,1142,1140,1141,1143,1144,1147,1142,1147,1148,1147,1145,1150,1156,1151,1163,1151,1155,1152,1047,1045,1042,1021,1147,1382,1752,1927,1961,2020,2010,2032,1971,1920,1862,1839,1872,1775,1773,1763,1709,1647,1650,1602,1570,1531,1475,1354,1405,1315,1242,1127,1090,1040,1021,1017,1043,1037,1026,1018,1024,1028,1028,1063,1039,1068,1059,1049,1055,1038,1039,1041,1036,1059,1050,1038,1043,1043,1034,1039,1040,1048,1037,1060,1041,1042,1045,1048,1061,1106,1413,1658,1841,1983,2070,2059,2025,1992,1960,1927,1894,1862,1826,1799,1763,1729,1697,1665,1632,1599,1566,1541,1501,1468,1174,1147,1144,1117,1073,1060,1058,1051,1054,1023,1017,1027,1040,1031,1042,1037,1046,1046,1051,1046,1039,1053,1055,1053,1039,1039,1055,1033,1054,1036,1040,1037,1037,1037,1037,1037,1239,1248,1292,1347,1455,1954,2141,2326,2413,2418,2434,2379,2410,2306,2279,2239,2180,2142,2108,2051,2060,1982,1950,1960,1865,1894,1688,1581,1468,1407,1411,1367,1359,1326,1269,1275,1297,1273,1295,1295,1299,1306,1310,1301,1309,1311,1314,1318,1315,1316,1325,1317,1318,1338,1316,1317,1322,1331,1312,1316,1306,1306,1306,1306,1306,272,273,274,275,276,349,393,438,484,529,555,546,537,529,520,515,502,493,485,476,467,458,448,440,431,422,413,404,396,387,378,369,360,352,280,276,277,278,235,236,237,239,239,240,241,240,241,240,240,240,241,248,244,242,240,245,242,239,239,243,244,244,244,244,244,143,144,144,177,177,182,205,228,251,275,289,284,280,276,271,267,262,257,253,248,244,239,235,231,226,222,217,213,207,203,199,194,190,185,181,178,178,179,136,136,135,136,136,138,136,139,138,139,135,138,136,139,140,139,135,138,135,138,138,139,138,138,135,138,135,482,481,483,485,489,626,711,795,898,950,962,957,954,925,909,881,878,855,850,832,816,803,785,770,756,728,727,706,682,676,661,520,515,503,491,487,489,479,430,433,434,437,438,439,439,440,437,442,438,440,442,451,449,446,445,447,447,442,448,449,447,447,447,447,447,434,435,437,438,441,480,638,712,787,858,878,865,851,837,823,810,795,781,767,753,739,726,711,697,684,668,656,641,627,612,599,556,467,456,444,441,442,425,376,377,380,386,383,380,383,386,385,383,393,391,385,397,398,395,398,389,392,390,393,394,388,388,388,388,388,1046,1049,1053,1060,1076,1460,1768,1928,2022,2074,2040,2038,1998,1915,1928,1885,1868,1825,1804,1762,1732,1688,1655,1636,1597,1564,1530,1485,1396,1236,1230,1125,1083,1091,1063,1053,1057,1067,1047,1041,1047,1057,1053,1073,1055,1077,1072,1058,1076,1060,1060,1062,1057,1068,1059,1057,1062,1066,1058,1060,1059,1065,1059,1069,1058,825,829,829,832,859,1110,1307,1423,1541,1608,1609,1584,1559,1562,1510,1485,1460,1435,1410,1386,1364,1336,1319,1294,1261,1237,1212,1188,1167,1113,1049,891,871,851,839,837,839,824,794,785,792,796,803,799,802,792,807,815,800,796,814,814,842,806,798,819,802,820,795,797,817,817,817,817,817,696,693,694,703,704,833,1103,1215,1328,1377,1382,1375,1352,1331,1307,1283,1258,1236,1213,1201,1177,1159,1130,1109,1073,1052,1041,1019,996,960,936,758,762,735,733,714,722,711,648,638,643,645,639,667,644,669,661,646,663,647,650,650,647,656,647,647,650,656,648,648,649,653,649,657,651,313,314,325,326,327,405,466,517,570,621,631,636,625,603,592,582,581,563,552,551,541,522,512,503,492,483,473,463,453,444,433,425,413,405,322,329,330,331,277,267,272,274,268,288,273,292,287,275,288,276,279,279,276,285,276,276,279,285,277,277,278,282,278,286,280,997,999,1003,1025,1064,1350,1581,1758,1903,1991,1983,1951,1920,1888,1859,1819,1796,1761,1738,1702,1669,1640,1606,1571,1545,1515,1485,1453,1422,1334,1166,1138,1062,1027,1014,1012,1015,1017,990,992,1009,1014,1011,986,1017,1017,1019,1009,1018,1018,1024,1026,1026,1028,1033,996,1010,1024,1019,1019,1002,1002,1002,1002,1002,865,868,869,872,936,1175,1379,1503,1621,1686,1685,1659,1633,1635,1581,1555,1529,1502,1477,1450,1429,1399,1381,1355,1321,1295,1268,1243,1222,1191,1119,933,911,891,879,877,880,864,834,825,832,839,841,839,843,835,843,857,843,836,856,851,849,836,833,859,842,864,835,836,881,881,881,881,880,998,1001,1004,1013,1054,1340,1575,1755,1899,1986,1977,1944,1914,1882,1851,1819,1788,1753,1729,1692,1659,1630,1598,1567,1535,1503,1480,1441,1409,1146,1121,1130,1073,1029,1015,1013,995,998,968,961,971,985,982,984,979,988,988,993,990,981,997,1013,1001,983,982,997,975,1001,983,982,979,979,979,979,979,578,567,569,568,591,701,831,923,1014,1092,1113,1096,1079,1062,1040,1029,1006,993,976,960,938,921,906,887,873,855,838,820,805,787,770,669,616,608,580,573,604,531,484,481,484,488,488,492,497,489,488,489,488,490,491,499,497,494,493,494,494,492,495,497,494,494,494,494,494,0,0,0,0,0,0,0,0,0,0,0,0,0,0,0,0,0,0,0,0,0,0,0,0,0,0,0,0,0,0,0,0,0,0,0,0,0,0,0,0,0,0,0,0,0,0,0,0,0,0,0,0,0,0,0,0,0,0,0,0,0,0,0,0,0,220,220,221,222,240,246,317,353,390,427,449,443,435,429,421,414,407,400,392,386,374,371,364,356,349,342,335,327,321,313,306,266,260,253,247,241,241,243,197,197,198,201,211,214,211,214,210,218,214,210,215,205,206,220,212,203,218,205,204,217,217,221,216,217,212,143,144,144,144,144,149,206,229,254,278,293,289,284,279,275,270,266,260,256,251,247,242,237,233,228,223,218,214,210,204,200,160,156,152,148,145,145,146,135,135,135,138,227,198,150,157,149,228,153,147,199,142,143,156,149,140,206,142,140,198,154,223,199,154,149,755,765,767,764,770,999,1169,1334,1460,1527,1540,1499,1482,1444,1409,1406,1376,1344,1334,1294,1270,1256,1239,1202,1197,1158,1137,1097,1085,1031,903,828,823,806,777,775,757,752,710,708,704,721,720,716,721,716,725,718,722,722,724,731,723,724,724,730,725,720,715,721,726,726,726,726,726,1082,1086,1093,1118,1183,1493,1735,1920,2060,2145,2134,2099,2066,2032,2000,1959,1933,1897,1875,1833,1802,1767,1732,1694,1666,1634,1601,1567,1538,1250,1214,1179,1157,1119,1100,1114,1087,1088,1062,1065,1064,1061,1084,1065,1087,1090,1094,1081,1092,1089,1094,1103,1099,1101,1091,1072,1083,1096,1092,1088,1075,1075,1075,1075,1075,428,430,431,432,433,551,654,730,802,858,866,865,854,825,810,797,792,770,756,753,735,715,700,687,673,660,645,632,618,603,591,571,563,449,438,435,435,437,419,406,415,420,410,438,415,432,431,419,436,419,425,427,438,434,420,420,423,431,422,423,420,428,422,431,425,1043,1052,1055,1063,1109,1425,1698,1884,2025,2086,2098,2041,1998,2003,1933,1899,1876,1839,1805,1767,1733,1718,1685,1656,1602,1569,1536,1386,1268,1340,1168,1164,1120,1095,1084,1074,1062,1083,1048,1061,1061,1066,1073,1085,1076,1090,1067,1084,1078,1084,1071,1078,1104,1090,1089,1105,1083,1102,1088,1080,1077,1077,1077,1077,1077,137,138,138,139,139,143,198,250,243,265,279,276,271,267,262,258,254,249,245,240,236,232,227,223,218,214,210,205,201,196,192,188,183,179,143,140,140,140,131,126,124,124,131,133,134,127,126,131,134,133,133,134,134,136,127,132,134,134,134,134,131,132,133,127,124,69,69,69,85,85,86,97,108,119,130,140,138,136,134,132,129,127,125,123,121,118,116,114,112,110,107,105,103,101,99,96,94,92,90,88,85,85,85,50,50,50,50,50,51,51,51,51,51,51,51,51,51,52,52,52,52,52,52,52,52,53,53,53,53,53,499,500,502,503,523,612,735,820,903,981,1003,983,971,951,936,926,904,888,877,862,841,826,810,794,781,765,749,731,718,702,686,615,589,542,510,522,524,452,403,405,406,408,409,410,412,411,410,411,410,412,413,421,419,416,415,416,416,414,417,419,416,416,416,416,416,639,639,649,657,684,754,969,1078,1182,1295,1296,1274,1226,1220,1203,1170,1162,1172,1115,1102,1111,1078,1030,1010,1001,1006,985,941,916,918,883,854,751,694,668,659,681,622,574,574,576,591,587,580,583,598,588,583,597,597,610,609,623,631,580,580,591,588,584,587,586,586,586,586,586,704,703,707,715,785,872,1095,1222,1338,1417,1419,1396,1373,1351,1339,1311,1279,1259,1237,1215,1190,1169,1150,1123,1099,1077,1047,1032,1016,986,971,839,817,738,723,718,721,721,668,671,670,707,687,685,679,686,684,707,699,701,705,715,699,726,697,700,709,720,709,696,698,698,698,698,698,1088,1092,1095,1104,1125,1563,1853,2010,2103,2153,2118,2115,2074,2045,2000,1958,1940,1894,1872,1829,1804,1753,1718,1698,1660,1625,1590,1543,1511,1299,1274,1168,1126,1134,1107,1096,1100,1110,1083,1076,1070,1071,1086,1110,1089,1110,1105,1091,1109,1093,1093,1095,1090,1101,1092,1090,1095,1099,1090,1093,1092,1098,1092,1102,1094,794,796,799,798,812,1044,1233,1381,1500,1569,1581,1554,1530,1496,1481,1462,1431,1406,1388,1361,1326,1312,1281,1246,1223,1197,1177,1150,1124,1104,1047,911,857,816,812,800,808,777,721,722,726,732,734,734,745,732,731,732,731,733,734,742,740,737,736,737,737,735,738,740,737,737,737,737,737,521,521,526,526,528,641,798,885,974,1042,1051,1043,1026,1006,987,968,958,938,921,908,890,870,853,835,818,802,786,768,705,718,666,650,599,547,553,541,548,529,466,456,461,463,457,488,462,490,478,464,483,465,468,468,465,474,465,465,468,474,466,466,467,471,467,475,469,1047,1045,1042,1021,1147,1382,1752,1927,1961,2020,2010,2032,1971,1920,1862,1839,1872,1775,1773,1763,1709,1647,1650,1602,1570,1531,1475,1354,1405,1315,1242,1127,1090,1040,1021,1017,1043,1037,1026,1018,1024,1028,1028,1063,1039,1068,1059,1049,1055,1038,1039,1041,1036,1059,1050,1038,1043,1043,1034,1039,1040,1048,1037,1060,1041,1037,1045,1033,1054,1225,1529,1818,1928,2002,2054,2081,2027,1977,1940,1911,1915,1873,1808,1795,1782,1755,1694,1646,1630,1610,1567,1520,1467,1487,1379,1257,1127,1131,1087,1059,1049,1061,1031,1051,1054,1075,1075,1083,1064,1066,1078,1071,1085,1076,1078,1075,1081,1109,1111,1088,1082,1078,1086,1072,1076,1109,1087,1098,1085,1077,1066,1068,1071,1110,1184,1616,1830,2032,2189,2247,2202,2167,2141,2096,2061,2026,1991,1955,1943,1886,1832,1836,1802,1728,1717,1674,1630,1591,1534,1333,1192,1157,1165,1127,1084,1086,1121,1100,1127,1123,1131,1140,1141,1135,1138,1147,1151,1145,1152,1146,1156,1160,1151,1158,1162,1150,1140,1155,1147,1151,1151,1136,1147,1148,1137,1374,1331,1400,1486,1720,2148,2482,2556,2652,2686,2643,2659,2575,2532,2535,2436,2475,2355,2300,2293,2274,2215,2178,2142,2072,1894,1776,1739,1659,1599,1470,1425,1422,1359,1350,1355,1365,1375,1424,1424,1428,1437,1441,1430,1440,1442,1445,1450,1447,1448,1457,1450,1450,1471,1449,1450,1456,1461,1446,1450,1439,1439,1439,1439,1439,407,408,412,411,414,523,595,664,742,809,827,815,800,787,774,761,748,734,721,708,695,690,668,655,642,629,623,602,589,576,563,550,439,490,456,414,415,416,364,365,366,370,370,369,372,371,372,372,372,372,373,381,376,375,373,378,376,373,373,377,377,377,377,377,377,220,220,221,222,223,283,321,357,394,431,445,438,432,424,418,411,403,397,390,382,355,368,361,335,347,341,334,326,320,312,305,299,291,284,227,223,224,225,215,215,216,216,225,217,221,225,216,229,221,217,224,223,221,224,228,225,227,225,224,227,223,242,236,236,236,616,612,619,621,625,766,945,1052,1163,1219,1243,1234,1200,1179,1164,1126,1107,1100,1081,1074,1029,1020,988,986,950,943,920,896,882,863,845,709,657,643,628,618,627,617,562,562,564,568,569,567,571,568,572,570,571,573,575,585,581,579,578,579,578,581,580,583,581,581,581,581,581,570,572,573,575,578,656,851,950,1078,1137,1147,1130,1111,1092,1073,1056,1038,1018,1001,982,964,944,928,914,890,877,855,835,818,800,747,712,609,604,583,578,580,563,506,508,513,513,510,511,517,516,513,525,522,516,521,534,530,532,520,524,526,526,525,524,525,525,525,525,525,909,912,918,919,939,1305,1514,1673,1753,1790,1802,1791,1725,1711,1687,1641,1628,1595,1587,1526,1498,1497,1455,1440,1416,1415,1352,1299,1270,1198,1129,1070,946,929,914,911,929,909,933,934,940,936,959,941,955,963,950,958,962,955,960,967,967,973,963,965,978,972,955,958,977,961,963,964,956,960,965,967,969,990,1328,1517,1692,1828,1877,1870,1835,1815,1782,1753,1725,1705,1666,1637,1608,1579,1549,1521,1504,1464,1441,1416,1382,1354,1261,1130,1031,1008,999,978,972,969,967,921,917,921,928,933,927,929,931,932,947,933,933,946,956,974,933,929,950,941,954,929,934,950,950,950,950,950,814,828,821,825,873,1085,1287,1454,1567,1627,1629,1603,1582,1552,1517,1504,1467,1442,1417,1386,1375,1334,1320,1295,1264,1241,1215,1192,1165,931,1028,884,897,858,832,829,843,777,750,747,746,746,752,757,754,758,758,759,759,761,760,761,759,762,758,760,781,762,763,778,764,769,770,768,766,434,445,446,447,450,504,640,714,783,855,871,865,853,838,816,811,794,782,765,748,736,720,708,693,684,672,655,641,631,614,580,568,553,466,457,450,451,406,379,376,375,375,381,386,383,387,387,388,388,390,389,390,388,391,387,389,410,391,392,407,393,398,399,397,395,901,903,905,922,1017,1459,1718,1910,2011,2037,2018,1980,1941,1903,1863,1824,1786,1747,1709,1670,1632,1593,1555,1516,1478,1439,1401,1362,1324,1285,1125,988,956,962,918,919,926,933,967,958,951,954,968,1006,977,991,973,984,994,974,973,984,984,1077,1096,987,976,981,988,988,978,977,973,1084,981,1000,1004,1006,1009,1043,1394,1592,1772,1906,1954,1945,1910,1888,1854,1828,1793,1773,1733,1702,1673,1642,1610,1581,1563,1522,1498,1473,1437,1408,1281,1177,1072,1048,1039,1018,1012,1009,1008,961,957,964,966,973,968,972,967,974,990,973,970,988,985,979,968,969,990,978,997,968,986,997,998,992,992,992,1022,1024,1026,1059,1132,1540,1744,1945,2105,2164,2120,2086,2053,2019,1985,1951,1918,1884,1873,1816,1764,1769,1738,1673,1653,1611,1569,1531,1506,1344,1146,1112,1078,1083,1039,1041,1065,1055,1072,1067,1075,1084,1092,1077,1080,1089,1093,1087,1096,1088,1122,1128,1124,1115,1113,1092,1082,1102,1089,1093,1093,1078,1091,1092,1081,713,703,708,721,713,829,1049,1167,1309,1367,1377,1343,1333,1312,1290,1268,1242,1225,1205,1182,1168,1152,1126,1106,1084,1060,1048,1018,982,925,858,846,741,752,728,725,726,669,614,610,613,619,619,622,628,619,619,620,621,622,623,633,629,627,625,626,628,628,628,630,626,626,626,626,626,138,139,139,171,171,176,199,222,245,267,282,278,273,269,265,260,256,251,247,243,238,233,228,224,220,215,211,206,202,198,193,189,184,180,176,172,172,173,129,129,129,131,131,129,131,131,131,132,132,132,132,133,132,133,133,133,134,134,134,134,135,135,135,135,135,0,0,0,0,0,0,0,0,0,0,0,0,0,0,0,0,0,0,0,0,0,0,0,0,0,0,0,0,0,0,0,0,0,0,0,0,0,0,0,0,0,0,0,0,0,0,0,0,0,0,0,0,0,0,0,0,0,0,0,0,0,0,0,0,0,87,88,88,88,108,110,124,138,152,168,179,177,173,170,168,165,162,159,156,154,150,148,145,143,139,136,134,130,128,125,122,119,116,114,111,108,108,108,73,73,73,74,74,74,74,73,73,74,74,73,74,77,76,76,77,74,74,74,74,77,74,76,74,74,74,895,883,905,905,926,1198,1443,1589,1738,1794,1780,1747,1709,1707,1670,1642,1599,1582,1539,1523,1498,1485,1450,1421,1394,1362,1339,1292,1269,1098,1012,996,960,960,928,913,889,892,837,830,842,850,846,851,847,856,851,852,852,854,856,860,858,859,861,861,857,849,851,859,856,856,856,856,856,945,921,948,968,1136,1530,1794,1985,2085,2061,2090,2004,1964,1926,1931,1893,1810,1813,1774,1734,1655,1656,1617,1577,1537,1498,1459,1420,1380,1340,1237,1007,975,947,936,963,970,976,999,990,1016,1016,1014,1085,1004,1015,1027,1037,1055,1036,1035,1046,1035,1027,1019,1027,1011,1035,1008,1019,1029,1024,1017,1128,1025,549,549,548,554,574,701,822,919,1019,1092,1106,1080,1077,1059,1033,1009,1008,985,972,947,933,893,897,875,841,848,818,812,795,773,737,713,625,572,562,553,548,548,518,519,520,518,523,528,527,529,531,530,531,536,537,549,537,535,531,533,556,536,538,548,539,542,544,542,540,927,898,900,909,1075,1445,1643,1829,1982,2007,1953,1917,1881,1844,1809,1773,1736,1701,1665,1665,1593,1590,1521,1482,1449,1444,1372,1372,1305,1269,1092,980,950,924,911,936,912,919,930,939,949,966,961,957,953,975,944,952,950,944,945,960,959,1003,1035,1019,961,956,959,950,942,944,958,958,944,215,216,216,216,217,277,313,349,385,421,436,430,422,415,409,402,394,388,381,375,347,360,354,327,339,333,326,319,312,305,299,291,284,278,271,217,267,268,211,207,209,208,211,216,207,212,216,209,211,209,210,212,212,218,216,214,208,217,211,217,216,211,211,216,220,204,205,205,206,207,262,296,330,364,397,416,410,403,397,390,383,377,370,364,357,350,344,337,331,324,317,311,304,298,291,284,278,271,270,258,207,207,208,179,179,179,181,181,180,182,182,182,183,183,183,183,184,184,185,185,185,186,186,186,186,186,186,186,186,186,635,627,639,642,644,788,951,1060,1187,1257,1269,1235,1225,1207,1187,1167,1141,1125,1107,1085,1072,1057,1032,1011,992,970,959,921,895,845,829,764,695,689,663,646,646,590,533,534,535,539,540,540,543,541,541,542,543,544,545,555,551,549,547,548,550,550,550,552,548,548,548,548,548,776,778,786,794,799,942,1240,1353,1501,1551,1532,1525,1483,1470,1446,1411,1416,1362,1339,1312,1287,1300,1256,1218,1192,1204,1148,1125,1096,1080,1000,896,881,821,810,785,756,759,703,703,705,722,718,709,714,729,719,715,729,729,742,742,755,764,713,713,725,722,718,721,719,719,719,719,719,839,842,843,851,885,1085,1334,1479,1616,1683,1679,1652,1625,1597,1571,1535,1516,1489,1462,1440,1421,1400,1361,1339,1307,1279,1253,1231,1143,1118,1126,965,896,886,860,850,859,860,797,800,799,838,818,814,810,817,815,839,831,833,837,848,831,859,830,833,843,854,843,830,831,831,831,831,831,951,955,960,963,986,1375,1597,1757,1834,1871,1881,1869,1802,1787,1788,1713,1700,1667,1656,1595,1565,1563,1519,1503,1478,1459,1413,1357,1327,1300,1251,1103,989,972,957,954,972,942,969,966,992,981,992,983,994,990,985,1000,987,988,982,996,1027,1029,996,996,985,996,983,982,984,994,989,1006,993,930,921,935,935,962,1240,1500,1641,1782,1835,1835,1808,1776,1748,1728,1690,1668,1637,1609,1574,1543,1530,1499,1470,1424,1398,1363,1333,1306,1182,1093,1036,988,976,950,945,931,915,851,851,855,863,865,864,876,862,862,863,864,865,866,876,872,870,868,869,871,871,871,873,869,869,869,869,869,641,652,644,649,660,731,982,1111,1214,1281,1294,1277,1257,1232,1202,1195,1169,1149,1124,1099,1082,1057,1043,1022,1005,991,964,916,928,870,813,737,754,681,655,652,665,595,568,565,564,564,570,575,572,576,576,577,577,579,578,579,577,580,576,578,599,580,581,596,582,587,588,586,584,1037,1045,1033,1054,1225,1529,1818,1928,2002,2054,2081,2027,1977,1940,1911,1915,1873,1808,1795,1782,1755,1694,1646,1630,1610,1567,1520,1467,1487,1379,1257,1127,1131,1087,1059,1049,1061,1031,1051,1054,1075,1075,1083,1064,1066,1078,1071,1085,1076,1078,1075,1081,1109,1111,1088,1082,1078,1086,1072,1076,1109,1087,1098,1085,1077,1077,1115,1111,1119,1258,1670,1877,2028,2131,2184,2150,2113,2096,2038,2030,2016,1981,1908,1874,1871,1844,1769,1734,1718,1666,1630,1522,1500,1487,1379,1182,1186,1207,1117,1118,1106,1097,1122,1099,1096,1110,1105,1116,1092,1103,1109,1108,1125,1124,1118,1120,1130,1117,1110,1138,1126,1123,1121,1121,1130,1130,1125,1125,1137,1128,1067,1070,1074,1094,1129,1429,1750,1929,2082,2129,2104,2070,2037,2003,1969,1936,1901,1895,1835,1801,1768,1734,1701,1668,1634,1600,1567,1535,1500,1313,1275,1145,1118,1098,1085,1082,1076,1079,1068,1064,1077,1084,1073,1077,1081,1082,1089,1093,1098,1085,1095,1101,1096,1083,1095,1104,1076,1093,1081,1083,1082,1081,1084,1096,1089,1332,1334,1332,1427,1676,2013,2362,2488,2564,2600,2601,2482,2489,2453,2459,2413,2354,2297,2276,2203,2124,2072,2111,2046,2020,1894,1734,1702,1611,1524,1472,1453,1383,1379,1329,1351,1355,1354,1382,1382,1385,1393,1398,1389,1396,1398,1401,1408,1403,1406,1415,1411,1408,1432,1406,1405,1412,1421,1399,1410,1396,1404,1402,1402,1397,362,363,365,366,367,417,534,596,658,719,745,724,713,709,697,688,677,654,651,631,619,607,596,584,572,567,548,543,531,513,512,460,431,381,372,372,369,375,322,323,323,326,327,328,328,327,328,330,328,330,331,342,334,336,330,333,332,329,326,337,334,331,332,332,331,167,168,168,169,169,213,240,268,295,323,338,333,327,322,317,312,306,301,295,291,286,280,275,269,264,259,254,248,243,237,233,227,222,216,211,207,207,209,160,162,161,162,162,162,162,162,161,162,160,161,162,165,166,166,165,162,163,162,167,195,163,166,162,163,165,547,555,549,569,571,692,845,959,1052,1140,1155,1105,1068,1049,1071,1050,1023,966,983,970,926,909,892,874,856,875,820,836,818,768,776,592,644,572,558,576,556,566,520,520,521,524,526,526,527,524,528,528,527,531,533,546,539,540,535,534,534,537,533,543,538,531,536,532,531,500,502,503,523,535,561,769,869,957,1050,1061,995,979,962,993,966,914,898,916,865,849,833,817,801,785,805,753,771,753,705,671,644,569,542,512,533,510,512,464,466,470,469,467,470,473,472,469,483,478,474,479,495,488,493,477,479,482,482,478,484,482,479,477,477,476,951,970,970,984,1075,1433,1617,1773,1863,1921,1912,1877,1840,1804,1806,1758,1729,1677,1646,1617,1607,1572,1543,1496,1483,1436,1391,1415,1319,1220,1192,1106,1002,1011,1007,968,937,982,981,976,988,991,1000,982,1008,1008,989,1021,1010,1018,1023,1030,1027,991,1020,1013,1017,1017,1008,1012,1027,999,1016,1020,1009,891,895,897,900,931,1156,1456,1610,1707,1794,1789,1710,1684,1684,1676,1637,1599,1573,1554,1496,1468,1442,1414,1391,1360,1376,1311,1318,1285,1227,1087,962,959,945,907,929,899,916,881,872,878,883,891,887,889,879,894,905,888,886,904,917,932,900,888,905,892,910,882,891,907,904,905,905,885,789,791,792,799,830,1016,1231,1369,1502,1562,1569,1544,1524,1494,1473,1440,1417,1393,1369,1356,1328,1294,1287,1256,1227,1195,1178,1163,1128,1043,1013,891,847,827,804,804,806,753,735,725,729,732,727,743,731,744,737,736,741,737,740,739,737,748,737,735,740,745,735,742,739,740,737,745,738,411,412,416,413,430,501,602,670,738,806,813,808,795,781,777,750,744,732,716,717,696,682,673,661,647,625,621,609,589,583,562,528,516,435,427,430,417,382,364,354,358,361,356,371,360,373,366,365,370,366,369,368,366,377,366,364,369,374,364,371,368,369,366,374,367,930,932,983,954,1086,1366,1669,1847,1994,2051,2028,1989,1964,1932,1900,1868,1837,1795,1773,1716,1677,1667,1654,1609,1519,1536,1441,1401,1361,1322,1207,1017,985,957,946,948,955,962,983,981,974,983,974,994,982,988,1006,1047,989,998,1014,1012,1003,1001,1061,996,988,995,1006,1002,998,1006,1010,1020,995,932,934,937,940,996,1222,1531,1690,1785,1871,1865,1785,1756,1756,1748,1707,1667,1640,1620,1560,1532,1503,1476,1451,1423,1433,1367,1373,1339,1240,1122,1002,999,984,947,969,939,957,921,912,918,926,929,927,930,922,930,948,931,926,946,946,937,930,923,945,932,953,922,930,954,949,952,954,927,1023,1026,1029,1039,1076,1356,1664,1842,1998,2046,2022,1989,1958,1925,1893,1861,1829,1822,1764,1732,1699,1667,1635,1603,1570,1538,1505,1475,1442,1285,1221,1100,1074,1053,1041,1037,1020,1023,1013,1008,1021,1029,1024,1019,1023,1024,1031,1035,1042,1027,1074,1061,1055,1065,1054,1046,1018,1040,1028,1025,1024,1023,1028,1046,1037,659,662,663,652,670,782,988,1099,1212,1278,1294,1250,1252,1235,1220,1198,1170,1137,1135,1094,1077,1073,1050,1030,996,994,969,959,929,881,832,728,724,681,667,669,676,618,572,568,570,575,576,581,584,575,575,578,577,580,581,594,587,588,582,581,584,584,581,590,583,580,581,581,580,98,98,98,121,121,123,138,155,170,185,198,195,192,189,185,182,180,177,173,170,167,163,161,158,155,151,148,146,143,139,136,133,129,127,124,121,122,122,87,87,86,87,88,88,87,87,87,90,88,90,90,94,90,94,90,88,90,90,87,94,90,87,88,88,87,78,78,78,96,96,97,111,124,136,149,159,157,155,152,149,147,145,141,139,137,134,132,129,126,124,122,119,116,114,112,108,106,104,101,99,96,96,97,62,62,63,63,63,63,63,63,62,63,63,63,63,63,63,64,63,63,63,63,64,64,63,65,63,63,63,0,0,0,0,0,0,0,0,0,0,0,0,0,0,0,0,0,0,0,0,0,0,0,0,0,0,0,0,0,0,0,0,0,0,0,0,0,0,0,0,0,0,0,0,0,0,0,0,0,0,0,0,0,0,0,0,0,0,0,0,0,0,0,0,0,853,854,859,860,884,1071,1381,1521,1652,1705,1698,1667,1639,1613,1594,1584,1535,1505,1480,1449,1422,1397,1366,1331,1314,1296,1252,1232,1215,988,1009,914,898,885,869,871,843,841,796,796,796,806,806,807,805,808,809,810,808,809,815,826,813,817,817,816,813,813,801,819,813,809,810,810,800,948,950,1026,1001,1186,1509,1828,1994,2151,2162,2142,2102,2016,1976,1981,1941,1857,1819,1820,1779,1740,1661,1746,1703,1542,1502,1498,1458,1417,1378,1296,1035,1028,1001,990,992,973,1006,1032,1042,1037,1059,1047,1073,1061,1059,1071,1100,1063,1060,1082,1074,1049,1051,1062,1072,1061,1054,1055,1051,1071,1053,1054,1062,1039,527,528,530,530,535,694,784,876,967,1043,1045,1037,1019,1002,995,966,952,935,918,918,888,872,861,845,825,801,793,778,751,742,717,704,681,541,532,536,534,524,504,496,503,504,497,515,504,515,510,507,512,513,517,519,524,521,510,505,515,518,510,513,514,515,510,519,512,925,927,978,941,1035,1441,1710,1896,1996,2022,2041,1970,1930,1896,1895,1822,1783,1785,1711,1673,1637,1601,1650,1608,1490,1454,1416,1380,1342,1306,1200,1045,977,977,936,939,942,949,951,964,963,971,988,956,973,992,975,967,1006,985,999,1008,1016,1016,1052,965,992,990,979,965,974,963,974,987,962,162,162,162,163,163,206,233,260,321,350,328,323,319,313,308,303,298,292,288,282,277,272,267,261,256,251,246,240,236,231,225,221,215,210,195,191,192,192,154,154,155,157,156,156,156,156,156,157,157,159,162,204,202,160,154,157,156,156,156,159,156,156,154,156,156,162,163,163,164,164,170,235,262,289,315,333,327,322,317,312,306,301,295,291,286,280,275,269,264,259,254,248,243,237,233,227,181,177,172,169,165,165,166,137,137,136,137,138,139,138,138,138,141,139,141,141,145,142,146,142,140,142,142,139,146,143,140,141,141,140,590,590,597,587,602,693,890,992,1100,1168,1185,1144,1146,1130,1117,1095,1068,1037,1036,997,981,978,942,936,905,905,880,873,849,814,798,645,680,624,601,603,603,539,491,492,492,495,497,499,499,497,497,500,499,502,503,516,509,510,504,503,506,506,503,512,505,502,503,503,502,724,707,736,746,755,838,1148,1276,1371,1439,1450,1410,1397,1381,1359,1337,1281,1288,1255,1217,1217,1157,1167,1113,1128,1140,1045,1065,1048,1023,948,777,765,761,716,743,720,706,661,661,662,678,675,668,670,685,675,673,685,687,700,701,702,713,670,668,681,678,671,681,676,673,674,674,673,775,801,779,782,833,956,1265,1405,1524,1594,1593,1519,1494,1515,1497,1461,1401,1376,1385,1370,1301,1278,1290,1226,1202,1213,1151,1161,1080,1059,1050,846,846,806,789,812,806,804,755,758,756,794,775,773,766,773,771,797,787,791,795,809,789,820,787,788,799,810,796,790,788,801,802,787,786,994,1013,1012,1028,1148,1507,1700,1857,1944,2000,1990,1955,1916,1878,1880,1830,1800,1747,1716,1685,1674,1638,1607,1559,1545,1497,1450,1473,1376,1178,1146,1150,1044,1054,1050,1011,981,1022,1017,1008,1042,1011,1043,1011,1055,1021,1025,1041,1035,1038,1027,1053,1038,1024,1053,1041,1030,1039,1036,1036,1040,1032,1053,1064,1041,862,866,868,866,920,1127,1429,1573,1691,1746,1753,1705,1664,1636,1653,1621,1559,1527,1534,1475,1447,1423,1391,1347,1333,1341,1266,1281,1252,1057,971,917,937,917,879,892,878,864,809,809,812,819,822,823,832,818,818,821,820,823,824,837,830,831,825,824,827,827,824,833,826,823,824,824,823,616,622,620,623,628,700,936,1039,1149,1220,1230,1218,1199,1174,1158,1131,1119,1100,1076,1069,1049,1026,1011,988,972,945,927,843,801,784,765,732,671,650,627,627,628,571,553,543,547,550,545,561,549,562,555,554,559,555,558,557,555,566,555,553,558,563,553,560,557,558,555,563,556,1077,1115,1111,1119,1258,1670,1877,2028,2131,2184,2150,2113,2096,2038,2030,2016,1981,1908,1874,1871,1844,1769,1734,1718,1666,1630,1522,1500,1487,1379,1182,1186,1207,1117,1118,1106,1097,1122,1099,1096,1110,1105,1116,1092,1103,1109,1108,1125,1124,1118,1120,1130,1117,1110,1138,1126,1123,1121,1121,1130,1130,1125,1125,1137,1128,1078,1080,1093,1107,1205,1490,1786,1967,2074,2129,2129,2083,2068,2052,1993,1962,1930,1890,1856,1828,1796,1758,1711,1678,1658,1624,1585,1519,1423,1207,1212,1188,1125,1106,1113,1092,1114,1115,1054,1062,1063,1070,1079,1070,1065,1078,1064,1068,1069,1068,1066,1064,1082,1073,1073,1075,1074,1080,1087,1097,1084,1103,1103,1083,1082,554,556,559,559,572,750,881,1014,1144,1238,1248,1225,1213,1178,1155,1131,1108,1085,1062,1039,1016,993,970,963,922,899,876,844,830,807,775,761,722,620,567,583,568,560,539,537,541,545,539,551,546,547,546,550,564,545,546,549,548,557,550,551,551,548,551,551,551,552,547,566,552,723,727,749,732,762,995,1113,1209,1316,1334,1343,1326,1345,1334,1269,1296,1278,1207,1188,1250,1182,1124,1141,1178,1099,1034,1095,1038,1062,916,799,782,765,748,758,735,726,769,720,734,723,739,743,743,744,743,737,742,734,737,736,733,734,742,741,740,743,734,736,744,740,809,766,772,742,496,496,498,499,509,599,729,832,923,969,981,971,955,942,928,922,906,886,875,858,845,831,809,794,779,762,744,730,715,694,672,546,532,520,508,504,505,482,378,378,378,378,378,378,378,378,378,378,378,378,378,378,378,378,378,378,378,378,378,378,378,378,378,378,378,729,730,730,733,767,895,1121,1262,1395,1433,1438,1422,1395,1375,1354,1342,1318,1290,1271,1247,1226,1205,1177,1156,1130,1110,1084,1063,1044,1016,960,854,800,761,744,741,743,707,603,603,603,603,603,603,603,603,603,603,603,603,603,603,603,603,603,603,603,603,603,603,603,603,603,603,603,315,298,288,289,334,306,359,456,492,522,544,538,533,527,521,515,510,504,498,492,487,481,468,459,451,427,374,367,359,351,324,317,341,323,315,308,310,346,199,199,199,199,199,199,199,199,199,199,199,199,199,199,199,199,199,199,199,199,199,199,199,199,199,199,199,350,351,353,352,356,440,509,569,611,656,675,666,657,649,640,631,622,613,606,596,587,579,579,567,565,553,531,523,509,497,475,467,464,369,360,357,358,359,252,252,252,252,252,252,252,252,252,252,252,252,252,252,252,252,252,252,252,252,252,252,252,252,252,252,252,1224,1227,1236,1255,1353,1891,2127,2285,2374,2415,2402,2367,2321,2291,2253,2213,2168,2129,2091,2068,2040,1985,1946,1908,1861,1837,1785,1603,1449,1418,1387,1304,1284,1262,1263,1261,1263,1243,1196,1196,1196,1196,1196,1196,1196,1196,1196,1196,1196,1196,1196,1196,1196,1196,1196,1196,1196,1196,1196,1196,1196,1196,1196,1196,1196,553,555,556,558,559,672,858,948,1044,1112,1126,1108,1084,1071,1054,1036,1008,1001,982,965,946,928,911,893,875,857,839,821,802,785,767,655,640,577,565,561,563,556,497,497,497,497,497,497,497,497,497,497,497,497,497,497,497,497,497,497,497,497,497,497,497,497,497,497,497,465,467,469,469,476,615,686,767,846,918,938,922,908,894,878,864,849,834,819,805,796,775,761,745,731,716,701,687,672,657,647,628,501,489,486,474,484,486,435,436,438,444,448,451,443,466,443,454,444,445,440,452,446,495,481,467,453,446,446,453,447,474,435,445,444,527,529,529,531,543,681,798,891,979,1047,1062,1046,1028,1010,998,977,960,944,931,899,894,876,860,843,827,810,794,771,760,742,723,675,655,552,540,537,539,529,459,459,459,459,459,459,459,459,459,459,459,459,459,459,459,459,459,459,459,459,459,459,459,459,459,459,459,712,706,716,713,729,972,1143,1308,1466,1547,1558,1529,1500,1468,1447,1414,1386,1358,1329,1289,1277,1249,1206,1190,1161,1137,1105,1071,1048,970,939,893,769,747,728,725,729,655,637,640,644,652,644,651,672,652,647,649,653,652,672,653,659,668,649,650,655,648,651,652,651,650,640,640,638,592,594,596,598,599,732,924,1021,1124,1192,1204,1185,1160,1146,1127,1108,1079,1070,1050,1032,1012,993,975,955,935,916,897,877,857,839,820,708,690,617,604,601,603,596,537,537,537,537,537,537,537,537,537,537,537,537,537,537,537,537,537,537,537,537,537,537,537,537,537,537,537,508,509,511,512,522,686,805,928,1051,1145,1162,1140,1118,1092,1071,1049,1027,1005,983,962,943,921,896,874,853,834,809,781,765,744,713,700,632,537,521,518,522,524,505,508,514,520,515,521,566,521,513,518,520,520,547,523,526,544,516,518,523,518,520,520,520,521,512,514,516,228,228,229,229,232,243,328,368,405,443,471,463,455,449,441,435,428,420,412,404,397,390,379,371,364,356,349,342,334,326,319,312,249,243,236,233,234,234,155,155,155,155,155,155,155,155,155,155,155,155,155,155,155,155,155,155,155,155,155,155,155,155,155,155,155,763,765,766,768,796,949,1183,1332,1466,1503,1506,1487,1467,1440,1418,1404,1379,1350,1330,1304,1283,1261,1235,1208,1188,1162,1135,1111,1092,992,926,871,825,793,777,777,754,712,608,608,608,608,608,608,608,608,608,608,608,608,608,608,608,608,608,608,608,608,608,608,608,608,608,608,608,855,861,856,866,898,1125,1338,1524,1640,1677,1668,1645,1633,1604,1571,1566,1546,1507,1490,1466,1454,1406,1374,1364,1328,1300,1262,1240,1074,1065,953,930,933,895,863,873,868,826,723,723,723,723,723,723,723,723,723,723,723,723,723,723,723,723,723,723,723,723,723,723,723,723,723,723,723,802,804,805,808,847,1022,1254,1412,1547,1582,1584,1564,1539,1514,1491,1476,1449,1420,1398,1372,1347,1323,1293,1270,1246,1220,1192,1167,1147,1045,953,926,866,832,818,816,806,764,661,661,661,661,661,661,661,661,661,661,661,661,661,661,661,661,661,661,661,661,661,661,661,661,661,661,661,0,0,0,0,0,0,0,0,0,0,0,0,0,0,0,0,0,0,0,0,0,0,0,0,0,0,0,0,0,0,0,0,0,0,0,0,0,0,0,0,0,0,0,0,0,0,0,0,0,0,0,0,0,0,0,0,0,0,0,0,0,0,0,0,0,683,685,724,726,727,954,1172,1411,1553,1611,1625,1627,1523,1515,1532,1432,1454,1392,1326,1345,1266,1236,1280,1188,1189,1128,1085,1085,1054,1047,965,765,762,755,728,744,739,727,708,712,717,724,721,724,729,731,720,729,725,726,742,726,736,741,722,723,731,721,723,725,725,723,717,713,711,619,621,621,651,659,738,1011,1128,1213,1272,1246,1219,1189,1244,1150,1179,1181,1149,1124,1103,1045,1067,1008,1027,1007,940,930,944,924,855,833,780,659,695,631,628,646,648,574,574,574,574,574,574,574,574,574,574,574,574,574,574,574,574,574,574,574,574,574,574,574,574,574,574,574,822,824,826,828,885,1152,1433,1547,1686,1759,1762,1733,1700,1667,1639,1614,1576,1550,1513,1481,1454,1422,1391,1356,1325,1296,1263,1225,1198,1167,1059,959,879,855,838,836,841,831,797,797,797,797,797,797,797,797,797,797,797,797,797,797,797,797,797,797,797,797,797,797,797,797,797,797,797,686,688,699,702,715,807,1074,1205,1316,1356,1366,1352,1319,1300,1286,1277,1246,1230,1208,1196,1161,1146,1119,1102,1076,1059,1023,1002,983,962,896,836,731,734,702,699,701,682,577,577,577,577,577,577,577,577,577,577,577,577,577,577,577,577,577,577,577,577,577,577,577,577,577,577,577,714,716,716,719,749,897,1096,1238,1369,1407,1412,1395,1371,1351,1330,1318,1295,1267,1249,1225,1204,1183,1156,1136,1112,1089,1065,1042,1025,997,907,786,759,743,730,726,728,693,592,592,592,592,592,592,592,592,592,592,592,592,592,592,592,592,592,592,592,592,592,592,592,592,592,592,592,247,247,248,248,251,274,350,376,399,428,451,445,440,433,427,422,416,410,405,399,393,387,400,392,387,378,370,364,357,349,341,334,326,281,273,252,252,270,173,173,173,173,173,173,173,173,173,173,173,173,173,173,173,173,173,173,173,173,173,173,173,173,173,173,173,571,572,567,580,592,618,879,975,1074,1135,1147,1131,1111,1091,1076,1056,1030,1017,998,985,965,952,933,919,895,877,854,779,823,758,784,641,617,599,590,586,588,530,477,477,477,477,477,477,477,477,477,477,477,477,477,477,477,477,477,477,477,477,477,477,477,477,477,477,477,610,601,597,598,621,756,916,1012,1113,1181,1194,1175,1155,1136,1123,1105,1078,1067,1049,1030,1010,991,974,966,935,916,897,878,860,840,756,798,758,611,606,602,604,604,559,559,559,559,559,559,559,559,559,559,559,559,559,559,559,559,559,559,559,559,559,559,559,559,559,559,559,1299,1303,1319,1329,1549,1994,2273,2435,2523,2512,2503,2454,2453,2429,2352,2350,2253,2260,2225,2154,2142,2099,2014,2019,1978,1932,1898,1757,1480,1447,1444,1409,1359,1329,1310,1306,1292,1319,1249,1249,1249,1249,1249,1249,1249,1249,1249,1249,1249,1249,1249,1249,1249,1249,1249,1249,1249,1249,1249,1249,1249,1249,1249,1249,1249,126,126,127,127,157,161,182,204,226,247,261,257,253,248,244,240,236,232,227,223,220,215,211,206,202,199,194,190,185,181,178,173,169,165,160,157,158,158,116,117,119,122,119,121,117,120,117,121,118,117,118,118,120,122,120,119,120,118,120,120,119,121,116,118,117,476,478,482,479,511,644,714,821,910,957,962,975,927,916,928,885,870,881,849,828,818,803,803,763,748,732,718,705,687,693,676,561,559,499,488,499,486,481,431,431,431,431,431,431,431,431,431,431,431,431,431,431,431,431,431,431,431,431,431,431,431,431,431,431,431,1078,1080,1093,1107,1205,1490,1786,1967,2074,2129,2129,2083,2068,2052,1993,1962,1930,1890,1856,1828,1796,1758,1711,1678,1658,1624,1585,1519,1423,1207,1212,1188,1125,1106,1113,1092,1114,1115,1054,1062,1063,1070,1079,1070,1065,1078,1064,1068,1069,1068,1066,1064,1082,1073,1073,1075,1074,1080,1087,1097,1084,1103,1103,1083,1082,1444,1427,1451,1586,1792,2365,2607,2813,2959,2962,2940,2867,2838,2809,2719,2668,2664,2569,2537,2479,2431,2377,2322,2290,2224,2178,2006,1884,1648,1604,1581,1505,1485,1442,1436,1448,1448,1452,1422,1422,1422,1422,1422,1422,1422,1422,1422,1422,1422,1422,1422,1422,1422,1422,1422,1422,1422,1422,1422,1422,1422,1422,1422,1422,1422,261,262,263,264,265,341,385,429,473,515,530,521,512,504,496,488,479,471,463,455,446,438,430,421,413,404,397,388,380,376,364,355,350,338,330,266,267,267,249,251,255,262,252,251,251,253,256,252,252,252,253,255,252,255,255,256,256,258,255,258,258,266,260,266,261,735,737,739,735,762,1009,1159,1277,1383,1436,1436,1413,1390,1367,1344,1321,1299,1276,1252,1235,1210,1183,1160,1137,1115,1098,1127,1100,1072,1026,931,909,762,758,749,747,750,754,717,717,717,717,717,717,717,717,717,717,717,717,717,717,717,717,717,717,717,717,717,717,717,717,717,717,717,903,893,896,910,954,1322,1472,1650,1735,1782,1890,1746,1718,1712,1700,1633,1604,1576,1547,1599,1511,1463,1434,1406,1467,1349,1321,1292,1281,1243,1162,978,954,921,919,904,919,921,923,930,926,938,954,924,935,950,941,935,954,953,954,954,954,954,954,954,954,954,944,942,954,932,945,954,931,992,982,985,1029,1067,1451,1666,1822,1930,1948,1937,1930,1877,1848,1854,1786,1754,1722,1691,1740,1629,1599,1586,1536,1508,1476,1445,1431,1399,1338,1262,1056,1031,1010,997,994,962,964,957,956,963,976,987,964,951,963,955,1009,984,981,984,1011,1001,1011,1008,993,995,985,990,996,991,998,993,992,985,846,838,838,849,897,1180,1365,1526,1603,1675,1710,1629,1618,1578,1549,1511,1498,1508,1447,1422,1397,1380,1332,1314,1288,1261,1244,1194,1167,1157,1013,964,932,860,848,848,840,837,828,827,828,834,835,837,842,842,841,846,843,844,847,849,849,845,857,857,855,855,852,855,859,872,859,878,859,860,863,878,877,927,1258,1464,1589,1678,1732,1765,1722,1684,1670,1600,1573,1546,1552,1526,1501,1477,1423,1410,1355,1327,1318,1272,1236,1208,1224,1149,985,900,904,898,873,865,863,879,872,874,885,894,883,887,891,901,898,893,893,893,897,897,875,889,903,898,905,883,885,905,908,900,903,889,1420,1426,1518,1593,2177,2728,3085,3264,3388,3388,3346,3283,3216,3128,3072,3001,2931,2861,2777,2712,2637,2591,2390,2361,2314,2280,2190,1999,1897,1650,1618,1524,1480,1451,1449,1455,1470,1485,1561,1561,1561,1561,1561,1561,1561,1561,1561,1561,1561,1561,1561,1561,1561,1561,1561,1561,1561,1561,1561,1561,1561,1561,1561,1561,1561,485,486,487,488,492,650,728,805,883,935,942,928,915,900,886,872,858,843,830,816,801,812,773,760,745,731,717,702,688,675,661,646,632,580,495,491,492,494,485,479,490,486,480,492,486,482,486,498,540,500,499,503,501,541,498,500,491,503,501,501,541,497,494,541,541,829,795,808,847,851,1203,1396,1590,1760,1807,1780,1749,1718,1727,1654,1622,1628,1559,1527,1496,1475,1439,1403,1367,1337,1295,1259,1224,1188,1152,1123,1071,855,826,819,818,823,830,803,803,803,803,803,803,803,803,803,803,803,803,803,803,803,803,803,803,803,803,803,803,803,803,803,803,803,1108,1146,1156,1221,1287,1752,2059,2213,2259,2302,2327,2287,2209,2200,2152,2093,2052,2062,2017,1981,1949,1904,1870,1799,1780,1741,1691,1646,1514,1376,1344,1213,1193,1150,1169,1139,1127,1124,1102,1102,1102,1102,1102,1102,1102,1102,1102,1102,1102,1102,1102,1102,1102,1102,1102,1102,1102,1102,1102,1102,1102,1102,1102,1102,1102,99,99,99,99,99,101,140,157,173,189,202,199,195,192,189,185,183,180,177,173,170,167,163,160,157,154,150,148,145,141,138,135,132,128,125,100,100,100,90,86,86,87,91,88,90,88,90,87,90,93,101,91,92,94,93,90,90,94,114,114,114,114,114,99,94,285,285,286,287,288,370,418,464,511,574,586,577,568,559,534,525,517,523,513,504,496,487,464,455,446,437,429,410,401,402,393,385,367,367,358,288,289,283,279,272,276,279,271,285,279,276,278,278,299,279,279,279,278,306,286,283,274,280,277,279,282,278,279,305,284,218,219,219,220,221,281,317,355,391,427,443,436,429,422,415,408,401,394,387,380,374,366,359,352,345,338,331,324,317,314,303,297,293,282,276,221,222,223,212,218,215,220,221,224,218,220,215,220,216,216,216,224,222,261,261,236,222,221,261,222,221,236,216,222,216,836,838,841,851,899,1220,1380,1547,1631,1691,1721,1654,1633,1606,1558,1532,1511,1523,1500,1439,1423,1386,1345,1318,1292,1269,1239,1203,1177,1159,1133,1026,876,870,851,848,851,861,848,848,848,848,848,848,848,848,848,848,848,848,848,848,848,848,848,848,848,848,848,848,848,848,848,848,848,1024,1036,1050,1063,1136,1584,1851,2020,2123,2138,2123,2113,2060,2027,2007,1958,1925,1888,1855,1868,1786,1751,1737,1683,1655,1620,1585,1560,1532,1469,1220,1123,1123,1072,1039,1071,1045,1054,1047,1046,1051,1051,1051,1051,1041,1051,1045,1051,1051,1051,1051,1051,1051,1051,1051,1051,1051,1051,1051,1051,1051,1051,1051,1051,1051,906,908,945,926,1186,1374,1630,1845,1980,2042,2036,1989,1951,1912,1874,1835,1797,1758,1720,1681,1644,1613,1567,1540,1490,1452,1461,1375,1346,1299,1260,1222,983,942,921,930,927,934,922,922,922,922,922,922,922,922,922,922,922,922,922,922,922,922,922,922,922,922,922,922,922,922,922,922,922,971,973,1010,999,1075,1526,1763,1974,2107,2179,2159,2123,2078,2065,2028,1948,1908,1867,1827,1787,1746,1714,1666,1636,1586,1545,1560,1465,1434,1383,1272,1196,1049,1008,987,996,1000,999,995,995,995,995,995,995,995,995,995,995,995,995,995,995,995,995,995,995,995,995,995,995,995,995,995,995,995,713,707,728,730,780,1056,1266,1419,1580,1646,1622,1610,1565,1571,1493,1477,1461,1404,1378,1361,1367,1317,1277,1244,1215,1177,1144,1111,1076,1031,972,947,813,745,738,736,733,727,693,693,693,693,693,693,693,693,693,693,693,693,693,693,693,693,693,693,693,693,693,693,693,693,693,693,693,0,0,0,0,0,0,0,0,0,0,0,0,0,0,0,0,0,0,0,0,0,0,0,0,0,0,0,0,0,0,0,0,0,0,0,0,0,0,0,0,0,0,0,0,0,0,0,0,0,0,0,0,0,0,0,0,0,0,0,0,0,0,0,0,0,1158,1154,1180,1197,1356,1847,2100,2315,2440,2487,2442,2414,2360,2349,2282,2243,2210,2140,2096,2071,2036,1994,1963,1928,1846,1822,1758,1665,1565,1427,1302,1271,1242,1198,1189,1191,1159,1154,1112,1112,1112,1112,1112,1112,1112,1112,1112,1112,1112,1112,1112,1112,1112,1112,1112,1112,1112,1112,1112,1112,1112,1112,1112,1112,1112,268,269,270,270,270,348,394,441,487,532,545,536,528,519,511,502,493,485,476,467,458,449,442,433,424,415,407,398,389,380,371,364,355,346,337,271,272,334,270,262,263,263,296,270,267,271,264,296,269,265,271,270,269,296,296,272,270,271,270,296,270,271,270,296,271,936,924,929,958,994,1355,1555,1712,1823,1843,1833,1828,1775,1747,1755,1708,1659,1628,1599,1649,1540,1511,1501,1452,1424,1394,1364,1352,1322,1263,1202,1152,975,953,937,936,926,928,921,920,927,940,951,928,915,927,919,973,948,945,948,975,965,975,972,957,959,949,954,960,955,962,957,956,949,1020,1009,1014,1050,1115,1504,1711,1883,1989,2005,1993,1985,1932,1901,1886,1837,1805,1772,1739,1787,1675,1644,1630,1579,1551,1518,1486,1418,1386,1356,1304,1086,1060,1039,1026,1023,993,995,988,987,996,1009,1020,997,984,996,988,1043,1018,1015,1018,1045,1035,1045,1042,1028,1030,1020,1025,1031,1026,1033,1029,1028,1021,875,878,881,889,937,1262,1417,1581,1666,1728,1757,1691,1670,1656,1610,1570,1551,1564,1541,1480,1465,1427,1398,1361,1347,1314,1283,1248,1222,1205,1079,1051,915,909,891,888,874,871,867,867,867,867,867,867,867,867,867,867,867,867,867,867,867,867,867,867,867,867,867,867,867,867,867,867,867,717,719,721,733,763,1021,1153,1297,1481,1442,1571,1447,1393,1370,1362,1337,1313,1290,1264,1308,1210,1187,1164,1139,1117,1162,1081,1058,1024,1010,817,797,778,745,750,736,720,713,706,720,718,721,724,724,722,724,721,724,721,721,724,724,724,724,724,724,724,724,724,724,724,724,724,724,722,503,504,505,526,513,626,785,899,930,999,1047,991,975,960,983,966,950,898,883,867,852,866,850,833,817,762,784,767,750,733,687,672,628,525,513,510,511,532,515,523,517,521,532,527,546,546,526,545,529,531,529,525,525,571,552,526,532,523,521,531,525,543,527,533,524,1370,1377,1391,1521,2064,2524,2901,3087,3218,3227,3180,3107,3044,2999,2954,2835,2774,2755,2640,2568,2523,2445,2403,2316,2286,2215,2152,2067,1890,1597,1538,1466,1462,1395,1389,1396,1406,1426,1429,1429,1429,1429,1429,1429,1429,1429,1429,1429,1429,1429,1429,1429,1429,1429,1429,1429,1429,1429,1429,1429,1429,1429,1429,1429,1429,648,649,661,663,684,964,1138,1308,1469,1531,1500,1474,1446,1459,1391,1365,1382,1310,1282,1256,1270,1214,1182,1145,1117,1082,1050,1018,987,961,929,917,865,683,671,670,679,675,652,652,652,652,652,652,652,652,652,652,652,652,652,652,652,652,652,652,652,652,652,652,652,652,652,652,652,952,954,977,992,1044,1483,1715,1936,2095,2111,2078,2050,2013,2007,1940,1894,1884,1821,1783,1746,1726,1692,1650,1603,1562,1520,1486,1444,1397,1355,1089,1055,1034,993,992,996,949,944,902,902,902,902,902,902,902,902,902,902,902,902,902,902,902,902,902,902,902,902,902,902,902,902,902,902,902,1444,1427,1451,1586,1792,2365,2607,2813,2959,2962,2940,2867,2838,2809,2719,2668,2664,2569,2537,2479,2431,2377,2322,2290,2224,2178,2006,1884,1648,1604,1581,1505,1485,1442,1436,1448,1448,1452,1422,1422,1422,1422,1422,1422,1422,1422,1422,1422,1422,1422,1422,1422,1422,1422,1422,1422,1422,1422,1422,1422,1422,1422,1422,1422,1422,625,654,624,651,646,880,950,1077,1168,1274,1249,1277,1216,1189,1221,1186,1136,1116,1148,1102,1082,1037,1049,1021,1024,949,929,909,897,777,855,829,729,650,633,630,631,633,633,633,635,635,635,636,636,636,636,637,637,637,638,638,638,639,639,639,639,639,639,639,640,640,640,639,639,1059,1060,1065,1071,1122,1537,1839,2111,2165,2206,2231,2123,2085,2030,2029,1970,1932,1928,1914,1873,1834,1786,1744,1715,1676,1612,1591,1534,1491,1294,1246,1144,1081,1081,1064,1074,1070,1075,1040,1045,1044,1050,1085,1075,1053,1070,1056,1072,1077,1075,1074,1078,1083,1081,1072,1082,1077,1081,1076,1077,1075,1109,1075,1078,1066,1248,1231,1255,1275,1398,1821,2144,2263,2377,2357,2429,2360,2360,2294,2248,2162,2209,2179,2105,2048,2030,2007,1953,1882,1865,1846,1831,1675,1447,1391,1367,1337,1283,1271,1255,1268,1274,1265,1257,1276,1256,1267,1284,1278,1276,1284,1280,1285,1291,1298,1277,1293,1295,1294,1292,1311,1303,1296,1295,1283,1298,1319,1294,1296,1286,512,513,515,517,521,616,734,852,958,1021,1040,1020,1003,980,969,937,931,918,869,854,855,838,819,804,774,758,745,727,729,583,670,640,556,541,524,521,524,457,407,408,407,408,429,422,427,428,416,428,420,417,422,412,414,425,425,411,424,416,414,421,422,428,421,422,418,520,522,513,524,533,715,789,903,993,1019,1046,1029,1010,975,979,942,946,929,913,880,880,863,847,830,814,797,779,764,748,730,713,697,680,543,531,528,529,531,510,513,516,521,515,524,516,532,529,521,527,521,523,523,524,540,526,525,525,525,520,540,528,550,546,547,536,535,536,541,539,559,597,788,911,1016,1057,1088,1067,1052,1036,1014,997,980,955,909,893,876,860,852,834,817,793,791,767,750,594,716,580,599,578,553,562,560,532,500,500,502,501,504,509,507,517,509,507,510,505,509,506,507,514,511,504,507,506,507,510,509,511,507,511,508,546,548,554,556,577,618,815,927,1040,1089,1105,1088,1070,1053,1029,1012,994,976,938,920,903,886,869,852,834,817,815,783,627,612,612,598,604,595,558,575,577,548,519,514,516,518,517,531,525,530,529,522,535,523,522,523,521,535,526,526,522,525,524,523,526,526,523,531,531,724,726,729,731,740,861,1129,1261,1377,1441,1448,1425,1402,1379,1356,1333,1310,1287,1271,1240,1217,1201,1171,1148,1125,1102,1079,1056,1032,1015,992,788,832,750,768,775,768,739,712,712,714,714,714,715,715,715,715,716,716,716,717,717,717,718,718,718,718,718,718,718,719,719,719,718,718,1018,1021,1024,1031,1074,1299,1640,1862,1962,2011,2009,1971,1946,1937,1903,1851,1819,1795,1737,1690,1659,1641,1610,1578,1546,1503,1474,1442,1411,1184,1198,1142,1077,1057,1050,1033,1019,1005,982,975,979,983,981,989,980,992,987,992,991,1001,996,1002,990,984,987,987,991,988,981,983,986,989,987,984,983,415,417,418,419,424,486,612,699,769,829,837,818,810,782,785,771,765,744,731,723,705,691,679,666,647,638,626,613,598,586,578,556,478,511,432,424,426,427,383,391,385,392,414,395,395,399,389,398,394,426,390,394,396,432,400,393,396,393,396,399,395,412,391,395,392,225,225,225,226,227,237,321,357,393,430,455,445,438,432,424,404,410,403,396,389,382,375,368,360,354,346,339,333,325,319,311,304,236,237,285,227,228,229,203,208,203,208,214,212,212,215,211,213,211,213,209,206,208,214,210,207,213,209,206,211,209,215,210,212,209,1218,1213,1224,1229,1351,1798,2147,2411,2462,2507,2512,2413,2369,2311,2305,2243,2196,2190,2165,2123,2072,2029,1984,1937,1891,1838,1806,1696,1566,1437,1358,1298,1241,1241,1225,1173,1166,1174,1145,1153,1143,1139,1180,1157,1174,1184,1156,1167,1165,1170,1160,1163,1175,1184,1174,1163,1171,1168,1194,1179,1163,1190,1155,1161,1157,1057,1061,1064,1073,1120,1365,1718,1942,2040,2086,2084,2044,2019,2010,1975,1920,1887,1862,1802,1755,1722,1702,1670,1637,1604,1559,1529,1497,1398,1299,1278,1205,1117,1097,1091,1073,1059,1046,1022,1017,1024,1024,1023,1031,1023,1033,1029,1035,1031,1040,1033,1041,1031,1024,1030,1028,1034,1030,1022,1028,1026,1031,1029,1026,1025,1013,1014,1018,1022,1067,1459,1748,2017,2066,2118,2143,2038,2000,1948,1949,1894,1853,1854,1835,1799,1752,1713,1674,1647,1604,1548,1526,1470,1450,1381,1199,1164,1035,1034,1018,1029,1035,1042,1015,1021,1014,1009,1050,1026,1040,1050,1025,1034,1033,1038,1028,1032,1045,1051,1042,1032,1042,1035,1074,1049,1036,1064,1029,1035,1031,538,540,541,548,550,646,788,904,996,1062,1072,1062,1046,1056,1013,990,979,961,915,901,885,868,852,835,817,800,784,767,752,737,685,662,600,586,572,546,548,529,504,494,495,500,501,507,502,510,504,509,506,501,498,503,500,500,506,504,506,506,500,500,505,509,504,504,503,480,497,502,504,520,624,702,784,952,964,957,991,938,959,873,880,910,894,847,845,816,830,746,798,783,739,722,734,718,678,661,645,630,551,490,504,521,505,466,471,474,484,471,481,474,484,481,472,481,470,479,475,478,485,474,476,474,487,478,473,477,487,478,483,475,533,534,536,535,539,653,792,885,966,1056,1078,1052,1036,1024,1002,984,968,950,939,913,905,893,867,855,831,819,797,781,755,746,729,681,664,633,541,536,542,539,514,517,516,519,538,539,529,558,530,539,541,535,532,522,527,539,533,522,544,531,522,531,538,534,535,538,532,496,497,499,500,502,609,735,821,907,985,1009,996,968,958,936,919,904,888,877,861,845,834,811,801,786,765,759,728,712,696,678,631,624,534,508,504,505,507,472,475,474,477,504,491,487,496,488,501,499,505,514,480,485,497,491,480,505,489,480,489,496,498,502,496,491,693,683,693,709,715,815,1042,1193,1295,1332,1383,1309,1298,1261,1257,1234,1218,1180,1209,1177,1141,1129,1082,1109,1076,1020,1018,991,954,856,871,741,711,691,669,725,693,668,655,660,664,682,677,679,667,679,671,681,676,667,673,678,682,689,685,683,684,676,674,678,681,680,669,675,660,1225,1194,1197,1217,1403,1877,2243,2457,2547,2539,2568,2418,2412,2381,2383,2275,2195,2184,2167,2123,2061,2032,1982,1934,1890,1828,1840,1742,1676,1487,1368,1287,1250,1249,1197,1212,1237,1225,1218,1225,1220,1212,1259,1236,1246,1257,1228,1241,1238,1243,1237,1236,1248,1257,1250,1236,1243,1241,1265,1252,1240,1263,1228,1234,1230,0,0,0,0,0,0,0,0,0,0,0,0,0,0,0,0,0,0,0,0,0,0,0,0,0,0,0,0,0,0,0,0,0,0,0,0,0,0,0,0,0,0,0,0,0,0,0,0,0,0,0,0,0,0,0,0,0,0,0,0,0,0,0,0,0,1328,1329,1334,1369,1481,1884,2292,2509,2598,2629,2616,2568,2538,2503,2477,2412,2371,2336,2267,2215,2173,2144,2104,2062,2019,1966,1747,1733,1511,1530,1470,1416,1357,1351,1336,1348,1319,1306,1284,1280,1284,1288,1286,1294,1288,1297,1293,1298,1296,1306,1306,1307,1295,1289,1292,1292,1296,1293,1286,1288,1292,1294,1293,1290,1289,511,513,515,515,519,667,788,877,968,1029,1032,1017,1001,982,967,950,933,916,901,866,867,854,834,817,800,784,768,750,735,719,702,687,626,536,524,519,521,510,487,495,501,512,498,507,498,511,505,505,506,499,502,505,510,518,523,508,506,507,511,507,509,518,525,520,500,445,447,448,450,454,603,684,763,843,895,903,887,872,859,844,829,864,800,786,755,759,744,729,715,700,686,672,657,643,628,614,599,586,554,455,452,453,455,451,445,449,450,456,452,452,451,457,455,455,456,475,457,479,458,477,478,458,478,458,455,477,492,474,457,451,508,510,515,517,535,636,763,849,954,1010,1022,1006,990,974,952,942,920,904,866,859,836,819,804,788,773,757,755,726,710,695,681,627,568,556,518,536,537,493,460,461,461,462,466,472,469,477,472,470,473,468,469,469,467,472,471,467,471,469,469,468,471,473,471,471,471,932,934,960,955,991,1269,1499,1682,1812,1844,1852,1823,1794,1760,1735,1702,1670,1650,1594,1556,1532,1503,1482,1460,1418,1395,1372,1254,1239,1044,1052,1025,1016,999,947,958,914,851,829,821,825,829,827,835,829,838,834,839,837,847,847,848,836,830,833,833,837,834,827,829,833,835,834,831,830,982,979,997,990,1043,1348,1579,1782,1876,1928,1939,1907,1882,1837,1797,1780,1753,1728,1658,1630,1612,1563,1534,1531,1489,1460,1435,1397,1369,1151,1076,1068,1050,1027,998,991,1008,955,933,925,929,933,931,939,933,942,938,943,941,951,951,952,940,934,937,937,941,938,931,933,937,939,938,935,934,854,856,859,872,906,1089,1376,1481,1606,1700,1608,1622,1596,1569,1544,1561,1491,1465,1403,1412,1405,1369,1334,1316,1311,1224,1228,1053,1170,1054,896,900,855,862,853,820,868,869,848,848,850,850,850,851,851,851,851,852,852,852,853,853,853,854,854,854,854,854,854,854,855,855,855,854,845,733,722,726,738,754,876,1125,1281,1378,1408,1473,1392,1370,1346,1338,1300,1283,1270,1271,1247,1214,1198,1161,1143,1125,1095,1070,1050,1026,925,902,828,758,732,720,752,738,710,709,704,711,710,698,730,723,721,715,719,720,715,710,708,719,721,719,719,719,720,721,736,715,712,716,724,703,287,287,308,309,309,272,450,497,508,496,578,511,503,495,487,478,520,511,506,517,491,481,448,440,431,444,435,426,414,407,396,387,278,270,264,354,355,356,264,265,264,269,266,268,266,269,269,270,269,266,266,267,270,269,269,270,268,267,266,267,269,273,273,273,267,625,654,624,651,646,880,950,1077,1168,1274,1249,1277,1216,1189,1221,1186,1136,1116,1148,1102,1082,1037,1049,1021,1024,949,929,909,897,777,855,829,729,650,633,630,631,633,633,633,635,635,635,636,636,636,636,637,637,637,638,638,638,639,639,639,639,639,639,639,640,640,640,639,639,1527,1539,1608,1707,1982,2608,2947,3097,3176,3192,3141,3103,3058,2993,2947,2888,2838,2795,2730,2684,2621,2588,2530,2449,2285,1925,1920,1837,1791,1778,1701,1665,1587,1578,1567,1591,1595,1616,1598,1597,1590,1603,1590,1598,1605,1597,1600,1596,1604,1595,1594,1604,1596,1601,1601,1603,1607,1608,1616,1621,1616,1652,1615,1621,1617,381,383,384,385,387,508,574,641,707,760,770,757,745,733,721,709,697,685,673,661,649,636,624,612,600,588,575,563,551,539,526,514,502,401,391,387,388,389,377,368,368,369,368,372,371,374,374,371,375,370,369,371,371,371,375,375,373,373,374,375,373,396,373,379,373,901,904,907,925,958,1252,1427,1592,1712,1777,1804,1747,1719,1717,1662,1633,1604,1577,1591,1520,1532,1503,1470,1442,1415,1385,1357,1327,1297,1144,1109,1082,954,921,909,916,920,943,917,908,909,909,908,912,911,912,912,909,913,908,909,909,909,911,913,913,911,911,912,913,911,948,911,917,913,955,958,961,1042,1071,1415,1603,1756,1892,1907,1898,1867,1838,1807,1776,1746,1716,1707,1676,1625,1595,1584,1534,1503,1474,1519,1413,1382,1369,1294,1164,1097,1070,986,972,970,972,974,989,989,993,1012,999,1011,1003,1003,996,996,1010,993,1004,1008,1009,1009,1010,1024,997,995,1004,1002,996,1006,999,1056,1000,1056,1060,1052,1087,1178,1576,1780,1929,2059,2098,2086,2052,1995,1985,1928,1917,1865,1852,1798,1765,1732,1701,1666,1655,1620,1567,1535,1520,1501,1381,1162,1123,1125,1076,1076,1073,1029,1031,1044,1046,1055,1063,1077,1067,1071,1069,1068,1078,1098,1080,1082,1094,1092,1096,1090,1075,1070,1080,1070,1071,1060,1083,1067,1088,1051,872,873,877,890,934,1284,1437,1587,1716,1728,1722,1681,1670,1640,1615,1588,1549,1534,1507,1467,1442,1415,1406,1391,1343,1307,1281,1252,1258,1071,1063,952,919,909,885,885,878,882,881,879,882,887,884,895,885,893,887,894,909,901,896,900,901,910,904,903,891,902,901,903,900,903,900,908,906,897,900,902,918,964,1334,1544,1690,1789,1787,1779,1775,1722,1695,1666,1637,1634,1580,1552,1547,1518,1496,1460,1428,1381,1372,1344,1314,1301,1131,1057,968,996,953,935,910,902,909,899,899,916,917,909,916,907,912,909,918,948,926,921,925,925,960,926,928,918,931,926,928,931,927,923,953,936,1460,1468,1517,1644,2278,2761,3170,3337,3432,3442,3386,3308,3247,3219,3102,3023,2977,2902,2808,2758,2689,2607,2522,2480,2410,2338,2242,2090,1970,1678,1616,1591,1529,1504,1491,1514,1518,1523,1614,1599,1606,1606,1645,1652,1624,1642,1633,1647,1654,1633,1663,1629,1635,1664,1665,1640,1659,1655,1654,1672,1683,1675,1685,1758,1675,556,558,559,560,570,756,848,940,1031,1079,1084,1068,1051,1035,1019,1003,986,970,953,937,920,904,888,872,855,839,822,806,789,773,756,741,724,640,567,564,565,567,557,569,560,628,569,575,575,601,565,577,567,563,575,576,577,574,610,632,568,563,596,569,563,573,569,607,570,960,963,964,969,1006,1446,1726,1897,2000,2047,2019,1997,1957,1912,1885,1849,1815,1778,1742,1706,1670,1652,1593,1557,1526,1497,1455,1418,1382,1355,1229,1112,1018,990,1024,979,985,992,972,963,964,964,963,967,966,967,967,964,968,963,964,964,964,966,968,968,966,966,967,968,966,1003,966,972,968,1193,1199,1211,1258,1330,1901,2145,2284,2352,2350,2341,2339,2282,2230,2190,2148,2144,2085,2038,2027,1988,1958,1914,1874,1822,1795,1762,1719,1557,1397,1335,1282,1277,1238,1227,1212,1204,1221,1212,1216,1226,1225,1218,1230,1217,1223,1219,1228,1261,1241,1236,1245,1246,1281,1246,1246,1229,1236,1236,1238,1241,1237,1230,1263,1243,273,273,276,277,278,346,390,439,485,531,540,551,542,533,523,514,506,497,488,479,470,462,436,444,419,425,416,408,399,390,381,372,364,355,345,308,309,310,254,254,256,255,254,254,257,257,258,255,258,256,257,258,258,259,259,259,260,260,260,259,261,261,261,261,261,321,322,323,324,324,421,474,528,581,630,643,633,623,613,603,592,583,573,563,553,543,533,523,513,503,493,484,474,463,453,443,433,423,413,330,325,326,327,318,322,319,325,322,337,324,351,332,324,337,322,324,322,324,331,324,324,324,327,324,322,321,328,321,331,321,338,339,340,341,342,446,504,563,622,673,684,674,663,652,641,630,619,608,598,587,576,565,554,543,532,522,511,500,489,478,467,456,446,435,408,342,343,344,321,312,313,313,312,316,315,316,316,313,317,312,313,313,313,315,317,317,315,315,316,317,315,352,315,321,317,873,879,878,891,936,1292,1505,1615,1743,1741,1735,1735,1679,1652,1636,1596,1573,1541,1513,1486,1468,1430,1402,1406,1368,1318,1320,1290,1268,1107,1099,946,920,935,888,885,888,891,899,901,904,914,904,899,906,910,907,916,938,928,919,940,923,960,923,906,911,931,923,924,917,924,919,931,932,1071,1071,1076,1126,1221,1660,1960,2126,2252,2288,2272,2236,2174,2157,2101,2080,2036,1993,1952,1914,1873,1837,1793,1746,1735,1670,1628,1589,1580,1454,1261,1180,1154,1104,1085,1095,1101,1098,1094,1106,1112,1117,1118,1121,1123,1142,1105,1132,1121,1108,1106,1127,1135,1118,1138,1132,1127,1134,1131,1132,1129,1116,1123,1126,1105,954,954,956,986,1047,1488,1724,1913,2036,2080,2063,2026,1988,1950,1916,1880,1842,1799,1762,1728,1689,1656,1611,1574,1535,1498,1460,1422,1391,1347,1312,1053,1011,983,967,969,973,979,965,975,981,988,987,990,996,1010,973,1000,989,975,974,999,1002,1001,1007,1035,1008,1011,1010,1004,994,981,988,991,970,1019,1022,1022,1059,1128,1604,1857,2044,2162,2204,2185,2146,2106,2066,2030,1992,1953,1908,1868,1832,1793,1792,1710,1675,1663,1596,1552,1512,1510,1432,1275,1107,1090,1049,1033,1042,1039,1045,1038,1032,1041,1037,1050,1062,1049,1056,1047,1063,1063,1052,1050,1075,1079,1075,1081,1093,1072,1088,1084,1080,1068,1055,1062,1065,1044,872,883,884,880,917,1299,1546,1747,1822,1882,1862,1837,1804,1764,1738,1698,1673,1638,1605,1560,1527,1517,1481,1424,1393,1380,1340,1296,1260,1149,1118,950,945,909,896,897,893,899,885,868,877,876,882,889,884,888,886,887,889,881,883,884,884,885,890,888,884,887,887,892,887,923,886,892,888,316,316,318,318,321,401,454,504,554,605,634,624,614,605,595,585,575,565,555,546,536,526,517,507,497,487,477,467,457,447,437,429,419,409,326,322,323,324,290,293,292,297,292,295,294,296,297,298,297,297,300,299,301,302,302,302,305,303,306,303,306,308,305,307,304,1317,1321,1334,1350,1566,2093,2464,2577,2687,2694,2676,2646,2608,2543,2504,2443,2406,2359,2316,2279,2218,2194,2149,2072,2043,1989,1922,1666,1615,1594,1484,1425,1391,1346,1346,1320,1316,1319,1309,1299,1308,1305,1304,1309,1307,1308,1309,1305,1310,1305,1307,1309,1304,1311,1311,1315,1312,1311,1310,1315,1313,1344,1306,1312,1308,0,0,0,0,0,0,0,0,0,0,0,0,0,0,0,0,0,0,0,0,0,0,0,0,0,0,0,0,0,0,0,0,0,0,0,0,0,0,0,0,0,0,0,0,0,0,0,0,0,0,0,0,0,0,0,0,0,0,0,0,0,0,0,0,0,998,1003,992,1016,1109,1472,1668,1821,1952,1993,1982,1950,1894,1886,1831,1822,1770,1758,1706,1674,1643,1613,1581,1571,1538,1486,1456,1443,1424,1355,1089,1063,1067,1017,1026,1042,993,995,1008,1010,1019,1027,1041,1031,1035,1033,1032,1042,1062,1044,1046,1058,1056,1060,1054,1039,1034,1044,1034,1035,1024,1047,1031,1052,1015,1083,1087,1080,1117,1191,1632,1841,1989,2118,2155,2142,2105,2049,2037,1980,1968,1916,1902,1846,1812,1778,1745,1710,1698,1662,1608,1574,1509,1489,1220,1186,1151,1125,1104,1103,1101,1060,1062,1075,1077,1088,1096,1110,1100,1104,1102,1101,1112,1132,1114,1116,1128,1126,1130,1124,1110,1105,1115,1105,1106,1095,1118,1103,1124,1087,920,918,929,929,974,1332,1541,1650,1778,1777,1782,1772,1717,1689,1675,1635,1612,1609,1554,1526,1510,1472,1457,1449,1410,1364,1365,1336,1314,1154,1145,1047,959,980,927,925,913,916,915,917,929,932,924,939,924,924,926,935,951,937,933,938,939,966,940,942,927,940,937,941,945,939,933,953,946,812,803,819,821,865,1152,1323,1452,1541,1582,1646,1554,1529,1518,1544,1454,1429,1405,1379,1405,1330,1306,1293,1256,1240,1206,1184,1158,1124,1075,971,957,854,835,817,851,796,789,796,797,804,795,808,804,805,808,810,818,825,820,817,821,825,825,839,821,818,821,816,814,803,829,822,830,807,539,540,542,544,552,733,825,917,1005,1056,1061,1045,1029,1013,996,980,963,948,931,915,898,883,866,850,833,817,801,785,768,752,737,694,678,664,550,547,549,549,532,540,535,541,540,534,538,542,541,552,540,540,545,544,569,545,552,548,549,549,552,548,573,593,551,584,578,1404,1401,1442,1537,2169,2586,2961,3145,3234,3238,3194,3137,3060,3017,2953,2916,2846,2743,2670,2616,2553,2508,2449,2355,2293,2261,2184,2081,1904,1622,1620,1525,1456,1450,1428,1452,1441,1468,1482,1459,1472,1474,1501,1514,1492,1507,1497,1520,1523,1500,1521,1499,1503,1529,1531,1509,1522,1522,1517,1546,1549,1566,1561,1571,1559,813,817,818,822,850,1207,1435,1602,1710,1758,1749,1717,1693,1655,1624,1599,1562,1560,1498,1467,1435,1423,1368,1337,1316,1285,1247,1215,1184,1153,1126,1059,969,842,829,830,841,843,822,812,818,832,816,835,821,831,835,826,833,819,820,824,820,823,827,830,828,830,824,825,830,859,832,840,833,1118,1117,1134,1154,1216,1726,2079,2238,2303,2345,2311,2289,2238,2190,2165,2117,2080,2040,2003,1962,1916,1873,1833,1788,1750,1717,1676,1633,1597,1415,1310,1223,1200,1154,1157,1110,1106,1109,1099,1089,1098,1095,1094,1099,1097,1098,1099,1095,1100,1095,1097,1099,1094,1101,1101,1105,1102,1101,1100,1105,1103,1134,1096,1102,1098,1527,1539,1608,1707,1982,2608,2947,3097,3176,3192,3141,3103,3058,2993,2947,2888,2838,2795,2730,2684,2621,2588,2530,2449,2285,1925,1920,1837,1791,1778,1701,1665,1587,1578,1567,1591,1595,1616,1598,1597,1590,1603,1590,1598,1605,1597,1600,1596,1604,1595,1594,1604,1596,1601,1601,1603,1607,1608,1616,1621,1616,1652,1615,1621,1617,1027,1054,1058,1038,1248,1443,1767,1962,2024,2070,2039,1995,1992,1951,1893,1872,1877,1838,1801,1766,1737,1705,1681,1636,1599,1559,1499,1378,1428,1321,1129,1147,1076,1052,1037,1043,1059,1048,1038,1040,1042,1049,1051,1056,1053,1070,1055,1063,1057,1055,1050,1054,1053,1071,1066,1057,1057,1051,1049,1055,1057,1061,1051,1062,1054,921,940,927,949,985,1270,1479,1649,1769,1839,1830,1800,1802,1742,1741,1685,1655,1626,1597,1568,1538,1520,1480,1452,1422,1426,1364,1335,1305,1277,1153,1023,973,953,939,936,929,930,916,916,922,932,930,921,931,935,935,936,941,937,946,949,955,943,947,952,932,944,936,934,937,925,936,943,922,1226,1261,1278,1289,1456,1898,2128,2260,2385,2450,2480,2373,2354,2326,2300,2261,2210,2150,2093,2085,2091,2025,1970,1937,1875,1873,1716,1602,1396,1372,1413,1315,1308,1262,1305,1289,1283,1271,1295,1296,1309,1313,1305,1299,1309,1316,1309,1325,1318,1310,1310,1298,1323,1342,1326,1310,1316,1314,1318,1315,1316,1317,1325,1311,1304,286,291,288,288,289,348,417,465,514,561,583,574,564,563,545,544,528,525,509,499,490,480,471,462,453,443,434,425,415,407,403,388,369,355,346,312,291,292,244,248,247,248,249,250,250,248,247,247,247,247,246,256,249,251,251,255,252,252,258,252,255,252,249,247,245,70,70,70,70,70,71,80,88,96,105,112,111,108,107,105,104,102,101,99,97,95,94,92,91,89,88,85,84,82,81,79,77,75,73,72,71,71,71,36,36,36,36,36,36,36,36,36,36,36,36,36,36,36,36,36,36,36,36,36,36,36,36,36,36,36,469,464,473,489,472,552,719,801,889,946,979,957,942,887,891,862,851,828,830,815,799,786,771,754,739,712,732,696,677,662,634,632,529,486,480,469,470,473,439,445,444,446,448,449,448,448,443,449,445,447,447,454,454,455,456,454,457,451,455,452,456,458,452,455,450,424,425,427,427,445,485,643,718,792,851,859,845,831,799,804,776,781,745,749,735,722,708,695,680,667,653,640,630,612,599,572,540,475,455,434,447,432,419,385,389,390,395,393,390,392,394,391,390,400,398,390,400,403,404,409,396,402,399,400,397,397,402,400,396,395,1063,1065,1069,1076,1134,1550,1771,1965,2068,2101,2093,2046,2016,1990,1959,1916,1889,1867,1821,1723,1766,1722,1681,1669,1626,1591,1554,1509,1396,1258,1213,1125,1100,1074,1072,1078,1071,1044,1059,1063,1065,1078,1076,1076,1075,1079,1077,1075,1079,1079,1071,1075,1074,1080,1078,1076,1076,1074,1073,1076,1076,1078,1073,1078,1071,811,817,813,820,847,966,1282,1429,1548,1593,1587,1565,1540,1498,1491,1453,1446,1405,1393,1372,1358,1334,1291,1267,1255,1228,1197,1167,1148,1117,1022,939,861,837,824,827,828,814,793,786,792,799,792,797,794,797,802,788,797,790,798,795,833,815,808,802,796,796,797,796,804,797,797,799,792,713,712,724,720,722,954,1115,1231,1347,1409,1431,1403,1375,1357,1336,1310,1288,1269,1243,1225,1205,1187,1156,1139,1103,1077,1064,1040,1019,982,887,859,777,775,729,723,726,726,660,660,661,666,662,668,664,667,665,663,667,666,661,663,664,668,666,666,664,664,663,664,666,666,663,666,664,330,340,341,342,343,373,491,546,616,673,664,654,644,634,623,613,602,602,579,571,569,558,539,536,521,511,497,486,476,465,456,446,355,346,338,345,346,347,289,289,290,295,291,295,293,296,294,292,296,295,290,292,293,297,295,295,293,293,292,293,295,295,292,295,293,890,879,882,915,943,1207,1405,1565,1687,1760,1753,1720,1728,1664,1670,1615,1580,1560,1533,1507,1479,1452,1413,1397,1369,1365,1314,1287,1246,1219,1150,950,940,908,893,890,905,894,886,891,900,910,900,879,909,911,905,911,927,918,919,926,931,927,907,893,916,914,928,916,902,901,915,909,892,830,833,836,845,877,1026,1312,1467,1592,1666,1661,1634,1614,1570,1568,1527,1501,1473,1448,1422,1394,1368,1342,1315,1289,1286,1236,1208,1182,1156,1035,968,945,861,846,843,845,847,833,826,832,842,830,828,835,840,832,830,840,830,835,832,840,845,843,839,836,833,837,835,835,837,836,841,834,878,896,883,903,933,1197,1398,1570,1683,1755,1747,1720,1722,1664,1664,1609,1580,1553,1525,1497,1469,1451,1413,1386,1358,1354,1302,1274,1246,1218,1162,970,928,909,894,891,873,874,861,860,866,876,881,863,873,877,877,878,885,879,917,927,912,922,919,894,874,891,878,876,879,867,880,893,866,583,583,587,583,575,648,855,950,1044,1121,1141,1103,1106,1070,1050,1025,1023,1002,982,983,962,944,927,909,880,862,859,841,824,775,637,633,608,588,593,577,579,525,493,493,494,497,498,502,506,497,494,496,495,497,496,502,502,503,504,501,504,501,502,500,503,503,501,500,499,154,155,156,156,157,198,223,249,275,300,315,311,305,300,295,290,286,280,276,270,266,260,256,250,246,240,236,231,226,221,216,211,206,201,161,157,158,158,126,126,126,126,126,126,126,126,126,126,126,126,126,126,126,126,126,126,126,126,126,126,126,126,126,126,126,206,207,207,207,208,266,301,336,371,407,421,414,408,401,394,388,381,375,367,360,354,347,341,334,327,321,314,306,300,293,287,280,273,267,260,256,256,257,181,181,181,181,181,181,181,181,181,181,181,181,181,181,181,181,181,181,181,181,181,181,181,181,181,181,181,175,176,177,177,178,225,255,284,314,345,359,354,348,343,337,331,325,320,314,308,302,297,291,286,279,273,268,262,257,250,245,239,234,227,222,178,179,180,153,153,153,153,153,153,153,153,153,153,153,153,153,153,153,153,153,153,153,153,153,153,153,153,153,153,153,769,779,779,782,783,993,1193,1361,1490,1556,1552,1516,1505,1455,1441,1394,1369,1351,1336,1317,1293,1273,1252,1227,1197,1177,1157,1120,1104,1031,927,894,838,793,798,772,771,746,719,720,714,730,730,726,730,724,731,725,729,729,729,736,728,733,735,737,735,733,734,730,737,728,737,724,707,975,964,968,1004,1062,1350,1560,1726,1846,1917,1905,1870,1875,1810,1813,1759,1720,1698,1668,1639,1609,1579,1540,1521,1494,1485,1432,1402,1362,1275,1185,1038,1026,1007,992,976,977,965,958,964,963,961,973,958,983,984,982,983,1001,987,989,1000,1004,1000,980,969,989,986,1001,985,975,978,988,982,965,444,446,447,449,450,601,681,759,848,908,898,884,871,856,841,827,812,810,784,770,766,751,727,721,701,687,669,655,641,628,612,593,561,466,455,452,490,453,431,428,433,441,433,439,435,440,436,436,438,438,436,440,455,446,439,439,437,439,437,439,437,441,436,440,438,923,948,928,953,988,1282,1518,1667,1786,1879,1870,1840,1827,1749,1746,1720,1718,1631,1602,1601,1571,1522,1511,1481,1452,1420,1392,1362,1294,1279,1147,1004,974,954,945,953,955,960,944,960,957,966,957,975,952,976,955,980,951,969,966,967,1016,957,977,978,982,971,957,969,977,971,973,970,956,0,0,0,0,0,0,0,0,0,0,0,0,0,0,0,0,0,0,0,0,0,0,0,0,0,0,0,0,0,0,0,0,0,0,0,0,0,0,0,0,0,0,0,0,0,0,0,0,0,0,0,0,0,0,0,0,0,0,0,0,0,0,0,0,0,85,85,85,105,105,107,121,135,149,162,173,171,168,166,162,160,157,155,151,149,146,144,140,138,135,133,129,127,124,122,118,116,113,111,107,105,106,106,67,67,67,67,69,69,69,69,69,69,69,70,70,70,70,70,70,70,70,71,71,71,71,71,71,71,72,513,514,517,509,510,615,759,847,933,1009,1031,994,998,965,947,921,921,902,883,885,851,849,819,804,788,773,770,755,737,710,679,579,541,521,531,504,522,446,412,417,416,417,419,420,421,419,416,418,417,419,418,424,424,425,426,423,426,423,424,422,425,425,423,422,421,618,622,607,623,637,757,921,1014,1102,1159,1170,1152,1120,1102,1114,1070,1079,1036,1016,1001,986,968,972,932,918,901,883,862,851,847,819,666,672,633,630,615,632,587,551,552,552,555,554,560,559,556,560,564,562,558,564,564,567,573,564,565,565,565,558,562,564,569,561,560,554,677,700,680,682,714,828,1054,1192,1307,1378,1356,1334,1312,1310,1296,1269,1252,1224,1182,1160,1156,1117,1094,1064,1052,1036,1014,992,972,890,870,804,750,705,690,680,689,689,666,661,659,692,671,676,671,681,684,686,683,680,687,688,679,708,702,678,707,704,688,680,699,715,702,679,672,1105,1108,1111,1120,1186,1622,1856,2046,2149,2197,2171,2122,2091,2067,2031,1988,1961,1936,1889,1790,1832,1787,1744,1731,1689,1652,1614,1567,1534,1317,1275,1169,1143,1117,1115,1121,1114,1088,1095,1098,1088,1092,1109,1113,1109,1112,1110,1108,1112,1112,1104,1108,1107,1113,1111,1109,1109,1107,1105,1109,1109,1111,1106,1111,1107,786,788,792,793,789,1016,1257,1400,1528,1579,1579,1555,1530,1477,1470,1416,1395,1375,1369,1348,1320,1297,1269,1243,1207,1188,1162,1139,1110,1096,975,948,825,803,802,782,798,771,730,734,736,741,744,744,754,740,737,739,738,740,739,745,745,746,747,744,747,744,745,743,746,746,744,743,742,538,539,546,543,546,655,811,905,1004,1074,1090,1072,1049,1032,1016,1001,985,971,950,932,918,901,879,865,848,827,809,789,690,740,659,643,629,597,552,546,549,544,478,478,479,484,480,486,482,485,483,481,485,484,479,481,482,486,484,484,482,482,481,482,484,484,481,484,482,1027,1054,1058,1038,1248,1443,1767,1962,2024,2070,2039,1995,1992,1951,1893,1872,1877,1838,1801,1766,1737,1705,1681,1636,1599,1559,1499,1378,1428,1321,1129,1147,1076,1052,1037,1043,1059,1048,1038,1040,1042,1049,1051,1056,1053,1070,1055,1063,1057,1055,1050,1054,1053,1071,1066,1057,1057,1051,1049,1055,1057,1061,1051,1062,1054,1057,1077,1070,1060,1102,1415,1670,1963,2052,2079,2091,2011,2012,1993,1939,1902,1878,1844,1826,1777,1751,1736,1691,1661,1603,1561,1532,1403,1459,1284,1234,1169,1104,1073,1063,1059,1071,1075,1039,1038,1048,1054,1050,1057,1056,1071,1056,1055,1057,1054,1054,1055,1052,1068,1067,1056,1058,1051,1050,1052,1054,1059,1049,1069,1055,973,978,979,1000,1059,1374,1553,1731,1856,1938,1928,1897,1866,1835,1808,1802,1759,1712,1698,1652,1621,1590,1559,1529,1498,1467,1436,1415,1376,1344,1212,1050,1025,1005,990,988,981,983,973,967,977,990,981,991,986,995,995,1000,995,988,1002,1004,1001,987,987,1003,981,1002,984,988,986,992,988,990,979,1170,1179,1223,1286,1386,1850,2044,2218,2294,2288,2297,2241,2305,2172,2192,2145,2053,2112,1985,1936,1996,1923,1939,1856,1812,1810,1622,1537,1476,1308,1315,1292,1311,1247,1221,1190,1219,1188,1245,1245,1249,1256,1260,1250,1258,1260,1263,1267,1264,1265,1274,1266,1266,1286,1264,1265,1270,1279,1260,1264,1255,1266,1263,1254,1246,205,206,207,207,207,263,296,330,365,399,424,412,405,399,392,386,379,372,366,359,353,346,339,333,326,319,312,305,299,292,286,279,277,266,259,208,208,256,185,186,187,189,189,189,190,189,190,189,189,189,190,197,192,190,188,193,190,187,187,191,193,189,187,190,187,121,122,122,122,150,154,173,192,212,232,245,240,237,233,229,226,222,218,214,211,206,203,199,195,192,188,184,180,177,172,169,165,161,158,154,150,151,151,114,115,114,116,115,117,114,117,114,116,115,116,114,117,117,119,117,117,118,117,118,118,117,118,115,116,116,415,414,414,416,419,543,614,687,779,820,822,831,824,797,784,774,758,730,732,717,737,691,676,663,650,633,622,606,594,583,573,546,540,432,423,411,420,421,380,383,384,387,388,388,388,389,386,391,387,389,391,400,397,394,393,395,395,390,396,397,396,395,390,398,392,366,367,368,369,371,416,541,604,668,728,745,732,720,708,696,688,673,661,649,638,625,613,601,589,578,566,554,542,533,519,510,465,452,442,395,389,373,374,326,327,330,336,333,329,332,335,334,332,342,340,334,346,346,343,346,337,340,338,341,342,337,339,338,339,337,1084,1076,1091,1062,1127,1473,1741,2004,2098,2133,2124,2089,2052,2014,1983,1949,1924,1893,1853,1815,1787,1746,1708,1682,1655,1564,1587,1496,1396,1288,1195,1177,1134,1139,1095,1100,1096,1103,1060,1063,1071,1083,1075,1077,1077,1083,1078,1078,1079,1076,1075,1076,1073,1077,1076,1075,1077,1074,1074,1073,1073,1076,1071,1078,1072,756,760,762,764,786,1024,1210,1315,1422,1478,1491,1455,1432,1428,1387,1368,1342,1330,1307,1273,1250,1227,1205,1182,1159,1136,1122,1091,1076,1050,1012,881,800,787,791,768,770,755,744,735,742,746,753,748,751,741,756,764,749,745,763,763,790,754,746,767,750,768,743,745,766,746,746,742,734,629,628,641,635,636,804,1006,1107,1209,1247,1258,1241,1216,1200,1180,1161,1131,1114,1096,1080,1059,1043,1019,1001,968,947,939,920,895,879,870,773,670,664,645,638,640,641,607,613,613,623,619,620,616,642,612,625,622,643,616,622,659,665,620,624,629,645,659,624,623,661,612,617,613,351,288,288,289,289,375,423,471,520,566,578,567,558,550,542,533,523,514,506,497,487,478,506,460,451,442,433,424,414,405,397,388,378,369,360,355,356,357,274,273,280,288,274,282,279,284,282,279,283,276,278,277,276,278,277,278,278,277,277,274,276,277,274,279,278,930,931,939,952,1010,1311,1479,1647,1775,1856,1846,1822,1793,1764,1739,1714,1684,1640,1634,1590,1560,1532,1492,1463,1445,1415,1387,1358,1328,1300,1173,1059,980,972,945,942,945,947,940,942,959,964,961,935,966,966,968,958,967,967,973,975,974,976,981,944,958,972,967,967,951,981,966,968,960,796,799,801,804,860,1089,1282,1395,1502,1556,1568,1530,1505,1501,1458,1438,1410,1398,1373,1338,1314,1290,1267,1243,1218,1194,1179,1147,1131,1103,1082,894,840,826,830,808,810,795,784,775,782,789,791,788,792,784,792,806,792,785,805,800,797,784,781,807,790,812,783,784,830,786,785,784,776,929,934,935,947,1011,1301,1472,1647,1770,1855,1845,1817,1787,1757,1731,1726,1684,1640,1625,1581,1552,1522,1492,1464,1434,1404,1375,1346,1316,1286,1064,1039,981,960,945,943,925,927,918,911,921,935,932,933,928,937,937,942,939,930,946,962,949,931,930,945,923,949,931,930,928,934,932,932,923,511,500,513,535,506,633,719,797,895,962,982,962,947,930,917,900,885,872,857,841,826,811,796,782,766,752,744,730,707,693,682,635,617,518,521,505,519,480,432,435,432,436,439,438,443,446,437,438,437,439,440,448,445,442,441,442,442,440,443,445,443,440,439,443,441,176,176,177,177,178,225,254,283,313,343,358,353,347,341,335,330,324,319,313,308,301,295,290,284,279,273,268,261,256,250,245,239,234,228,222,218,218,220,167,170,169,171,172,173,172,171,169,170,170,169,170,177,172,172,175,174,174,175,208,174,173,174,170,172,172,273,274,275,276,294,350,397,442,489,535,558,550,540,531,522,513,504,496,487,478,469,460,451,442,433,424,415,407,398,389,380,371,363,353,302,295,296,297,250,243,252,261,258,256,247,249,255,263,260,258,261,264,263,265,263,261,250,262,253,254,245,260,253,263,250,197,197,198,198,198,253,287,320,354,387,402,396,389,383,377,370,364,357,350,345,338,332,325,319,312,306,300,293,287,280,273,268,261,255,203,199,200,200,188,181,189,198,195,193,184,186,193,201,197,195,198,234,234,237,235,198,187,199,189,190,182,195,190,205,187,688,698,700,703,701,891,1056,1178,1344,1397,1409,1365,1367,1310,1314,1280,1259,1223,1215,1178,1163,1149,1125,1090,1092,1058,1046,1025,990,970,809,781,794,721,709,706,708,684,655,658,654,665,671,665,672,665,674,670,669,670,672,680,671,672,672,678,673,668,663,669,675,665,675,667,649,1016,1018,1025,1047,1112,1454,1638,1808,1932,2011,1997,1971,1943,1909,1881,1858,1824,1779,1769,1722,1691,1659,1618,1588,1566,1535,1504,1472,1442,1390,1259,1103,1065,1058,1049,1049,1017,1018,1012,1015,1014,1011,1034,1014,1036,1039,1043,1030,1041,1038,1043,1052,1047,1049,1039,1020,1031,1044,1040,1036,1024,1057,1039,1039,1033,466,468,468,471,471,531,688,798,878,940,946,927,911,896,886,867,852,837,822,807,792,777,766,748,732,717,702,687,635,621,608,595,540,488,477,473,475,476,432,428,439,446,432,440,437,444,437,439,438,435,440,441,454,443,437,438,438,439,438,436,434,439,434,440,439,974,984,1003,995,1069,1384,1592,1749,1898,1946,1961,1903,1889,1871,1822,1807,1794,1727,1711,1683,1640,1602,1571,1547,1501,1485,1464,1386,1171,1340,1118,1070,1044,1011,997,1007,997,1012,998,1011,1011,1016,1023,1034,1025,1039,1016,1033,1027,1033,1020,1027,1052,1038,1037,1057,1031,1050,1036,1028,1026,1020,1025,1033,1024,104,105,105,105,128,130,148,166,184,200,215,212,209,205,202,197,193,191,187,184,180,176,174,169,166,163,159,155,153,149,145,142,138,136,132,128,129,129,81,81,82,82,81,82,84,84,84,82,83,82,82,83,82,84,82,82,82,82,82,82,82,82,82,82,81,0,0,0,0,0,0,0,0,0,0,0,0,0,0,0,0,0,0,0,0,0,0,0,0,0,0,0,0,0,0,0,0,0,0,0,0,0,0,0,0,0,0,0,0,0,0,0,0,0,0,0,0,0,0,0,0,0,0,0,0,0,0,0,0,0,432,432,434,460,438,545,627,697,784,851,872,854,839,825,810,797,784,771,758,743,729,716,702,688,675,662,654,641,621,607,594,587,550,452,441,446,439,401,353,354,356,358,359,359,361,361,359,360,359,361,362,370,367,364,363,364,364,362,365,367,365,362,361,365,363,574,575,581,606,599,668,872,970,1063,1167,1162,1143,1126,1092,1075,1057,1038,1050,992,985,993,965,957,904,894,908,885,841,817,834,791,787,659,622,603,578,599,551,524,524,526,541,537,529,532,547,537,532,546,546,559,558,571,579,528,528,539,536,532,535,535,532,531,534,534,637,639,638,646,702,786,984,1094,1219,1287,1294,1264,1244,1222,1211,1182,1152,1139,1124,1099,1086,1064,1043,1023,1002,982,961,940,920,887,880,766,728,668,653,650,652,653,618,621,620,657,637,634,628,635,633,656,648,650,654,664,647,674,645,648,657,668,657,644,647,679,672,674,655,1126,1118,1133,1107,1179,1543,1822,2085,2179,2225,2202,2165,2128,2088,2056,2021,1995,1962,1922,1883,1853,1811,1772,1745,1718,1624,1647,1553,1538,1353,1296,1220,1177,1182,1138,1143,1139,1144,1096,1098,1094,1097,1108,1114,1111,1116,1111,1111,1112,1109,1108,1109,1106,1110,1109,1108,1110,1107,1106,1106,1106,1109,1104,1111,1108,727,729,730,735,731,969,1112,1265,1381,1439,1450,1420,1398,1373,1353,1341,1308,1291,1269,1245,1227,1197,1183,1164,1128,1100,1076,1051,1031,1016,960,902,765,767,740,740,739,725,669,676,674,680,685,680,689,689,680,681,680,682,683,691,688,685,684,685,685,683,686,688,686,683,682,686,684,454,455,461,458,460,540,701,777,855,912,918,905,890,875,860,846,831,816,803,787,772,757,742,727,713,697,684,669,609,645,581,565,551,486,468,461,463,463,425,431,432,444,438,441,431,463,429,450,442,467,432,437,446,467,441,442,446,461,446,439,440,449,428,433,429,1057,1077,1070,1060,1102,1415,1670,1963,2052,2079,2091,2011,2012,1993,1939,1902,1878,1844,1826,1777,1751,1736,1691,1661,1603,1561,1532,1403,1459,1284,1234,1169,1104,1073,1063,1059,1071,1075,1039,1038,1048,1054,1050,1057,1056,1071,1056,1055,1057,1054,1054,1055,1052,1068,1067,1056,1058,1051,1050,1052,1054,1059,1049,1069,1055,1026,1061,1052,1092,1140,1567,1817,1898,1985,2013,1997,1984,1955,1904,1906,1841,1818,1778,1799,1763,1728,1696,1665,1638,1593,1573,1514,1408,1388,1271,1228,1130,1099,1084,1068,1042,1038,1046,1054,1056,1060,1062,1066,1062,1075,1071,1058,1065,1065,1067,1068,1062,1067,1073,1073,1068,1073,1063,1062,1076,1072,1079,1078,1074,1074,761,764,767,768,771,1053,1305,1466,1594,1625,1647,1592,1555,1515,1521,1460,1444,1416,1395,1367,1363,1310,1280,1251,1228,1207,1170,1162,1107,1043,1024,836,837,790,798,798,777,762,749,749,750,762,746,764,762,762,763,765,779,760,764,762,761,772,766,768,765,766,764,762,765,768,764,785,785,891,906,911,908,954,1214,1440,1553,1600,1672,1651,1586,1659,1633,1544,1548,1480,1526,1510,1481,1446,1435,1412,1417,1369,1363,1299,1278,1208,1198,1039,959,940,953,920,943,907,954,930,919,923,925,929,923,934,927,925,928,927,921,943,935,936,929,952,939,935,936,946,937,945,927,938,937,936,289,291,292,304,294,326,415,458,507,548,556,548,541,533,525,516,507,499,492,484,476,468,459,451,444,436,428,420,413,404,342,334,310,304,313,305,306,296,230,236,234,239,239,241,235,239,230,243,234,232,236,240,246,245,248,241,239,233,243,240,239,242,231,236,236,522,524,524,525,528,670,762,848,968,1019,1020,1005,991,973,958,942,927,911,897,880,865,849,833,819,804,788,776,760,746,728,665,637,586,560,554,531,531,515,455,460,463,468,466,470,465,473,459,477,464,463,469,472,485,482,481,474,472,465,472,473,475,476,463,475,475,111,111,111,111,111,111,111,111,111,111,111,111,111,111,111,111,111,111,111,111,111,111,111,111,111,111,111,111,111,111,111,111,111,111,111,111,111,111,60,60,60,60,60,60,60,62,60,62,62,62,62,62,62,62,62,62,62,61,61,61,61,61,61,61,61,136,136,156,156,168,172,188,203,218,235,244,240,237,235,232,228,225,223,220,216,213,211,207,204,201,199,195,192,189,185,183,180,177,173,171,169,169,169,104,104,103,108,115,111,108,126,108,116,113,128,110,108,109,110,108,108,113,116,108,112,109,128,110,108,108,1158,1164,1166,1204,1287,1723,2017,2166,2241,2253,2234,2253,2163,2129,2104,2059,2031,1989,1954,1934,1897,1849,1818,1791,1762,1720,1684,1628,1551,1308,1279,1246,1200,1187,1172,1188,1178,1171,1146,1135,1139,1141,1169,1158,1161,1157,1157,1162,1152,1149,1163,1141,1146,1157,1157,1148,1161,1142,1141,1158,1155,1174,1162,1161,1161,564,566,567,568,570,647,875,960,1058,1087,1133,1071,1056,1040,1026,1010,995,1025,965,950,935,919,905,886,873,859,838,822,806,786,768,711,657,586,575,567,620,567,539,539,542,545,542,544,540,540,540,543,540,540,541,541,543,545,543,542,543,541,543,543,542,543,539,540,539,509,511,529,515,522,650,783,844,948,1000,991,987,973,958,926,911,913,896,883,853,839,824,810,797,791,761,750,732,720,700,686,653,639,560,519,517,519,507,473,470,501,503,484,501,480,501,480,488,485,480,488,501,501,501,491,488,485,501,491,485,482,503,483,501,501,458,444,460,462,450,581,674,740,814,858,888,862,832,849,806,797,798,795,754,759,748,723,705,691,677,675,656,641,642,628,605,587,575,463,471,449,451,450,415,412,413,422,421,417,426,421,415,421,418,420,421,424,421,419,436,437,419,419,418,418,417,424,418,421,421,845,847,860,847,877,1072,1374,1509,1622,1642,1680,1609,1586,1562,1538,1515,1489,1513,1438,1427,1386,1376,1353,1325,1296,1282,1238,1186,1161,1135,997,983,884,881,859,862,863,834,810,808,817,820,817,819,815,818,815,819,816,815,816,816,818,820,818,817,818,816,818,818,817,819,814,816,815,603,605,606,608,610,741,941,1033,1138,1167,1211,1148,1131,1115,1098,1082,1065,1094,1032,1017,999,984,968,948,933,918,896,878,861,840,821,748,697,626,614,607,661,607,580,579,584,590,583,586,582,583,581,585,583,580,583,583,586,586,583,585,584,584,585,584,587,583,581,582,581,715,717,719,721,724,949,1219,1373,1501,1542,1551,1496,1474,1431,1443,1379,1364,1340,1318,1294,1267,1236,1208,1181,1157,1126,1103,1096,1045,1001,975,923,836,743,736,748,732,727,715,722,723,734,722,729,729,725,729,730,726,727,729,730,732,734,730,731,727,730,732,732,731,731,726,730,729,144,144,145,145,145,106,136,143,150,157,161,159,158,157,156,155,152,151,150,149,148,146,145,144,143,141,139,138,137,136,135,108,108,107,106,145,146,146,97,97,98,99,104,99,99,98,99,99,98,101,99,99,99,98,101,99,98,99,101,99,98,97,98,99,98,556,558,559,561,563,652,817,922,1042,1090,1090,1073,1057,1045,1023,1006,989,972,949,939,922,906,889,877,857,841,828,811,784,776,657,632,602,596,589,563,568,544,460,464,474,499,469,472,467,472,463,475,467,464,469,470,479,480,481,471,471,465,471,471,471,473,465,470,470,654,632,667,678,684,796,1003,1129,1226,1265,1264,1246,1219,1221,1192,1168,1169,1139,1128,1096,1089,1062,1058,1023,997,984,979,931,905,825,838,738,693,697,681,664,665,656,575,579,591,612,586,587,584,585,580,590,582,579,586,587,598,596,599,590,588,586,592,590,592,588,581,587,587,595,596,598,600,603,733,881,983,1125,1171,1169,1151,1134,1117,1097,1079,1061,1042,1017,1007,990,970,951,935,917,900,886,868,840,831,748,723,705,628,627,604,606,596,513,516,528,553,523,524,521,523,517,527,519,516,523,524,534,533,536,527,525,522,528,527,527,525,518,524,524,324,324,322,326,327,344,471,528,572,605,618,602,594,592,584,568,566,552,557,547,532,523,519,504,500,486,476,494,463,453,438,434,351,339,337,328,325,330,319,321,321,325,335,331,330,335,333,335,330,331,330,330,331,333,336,327,333,331,329,333,331,334,332,333,331,890,915,917,932,949,1204,1526,1669,1779,1797,1832,1760,1733,1707,1682,1656,1629,1649,1577,1560,1516,1508,1482,1449,1419,1405,1357,1304,1277,1086,1108,1052,991,963,944,948,935,905,882,881,888,891,888,890,886,889,886,890,887,886,887,887,889,891,889,888,889,887,889,889,888,890,885,887,886,581,578,570,571,587,739,880,985,1089,1125,1130,1039,1100,1082,1065,1048,1012,1013,981,979,946,929,882,896,851,870,857,841,787,757,756,714,655,589,578,574,575,578,533,528,530,538,546,544,547,545,537,549,544,543,549,543,540,545,564,557,550,546,537,545,540,558,546,547,547,891,894,896,899,917,1144,1460,1605,1715,1733,1766,1696,1671,1645,1619,1593,1569,1586,1519,1493,1472,1447,1417,1389,1366,1342,1310,1284,1259,1105,982,1018,950,918,907,900,952,888,840,841,847,850,847,849,845,848,845,849,846,845,846,846,848,850,848,847,848,846,848,848,847,849,844,846,845,481,483,485,510,492,590,735,815,895,940,941,927,932,897,925,888,855,840,851,828,797,783,769,755,775,726,727,699,683,669,602,562,515,502,506,488,489,479,430,435,439,447,440,448,444,438,438,453,436,437,442,439,449,446,449,441,438,434,441,442,441,442,435,444,444,507,509,510,511,514,649,741,825,942,993,994,979,965,949,934,918,903,888,874,858,843,827,811,798,783,767,755,741,726,709,645,630,602,537,538,520,517,518,441,449,449,454,452,454,450,454,442,465,447,447,452,453,473,481,476,456,458,448,456,457,457,459,448,455,455,0,0,0,0,0,0,0,0,0,0,0,0,0,0,0,0,0,0,0,0,0,0,0,0,0,0,0,0,0,0,0,0,0,0,0,0,0,0,0,0,0,0,0,0,0,0,0,0,0,0,0,0,0,0,0,0,0,0,0,0,0,0,0,0,0,477,480,481,497,527,566,697,781,856,917,932,922,900,869,872,872,853,838,801,787,774,761,778,753,739,722,713,697,683,580,583,587,566,519,491,500,499,437,385,386,388,391,388,390,386,389,386,390,387,386,387,387,389,391,389,388,389,387,389,389,388,390,385,387,386,513,514,532,525,520,588,775,850,940,1004,1031,987,989,969,932,931,900,880,885,871,855,831,821,829,804,796,765,748,734,718,703,600,587,579,546,543,544,566,489,490,492,495,492,494,490,493,490,494,491,490,491,491,493,495,493,492,493,491,493,493,492,494,489,491,490,1230,1233,1250,1260,1433,1797,2167,2291,2378,2356,2349,2337,2310,2258,2188,2132,2101,2115,2058,2045,2020,1982,1881,1890,1855,1817,1777,1644,1475,1366,1371,1331,1290,1255,1250,1247,1250,1246,1203,1194,1191,1218,1236,1224,1227,1230,1228,1241,1226,1234,1229,1224,1222,1229,1241,1239,1230,1225,1219,1224,1219,1241,1226,1226,1226,333,334,335,336,337,430,495,548,603,638,672,634,624,616,634,597,588,579,578,568,557,547,537,528,518,508,498,509,477,467,457,446,439,408,394,398,339,340,326,331,328,339,326,334,333,335,334,340,334,332,336,332,336,338,336,336,340,336,341,335,338,353,338,356,356,406,423,423,410,412,473,632,680,739,783,817,775,782,752,758,739,717,715,710,682,671,674,655,650,623,634,615,610,577,565,574,470,461,449,430,427,417,408,379,378,390,388,392,377,390,396,395,388,395,396,387,388,397,399,398,394,399,392,397,396,383,393,389,385,385,1026,1061,1052,1092,1140,1567,1817,1898,1985,2013,1997,1984,1955,1904,1906,1841,1818,1778,1799,1763,1728,1696,1665,1638,1593,1573,1514,1408,1388,1271,1228,1130,1099,1084,1068,1042,1038,1046,1054,1056,1060,1062,1066,1062,1075,1071,1058,1065,1065,1067,1068,1062,1067,1073,1073,1068,1073,1063,1062,1076,1072,1079,1078,1074,1074,1430,1474,1464,1531,1930,2343,2520,2702,2745,2809,2743,2719,2651,2663,2590,2542,2537,2487,2404,2363,2330,2282,2274,2179,2088,1868,1874,1747,1682,1586,1537,1502,1496,1503,1454,1504,1456,1468,1450,1463,1467,1456,1456,1467,1477,1470,1461,1477,1471,1469,1473,1503,1487,1484,1500,1475,1475,1479,1488,1496,1481,1484,1482,1484,1483,767,770,772,768,804,1072,1230,1355,1466,1505,1505,1508,1484,1442,1421,1399,1368,1345,1329,1296,1272,1263,1224,1200,1193,1152,1128,1104,1094,1070,1007,876,805,786,774,770,783,765,721,715,716,753,717,717,725,733,730,734,755,739,732,729,721,725,730,732,724,727,716,721,721,721,721,721,721,1129,1076,1065,1126,1222,1532,1732,1889,2076,2065,2051,2061,2027,1965,1936,1894,1876,1878,1818,1731,1694,1697,1642,1658,1576,1565,1554,1501,1398,1311,1291,1143,1120,1084,1115,1113,1080,1092,1128,1125,1123,1139,1140,1135,1150,1143,1148,1141,1137,1141,1150,1153,1137,1140,1151,1158,1153,1150,1162,1156,1156,1148,1149,1148,1147,450,460,453,453,458,618,693,762,818,861,900,888,844,836,819,826,805,782,777,768,744,735,728,685,671,657,676,630,653,600,587,470,588,544,461,464,459,460,458,451,463,469,471,456,470,498,468,465,471,466,470,470,470,498,498,473,462,464,468,470,458,472,466,470,465,589,603,592,594,609,793,908,1005,1091,1128,1131,1116,1100,1083,1089,1040,1039,1018,1026,1010,1023,1023,937,909,912,897,859,845,845,809,794,759,698,610,600,597,598,565,557,555,559,565,569,563,569,560,564,568,565,564,574,565,562,566,574,572,563,567,558,561,557,561,567,563,549,512,513,512,513,502,677,755,818,892,952,961,948,928,913,897,884,872,858,844,832,818,807,784,756,739,724,733,693,708,660,645,517,584,541,505,548,503,493,485,492,490,491,495,492,496,496,490,492,487,490,494,505,500,498,507,495,490,495,505,507,494,493,495,493,492,447,457,451,450,455,610,683,750,805,855,863,855,839,831,814,821,800,777,773,763,740,732,723,680,667,653,672,627,650,597,584,468,562,559,459,520,457,439,429,438,439,436,436,436,442,444,431,447,438,433,440,463,449,451,464,440,438,440,450,449,438,441,436,438,437,1535,1528,1568,1600,1964,2529,2734,2868,2949,2954,2882,2857,2808,2802,2752,2731,2658,2594,2583,2539,2395,2284,2260,1900,1984,1842,1827,1827,1811,1680,1654,1599,1601,1581,1563,1586,1546,1519,1517,1522,1537,1533,1534,1526,1542,1542,1540,1542,1534,1536,1539,1549,1545,1546,1551,1544,1534,1536,1539,1542,1532,1542,1531,1535,1530,597,599,601,602,618,801,887,974,1058,1103,1106,1091,1109,1060,1053,1029,1014,998,983,968,952,937,922,904,892,876,861,880,830,815,799,784,629,616,607,604,606,599,594,586,589,592,588,597,594,595,594,597,597,596,599,601,601,603,606,599,603,609,601,597,597,596,597,597,596,911,922,915,924,1016,1337,1477,1653,1739,1763,1757,1732,1710,1688,1651,1641,1609,1570,1554,1530,1493,1470,1443,1397,1363,1335,1343,1298,1293,1015,998,991,982,948,926,963,918,889,889,905,896,901,907,903,915,903,901,903,901,915,918,946,924,915,930,918,903,904,921,931,915,918,916,912,911,747,755,752,750,836,1061,1187,1305,1403,1453,1441,1423,1407,1389,1363,1350,1328,1297,1285,1282,1225,1217,1197,1145,1122,1102,1106,1051,1066,999,983,783,886,782,759,775,760,731,730,723,736,742,738,731,743,747,743,742,745,740,749,750,746,753,753,752,745,741,743,751,735,751,744,748,743,706,708,727,711,738,974,1080,1186,1323,1311,1314,1350,1331,1317,1239,1222,1203,1184,1166,1195,1129,1111,1092,1074,1138,1037,1018,1001,982,963,944,838,743,728,718,714,716,729,719,692,696,709,684,691,697,694,717,688,698,723,730,715,726,731,724,711,709,706,728,717,717,717,717,717,715,637,639,640,635,653,858,952,1045,1138,1182,1183,1167,1184,1134,1124,1101,1084,1068,1051,1035,1018,1002,985,964,952,944,918,922,885,869,852,841,741,656,642,639,640,639,595,598,607,616,614,620,605,622,602,639,614,621,612,616,636,643,625,619,627,618,623,632,632,632,632,632,632,724,726,727,722,772,1002,1151,1268,1379,1422,1423,1425,1404,1362,1343,1322,1293,1270,1256,1225,1202,1194,1157,1134,1127,1089,1065,1042,1034,1011,974,820,809,741,729,726,738,709,665,666,660,697,696,661,671,707,672,716,698,689,696,673,665,667,672,680,666,669,658,663,663,663,663,663,663,512,520,514,515,524,684,770,843,920,960,964,950,971,922,933,895,887,873,854,840,827,812,799,785,772,763,754,730,721,707,693,638,662,531,524,580,519,521,519,512,515,527,519,512,512,524,523,523,507,522,533,519,538,523,524,523,528,521,517,522,526,522,521,519,518,686,701,690,692,722,917,1078,1198,1293,1328,1327,1309,1288,1267,1272,1219,1216,1191,1197,1176,1181,1163,1094,1061,1063,1044,1003,985,982,943,880,833,800,709,698,696,698,655,647,645,649,655,659,653,659,650,654,658,655,654,664,655,652,656,664,662,653,657,648,651,647,651,657,653,639,737,752,741,743,783,983,1169,1303,1398,1432,1428,1410,1386,1367,1365,1313,1307,1281,1285,1263,1272,1265,1175,1142,1141,1119,1077,1057,1053,1007,891,917,852,774,751,748,750,710,702,700,704,710,714,708,714,705,709,713,710,709,719,710,707,711,719,717,708,712,703,706,702,706,712,708,694,707,722,711,713,768,945,1116,1241,1337,1372,1369,1352,1328,1307,1310,1258,1254,1229,1233,1213,1222,1216,1127,1094,1095,1075,1034,1014,996,971,953,904,822,729,719,717,720,682,674,672,676,682,686,680,686,677,681,685,682,681,691,682,679,683,691,689,680,684,675,678,674,678,684,680,666,657,658,674,675,682,889,1012,1096,1211,1245,1245,1258,1309,1226,1207,1155,1136,1118,1100,1082,1063,1046,1027,1004,1026,968,954,937,914,932,877,826,692,674,667,665,666,726,672,656,666,670,666,673,668,678,677,673,676,673,673,677,677,687,679,679,675,679,677,670,674,686,673,686,676,778,780,812,800,821,1086,1205,1322,1455,1442,1443,1422,1402,1439,1361,1342,1344,1324,1303,1260,1240,1221,1200,1180,1249,1139,1119,1098,1096,1059,1056,911,816,814,791,787,789,791,775,764,769,781,761,764,776,773,788,768,770,793,799,788,799,802,797,784,785,779,801,790,790,790,790,790,788,926,937,933,935,996,1363,1515,1678,1767,1810,1792,1768,1746,1727,1695,1676,1644,1610,1589,1568,1519,1492,1479,1423,1394,1357,1327,1272,1185,1018,1143,977,988,963,944,959,918,886,885,881,894,896,894,887,901,903,899,901,899,901,909,907,906,909,912,909,896,896,900,904,895,904,898,902,897,697,699,734,702,728,960,1064,1168,1305,1293,1296,1279,1260,1243,1224,1206,1188,1170,1151,1134,1115,1097,1079,1061,1133,1025,1006,988,970,952,764,749,734,720,710,706,708,709,699,713,706,720,738,726,736,739,731,739,739,738,738,730,739,739,739,735,739,738,738,737,737,737,737,737,737,531,547,534,535,545,720,814,900,980,1018,1023,1009,995,979,987,939,940,921,931,916,931,932,848,821,827,813,777,764,766,732,717,702,638,551,541,538,540,529,521,519,523,529,533,527,533,524,528,532,529,528,538,529,526,530,538,536,527,531,522,525,521,525,531,527,513,616,631,619,622,640,829,958,1062,1151,1188,1191,1175,1157,1139,1144,1094,1091,1070,1077,1060,1071,1070,983,954,956,940,901,886,884,817,800,667,653,639,634,625,626,596,588,586,590,598,602,596,602,593,597,601,599,598,608,599,596,600,608,606,598,602,593,596,592,596,602,599,585,539,549,554,532,541,729,810,882,955,1002,999,986,986,960,971,933,940,911,894,881,867,854,841,821,807,790,789,740,766,721,691,554,628,560,552,602,550,466,456,464,461,462,466,465,468,469,459,464,459,461,464,492,470,468,486,464,462,464,475,477,461,464,462,464,463,0,0,0,0,0,0,0,0,0,0,0,0,0,0,0,0,0,0,0,0,0,0,0,0,0,0,0,0,0,0,0,0,0,0,0,0,0,0,0,0,0,0,0,0,0,0,0,0,0,0,0,0,0,0,0,0,0,0,0,0,0,0,0,0,0,345,346,359,351,351,449,520,581,620,700,693,691,694,684,654,660,635,621,613,602,591,562,569,558,561,536,524,513,516,505,480,454,458,446,357,342,342,354,303,311,300,311,321,313,310,316,306,310,311,319,306,304,307,310,309,310,311,312,308,321,321,321,321,321,321,1579,1573,1614,1652,2013,2613,2815,2963,3027,3030,2958,2947,2880,2874,2823,2800,2726,2661,2649,2604,2398,2038,2198,1950,1980,1873,1880,1849,1857,1724,1696,1643,1644,1624,1606,1623,1582,1555,1540,1536,1559,1570,1568,1559,1575,1575,1573,1575,1567,1566,1572,1582,1578,1579,1584,1577,1567,1566,1572,1575,1565,1575,1567,1571,1566,666,683,688,689,698,905,1037,1119,1266,1270,1269,1250,1267,1248,1229,1175,1157,1138,1119,1101,1082,1063,1069,1026,1043,988,970,951,932,914,895,876,702,687,692,675,676,711,672,670,671,683,673,677,677,682,679,679,680,676,680,679,680,680,681,712,710,711,682,679,710,706,685,688,687,822,819,829,819,899,1166,1288,1437,1535,1566,1566,1547,1531,1497,1499,1493,1461,1403,1386,1390,1331,1318,1299,1261,1219,1211,1200,1144,1155,917,914,895,883,844,839,870,818,787,772,782,778,781,784,787,791,791,782,788,783,787,791,817,798,795,811,794,790,790,799,807,792,795,793,795,794,1430,1474,1464,1531,1930,2343,2520,2702,2745,2809,2743,2719,2651,2663,2590,2542,2537,2487,2404,2363,2330,2282,2274,2179,2088,1868,1874,1747,1682,1586,1537,1502,1496,1503,1454,1504,1456,1468,1450,1463,1467,1456,1456,1467,1477,1470,1461,1477,1471,1469,1473,1503,1487,1484,1500,1475,1475,1479,1488,1496,1481,1484,1482,1484,1483,1505,1517,1537,1646,2013,2412,2689,2800,2861,2899,2836,2823,2788,2721,2675,2669,2580,2538,2493,2440,2407,2390,2346,2299,2129,1769,1800,1696,1698,1703,1614,1577,1535,1533,1503,1535,1529,1560,1521,1527,1538,1536,1533,1540,1544,1546,1534,1550,1545,1548,1551,1562,1564,1570,1556,1548,1550,1557,1559,1553,1553,1567,1553,1558,1552,512,513,515,517,525,698,789,881,970,1019,1030,1014,998,982,965,949,932,916,899,884,867,851,834,818,801,786,770,753,737,720,704,687,672,655,524,520,522,513,497,493,496,498,501,496,499,501,500,507,508,505,507,513,506,507,515,512,512,514,513,513,514,514,514,524,518,927,912,891,1071,1174,1287,1419,1540,1607,1601,1673,1600,1628,1598,1532,1551,1487,1465,1498,1401,1448,1375,1353,1329,1307,1284,1250,1261,1217,1282,1172,1195,1167,906,899,898,903,901,909,915,906,918,914,918,909,910,914,918,911,918,912,917,918,914,914,920,921,918,917,918,920,1052,1093,1098,1097,623,648,680,678,612,822,920,1041,1148,1202,1203,1153,1165,1118,1122,1096,1093,1081,1050,1023,1004,986,963,949,943,906,893,897,853,836,818,774,698,616,604,611,603,603,598,600,597,602,606,604,608,612,604,603,607,607,611,604,603,610,611,607,609,612,601,607,602,609,608,608,595,816,825,833,862,849,1048,1275,1387,1500,1513,1512,1488,1522,1446,1465,1442,1417,1370,1326,1325,1279,1279,1263,1209,1214,1184,1206,1168,1115,895,1026,863,854,813,813,809,783,769,771,774,769,784,782,785,777,779,782,774,773,778,776,779,782,773,778,785,783,783,778,779,783,809,787,792,780,497,496,498,509,504,667,716,790,865,915,921,894,895,867,869,841,840,827,809,787,774,761,748,734,729,719,694,685,671,652,528,513,502,494,483,504,503,506,477,479,480,486,492,478,488,491,489,486,487,486,491,491,497,494,494,489,490,487,494,487,487,528,488,490,488,522,530,524,526,582,727,763,848,930,975,981,966,951,949,920,933,891,875,860,870,830,840,837,807,771,755,750,745,710,695,649,640,531,519,508,529,530,531,496,498,500,516,513,509,509,513,508,511,511,512,516,524,524,539,516,511,515,521,520,512,512,526,512,517,511,1618,1595,1647,1793,2087,2558,2862,2961,3056,3060,3037,2968,2956,2895,2836,2813,2741,2695,2606,2635,2512,2395,2035,2342,1993,1931,1938,1833,1799,1746,1692,1684,1640,1620,1626,1641,1618,1632,1593,1607,1610,1616,1618,1614,1615,1622,1614,1620,1612,1616,1619,1628,1636,1638,1629,1616,1619,1626,1625,1620,1619,1639,1616,1618,1612,314,315,315,315,316,408,447,488,528,566,575,567,559,552,544,536,529,521,513,506,498,490,482,475,467,459,452,445,437,430,422,414,407,399,391,388,388,389,298,300,303,306,306,307,301,306,301,315,306,305,307,308,315,396,315,312,315,308,314,315,315,389,310,313,310,985,988,988,999,1129,1458,1607,1755,1834,1883,1840,1831,1821,1781,1752,1723,1695,1664,1646,1616,1583,1552,1530,1499,1463,1432,1406,1381,1357,1303,1050,1047,1016,988,978,1000,991,980,956,962,960,974,963,972,966,978,968,976,972,965,975,975,983,981,978,973,977,974,980,971,973,1012,972,975,969,832,822,823,830,927,1089,1289,1427,1524,1558,1556,1535,1533,1483,1470,1468,1420,1387,1362,1366,1313,1320,1307,1268,1221,1193,1194,1168,1124,1096,876,970,837,819,822,829,834,842,808,811,817,826,821,818,823,823,819,821,821,823,831,842,837,842,834,831,833,832,828,822,822,853,822,824,818,474,468,470,485,579,632,724,806,886,937,950,936,921,906,892,877,863,848,826,819,804,789,775,750,745,731,717,701,687,673,644,643,629,599,478,474,476,477,472,471,472,476,477,476,479,476,483,482,478,477,482,483,484,479,482,535,482,529,479,484,533,536,485,483,479,353,354,355,355,356,463,510,557,605,646,654,645,636,628,619,609,600,591,583,574,565,556,547,539,529,520,511,502,493,485,476,467,458,448,440,436,437,438,350,350,351,352,352,354,352,356,353,352,351,352,350,380,356,356,353,355,387,355,386,355,355,436,349,354,353,468,469,471,472,477,632,716,799,883,932,946,930,916,900,885,871,855,841,826,810,796,781,765,751,735,720,706,690,675,661,645,640,616,600,479,476,477,457,441,438,440,442,445,440,441,443,442,449,450,449,449,455,450,449,457,454,454,456,455,455,456,456,486,480,471,500,518,500,538,547,685,728,803,883,959,935,920,906,892,877,863,849,834,820,806,803,777,763,749,734,730,705,690,676,662,647,633,555,495,487,550,599,553,482,485,486,501,479,493,491,494,494,496,493,485,491,485,489,491,491,491,494,489,493,486,489,494,490,496,498,889,900,904,908,895,1209,1403,1569,1652,1691,1702,1658,1632,1607,1613,1568,1562,1538,1492,1468,1438,1409,1378,1359,1346,1296,1278,1273,1219,1029,1035,985,912,908,873,880,873,859,839,853,859,859,863,853,862,860,855,861,856,859,861,869,872,863,864,858,863,867,864,858,858,887,858,863,857,965,975,982,1043,1070,1296,1577,1696,1804,1813,1804,1775,1803,1724,1736,1709,1680,1629,1579,1574,1522,1517,1496,1438,1436,1402,1418,1376,1279,1098,1166,1050,993,964,965,961,928,914,916,919,914,929,927,930,922,924,927,919,918,923,921,924,927,918,923,930,928,928,923,924,928,954,932,937,925,935,939,952,952,977,1244,1480,1634,1733,1753,1744,1720,1706,1669,1683,1638,1626,1577,1529,1524,1474,1469,1439,1392,1392,1355,1335,1329,1273,1057,1062,975,953,928,913,920,900,886,888,891,886,901,897,902,894,896,899,891,890,895,893,896,899,890,895,902,900,900,895,896,900,926,904,909,897,642,644,642,648,735,903,1040,1073,1173,1215,1216,1254,1179,1153,1141,1122,1103,1084,1065,1041,1023,1004,991,972,948,935,916,897,878,860,841,822,657,734,630,651,653,651,631,630,642,649,652,658,639,690,638,674,648,639,651,643,657,704,658,649,657,641,649,657,655,674,643,655,645,558,554,556,570,666,751,867,959,1051,1096,1106,1093,1073,1057,1039,1023,1009,988,964,955,939,921,905,877,871,854,838,821,804,787,756,753,737,691,585,560,562,549,543,543,545,548,554,549,558,555,556,562,550,551,555,556,561,552,555,570,558,568,551,557,607,609,562,556,552,996,1002,1005,1024,1105,1388,1641,1796,1886,1915,1905,1879,1868,1817,1789,1787,1732,1697,1666,1664,1606,1609,1590,1546,1491,1453,1415,1384,1287,1191,1083,1076,1023,1002,1004,1014,990,997,961,970,967,979,978,975,974,983,973,979,977,981,991,994,996,1001,990,981,983,989,986,983,982,1001,983,985,979,519,532,534,536,614,700,823,915,987,1061,1072,1054,1038,1020,1004,986,1091,921,936,918,881,884,866,822,814,816,798,782,746,748,730,796,667,555,531,539,617,542,547,544,539,548,551,615,547,554,607,632,549,553,544,551,551,538,549,555,553,553,546,546,556,560,555,559,551,758,769,774,800,769,960,1170,1275,1390,1405,1405,1383,1418,1344,1364,1343,1320,1275,1232,1233,1188,1190,1175,1124,1130,1102,1125,1089,1036,818,963,790,782,755,742,750,747,733,735,738,733,748,746,749,741,743,746,738,737,742,740,743,746,737,742,749,747,747,742,743,747,773,751,756,744,843,850,867,854,865,1095,1311,1448,1556,1573,1570,1545,1541,1501,1518,1482,1469,1421,1376,1373,1326,1325,1306,1253,1257,1225,1208,1202,1102,934,1016,901,870,860,823,829,814,800,802,805,802,810,805,812,810,812,815,808,807,812,810,813,816,807,812,819,818,818,813,814,818,831,820,825,816,540,541,540,541,587,728,767,840,917,994,970,957,942,929,915,900,887,873,860,845,843,818,805,790,777,773,749,735,721,708,694,679,575,533,526,571,574,532,508,513,512,518,515,524,518,528,520,528,524,517,527,527,529,531,530,525,525,528,529,523,525,532,524,527,521,338,340,341,342,351,438,510,569,627,682,693,683,671,660,648,638,626,615,604,593,581,571,559,548,537,526,514,504,492,481,473,461,450,366,357,352,353,354,318,315,320,320,312,319,321,320,323,327,336,325,324,324,322,328,325,322,319,327,322,319,325,320,320,324,323,0,0,0,0,0,0,0,0,0,0,0,0,0,0,0,0,0,0,0,0,0,0,0,0,0,0,0,0,0,0,0,0,0,0,0,0,0,0,0,0,0,0,0,0,0,0,0,0,0,0,0,0,0,0,0,0,0,0,0,0,0,0,0,0,0,1660,1640,1696,1828,2141,2642,2942,3040,3133,3136,3112,3040,3029,2967,2908,2882,2808,2761,2672,2700,2556,2503,2340,2106,2038,1990,1958,1901,1838,1790,1735,1747,1683,1663,1643,1684,1654,1667,1616,1621,1643,1653,1652,1647,1648,1655,1647,1653,1645,1649,1652,1661,1669,1671,1662,1649,1651,1659,1658,1653,1652,1672,1652,1654,1648,652,654,656,657,744,919,1020,1105,1199,1239,1240,1249,1202,1182,1163,1144,1124,1105,1085,1067,1047,1028,1009,990,970,951,931,913,893,874,854,834,667,651,639,661,663,665,650,646,651,658,655,650,655,657,657,653,657,656,694,725,696,697,665,662,664,719,696,669,666,730,665,666,668,878,885,887,897,1048,1240,1428,1565,1642,1708,1674,1649,1625,1610,1576,1547,1523,1501,1474,1450,1426,1394,1379,1363,1314,1288,1255,1241,1220,1190,1130,1032,902,899,886,891,893,880,842,846,849,858,863,857,864,870,857,867,862,861,866,881,884,887,867,859,870,868,870,867,867,878,867,872,866,1505,1517,1537,1646,2013,2412,2689,2800,2861,2899,2836,2823,2788,2721,2675,2669,2580,2538,2493,2440,2407,2390,2346,2299,2129,1769,1800,1696,1698,1703,1614,1577,1535,1533,1503,1535,1529,1560,1521,1527,1538,1536,1533,1540,1544,1546,1534,1550,1545,1548,1551,1562,1564,1570,1556,1548,1550,1557,1559,1553,1553,1567,1553,1558,1552,732,736,737,739,755,901,1136,1256,1391,1465,1454,1443,1419,1395,1372,1349,1326,1303,1290,1245,1233,1207,1184,1161,1144,1115,1092,1067,1043,1025,964,889,868,758,746,743,745,747,736,732,735,731,740,739,742,744,744,758,754,747,752,756,755,754,756,759,756,755,756,755,763,786,782,766,763,1568,1582,1642,1843,2479,2980,3243,3386,3476,3494,3480,3396,3354,3284,3228,3121,3067,3026,2912,2895,2786,2619,2474,2380,2277,2210,1921,1878,1842,1749,1692,1643,1614,1573,1568,1588,1658,1621,1714,1706,1717,1743,1726,1752,1732,1734,1745,1740,1764,1733,1744,1786,1798,1826,1787,1781,1733,1740,1756,1768,1742,1747,1737,1811,1762,1744,1781,1956,2149,2826,3234,3400,3581,3661,3747,3682,3589,3563,3484,3457,3326,3280,3239,3193,3143,2894,2601,2508,2503,2430,2328,2188,2166,2050,2019,1957,1854,1877,1785,1787,1792,1881,1827,1970,1957,1985,1944,1978,1957,1996,1991,1998,1992,1985,2008,2005,1999,2009,2045,2009,2005,1997,2005,2016,2001,2033,2007,2017,2031,2014,1211,1216,1227,1262,1392,1783,2061,2238,2309,2388,2370,2317,2292,2247,2216,2173,2136,2105,2057,2004,1980,1965,1922,1882,1839,1814,1684,1599,1557,1449,1348,1309,1256,1232,1220,1156,1094,1086,1074,1077,1094,1101,1097,1101,1087,1111,1097,1098,1092,1095,1089,1097,1097,1102,1108,1107,1104,1106,1108,1112,1111,1122,1117,1106,1102,1180,1175,1173,1182,1418,1732,1979,2146,2288,2301,2267,2242,2193,2180,2133,2124,2087,2044,1978,1958,1950,1899,1892,1838,1802,1750,1723,1636,1574,1377,1341,1253,1220,1194,1185,1172,1178,1186,1168,1173,1173,1185,1180,1194,1182,1191,1187,1185,1181,1181,1176,1183,1187,1193,1187,1190,1185,1187,1194,1192,1193,1207,1188,1193,1189,1234,1227,1237,1293,1456,1827,2118,2283,2361,2414,2430,2383,2366,2313,2258,2200,2177,2147,2116,2070,2031,1998,1939,1922,1877,1838,1695,1424,1533,1420,1383,1311,1301,1260,1248,1249,1188,1181,1170,1172,1176,1186,1189,1190,1180,1194,1186,1189,1182,1187,1182,1186,1186,1193,1194,1200,1194,1194,1197,1195,1201,1210,1205,1194,1190,1251,1240,1254,1290,1482,1858,2139,2313,2382,2444,2445,2398,2379,2325,2281,2227,2202,2169,2141,2097,2056,2023,1957,1946,1896,1749,1713,1575,1525,1495,1387,1328,1313,1270,1263,1265,1207,1194,1197,1190,1190,1212,1208,1213,1205,1219,1211,1214,1207,1212,1207,1211,1211,1218,1219,1225,1219,1219,1222,1220,1226,1235,1230,1219,1215,162,162,162,162,163,168,233,259,287,313,330,324,320,314,309,303,299,293,288,282,278,272,267,261,257,251,246,240,236,231,184,180,176,171,167,164,164,164,162,159,153,155,166,169,163,169,165,175,168,231,236,233,172,229,180,162,168,172,233,256,246,262,254,249,187,1734,1723,1771,1953,2330,2798,3061,3204,3270,3333,3304,3241,3204,3126,3066,3034,2978,2929,2893,2825,2738,2511,2283,2171,2115,2080,2078,1966,1973,1929,1845,1825,1810,1756,1727,1700,1678,1670,1662,1671,1670,1683,1684,1688,1675,1689,1682,1685,1678,1683,1678,1682,1682,1689,1690,1696,1690,1690,1692,1691,1696,1705,1700,1689,1685,1121,1124,1137,1141,1255,1606,1868,2050,2151,2207,2198,2170,2127,2098,2080,2022,1995,1965,1938,1893,1851,1813,1784,1744,1717,1678,1643,1614,1448,1422,1320,1200,1179,1151,1146,1140,1108,1089,1099,1095,1096,1095,1097,1100,1105,1112,1119,1112,1098,1109,1106,1139,1126,1137,1108,1112,1123,1121,1118,1132,1129,1116,1123,1137,1120,928,931,934,936,999,1264,1476,1653,1780,1833,1832,1804,1774,1751,1715,1692,1664,1613,1580,1556,1523,1516,1486,1456,1426,1400,1371,1342,1292,1171,1100,1015,963,938,937,928,895,886,875,877,880,890,894,894,885,899,891,893,886,891,886,891,891,898,898,903,896,896,901,898,907,916,911,900,896,1407,1404,1445,1608,2252,2694,3025,3174,3256,3247,3286,3111,3076,2981,2967,2850,2805,2769,2658,2587,2541,2475,2390,2344,2278,2194,1995,1948,1634,1580,1527,1474,1446,1406,1401,1440,1479,1478,1535,1532,1545,1571,1547,1568,1548,1550,1545,1556,1585,1556,1565,1597,1608,1650,1629,1601,1554,1563,1576,1575,1566,1571,1561,1628,1586,1607,1599,1668,1879,2408,2876,3136,3277,3343,3406,3373,3311,3273,3193,3132,3099,3041,2992,2944,2869,2808,2639,2409,2287,2201,2003,1945,1901,1839,1773,1724,1663,1628,1609,1584,1649,1679,1663,1707,1709,1712,1725,1727,1729,1717,1732,1722,1727,1720,1726,1719,1722,1725,1730,1733,1738,1731,1735,1732,1733,1738,1747,1742,1731,1727,1504,1514,1588,1779,2360,2888,3154,3300,3392,3411,3396,3320,3271,3183,3151,3051,2997,2959,2844,2770,2721,2652,2420,2349,2272,2204,1873,1830,1796,1704,1648,1599,1567,1528,1534,1552,1613,1588,1654,1673,1681,1696,1673,1699,1697,1697,1690,1706,1736,1700,1715,1756,1771,1776,1754,1754,1686,1698,1723,1717,1695,1700,1690,1776,1715,1254,1235,1247,1289,1478,1836,2110,2284,2352,2470,2417,2369,2363,2297,2251,2237,2183,2148,2117,2076,2038,1998,1941,1920,1881,1849,1791,1644,1612,1398,1353,1356,1327,1265,1250,1224,1229,1204,1195,1208,1207,1223,1222,1219,1221,1225,1227,1230,1223,1228,1223,1227,1227,1234,1235,1241,1233,1224,1238,1236,1242,1251,1243,1235,1231,1058,1072,1051,1050,1265,1549,1750,1910,2058,2058,2029,2061,1978,1967,1924,1917,1884,1844,1793,1789,1761,1698,1707,1659,1629,1607,1547,1488,1444,1187,1176,1149,1094,1070,1072,1060,1042,1052,1034,1044,1040,1050,1044,1055,1052,1059,1052,1073,1065,1067,1073,1068,1057,1064,1059,1068,1062,1058,1060,1070,1058,1069,1053,1058,1054,1000,1003,1008,1037,1198,1450,1660,1822,1940,1966,1945,1944,1896,1887,1840,1829,1795,1773,1701,1684,1652,1637,1591,1581,1547,1492,1477,1445,1411,1246,1146,1132,1051,1020,1024,1014,1005,1015,999,1008,1004,1007,1008,1018,1010,1018,1016,1034,1030,1031,1020,1036,1018,1027,1025,1033,1031,1027,1025,1031,1022,1033,1019,1024,1020,1023,1029,1024,1023,1226,1484,1697,1860,2006,2009,1981,1987,1930,1920,1878,1872,1839,1800,1737,1713,1718,1657,1670,1608,1573,1555,1502,1469,1470,1197,1185,1169,1067,1037,1041,1028,1032,1042,1031,1036,1037,1040,1033,1053,1038,1051,1046,1050,1049,1051,1047,1077,1044,1060,1059,1057,1070,1046,1056,1060,1051,1065,1047,1052,1048,1371,1380,1412,1454,1732,2097,2354,2541,2650,2705,2683,2661,2588,2561,2497,2458,2394,2323,2309,2279,2240,2203,2173,2109,2065,2024,1921,1575,1578,1537,1476,1448,1434,1400,1397,1358,1370,1360,1344,1354,1354,1356,1365,1374,1382,1374,1385,1391,1368,1377,1386,1394,1403,1434,1393,1386,1392,1399,1407,1394,1389,1382,1373,1389,1367,1419,1423,1476,1610,2325,2769,3061,3246,3326,3316,3297,3180,3143,3047,3032,2915,2828,2742,2720,2610,2564,2535,2449,2366,2300,2216,2108,2016,1748,1624,1570,1493,1489,1424,1445,1485,1523,1496,1575,1587,1596,1615,1591,1619,1620,1603,1606,1618,1629,1610,1616,1641,1645,1654,1663,1673,1603,1612,1649,1622,1610,1615,1605,1701,1630,737,740,742,744,759,967,1138,1282,1406,1475,1483,1456,1433,1409,1386,1361,1338,1314,1290,1266,1242,1217,1194,1171,1146,1122,1101,1078,1054,977,928,906,789,765,752,752,752,714,708,708,708,747,754,736,741,737,748,751,741,752,730,733,761,838,732,750,733,730,770,753,756,764,752,767,745,1395,1399,1462,1575,2188,2625,2955,3109,3234,3225,3218,3061,3061,2929,2915,2871,2763,2678,2647,2552,2509,2477,2394,2318,2284,2201,2107,1983,1623,1571,1520,1469,1470,1397,1389,1428,1465,1462,1510,1519,1509,1522,1521,1529,1523,1536,1526,1588,1522,1533,1527,1527,1523,1523,1533,1600,1521,1526,1518,1523,1522,1591,1558,1559,1525,1179,1166,1164,1176,1454,1724,1961,2128,2273,2291,2258,2216,2177,2196,2117,2117,2071,2029,1953,1942,1934,1892,1878,1826,1789,1742,1727,1658,1599,1328,1331,1292,1210,1188,1179,1171,1168,1168,1153,1155,1157,1175,1172,1182,1165,1186,1167,1171,1172,1173,1174,1181,1182,1180,1179,1182,1181,1184,1184,1179,1186,1196,1177,1179,1175,1127,1134,1117,1116,1366,1668,1885,2042,2192,2186,2154,2183,2097,2085,2041,2033,1997,1954,1900,1888,1864,1800,1812,1758,1728,1700,1638,1579,1533,1279,1266,1215,1165,1135,1138,1126,1092,1102,1084,1094,1090,1101,1095,1106,1103,1110,1103,1124,1116,1118,1120,1120,1109,1116,1111,1120,1114,1110,1113,1123,1111,1122,1106,1111,1107,1212,1202,1215,1242,1418,1777,2052,2231,2300,2364,2368,2321,2304,2252,2208,2157,2131,2102,2075,2032,1994,1959,1903,1886,1839,1805,1761,1590,1549,1400,1364,1289,1274,1231,1226,1210,1148,1140,1129,1133,1135,1149,1150,1155,1143,1157,1149,1152,1145,1150,1145,1149,1149,1156,1157,1163,1157,1157,1160,1158,1164,1173,1168,1157,1153,1636,1647,1687,1803,2125,2626,2892,3059,3123,3163,3145,3084,3056,2991,2928,2870,2837,2798,2748,2691,2630,2488,2302,2065,2041,1998,1966,1856,1894,1846,1780,1728,1706,1681,1604,1546,1530,1516,1508,1521,1516,1529,1533,1534,1522,1536,1528,1531,1524,1529,1524,1528,1528,1535,1536,1542,1536,1536,1539,1537,1543,1552,1547,1536,1532,1681,1678,1739,1890,2221,2702,2983,3135,3201,3253,3213,3159,3133,3072,3002,2946,2906,2866,2834,2776,2714,2473,2410,2117,2057,2056,2029,1906,1915,1892,1822,1772,1758,1701,1702,1650,1629,1620,1612,1625,1620,1633,1634,1638,1626,1640,1632,1635,1628,1633,1628,1632,1632,1639,1640,1646,1640,1640,1643,1641,1647,1656,1651,1640,1636,0,0,0,0,0,0,0,0,0,0,0,0,0,0,0,0,0,0,0,0,0,0,0,0,0,0,0,0,0,0,0,0,0,0,0,0,0,0,0,0,0,0,0,0,0,0,0,0,0,0,0,0,0,0,0,0,0,0,0,0,0,0,0,0,0,1342,1345,1438,1521,1779,2178,2463,2628,2721,2788,2761,2728,2655,2610,2566,2528,2456,2410,2376,2345,2305,2264,2225,2170,2120,2080,1990,1727,1723,1606,1510,1485,1409,1378,1370,1379,1410,1386,1384,1405,1414,1418,1424,1429,1410,1420,1434,1415,1396,1408,1417,1418,1423,1461,1426,1399,1403,1415,1423,1406,1415,1427,1434,1430,1408,960,966,985,986,1121,1331,1538,1728,1846,1929,1911,1871,1840,1810,1779,1758,1721,1685,1658,1628,1598,1609,1558,1508,1472,1466,1417,1375,1355,1325,1180,1069,1019,990,978,969,977,950,942,954,968,946,959,950,954,964,948,965,959,955,965,965,979,1051,975,963,979,972,977,979,990,987,979,1001,979,732,736,737,739,755,901,1136,1256,1391,1465,1454,1443,1419,1395,1372,1349,1326,1303,1290,1245,1233,1207,1184,1161,1144,1115,1092,1067,1043,1025,964,889,868,758,746,743,745,747,736,732,735,731,740,739,742,744,744,758,754,747,752,756,755,754,756,759,756,755,756,755,763,786,782,766,763,952,954,974,974,999,1370,1578,1751,1848,1882,1903,1844,1815,1805,1766,1722,1714,1689,1658,1629,1576,1546,1533,1522,1456,1434,1413,1373,1260,1202,1070,1033,996,976,969,966,974,970,940,945,946,948,949,947,948,963,948,944,950,949,948,944,949,967,953,955,951,954,962,977,968,991,964,965,965,428,430,522,432,434,589,699,810,918,991,998,1012,960,978,921,933,883,864,844,859,806,811,767,759,730,710,701,672,653,642,606,595,553,455,532,434,438,422,423,420,422,423,420,430,429,427,429,429,457,428,428,431,428,435,430,432,431,430,431,431,432,431,431,448,435,597,619,629,621,617,834,931,977,1090,1087,1214,1205,1169,1168,1025,1115,1098,975,1062,1056,1028,909,999,974,962,893,921,903,886,822,806,831,806,768,608,626,568,753,604,617,604,617,624,622,627,623,620,621,616,620,618,615,614,620,621,621,623,616,616,624,621,755,670,675,625,628,630,632,634,666,830,989,1081,1190,1252,1261,1246,1229,1208,1177,1160,1148,1120,1100,1065,1058,1039,1018,1022,985,946,939,925,897,883,837,731,714,653,640,651,639,610,572,577,575,585,593,583,584,582,581,588,577,583,586,591,592,593,595,587,579,588,591,588,586,578,582,581,581,861,863,865,868,966,1094,1403,1551,1654,1709,1711,1689,1662,1634,1597,1577,1556,1520,1492,1454,1440,1413,1386,1382,1338,1290,1276,1254,1220,1116,1063,952,923,893,877,887,858,828,796,803,803,812,800,813,807,809,808,813,808,816,818,815,817,823,818,813,810,813,807,814,811,808,809,814,813,457,461,459,461,465,537,664,760,837,901,905,891,875,860,860,836,820,806,806,776,770,750,748,721,709,684,683,661,643,629,603,591,564,514,468,465,464,461,392,395,391,396,403,397,396,403,391,401,393,395,393,395,396,397,396,395,394,392,399,397,392,393,392,394,394,485,486,488,489,495,546,728,812,897,964,977,971,954,937,922,900,891,869,853,823,820,806,790,809,759,731,729,718,697,687,574,560,547,506,495,492,493,506,445,446,443,461,463,456,468,460,458,467,468,457,454,461,465,463,462,461,462,453,463,458,470,457,454,457,457,1291,1273,1298,1317,1406,1795,2229,2389,2520,2528,2487,2466,2409,2388,2347,2277,2255,2234,2184,2125,2079,2059,2031,1955,1916,1905,1842,1775,1535,1396,1397,1381,1353,1316,1287,1290,1296,1271,1225,1217,1224,1229,1232,1231,1222,1230,1232,1222,1227,1227,1227,1230,1230,1259,1231,1238,1227,1242,1233,1238,1239,1237,1239,1230,1230,659,661,662,664,699,885,981,1073,1167,1233,1257,1240,1222,1204,1187,1161,1152,1135,1108,1099,1082,1092,1047,1029,1033,986,970,958,941,925,899,815,729,711,683,669,670,654,638,627,636,637,640,650,635,644,649,638,643,641,642,647,672,672,650,650,644,651,645,647,649,651,644,646,643,339,341,342,342,343,454,504,563,620,671,683,672,662,651,640,629,619,608,597,587,576,565,554,559,533,522,511,501,490,479,469,458,447,436,349,344,345,346,319,319,319,322,329,330,326,346,326,333,326,328,322,334,326,410,412,348,333,328,326,333,328,353,319,327,327,659,660,677,665,693,845,1053,1175,1267,1326,1333,1312,1291,1270,1249,1229,1206,1186,1165,1133,1106,1100,1080,1057,1022,1016,987,951,958,937,915,816,701,700,672,676,680,650,625,614,621,623,639,638,629,637,637,629,634,628,634,623,628,640,638,631,634,626,623,639,639,644,642,637,637,586,580,589,591,594,811,942,1102,1240,1308,1309,1288,1265,1239,1212,1191,1153,1130,1114,1094,1066,1042,1007,999,971,947,926,898,877,850,769,755,693,641,600,594,593,518,521,523,525,531,525,530,555,532,530,528,535,535,555,573,573,558,529,531,535,530,532,532,532,529,524,522,521,559,565,567,568,580,784,911,1054,1180,1247,1255,1236,1213,1191,1162,1140,1116,1097,1070,1051,1024,1005,979,955,932,909,886,861,843,811,786,772,743,703,577,572,577,559,563,565,569,575,572,576,569,574,570,571,572,572,569,575,572,568,574,579,576,576,574,575,580,575,572,573,572,382,383,384,385,387,525,623,724,825,898,907,894,876,858,837,822,800,786,765,751,730,711,694,676,658,641,623,605,587,569,543,534,517,499,394,387,393,387,389,391,395,399,396,400,499,401,396,397,402,403,498,508,501,500,396,399,403,400,401,400,401,400,396,396,399,412,413,416,434,418,489,628,711,774,829,846,837,825,811,799,789,777,766,754,738,729,705,706,694,656,646,631,623,595,539,529,533,462,450,430,418,419,421,348,351,347,352,359,355,352,359,349,360,352,354,352,354,355,356,355,354,353,351,358,356,351,352,351,353,353,895,898,901,903,954,1148,1478,1623,1724,1777,1769,1756,1727,1698,1659,1640,1617,1584,1552,1511,1497,1469,1442,1430,1385,1341,1326,1302,1177,1180,1094,978,972,927,910,923,884,840,800,817,824,815,824,815,817,815,813,821,809,816,816,824,827,826,825,819,811,816,822,820,817,812,816,814,814,1003,995,1009,999,1093,1314,1659,1798,1896,1950,1919,1921,1899,1859,1856,1804,1770,1734,1710,1664,1645,1624,1606,1560,1516,1474,1478,1434,1335,1266,1174,1083,1104,1043,1010,1019,985,955,915,934,939,932,939,932,930,932,928,936,924,933,933,943,943,944,944,936,932,937,941,941,932,928,933,931,931,934,937,940,943,1027,1212,1556,1702,1803,1855,1847,1831,1801,1771,1731,1710,1686,1649,1619,1579,1561,1531,1502,1490,1445,1399,1382,1357,1230,1233,1070,1018,1020,966,951,962,936,893,852,871,877,869,876,869,868,869,865,873,861,870,870,879,880,881,881,873,868,873,878,876,869,865,870,868,868,223,230,231,232,267,276,336,375,413,464,451,458,451,443,436,429,421,414,407,400,392,385,378,370,363,356,348,341,334,326,319,312,286,279,273,268,268,227,193,196,192,197,204,200,197,204,194,205,197,199,197,199,200,201,200,199,198,196,203,201,196,197,196,198,198,557,594,597,599,612,793,990,1207,1327,1364,1364,1370,1270,1336,1307,1192,1233,1223,1179,1122,1061,1035,1069,982,987,929,959,945,880,866,798,856,632,628,608,603,618,590,592,595,598,603,602,603,612,611,603,608,607,609,624,646,650,631,602,604,611,603,604,605,606,602,601,595,594,702,700,702,709,737,749,1086,1205,1332,1404,1384,1353,1341,1319,1297,1314,1261,1237,1250,1178,1153,1134,1131,1092,1096,1068,1026,1034,982,990,846,897,762,728,720,717,719,688,642,634,641,646,649,648,639,647,649,639,644,644,644,647,647,676,648,655,644,659,650,655,656,654,656,647,647,696,698,699,701,731,991,1143,1343,1460,1521,1520,1497,1472,1442,1410,1387,1355,1331,1299,1275,1244,1224,1191,1171,1136,1108,1081,1053,1026,1002,962,943,749,806,711,705,712,694,695,696,701,705,708,707,762,711,711,712,720,724,765,792,760,766,711,714,755,717,725,718,714,749,707,710,709,821,823,835,838,886,1069,1299,1479,1585,1621,1634,1599,1589,1546,1520,1498,1482,1446,1420,1384,1370,1344,1329,1301,1277,1229,1227,1200,1172,1039,1014,879,906,874,835,843,822,792,770,767,767,776,764,777,771,773,772,777,777,780,782,779,781,787,782,777,774,777,771,778,775,772,773,778,777,846,849,851,854,950,1073,1387,1522,1628,1683,1685,1664,1638,1610,1573,1554,1532,1498,1470,1432,1413,1390,1365,1361,1317,1270,1256,1234,1200,1155,1043,985,958,877,863,872,861,821,785,792,790,798,806,798,799,794,803,801,792,799,799,817,818,819,810,806,794,801,808,806,803,795,801,793,793,431,444,435,455,437,492,649,726,772,815,829,829,814,808,789,788,776,766,755,744,734,725,727,713,681,653,653,645,617,611,598,585,468,457,448,436,438,439,366,369,366,372,378,374,371,378,368,380,371,373,372,377,378,379,378,374,372,371,377,375,370,372,370,374,374,671,673,683,696,706,880,1048,1163,1275,1337,1349,1330,1323,1296,1257,1236,1214,1196,1193,1161,1126,1106,1100,1078,1052,1013,1020,924,964,899,918,844,752,708,696,702,690,631,599,604,609,613,615,615,607,616,616,626,613,614,618,615,627,625,615,619,624,616,617,618,618,641,630,636,620,692,701,703,705,738,952,1073,1220,1326,1382,1400,1379,1382,1333,1302,1283,1260,1237,1234,1200,1169,1149,1133,1110,1088,1047,1054,1022,1001,983,891,794,747,728,712,702,727,711,683,682,685,698,698,713,689,708,695,733,721,713,709,718,703,733,721,710,739,733,712,719,701,740,738,730,702,1433,1412,1439,1480,1738,2034,2482,2652,2780,2783,2739,2702,2652,2646,2579,2505,2481,2458,2399,2348,2292,2253,2238,2155,2115,2097,1784,1804,1589,1549,1538,1524,1497,1458,1427,1429,1432,1407,1361,1353,1360,1365,1368,1367,1358,1366,1368,1358,1363,1363,1363,1366,1366,1395,1367,1374,1363,1378,1369,1374,1375,1373,1375,1366,1366,0,0,0,0,0,0,0,0,0,0,0,0,0,0,0,0,0,0,0,0,0,0,0,0,0,0,0,0,0,0,0,0,0,0,0,0,0,0,0,0,0,0,0,0,0,0,0,0,0,0,0,0,0,0,0,0,0,0,0,0,0,0,0,0,0,497,494,495,502,508,572,756,841,960,1009,1029,1014,965,949,933,918,909,894,869,852,837,821,806,790,774,757,742,725,710,694,678,662,579,537,516,510,524,478,432,424,431,436,439,438,429,437,439,429,434,434,434,437,437,466,438,445,434,449,440,445,446,444,446,437,437,952,954,974,974,999,1370,1578,1751,1848,1882,1903,1844,1815,1805,1766,1722,1714,1689,1658,1629,1576,1546,1533,1522,1456,1434,1413,1373,1260,1202,1070,1033,996,976,969,966,974,970,940,945,946,948,949,947,948,963,948,944,950,949,948,944,949,967,953,955,951,954,962,977,968,991,964,965,965,722,697,730,733,725,973,1100,1275,1402,1444,1415,1410,1397,1382,1305,1283,1264,1238,1257,1239,1218,1149,1179,1149,1112,1096,1037,1057,935,920,899,900,832,727,728,730,739,741,689,688,686,704,693,702,692,703,702,693,695,699,695,696,691,691,697,700,696,700,691,694,699,721,706,722,700,893,913,889,912,958,1313,1612,1776,1920,1944,1932,1924,1865,1840,1801,1764,1742,1698,1682,1639,1593,1558,1524,1489,1455,1420,1388,1350,1323,1195,1090,1030,945,932,910,909,903,906,892,899,914,912,917,912,926,920,911,925,909,915,908,912,921,920,921,919,919,917,914,921,924,961,950,940,928,1082,1102,1080,1126,1183,1610,1783,1992,2191,2097,2215,2094,2112,2086,1995,1914,1993,1941,1944,1815,1767,1780,1731,1704,1633,1599,1556,1471,1369,1330,1197,1168,1136,1136,1101,1101,1107,1107,1096,1108,1127,1145,1116,1113,1130,1108,1136,1125,1135,1140,1139,1145,1152,1133,1130,1147,1141,1141,1128,1147,1186,1173,1145,1146,1134,430,432,433,450,452,509,629,712,786,853,874,862,848,835,820,806,792,778,764,752,738,723,709,694,680,666,652,640,625,572,594,566,493,480,455,452,455,428,315,316,313,320,349,351,326,344,331,351,341,332,344,328,324,342,335,327,348,324,321,347,341,354,342,346,334,535,536,541,542,544,618,798,889,1003,1071,1083,1065,1048,1032,1015,1016,977,963,943,927,910,903,875,859,843,825,803,802,769,757,739,727,629,562,550,545,546,548,467,472,467,479,508,511,492,510,497,507,507,497,510,488,491,509,502,488,511,489,480,518,507,525,510,517,498,454,454,456,464,473,551,691,772,836,911,921,920,906,896,860,860,847,832,801,788,774,760,748,731,715,700,686,671,656,642,627,542,488,488,476,471,485,468,409,402,407,408,404,416,405,418,415,408,416,407,411,416,409,417,411,411,408,417,407,412,411,412,406,418,415,469,471,474,481,489,531,716,785,868,936,952,938,922,912,889,874,859,844,829,816,800,785,775,757,740,724,709,695,679,665,649,592,506,505,492,488,480,481,425,416,420,425,417,430,423,427,427,423,441,425,423,430,421,433,426,428,423,426,422,425,427,427,422,446,430,825,822,833,837,899,993,1279,1428,1591,1640,1637,1608,1590,1558,1533,1507,1480,1457,1428,1406,1376,1349,1324,1298,1271,1259,1219,1218,1175,1140,1114,891,869,849,843,862,837,839,793,794,790,794,799,803,797,808,800,801,804,796,801,796,795,801,799,796,797,798,792,798,798,803,800,801,796,935,938,941,943,994,1202,1477,1703,1814,1866,1871,1838,1809,1771,1741,1731,1679,1653,1628,1609,1560,1538,1502,1478,1444,1418,1389,1360,1327,1253,1134,1053,1013,988,959,972,952,928,883,877,881,887,885,888,886,886,886,889,890,903,897,909,890,884,883,885,890,887,878,881,884,885,884,882,876,262,263,264,264,265,341,385,427,471,514,526,519,511,502,495,486,478,469,462,453,445,436,429,421,412,404,396,388,379,371,363,355,346,338,270,266,267,268,257,252,253,252,256,256,257,258,258,264,261,265,267,263,261,265,263,261,262,265,270,289,270,270,292,284,279,258,261,261,264,265,279,373,413,456,497,528,515,512,499,491,487,479,470,462,450,445,435,429,421,409,399,391,388,377,368,360,290,283,274,270,266,266,265,200,198,198,203,201,206,198,204,202,202,203,203,202,208,202,203,202,205,202,203,199,203,203,204,199,204,200,1044,1064,1041,1069,1140,1571,1904,2094,2226,2233,2227,2197,2154,2123,2074,2041,1997,1962,1922,1894,1832,1803,1756,1729,1686,1646,1610,1557,1479,1338,1276,1142,1109,1092,1072,1070,998,1005,1001,1000,1009,1040,1013,1010,1014,1013,1012,1007,1012,1012,1022,1020,1013,1021,1028,1033,1021,1023,1022,1024,1015,1026,1025,1022,1001,975,977,981,983,1055,1268,1551,1784,1892,1943,1947,1911,1882,1842,1813,1801,1748,1719,1694,1674,1623,1599,1564,1538,1502,1475,1445,1416,1380,1306,1122,1094,1053,1028,999,1012,992,969,924,917,923,932,926,930,928,929,927,931,933,944,934,940,933,925,923,928,931,930,920,922,929,925,926,924,918,846,865,842,862,906,1219,1510,1684,1830,1855,1845,1821,1781,1757,1720,1687,1651,1620,1587,1564,1520,1487,1456,1423,1387,1353,1322,1285,1260,1196,1154,985,899,885,865,863,867,873,869,870,877,914,883,878,883,879,881,874,880,878,919,887,883,890,896,923,891,892,890,893,886,898,899,896,875,456,457,459,461,473,516,671,755,841,907,927,908,896,884,869,855,840,824,811,798,783,765,751,737,723,708,694,678,665,591,573,508,549,485,474,471,481,452,404,397,397,404,405,406,405,407,402,406,406,405,399,402,400,400,402,402,405,405,397,398,402,406,400,402,396,554,573,573,583,586,663,881,952,1057,1147,1135,1127,1065,1081,1084,1072,1042,1028,1018,996,942,916,915,915,869,870,863,776,759,668,642,655,620,612,585,587,588,572,488,464,464,471,504,506,481,491,484,497,517,498,513,496,493,506,503,486,504,496,485,508,493,502,499,502,490,640,651,649,664,665,745,996,1122,1217,1307,1287,1293,1221,1229,1220,1204,1182,1175,1140,1104,1084,1054,1047,1045,994,996,975,939,917,879,783,782,694,690,675,663,672,657,563,566,554,568,591,596,582,596,578,593,589,580,588,570,569,590,579,574,591,572,563,594,584,594,592,596,592,593,612,612,622,627,700,942,1026,1140,1228,1215,1211,1141,1157,1157,1145,1114,1099,1075,1044,1008,985,979,977,936,929,922,896,856,812,731,708,672,636,625,629,623,616,522,516,514,525,549,554,533,542,538,549,549,542,550,530,530,550,541,535,550,533,525,554,549,552,550,554,544,525,530,540,535,535,696,822,913,1012,1065,1062,1046,1038,1026,995,977,961,944,927,910,894,876,860,843,827,809,808,787,766,744,713,694,685,549,540,538,538,513,501,501,510,521,515,514,508,508,512,515,515,510,512,516,515,519,518,522,521,516,520,524,527,535,514,518,512,1060,1041,1056,1097,1115,1572,1996,2137,2289,2272,2251,2225,2160,2195,2148,2103,2060,2022,1945,1885,1860,1851,1808,1764,1685,1672,1641,1611,1560,1390,1217,1131,1115,1107,1089,1080,1070,1075,1069,1073,1081,1111,1086,1088,1083,1086,1092,1079,1086,1085,1095,1097,1086,1094,1101,1109,1094,1095,1095,1098,1088,1103,1098,1095,1074,256,257,260,261,261,329,355,387,425,463,484,477,469,462,455,447,441,432,426,418,411,404,397,389,382,375,392,383,375,367,358,350,341,333,266,262,262,263,210,207,210,215,209,210,210,212,209,209,213,211,210,212,209,211,210,210,208,210,208,208,210,210,210,211,210,1161,1180,1158,1215,1287,1757,2124,2309,2436,2451,2430,2396,2350,2317,2275,2228,2182,2143,2101,2068,2015,1971,1930,1890,1851,1807,1746,1632,1550,1398,1352,1248,1215,1202,1183,1182,1174,1179,1174,1176,1183,1192,1190,1186,1191,1194,1191,1192,1196,1191,1208,1208,1195,1189,1188,1190,1195,1192,1183,1186,1189,1191,1189,1188,1182,519,521,524,525,527,600,774,864,972,1042,1056,1038,1021,1005,986,989,952,938,919,902,885,868,851,835,817,800,721,778,688,683,667,652,573,548,533,529,530,520,452,452,441,450,483,488,467,490,471,488,483,474,487,474,471,484,477,467,488,471,470,487,482,489,486,488,477,522,522,525,527,528,603,777,865,978,1046,1063,1040,1023,1008,988,992,958,939,932,905,888,881,853,838,822,815,798,782,752,686,669,655,621,548,535,530,532,534,460,454,454,464,481,486,466,481,474,486,482,474,483,479,476,493,482,468,486,480,462,481,485,484,480,484,472,432,432,435,442,448,504,651,710,784,849,869,858,845,832,811,798,785,771,757,745,732,719,709,693,678,664,651,636,623,610,596,507,496,465,454,449,441,426,369,362,365,369,366,371,367,374,370,371,375,370,371,376,368,370,371,374,372,373,368,370,372,374,370,376,372,850,858,859,866,919,1093,1376,1519,1650,1698,1709,1671,1649,1632,1599,1570,1541,1518,1485,1457,1427,1402,1389,1360,1334,1301,1271,1199,1142,1119,992,954,921,903,894,874,829,774,729,724,727,733,731,734,732,735,732,736,737,749,749,755,736,730,729,731,736,733,724,727,730,732,730,729,723,892,902,904,903,978,1171,1462,1624,1726,1787,1794,1771,1728,1701,1661,1630,1603,1586,1557,1517,1488,1469,1442,1416,1402,1370,1351,1295,1281,1164,992,974,959,936,938,917,907,878,833,828,831,837,835,838,836,839,836,840,841,853,853,859,840,834,833,835,840,837,828,831,834,836,834,833,827,964,960,956,979,1067,1325,1529,1763,1860,1903,1897,1865,1842,1817,1776,1746,1708,1685,1660,1627,1593,1570,1534,1504,1472,1464,1413,1388,1302,1256,1181,1033,1020,999,977,984,980,977,929,930,926,930,937,939,933,953,936,937,940,936,937,932,931,937,935,932,936,934,928,934,934,939,936,937,932,565,569,571,577,602,711,885,982,1101,1145,1147,1129,1110,1096,1073,1055,1036,1030,1004,985,968,950,930,911,894,873,858,836,827,801,782,707,610,601,591,588,587,555,548,556,551,563,559,576,567,562,554,556,559,553,551,566,561,568,564,567,565,577,570,583,563,594,556,566,560,0,0,0,0,0,0,0,0,0,0,0,0,0,0,0,0,0,0,0,0,0,0,0,0,0,0,0,0,0,0,0,0,0,0,0,0,0,0,0,0,0,0,0,0,0,0,0,0,0,0,0,0,0,0,0,0,0,0,0,0,0,0,0,0,0,722,697,730,733,725,973,1100,1275,1402,1444,1415,1410,1397,1382,1305,1283,1264,1238,1257,1239,1218,1149,1179,1149,1112,1096,1037,1057,935,920,899,900,832,727,728,730,739,741,689,688,686,704,693,702,692,703,702,693,695,699,695,696,691,691,697,700,696,700,691,694,699,721,706,722,700,0,0,0,0,0,0,0,0,0,0,0,0,0,0,0,0,0,0,0,0,0,0,0,0,0,0,0,0,0,0,0,0,0,0,0,0,0,0,0,0,0,0,0,0,0,0,0,0,0,0,0,0,0,0,0,0,0,0,0,0,0,0,0,0,0,1338,1345,1352,1405,1744,2201,2540,2816,2742,2758,2731,2681,2634,2585,2536,2502,2549,2403,2369,2323,2264,2224,2272,2126,2078,2028,1979,1897,1846,1617,1481,1442,1415,1374,1362,1355,1366,1337,1343,1343,1350,1357,1375,1358,1366,1365,1386,1396,1371,1379,1397,1397,1395,1390,1391,1380,1384,1394,1372,1400,1392,1380,1375,1375,1374,1530,1535,1556,1640,2040,2532,2848,2993,3047,2995,3022,2967,2874,2778,2846,2685,2785,2588,2586,2540,2512,2452,2445,2287,1940,1915,1844,1819,1820,1717,1674,1593,1583,1566,1556,1559,1565,1554,1580,1555,1567,1579,1578,1581,1589,1589,1585,1614,1586,1580,1604,1601,1606,1675,1623,1611,1595,1629,1578,1626,1615,1629,1593,1595,1594,984,998,1002,996,1102,1491,1663,1916,1972,1961,1952,1931,1902,1871,1840,1807,1843,1744,1712,1711,1635,1610,1644,1562,1528,1526,1470,1389,1400,1342,1093,1076,1068,1048,1012,1010,933,908,914,911,942,967,943,954,941,960,958,950,960,942,942,949,960,954,949,953,946,944,957,959,948,966,953,968,950,1044,1062,1098,1107,1259,1630,1827,1967,2058,2125,2125,2036,2005,1969,1944,1970,1938,1813,1829,1802,1716,1690,1657,1623,1596,1562,1521,1535,1454,1276,1245,1227,1089,1073,1094,1067,1044,1051,1026,1026,1035,1057,1034,1041,1043,1049,1044,1042,1046,1032,1041,1052,1068,1096,1053,1043,1034,1053,1041,1037,1038,1071,1050,1062,1044,1008,1011,1015,1017,1127,1547,1721,1967,1993,2006,2002,1972,1943,1911,1890,1842,1866,1776,1743,1729,1686,1649,1669,1576,1548,1498,1467,1400,1414,1245,1136,1097,1116,1057,1025,1036,1010,1000,1005,1002,1016,1029,1018,1039,1025,1029,1032,1026,1036,1031,1030,1035,1030,1032,1028,1032,1030,1030,1031,1025,1029,1035,1028,1046,1037,1024,1028,1031,1035,1099,1562,1738,1999,2034,2036,2034,1997,1959,1925,1902,1865,1894,1802,1765,1754,1712,1673,1695,1624,1586,1560,1450,1418,1408,1252,1224,1115,1120,1068,1042,1040,1035,1014,1018,1019,1029,1043,1036,1048,1037,1044,1059,1044,1059,1045,1042,1051,1045,1049,1043,1041,1045,1043,1047,1040,1045,1062,1043,1062,1052,550,552,628,556,644,761,862,963,1160,1105,1109,1218,1198,1057,1136,1020,1003,1068,947,950,955,915,919,880,862,844,827,808,790,773,755,738,720,575,562,646,575,576,565,573,566,574,575,580,574,628,573,577,567,569,573,580,581,576,580,576,573,569,623,625,572,575,573,580,573,1451,1456,1478,1582,1850,2403,2638,2885,2831,2843,2810,2781,2736,2688,2650,2611,2655,2518,2462,2406,2368,2333,2371,2241,2136,1776,1711,1674,1730,1635,1581,1539,1533,1492,1515,1465,1414,1415,1438,1439,1437,1436,1434,1433,1433,1435,1435,1462,1437,1439,1439,1444,1483,1437,1440,1440,1438,1472,1434,1435,1439,1441,1442,1443,1442,696,698,700,705,722,974,1115,1373,1345,1390,1387,1365,1344,1321,1299,1280,1363,1235,1213,1193,1169,1147,1222,1102,1080,1059,1038,1014,1078,971,947,925,914,724,712,710,712,680,689,684,692,685,695,700,695,698,698,715,706,693,705,702,704,721,702,699,692,714,694,725,697,696,692,701,700,744,740,765,769,808,1097,1253,1349,1432,1553,1513,1458,1435,1412,1388,1393,1369,1317,1342,1270,1247,1214,1200,1168,1152,1128,1097,1125,1059,1035,905,910,790,839,758,749,793,755,730,729,738,764,740,747,739,752,752,745,754,738,751,762,776,782,758,753,747,765,750,744,744,777,749,762,744,1493,1502,1510,1597,2009,2509,2845,3104,3037,3049,3019,2962,2900,2857,2803,2767,2797,2671,2612,2560,2501,2460,2494,2351,2300,2171,1965,1835,1828,1688,1634,1597,1544,1532,1480,1451,1459,1444,1449,1451,1461,1452,1458,1479,1482,1465,1467,1484,1468,1463,1474,1481,1482,1521,1472,1474,1467,1504,1497,1495,1478,1460,1458,1466,1465,1471,1480,1498,1575,1918,2459,2717,2960,2905,2916,2883,2852,2805,2756,2716,2678,2720,2583,2526,2468,2428,2392,2429,2297,2241,1899,1832,1718,1845,1656,1614,1578,1529,1512,1497,1492,1455,1455,1480,1484,1478,1478,1476,1476,1474,1477,1478,1502,1479,1481,1482,1485,1523,1480,1481,1483,1480,1513,1479,1475,1481,1483,1484,1485,1484,1292,1296,1303,1350,1667,2110,2443,2715,2655,2673,2650,2599,2553,2505,2457,2424,2471,2342,2295,2249,2191,2153,2203,2059,2011,1965,1916,1863,1827,1472,1434,1398,1344,1326,1317,1320,1327,1312,1319,1319,1332,1322,1326,1345,1348,1334,1334,1352,1336,1331,1343,1351,1347,1389,1341,1345,1334,1373,1367,1368,1352,1334,1332,1340,1339,970,972,976,1000,1080,1466,1666,1938,1899,1931,1921,1890,1908,1902,1796,1768,1843,1707,1676,1646,1612,1581,1645,1520,1489,1498,1428,1398,1449,1223,1153,1058,1062,998,1038,984,966,964,975,995,991,1004,991,1007,1000,1013,996,1010,990,995,994,1002,1013,1012,1017,1014,999,991,1009,1013,1010,1018,998,1005,997,939,954,1000,988,1089,1416,1606,1711,1872,1892,1918,1795,1769,1773,1741,1747,1761,1620,1614,1621,1557,1535,1496,1444,1451,1427,1392,1363,1317,1274,1194,1201,986,980,954,963,926,952,945,953,956,959,970,967,967,967,954,967,961,959,967,974,972,976,983,976,971,972,969,968,972,1004,966,973,967,934,959,1017,980,1113,1435,1584,1730,1852,1899,1910,1813,1788,1744,1758,1734,1755,1636,1598,1636,1532,1520,1490,1459,1434,1410,1376,1347,1314,1289,1267,1240,973,956,965,945,942,972,963,972,964,978,975,985,980,1000,985,993,978,983,979,975,969,973,981,987,974,976,968,973,974,1020,992,1002,970,897,927,980,938,1057,1370,1512,1659,1828,1842,1843,1746,1722,1690,1695,1768,1694,1576,1597,1578,1483,1463,1434,1404,1381,1357,1324,1337,1265,1240,1166,1173,941,925,927,945,904,935,933,940,942,956,947,944,955,956,954,952,960,952,953,954,955,960,967,968,953,961,956,948,958,965,957,967,955,989,1007,986,1011,1073,1483,1687,1953,1920,1964,1944,1904,1873,1826,1810,1779,1854,1718,1732,1656,1625,1595,1666,1533,1541,1459,1441,1410,1450,1348,1098,1053,1059,1008,1068,994,971,976,996,999,1003,1001,994,1000,992,1005,998,1024,998,1000,1002,1011,1028,999,1006,1003,1003,1031,998,1005,1001,1006,1004,1005,1004,1468,1478,1498,1572,2051,2605,2883,3159,3086,3056,3059,3002,2949,2925,2868,2823,2798,2672,2644,2600,2563,2450,2497,2334,2295,2180,1830,1862,1834,1698,1653,1611,1521,1508,1500,1508,1510,1517,1521,1528,1534,1531,1537,1551,1553,1537,1541,1557,1541,1540,1547,1554,1555,1597,1545,1546,1540,1578,1561,1572,1551,1533,1531,1539,1538,554,549,574,576,666,793,860,973,1056,1115,1150,1101,1082,1064,1047,1058,1040,993,975,957,939,913,904,876,867,849,823,806,796,778,752,763,689,579,566,557,564,626,554,551,560,580,560,563,553,563,557,552,558,560,556,562,563,572,569,576,566,569,568,573,575,648,595,605,600,1589,1606,1650,1744,2225,2745,3059,3309,3240,3248,3215,3154,3098,3050,2991,2944,2983,2846,2790,2733,2665,2624,2657,2511,2271,2217,1942,1881,1834,1735,1759,1617,1603,1630,1559,1566,1555,1576,1625,1625,1644,1629,1634,1655,1663,1649,1652,1673,1649,1706,1664,1730,1662,1704,1727,1662,1658,1691,1680,1742,1663,1648,1646,1654,1653,1034,1064,1081,1090,1240,1621,1808,1931,2084,2116,2120,2049,2005,1947,1936,1948,1925,1837,1821,1806,1700,1699,1643,1609,1587,1593,1508,1525,1421,1253,1223,1155,1091,1082,1085,1062,1057,1035,1011,1008,1018,1041,1023,1029,1019,1042,1032,1023,1033,1025,1039,1050,1067,1079,1039,1032,1031,1045,1037,1027,1022,1060,1029,1041,1023,1001,997,1024,1030,1182,1535,1701,1844,1959,1987,2009,1924,1892,1886,1859,1858,1813,1732,1723,1701,1662,1628,1596,1543,1539,1506,1466,1434,1410,1115,1087,1171,1052,1032,1018,1010,976,980,963,962,977,999,971,976,994,983,984,975,985,971,985,996,1021,1028,988,988,976,1007,985,979,984,1004,984,993,975,986,989,993,995,1081,1485,1644,1914,1882,1917,1908,1878,1876,1846,1817,1786,1823,1725,1696,1667,1634,1604,1633,1542,1511,1485,1449,1420,1425,1167,1138,1067,1073,1022,1003,1001,980,960,963,963,978,984,980,995,980,992,991,989,1005,991,990,988,989,995,992,988,991,988,992,987,993,993,985,1007,994,1390,1395,1397,1456,1728,2230,2482,2733,2686,2704,2695,2652,2626,2615,2508,2460,2519,2379,2352,2306,2244,2216,2269,2134,2072,2021,1957,1819,1846,1548,1498,1470,1491,1425,1428,1349,1288,1289,1302,1325,1320,1330,1319,1334,1328,1343,1326,1341,1342,1348,1349,1338,1343,1339,1346,1345,1327,1318,1338,1341,1338,1348,1327,1334,1326,1432,1429,1446,1505,1785,2335,2585,2798,2762,2783,2756,2712,2698,2681,2557,2536,2579,2436,2406,2384,2319,2284,2325,2184,2135,2133,1960,1918,1872,1584,1539,1491,1528,1458,1472,1453,1392,1393,1406,1429,1424,1434,1423,1438,1432,1447,1430,1445,1446,1452,1448,1442,1447,1443,1450,1449,1431,1422,1442,1445,1442,1452,1431,1438,1430,687,688,765,693,787,969,1105,1234,1432,1376,1375,1479,1452,1310,1382,1263,1294,1305,1174,1177,1180,1135,1135,1092,1070,1047,1025,1003,981,960,938,939,731,713,702,785,714,714,711,714,711,725,725,720,729,759,708,727,724,714,723,730,726,720,757,755,718,717,725,715,711,720,724,724,713,1020,1024,1021,1037,1108,1510,1755,2042,1998,2029,2025,1985,1951,1920,1893,1863,1927,1790,1757,1735,1695,1662,1719,1597,1563,1534,1501,1468,1401,1298,1263,1096,1105,1058,1042,1041,1013,1015,1023,1032,1037,1037,1047,1044,1041,1045,1046,1051,1044,1050,1059,1068,1063,1060,1060,1045,1056,1051,1038,1058,1054,1050,1056,1051,1050,640,643,645,647,668,902,1021,1217,1280,1282,1282,1262,1241,1222,1201,1181,1227,1140,1119,1135,1079,1058,1098,1064,1042,1049,987,966,969,895,875,742,803,687,653,650,652,654,654,664,661,668,674,675,671,683,668,683,666,666,667,679,685,694,689,676,676,669,684,675,676,690,671,678,670,0,0,0,0,0,0,0,0,0,0,0,0,0,0,0,0,0,0,0,0,0,0,0,0,0,0,0,0,0,0,0,0,0,0,0,0,0,0,0,0,0,0,0,0,0,0,0,0,0,0,0,0,0,0,0,0,0,0,0,0,0,0,0,0,0 ]);
