n = 10;
D = [137,105,114,175,127,216,174,135,77,124 ];
q = 0;
prec = array2d(1..0,1..2,[]);
steps = 64;
l = 360;
r = 0;
which = [];
interval = array2d(1..0,1..2,[]);
T = array3d(1..11,1..11,0..64,[0,0,0,0,0,0,0,0,0,0,0,0,0,0,0,0,0,0,0,0,0,0,0,0,0,0,0,0,0,0,0,0,0,0,0,0,0,0,0,0,0,0,0,0,0,0,0,0,0,0,0,0,0,0,0,0,0,0,0,0,0,0,0,0,0,536,538,540,541,604,751,1025,1123,1240,1316,1326,1304,1282,1262,1252,1202,1208,1189,1167,1160,1114,1094,1070,1050,1028,993,986,964,943,909,767,659,644,558,547,544,556,539,520,525,528,536,529,529,530,540,532,533,537,533,534,535,531,534,535,536,535,536,532,535,539,539,535,550,536,879,880,884,887,948,1402,1775,1993,2100,2146,2135,2114,2077,2031,1980,1961,1908,1859,1836,1832,1762,1749,1698,1687,1657,1629,1439,1363,1298,1221,1060,957,947,940,896,890,888,841,827,816,828,843,837,829,820,830,833,843,863,829,836,839,837,852,841,843,824,839,830,835,837,834,837,836,830,451,454,455,457,462,577,822,899,978,1045,1065,1051,1036,1022,1014,988,961,963,949,934,920,910,890,883,861,832,826,810,793,759,669,566,561,472,462,459,460,476,405,403,407,415,407,406,406,410,409,410,409,413,416,421,448,449,417,410,405,412,414,416,412,415,414,418,415,356,357,358,360,361,579,657,734,812,879,889,876,871,847,832,818,804,789,784,770,747,733,718,712,690,675,661,648,640,626,604,590,576,561,365,366,363,364,350,342,354,364,359,353,343,352,356,365,477,352,358,360,358,490,360,364,345,357,349,356,357,354,356,371,365,478,480,480,489,492,790,897,1002,1107,1179,1185,1189,1147,1128,1108,1090,1071,1052,1033,1014,996,976,957,957,920,901,900,862,843,825,822,524,512,499,488,485,486,488,480,473,480,482,492,481,504,481,481,515,512,482,498,536,494,487,509,488,480,482,478,482,479,489,605,494,482,425,417,419,420,424,670,759,849,960,1015,1033,1016,1000,984,976,933,938,927,901,884,877,852,835,826,802,771,781,752,736,721,703,674,447,436,425,422,432,434,392,385,386,394,384,403,390,390,394,395,403,399,399,401,406,404,408,395,392,405,394,403,398,394,402,407,399,312,312,313,314,315,334,546,603,660,714,738,727,716,705,694,684,673,662,651,640,630,619,608,602,586,576,565,554,543,532,501,404,333,326,319,316,316,317,271,269,275,281,272,271,271,272,275,274,274,273,273,281,309,313,278,276,273,278,273,278,274,278,276,280,277,857,860,863,865,996,1217,1758,1923,2027,2090,2079,2055,2017,1985,1962,1899,1893,1861,1827,1806,1747,1715,1640,1611,1580,1541,1525,1387,1346,1029,955,927,910,886,872,870,873,819,798,815,830,818,812,813,812,824,813,816,818,816,817,820,816,819,820,820,821,821,816,820,822,823,821,835,821,345,346,347,348,363,595,691,801,910,991,997,978,990,939,920,901,882,861,830,823,804,784,765,746,726,706,687,668,649,668,610,590,571,368,355,373,353,356,475,346,347,347,361,360,362,351,352,362,485,364,376,376,503,378,363,363,370,497,491,499,365,364,499,366,365,0,0,0,0,0,0,0,0,0,0,0,0,0,0,0,0,0,0,0,0,0,0,0,0,0,0,0,0,0,0,0,0,0,0,0,0,0,0,0,0,0,0,0,0,0,0,0,0,0,0,0,0,0,0,0,0,0,0,0,0,0,0,0,0,0,559,560,562,564,584,886,1074,1221,1338,1395,1400,1375,1352,1329,1306,1284,1261,1238,1215,1192,1168,1145,1123,1100,1078,1054,1032,1009,986,889,798,780,698,581,570,593,570,572,521,521,538,546,529,539,521,531,526,521,529,527,525,532,532,538,536,539,529,533,535,537,537,539,535,537,537,0,0,0,0,0,0,0,0,0,0,0,0,0,0,0,0,0,0,0,0,0,0,0,0,0,0,0,0,0,0,0,0,0,0,0,0,0,0,0,0,0,0,0,0,0,0,0,0,0,0,0,0,0,0,0,0,0,0,0,0,0,0,0,0,0,531,522,533,536,537,700,997,1107,1230,1300,1312,1293,1271,1221,1205,1206,1163,1137,1118,1123,1104,1053,1062,1042,995,979,975,937,854,835,765,685,632,554,542,532,532,530,465,465,465,465,465,465,465,465,465,465,465,465,465,465,465,465,465,465,465,465,465,465,465,465,465,465,465,273,274,275,276,276,369,482,531,580,630,639,637,631,621,612,602,592,583,573,564,554,546,536,526,517,507,498,488,478,469,459,399,389,374,281,277,278,279,247,237,232,234,246,248,247,241,240,246,252,249,256,255,251,260,242,248,250,253,262,261,252,257,251,244,244,425,425,430,432,437,615,790,894,979,1041,1063,1036,1020,1009,987,969,954,944,920,890,892,868,852,840,821,801,788,774,750,740,716,522,512,486,437,434,436,420,396,391,400,412,405,406,399,405,404,411,408,405,409,413,415,405,415,414,400,415,410,405,398,415,406,413,413,584,586,588,590,612,999,1132,1264,1380,1438,1440,1426,1417,1371,1356,1324,1310,1285,1256,1233,1209,1186,1164,1141,1123,1094,1071,1048,1026,1003,855,735,716,636,596,593,595,596,576,581,576,595,588,583,585,595,584,595,595,595,589,586,578,586,588,595,578,585,579,581,576,580,582,580,580,305,306,304,307,308,344,501,516,538,561,570,565,563,556,552,547,542,540,532,528,528,521,534,528,523,510,512,502,486,479,355,351,347,341,338,309,304,310,255,261,256,262,262,268,259,262,258,258,262,257,256,269,263,267,267,269,266,266,274,266,266,271,256,261,261,372,374,375,398,404,450,696,769,842,907,921,908,900,882,865,855,840,827,812,795,782,766,753,740,726,715,698,684,600,642,571,529,516,392,382,379,380,380,349,340,335,337,351,347,339,345,342,348,355,350,354,356,355,354,346,353,342,351,349,348,347,349,347,342,342,320,321,322,323,324,384,585,654,722,786,800,787,774,762,751,735,723,710,697,685,672,660,646,633,621,608,595,583,570,556,544,475,464,354,328,325,326,327,279,279,279,279,279,279,279,279,279,279,279,279,279,279,279,279,279,279,279,279,279,279,279,279,279,279,279,760,762,765,773,880,1345,1639,1859,1970,2000,1999,1964,1928,1892,1856,1820,1784,1737,1701,1665,1636,1600,1563,1528,1497,1461,1425,1398,1292,1227,904,878,824,784,769,794,779,783,760,737,753,760,743,769,747,778,758,747,768,749,749,753,753,767,761,764,751,758,755,755,761,763,758,775,775,559,560,562,564,584,886,1074,1221,1338,1395,1400,1375,1352,1329,1306,1284,1261,1238,1215,1192,1168,1145,1123,1100,1078,1054,1032,1009,986,889,798,780,698,581,570,593,570,572,521,521,538,546,529,539,521,531,526,521,529,527,525,532,532,538,536,539,529,533,535,537,537,539,535,537,537,780,784,783,787,839,1223,1536,1701,1835,1924,1911,1887,1859,1820,1788,1756,1724,1697,1669,1632,1602,1582,1548,1514,1477,1451,1436,1388,1250,1155,1021,963,824,804,798,792,793,777,759,768,781,767,776,768,774,772,764,769,770,770,768,769,771,770,769,772,773,775,774,775,773,774,770,769,769,479,482,483,485,487,586,867,989,1092,1178,1186,1165,1153,1137,1107,1090,1078,1059,1032,1022,1001,981,959,940,920,907,877,848,761,723,609,597,517,508,499,489,487,453,364,361,363,363,380,374,370,371,369,381,376,375,373,370,373,375,373,373,381,376,375,380,377,384,374,374,374,0,0,0,0,0,0,0,0,0,0,0,0,0,0,0,0,0,0,0,0,0,0,0,0,0,0,0,0,0,0,0,0,0,0,0,0,0,0,0,0,0,0,0,0,0,0,0,0,0,0,0,0,0,0,0,0,0,0,0,0,0,0,0,0,0,551,556,554,568,569,755,1031,1143,1280,1356,1328,1340,1287,1305,1246,1226,1241,1185,1171,1144,1124,1104,1083,1101,1042,1022,1002,981,961,881,676,661,665,572,615,580,560,548,470,467,470,472,474,479,477,479,478,481,483,483,480,481,483,482,480,483,485,486,485,486,484,485,481,480,480,504,506,508,509,521,716,957,1060,1182,1247,1251,1269,1190,1189,1150,1149,1174,1109,1123,1069,1056,1026,1005,990,954,946,930,909,886,855,843,739,596,599,564,512,513,520,501,501,501,504,506,505,507,512,507,507,508,513,505,510,509,516,515,512,512,510,507,510,509,513,505,511,509,754,756,754,764,802,1230,1499,1624,1739,1849,1831,1855,1774,1742,1697,1694,1714,1623,1612,1575,1551,1507,1492,1465,1405,1395,1339,1269,1205,845,862,807,796,810,799,761,774,788,754,750,758,778,762,760,757,773,764,761,772,765,772,776,778,780,772,767,764,771,767,763,764,780,766,773,766,642,648,645,661,674,916,1213,1387,1548,1596,1582,1571,1534,1519,1485,1461,1417,1367,1382,1365,1312,1302,1272,1277,1243,1188,1165,1165,1061,936,794,711,768,666,682,668,654,605,547,540,545,555,552,554,555,553,552,555,557,557,554,555,556,555,554,557,559,560,559,560,558,559,555,554,554,604,605,608,608,640,827,1120,1247,1425,1466,1466,1443,1436,1397,1373,1349,1326,1303,1281,1257,1240,1220,1196,1173,1154,1134,1096,1076,1018,813,796,741,738,631,621,613,608,604,576,570,573,577,579,585,583,581,580,583,585,585,582,583,585,584,582,585,587,588,587,588,586,587,583,582,582,400,376,376,378,393,501,727,812,918,924,932,918,964,948,932,858,901,854,813,875,783,820,753,739,724,709,694,679,709,650,591,594,493,393,462,392,381,382,381,380,384,398,390,387,388,393,388,388,389,389,392,406,412,418,400,392,388,399,392,388,388,418,390,400,388,967,970,972,997,1081,1752,2124,2344,2435,2491,2470,2460,2364,2339,2295,2250,2231,2163,2120,2100,2038,1986,1965,1906,1874,1834,1776,1732,1393,1305,1266,1077,1012,1009,1002,986,990,997,975,983,985,981,1000,993,1002,1002,990,986,992,994,989,990,999,995,994,994,998,995,992,999,997,997,1007,996,996,780,784,783,787,839,1223,1536,1701,1835,1924,1911,1887,1859,1820,1788,1756,1724,1697,1669,1632,1602,1582,1548,1514,1477,1451,1436,1388,1250,1155,1021,963,824,804,798,792,793,777,759,768,781,767,776,768,774,772,764,769,770,770,768,769,771,770,769,772,773,775,774,775,773,774,770,769,769,400,401,402,404,405,450,750,828,910,962,984,954,952,938,910,896,882,867,879,838,831,816,800,784,768,753,752,722,707,684,468,459,450,440,411,416,423,408,382,382,382,382,382,382,382,382,382,382,382,382,382,382,382,382,382,382,382,382,382,382,382,382,382,382,382,184,184,185,185,186,282,328,366,403,440,456,448,441,434,427,420,412,405,398,391,384,376,370,363,356,349,342,334,327,320,303,298,286,280,278,208,208,209,160,160,160,160,160,160,160,160,160,160,160,160,160,160,160,160,160,160,160,160,160,160,160,160,160,160,160,600,602,603,594,609,862,1172,1294,1420,1471,1466,1443,1419,1378,1375,1332,1331,1304,1281,1261,1234,1189,1188,1165,1142,1111,1095,1064,1038,1019,926,740,624,623,612,596,611,602,560,560,560,560,560,560,560,560,560,560,560,560,560,560,560,560,560,560,560,560,560,560,560,560,560,560,560,0,0,0,0,0,0,0,0,0,0,0,0,0,0,0,0,0,0,0,0,0,0,0,0,0,0,0,0,0,0,0,0,0,0,0,0,0,0,0,0,0,0,0,0,0,0,0,0,0,0,0,0,0,0,0,0,0,0,0,0,0,0,0,0,0,369,368,373,374,377,409,694,775,854,910,905,903,889,867,860,836,824,811,793,787,764,753,744,722,708,693,682,668,656,639,624,408,399,389,380,376,377,375,341,341,341,341,341,341,341,341,341,341,341,341,341,341,341,341,341,341,341,341,341,341,341,341,341,341,341,528,529,531,532,561,721,1023,1142,1246,1296,1297,1276,1256,1234,1214,1194,1173,1170,1132,1112,1092,1070,1066,1029,1009,988,968,948,926,906,792,650,635,566,538,536,537,538,531,531,531,531,531,531,531,531,531,531,531,531,531,531,531,531,531,531,531,531,531,531,531,531,531,531,531,147,149,149,150,150,224,258,287,293,385,385,382,354,347,385,364,359,355,351,295,291,303,297,292,286,280,275,269,264,258,252,246,235,236,223,151,151,152,108,108,108,108,108,108,108,108,108,108,108,108,108,108,108,108,108,108,108,108,108,108,108,108,108,108,108,190,239,260,260,187,196,294,322,348,376,393,388,384,379,373,370,364,359,354,348,343,337,332,326,322,316,311,305,301,292,236,232,228,180,176,175,188,191,140,140,140,140,140,140,140,140,140,140,140,140,140,140,140,140,140,140,140,140,140,140,140,140,140,140,140,504,505,507,508,510,636,908,1033,1189,1240,1243,1222,1201,1183,1162,1143,1122,1102,1083,1063,1044,1022,1003,984,925,908,890,879,864,840,647,642,559,532,518,514,516,517,440,440,440,440,440,440,440,440,440,440,440,440,440,440,440,440,440,440,440,440,440,440,440,440,440,440,440,612,612,608,616,625,1038,1292,1455,1599,1641,1640,1600,1580,1543,1515,1486,1465,1430,1405,1363,1345,1315,1285,1255,1225,1194,1164,1133,1104,1057,1020,905,786,636,623,621,641,628,615,614,615,615,615,615,615,615,615,615,615,615,615,615,615,615,615,615,615,615,615,615,615,615,615,615,615,400,401,402,404,405,450,750,828,910,962,984,954,952,938,910,896,882,867,879,838,831,816,800,784,768,753,752,722,707,684,468,459,450,440,411,416,423,408,382,382,382,382,382,382,382,382,382,382,382,382,382,382,382,382,382,382,382,382,382,382,382,382,382,382,382,378,380,380,381,384,594,705,788,870,927,936,921,977,891,877,861,847,832,817,802,788,772,819,744,728,766,699,684,669,706,639,618,596,396,534,384,385,386,384,384,384,384,389,388,394,388,392,388,388,389,389,392,393,392,392,416,396,414,472,388,412,388,396,392,387,393,396,397,400,404,413,726,799,883,964,952,938,928,907,892,879,885,849,832,819,802,808,772,778,779,746,734,695,488,451,441,430,514,420,410,401,402,392,342,345,341,347,343,355,342,352,343,349,349,348,348,349,354,356,351,350,347,352,355,357,346,360,344,344,342,516,524,526,531,540,667,968,1094,1149,1284,1298,1277,1256,1245,1215,1184,1148,1143,1123,1070,1086,1045,1015,1016,978,967,960,947,719,710,728,592,630,544,533,531,532,533,477,475,473,474,479,477,477,478,477,477,478,477,478,478,479,481,476,481,479,482,481,480,478,482,482,477,476,387,389,389,387,392,423,708,768,824,879,891,879,906,893,846,863,823,835,823,807,793,780,766,738,736,723,708,694,601,589,577,427,417,408,399,395,396,399,344,347,346,355,344,351,350,353,351,357,351,349,353,352,353,357,352,356,356,353,357,353,354,358,353,358,357,0,0,0,0,0,0,0,0,0,0,0,0,0,0,0,0,0,0,0,0,0,0,0,0,0,0,0,0,0,0,0,0,0,0,0,0,0,0,0,0,0,0,0,0,0,0,0,0,0,0,0,0,0,0,0,0,0,0,0,0,0,0,0,0,0,316,317,318,319,320,457,584,654,733,790,790,778,765,756,740,727,715,705,690,686,664,651,648,626,622,609,588,576,562,502,490,479,466,456,443,384,385,323,311,311,317,343,316,320,310,319,314,312,316,316,314,317,320,324,320,323,316,320,320,321,323,323,322,328,323,456,450,452,429,452,523,850,893,984,1050,1056,1039,1078,1061,992,975,959,941,975,909,966,870,899,835,822,845,829,769,751,735,685,618,456,445,452,432,432,433,367,370,370,382,370,375,375,377,376,383,378,377,399,396,401,385,381,378,382,381,382,376,380,383,377,385,381,349,351,352,352,353,377,651,724,799,860,871,858,843,829,815,801,788,773,760,746,732,719,705,736,669,662,649,635,621,606,530,518,431,377,352,355,356,357,305,299,300,303,303,300,304,304,305,314,306,313,322,312,306,315,308,306,304,309,320,324,323,321,325,316,316,657,646,648,661,665,816,1262,1391,1548,1612,1542,1531,1497,1518,1502,1463,1445,1387,1374,1335,1317,1318,1280,1260,1221,1179,1179,1140,1044,982,855,817,688,682,676,660,662,653,601,599,597,598,603,601,601,602,601,601,602,601,602,602,603,605,600,605,603,606,605,604,602,606,606,601,600,526,527,523,530,546,940,1102,1264,1399,1483,1432,1419,1392,1352,1326,1311,1285,1257,1231,1203,1177,1149,1123,1095,1069,1041,1015,1028,961,933,816,800,766,551,536,535,538,541,535,541,543,561,553,545,547,558,544,554,558,633,633,635,636,647,554,551,560,555,560,548,557,562,552,560,554,378,380,380,381,384,594,705,788,870,927,936,921,977,891,877,861,847,832,817,802,788,772,819,744,728,766,699,684,669,706,639,618,596,396,534,384,385,386,384,384,384,384,389,388,394,388,392,388,388,389,389,392,393,392,392,416,396,414,472,388,412,388,396,392,387,457,459,460,462,468,769,870,970,1069,1123,1129,1111,1129,1075,1094,1040,1022,1004,986,968,950,932,914,896,879,861,843,825,807,789,771,753,701,627,468,464,466,467,460,456,450,457,460,483,457,463,490,468,460,464,456,462,464,454,464,467,465,464,461,463,472,592,472,565,468,588,590,628,594,681,883,1154,1293,1399,1452,1448,1509,1400,1377,1353,1412,1308,1284,1261,1237,1218,1194,1171,1147,1125,1101,1078,951,931,910,832,810,633,611,633,601,599,557,550,546,549,549,553,550,560,556,556,555,556,558,562,563,561,566,562,559,564,567,564,558,563,566,568,564,563,785,793,797,795,817,1108,1580,1742,1852,1877,1936,1896,1871,1841,1809,1767,1746,1716,1656,1632,1624,1574,1530,1514,1493,1476,1430,1202,1381,1104,1052,872,887,830,808,809,808,767,730,731,728,730,746,739,743,739,734,740,736,739,735,743,736,746,735,737,742,738,738,741,741,743,740,735,735,567,568,570,585,583,740,1075,1192,1290,1334,1347,1321,1302,1294,1273,1246,1227,1216,1190,1179,1170,1147,1116,1106,1076,1062,1040,1020,976,951,700,665,670,588,577,569,581,536,531,535,532,544,549,556,547,550,551,575,571,554,561,546,559,579,561,551,548,559,552,570,557,553,550,561,553,269,269,271,272,277,420,476,532,587,659,674,662,652,640,630,619,609,598,591,580,571,559,548,536,526,516,504,493,483,472,460,451,440,429,282,278,279,280,253,257,254,257,266,263,266,261,257,263,259,262,257,264,257,265,259,256,263,256,257,262,261,263,257,258,258,0,0,0,0,0,0,0,0,0,0,0,0,0,0,0,0,0,0,0,0,0,0,0,0,0,0,0,0,0,0,0,0,0,0,0,0,0,0,0,0,0,0,0,0,0,0,0,0,0,0,0,0,0,0,0,0,0,0,0,0,0,0,0,0,0,608,611,612,627,634,862,1183,1352,1451,1498,1496,1474,1449,1436,1402,1378,1358,1334,1311,1282,1258,1234,1210,1186,1156,1138,1114,1090,1059,974,846,671,664,632,620,620,625,559,553,559,559,570,573,581,571,575,577,602,599,600,605,595,587,607,583,577,576,584,575,596,582,577,577,585,577,490,487,488,490,500,628,927,1057,1154,1198,1203,1191,1173,1164,1126,1114,1095,1068,1048,1029,1010,991,972,952,933,914,903,883,864,844,623,597,582,507,496,492,543,471,461,468,464,475,485,482,486,491,480,489,485,487,478,479,486,490,485,481,490,481,483,487,487,491,478,489,482,906,906,911,911,995,1364,1872,2065,2158,2179,2127,2142,2108,2010,2039,2007,1952,1903,1872,1865,1827,1795,1726,1698,1670,1636,1610,1491,1385,1095,1031,1025,935,933,955,904,909,837,828,836,852,831,836,834,842,840,837,838,837,841,845,848,846,851,847,843,850,852,848,843,846,850,854,849,848,605,630,624,610,643,1107,1292,1460,1598,1640,1688,1604,1574,1544,1514,1484,1454,1452,1382,1411,1334,1304,1274,1312,1214,1184,1154,1124,1094,1064,1034,974,847,630,617,616,637,617,621,633,633,636,644,644,644,645,634,638,636,632,636,644,720,717,648,721,641,648,716,641,637,632,645,756,633,457,459,460,462,468,769,870,970,1069,1123,1129,1111,1129,1075,1094,1040,1022,1004,986,968,950,932,914,896,879,861,843,825,807,789,771,753,701,627,468,464,466,467,460,456,450,457,460,483,457,463,490,468,460,464,456,462,464,454,464,467,465,464,461,463,472,592,472,565,468,376,377,378,380,381,505,702,781,860,926,934,920,936,890,906,861,846,831,816,801,787,772,757,742,727,712,698,683,668,653,534,522,511,469,458,383,384,384,372,366,368,368,377,374,374,375,376,380,377,380,383,384,384,382,384,382,384,381,386,393,388,388,393,393,392,193,193,194,195,222,306,348,388,430,471,486,478,470,463,454,447,439,432,423,416,408,400,392,385,376,369,362,354,346,338,331,322,315,307,300,223,223,224,168,165,166,165,168,171,167,172,167,171,170,169,171,169,172,171,170,170,170,171,172,168,169,169,169,169,168,638,651,650,655,657,830,1264,1405,1542,1592,1589,1552,1523,1490,1488,1444,1408,1379,1391,1361,1307,1307,1274,1249,1217,1204,1179,1084,1059,1039,870,849,685,671,660,658,660,624,603,605,615,612,610,611,616,610,611,613,614,614,616,617,619,618,615,614,619,617,611,615,620,620,619,617,613,110,110,110,166,166,169,186,202,218,246,254,253,250,248,235,231,228,225,222,218,214,212,208,205,202,199,195,192,189,186,182,180,176,172,170,166,168,168,101,103,100,101,102,103,104,108,103,101,104,106,105,101,102,103,103,102,103,103,100,101,100,102,103,101,99,465,478,472,470,476,578,867,969,1064,1152,1154,1146,1139,1100,1090,1067,1050,1026,1009,997,978,960,936,916,904,879,861,846,836,810,768,588,575,490,480,476,478,463,433,437,435,440,443,443,440,449,444,442,445,443,446,442,443,444,444,443,444,443,440,442,441,443,441,442,440,625,628,629,632,645,1007,1201,1335,1464,1542,1540,1515,1506,1466,1441,1417,1401,1368,1342,1318,1306,1269,1244,1220,1206,1171,1146,1122,1113,1072,925,812,665,649,638,636,637,639,602,609,604,621,610,620,608,622,617,621,622,617,622,621,622,622,621,621,622,622,622,622,620,620,620,620,619,0,0,0,0,0,0,0,0,0,0,0,0,0,0,0,0,0,0,0,0,0,0,0,0,0,0,0,0,0,0,0,0,0,0,0,0,0,0,0,0,0,0,0,0,0,0,0,0,0,0,0,0,0,0,0,0,0,0,0,0,0,0,0,0,0,175,176,176,176,177,272,309,346,382,418,441,434,428,421,414,406,399,392,385,378,370,363,357,350,343,336,328,321,314,307,300,292,286,279,272,178,178,268,156,157,156,157,157,157,156,157,157,159,157,159,159,165,161,173,160,158,159,160,157,165,159,159,159,160,157,513,514,516,518,525,640,940,1057,1165,1230,1230,1214,1208,1183,1167,1157,1136,1122,1105,1088,1056,1046,1021,998,946,929,910,896,880,858,767,589,553,578,533,527,527,518,448,443,453,453,450,453,451,453,451,452,453,450,453,452,453,453,452,452,453,453,453,452,453,453,453,453,452,595,597,600,599,601,952,1244,1408,1549,1613,1584,1578,1569,1510,1497,1453,1424,1394,1365,1344,1297,1283,1250,1221,1192,1162,1134,1105,1076,1038,1009,660,640,644,608,604,607,604,599,593,598,599,596,603,604,602,602,606,645,602,604,640,638,612,639,609,607,606,607,614,608,615,607,647,646,376,377,378,380,381,505,702,781,860,926,934,920,936,890,906,861,846,831,816,801,787,772,757,742,727,712,698,683,668,653,534,522,511,469,458,383,384,384,372,366,368,368,377,374,374,375,376,380,377,380,383,384,384,382,384,382,384,381,386,393,388,388,393,393,392,276,276,276,278,279,428,490,546,621,673,684,673,663,653,643,632,619,609,598,587,577,565,556,546,535,524,513,502,492,481,470,459,448,385,376,280,370,372,263,261,261,264,272,273,272,276,271,277,276,274,276,276,275,274,276,274,280,275,278,272,277,279,277,278,279,319,320,320,321,323,429,578,660,713,766,774,763,753,742,733,733,721,708,694,682,672,661,644,631,618,606,592,580,567,554,486,446,435,374,327,324,324,325,274,278,276,282,282,282,279,284,274,286,278,282,286,290,288,310,287,279,279,277,288,288,289,309,283,290,280,614,617,618,620,623,942,1204,1336,1460,1509,1522,1484,1460,1420,1416,1371,1365,1344,1319,1293,1269,1224,1221,1198,1173,1142,1125,1079,1057,1037,900,803,785,638,628,624,626,621,582,584,599,595,605,613,602,610,605,612,606,610,613,609,610,623,607,598,609,617,596,605,606,615,608,613,610,177,177,179,178,179,243,309,345,349,366,379,375,373,369,366,362,360,356,352,350,346,343,348,342,344,338,330,325,319,313,306,292,273,246,242,180,180,180,134,134,132,134,135,135,135,138,134,136,135,140,140,143,136,161,135,134,132,134,140,141,142,160,141,142,138,384,386,390,390,392,621,718,768,833,933,922,922,913,922,900,876,850,832,818,808,789,780,748,747,732,721,686,697,681,668,666,634,581,395,395,382,395,390,386,366,368,370,368,376,371,390,375,376,390,371,373,375,372,375,375,377,373,374,372,374,372,374,373,392,375,509,508,512,514,517,657,960,1028,1129,1232,1218,1218,1198,1202,1196,1179,1117,1097,1078,1060,1041,1023,987,983,950,926,906,940,918,900,771,669,625,628,542,523,519,517,511,506,515,521,510,542,510,524,515,529,530,524,515,516,523,523,522,523,536,524,526,528,520,520,525,529,519,218,220,220,221,291,312,387,436,481,526,554,545,535,527,517,509,500,494,484,475,467,457,445,434,426,418,410,400,392,383,374,365,357,314,308,292,305,327,157,156,156,161,161,159,160,162,159,162,162,168,186,187,185,189,163,156,158,162,165,164,168,185,165,169,162,0,0,0,0,0,0,0,0,0,0,0,0,0,0,0,0,0,0,0,0,0,0,0,0,0,0,0,0,0,0,0,0,0,0,0,0,0,0,0,0,0,0,0,0,0,0,0,0,0,0,0,0,0,0,0,0,0,0,0,0,0,0,0,0,0,639,641,642,644,647,895,1229,1393,1502,1553,1548,1525,1503,1477,1456,1443,1418,1399,1374,1349,1325,1302,1272,1245,1180,1157,1141,1120,1089,937,870,748,680,687,655,649,650,639,554,556,566,591,564,565,563,566,558,567,561,563,569,573,573,595,572,564,563,563,573,572,574,592,567,576,565,489,491,498,497,499,855,949,1088,1305,1359,1357,1331,1293,1269,1257,1231,1204,1179,1156,1129,1106,1076,1054,1030,994,980,969,930,895,880,788,767,705,520,505,501,507,509,490,488,491,495,514,506,500,503,498,499,510,503,497,503,499,534,502,501,507,500,502,503,505,506,500,500,500,276,276,276,278,279,428,490,546,621,673,684,673,663,653,643,632,619,609,598,587,577,565,556,546,535,524,513,502,492,481,470,459,448,385,376,280,370,372,263,261,261,264,272,273,272,276,271,277,276,274,276,276,275,274,276,274,280,275,278,272,277,279,277,278,279,834,837,839,842,858,1256,1676,1870,1995,2050,2056,2012,1978,1953,1918,1888,1860,1816,1790,1751,1724,1682,1648,1616,1582,1556,1522,1444,1166,1084,1026,921,881,868,854,851,850,835,778,784,809,803,792,795,786,791,788,788,790,792,792,805,800,808,801,804,794,797,792,808,805,802,803,803,802,334,336,336,338,338,418,599,668,739,808,835,823,808,795,782,774,761,741,728,719,706,688,675,661,648,634,624,608,587,575,562,469,430,420,343,340,341,341,296,294,296,301,303,304,302,302,302,305,305,308,309,336,314,314,304,305,311,304,299,316,305,302,303,303,302,418,420,420,430,426,660,807,879,969,1053,1033,1017,1020,985,992,951,936,919,902,886,870,853,837,820,805,788,771,795,739,722,706,690,585,438,428,424,481,435,423,424,428,431,430,432,428,429,428,438,432,432,434,433,430,433,435,436,437,428,439,481,436,433,424,434,424,519,521,523,524,549,680,986,1106,1203,1294,1315,1238,1219,1209,1232,1209,1141,1118,1136,1083,1051,1054,1036,1016,996,1005,949,964,903,840,824,568,656,593,539,555,528,513,466,465,469,472,473,474,473,474,474,478,477,479,481,491,485,486,481,480,483,482,480,489,482,479,480,480,479,677,680,681,683,702,999,1301,1460,1593,1650,1655,1636,1610,1577,1556,1520,1502,1474,1452,1427,1397,1370,1346,1318,1302,1268,1241,1222,1040,968,766,762,728,713,688,688,697,661,618,609,613,615,611,626,614,626,620,619,624,620,623,622,620,630,620,618,623,627,618,625,622,622,620,627,621,859,863,865,868,884,1370,1720,1913,2046,2093,2100,2054,2022,1996,1961,1930,1897,1868,1831,1789,1770,1723,1689,1656,1622,1596,1555,1500,1256,1148,1046,936,907,885,875,877,876,881,833,838,834,852,849,843,847,871,847,881,891,866,855,859,846,856,852,891,844,848,836,852,844,841,842,842,841,489,492,493,498,518,710,931,1061,1156,1236,1260,1195,1174,1156,1188,1156,1097,1077,1095,1039,1019,999,980,961,941,961,903,920,903,833,764,587,591,545,500,526,499,507,462,463,464,468,470,470,469,469,470,473,471,475,480,487,482,483,477,478,481,482,477,487,481,476,477,477,476,648,650,651,654,657,872,1241,1386,1515,1582,1596,1546,1536,1521,1494,1476,1440,1403,1398,1351,1330,1320,1286,1269,1228,1215,1192,1103,1065,983,885,721,724,685,660,662,660,614,569,568,570,573,575,576,576,576,576,579,578,581,582,592,586,587,582,581,584,583,581,590,583,580,581,581,580,0,0,0,0,0,0,0,0,0,0,0,0,0,0,0,0,0,0,0,0,0,0,0,0,0,0,0,0,0,0,0,0,0,0,0,0,0,0,0,0,0,0,0,0,0,0,0,0,0,0,0,0,0,0,0,0,0,0,0,0,0,0,0,0,0,1001,1004,1009,1031,1070,1604,2041,2237,2398,2447,2418,2378,2341,2301,2263,2228,2186,2175,2112,2070,2031,1993,1958,1917,1878,1839,1801,1732,1397,1285,1207,1072,1048,1029,1020,1016,1021,1022,994,999,1012,1005,1022,1019,1016,1021,1014,1034,1012,1016,1013,1026,1029,1033,1026,1026,1019,1017,1010,1027,1025,1024,1029,1030,1029,834,837,839,842,858,1256,1676,1870,1995,2050,2056,2012,1978,1953,1918,1888,1860,1816,1790,1751,1724,1682,1648,1616,1582,1556,1522,1444,1166,1084,1026,921,881,868,854,851,850,835,778,784,809,803,792,795,786,791,788,788,790,792,792,805,800,808,801,804,794,797,792,808,805,802,803,803,802,404,405,406,407,411,464,816,936,1125,1118,1123,1101,1081,1059,1039,1017,997,975,955,933,913,891,871,849,829,807,787,765,745,723,468,454,440,426,413,411,413,416,431,420,424,420,424,420,493,509,420,453,448,424,416,468,500,497,496,499,498,495,506,460,445,433,421,420,419,815,809,819,826,882,1325,1783,1955,2070,2109,2096,2072,2030,1993,1963,1927,1882,1830,1808,1772,1736,1731,1663,1625,1587,1549,1512,1476,1292,1195,1019,983,882,860,828,827,823,819,820,824,830,823,823,834,838,830,849,838,826,833,825,850,861,834,837,840,833,863,831,833,836,849,840,831,828,1089,1093,1078,1113,1400,2129,2476,2644,2742,2782,2748,2704,2630,2597,2563,2471,2434,2392,2361,2299,2242,2205,2174,2131,2068,1832,1796,1796,1588,1370,1213,1180,1151,1118,1107,1107,1080,1062,1058,1056,1056,1067,1067,1062,1061,1086,1056,1064,1061,1060,1062,1083,1070,1064,1091,1068,1070,1069,1085,1089,1064,1066,1065,1066,1060,731,724,735,737,769,1215,1491,1684,1808,1859,1851,1830,1795,1771,1739,1705,1674,1628,1615,1586,1552,1524,1489,1461,1425,1392,1359,1303,1271,1138,881,861,810,757,758,733,744,697,693,700,689,686,698,690,705,701,704,695,706,706,705,703,723,695,704,693,702,715,705,702,703,720,708,701,700,565,567,568,574,589,1011,1328,1356,1486,1543,1539,1520,1482,1454,1425,1398,1369,1340,1320,1284,1255,1227,1207,1171,1142,1113,1086,1057,1028,1006,972,763,740,719,576,575,578,585,583,583,582,588,590,585,583,658,579,586,584,582,584,659,589,588,699,589,588,588,660,654,582,584,588,590,584,688,689,691,696,732,1258,1465,1660,1785,1836,1827,1794,1784,1729,1695,1663,1629,1597,1563,1531,1498,1465,1432,1399,1366,1351,1300,1268,1234,1202,992,891,736,714,700,698,702,706,711,713,710,720,730,714,720,732,724,720,732,741,788,795,791,816,818,813,742,744,729,725,737,718,733,724,720,690,688,694,700,746,1106,1344,1502,1631,1710,1703,1676,1650,1620,1602,1567,1539,1519,1486,1458,1431,1403,1377,1349,1322,1296,1273,1240,1219,1186,931,901,773,722,707,696,708,691,679,675,679,676,680,685,685,683,685,699,692,692,685,691,707,693,689,704,698,710,691,688,689,705,703,694,691,590,592,593,593,605,918,1195,1353,1483,1536,1534,1509,1482,1455,1429,1402,1378,1351,1324,1296,1270,1242,1215,1188,1162,1134,1108,1082,1030,940,821,698,679,614,600,598,602,563,559,566,555,552,563,556,567,567,569,561,566,566,565,567,586,560,570,559,568,581,566,564,569,586,570,567,566,1049,1058,1056,1100,1188,1786,2176,2353,2494,2559,2541,2507,2486,2425,2383,2342,2301,2280,2218,2176,2136,2094,2059,2018,1993,1934,1852,1794,1544,1184,1177,1129,1114,1097,1094,1072,1040,1047,1021,1027,1032,1037,1041,1036,1036,1046,1033,1035,1035,1040,1041,1051,1041,1041,1046,1050,1047,1048,1043,1042,1044,1043,1043,1043,1043,0,0,0,0,0,0,0,0,0,0,0,0,0,0,0,0,0,0,0,0,0,0,0,0,0,0,0,0,0,0,0,0,0,0,0,0,0,0,0,0,0,0,0,0,0,0,0,0,0,0,0,0,0,0,0,0,0,0,0,0,0,0,0,0,0,404,405,406,407,411,464,816,936,1125,1118,1123,1101,1081,1059,1039,1017,997,975,955,933,913,891,871,849,829,807,787,765,745,723,468,454,440,426,413,411,413,416,431,420,424,420,424,420,493,509,420,453,448,424,416,468,500,497,496,499,498,495,506,460,445,433,421,420,419,0,0,0,0,0,0,0,0,0,0,0,0,0,0,0,0,0,0,0,0,0,0,0,0,0,0,0,0,0,0,0,0,0,0,0,0,0,0,0,0,0,0,0,0,0,0,0,0,0,0,0,0,0,0,0,0,0,0,0,0,0,0,0,0,0,536,538,540,541,604,751,1025,1123,1240,1316,1326,1304,1282,1262,1252,1202,1208,1189,1167,1160,1114,1094,1070,1050,1028,993,986,964,943,909,767,659,644,558,547,544,556,539,520,525,528,536,529,529,530,540,532,533,537,533,534,535,531,534,535,536,535,536,532,535,539,539,535,550,536,879,880,884,887,948,1402,1775,1993,2100,2146,2135,2114,2077,2031,1980,1961,1908,1859,1836,1832,1762,1749,1698,1687,1657,1629,1439,1363,1298,1221,1060,957,947,940,896,890,888,841,827,816,828,843,837,829,820,830,833,843,863,829,836,839,837,852,841,843,824,839,830,835,837,834,837,836,830,451,454,455,457,462,577,822,899,978,1045,1065,1051,1036,1022,1014,988,961,963,949,934,920,910,890,883,861,832,826,810,793,759,669,566,561,472,462,459,460,476,405,403,407,415,407,406,406,410,409,410,409,413,416,421,448,449,417,410,405,412,414,416,412,415,414,418,415,356,357,358,360,361,579,657,734,812,879,889,876,871,847,832,818,804,789,784,770,747,733,718,712,690,675,661,648,640,626,604,590,576,561,365,366,363,364,350,342,354,364,359,353,343,352,356,365,477,352,358,360,358,490,360,364,345,357,349,356,357,354,356,371,365,478,480,480,489,492,790,897,1002,1107,1179,1185,1189,1147,1128,1108,1090,1071,1052,1033,1014,996,976,957,957,920,901,900,862,843,825,822,524,512,499,488,485,486,488,480,473,480,482,492,481,504,481,481,515,512,482,498,536,494,487,509,488,480,482,478,482,479,489,605,494,482,425,417,419,420,424,670,759,849,960,1015,1033,1016,1000,984,976,933,938,927,901,884,877,852,835,826,802,771,781,752,736,721,703,674,447,436,425,422,432,434,392,385,386,394,384,403,390,390,394,395,403,399,399,401,406,404,408,395,392,405,394,403,398,394,402,407,399,312,312,313,314,315,334,546,603,660,714,738,727,716,705,694,684,673,662,651,640,630,619,608,602,586,576,565,554,543,532,501,404,333,326,319,316,316,317,271,269,275,281,272,271,271,272,275,274,274,273,273,281,309,313,278,276,273,278,273,278,274,278,276,280,277,857,860,863,865,996,1217,1758,1923,2027,2090,2079,2055,2017,1985,1962,1899,1893,1861,1827,1806,1747,1715,1640,1611,1580,1541,1525,1387,1346,1029,955,927,910,886,872,870,873,819,798,815,830,818,812,813,812,824,813,816,818,816,817,820,816,819,820,820,821,821,816,820,822,823,821,835,821,345,346,347,348,363,595,691,801,910,991,997,978,990,939,920,901,882,861,830,823,804,784,765,746,726,706,687,668,649,668,610,590,571,368,355,373,353,356,475,346,347,347,361,360,362,351,352,362,485,364,376,376,503,378,363,363,370,497,491,499,365,364,499,366,365,0,0,0,0,0,0,0,0,0,0,0,0,0,0,0,0,0,0,0,0,0,0,0,0,0,0,0,0,0,0,0,0,0,0,0,0,0,0,0,0,0,0,0,0,0,0,0,0,0,0,0,0,0,0,0,0,0,0,0,0,0,0,0,0,0 ]);
