n = 10;
D = [245,259,254,282,266,139,265,142,61,187 ];
q = 0;
prec = array2d(1..0,1..2,[]);
steps = 64;
l = 360;
r = 0;
which = [];
interval = array2d(1..0,1..2,[]);
T = array3d(1..11,1..11,0..64,[0,0,0,0,0,0,0,0,0,0,0,0,0,0,0,0,0,0,0,0,0,0,0,0,0,0,0,0,0,0,0,0,0,0,0,0,0,0,0,0,0,0,0,0,0,0,0,0,0,0,0,0,0,0,0,0,0,0,0,0,0,0,0,0,0,1018,1034,1022,1039,1086,1385,1637,1848,1973,1996,2005,2029,1952,1914,1871,1831,1838,1771,1745,1716,1684,1671,1619,1598,1567,1530,1515,1487,1439,1124,1149,1123,1065,1062,1079,1020,1032,1050,1017,1024,1024,1024,1031,1031,1031,1036,1034,1036,1033,1032,1037,1039,1042,1042,1040,1035,1034,1038,1036,1037,1035,1041,1039,1043,1040,1017,1022,1003,1010,1120,1411,1772,1991,2099,2124,2110,2070,2032,1995,1956,1980,1871,1844,1807,1769,1732,1701,1657,1623,1573,1546,1508,1470,1463,1276,1249,1080,1052,1026,1017,1017,1021,1026,979,981,983,988,999,988,1003,990,983,982,989,984,1002,992,1005,992,1002,1003,995,998,1006,996,1003,983,990,986,986,126,126,126,126,156,159,178,198,217,236,251,247,244,239,236,232,228,224,221,216,213,209,205,201,198,193,190,185,182,178,174,170,167,162,159,156,156,157,87,83,84,84,88,87,89,84,84,88,90,89,87,88,90,90,88,89,90,92,89,88,88,88,88,86,86,112,112,112,138,138,140,157,173,190,206,220,216,213,210,206,203,200,196,193,190,187,183,180,177,173,170,167,165,161,158,155,151,148,145,141,138,139,139,80,78,80,82,79,82,80,81,80,80,81,80,80,80,80,82,80,81,80,81,80,80,81,81,79,80,80,158,159,159,160,161,165,228,254,279,306,325,320,314,310,304,299,293,289,283,278,273,268,262,258,253,247,242,237,232,226,222,216,172,168,164,161,162,162,100,96,97,98,103,101,102,98,97,102,104,104,105,106,108,105,102,103,104,107,104,102,102,102,101,99,99,1074,1078,1061,1100,1264,1589,1914,2137,2237,2259,2240,2202,2177,2123,2083,2101,2065,1982,1940,1929,1895,1816,1769,1730,1727,1683,1603,1573,1565,1385,1217,1159,1123,1105,1094,1077,1081,1087,1037,1046,1039,1042,1058,1048,1052,1049,1054,1061,1062,1062,1064,1064,1066,1061,1062,1056,1066,1075,1067,1061,1061,1061,1063,1059,1059,640,644,608,635,628,771,959,1082,1193,1212,1259,1238,1218,1200,1179,1160,1140,1079,1100,1081,1062,1042,1023,1000,979,924,939,885,915,847,828,661,645,630,651,613,648,619,569,566,564,571,574,577,576,577,571,575,577,577,575,576,578,575,575,576,578,581,579,578,576,577,574,572,572,728,727,738,737,738,887,1141,1270,1396,1426,1482,1429,1401,1393,1390,1340,1312,1296,1284,1262,1237,1234,1178,1167,1144,1114,1115,1097,1052,994,854,821,797,743,756,743,761,755,711,706,715,719,717,718,715,722,721,723,720,712,720,726,729,729,727,721,714,723,717,721,711,728,718,730,717,830,849,842,837,850,1057,1344,1472,1619,1623,1604,1628,1604,1549,1546,1497,1515,1488,1451,1417,1387,1364,1338,1332,1305,1278,1243,1207,1154,1078,1033,902,907,879,870,856,856,843,794,792,792,797,809,805,802,806,799,803,805,805,803,804,806,805,803,804,806,809,807,806,804,805,802,800,800,0,0,0,0,0,0,0,0,0,0,0,0,0,0,0,0,0,0,0,0,0,0,0,0,0,0,0,0,0,0,0,0,0,0,0,0,0,0,0,0,0,0,0,0,0,0,0,0,0,0,0,0,0,0,0,0,0,0,0,0,0,0,0,0,0,860,865,901,869,887,1186,1430,1615,1687,1738,1689,1668,1634,1636,1580,1585,1549,1516,1503,1461,1446,1399,1406,1368,1390,1283,1275,1251,1228,1094,1144,930,929,907,887,885,822,803,823,823,823,824,825,829,828,828,829,827,837,826,830,828,826,830,829,829,829,834,829,829,828,834,829,835,830,0,0,0,0,0,0,0,0,0,0,0,0,0,0,0,0,0,0,0,0,0,0,0,0,0,0,0,0,0,0,0,0,0,0,0,0,0,0,0,0,0,0,0,0,0,0,0,0,0,0,0,0,0,0,0,0,0,0,0,0,0,0,0,0,0,1411,1382,1420,1622,2053,2449,2941,3045,3075,3082,3048,2997,2943,2916,2834,2811,2748,2700,2645,2615,2562,2479,2460,2373,2367,2263,2167,2033,1905,1777,1584,1512,1461,1425,1421,1453,1431,1466,1529,1543,1548,1540,1550,1560,1550,1552,1555,1550,1563,1555,1568,1566,1566,1559,1561,1558,1567,1579,1558,1566,1554,1560,1555,1561,1550,918,921,924,926,954,1272,1563,1708,1793,1796,1777,1761,1764,1737,1675,1732,1708,1619,1563,1536,1531,1476,1482,1450,1463,1362,1347,1347,1302,1092,1237,969,968,959,943,931,909,886,907,907,911,911,914,913,912,916,919,916,924,914,920,918,914,919,919,921,918,922,917,917,916,920,915,921,916,839,845,881,848,861,1149,1380,1560,1635,1687,1639,1620,1587,1590,1535,1541,1505,1474,1463,1419,1406,1362,1369,1332,1356,1249,1242,1219,1198,1063,1140,895,901,886,866,864,815,796,815,815,815,816,817,821,820,820,821,819,829,818,822,821,819,822,821,821,821,826,821,821,820,826,821,827,822,944,945,956,957,986,1329,1637,1765,1846,1852,1838,1828,1762,1802,1703,1735,1717,1678,1609,1581,1575,1519,1505,1483,1485,1401,1392,1369,1345,1128,1147,1023,993,984,969,957,922,899,920,921,926,925,927,927,925,930,933,931,942,932,938,933,928,933,933,936,933,936,931,931,929,933,928,934,929,1407,1411,1494,1571,2185,2591,3087,3179,3210,3215,3177,3124,3068,3040,2959,2960,2865,2824,2770,2744,2669,2624,2521,2473,2372,2315,2228,2056,1901,1840,1606,1516,1504,1448,1425,1419,1471,1500,1549,1551,1562,1586,1568,1572,1582,1565,1570,1600,1587,1594,1618,1636,1614,1589,1622,1638,1556,1591,1575,1560,1579,1613,1570,1614,1561,1225,1196,1240,1279,1293,1728,2110,2341,2295,2321,2305,2269,2275,2218,2158,2155,2107,2077,2000,2007,1964,1970,1908,1821,1862,1744,1738,1703,1427,1338,1359,1252,1307,1218,1197,1177,1177,1168,1198,1180,1188,1189,1176,1192,1194,1192,1202,1195,1207,1192,1211,1206,1207,1206,1198,1205,1203,1212,1200,1208,1205,1225,1199,1201,1195,315,330,330,330,303,320,441,522,541,588,600,591,581,601,563,583,572,563,526,517,534,498,489,479,524,460,474,466,433,423,461,331,324,328,308,332,316,306,290,290,291,290,291,295,294,294,295,293,303,292,296,295,293,300,295,295,295,300,295,295,294,300,295,301,296,1649,1625,1686,1786,2002,2559,2937,3103,3112,3128,3083,3015,2988,2975,2872,2860,2806,2777,2713,2691,2484,2124,2131,2018,2062,2003,1965,1916,1886,1782,1797,1720,1695,1679,1662,1604,1604,1588,1587,1586,1585,1585,1586,1590,1591,1591,1593,1614,1624,1613,1599,1594,1588,1596,1593,1590,1589,1596,1590,1589,1591,1594,1589,1595,1590,860,865,901,869,887,1186,1430,1615,1687,1738,1689,1668,1634,1636,1580,1585,1549,1516,1503,1461,1446,1399,1406,1368,1390,1283,1275,1251,1228,1094,1144,930,929,907,887,885,822,803,823,823,823,824,825,829,828,828,829,827,837,826,830,828,826,830,829,829,829,834,829,829,828,834,829,835,830,1054,1057,1060,1094,1261,1657,1938,2137,2183,2278,2205,2167,2128,2088,2049,2010,1971,1931,1946,1859,1861,1829,1746,1756,1666,1628,1601,1549,1480,1351,1205,1143,1120,1088,1098,1071,1005,1025,1020,1017,1021,1031,1034,1033,1032,1025,1037,1036,1042,1044,1041,1045,1047,1054,1046,1045,1037,1037,1035,1041,1035,1042,1032,1042,1026,1444,1472,1482,1646,1897,2515,2709,2958,2991,3069,2984,2912,2955,2828,2846,2738,2660,2626,2645,2521,2470,2492,2379,2368,2280,2158,2016,1722,1731,1658,1604,1575,1536,1485,1507,1487,1504,1515,1494,1485,1473,1478,1504,1506,1503,1510,1510,1507,1511,1505,1506,1507,1503,1510,1503,1506,1505,1508,1503,1503,1505,1505,1502,1503,1503,0,0,0,0,0,0,0,0,0,0,0,0,0,0,0,0,0,0,0,0,0,0,0,0,0,0,0,0,0,0,0,0,0,0,0,0,0,0,0,0,0,0,0,0,0,0,0,0,0,0,0,0,0,0,0,0,0,0,0,0,0,0,0,0,0,958,961,964,993,1138,1471,1735,1938,1985,2084,2018,1982,1947,1912,1873,1841,1804,1769,1777,1700,1707,1675,1595,1610,1523,1488,1464,1417,1381,1275,1197,1044,1024,990,1001,973,964,984,979,976,980,985,993,992,991,984,994,995,1001,1003,1000,995,998,1013,1005,1004,996,996,994,1000,994,1001,991,1001,985,1034,1036,1039,1071,1206,1609,1884,2084,2132,2228,2157,2118,2081,2043,2005,1967,1930,1891,1906,1819,1823,1793,1710,1721,1632,1595,1569,1519,1481,1373,1182,1121,1098,1067,1076,1050,998,1018,1013,1010,1014,1024,1027,1026,1025,1018,1030,1029,1035,1037,1034,1038,1040,1047,1039,1038,1030,1030,1028,1034,1028,1035,1025,1035,1019,890,892,895,924,1040,1353,1606,1809,1862,1963,1894,1861,1827,1793,1759,1725,1692,1658,1676,1592,1602,1570,1492,1509,1424,1391,1370,1323,1290,1174,1108,973,954,922,932,904,905,925,920,917,921,931,934,933,932,925,937,936,942,944,941,945,944,954,946,945,937,937,935,941,935,942,932,942,926,285,286,287,288,288,370,416,464,510,555,569,561,552,608,534,599,517,508,499,490,481,539,464,455,446,437,429,420,411,402,393,385,376,367,358,289,355,355,279,279,279,282,283,288,287,292,289,286,289,284,279,279,280,287,282,282,283,280,279,279,279,282,277,286,280,601,603,603,605,618,837,963,1109,1225,1283,1282,1260,1237,1215,1193,1170,1150,1126,1105,1083,1059,1036,1014,992,969,947,936,906,880,861,732,711,714,650,612,605,621,613,595,600,604,597,600,595,599,600,601,597,596,597,602,603,602,603,605,602,605,603,607,643,619,627,606,604,603,1212,1216,1250,1267,1351,1917,2168,2375,2459,2512,2471,2428,2475,2344,2372,2287,2216,2185,2194,2088,2058,2015,1970,1918,1876,1833,1817,1712,1583,1360,1326,1291,1268,1247,1220,1231,1233,1237,1226,1246,1240,1235,1245,1241,1253,1266,1247,1240,1249,1245,1249,1248,1248,1251,1256,1252,1259,1258,1263,1273,1260,1274,1264,1274,1261,582,579,581,583,597,738,899,1001,1092,1138,1142,1124,1163,1089,1071,1122,1036,1018,1001,1040,965,947,929,911,894,928,859,884,872,806,759,743,615,601,589,585,592,594,587,594,590,604,608,602,605,645,597,611,607,607,602,625,612,608,608,603,612,611,606,614,604,610,603,609,605,1054,1057,1060,1094,1261,1657,1938,2137,2183,2278,2205,2167,2128,2088,2049,2010,1971,1931,1946,1859,1861,1829,1746,1756,1666,1628,1601,1549,1480,1351,1205,1143,1120,1088,1098,1071,1005,1025,1020,1017,1021,1031,1034,1033,1032,1025,1037,1036,1042,1044,1041,1045,1047,1054,1046,1045,1037,1037,1035,1041,1035,1042,1032,1042,1026,163,163,164,164,181,185,234,262,288,317,336,331,325,320,314,309,303,298,293,288,282,277,271,266,260,255,249,244,239,234,228,223,196,191,187,182,182,183,73,73,73,73,73,73,73,73,73,73,73,73,73,73,73,73,73,73,73,73,73,73,73,73,73,73,73,975,985,999,1014,1013,1237,1634,1794,1907,1919,1943,1939,1871,1831,1842,1825,1799,1721,1680,1645,1632,1580,1550,1550,1484,1448,1480,1428,1371,1098,1097,1075,1010,1051,999,983,1013,1001,975,975,975,975,975,975,975,975,975,975,975,975,975,975,975,975,975,975,975,975,975,975,975,975,975,975,975,966,969,971,974,1095,1346,1673,1908,2016,2054,2059,2022,1994,1946,1918,1885,1843,1801,1762,1731,1688,1656,1609,1573,1546,1500,1464,1432,1393,1266,1099,1066,1018,1012,997,997,1002,1006,908,908,908,908,908,908,908,908,908,908,908,908,908,908,908,908,908,908,908,908,908,908,908,908,908,908,908,0,0,0,0,0,0,0,0,0,0,0,0,0,0,0,0,0,0,0,0,0,0,0,0,0,0,0,0,0,0,0,0,0,0,0,0,0,0,0,0,0,0,0,0,0,0,0,0,0,0,0,0,0,0,0,0,0,0,0,0,0,0,0,0,0,143,143,149,149,176,179,202,223,245,267,282,278,273,269,265,260,256,253,248,244,239,235,231,226,223,218,214,210,205,201,196,193,189,184,180,177,177,178,66,66,66,66,66,66,66,66,66,66,66,66,66,66,66,66,66,66,66,66,66,66,66,66,66,66,66,108,108,114,127,133,135,154,172,189,207,221,217,214,211,206,203,200,196,193,190,185,182,179,176,172,168,165,161,158,155,150,147,144,140,137,134,134,134,29,29,29,29,29,29,29,29,29,29,29,29,29,29,29,29,29,29,29,29,29,29,29,29,29,29,29,1023,1025,1048,1064,1213,1524,1808,2054,2155,2192,2192,2158,2121,2075,2045,2020,1986,1940,1882,1860,1810,1771,1721,1685,1658,1624,1579,1535,1494,1435,1215,1150,1096,1069,1056,1069,1062,1067,966,966,966,966,966,966,966,966,966,966,966,966,966,966,966,966,966,966,966,966,966,966,966,966,966,966,966,589,591,593,594,615,717,877,999,1091,1172,1185,1166,1147,1129,1108,1090,1072,1053,1033,1014,996,977,957,938,920,901,881,863,845,827,661,646,639,615,603,600,601,589,498,498,498,498,498,498,498,498,498,498,498,498,498,498,498,498,498,498,498,498,498,498,498,498,498,498,498,709,709,713,707,709,831,1097,1243,1322,1389,1388,1381,1312,1334,1316,1276,1275,1248,1228,1177,1172,1129,1109,1118,1085,1033,1035,1019,981,983,875,811,738,712,723,713,719,700,669,669,669,669,669,669,669,669,669,669,669,669,669,669,669,669,669,669,669,669,669,669,669,669,669,669,669,814,826,819,822,835,994,1253,1426,1529,1577,1586,1574,1547,1546,1493,1494,1456,1417,1410,1389,1368,1337,1319,1279,1255,1237,1217,1178,1082,1059,916,945,867,859,833,838,842,828,723,723,723,723,723,723,723,723,723,723,723,723,723,723,723,723,723,723,723,723,723,723,723,723,723,723,723,163,163,164,164,181,185,234,262,288,317,336,331,325,320,314,309,303,298,293,288,282,277,271,266,260,255,249,244,239,234,228,223,196,191,187,182,182,183,73,73,73,73,73,73,73,73,73,73,73,73,73,73,73,73,73,73,73,73,73,73,73,73,73,73,73,34,42,42,42,42,42,48,55,60,66,71,70,69,68,67,66,64,63,62,61,60,59,58,57,56,55,53,51,50,49,48,47,46,45,44,42,42,42,7,7,8,8,8,8,8,8,8,8,8,8,8,8,8,7,7,8,8,8,8,8,8,8,8,8,8,1040,1067,1063,1078,1179,1475,1685,1905,2037,2062,2076,2099,1992,2012,1938,1897,1861,1829,1795,1763,1710,1657,1650,1660,1596,1557,1568,1514,1458,1173,1174,1147,1091,1095,1106,1056,1074,1094,1024,1031,1032,1032,1039,1039,1039,1044,1042,1044,1041,1040,1045,1047,1050,1049,1047,1041,1041,1041,1041,1041,1041,1041,1041,1041,1041,1034,1036,1039,1046,1156,1453,1820,2046,2144,2188,2171,2131,2092,2053,2023,1980,1935,1903,1854,1829,1787,1749,1713,1672,1629,1595,1556,1521,1470,1325,1288,1116,1098,1062,1053,1052,1057,1068,986,988,991,996,1007,996,1011,998,991,990,997,992,1010,1000,1013,999,1009,1009,1009,1009,1009,1009,1009,1009,1009,1009,1009,160,162,162,162,162,201,226,253,277,302,322,317,313,307,303,298,292,287,283,277,273,268,263,258,254,248,243,236,232,227,222,217,213,207,203,163,163,164,94,90,92,92,96,95,97,92,92,96,98,97,95,96,98,97,95,95,95,95,95,95,95,95,95,95,95,0,0,0,0,0,0,0,0,0,0,0,0,0,0,0,0,0,0,0,0,0,0,0,0,0,0,0,0,0,0,0,0,0,0,0,0,0,0,0,0,0,0,0,0,0,0,0,0,0,0,0,0,0,0,0,0,0,0,0,0,0,0,0,0,0,192,194,195,195,203,207,276,309,339,372,396,390,383,377,371,365,357,352,345,339,333,327,320,314,308,302,295,288,282,275,270,263,218,213,208,203,204,204,107,103,105,106,111,109,110,106,105,110,112,112,113,114,116,112,109,109,109,109,109,109,109,109,109,109,109,1090,1094,1098,1136,1306,1631,1962,2192,2282,2319,2306,2263,2222,2180,2150,2126,2083,2045,2002,1990,1910,1863,1827,1782,1774,1701,1656,1624,1582,1289,1254,1194,1166,1141,1130,1119,1117,1129,1044,1053,1047,1050,1066,1056,1060,1057,1062,1069,1070,1070,1072,1072,1074,1068,1069,1062,1062,1062,1062,1062,1062,1062,1062,1062,1062,673,666,650,646,670,822,1007,1137,1253,1278,1282,1303,1284,1261,1201,1224,1204,1142,1161,1140,1119,1096,1038,1057,997,979,991,936,915,896,874,708,682,666,653,649,684,656,576,573,572,579,582,585,584,585,579,583,585,585,583,584,586,582,582,582,582,582,582,582,582,582,582,582,582,762,762,765,774,786,929,1189,1359,1489,1492,1550,1499,1458,1435,1413,1387,1376,1354,1348,1305,1280,1235,1221,1207,1197,1143,1164,1109,1102,1043,902,868,803,788,800,764,788,802,718,713,723,727,725,726,723,730,729,731,728,720,728,734,737,736,734,727,727,727,727,727,727,727,727,727,727,864,890,875,879,908,1039,1397,1569,1654,1689,1675,1686,1637,1617,1613,1563,1576,1504,1485,1456,1446,1423,1396,1360,1340,1332,1272,1207,1152,1127,1033,938,928,924,875,897,884,879,801,799,800,805,817,813,810,814,807,811,813,813,811,812,814,812,810,810,810,810,810,810,810,810,810,810,810,34,42,42,42,42,42,48,55,60,66,71,70,69,68,67,66,64,63,62,61,60,59,58,57,56,55,53,51,50,49,48,47,46,45,44,42,42,42,7,7,8,8,8,8,8,8,8,8,8,8,8,8,8,7,7,8,8,8,8,8,8,8,8,8,8,171,171,172,172,173,179,245,275,303,332,352,346,341,335,330,324,317,312,306,301,295,290,284,279,272,267,261,256,250,245,239,190,186,181,177,173,174,174,100,100,100,99,99,102,100,101,100,115,101,101,101,101,101,100,104,101,99,103,99,101,99,99,101,100,100,981,986,1006,1017,1065,1393,1643,1806,1903,1945,1976,1973,1849,1846,1893,1853,1752,1738,1694,1677,1646,1601,1593,1520,1505,1467,1445,1457,1381,1192,1107,1035,1052,1060,1020,998,1021,1003,996,1000,994,988,996,1012,1003,1015,1008,1011,1013,1004,1013,1010,1008,1011,1013,1014,1015,1014,1014,1009,1011,1015,1012,1014,1014,896,889,903,897,932,1275,1544,1711,1864,1880,1866,1844,1814,1779,1737,1712,1673,1637,1601,1575,1544,1518,1477,1441,1410,1378,1340,1298,1272,1251,1159,972,960,918,909,903,906,910,887,888,895,897,904,895,905,896,895,891,895,890,905,900,911,899,911,910,900,900,911,902,905,889,899,898,897,76,76,76,76,94,95,106,117,128,139,149,147,145,143,140,138,136,134,132,129,127,125,123,121,118,116,114,112,110,107,105,103,101,99,96,94,94,94,59,58,58,59,59,62,58,59,59,59,59,59,58,59,59,57,58,59,59,59,58,58,59,59,58,58,58,150,151,151,152,152,191,213,237,260,283,298,293,289,284,280,276,271,266,261,257,253,248,244,239,235,231,226,222,216,212,207,203,199,194,190,187,187,188,93,93,93,92,92,95,93,94,93,108,94,94,94,94,94,93,97,94,92,96,92,94,92,92,94,93,93,0,0,0,0,0,0,0,0,0,0,0,0,0,0,0,0,0,0,0,0,0,0,0,0,0,0,0,0,0,0,0,0,0,0,0,0,0,0,0,0,0,0,0,0,0,0,0,0,0,0,0,0,0,0,0,0,0,0,0,0,0,0,0,0,0,958,946,972,972,1017,1453,1687,1853,2003,2018,2002,1975,1944,1909,1864,1838,1799,1777,1721,1708,1670,1630,1587,1566,1547,1486,1446,1447,1372,1336,1206,1033,1043,999,966,981,966,971,945,956,951,951,961,955,954,955,966,970,968,968,972,972,972,968,971,964,971,977,972,967,968,967,972,971,970,515,516,518,519,540,615,770,863,959,1028,1034,1016,1004,988,964,951,936,916,905,888,874,863,843,826,809,794,778,754,742,723,701,651,609,538,526,533,523,512,477,479,476,483,482,486,483,490,483,484,483,483,483,484,484,482,484,484,483,483,484,484,483,483,483,484,483,698,719,699,715,717,899,1103,1245,1364,1415,1418,1398,1327,1349,1332,1305,1284,1263,1243,1219,1197,1170,1152,1108,1090,1052,1056,1024,1017,988,885,821,827,743,732,721,723,708,690,677,685,686,680,691,686,690,689,685,690,678,682,683,684,684,686,688,686,685,686,688,683,693,683,689,684,738,751,765,752,763,918,1146,1268,1381,1441,1474,1434,1439,1436,1395,1360,1346,1328,1292,1270,1262,1231,1203,1183,1158,1153,1116,1082,979,958,966,850,803,801,756,761,756,756,702,705,704,709,717,714,709,719,711,712,711,711,711,712,712,712,712,712,711,711,712,712,711,711,711,712,711,171,171,172,172,173,179,245,275,303,332,352,346,341,335,330,324,317,312,306,301,295,290,284,279,272,267,261,256,250,245,239,190,186,181,177,173,174,174,100,100,100,99,99,102,100,101,100,115,101,101,101,101,101,100,104,101,99,103,99,101,99,99,101,100,100,1215,1219,1249,1258,1487,1932,2212,2395,2501,2523,2559,2459,2414,2371,2380,2331,2247,2201,2157,2171,2072,2079,1983,1939,1896,1894,1817,1734,1620,1494,1396,1305,1273,1249,1236,1180,1161,1168,1172,1169,1193,1195,1184,1195,1182,1198,1185,1204,1208,1185,1188,1196,1196,1209,1210,1201,1199,1194,1199,1208,1203,1198,1181,1203,1189,1420,1456,1466,1630,2159,2721,3038,3202,3384,3302,3251,3217,3234,3117,3091,2976,2931,2866,2840,2760,2699,2614,2537,2332,2275,2158,2107,2001,1789,1704,1624,1582,1521,1494,1465,1457,1488,1504,1523,1512,1505,1512,1534,1536,1533,1537,1537,1537,1547,1559,1554,1540,1538,1544,1534,1538,1534,1540,1533,1531,1536,1535,1532,1537,1532,265,266,267,268,269,334,391,437,482,528,543,534,525,517,508,500,491,482,474,465,456,447,438,430,421,413,404,396,387,378,369,360,352,342,333,270,328,329,264,266,265,266,270,265,267,273,263,269,265,264,267,289,270,270,270,267,265,265,303,290,266,267,265,267,266,1119,1123,1153,1174,1316,1743,2009,2202,2309,2336,2376,2277,2237,2196,2211,2164,2080,2038,1998,2007,1919,1926,1837,1796,1756,1757,1680,1636,1579,1408,1361,1207,1176,1152,1133,1139,1120,1126,1131,1128,1137,1144,1143,1142,1141,1146,1144,1155,1156,1144,1147,1155,1155,1167,1167,1160,1158,1153,1158,1167,1151,1157,1140,1157,1148,1195,1198,1228,1267,1462,1881,2158,2345,2451,2475,2512,2413,2369,2327,2337,2289,2206,2160,2117,2132,2035,2043,1948,1905,1863,1862,1785,1738,1664,1506,1351,1283,1251,1228,1214,1173,1154,1161,1165,1162,1186,1188,1177,1188,1175,1191,1178,1197,1201,1178,1181,1189,1189,1202,1203,1194,1192,1187,1192,1201,1196,1191,1174,1196,1182,1051,1055,1084,1079,1225,1622,1877,2073,2183,2212,2252,2157,2119,2081,2095,2051,1968,1928,1889,1901,1812,1821,1736,1697,1658,1662,1586,1544,1478,1318,1283,1138,1107,1083,1070,1069,1061,1068,1073,1069,1093,1095,1084,1095,1082,1098,1085,1104,1107,1085,1088,1096,1096,1110,1110,1101,1099,1094,1099,1108,1103,1098,1081,1103,1089,0,0,0,0,0,0,0,0,0,0,0,0,0,0,0,0,0,0,0,0,0,0,0,0,0,0,0,0,0,0,0,0,0,0,0,0,0,0,0,0,0,0,0,0,0,0,0,0,0,0,0,0,0,0,0,0,0,0,0,0,0,0,0,0,0,763,764,765,770,809,971,1269,1436,1559,1598,1595,1567,1540,1513,1485,1458,1430,1403,1380,1348,1321,1293,1266,1238,1211,1183,1157,1129,1102,1074,975,860,811,790,775,777,762,755,752,752,754,756,749,757,758,757,765,773,763,769,769,771,769,781,776,776,767,762,769,772,768,766,771,774,771,1363,1377,1383,1501,1650,2250,2495,2687,2789,2791,2766,2732,2755,2636,2638,2530,2482,2435,2473,2348,2311,2262,2263,2165,2105,2036,1919,1690,1747,1529,1516,1452,1437,1397,1405,1397,1390,1395,1393,1419,1403,1415,1415,1416,1415,1418,1418,1415,1426,1413,1418,1417,1430,1446,1439,1430,1443,1425,1443,1434,1427,1432,1426,1435,1426,703,706,708,743,738,1001,1135,1268,1366,1472,1425,1467,1367,1345,1322,1300,1277,1282,1232,1210,1186,1183,1141,1137,1096,1073,1060,1028,1015,1007,960,916,748,730,724,714,716,718,713,715,719,738,736,739,736,720,724,738,726,730,726,729,737,774,731,730,738,735,735,729,733,729,726,738,724,1215,1219,1249,1258,1487,1932,2212,2395,2501,2523,2559,2459,2414,2371,2380,2331,2247,2201,2157,2171,2072,2079,1983,1939,1896,1894,1817,1734,1620,1494,1396,1305,1273,1249,1236,1180,1161,1168,1172,1169,1193,1195,1184,1195,1182,1198,1185,1204,1208,1185,1188,1196,1196,1209,1210,1201,1199,1194,1199,1208,1203,1198,1181,1203,1189,578,580,581,583,585,720,900,1002,1103,1160,1167,1148,1132,1111,1092,1073,1054,1036,1017,998,980,961,945,924,907,887,869,850,831,811,762,656,641,603,591,587,597,523,475,471,482,483,496,500,486,500,501,503,497,494,497,493,493,509,490,487,498,500,487,488,488,488,488,488,488,1309,1301,1311,1323,1555,1944,2248,2445,2510,2582,2536,2453,2484,2418,2388,2339,2273,2233,2163,2120,2082,2056,2061,1990,1943,1899,1867,1776,1630,1435,1415,1358,1341,1332,1287,1305,1297,1326,1313,1298,1303,1321,1319,1305,1320,1322,1319,1323,1316,1320,1317,1320,1322,1330,1325,1325,1323,1322,1324,1324,1324,1324,1324,1324,1324,616,618,620,622,632,829,963,1188,1314,1368,1368,1343,1309,1288,1269,1241,1219,1192,1167,1140,1108,1090,1064,1039,1009,981,957,940,906,891,867,840,775,659,632,629,635,636,589,591,597,604,605,609,613,610,601,606,611,612,613,613,613,613,604,604,612,607,609,608,608,608,608,608,608,482,484,485,487,494,581,732,817,898,958,970,955,942,914,910,895,880,864,848,833,818,803,777,772,755,740,726,702,694,679,663,613,596,499,494,490,486,482,433,429,442,443,437,458,440,459,451,442,455,447,447,449,448,465,443,445,445,453,442,438,438,438,438,438,438,557,559,561,562,564,688,857,955,1048,1107,1115,1097,1082,1062,1045,1027,1009,992,975,958,940,922,905,887,871,852,834,817,799,781,763,627,596,582,569,566,575,516,468,464,475,476,489,493,479,493,494,496,490,487,490,486,486,502,483,480,491,493,480,481,481,481,481,481,481,414,416,417,419,420,475,623,696,767,829,842,828,816,801,788,775,761,748,734,721,707,694,680,667,654,640,627,613,599,585,572,525,515,435,425,421,425,423,375,371,383,384,401,400,385,400,392,402,396,393,398,392,393,415,389,388,395,401,386,389,389,389,389,389,389,673,675,685,690,711,935,1083,1331,1461,1508,1507,1478,1443,1416,1395,1368,1348,1316,1290,1265,1227,1222,1207,1157,1131,1097,1064,1046,1012,993,982,753,739,734,703,693,692,702,660,664,660,667,675,678,683,675,668,678,681,680,679,673,675,683,681,675,680,674,674,676,676,676,676,676,676,0,0,0,0,0,0,0,0,0,0,0,0,0,0,0,0,0,0,0,0,0,0,0,0,0,0,0,0,0,0,0,0,0,0,0,0,0,0,0,0,0,0,0,0,0,0,0,0,0,0,0,0,0,0,0,0,0,0,0,0,0,0,0,0,0,1018,1010,1004,1019,1104,1462,1700,1847,1940,1981,1954,1954,1907,1892,1845,1812,1797,1769,1724,1670,1643,1626,1598,1568,1528,1491,1494,1438,1381,1150,1089,1088,1068,1029,1017,1028,1013,1020,991,989,1001,1008,1005,988,1007,1008,1002,1003,995,999,1002,1005,1016,1005,1012,1002,998,999,1008,1018,1018,1018,1014,1018,1018,527,517,516,520,528,696,762,867,954,996,1002,986,976,968,953,932,913,897,882,867,852,837,822,822,792,777,762,746,732,717,715,687,654,617,526,522,524,525,519,513,507,515,519,519,515,519,519,519,518,519,513,519,519,508,519,519,519,519,517,519,519,519,519,519,519,578,580,581,583,585,720,900,1002,1103,1160,1167,1148,1132,1111,1092,1073,1054,1036,1017,998,980,961,945,924,907,887,869,850,831,811,762,656,641,603,591,587,597,523,475,471,482,483,496,500,486,500,501,503,497,494,497,493,493,509,490,487,498,500,487,488,488,488,488,488,488,673,630,635,637,658,894,1063,1170,1223,1339,1307,1315,1230,1201,1185,1169,1188,1188,1108,1083,1126,1047,1023,1006,994,965,997,957,956,933,861,843,692,657,645,683,638,586,593,586,586,590,599,597,614,606,596,601,601,602,606,596,595,613,606,602,603,602,594,604,612,605,604,607,595,397,422,419,424,430,442,643,718,793,745,756,744,829,766,801,696,774,761,702,727,636,624,693,679,665,652,634,619,606,598,580,559,480,532,457,430,379,381,414,420,415,423,425,424,423,428,415,424,421,421,417,427,427,425,423,423,424,421,431,431,420,425,417,423,421,1298,1305,1310,1354,1674,2104,2452,2604,2665,2680,2660,2612,2561,2518,2470,2424,2395,2352,2307,2260,2202,2165,2114,2070,2022,1971,1923,1856,1661,1472,1443,1390,1358,1338,1324,1326,1331,1318,1312,1317,1324,1328,1350,1346,1373,1352,1340,1366,1358,1356,1360,1347,1350,1372,1352,1348,1366,1371,1369,1361,1367,1393,1356,1374,1347,687,684,692,722,721,971,1133,1291,1315,1403,1375,1382,1386,1307,1285,1263,1241,1248,1199,1167,1181,1180,1112,1081,1068,1090,1064,1025,1003,981,937,832,805,713,701,714,693,673,676,670,670,678,686,686,698,690,684,691,690,689,694,686,685,701,695,692,695,691,682,692,700,693,690,693,681,647,610,614,616,633,861,1020,1116,1169,1287,1256,1265,1181,1152,1138,1124,1142,1145,1065,1042,1086,1008,984,970,959,931,964,924,924,903,831,816,651,636,623,656,616,579,586,578,578,582,591,589,607,599,588,593,593,595,598,588,588,606,598,594,596,595,586,596,604,598,596,600,588,717,714,725,721,739,1012,1175,1307,1380,1456,1430,1433,1381,1366,1343,1327,1296,1296,1258,1225,1225,1202,1162,1134,1116,1108,1085,1061,1049,1016,981,875,765,747,734,738,728,686,689,683,684,693,700,699,712,703,698,705,705,707,712,704,700,715,709,706,710,706,696,706,714,706,703,706,694,1355,1383,1378,1452,1814,2281,2589,2737,2799,2817,2787,2742,2688,2643,2594,2571,2521,2471,2425,2383,2336,2278,2225,2179,2122,2069,2027,1881,1590,1551,1520,1468,1436,1423,1400,1391,1396,1388,1369,1359,1359,1396,1409,1411,1427,1413,1405,1417,1420,1418,1424,1406,1420,1468,1431,1409,1430,1409,1399,1422,1417,1466,1409,1422,1400,952,963,976,995,1071,1440,1636,1872,1871,1901,1964,1861,1961,1807,1777,1868,1713,1685,1656,1625,1594,1566,1533,1499,1477,1442,1412,1385,1352,1211,1214,1025,1009,1010,1026,975,944,981,961,960,964,978,968,979,962,970,1002,970,969,965,966,978,966,967,976,975,970,977,966,981,977,1053,983,1020,979,0,0,0,0,0,0,0,0,0,0,0,0,0,0,0,0,0,0,0,0,0,0,0,0,0,0,0,0,0,0,0,0,0,0,0,0,0,0,0,0,0,0,0,0,0,0,0,0,0,0,0,0,0,0,0,0,0,0,0,0,0,0,0,0,0,1386,1402,1408,1442,1745,2170,2464,2625,2657,2717,2701,2622,2583,2551,2516,2484,2422,2385,2362,2329,2292,2243,2202,2137,2118,1949,1914,1745,1593,1628,1547,1515,1473,1431,1417,1427,1378,1371,1363,1375,1384,1390,1379,1370,1383,1399,1388,1387,1406,1405,1401,1395,1400,1397,1403,1398,1380,1383,1390,1385,1378,1397,1379,1377,1369,673,630,635,637,658,894,1063,1170,1223,1339,1307,1315,1230,1201,1185,1169,1188,1188,1108,1083,1126,1047,1023,1006,994,965,997,957,956,933,861,843,692,657,645,683,638,586,593,586,586,590,599,597,614,606,596,601,601,602,606,596,595,613,606,602,603,602,594,604,612,605,604,607,595,970,979,979,974,1087,1268,1525,1698,1845,1844,1870,1833,1828,1803,1753,1742,1703,1645,1642,1612,1560,1518,1489,1469,1440,1427,1381,1349,1265,1126,1102,1043,1003,965,996,1005,896,875,866,865,876,874,878,870,872,880,877,882,874,877,881,886,882,883,886,877,878,879,880,874,875,881,873,875,873,1743,1738,1783,1925,2463,2871,3061,3268,3299,3284,3270,3289,3212,3148,3069,3044,2989,2894,2888,2790,2505,2357,2182,2173,2171,2125,2043,1957,1919,1893,1847,1853,1774,1745,1748,1747,1760,1767,1751,1744,1760,1767,1767,1768,1772,1770,1765,1770,1769,1764,1770,1772,1774,1777,1773,1774,1770,1773,1774,1771,1777,1777,1775,1777,1775,646,648,649,651,672,898,1028,1123,1215,1263,1261,1241,1222,1202,1183,1163,1144,1168,1122,1085,1114,1094,1027,1023,1003,969,949,943,910,891,871,875,681,665,671,733,670,651,634,631,635,641,643,642,645,641,645,653,647,648,654,675,680,726,686,661,655,687,659,654,664,660,660,730,658,829,838,835,827,925,1056,1259,1397,1555,1564,1605,1561,1561,1534,1487,1483,1449,1394,1406,1378,1328,1293,1274,1251,1227,1230,1206,1152,1125,1063,906,886,856,824,859,848,825,798,796,789,799,799,804,797,797,804,803,806,802,802,807,810,806,810,811,809,812,807,807,806,804,809,806,808,806,950,959,958,951,1055,1208,1476,1644,1793,1793,1820,1785,1781,1756,1707,1697,1660,1603,1602,1573,1521,1480,1452,1434,1405,1392,1332,1305,1235,1095,1092,1021,982,943,975,981,889,868,859,858,869,867,871,863,865,873,870,875,867,870,874,879,875,876,879,870,871,872,873,867,868,874,866,868,866,813,828,819,817,875,1045,1245,1383,1540,1549,1573,1547,1547,1520,1475,1470,1435,1382,1412,1364,1314,1280,1251,1237,1213,1217,1198,1139,1112,1053,999,886,830,808,843,838,815,780,779,772,782,782,788,779,782,787,786,791,785,788,791,792,789,793,794,788,787,787,794,782,788,793,788,790,788,862,864,873,879,936,1262,1429,1547,1657,1700,1685,1621,1615,1612,1578,1553,1536,1553,1492,1458,1437,1429,1381,1370,1349,1307,1280,1268,1211,1165,1104,1012,924,901,911,942,889,863,858,866,868,880,897,880,877,890,873,882,875,876,871,888,891,907,907,913,906,889,894,880,872,868,889,879,868,707,683,684,684,704,947,1062,1173,1259,1293,1336,1276,1258,1238,1218,1200,1181,1161,1142,1157,1137,1086,1067,1047,1057,1008,990,970,977,956,873,787,770,700,740,687,693,695,690,692,689,690,697,700,695,703,704,706,694,701,691,702,701,692,704,705,699,697,697,701,711,712,707,712,711,1471,1474,1492,1587,1933,2274,2531,2675,2771,2769,2758,2726,2718,2675,2600,2576,2531,2445,2449,2385,2315,2289,2221,2200,2128,2003,1817,1645,1613,1618,1578,1565,1486,1468,1490,1489,1468,1453,1441,1442,1444,1451,1461,1454,1457,1459,1452,1454,1454,1451,1454,1460,1454,1466,1460,1455,1457,1459,1462,1458,1455,1455,1453,1455,1453,0,0,0,0,0,0,0,0,0,0,0,0,0,0,0,0,0,0,0,0,0,0,0,0,0,0,0,0,0,0,0,0,0,0,0,0,0,0,0,0,0,0,0,0,0,0,0,0,0,0,0,0,0,0,0,0,0,0,0,0,0,0,0,0,0,970,979,979,974,1087,1268,1525,1698,1845,1844,1870,1833,1828,1803,1753,1742,1703,1645,1642,1612,1560,1518,1489,1469,1440,1427,1381,1349,1265,1126,1102,1043,1003,965,996,1005,896,875,866,865,876,874,878,870,872,880,877,882,874,877,881,886,882,883,886,877,878,879,880,874,875,881,873,875,873,0,0,0,0,0,0,0,0,0,0,0,0,0,0,0,0,0,0,0,0,0,0,0,0,0,0,0,0,0,0,0,0,0,0,0,0,0,0,0,0,0,0,0,0,0,0,0,0,0,0,0,0,0,0,0,0,0,0,0,0,0,0,0,0,0,1018,1034,1022,1039,1086,1385,1637,1848,1973,1996,2005,2029,1952,1914,1871,1831,1838,1771,1745,1716,1684,1671,1619,1598,1567,1530,1515,1487,1439,1124,1149,1123,1065,1062,1079,1020,1032,1050,1017,1024,1024,1024,1031,1031,1031,1036,1034,1036,1033,1032,1037,1039,1042,1042,1040,1035,1034,1038,1036,1037,1035,1041,1039,1043,1040,1017,1022,1003,1010,1120,1411,1772,1991,2099,2124,2110,2070,2032,1995,1956,1980,1871,1844,1807,1769,1732,1701,1657,1623,1573,1546,1508,1470,1463,1276,1249,1080,1052,1026,1017,1017,1021,1026,979,981,983,988,999,988,1003,990,983,982,989,984,1002,992,1005,992,1002,1003,995,998,1006,996,1003,983,990,986,986,126,126,126,126,156,159,178,198,217,236,251,247,244,239,236,232,228,224,221,216,213,209,205,201,198,193,190,185,182,178,174,170,167,162,159,156,156,157,87,83,84,84,88,87,89,84,84,88,90,89,87,88,90,90,88,89,90,92,89,88,88,88,88,86,86,112,112,112,138,138,140,157,173,190,206,220,216,213,210,206,203,200,196,193,190,187,183,180,177,173,170,167,165,161,158,155,151,148,145,141,138,139,139,80,78,80,82,79,82,80,81,80,80,81,80,80,80,80,82,80,81,80,81,80,80,81,81,79,80,80,158,159,159,160,161,165,228,254,279,306,325,320,314,310,304,299,293,289,283,278,273,268,262,258,253,247,242,237,232,226,222,216,172,168,164,161,162,162,100,96,97,98,103,101,102,98,97,102,104,104,105,106,108,105,102,103,104,107,104,102,102,102,101,99,99,1074,1078,1061,1100,1264,1589,1914,2137,2237,2259,2240,2202,2177,2123,2083,2101,2065,1982,1940,1929,1895,1816,1769,1730,1727,1683,1603,1573,1565,1385,1217,1159,1123,1105,1094,1077,1081,1087,1037,1046,1039,1042,1058,1048,1052,1049,1054,1061,1062,1062,1064,1064,1066,1061,1062,1056,1066,1075,1067,1061,1061,1061,1063,1059,1059,640,644,608,635,628,771,959,1082,1193,1212,1259,1238,1218,1200,1179,1160,1140,1079,1100,1081,1062,1042,1023,1000,979,924,939,885,915,847,828,661,645,630,651,613,648,619,569,566,564,571,574,577,576,577,571,575,577,577,575,576,578,575,575,576,578,581,579,578,576,577,574,572,572,728,727,738,737,738,887,1141,1270,1396,1426,1482,1429,1401,1393,1390,1340,1312,1296,1284,1262,1237,1234,1178,1167,1144,1114,1115,1097,1052,994,854,821,797,743,756,743,761,755,711,706,715,719,717,718,715,722,721,723,720,712,720,726,729,729,727,721,714,723,717,721,711,728,718,730,717,830,849,842,837,850,1057,1344,1472,1619,1623,1604,1628,1604,1549,1546,1497,1515,1488,1451,1417,1387,1364,1338,1332,1305,1278,1243,1207,1154,1078,1033,902,907,879,870,856,856,843,794,792,792,797,809,805,802,806,799,803,805,805,803,804,806,805,803,804,806,809,807,806,804,805,802,800,800,0,0,0,0,0,0,0,0,0,0,0,0,0,0,0,0,0,0,0,0,0,0,0,0,0,0,0,0,0,0,0,0,0,0,0,0,0,0,0,0,0,0,0,0,0,0,0,0,0,0,0,0,0,0,0,0,0,0,0,0,0,0,0,0,0 ]);
