n = 10;
D = [122,158,251,268,81,91,157,211,162,151 ];
q = 0;
prec = array2d(1..0,1..2,[]);
steps = 64;
l = 360;
r = 0;
which = [];
interval = array2d(1..0,1..2,[]);
T = array3d(1..11,1..11,0..64,[0,0,0,0,0,0,0,0,0,0,0,0,0,0,0,0,0,0,0,0,0,0,0,0,0,0,0,0,0,0,0,0,0,0,0,0,0,0,0,0,0,0,0,0,0,0,0,0,0,0,0,0,0,0,0,0,0,0,0,0,0,0,0,0,0,316,316,317,318,329,401,456,511,563,616,649,637,626,620,609,599,589,579,569,558,548,537,522,511,501,490,479,470,459,449,439,429,419,367,343,339,340,337,208,208,208,208,208,208,208,208,208,208,208,208,208,208,208,208,208,208,208,208,208,208,208,208,208,208,208,671,674,712,714,715,939,1157,1397,1539,1596,1610,1613,1509,1501,1518,1418,1439,1378,1312,1330,1251,1222,1265,1174,1175,1114,1071,1071,1040,1033,951,920,790,743,716,732,728,713,695,698,702,710,706,710,730,714,705,712,713,712,731,712,721,727,708,709,715,706,709,710,710,709,699,699,697,500,483,485,487,513,613,745,818,920,993,986,995,944,929,924,931,893,881,866,845,830,834,818,783,776,743,754,738,722,706,631,616,587,586,522,496,520,508,468,469,472,477,474,476,474,492,471,475,473,472,471,476,479,481,475,475,479,475,493,478,476,496,467,472,471,290,291,291,292,308,322,417,465,513,560,592,582,572,566,556,548,539,530,520,511,502,492,478,469,459,451,441,432,422,413,401,394,387,328,317,309,310,311,199,199,199,199,199,199,199,199,199,199,199,199,199,199,199,199,199,199,199,199,199,199,199,199,199,199,199,395,382,378,378,380,457,560,619,682,741,762,750,737,725,713,702,682,678,667,655,642,631,620,623,596,584,572,561,549,537,526,506,467,395,385,381,382,383,338,338,338,338,338,338,338,338,338,338,338,338,338,338,338,338,338,338,338,338,338,338,338,338,338,338,338,635,638,638,639,673,881,1052,1243,1382,1477,1478,1464,1420,1391,1379,1334,1305,1289,1260,1231,1203,1161,1144,1103,1074,1046,1028,988,960,941,902,873,691,667,658,664,651,648,630,633,639,645,640,646,663,648,640,642,646,645,654,648,652,663,644,643,648,642,646,645,645,645,636,637,635,615,617,617,621,635,748,928,1050,1169,1210,1219,1204,1185,1167,1149,1140,1120,1095,1081,1060,1043,1024,1000,983,961,942,921,902,886,863,799,773,700,647,632,627,629,594,489,489,489,489,489,489,489,489,489,489,489,489,489,489,489,489,489,489,489,489,489,489,489,489,489,489,489,1401,1409,1409,1477,1537,2185,2461,2620,2726,2710,2675,2632,2645,2591,2511,2510,2422,2420,2388,2295,2270,2260,2159,2124,2121,2072,1851,1823,1673,1581,1552,1485,1469,1405,1396,1405,1387,1399,1330,1330,1330,1330,1330,1330,1330,1330,1330,1330,1330,1330,1330,1330,1330,1330,1330,1330,1330,1330,1330,1330,1330,1330,1330,1330,1330,566,567,568,570,575,744,867,968,1064,1132,1144,1125,1106,1089,1075,1056,1034,1015,1001,982,961,942,924,906,887,870,853,832,815,796,778,726,710,628,579,576,577,563,494,494,494,494,494,494,494,494,494,494,494,494,494,494,494,494,494,494,494,494,494,494,494,494,494,494,494,0,0,0,0,0,0,0,0,0,0,0,0,0,0,0,0,0,0,0,0,0,0,0,0,0,0,0,0,0,0,0,0,0,0,0,0,0,0,0,0,0,0,0,0,0,0,0,0,0,0,0,0,0,0,0,0,0,0,0,0,0,0,0,0,0,357,361,362,364,365,470,526,593,648,713,729,717,702,691,683,674,657,651,636,623,608,602,590,576,567,558,542,533,523,510,490,489,475,462,369,366,367,361,333,336,336,336,336,337,337,338,339,354,345,337,337,339,346,341,343,344,346,338,341,338,342,340,339,348,348,0,0,0,0,0,0,0,0,0,0,0,0,0,0,0,0,0,0,0,0,0,0,0,0,0,0,0,0,0,0,0,0,0,0,0,0,0,0,0,0,0,0,0,0,0,0,0,0,0,0,0,0,0,0,0,0,0,0,0,0,0,0,0,0,0,793,823,808,794,824,1008,1231,1408,1504,1575,1595,1570,1532,1507,1480,1455,1441,1411,1381,1357,1333,1307,1280,1259,1234,1209,1185,1118,1094,1111,1034,939,834,829,818,815,800,772,747,746,751,765,770,754,767,756,760,765,757,761,755,762,766,764,757,763,759,754,762,763,763,780,763,768,765,620,622,624,628,650,807,951,1068,1160,1256,1266,1229,1230,1197,1177,1141,1144,1101,1081,1062,1043,1023,1010,990,979,967,944,932,904,871,863,729,714,692,633,630,632,624,602,607,615,615,616,615,611,622,612,624,626,627,630,630,631,625,620,621,621,615,615,619,617,623,619,622,614,113,114,114,115,115,116,147,152,159,165,170,169,168,167,166,165,163,162,161,160,159,157,156,155,154,152,151,150,149,148,147,146,145,147,143,115,115,116,59,60,58,60,58,58,57,60,61,58,61,58,59,57,60,60,62,59,61,58,60,59,61,60,57,56,56,162,162,163,163,201,206,231,258,264,288,319,304,290,300,284,279,292,289,266,260,256,251,265,260,250,246,240,236,232,227,223,215,210,210,204,201,202,202,152,153,153,154,152,193,153,159,152,155,153,154,154,153,153,154,153,153,153,155,156,159,153,153,153,154,153,742,778,746,749,799,998,1194,1276,1437,1516,1543,1515,1467,1422,1383,1404,1390,1361,1290,1311,1249,1234,1253,1221,1226,1174,1162,1118,1086,1051,826,840,806,768,756,753,755,713,690,692,694,700,704,690,702,690,703,695,690,694,695,703,703,702,696,697,692,699,702,702,701,716,700,706,703,344,345,346,347,348,426,490,539,604,673,679,669,653,661,638,642,632,621,596,586,565,581,547,536,528,517,507,499,489,479,469,446,437,427,378,373,373,375,316,312,320,320,318,325,322,326,326,321,330,321,326,326,325,329,333,325,323,329,322,324,323,327,323,329,328,1334,1369,1365,1442,1646,1985,2389,2566,2607,2666,2645,2554,2571,2506,2480,2444,2370,2308,2303,2255,2241,2176,2115,2079,2069,1999,1899,1640,1596,1537,1461,1442,1438,1379,1389,1349,1364,1344,1333,1337,1344,1350,1342,1345,1339,1345,1350,1345,1356,1355,1356,1359,1363,1359,1348,1363,1357,1355,1353,1359,1365,1357,1357,1357,1357,532,533,532,535,547,613,818,915,1010,1066,1070,1057,1032,1027,998,984,961,952,932,915,898,881,865,849,832,811,798,767,752,736,633,608,649,555,547,540,541,506,497,494,504,510,500,499,497,499,507,499,501,500,501,505,509,506,501,509,502,506,504,504,513,502,502,502,502,357,361,362,364,365,470,526,593,648,713,729,717,702,691,683,674,657,651,636,623,608,602,590,576,567,558,542,533,523,510,490,489,475,462,369,366,367,361,333,336,336,336,336,337,337,338,339,354,345,337,337,339,346,341,343,344,346,338,341,338,342,340,339,348,348,713,707,728,730,780,1056,1266,1419,1580,1646,1622,1610,1565,1571,1493,1477,1461,1404,1378,1361,1367,1317,1277,1244,1215,1177,1144,1111,1076,1031,972,815,784,745,738,736,733,727,693,698,706,728,710,713,710,717,708,711,710,703,704,712,710,714,719,716,707,706,713,713,705,704,704,704,704,772,758,761,765,805,1072,1238,1381,1475,1533,1569,1504,1510,1456,1416,1392,1368,1377,1334,1309,1310,1260,1247,1222,1173,1149,1125,1114,1068,1052,1049,898,795,799,771,826,759,762,777,773,770,783,779,777,784,781,782,774,781,785,789,777,781,784,787,785,782,787,778,788,778,804,784,784,776,0,0,0,0,0,0,0,0,0,0,0,0,0,0,0,0,0,0,0,0,0,0,0,0,0,0,0,0,0,0,0,0,0,0,0,0,0,0,0,0,0,0,0,0,0,0,0,0,0,0,0,0,0,0,0,0,0,0,0,0,0,0,0,0,0,816,830,844,871,895,1239,1441,1667,1833,1879,1860,1795,1762,1761,1720,1695,1681,1600,1588,1555,1525,1497,1438,1417,1366,1329,1296,1256,1219,1179,1129,992,890,851,854,853,847,856,830,829,842,841,854,866,847,860,854,858,861,859,857,866,863,868,851,855,856,863,849,856,858,866,866,866,866,785,788,804,796,864,1114,1285,1434,1525,1584,1619,1579,1529,1504,1464,1438,1438,1423,1402,1376,1328,1303,1265,1239,1215,1190,1166,1130,1106,1091,1065,982,824,826,814,797,777,779,794,798,787,800,796,794,804,814,799,791,799,815,818,794,799,801,804,802,799,805,795,805,795,825,801,801,793,666,668,670,673,697,933,1065,1189,1285,1348,1389,1326,1305,1284,1247,1226,1205,1217,1177,1156,1134,1113,1078,1057,1036,1015,994,963,942,930,909,853,702,692,680,676,678,673,669,678,678,684,728,680,684,696,680,692,678,682,680,690,715,710,719,718,710,699,692,684,684,684,699,693,678,160,161,161,198,198,203,228,254,279,304,320,315,310,305,300,295,290,286,281,276,271,266,261,256,251,246,242,236,232,227,222,217,212,207,202,199,199,200,149,149,149,149,150,149,149,150,149,150,152,150,152,152,150,152,152,152,153,153,153,153,154,153,153,153,154,908,899,901,945,994,1310,1483,1658,1770,1793,1808,1756,1728,1699,1687,1664,1613,1585,1556,1608,1500,1471,1463,1435,1386,1376,1328,1318,1288,1243,1223,1125,946,962,912,909,911,913,925,910,914,916,917,931,919,929,920,931,933,932,922,933,928,938,937,940,933,935,935,938,943,936,940,945,936,1130,1152,1124,1203,1656,2046,2392,2595,2734,2759,2755,2669,2613,2557,2514,2445,2389,2339,2277,2213,2164,2103,2052,1996,1919,1877,1819,1744,1688,1643,1500,1234,1197,1163,1149,1149,1161,1176,1199,1192,1199,1207,1240,1210,1223,1237,1219,1334,1265,1235,1244,1236,1241,1275,1276,1240,1220,1224,1217,1217,1206,1231,1231,1231,1231,1152,1185,1170,1279,1353,1829,2153,2363,2451,2489,2502,2416,2372,2370,2287,2244,2219,2161,2152,2076,2054,1997,1959,1904,1857,1816,1763,1704,1565,1367,1370,1252,1233,1189,1214,1173,1161,1159,1136,1147,1151,1173,1146,1165,1155,1173,1165,1167,1160,1156,1166,1167,1172,1177,1176,1183,1178,1170,1189,1177,1180,1194,1194,1194,1194,713,707,728,730,780,1056,1266,1419,1580,1646,1622,1610,1565,1571,1493,1477,1461,1404,1378,1361,1367,1317,1277,1244,1215,1177,1144,1111,1076,1031,972,815,784,745,738,736,733,727,693,698,706,728,710,713,710,717,708,711,710,703,704,712,710,714,719,716,707,706,713,713,705,704,704,704,704,461,463,464,466,476,625,704,777,859,910,917,903,891,874,862,842,830,827,790,786,772,763,743,728,723,699,694,679,652,650,635,602,588,509,472,474,463,460,453,459,461,460,464,471,462,455,463,473,476,476,474,471,472,466,469,470,460,470,474,475,472,470,467,467,465,586,588,591,590,608,785,915,995,1103,1171,1190,1167,1146,1127,1109,1091,1068,1050,1031,1011,996,976,954,937,916,897,879,864,841,827,663,647,631,612,599,621,597,542,516,527,524,536,525,530,530,532,531,538,533,540,540,540,539,538,532,531,540,530,535,532,533,536,534,537,530,866,869,832,882,936,1366,1611,1811,1922,1951,1936,1844,1830,1755,1806,1769,1688,1679,1642,1641,1569,1505,1496,1433,1366,1387,1309,1326,1252,1216,1002,1013,950,925,882,854,870,855,879,874,886,891,883,891,884,891,887,891,891,891,891,891,891,891,891,891,891,891,891,891,885,891,891,891,884,0,0,0,0,0,0,0,0,0,0,0,0,0,0,0,0,0,0,0,0,0,0,0,0,0,0,0,0,0,0,0,0,0,0,0,0,0,0,0,0,0,0,0,0,0,0,0,0,0,0,0,0,0,0,0,0,0,0,0,0,0,0,0,0,0,561,563,566,565,579,746,869,943,1047,1115,1136,1113,1093,1076,1059,1041,1019,1002,984,966,951,932,913,895,876,859,841,827,805,792,694,615,600,585,573,596,571,533,508,518,512,525,517,520,521,523,521,527,521,521,522,520,522,526,524,523,529,522,528,523,525,530,524,531,524,730,736,751,732,760,1005,1179,1283,1407,1442,1466,1439,1413,1391,1373,1332,1303,1298,1246,1235,1232,1226,1183,1158,1136,1114,1078,1069,999,987,861,842,768,763,747,770,755,694,668,679,676,688,677,682,682,684,683,690,685,692,692,692,691,690,684,683,692,682,687,684,685,688,686,689,682,792,794,796,801,862,1233,1455,1654,1768,1801,1787,1766,1728,1699,1664,1647,1602,1548,1514,1515,1446,1412,1378,1344,1310,1287,1256,1222,1184,1149,1028,894,856,831,806,817,812,809,814,811,817,826,826,826,824,826,825,817,826,826,826,826,826,826,826,826,826,826,826,826,821,826,826,826,822,668,667,671,674,690,865,1019,1144,1264,1336,1338,1306,1295,1273,1254,1231,1209,1192,1166,1144,1129,1101,1079,1055,1039,1019,998,975,938,903,848,837,774,700,679,689,693,669,618,620,615,618,628,621,622,623,620,621,622,623,620,622,622,626,620,623,624,625,625,625,622,627,625,621,618,1351,1341,1366,1402,1500,1980,2275,2426,2560,2628,2605,2534,2508,2495,2468,2419,2377,2329,2283,2222,2162,2138,2121,2074,1986,1947,1925,1662,1649,1518,1476,1413,1390,1367,1356,1373,1355,1365,1297,1299,1294,1297,1307,1300,1301,1302,1299,1300,1301,1302,1299,1301,1301,1305,1299,1302,1303,1304,1304,1304,1301,1306,1304,1300,1297,536,540,540,542,555,659,808,903,998,1071,1085,1068,1051,1034,1022,998,988,972,947,929,919,895,877,860,853,826,808,790,779,761,739,687,651,562,549,561,558,571,500,502,497,500,510,503,504,505,502,503,504,505,502,504,504,508,502,505,506,507,507,507,504,509,507,503,500,461,463,464,466,476,625,704,777,859,910,917,903,891,874,862,842,830,827,790,786,772,763,743,728,723,699,694,679,652,650,635,602,588,509,472,474,463,460,453,459,461,460,464,471,462,455,463,473,476,476,474,471,472,466,469,470,460,470,474,475,472,470,467,467,465,361,362,364,365,366,457,537,596,679,717,729,719,708,698,680,677,667,656,642,617,625,642,589,584,600,561,548,536,514,513,500,490,450,440,361,367,368,369,353,354,356,356,363,363,361,362,359,368,367,364,361,362,367,362,361,363,366,364,362,366,364,369,365,365,363,93,93,109,109,109,110,103,139,152,165,177,175,171,169,167,164,161,159,155,154,151,148,146,142,139,138,134,131,106,104,123,121,118,116,112,109,110,110,52,52,51,53,58,57,54,57,54,57,56,58,55,53,54,55,54,54,57,55,53,57,55,62,56,56,54,857,860,863,859,899,1095,1344,1561,1669,1710,1694,1678,1651,1623,1597,1572,1544,1504,1482,1459,1424,1410,1386,1357,1324,1305,1276,1209,1183,1094,1081,922,905,880,868,880,865,839,799,803,806,809,814,813,810,813,810,813,812,814,811,809,810,811,810,810,813,811,809,813,811,818,812,812,810,584,585,587,600,616,789,895,976,1086,1191,1180,1144,1144,1101,1106,1066,1047,1051,1011,993,979,974,949,926,903,900,870,868,849,822,802,677,634,609,606,593,594,586,570,568,578,576,574,575,576,590,580,588,593,597,593,595,596,588,583,584,582,575,568,583,577,577,572,581,574,0,0,0,0,0,0,0,0,0,0,0,0,0,0,0,0,0,0,0,0,0,0,0,0,0,0,0,0,0,0,0,0,0,0,0,0,0,0,0,0,0,0,0,0,0,0,0,0,0,0,0,0,0,0,0,0,0,0,0,0,0,0,0,0,0,234,226,236,253,237,260,334,372,416,453,485,479,452,445,438,431,424,418,410,408,397,375,382,378,370,363,354,348,338,331,325,319,311,303,242,238,256,239,204,204,203,205,210,209,206,209,206,209,208,210,207,205,206,207,206,206,209,207,205,209,207,214,208,208,206,807,810,811,814,865,1085,1292,1502,1589,1652,1608,1623,1555,1570,1545,1521,1497,1473,1411,1412,1350,1323,1340,1325,1281,1273,1236,1195,1178,1153,949,961,877,839,823,819,821,780,742,749,749,752,757,751,753,751,753,754,750,757,754,752,753,754,753,753,754,754,752,756,754,761,755,755,753,362,363,365,367,372,432,522,585,645,691,693,686,678,672,664,664,650,650,640,627,617,605,594,582,571,559,548,537,527,516,505,456,446,389,379,372,374,374,316,315,315,327,316,318,319,321,315,320,323,316,321,319,323,320,328,322,320,319,318,314,316,322,319,320,317,1319,1331,1328,1394,1519,1953,2306,2477,2550,2545,2566,2539,2461,2458,2390,2366,2278,2300,2218,2186,2145,2109,2088,2051,2006,1963,1899,1640,1572,1551,1431,1383,1358,1358,1348,1313,1342,1310,1302,1306,1306,1313,1314,1312,1315,1315,1312,1315,1324,1324,1325,1327,1327,1330,1319,1331,1325,1315,1319,1319,1321,1323,1327,1323,1317,495,495,497,497,502,605,735,837,956,976,987,970,959,942,924,904,896,879,862,847,833,810,799,787,776,755,738,722,696,681,666,628,614,537,505,504,502,472,466,463,466,473,472,466,473,469,469,469,469,469,470,473,473,477,472,477,470,466,470,464,469,468,474,470,464,361,362,364,365,366,457,537,596,679,717,729,719,708,698,680,677,667,656,642,617,625,642,589,584,600,561,548,536,514,513,500,490,450,440,361,367,368,369,353,354,356,356,363,363,361,362,359,368,367,364,361,362,367,362,361,363,366,364,362,366,364,369,365,365,363,435,433,434,435,530,587,682,738,814,864,870,850,837,894,816,803,782,775,761,742,734,720,707,688,726,666,653,639,625,607,598,579,566,456,445,441,442,444,437,432,439,444,441,446,441,447,447,445,446,446,446,449,450,458,449,449,451,449,448,449,450,455,443,461,461,212,212,213,252,256,273,309,343,378,413,426,420,413,407,430,393,387,380,374,367,360,353,346,339,333,326,320,313,306,300,293,287,280,273,260,262,257,264,195,198,195,202,202,204,198,207,196,202,203,207,196,201,203,205,200,203,205,210,206,204,202,209,197,201,198,734,733,735,753,761,998,1117,1236,1349,1417,1423,1401,1380,1360,1338,1316,1294,1273,1252,1236,1211,1194,1161,1150,1132,1104,1086,1060,1002,981,961,790,766,767,754,751,756,733,689,691,700,713,712,708,720,708,709,714,708,712,706,713,715,718,710,717,708,707,712,713,717,717,712,716,714,798,800,803,806,842,1138,1274,1412,1544,1577,1577,1523,1517,1518,1472,1432,1430,1400,1376,1361,1342,1315,1292,1272,1250,1206,1182,1176,1135,1081,985,870,855,828,813,810,812,805,775,782,782,783,785,790,784,786,786,785,786,784,788,789,788,792,793,791,789,791,791,794,791,807,786,791,786,241,241,242,243,269,312,350,405,427,466,478,471,464,456,475,442,434,427,420,412,405,398,390,383,376,368,361,354,346,339,332,324,317,310,275,270,271,300,213,215,212,219,219,221,215,226,213,220,220,236,214,218,220,224,218,220,222,241,223,222,219,241,214,218,215,0,0,0,0,0,0,0,0,0,0,0,0,0,0,0,0,0,0,0,0,0,0,0,0,0,0,0,0,0,0,0,0,0,0,0,0,0,0,0,0,0,0,0,0,0,0,0,0,0,0,0,0,0,0,0,0,0,0,0,0,0,0,0,0,0,681,683,684,687,715,948,1021,1180,1290,1358,1366,1346,1281,1306,1284,1265,1244,1224,1191,1158,1160,1117,1117,1131,1083,1091,1046,1021,1017,971,957,915,810,727,693,691,694,674,632,637,643,648,646,644,655,642,652,644,641,645,646,654,652,656,649,651,641,652,652,652,655,655,649,654,652,549,554,556,546,566,640,817,901,991,1035,949,935,925,908,983,1010,947,954,916,921,884,907,852,869,821,805,819,804,773,763,651,637,608,556,553,549,555,546,511,514,511,518,518,520,514,525,512,518,519,531,512,517,519,523,516,519,521,538,522,520,518,535,513,517,514,1525,1537,1567,1626,1933,2367,2718,2891,2972,2989,2920,2891,2856,2816,2806,2696,2682,2633,2569,2526,2482,2444,2409,2358,2135,1834,1818,1854,1799,1692,1670,1617,1624,1600,1562,1526,1544,1525,1511,1509,1513,1525,1526,1532,1521,1538,1522,1535,1542,1544,1533,1532,1538,1543,1537,1542,1537,1541,1545,1537,1542,1553,1534,1538,1532,705,716,712,719,751,883,1105,1231,1373,1405,1409,1390,1364,1345,1360,1296,1275,1250,1228,1211,1189,1194,1174,1118,1098,1076,1060,1016,994,968,826,810,840,759,720,721,723,682,670,672,675,683,683,686,680,689,679,685,687,689,678,682,687,690,682,693,687,691,690,686,687,698,681,685,679,435,433,434,435,530,587,682,738,814,864,870,850,837,894,816,803,782,775,761,742,734,720,707,688,726,666,653,639,625,607,598,579,566,456,445,441,442,444,437,432,439,444,441,446,441,447,447,445,446,446,446,449,450,458,449,449,451,449,448,449,450,455,443,461,461,768,755,756,760,792,1107,1285,1490,1581,1634,1597,1610,1567,1524,1511,1488,1438,1424,1457,1351,1323,1293,1283,1236,1229,1191,1139,1120,1092,1052,1023,999,799,776,766,761,754,773,769,762,773,776,771,778,776,792,771,769,785,784,777,769,770,779,774,778,771,783,770,777,766,776,779,797,764,806,809,811,819,861,1161,1334,1481,1574,1612,1626,1600,1574,1548,1522,1496,1470,1444,1417,1392,1391,1339,1338,1288,1285,1236,1210,1183,1158,1131,1105,950,862,842,830,819,810,846,816,822,812,830,823,831,830,855,834,826,823,833,827,823,819,822,830,830,825,826,818,824,825,865,857,887,823,174,175,176,176,216,222,250,279,308,336,355,349,344,338,333,327,322,316,311,304,299,293,288,282,277,271,266,260,255,249,244,238,233,227,221,216,217,217,166,167,167,170,171,169,170,170,167,168,168,170,168,171,172,172,168,169,172,170,172,170,171,173,167,170,169,855,862,877,883,961,1284,1505,1688,1819,1851,1840,1784,1775,1742,1709,1654,1652,1611,1646,1545,1513,1460,1447,1415,1364,1323,1323,1284,1234,1202,1162,1077,917,884,883,900,882,891,879,911,883,887,906,898,896,905,904,917,918,894,902,908,915,914,924,926,921,920,932,926,928,931,929,931,906,835,837,853,850,892,1206,1409,1533,1650,1663,1700,1650,1622,1619,1569,1543,1515,1489,1463,1436,1409,1382,1356,1329,1302,1305,1249,1223,1214,1169,1142,1037,891,871,859,847,828,863,833,839,829,847,840,848,847,878,851,843,841,850,844,840,837,839,847,847,842,844,835,841,842,882,882,904,840,716,719,720,723,755,1011,1156,1290,1386,1441,1446,1423,1400,1377,1354,1331,1307,1301,1262,1239,1216,1193,1170,1156,1124,1102,1079,1056,1032,1009,986,900,878,751,738,727,738,765,731,736,741,758,752,753,739,787,744,746,745,747,738,752,746,774,773,760,749,752,744,759,754,778,747,760,752,0,0,0,0,0,0,0,0,0,0,0,0,0,0,0,0,0,0,0,0,0,0,0,0,0,0,0,0,0,0,0,0,0,0,0,0,0,0,0,0,0,0,0,0,0,0,0,0,0,0,0,0,0,0,0,0,0,0,0,0,0,0,0,0,0,945,948,952,971,1023,1359,1575,1735,1865,1887,1881,1850,1844,1814,1760,1730,1700,1670,1640,1610,1580,1586,1541,1490,1459,1430,1418,1369,1339,1310,1131,1022,998,977,991,986,971,963,977,954,959,959,961,969,968,964,967,982,997,986,990,995,990,993,984,989,987,1016,1017,1039,997,990,1060,1048,1016,1251,1253,1297,1376,1810,2212,2628,2857,3014,2973,2945,2880,2839,2753,2693,2651,2582,2520,2464,2395,2345,2285,2201,2156,2107,2052,1988,1893,1838,1681,1406,1374,1300,1279,1292,1272,1297,1305,1360,1359,1364,1366,1390,1379,1382,1388,1386,1397,1394,1405,1408,1407,1402,1398,1398,1392,1392,1394,1389,1387,1377,1404,1398,1401,1400,1192,1195,1199,1265,1404,1875,2156,2348,2448,2469,2449,2406,2361,2320,2276,2287,2239,2196,2168,2066,2025,1982,1939,1949,1855,1810,1768,1733,1590,1385,1386,1310,1243,1246,1238,1191,1184,1189,1192,1200,1211,1222,1214,1231,1220,1246,1220,1229,1237,1228,1234,1230,1230,1239,1236,1238,1236,1239,1234,1231,1239,1270,1238,1249,1238,768,755,756,760,792,1107,1285,1490,1581,1634,1597,1610,1567,1524,1511,1488,1438,1424,1457,1351,1323,1293,1283,1236,1229,1191,1139,1120,1092,1052,1023,999,799,776,766,761,754,773,769,762,773,776,771,778,776,792,771,769,785,784,777,769,770,779,774,778,771,783,770,777,766,776,779,797,764,606,615,618,629,639,710,937,1046,1142,1232,1250,1215,1197,1176,1156,1147,1124,1082,1072,1045,1030,1012,1001,962,957,936,917,897,870,860,695,669,645,660,626,622,631,601,568,568,568,568,568,568,568,568,568,568,568,568,568,568,568,568,568,568,568,568,568,568,568,568,568,568,568,317,319,320,317,322,408,462,489,531,560,578,569,563,561,553,545,536,529,521,513,506,497,489,481,484,477,468,473,462,452,441,431,420,402,367,318,319,324,297,297,297,297,297,297,297,297,297,297,297,297,297,297,297,297,297,297,297,297,297,297,297,297,297,297,297,922,917,919,936,990,1325,1493,1652,1765,1830,1821,1788,1765,1736,1708,1679,1651,1614,1585,1570,1527,1512,1480,1452,1423,1385,1366,1337,1295,1280,1252,1001,965,945,932,940,913,915,914,914,914,914,914,914,914,914,914,914,914,914,914,914,914,914,914,914,914,914,914,914,914,914,914,914,914,610,612,609,611,618,713,911,1071,1176,1213,1214,1204,1175,1156,1137,1120,1105,1079,1060,1040,1028,1012,982,962,943,939,905,901,866,847,794,727,714,629,678,625,646,618,602,603,607,608,603,608,608,608,608,608,608,608,608,608,608,608,607,608,608,608,607,604,607,608,606,608,607,321,316,317,317,318,377,449,495,554,586,605,596,591,584,575,567,557,548,538,530,523,512,503,495,485,476,467,461,449,441,431,422,415,381,372,319,333,333,280,280,280,280,280,280,280,280,280,280,280,280,280,280,280,280,280,280,280,280,280,280,280,280,280,280,280,336,337,338,339,341,445,502,561,619,669,679,668,671,647,636,639,628,605,606,583,573,562,551,540,530,519,508,497,487,476,465,454,444,433,345,342,342,343,324,324,324,324,324,324,324,324,324,324,324,324,324,324,324,324,324,324,324,324,324,324,324,324,324,324,324,865,876,891,890,1019,1270,1433,1567,1707,1773,1721,1733,1711,1639,1656,1629,1601,1565,1537,1531,1489,1464,1436,1380,1381,1342,1326,1299,1265,1244,1184,1095,930,909,882,912,892,894,890,890,883,890,890,890,890,890,890,890,890,890,890,890,890,890,890,890,890,890,890,890,890,890,890,890,890,0,0,0,0,0,0,0,0,0,0,0,0,0,0,0,0,0,0,0,0,0,0,0,0,0,0,0,0,0,0,0,0,0,0,0,0,0,0,0,0,0,0,0,0,0,0,0,0,0,0,0,0,0,0,0,0,0,0,0,0,0,0,0,0,0,1217,1218,1219,1241,1373,1714,2042,2256,2328,2407,2344,2355,2263,2280,2211,2169,2156,2097,2054,2007,2001,1920,1905,1869,1845,1807,1751,1640,1517,1433,1332,1310,1267,1232,1225,1221,1193,1212,1186,1188,1182,1189,1196,1195,1202,1192,1200,1198,1208,1207,1206,1206,1197,1205,1205,1206,1202,1197,1196,1207,1200,1211,1207,1210,1204,382,384,385,385,387,441,560,644,711,770,778,765,753,741,728,715,703,691,677,664,652,636,628,612,604,589,579,565,553,541,528,471,461,425,415,389,394,394,343,347,345,351,354,352,356,351,351,355,358,352,351,351,347,354,352,351,353,347,346,352,349,356,352,357,351,606,615,618,629,639,710,937,1046,1142,1232,1250,1215,1197,1176,1156,1147,1124,1082,1072,1045,1030,1012,1001,962,957,936,917,897,870,860,695,669,645,660,626,622,631,601,568,568,568,568,568,568,568,568,568,568,568,568,568,568,568,568,568,568,568,568,568,568,568,568,568,568,568,1376,1374,1404,1526,1793,2343,2518,2753,2800,2778,2762,2742,2703,2669,2637,2550,2497,2472,2439,2389,2351,2244,2266,2182,2162,2034,1966,1849,1601,1578,1541,1485,1440,1408,1397,1401,1409,1384,1389,1408,1420,1435,1410,1413,1417,1434,1423,1419,1412,1413,1424,1407,1415,1428,1422,1426,1419,1423,1425,1428,1446,1452,1436,1434,1428,1327,1345,1360,1388,1638,2176,2355,2515,2601,2644,2606,2555,2480,2466,2457,2363,2375,2291,2236,2193,2206,2161,2068,2043,2055,1974,1875,1702,1593,1475,1461,1392,1413,1395,1385,1320,1263,1229,1235,1254,1260,1272,1254,1257,1247,1266,1262,1256,1255,1250,1255,1250,1250,1260,1258,1262,1256,1259,1256,1260,1275,1281,1280,1263,1257,1340,1317,1378,1470,2150,2647,2935,3114,3182,3174,3104,3113,2953,2932,2846,2802,2784,2633,2707,2544,2442,2415,2350,2285,2185,2121,2092,1994,1832,1527,1474,1448,1404,1377,1368,1403,1390,1392,1494,1471,1486,1496,1497,1510,1521,1524,1502,1519,1527,1515,1529,1545,1514,1516,1535,1544,1539,1664,1645,1537,1529,1531,1516,1509,1508,1300,1276,1295,1349,1614,2003,2210,2466,2538,2504,2490,2492,2455,2421,2378,2339,2257,2254,2197,2170,2144,2053,2039,2022,1948,1899,1845,1723,1678,1553,1447,1397,1366,1324,1294,1300,1294,1296,1302,1319,1321,1327,1314,1318,1311,1337,1327,1328,1327,1321,1327,1317,1316,1322,1323,1317,1320,1322,1321,1324,1313,1322,1322,1325,1319,1298,1315,1320,1345,1592,2084,2259,2403,2503,2551,2506,2468,2411,2400,2378,2285,2285,2219,2167,2132,2126,2084,1999,1974,2004,1920,1859,1691,1517,1420,1435,1367,1378,1356,1347,1290,1229,1202,1207,1227,1235,1242,1227,1226,1227,1238,1233,1229,1223,1219,1227,1222,1219,1236,1227,1230,1229,1231,1235,1235,1248,1252,1251,1234,1228,1469,1486,1499,1598,1902,2469,2620,2762,2851,2881,2850,2787,2715,2686,2675,2596,2584,2510,2454,2407,2417,2347,2271,2217,2255,2123,1917,1917,1671,1617,1610,1538,1552,1528,1524,1472,1415,1381,1387,1406,1412,1424,1406,1409,1399,1418,1414,1408,1407,1402,1407,1402,1402,1412,1410,1414,1408,1411,1408,1412,1427,1433,1432,1415,1409,1370,1373,1413,1543,2255,2703,2990,3166,3234,3226,3199,3207,3095,2981,2938,2850,2831,2728,2753,2597,2531,2458,2393,2327,2262,2197,2131,2066,1870,1648,1530,1478,1435,1407,1399,1433,1421,1448,1530,1527,1537,1536,1555,1540,1559,1566,1530,1556,1562,1544,1546,1564,1575,1593,1579,1578,1603,1580,1662,1558,1558,1559,1544,1537,1536,1175,1193,1196,1229,1398,1869,2051,2214,2297,2355,2326,2269,2206,2196,2194,2103,2119,2038,1988,1952,1953,1928,1841,1804,1841,1753,1688,1539,1493,1362,1310,1240,1262,1235,1210,1194,1133,1105,1107,1121,1134,1144,1123,1133,1113,1140,1133,1125,1125,1124,1130,1126,1123,1133,1130,1135,1133,1130,1127,1134,1145,1153,1152,1135,1129,0,0,0,0,0,0,0,0,0,0,0,0,0,0,0,0,0,0,0,0,0,0,0,0,0,0,0,0,0,0,0,0,0,0,0,0,0,0,0,0,0,0,0,0,0,0,0,0,0,0,0,0,0,0,0,0,0,0,0,0,0,0,0,0,0,778,794,796,773,881,1132,1251,1413,1518,1580,1576,1529,1476,1479,1489,1403,1435,1355,1331,1305,1335,1307,1233,1208,1259,1181,1135,1166,1130,1062,1027,910,873,863,821,790,806,779,780,788,804,811,788,795,788,803,797,791,792,786,789,785,787,796,792,793,789,793,792,795,813,828,825,803,797,1376,1374,1404,1526,1793,2343,2518,2753,2800,2778,2762,2742,2703,2669,2637,2550,2497,2472,2439,2389,2351,2244,2266,2182,2162,2034,1966,1849,1601,1578,1541,1485,1440,1408,1397,1401,1409,1384,1389,1408,1420,1435,1410,1413,1417,1434,1423,1419,1412,1413,1424,1407,1415,1428,1422,1426,1419,1423,1425,1428,1446,1452,1436,1434,1428,697,693,688,693,707,857,1069,1207,1323,1382,1388,1338,1312,1291,1266,1252,1227,1216,1201,1171,1147,1117,1147,1082,1058,1043,1021,991,975,925,882,817,729,711,697,696,693,702,616,616,616,616,616,616,616,616,616,616,616,616,616,616,616,616,616,616,616,616,616,616,616,616,616,616,616,566,567,566,572,584,658,862,957,1040,1135,1140,1130,1112,1092,1065,1057,1038,1013,992,987,966,937,936,903,882,866,851,834,818,799,717,668,608,593,580,573,579,556,455,455,455,455,455,455,455,455,455,455,455,455,455,455,455,455,455,455,455,455,455,455,455,455,455,455,455,1211,1183,1225,1257,1402,1842,2169,2414,2525,2567,2544,2498,2454,2429,2366,2353,2274,2197,2147,2129,2087,2017,2026,1926,1874,1871,1828,1693,1570,1433,1330,1309,1278,1251,1229,1231,1229,1234,1174,1174,1174,1174,1174,1174,1174,1174,1174,1174,1174,1174,1174,1174,1174,1174,1174,1174,1174,1174,1174,1174,1174,1174,1174,1174,1174,576,564,566,567,579,712,901,969,1068,1114,1146,1098,1082,1063,1047,1028,1012,994,977,959,942,925,907,889,872,855,838,820,803,816,767,751,600,585,574,570,572,573,519,519,519,519,519,519,519,519,519,519,519,519,519,519,519,519,519,519,519,519,519,519,519,519,519,519,519,533,534,536,538,544,625,772,877,926,1039,1028,1008,1008,977,965,957,961,947,917,901,886,869,857,841,811,797,786,775,763,746,691,666,598,563,549,546,542,524,426,426,426,426,426,426,426,426,426,426,426,426,426,426,426,426,426,426,426,426,426,426,426,426,426,426,426,697,707,710,713,719,868,1066,1206,1316,1389,1385,1386,1364,1345,1307,1298,1272,1241,1216,1190,1185,1166,1132,1126,1098,1067,1038,1028,967,963,885,840,760,740,728,712,709,708,607,607,607,607,607,607,607,607,607,607,607,607,607,607,607,607,607,607,607,607,607,607,607,607,607,607,607,1159,1154,1154,1180,1342,1701,2108,2356,2441,2470,2457,2386,2347,2303,2265,2218,2170,2134,2085,2055,2008,1954,1911,1870,1820,1764,1738,1694,1627,1440,1330,1233,1211,1192,1165,1170,1164,1169,1111,1111,1111,1111,1111,1111,1111,1111,1111,1111,1111,1111,1111,1111,1111,1111,1111,1111,1111,1111,1111,1111,1111,1111,1111,1111,1111,411,411,414,418,421,477,604,674,745,824,837,823,810,797,785,773,758,745,732,719,705,691,678,664,651,638,623,611,596,577,565,519,456,445,443,420,438,439,330,330,330,330,330,330,330,330,330,330,330,330,330,330,330,330,330,330,330,330,330,330,330,330,330,330,330,845,835,845,846,881,1133,1334,1555,1625,1686,1683,1646,1639,1600,1575,1539,1513,1486,1457,1438,1432,1386,1349,1330,1314,1289,1266,1208,1184,1076,1060,1038,887,887,854,860,868,863,833,838,842,837,841,842,844,848,842,848,844,854,855,855,852,852,855,851,855,849,850,849,849,849,849,849,849,0,0,0,0,0,0,0,0,0,0,0,0,0,0,0,0,0,0,0,0,0,0,0,0,0,0,0,0,0,0,0,0,0,0,0,0,0,0,0,0,0,0,0,0,0,0,0,0,0,0,0,0,0,0,0,0,0,0,0,0,0,0,0,0,0,697,693,688,693,707,857,1069,1207,1323,1382,1388,1338,1312,1291,1266,1252,1227,1216,1201,1171,1147,1117,1147,1082,1058,1043,1021,991,975,925,882,817,729,711,697,696,693,702,616,616,616,616,616,616,616,616,616,616,616,616,616,616,616,616,616,616,616,616,616,616,616,616,616,616,616,0,0,0,0,0,0,0,0,0,0,0,0,0,0,0,0,0,0,0,0,0,0,0,0,0,0,0,0,0,0,0,0,0,0,0,0,0,0,0,0,0,0,0,0,0,0,0,0,0,0,0,0,0,0,0,0,0,0,0,0,0,0,0,0,0,316,316,317,318,329,401,456,511,563,616,649,637,626,620,609,599,589,579,569,558,548,537,522,511,501,490,479,470,459,449,439,429,419,367,343,339,340,337,208,208,208,208,208,208,208,208,208,208,208,208,208,208,208,208,208,208,208,208,208,208,208,208,208,208,208,671,674,712,714,715,939,1157,1397,1539,1596,1610,1613,1509,1501,1518,1418,1439,1378,1312,1330,1251,1222,1265,1174,1175,1114,1071,1071,1040,1033,951,920,790,743,716,732,728,713,695,698,702,710,706,710,730,714,705,712,713,712,731,712,721,727,708,709,715,706,709,710,710,709,699,699,697,500,483,485,487,513,613,745,818,920,993,986,995,944,929,924,931,893,881,866,845,830,834,818,783,776,743,754,738,722,706,631,616,587,586,522,496,520,508,468,469,472,477,474,476,474,492,471,475,473,472,471,476,479,481,475,475,479,475,493,478,476,496,467,472,471,290,291,291,292,308,322,417,465,513,560,592,582,572,566,556,548,539,530,520,511,502,492,478,469,459,451,441,432,422,413,401,394,387,328,317,309,310,311,199,199,199,199,199,199,199,199,199,199,199,199,199,199,199,199,199,199,199,199,199,199,199,199,199,199,199,395,382,378,378,380,457,560,619,682,741,762,750,737,725,713,702,682,678,667,655,642,631,620,623,596,584,572,561,549,537,526,506,467,395,385,381,382,383,338,338,338,338,338,338,338,338,338,338,338,338,338,338,338,338,338,338,338,338,338,338,338,338,338,338,338,635,638,638,639,673,881,1052,1243,1382,1477,1478,1464,1420,1391,1379,1334,1305,1289,1260,1231,1203,1161,1144,1103,1074,1046,1028,988,960,941,902,873,691,667,658,664,651,648,630,633,639,645,640,646,663,648,640,642,646,645,654,648,652,663,644,643,648,642,646,645,645,645,636,637,635,615,617,617,621,635,748,928,1050,1169,1210,1219,1204,1185,1167,1149,1140,1120,1095,1081,1060,1043,1024,1000,983,961,942,921,902,886,863,799,773,700,647,632,627,629,594,489,489,489,489,489,489,489,489,489,489,489,489,489,489,489,489,489,489,489,489,489,489,489,489,489,489,489,1401,1409,1409,1477,1537,2185,2461,2620,2726,2710,2675,2632,2645,2591,2511,2510,2422,2420,2388,2295,2270,2260,2159,2124,2121,2072,1851,1823,1673,1581,1552,1485,1469,1405,1396,1405,1387,1399,1330,1330,1330,1330,1330,1330,1330,1330,1330,1330,1330,1330,1330,1330,1330,1330,1330,1330,1330,1330,1330,1330,1330,1330,1330,1330,1330,566,567,568,570,575,744,867,968,1064,1132,1144,1125,1106,1089,1075,1056,1034,1015,1001,982,961,942,924,906,887,870,853,832,815,796,778,726,710,628,579,576,577,563,494,494,494,494,494,494,494,494,494,494,494,494,494,494,494,494,494,494,494,494,494,494,494,494,494,494,494,0,0,0,0,0,0,0,0,0,0,0,0,0,0,0,0,0,0,0,0,0,0,0,0,0,0,0,0,0,0,0,0,0,0,0,0,0,0,0,0,0,0,0,0,0,0,0,0,0,0,0,0,0,0,0,0,0,0,0,0,0,0,0,0,0 ]);
