n = 10;
D = [122,233,155,163,287,79,241,70,155,160 ];
q = 0;
prec = array2d(1..0,1..2,[]);
steps = 64;
l = 360;
r = 0;
which = [];
interval = array2d(1..0,1..2,[]);
T = array3d(1..11,1..11,0..64,[0,0,0,0,0,0,0,0,0,0,0,0,0,0,0,0,0,0,0,0,0,0,0,0,0,0,0,0,0,0,0,0,0,0,0,0,0,0,0,0,0,0,0,0,0,0,0,0,0,0,0,0,0,0,0,0,0,0,0,0,0,0,0,0,0,988,1004,1034,1023,1065,1215,1344,1572,1622,1628,1621,1592,1540,1511,1497,1492,1466,1393,1415,1386,1409,1360,1328,1300,1260,1234,1169,1186,1185,1094,1105,1095,1092,1017,1004,1016,1038,1021,1023,1014,1024,1030,1029,1017,1024,1026,1027,1038,1042,1036,1034,1091,1036,1032,1096,1046,1035,1040,1044,1040,1039,1042,1045,1052,1055,482,484,485,486,490,505,545,586,626,658,668,660,653,645,638,630,622,615,607,600,592,584,577,569,562,554,546,539,531,524,516,508,501,493,514,489,484,491,473,476,472,484,547,519,518,525,495,556,521,531,518,487,492,518,501,493,533,501,486,517,506,544,522,529,502,723,724,726,728,762,804,890,975,1048,1088,1094,1079,1064,1049,1034,1018,1003,988,973,958,943,955,913,897,910,867,852,837,837,807,792,776,761,746,735,745,859,734,769,752,770,774,768,754,828,835,763,798,791,755,749,817,831,858,832,838,818,835,830,828,787,775,752,761,772,173,174,174,175,175,179,199,219,238,258,271,267,263,259,255,251,248,244,240,236,232,228,225,221,217,213,209,205,202,198,194,190,186,183,179,176,176,176,162,159,162,164,159,169,164,172,171,165,172,162,165,163,163,166,163,163,163,165,163,161,162,164,162,167,164,898,907,909,898,978,1028,1163,1319,1348,1369,1367,1389,1366,1311,1322,1273,1254,1235,1216,1210,1187,1160,1161,1120,1103,1075,1074,1031,1028,1009,1004,941,936,897,934,898,926,903,912,899,902,907,959,938,940,939,927,959,935,919,936,906,912,930,927,914,935,912,907,931,927,952,938,942,932,998,1023,1004,1088,1092,1214,1367,1558,1557,1622,1715,1584,1544,1572,1494,1470,1520,1469,1408,1426,1444,1377,1297,1322,1332,1318,1228,1172,1147,1162,1098,1122,1076,1059,1015,1064,1015,1055,1054,1053,1053,1083,1068,1088,1053,1065,1066,1061,1093,1076,1111,1112,1099,1091,1097,1083,1072,1087,1087,1081,1078,1078,1072,1097,1066,375,376,377,378,379,402,448,495,542,615,611,602,577,568,559,550,542,533,524,515,507,498,489,480,471,463,454,445,436,428,419,410,401,392,384,380,381,381,369,369,369,372,381,372,380,374,373,374,372,376,377,383,376,378,417,411,387,393,381,371,389,374,387,377,372,1388,1356,1457,1442,1592,1809,1933,2295,2186,2182,2207,2168,2158,2030,2045,1993,1995,1877,1999,1886,1915,1891,1800,1729,1681,1686,1573,1580,1599,1500,1473,1481,1446,1371,1403,1425,1396,1379,1464,1470,1421,1430,1460,1452,1455,1467,1461,1470,1517,1465,1478,1488,1489,1494,1466,1496,1509,1507,1541,1493,1486,1494,1544,1478,1482,574,595,577,620,598,641,718,814,872,930,981,920,903,889,878,864,850,820,820,806,807,764,750,737,723,740,708,681,667,653,639,625,623,597,585,582,583,585,575,573,568,577,582,609,577,584,596,592,580,585,575,584,583,570,584,588,586,586,579,580,594,602,596,602,592,0,0,0,0,0,0,0,0,0,0,0,0,0,0,0,0,0,0,0,0,0,0,0,0,0,0,0,0,0,0,0,0,0,0,0,0,0,0,0,0,0,0,0,0,0,0,0,0,0,0,0,0,0,0,0,0,0,0,0,0,0,0,0,0,0,1001,997,986,1004,1151,1209,1419,1541,1767,1629,1620,1627,1605,1575,1546,1521,1537,1446,1419,1394,1410,1381,1334,1269,1238,1193,1239,1204,1139,1144,1103,1060,1030,1042,998,993,996,1004,1009,1008,1024,1045,1024,1045,1016,1026,1015,1020,1035,1023,1023,1035,1034,1051,1039,1039,1028,1038,1042,1046,1037,1044,1021,1046,1045,0,0,0,0,0,0,0,0,0,0,0,0,0,0,0,0,0,0,0,0,0,0,0,0,0,0,0,0,0,0,0,0,0,0,0,0,0,0,0,0,0,0,0,0,0,0,0,0,0,0,0,0,0,0,0,0,0,0,0,0,0,0,0,0,0,829,881,877,900,896,1043,1120,1275,1327,1376,1361,1340,1318,1297,1276,1298,1233,1191,1219,1150,1172,1126,1105,1115,1062,1067,999,998,994,967,920,940,923,857,888,882,885,892,875,892,885,900,977,951,925,966,913,985,944,969,952,912,932,968,940,917,977,931,922,950,939,976,953,969,928,1367,1421,1491,1563,1655,1835,2046,2152,2200,2214,2207,2174,2142,2089,2055,2044,1985,1931,1944,1885,1993,1812,1777,1772,1708,1674,1618,1657,1586,1531,1486,1489,1505,1400,1421,1485,1418,1422,1503,1489,1524,1572,1539,1567,1537,1535,1547,1557,1581,1543,1542,1581,1608,1614,1565,1541,1537,1549,1533,1528,1527,1552,1525,1568,1535,1038,1077,1106,1126,1139,1360,1369,1530,1654,1626,1609,1655,1562,1538,1515,1607,1518,1452,1477,1427,1423,1375,1350,1367,1300,1277,1232,1228,1221,1191,1141,1157,1154,1068,1097,1079,1084,1097,1126,1104,1095,1107,1118,1146,1177,1174,1136,1162,1136,1119,1114,1168,1174,1167,1170,1191,1179,1193,1166,1147,1157,1142,1121,1120,1104,439,446,448,449,452,503,569,616,702,762,757,745,733,721,709,697,685,673,661,622,637,607,613,601,589,577,565,553,541,505,496,505,479,461,469,465,466,468,450,450,452,455,477,453,458,458,457,458,454,457,455,464,462,475,608,560,481,476,462,455,460,454,477,462,454,712,711,714,716,801,835,925,1115,1173,1230,1191,1156,1178,1139,1089,1125,1071,1034,1034,1015,1039,977,955,954,922,906,926,864,868,855,815,800,781,784,761,720,750,765,758,754,763,756,786,785,797,781,763,791,790,783,793,775,779,805,785,778,782,776,768,789,776,790,776,791,793,851,903,918,923,921,1118,1149,1305,1357,1405,1390,1369,1347,1325,1304,1325,1260,1218,1246,1177,1198,1152,1130,1158,1087,1065,1023,1022,1017,990,942,962,958,879,905,889,892,907,929,905,922,924,921,913,963,965,927,955,942,912,915,974,982,994,966,975,962,977,970,983,951,935,909,919,925,405,407,408,409,411,410,465,520,619,621,676,665,654,643,632,622,611,600,589,578,568,557,546,535,524,513,503,492,481,470,459,448,438,427,416,412,413,414,404,406,410,419,417,411,414,418,411,415,415,416,418,427,433,429,419,412,418,423,424,415,415,427,415,422,415,840,856,875,887,922,1024,1142,1251,1349,1414,1432,1397,1387,1331,1309,1271,1261,1273,1284,1185,1193,1128,1116,1105,1088,1057,1063,1012,1008,958,932,926,925,922,870,879,882,871,904,905,860,858,906,883,885,886,882,890,957,892,909,923,939,915,902,915,916,947,978,909,900,911,974,909,883,1001,997,986,1004,1151,1209,1419,1541,1767,1629,1620,1627,1605,1575,1546,1521,1537,1446,1419,1394,1410,1381,1334,1269,1238,1193,1239,1204,1139,1144,1103,1060,1030,1042,998,993,996,1004,1009,1008,1024,1045,1024,1045,1016,1026,1015,1020,1035,1023,1023,1035,1034,1051,1039,1039,1028,1038,1042,1046,1037,1044,1021,1046,1045,369,370,371,372,374,400,453,506,559,605,614,605,595,585,607,565,556,546,536,526,516,507,497,514,477,467,458,448,438,428,418,409,399,410,379,375,376,377,366,371,369,371,374,373,374,377,372,378,372,371,376,378,380,381,380,381,376,376,380,379,380,379,377,379,374,714,678,718,682,701,773,874,976,1065,1106,1120,1104,1072,1121,1102,1020,1002,984,967,949,932,914,897,879,862,882,826,809,791,774,756,739,721,703,748,802,688,690,698,710,706,724,714,724,709,717,708,713,712,709,709,722,721,729,728,728,723,722,735,726,723,736,723,738,726,0,0,0,0,0,0,0,0,0,0,0,0,0,0,0,0,0,0,0,0,0,0,0,0,0,0,0,0,0,0,0,0,0,0,0,0,0,0,0,0,0,0,0,0,0,0,0,0,0,0,0,0,0,0,0,0,0,0,0,0,0,0,0,0,0,650,652,654,656,672,740,863,936,1023,1067,1069,1052,1035,1018,1001,984,967,950,933,916,913,896,865,848,831,813,796,779,762,746,728,711,694,677,664,660,662,663,675,663,686,669,691,713,672,661,667,708,708,705,709,715,710,697,690,690,672,694,676,699,691,687,679,683,726,323,324,325,326,327,342,375,408,406,433,446,512,435,465,460,420,414,440,434,428,422,415,409,403,397,390,384,378,372,365,359,353,347,340,332,328,328,332,312,314,315,316,322,323,328,320,317,325,319,319,320,334,319,325,320,318,324,319,320,325,324,324,320,318,320,465,466,468,469,472,512,579,646,713,761,781,770,744,731,719,735,695,683,671,658,646,634,622,610,598,585,573,561,549,537,525,512,500,488,523,472,473,475,470,469,473,480,479,485,483,495,492,479,491,479,479,481,481,491,477,478,483,488,483,479,483,488,476,488,480,721,724,775,768,816,836,947,1064,1227,1168,1167,1151,1134,1186,1100,1091,1125,1058,1087,1020,1001,982,1030,943,920,949,936,867,848,865,810,841,768,788,739,736,734,740,739,751,756,774,759,763,753,772,759,761,753,749,754,770,768,770,768,768,763,775,778,776,768,789,786,801,795,137,137,138,138,138,141,158,175,192,209,221,218,214,211,208,204,201,198,194,191,188,185,181,178,175,171,168,165,161,158,155,151,148,145,142,139,139,140,127,131,131,132,132,132,131,132,128,138,129,129,132,131,138,141,136,132,133,128,133,133,133,134,129,132,128,1182,1056,1071,1083,1157,1289,1426,1621,1753,1674,1732,1747,1653,1623,1685,1673,1536,1517,1518,1462,1399,1373,1343,1353,1293,1381,1271,1334,1184,1206,1133,1134,1079,1129,1103,1041,1079,1069,1085,1099,1098,1130,1080,1123,1097,1123,1110,1129,1139,1111,1126,1113,1123,1129,1122,1121,1115,1122,1156,1121,1126,1122,1115,1151,1147,301,302,314,315,305,322,380,419,450,509,502,494,486,478,488,462,471,446,438,430,422,426,421,412,404,396,374,376,371,350,354,346,326,318,310,306,306,318,299,303,300,305,304,311,305,314,311,304,315,303,303,302,303,309,303,303,304,305,302,302,301,307,301,309,301,369,370,371,372,374,400,453,506,559,605,614,605,595,585,607,565,556,546,536,526,516,507,497,514,477,467,458,448,438,428,418,409,399,410,379,375,376,377,366,371,369,371,374,373,374,377,372,378,372,371,376,378,380,381,380,381,376,376,380,379,380,379,377,379,374,760,762,764,766,812,917,1074,1235,1315,1349,1331,1320,1297,1259,1225,1212,1188,1175,1163,1127,1092,1068,1035,1020,996,992,958,924,919,885,845,837,813,781,767,773,777,781,772,770,781,812,784,787,781,800,795,785,805,792,862,862,882,827,797,790,786,809,789,779,785,806,789,807,786,1294,1298,1329,1390,1481,1671,1977,2082,2116,2074,2074,2164,1990,2055,2088,2162,1875,1842,1902,1776,1743,1732,1699,1665,1632,1578,1540,1542,1479,1446,1428,1438,1350,1375,1316,1372,1349,1321,1403,1384,1380,1399,1392,1426,1396,1396,1429,1484,1407,1420,1432,1429,1422,1415,1436,1422,1411,1425,1407,1420,1425,1422,1422,1428,1403,723,783,728,730,756,834,945,1056,1144,1183,1186,1167,1149,1130,1111,1092,1073,1054,1126,1016,997,979,960,941,922,903,884,896,846,827,808,851,809,752,738,734,736,738,730,736,731,748,739,751,738,749,755,739,740,743,741,740,737,738,743,745,741,743,737,741,745,758,754,760,745,0,0,0,0,0,0,0,0,0,0,0,0,0,0,0,0,0,0,0,0,0,0,0,0,0,0,0,0,0,0,0,0,0,0,0,0,0,0,0,0,0,0,0,0,0,0,0,0,0,0,0,0,0,0,0,0,0,0,0,0,0,0,0,0,0,782,789,807,789,863,917,1098,1174,1237,1286,1294,1263,1249,1300,1188,1204,1173,1130,1178,1081,1103,1051,1056,1003,984,964,958,921,932,887,895,856,829,810,797,800,814,797,804,805,809,809,802,802,816,815,802,806,816,812,818,830,825,816,810,809,814,814,810,802,815,809,810,810,816,1006,973,976,1007,1092,1213,1424,1498,1588,1603,1597,1578,1520,1528,1474,1453,1462,1436,1471,1389,1324,1298,1308,1252,1256,1218,1213,1181,1153,1118,1120,1079,1070,1020,1030,1015,1004,1011,1034,1032,1036,1034,1057,1099,1047,1076,1073,1088,1095,1085,1074,1080,1069,1093,1057,1060,1074,1067,1054,1087,1075,1091,1072,1078,1083,794,828,854,802,871,911,1032,1153,1293,1300,1308,1337,1266,1245,1224,1280,1182,1161,1141,1120,1099,1078,1057,1052,1015,994,1010,980,967,945,916,882,847,827,812,839,808,836,833,835,833,844,844,844,838,855,831,840,838,836,839,851,847,845,844,845,843,843,855,861,837,846,838,841,837,642,659,639,647,663,746,839,919,990,1038,1049,1018,1007,991,1011,959,978,936,992,904,888,871,884,839,809,807,793,774,759,742,742,724,684,668,655,645,669,654,645,649,653,674,669,660,656,664,653,657,657,663,661,657,660,670,669,669,667,667,661,671,671,693,691,694,685,1702,1659,1739,1940,2061,2259,2551,2747,2705,2649,2607,2695,2506,2569,2424,2490,2356,2315,2425,2231,2223,2227,2127,2170,2074,1981,1964,1955,1856,1836,1814,1791,1704,1751,1693,1785,1707,1680,1941,1928,1895,1920,1918,1965,1985,1996,1964,2058,1956,1981,1976,2022,2001,2075,2027,2002,1985,2002,2006,2019,2009,2024,1986,1987,1943,575,576,589,580,590,645,731,817,899,972,950,935,920,904,889,874,884,856,921,813,798,794,768,753,737,722,707,744,677,662,646,631,616,601,596,583,585,587,590,593,588,595,601,598,598,613,591,598,598,601,593,602,601,606,609,600,602,600,606,611,599,613,593,599,599,760,762,764,766,812,917,1074,1235,1315,1349,1331,1320,1297,1259,1225,1212,1188,1175,1163,1127,1092,1068,1035,1020,996,992,958,924,919,885,845,837,813,781,767,773,777,781,772,770,781,812,784,787,781,800,795,785,805,792,862,862,882,827,797,790,786,809,789,779,785,806,789,807,786,178,179,179,179,180,183,202,221,240,258,272,268,264,261,257,253,250,246,242,239,235,231,228,224,220,217,213,209,205,202,198,194,191,187,183,180,181,181,167,170,167,171,171,173,167,172,167,173,169,170,169,169,173,177,171,171,172,170,172,172,171,173,166,169,166,956,959,961,1033,1032,1141,1332,1446,1440,1459,1461,1427,1406,1556,1365,1345,1324,1384,1283,1362,1333,1222,1274,1181,1213,1139,1156,1193,1155,1057,1037,1053,996,977,968,968,970,973,984,975,990,1049,1012,1020,1007,991,999,1014,1008,997,1001,1032,1065,1055,1027,1011,993,1011,993,988,989,1014,1001,1022,985,310,311,311,312,312,322,341,361,381,400,406,402,398,394,391,387,383,379,375,371,368,364,360,356,352,349,345,341,337,333,329,364,322,318,314,312,313,313,297,301,300,308,307,309,301,314,299,314,307,325,302,303,314,319,308,307,310,314,308,307,307,311,300,302,299,674,676,677,679,694,752,859,1192,960,1002,1011,997,982,968,974,940,926,911,897,883,874,855,840,833,812,798,784,770,755,741,727,752,738,684,687,682,693,685,669,679,686,702,689,695,680,699,679,697,684,679,685,694,701,708,700,697,693,686,703,702,695,698,686,695,687,0,0,0,0,0,0,0,0,0,0,0,0,0,0,0,0,0,0,0,0,0,0,0,0,0,0,0,0,0,0,0,0,0,0,0,0,0,0,0,0,0,0,0,0,0,0,0,0,0,0,0,0,0,0,0,0,0,0,0,0,0,0,0,0,0,723,747,727,729,779,873,939,1046,1094,1120,1127,1098,1083,1068,1053,1037,1022,1007,992,1027,995,946,990,932,901,886,910,855,864,825,810,786,813,777,737,754,775,776,762,751,766,781,777,782,776,763,771,800,779,770,772,758,772,766,771,774,772,797,770,779,776,768,771,777,763,829,832,834,839,943,979,1155,1230,1312,1419,1344,1378,1406,1325,1317,1238,1251,1242,1217,1196,1132,1143,1132,1069,1087,1060,1005,984,983,994,955,899,878,857,880,856,881,882,867,859,874,897,890,894,884,867,883,902,892,883,884,919,938,925,914,898,881,889,878,885,875,892,891,908,878,206,207,207,208,209,215,241,267,293,318,333,328,323,318,313,308,303,298,293,288,283,278,273,268,263,258,253,248,243,238,233,228,223,218,213,209,210,210,197,200,202,236,210,202,197,198,202,215,209,203,205,204,197,198,202,208,198,197,198,198,200,197,203,201,196,1371,1311,1361,1453,1543,1771,2043,2025,2117,2072,2052,2008,1969,1908,1918,1917,1857,1905,1761,1828,1790,1672,1713,1613,1676,1618,1635,1658,1540,1486,1442,1439,1349,1375,1388,1360,1355,1358,1421,1410,1407,1428,1504,1490,1460,1491,1457,1504,1529,1513,1551,1509,1519,1519,1524,1465,1510,1495,1490,1507,1490,1511,1525,1560,1505,405,406,418,409,410,440,495,551,606,669,674,667,640,669,619,609,599,589,578,568,558,548,538,527,517,507,497,486,476,466,456,455,435,425,426,411,412,413,408,409,411,411,414,416,411,418,412,415,410,414,410,430,418,419,416,426,420,420,422,422,418,422,407,416,412,178,179,179,179,180,183,202,221,240,258,272,268,264,261,257,253,250,246,242,239,235,231,228,224,220,217,213,209,205,202,198,194,191,187,183,180,181,181,167,170,167,171,171,173,167,172,167,173,169,170,169,169,173,177,171,171,172,170,172,172,171,173,166,169,166,660,659,664,666,684,832,874,976,1067,1102,1108,1084,1071,1049,1053,1020,998,980,958,943,925,906,895,870,855,840,812,797,776,761,743,729,706,685,674,671,780,675,670,674,684,712,684,698,672,687,676,675,679,679,672,689,687,700,694,698,685,694,698,697,694,701,683,697,687,383,362,363,396,399,389,439,490,540,586,596,587,577,568,559,615,540,530,521,512,502,493,483,474,465,455,484,437,427,418,469,433,390,380,371,398,367,368,365,377,373,376,380,380,377,379,371,385,371,373,374,380,387,392,386,381,379,380,385,378,381,377,373,384,372,497,498,500,501,506,543,623,695,768,893,821,808,795,782,769,756,743,729,716,703,690,677,664,651,638,619,612,599,586,567,560,547,534,521,508,504,506,507,499,502,499,508,573,544,545,557,521,578,541,555,547,510,519,545,531,516,557,527,510,544,531,571,547,541,526,1033,1031,1040,1057,1133,1280,1443,1559,1624,1678,1654,1645,1604,1596,1554,1530,1505,1480,1467,1439,1407,1448,1355,1327,1394,1277,1337,1236,1208,1161,1145,1114,1087,1064,1051,1049,1053,1051,1108,1095,1089,1177,1146,1138,1130,1115,1141,1177,1135,1197,1221,1185,1110,1142,1158,1157,1151,1130,1207,1298,1250,1249,1264,1176,1181,709,707,733,712,730,787,909,943,1063,1144,1072,1057,1099,1026,1011,1027,1011,995,979,962,946,930,914,897,881,858,827,832,796,794,784,767,751,735,722,716,704,719,707,709,715,713,725,717,722,721,714,721,720,717,725,723,717,720,731,726,723,725,724,720,735,728,724,724,724,0,0,0,0,0,0,0,0,0,0,0,0,0,0,0,0,0,0,0,0,0,0,0,0,0,0,0,0,0,0,0,0,0,0,0,0,0,0,0,0,0,0,0,0,0,0,0,0,0,0,0,0,0,0,0,0,0,0,0,0,0,0,0,0,0,432,434,467,468,439,489,549,602,680,713,729,719,745,685,674,677,702,639,646,616,605,601,589,570,567,556,545,561,549,501,501,490,479,487,443,439,440,442,439,432,433,438,458,463,448,461,455,469,468,445,458,444,445,461,452,447,460,446,441,455,456,468,460,478,456,518,520,522,523,528,568,650,724,799,845,850,837,824,810,797,784,770,757,743,730,717,703,690,677,663,643,636,623,610,590,583,570,556,543,530,526,528,529,523,518,525,522,537,556,526,523,525,542,541,542,541,544,540,539,533,536,529,534,529,542,541,546,542,540,550,753,712,765,771,838,855,929,1109,1127,1168,1168,1150,1131,1153,1134,1072,1086,1111,1019,1000,1017,963,979,925,940,920,953,850,862,851,821,816,785,738,752,760,776,752,753,745,758,748,769,793,754,755,763,774,775,772,772,779,778,778,771,771,761,778,763,781,781,779,777,778,799,492,493,516,497,501,572,630,697,782,795,818,789,793,781,763,750,737,732,703,698,685,661,671,656,622,656,633,610,580,568,571,542,524,516,497,499,501,502,500,498,498,504,498,503,501,507,500,502,502,496,502,498,503,507,501,502,501,504,506,501,501,515,501,506,501,660,659,664,666,684,832,874,976,1067,1102,1108,1084,1071,1049,1053,1020,998,980,958,943,925,906,895,870,855,840,812,797,776,761,743,729,706,685,674,671,780,675,670,674,684,712,684,698,672,687,676,675,679,679,672,689,687,700,694,698,685,694,698,697,694,701,683,697,687,990,972,1000,1024,1050,1183,1424,1458,1559,1590,1595,1557,1531,1500,1542,1452,1453,1394,1376,1418,1334,1299,1272,1247,1261,1204,1186,1143,1118,1117,1087,1048,1014,1020,987,999,980,1046,1022,1015,1015,1019,1017,1017,1046,1035,1012,1004,1022,1026,1017,1013,1012,1013,1014,1027,1019,1020,1017,1016,1011,1035,1035,1043,1014,609,601,612,605,627,688,827,872,966,1012,1000,984,1022,956,936,920,891,886,873,857,840,837,844,804,781,765,746,730,714,701,682,666,651,626,612,618,619,621,607,607,626,641,619,633,611,631,613,639,624,613,619,621,632,648,631,625,629,617,625,626,624,630,608,621,615,749,826,758,771,777,901,985,1098,1220,1231,1291,1216,1196,1183,1161,1102,1087,1072,1071,1051,1074,1022,994,981,943,1061,924,886,864,846,813,816,788,766,782,742,760,765,775,768,759,759,798,827,781,791,786,815,787,820,810,810,787,817,794,791,807,782,805,858,829,848,832,818,816,825,828,831,835,862,948,1072,1195,1293,1350,1348,1326,1305,1284,1288,1241,1220,1199,1177,1156,1135,1113,1092,1071,1050,1028,1007,986,964,943,922,900,879,858,842,838,840,842,845,840,855,882,876,877,871,859,864,876,874,867,882,898,922,902,892,874,854,877,862,860,858,883,869,886,853,853,872,869,889,913,1007,1226,1255,1333,1382,1496,1368,1357,1298,1286,1270,1276,1217,1199,1201,1212,1169,1145,1105,1083,1073,1033,1024,991,971,961,930,929,883,897,892,894,912,884,894,894,908,908,911,904,915,899,907,901,897,905,919,914,916,925,917,915,912,925,920,911,935,928,942,931,438,439,440,438,467,479,540,632,677,713,725,706,691,679,676,697,653,643,631,619,609,597,609,574,562,551,539,523,514,505,514,482,490,460,448,466,468,447,454,448,453,448,455,463,450,457,462,454,458,455,458,461,461,471,468,463,455,469,460,471,467,473,473,483,488,0,0,0,0,0,0,0,0,0,0,0,0,0,0,0,0,0,0,0,0,0,0,0,0,0,0,0,0,0,0,0,0,0,0,0,0,0,0,0,0,0,0,0,0,0,0,0,0,0,0,0,0,0,0,0,0,0,0,0,0,0,0,0,0,0,707,728,725,718,749,821,1014,1062,1084,1137,1247,1131,1114,1058,1069,1072,1047,1010,989,982,1008,958,938,930,911,905,868,862,833,816,782,782,787,741,728,723,724,742,730,729,732,738,741,731,739,739,746,743,738,744,763,738,741,743,766,737,740,747,752,747,753,745,740,745,739,965,973,1033,990,1048,1171,1313,1526,1558,1593,1594,1619,1547,1490,1496,1466,1398,1384,1370,1364,1338,1324,1303,1320,1223,1215,1169,1159,1119,1096,1068,1043,1018,979,988,973,995,965,1004,996,999,1011,1004,1011,1008,1009,1020,1004,1017,1000,1017,1008,1013,1013,1007,1017,1006,1021,1004,1009,1014,1026,1007,1014,1004,528,534,535,548,540,600,667,743,842,869,874,863,859,811,814,792,791,758,762,757,734,731,706,692,679,665,651,640,623,609,592,581,567,542,540,536,541,539,526,531,537,557,541,540,527,537,530,526,533,533,533,533,536,545,541,540,532,538,534,545,539,540,539,545,539,990,972,1000,1024,1050,1183,1424,1458,1559,1590,1595,1557,1531,1500,1542,1452,1453,1394,1376,1418,1334,1299,1272,1247,1261,1204,1186,1143,1118,1117,1087,1048,1014,1020,987,999,980,1046,1022,1015,1015,1019,1017,1017,1046,1035,1012,1004,1022,1026,1017,1013,1012,1013,1014,1027,1019,1020,1017,1016,1011,1035,1035,1043,1014,357,358,359,360,361,384,425,487,512,517,522,517,512,543,543,497,518,487,497,494,486,478,470,460,450,441,432,423,413,404,395,390,382,374,366,362,363,370,350,357,353,364,386,380,365,394,362,392,381,415,372,368,373,384,373,370,387,388,373,381,374,394,373,373,368,844,889,849,854,897,997,1164,1330,1342,1378,1375,1401,1332,1327,1288,1285,1244,1222,1201,1179,1157,1135,1113,1091,1069,1048,1026,1004,982,1008,938,916,895,873,956,1050,901,861,886,924,879,878,906,886,898,908,904,898,931,900,901,914,913,919,902,927,924,915,937,891,915,922,946,904,901,199,199,200,200,201,208,235,262,289,316,330,325,320,315,309,304,299,294,289,283,278,273,268,263,257,252,247,242,237,231,226,221,216,211,205,202,202,203,189,185,182,186,185,186,190,193,185,185,189,189,189,185,186,189,189,189,185,186,184,185,187,186,188,194,188,641,643,645,649,662,698,824,1018,1024,1049,1056,1044,1033,1021,1010,998,987,976,1000,902,941,930,852,836,819,784,785,768,752,735,718,701,685,668,644,651,652,654,647,640,653,667,663,662,648,649,657,679,661,659,663,709,743,721,709,675,659,670,661,659,652,674,661,684,651,209,210,211,211,212,217,255,268,293,283,289,287,285,320,316,280,305,276,305,290,285,280,275,265,265,260,256,251,246,254,223,250,249,221,216,212,213,213,203,204,201,205,205,208,204,210,203,205,207,204,203,207,208,207,207,210,207,209,211,210,207,212,205,210,207,633,621,624,625,654,719,795,860,946,1015,1040,1019,1007,970,974,934,941,924,908,891,875,858,842,825,809,792,769,759,705,711,716,675,645,660,647,606,642,646,630,636,634,649,654,652,653,679,653,656,660,674,678,649,664,694,651,651,662,667,654,654,661,669,656,657,654,707,709,711,746,738,817,988,1108,1186,1163,1196,1195,1125,1107,1088,1070,1051,1032,1014,1029,977,958,939,978,902,884,866,846,881,809,815,772,801,735,753,750,720,776,728,741,741,738,760,732,751,763,747,741,764,736,754,746,759,760,924,873,785,759,747,743,744,738,756,785,733,0,0,0,0,0,0,0,0,0,0,0,0,0,0,0,0,0,0,0,0,0,0,0,0,0,0,0,0,0,0,0,0,0,0,0,0,0,0,0,0,0,0,0,0,0,0,0,0,0,0,0,0,0,0,0,0,0,0,0,0,0,0,0,0,0,1243,1268,1233,1281,1387,1557,1792,2003,1956,1982,1968,1942,1905,1985,1842,1821,1779,1748,1680,1649,1619,1588,1600,1559,1527,1496,1464,1403,1401,1376,1405,1328,1277,1249,1311,1290,1258,1219,1289,1330,1288,1305,1318,1300,1309,1319,1315,1319,1329,1317,1338,1318,1325,1330,1335,1333,1335,1335,1371,1327,1355,1365,1381,1343,1337,283,284,296,297,287,314,342,382,422,461,491,465,458,450,443,435,428,420,412,405,397,390,382,375,367,360,352,358,337,342,331,326,319,299,292,287,288,289,281,281,282,282,304,294,291,311,294,311,292,291,295,291,289,303,297,289,300,286,284,297,294,307,294,296,292,357,358,359,360,361,384,425,487,512,517,522,517,512,543,543,497,518,487,497,494,486,478,470,460,450,441,432,423,413,404,395,390,382,374,366,362,363,370,350,357,353,364,386,380,365,394,362,392,381,415,372,368,373,384,373,370,387,388,373,381,374,394,373,373,368,1088,1100,1116,1172,1259,1373,1559,1697,1778,1769,1781,1827,1776,1717,1670,1647,1608,1582,1525,1523,1498,1463,1437,1499,1397,1349,1320,1306,1278,1253,1204,1243,1184,1128,1132,1126,1110,1117,1144,1149,1145,1198,1145,1184,1152,1182,1174,1175,1193,1160,1177,1165,1167,1185,1179,1177,1176,1173,1183,1170,1179,1182,1181,1216,1192,427,394,395,419,420,417,460,503,546,584,704,587,579,571,562,554,546,538,530,522,514,506,498,490,482,474,466,458,504,442,433,425,417,409,401,397,398,435,387,383,391,402,385,391,387,392,396,389,393,389,391,394,391,395,394,395,396,397,394,396,400,420,419,424,419,979,1009,946,973,1015,1194,1295,1510,1508,1575,1537,1545,1543,1444,1504,1416,1372,1368,1369,1320,1296,1272,1247,1223,1182,1175,1151,1179,1087,1063,1069,1016,1019,1033,996,954,949,999,1021,961,967,977,991,1017,1000,1019,1001,1015,1017,986,1003,984,993,1005,1000,984,1006,992,982,996,1000,1017,999,1012,999,1552,1508,1607,1624,1754,2121,2240,2484,2363,2410,2492,2372,2310,2243,2292,2175,2133,2101,2077,2026,2002,1951,1911,1897,1843,1802,1765,1804,1675,1638,1630,1581,1561,1565,1522,1512,1497,1548,1610,1608,1617,1620,1623,1609,1627,1642,1620,1624,1632,1634,1712,1709,1657,1636,1654,1682,1678,1743,1741,1640,1679,1761,1761,1727,1669,1195,1219,1157,1202,1263,1495,1550,1763,1760,1791,1841,1824,1785,1684,1778,1652,1605,1628,1600,1547,1520,1519,1491,1476,1420,1410,1382,1440,1313,1286,1288,1217,1230,1244,1208,1166,1162,1212,1226,1223,1269,1535,1275,1208,1258,1353,1294,1229,1328,1303,1252,1260,1340,1315,1306,1216,1252,1244,1294,1296,1235,1275,1238,1242,1261,570,571,551,575,570,632,723,799,880,924,929,923,913,864,870,863,829,833,819,804,789,774,759,744,705,708,700,700,648,640,640,605,610,614,569,559,580,581,595,561,567,570,562,583,573,590,583,576,593,570,575,572,571,582,579,578,573,576,572,571,576,579,577,596,583,827,872,841,851,894,1019,1164,1326,1332,1418,1409,1396,1352,1287,1333,1238,1241,1275,1229,1153,1188,1174,1162,1088,1045,1051,1003,1026,991,1016,917,894,948,853,911,852,856,891,856,859,861,863,863,864,862,867,863,875,871,871,874,875,881,888,884,884,883,885,884,888,889,893,890,892,890,1035,1031,968,996,1040,1222,1326,1540,1538,1571,1566,1573,1571,1472,1531,1444,1399,1395,1370,1346,1321,1297,1272,1248,1207,1199,1175,1236,1110,1086,1092,1038,1041,1055,1018,976,971,1021,1003,997,1013,1046,1028,1030,1030,1046,1035,1034,1051,1030,1038,1062,1070,1070,1076,1038,1032,1043,1035,1030,1022,1052,1030,1054,1028,0,0,0,0,0,0,0,0,0,0,0,0,0,0,0,0,0,0,0,0,0,0,0,0,0,0,0,0,0,0,0,0,0,0,0,0,0,0,0,0,0,0,0,0,0,0,0,0,0,0,0,0,0,0,0,0,0,0,0,0,0,0,0,0,0,1022,990,985,986,1026,1180,1327,1480,1576,1595,1598,1597,1522,1525,1519,1444,1436,1403,1419,1333,1312,1317,1282,1238,1216,1210,1165,1250,1100,1071,1091,1028,1030,1040,988,988,961,1010,991,1030,993,997,1016,1006,1003,1013,1012,1022,1029,1005,1019,1012,1021,1027,1029,1035,1020,1031,1055,1022,1035,1035,1052,1035,1026,1088,1100,1116,1172,1259,1373,1559,1697,1778,1769,1781,1827,1776,1717,1670,1647,1608,1582,1525,1523,1498,1463,1437,1499,1397,1349,1320,1306,1278,1253,1204,1243,1184,1128,1132,1126,1110,1117,1144,1149,1145,1198,1145,1184,1152,1182,1174,1175,1193,1160,1177,1165,1167,1185,1179,1177,1176,1173,1183,1170,1179,1182,1181,1216,1192,476,477,479,480,484,526,596,666,735,782,789,776,789,751,763,726,713,701,688,676,663,650,638,625,613,600,587,575,562,550,537,524,512,499,487,483,484,486,476,480,485,506,492,483,488,504,484,491,501,511,552,540,556,526,485,487,498,503,498,481,495,506,495,496,493,816,766,797,797,785,846,1042,1166,1157,1197,1196,1177,1185,1139,1120,1101,1170,1064,1045,1089,1030,988,969,950,952,981,893,910,874,836,835,816,779,760,839,743,745,747,735,736,737,739,741,743,744,747,749,762,753,755,753,755,756,758,759,760,762,766,764,766,767,769,769,772,772,222,222,223,224,224,233,264,294,324,355,368,363,357,351,345,339,334,328,322,316,310,305,299,293,287,281,276,270,264,258,252,247,241,235,229,225,226,226,209,211,211,208,210,209,212,211,210,209,210,209,213,209,213,208,210,212,209,210,210,209,208,210,207,210,208,597,599,601,602,614,673,762,851,935,980,983,968,953,936,921,906,889,874,859,842,827,811,796,780,764,749,849,717,702,686,670,655,639,623,610,606,608,609,608,613,613,617,619,621,613,624,614,618,616,622,634,660,649,636,622,632,626,623,625,632,618,632,610,623,621,430,424,435,437,435,462,511,528,571,634,640,632,624,616,607,599,591,583,588,566,558,550,530,542,525,524,509,500,497,488,479,470,461,451,443,436,440,438,430,432,434,449,470,453,444,476,446,477,463,476,554,521,555,487,455,441,468,453,445,452,455,475,454,452,448,439,410,441,412,433,448,540,607,651,667,725,665,697,644,657,668,656,645,589,579,610,595,587,571,564,553,541,530,518,472,495,484,472,461,422,435,447,448,434,440,439,445,447,442,449,452,437,452,440,441,449,458,461,457,472,450,439,439,448,447,435,446,442,452,440,530,524,500,502,574,580,616,681,745,796,886,852,768,764,751,825,726,708,697,723,676,739,665,638,626,680,631,591,607,629,555,543,531,519,508,557,562,563,517,515,516,529,522,532,519,524,527,526,522,523,519,525,523,518,524,530,529,525,524,523,531,538,534,539,532,243,244,245,246,246,257,289,325,353,372,382,392,386,380,374,368,362,356,349,341,337,332,328,323,319,314,310,294,288,282,276,269,263,257,251,247,248,248,246,249,236,238,258,263,254,266,251,269,258,287,274,285,259,303,270,249,261,254,273,296,285,307,288,300,274,1173,1117,1132,1191,1221,1383,1612,1788,1777,1763,1753,1766,1812,1739,1680,1651,1606,1556,1586,1590,1557,1479,1450,1421,1413,1408,1344,1335,1267,1249,1283,1182,1136,1113,1166,1098,1129,1104,1180,1164,1174,1176,1175,1168,1195,1190,1156,1159,1175,1168,1162,1175,1173,1169,1161,1176,1172,1172,1183,1181,1157,1173,1167,1172,1164,0,0,0,0,0,0,0,0,0,0,0,0,0,0,0,0,0,0,0,0,0,0,0,0,0,0,0,0,0,0,0,0,0,0,0,0,0,0,0,0,0,0,0,0,0,0,0,0,0,0,0,0,0,0,0,0,0,0,0,0,0,0,0,0,0,476,477,479,480,484,526,596,666,735,782,789,776,789,751,763,726,713,701,688,676,663,650,638,625,613,600,587,575,562,550,537,524,512,499,487,483,484,486,476,480,485,506,492,483,488,504,484,491,501,511,552,540,556,526,485,487,498,503,498,481,495,506,495,496,493,0,0,0,0,0,0,0,0,0,0,0,0,0,0,0,0,0,0,0,0,0,0,0,0,0,0,0,0,0,0,0,0,0,0,0,0,0,0,0,0,0,0,0,0,0,0,0,0,0,0,0,0,0,0,0,0,0,0,0,0,0,0,0,0,0,988,1004,1034,1023,1065,1215,1344,1572,1622,1628,1621,1592,1540,1511,1497,1492,1466,1393,1415,1386,1409,1360,1328,1300,1260,1234,1169,1186,1185,1094,1105,1095,1092,1017,1004,1016,1038,1021,1023,1014,1024,1030,1029,1017,1024,1026,1027,1038,1042,1036,1034,1091,1036,1032,1096,1046,1035,1040,1044,1040,1039,1042,1045,1052,1055,482,484,485,486,490,505,545,586,626,658,668,660,653,645,638,630,622,615,607,600,592,584,577,569,562,554,546,539,531,524,516,508,501,493,514,489,484,491,473,476,472,484,547,519,518,525,495,556,521,531,518,487,492,518,501,493,533,501,486,517,506,544,522,529,502,723,724,726,728,762,804,890,975,1048,1088,1094,1079,1064,1049,1034,1018,1003,988,973,958,943,955,913,897,910,867,852,837,837,807,792,776,761,746,735,745,859,734,769,752,770,774,768,754,828,835,763,798,791,755,749,817,831,858,832,838,818,835,830,828,787,775,752,761,772,173,174,174,175,175,179,199,219,238,258,271,267,263,259,255,251,248,244,240,236,232,228,225,221,217,213,209,205,202,198,194,190,186,183,179,176,176,176,162,159,162,164,159,169,164,172,171,165,172,162,165,163,163,166,163,163,163,165,163,161,162,164,162,167,164,898,907,909,898,978,1028,1163,1319,1348,1369,1367,1389,1366,1311,1322,1273,1254,1235,1216,1210,1187,1160,1161,1120,1103,1075,1074,1031,1028,1009,1004,941,936,897,934,898,926,903,912,899,902,907,959,938,940,939,927,959,935,919,936,906,912,930,927,914,935,912,907,931,927,952,938,942,932,998,1023,1004,1088,1092,1214,1367,1558,1557,1622,1715,1584,1544,1572,1494,1470,1520,1469,1408,1426,1444,1377,1297,1322,1332,1318,1228,1172,1147,1162,1098,1122,1076,1059,1015,1064,1015,1055,1054,1053,1053,1083,1068,1088,1053,1065,1066,1061,1093,1076,1111,1112,1099,1091,1097,1083,1072,1087,1087,1081,1078,1078,1072,1097,1066,375,376,377,378,379,402,448,495,542,615,611,602,577,568,559,550,542,533,524,515,507,498,489,480,471,463,454,445,436,428,419,410,401,392,384,380,381,381,369,369,369,372,381,372,380,374,373,374,372,376,377,383,376,378,417,411,387,393,381,371,389,374,387,377,372,1388,1356,1457,1442,1592,1809,1933,2295,2186,2182,2207,2168,2158,2030,2045,1993,1995,1877,1999,1886,1915,1891,1800,1729,1681,1686,1573,1580,1599,1500,1473,1481,1446,1371,1403,1425,1396,1379,1464,1470,1421,1430,1460,1452,1455,1467,1461,1470,1517,1465,1478,1488,1489,1494,1466,1496,1509,1507,1541,1493,1486,1494,1544,1478,1482,574,595,577,620,598,641,718,814,872,930,981,920,903,889,878,864,850,820,820,806,807,764,750,737,723,740,708,681,667,653,639,625,623,597,585,582,583,585,575,573,568,577,582,609,577,584,596,592,580,585,575,584,583,570,584,588,586,586,579,580,594,602,596,602,592,0,0,0,0,0,0,0,0,0,0,0,0,0,0,0,0,0,0,0,0,0,0,0,0,0,0,0,0,0,0,0,0,0,0,0,0,0,0,0,0,0,0,0,0,0,0,0,0,0,0,0,0,0,0,0,0,0,0,0,0,0,0,0,0,0 ]);
