n = 10;
D = [186,230,262,77,163,112,166,191,152,87 ];
q = 0;
prec = array2d(1..0,1..2,[]);
steps = 64;
l = 360;
r = 0;
which = [];
interval = array2d(1..0,1..2,[]);
T = array3d(1..11,1..11,0..64,[0,0,0,0,0,0,0,0,0,0,0,0,0,0,0,0,0,0,0,0,0,0,0,0,0,0,0,0,0,0,0,0,0,0,0,0,0,0,0,0,0,0,0,0,0,0,0,0,0,0,0,0,0,0,0,0,0,0,0,0,0,0,0,0,0,345,346,347,348,349,371,420,469,518,563,575,565,556,547,538,529,520,510,501,492,483,474,465,455,446,437,428,419,410,400,391,382,373,364,355,350,351,352,342,341,341,346,346,345,345,351,340,346,346,343,345,348,348,346,346,348,348,347,350,345,345,346,347,348,346,1041,1082,1061,1129,1144,1271,1532,1637,1673,1704,1682,1656,1625,1617,1612,1549,1577,1584,1508,1442,1415,1389,1371,1387,1309,1282,1267,1232,1206,1175,1148,1125,1108,1132,1060,1056,1059,1061,1096,1101,1090,1098,1077,1097,1095,1096,1119,1173,1105,1113,1119,1114,1108,1141,1138,1111,1100,1099,1114,1124,1105,1120,1119,1119,1110,976,1017,996,1061,1059,1179,1429,1533,1570,1604,1583,1558,1533,1523,1519,1457,1483,1500,1416,1357,1332,1306,1294,1308,1231,1206,1192,1155,1130,1105,1080,1055,1101,1066,994,991,993,1067,1038,1015,1013,1022,1060,1077,1044,1055,1051,1078,1087,1068,1092,1066,1069,1088,1096,1054,1080,1081,1078,1114,1091,1105,1122,1141,1099,1075,1032,1087,1112,1192,1258,1424,1697,1639,1694,1664,1637,1611,1584,1558,1621,1602,1479,1451,1426,1420,1373,1347,1321,1318,1268,1259,1215,1189,1162,1133,1106,1169,1183,1048,1045,1099,1051,1085,1093,1087,1104,1100,1114,1104,1115,1104,1119,1106,1111,1103,1099,1092,1092,1105,1112,1098,1101,1092,1095,1097,1112,1111,1111,1090,1412,1351,1395,1513,1557,1792,1998,2283,2132,2222,2298,2105,2071,2060,2081,2028,1952,1946,1914,1868,1887,1760,1730,1739,1727,1715,1611,1650,1564,1490,1467,1469,1428,1455,1395,1356,1360,1461,1440,1428,1435,1448,1429,1467,1445,1460,1460,1460,1487,1463,1468,1466,1465,1489,1509,1468,1470,1488,1471,1478,1480,1476,1490,1514,1490,813,821,815,825,863,944,1117,1266,1309,1345,1347,1325,1304,1276,1265,1259,1218,1191,1179,1130,1121,1095,1108,1047,1048,1003,990,991,957,937,920,943,874,871,847,828,835,841,844,846,845,854,858,853,846,867,841,853,851,846,850,866,859,856,860,858,854,855,864,864,847,852,855,860,850,963,961,968,979,1066,1231,1447,1620,1716,1742,1730,1692,1666,1632,1602,1567,1538,1506,1468,1441,1407,1377,1340,1313,1281,1249,1219,1180,1152,1116,1088,1056,1024,990,979,981,987,993,994,1036,997,1000,1028,1001,1012,1019,1016,1030,1028,1014,1024,1015,1024,1021,1035,1035,1029,1032,1058,1016,1031,1035,1053,1031,1027,758,785,763,868,796,880,1075,1173,1201,1241,1242,1242,1263,1183,1200,1177,1175,1183,1138,1095,1044,1025,1055,1014,965,945,926,906,886,866,846,827,857,810,774,770,772,800,784,782,792,808,805,795,793,798,799,808,810,802,804,840,860,844,832,810,802,813,807,801,793,817,800,818,795,670,675,677,679,692,754,833,929,962,1020,1043,1026,1019,987,992,940,945,934,921,922,916,898,892,846,853,828,825,789,776,784,763,751,716,711,686,686,684,686,686,679,693,684,700,725,689,694,702,707,716,708,709,714,708,710,699,700,693,709,694,712,709,712,706,708,729,0,0,0,0,0,0,0,0,0,0,0,0,0,0,0,0,0,0,0,0,0,0,0,0,0,0,0,0,0,0,0,0,0,0,0,0,0,0,0,0,0,0,0,0,0,0,0,0,0,0,0,0,0,0,0,0,0,0,0,0,0,0,0,0,0,372,373,374,375,376,402,455,509,562,609,619,609,599,589,580,570,560,550,540,530,520,510,501,491,481,471,461,451,441,431,421,412,402,392,382,377,378,379,369,366,369,385,381,372,369,373,378,384,391,400,499,496,536,425,387,378,377,381,377,379,373,377,378,387,377,0,0,0,0,0,0,0,0,0,0,0,0,0,0,0,0,0,0,0,0,0,0,0,0,0,0,0,0,0,0,0,0,0,0,0,0,0,0,0,0,0,0,0,0,0,0,0,0,0,0,0,0,0,0,0,0,0,0,0,0,0,0,0,0,0,843,810,839,857,880,1020,1125,1242,1323,1383,1373,1372,1329,1331,1284,1257,1251,1226,1189,1169,1187,1134,1116,1055,1068,1047,1013,991,974,960,927,922,899,886,852,865,856,867,861,873,861,886,864,863,878,890,875,883,871,869,867,867,879,876,883,890,874,884,891,878,885,889,878,876,874,778,786,774,787,805,926,1028,1130,1219,1285,1272,1268,1232,1235,1190,1164,1163,1131,1104,1082,1087,1050,1030,1002,958,969,937,917,902,888,857,857,807,807,782,799,793,813,790,797,793,809,814,817,809,810,801,807,817,824,827,835,836,821,817,822,823,820,830,813,818,828,806,815,812,748,755,742,823,889,852,960,1147,1164,1204,1203,1279,1272,1146,1127,1108,1088,1070,1050,1031,1013,1004,975,955,936,918,898,879,861,842,823,804,784,781,752,773,830,832,770,763,781,772,785,817,776,783,791,794,807,793,795,801,798,800,789,791,784,801,783,795,799,801,795,799,817,1078,1176,1086,1137,1176,1293,1508,1651,1695,1770,1746,1759,1636,1609,1631,1607,1528,1578,1489,1495,1420,1403,1423,1410,1378,1328,1275,1294,1205,1217,1248,1236,1094,1118,1059,1114,1098,1115,1116,1153,1124,1138,1157,1144,1135,1142,1146,1151,1153,1131,1139,1147,1152,1157,1156,1165,1156,1151,1164,1160,1174,1204,1208,1203,1193,559,562,581,565,590,626,707,816,868,924,918,929,889,898,858,880,843,817,835,788,773,759,744,730,716,701,708,693,658,643,629,623,606,584,571,584,570,577,568,569,565,571,583,580,577,598,584,603,584,593,591,587,577,598,587,594,591,579,582,601,586,599,584,585,579,921,923,926,935,960,1061,1224,1335,1420,1614,1480,1478,1424,1410,1378,1492,1467,1335,1311,1261,1372,1239,1191,1191,1151,1144,1120,1096,1164,1131,1003,980,977,935,940,915,917,925,937,955,960,945,945,957,973,967,959,951,1007,952,971,957,970,985,994,1003,985,965,976,974,961,957,955,1009,940,580,593,597,597,625,718,755,884,900,971,949,978,943,982,931,897,881,866,883,833,819,804,818,757,757,744,726,711,695,680,690,642,633,641,604,600,664,604,609,615,619,640,630,621,622,634,618,634,636,644,680,676,697,679,629,625,638,630,632,622,632,639,624,634,626,433,434,459,437,457,464,513,561,609,730,716,728,639,669,621,609,656,594,585,576,567,558,549,540,563,523,514,505,496,487,533,469,460,451,442,427,465,449,446,437,437,439,446,442,446,439,447,445,445,441,454,447,448,442,440,450,444,453,440,441,450,447,444,440,438,372,373,374,375,376,402,455,509,562,609,619,609,599,589,580,570,560,550,540,530,520,510,501,491,481,471,461,451,441,431,421,412,402,392,382,377,378,379,369,366,369,385,381,372,369,373,378,384,391,400,499,496,536,425,387,378,377,381,377,379,373,377,378,387,377,1317,1280,1347,1373,1528,1640,1879,1981,2102,2086,2060,2011,2056,1973,1943,1908,1893,1814,1796,1763,1758,1724,1651,1636,1608,1551,1560,1512,1533,1424,1427,1373,1338,1306,1334,1293,1315,1358,1386,1357,1371,1394,1375,1387,1375,1402,1384,1391,1390,1373,1391,1414,1437,1420,1412,1404,1373,1396,1382,1375,1369,1405,1390,1410,1376,1010,1046,1038,1113,1113,1280,1418,1565,1662,1702,1653,1620,1604,1684,1567,1540,1510,1457,1445,1420,1384,1407,1410,1307,1288,1286,1278,1220,1199,1196,1113,1125,1085,1088,1041,1067,1050,1065,1075,1074,1072,1087,1101,1080,1098,1101,1092,1088,1096,1104,1175,1179,1184,1144,1111,1108,1100,1108,1093,1092,1105,1088,1096,1110,1087,0,0,0,0,0,0,0,0,0,0,0,0,0,0,0,0,0,0,0,0,0,0,0,0,0,0,0,0,0,0,0,0,0,0,0,0,0,0,0,0,0,0,0,0,0,0,0,0,0,0,0,0,0,0,0,0,0,0,0,0,0,0,0,0,0,286,286,287,288,289,304,345,385,426,466,479,471,463,456,448,440,433,425,417,410,402,394,387,379,371,364,356,348,341,333,325,318,310,302,295,290,291,292,277,284,282,291,289,292,284,297,280,299,289,308,286,289,299,307,294,292,294,296,295,292,292,295,284,287,284,679,682,684,686,775,775,877,978,1066,1108,1110,1093,1075,1058,1040,1023,1005,988,970,953,935,918,900,882,865,847,830,812,795,777,760,742,725,707,757,690,691,693,694,698,699,721,712,705,736,709,705,738,730,713,713,712,700,709,709,720,710,702,702,707,707,709,712,715,702,945,935,944,961,1069,1125,1284,1412,1646,1585,1523,1499,1475,1461,1426,1402,1369,1354,1329,1296,1272,1264,1233,1209,1176,1152,1128,1112,1080,1063,1039,1015,998,1016,955,952,955,958,983,988,943,940,994,974,970,977,974,990,1037,986,1004,1016,1021,998,999,1011,1012,1034,1067,1012,998,1012,1065,1014,985,514,515,527,528,523,567,641,714,788,835,843,829,816,803,790,795,763,750,737,741,710,697,684,671,657,644,646,633,604,591,659,565,559,538,526,529,523,524,523,530,533,546,567,562,545,571,536,584,554,567,553,544,560,578,559,547,565,550,550,563,554,570,545,550,540,1797,1702,1977,1958,2235,2497,2752,2866,2838,2900,2814,2764,2723,2842,2620,2565,2503,2461,2405,2374,2301,2255,2215,2159,2166,2075,2007,1991,1949,1879,1818,1784,1864,1747,1721,1716,1724,1745,1983,1970,1948,1955,2003,1975,1993,2006,1994,1992,2037,1995,2006,2019,2037,2046,2041,2068,2046,2046,2060,2023,2015,2017,2055,2011,2002,559,561,602,578,573,625,720,838,871,965,935,908,939,879,864,849,835,862,846,801,816,785,764,769,734,703,719,673,679,644,644,614,600,599,602,568,569,571,580,588,569,668,608,588,593,608,592,587,594,602,601,585,577,587,587,593,587,584,577,582,577,584,592,585,563,1296,1355,1402,1444,1528,1719,1918,2099,2157,2219,2144,2107,2034,2006,1976,1945,1931,1847,1818,1808,1841,1723,1727,1726,1685,1664,1584,1559,1517,1482,1470,1424,1373,1395,1327,1353,1368,1337,1397,1382,1389,1387,1517,1422,1424,1415,1409,1420,1503,1507,1427,1426,1430,1445,1581,1461,1438,1438,1472,1450,1444,1434,1466,1495,1471,1317,1280,1347,1373,1528,1640,1879,1981,2102,2086,2060,2011,2056,1973,1943,1908,1893,1814,1796,1763,1758,1724,1651,1636,1608,1551,1560,1512,1533,1424,1427,1373,1338,1306,1334,1293,1315,1358,1386,1357,1371,1394,1375,1387,1375,1402,1384,1391,1390,1373,1391,1414,1437,1420,1412,1404,1373,1396,1382,1375,1369,1405,1390,1410,1376,1023,1026,1011,1023,1094,1245,1551,1524,1607,1642,1602,1628,1639,1683,1554,1536,1547,1445,1416,1393,1395,1363,1296,1296,1245,1210,1230,1205,1208,1131,1091,1089,1040,1017,1055,1027,1031,1022,1042,1043,1030,1142,1068,1053,1052,1070,1060,1051,1052,1065,1063,1051,1038,1043,1052,1061,1053,1051,1039,1045,1047,1059,1068,1062,1037,752,754,757,762,800,882,992,1100,1191,1245,1271,1224,1204,1184,1156,1135,1116,1105,1126,1062,1089,1021,995,975,956,932,902,907,918,860,840,827,799,784,771,764,766,768,772,771,770,774,779,792,810,809,784,797,801,793,790,791,786,824,808,793,790,785,777,795,789,793,786,815,787,112,112,113,113,113,115,128,142,155,169,180,177,175,172,169,167,164,161,159,156,153,151,148,145,143,140,137,135,132,129,127,124,121,119,116,114,114,114,97,100,98,101,162,128,110,121,113,163,119,111,131,103,106,120,113,103,139,104,102,129,120,155,131,123,115,0,0,0,0,0,0,0,0,0,0,0,0,0,0,0,0,0,0,0,0,0,0,0,0,0,0,0,0,0,0,0,0,0,0,0,0,0,0,0,0,0,0,0,0,0,0,0,0,0,0,0,0,0,0,0,0,0,0,0,0,0,0,0,0,0,470,471,472,474,477,572,582,649,716,763,771,759,747,735,723,711,698,686,674,662,650,638,626,614,602,590,577,565,553,541,529,517,505,493,481,477,478,479,467,480,470,499,470,490,473,495,479,488,481,473,486,481,491,488,487,485,491,485,498,484,485,501,495,504,503,941,940,981,967,1009,1231,1393,1409,1562,1624,1588,1580,1560,1452,1430,1428,1399,1435,1331,1360,1281,1299,1298,1249,1179,1154,1136,1112,1204,1071,1039,1053,1022,967,987,980,974,956,976,971,990,1023,1000,1012,998,992,1001,1006,1008,990,1016,1029,1052,1032,1023,1006,982,1013,991,989,986,1017,1003,1021,984,218,219,220,220,221,228,257,285,314,342,356,351,345,340,334,329,324,318,313,307,302,296,291,285,280,274,269,264,258,253,247,242,236,231,225,221,222,223,208,215,209,225,211,222,211,228,212,219,215,209,216,216,219,217,217,216,217,216,225,217,212,216,212,218,217,1478,1481,1520,1647,1924,2124,2354,2486,2503,2529,2501,2459,2414,2354,2321,2279,2231,2253,2147,2122,2056,2015,1958,1909,1877,1826,1789,1747,1703,1642,1612,1583,1533,1516,1506,1522,1516,1595,1629,1620,1637,1639,1644,1682,1642,1655,1664,1656,1682,1658,1672,1670,1672,1672,1656,1670,1651,1677,1655,1664,1669,1689,1667,1674,1675,387,388,390,391,392,422,474,529,585,632,736,635,625,611,601,591,581,571,561,550,594,530,520,510,499,489,479,469,507,462,438,441,418,408,398,393,394,395,391,391,389,395,508,441,417,429,415,496,427,412,445,397,406,433,417,401,457,403,401,445,427,488,446,447,420,1041,1110,1061,1135,1192,1354,1496,1622,1746,1789,1693,1749,1640,1675,1586,1581,1589,1506,1499,1453,1427,1398,1396,1370,1320,1309,1332,1306,1397,1237,1172,1136,1119,1122,1099,1094,1095,1075,1105,1092,1116,1139,1128,1098,1106,1127,1115,1173,1212,1127,1219,1214,1157,1126,1143,1195,1160,1223,1227,1131,1165,1250,1248,1229,1152,1023,1026,1011,1023,1094,1245,1551,1524,1607,1642,1602,1628,1639,1683,1554,1536,1547,1445,1416,1393,1395,1363,1296,1296,1245,1210,1230,1205,1208,1131,1091,1089,1040,1017,1055,1027,1031,1022,1042,1043,1030,1142,1068,1053,1052,1070,1060,1051,1052,1065,1063,1051,1038,1043,1052,1061,1053,1051,1039,1045,1047,1059,1068,1062,1037,1042,1034,1037,1092,1162,1310,1454,1592,1716,1697,1692,1682,1665,1594,1584,1602,1530,1518,1475,1472,1481,1394,1367,1340,1312,1307,1259,1296,1205,1178,1182,1171,1097,1074,1062,1070,1073,1076,1078,1078,1092,1098,1097,1136,1091,1107,1112,1107,1134,1108,1113,1116,1113,1119,1105,1111,1104,1120,1101,1115,1114,1131,1115,1126,1130,783,785,787,791,840,916,1038,1160,1213,1283,1284,1279,1242,1221,1202,1229,1160,1155,1119,1098,1078,1057,1037,1017,996,989,954,990,915,893,904,852,871,811,798,805,804,810,800,797,806,815,817,828,814,833,807,836,823,807,815,812,814,825,820,817,821,807,816,822,814,821,814,839,817,635,637,633,641,654,710,803,896,982,1026,1031,1014,1007,982,974,949,933,965,900,892,868,852,843,862,845,787,777,759,738,719,705,689,708,656,649,645,646,642,631,629,633,648,636,644,633,638,646,639,636,636,633,639,636,632,639,644,641,641,638,639,645,654,649,655,647,540,542,543,545,551,600,679,758,836,882,889,875,861,847,833,819,805,809,777,763,749,735,720,750,735,678,664,655,636,620,608,594,615,566,553,548,550,551,545,552,544,561,555,563,550,555,557,555,552,553,547,552,550,546,553,559,556,554,550,554,557,572,561,568,557,0,0,0,0,0,0,0,0,0,0,0,0,0,0,0,0,0,0,0,0,0,0,0,0,0,0,0,0,0,0,0,0,0,0,0,0,0,0,0,0,0,0,0,0,0,0,0,0,0,0,0,0,0,0,0,0,0,0,0,0,0,0,0,0,0,495,497,498,500,504,546,618,691,763,812,820,807,794,781,768,755,742,729,716,702,689,676,663,650,637,624,611,598,585,572,559,546,533,520,507,503,504,506,486,490,499,522,493,503,492,506,492,496,498,494,490,495,499,507,500,501,496,496,502,500,496,503,490,500,494,586,588,590,592,601,657,742,827,909,967,956,957,930,915,900,885,870,855,835,824,809,796,779,760,749,734,719,703,688,671,658,643,628,610,600,595,597,598,584,584,595,614,600,605,592,603,595,621,600,595,610,619,642,647,626,609,608,614,608,603,610,631,605,617,598,1430,1490,1543,1539,1724,2004,2204,2557,2407,2441,2393,2352,2349,2307,2294,2255,2270,2128,2100,2158,2114,1941,2017,1851,1906,1888,1725,1816,1753,1629,1695,1548,1487,1465,1542,1523,1533,1532,1635,1634,1629,1669,1693,1680,1660,1665,1675,1715,1682,1720,1790,1779,1759,1721,1686,1689,1697,1673,1715,1757,1719,1726,1728,1696,1682,756,758,761,763,793,877,993,1113,1217,1231,1256,1237,1200,1179,1177,1140,1164,1146,1097,1116,1043,1021,1002,984,986,942,923,903,883,861,844,825,804,824,771,809,769,771,778,781,779,791,779,787,784,798,797,778,795,784,790,784,786,794,789,790,785,794,785,792,786,802,789,795,790,1086,1060,1070,1098,1152,1299,1490,1645,1711,1677,1732,1721,1703,1649,1561,1555,1572,1513,1490,1539,1419,1397,1338,1399,1314,1287,1276,1275,1207,1202,1135,1127,1099,1051,1066,1072,1066,1092,1091,1095,1077,1093,1076,1116,1083,1092,1121,1167,1096,1112,1107,1108,1106,1123,1130,1104,1093,1092,1101,1112,1104,1112,1110,1110,1096,1042,1034,1037,1092,1162,1310,1454,1592,1716,1697,1692,1682,1665,1594,1584,1602,1530,1518,1475,1472,1481,1394,1367,1340,1312,1307,1259,1296,1205,1178,1182,1171,1097,1074,1062,1070,1073,1076,1078,1078,1092,1098,1097,1136,1091,1107,1112,1107,1134,1108,1113,1116,1113,1119,1105,1111,1104,1120,1101,1115,1114,1131,1115,1126,1130,1314,1330,1369,1409,1533,1723,1976,2049,2152,2196,2125,2091,2058,2024,2061,1956,1990,1955,1854,1820,1786,1803,1704,1684,1667,1616,1582,1548,1514,1525,1446,1449,1381,1360,1348,1389,1374,1353,1440,1404,1411,1426,1409,1449,1418,1444,1455,1475,1456,1443,1449,1448,1465,1475,1476,1452,1456,1458,1452,1455,1459,1465,1452,1480,1459,1019,1060,1048,1045,1117,1248,1451,1551,1665,1736,1654,1627,1601,1575,1661,1522,1604,1500,1442,1416,1390,1411,1337,1310,1311,1257,1231,1204,1178,1152,1125,1137,1072,1050,1037,1072,1110,1040,1063,1057,1074,1104,1078,1083,1074,1084,1096,1088,1092,1076,1114,1114,1134,1119,1105,1095,1070,1101,1081,1081,1075,1103,1081,1108,1074,1007,1010,1019,1067,1097,1230,1392,1522,1666,1644,1659,1737,1578,1552,1576,1501,1483,1449,1469,1397,1416,1345,1320,1294,1275,1247,1221,1229,1164,1175,1113,1087,1061,1044,1025,1028,1031,1028,1050,1055,1058,1061,1062,1091,1067,1066,1060,1073,1073,1069,1058,1068,1081,1090,1080,1095,1082,1093,1085,1070,1070,1061,1082,1080,1055,918,921,924,944,986,1096,1241,1377,1482,1495,1492,1594,1445,1421,1416,1374,1350,1326,1320,1279,1271,1231,1208,1184,1160,1142,1118,1102,1065,1053,1018,994,970,948,935,932,934,937,947,937,948,962,969,988,944,974,944,950,965,967,963,974,982,1001,985,980,959,976,980,989,980,984,965,989,986,540,542,543,545,551,599,677,755,833,853,886,872,858,844,831,874,803,789,775,761,747,733,719,705,691,724,663,649,635,621,607,593,579,565,553,548,550,551,539,525,545,567,559,553,534,540,556,577,560,563,576,662,741,675,630,570,542,583,555,556,540,567,560,592,549,0,0,0,0,0,0,0,0,0,0,0,0,0,0,0,0,0,0,0,0,0,0,0,0,0,0,0,0,0,0,0,0,0,0,0,0,0,0,0,0,0,0,0,0,0,0,0,0,0,0,0,0,0,0,0,0,0,0,0,0,0,0,0,0,0,886,889,964,899,948,1052,1190,1322,1419,1487,1438,1451,1393,1383,1347,1325,1314,1279,1256,1233,1211,1188,1165,1142,1120,1107,1074,1077,1029,1006,992,960,938,916,926,899,902,904,912,911,908,908,913,915,907,907,914,919,909,917,914,920,917,914,917,919,919,919,915,915,921,935,937,937,937,1477,1573,1512,1621,2014,2105,2330,2517,2505,2646,2505,2462,2417,2379,2333,2274,2259,2431,2181,2133,2087,2159,2134,1948,1924,1857,1845,1763,1831,1693,1722,1579,1614,1574,1558,1690,1613,1522,1712,1681,1687,1723,1728,1735,1704,1767,1741,1762,1742,1735,1744,1712,1755,1744,1733,1715,1771,1732,1710,1729,1742,1757,1739,1736,1720,1167,1138,1142,1178,1265,1409,1600,1734,1811,1842,1881,1815,1769,1738,1712,1682,1711,1678,1594,1636,1537,1508,1517,1451,1433,1394,1365,1333,1304,1290,1288,1216,1187,1167,1161,1150,1153,1158,1191,1192,1202,1236,1205,1227,1208,1207,1205,1202,1228,1200,1210,1220,1218,1226,1219,1229,1206,1205,1215,1215,1207,1218,1206,1236,1211,1299,1279,1333,1356,1498,1726,1953,2093,2124,2261,2130,2155,2055,2048,1936,1931,1894,1888,1882,1831,1796,1719,1659,1640,1616,1598,1565,1549,1509,1492,1435,1360,1319,1370,1355,1311,1321,1348,1382,1382,1382,1392,1418,1387,1418,1417,1409,1413,1428,1421,1494,1501,1520,1483,1554,1510,1443,1440,1426,1420,1429,1412,1422,1461,1410,1314,1330,1369,1409,1533,1723,1976,2049,2152,2196,2125,2091,2058,2024,2061,1956,1990,1955,1854,1820,1786,1803,1704,1684,1667,1616,1582,1548,1514,1525,1446,1449,1381,1360,1348,1389,1374,1353,1440,1404,1411,1426,1409,1449,1418,1444,1455,1475,1456,1443,1449,1448,1465,1475,1476,1452,1456,1458,1452,1455,1459,1465,1452,1480,1459,819,821,824,828,889,964,1093,1201,1335,1364,1340,1316,1297,1276,1281,1233,1236,1190,1199,1171,1169,1104,1081,1060,1040,1004,997,976,954,948,912,890,869,836,853,849,833,835,847,850,838,905,873,848,851,871,858,873,904,868,876,855,846,853,868,868,850,854,841,853,843,854,863,858,831,586,547,551,553,561,660,695,777,857,900,906,941,878,863,848,825,819,805,782,768,761,747,732,715,698,689,675,661,646,631,617,602,588,567,560,557,552,559,548,546,552,556,577,553,555,561,562,561,554,553,554,553,561,571,636,631,585,569,561,557,563,556,561,562,555,450,448,449,450,456,490,554,609,675,725,734,722,711,699,684,682,670,653,642,630,624,604,596,589,573,565,550,542,526,515,503,492,484,469,457,453,454,455,440,442,446,457,441,455,446,456,457,444,458,445,447,447,447,454,449,452,449,454,450,453,448,462,449,460,452,382,383,384,385,386,412,444,519,572,620,631,621,611,574,591,581,571,561,551,541,531,521,511,501,492,482,472,462,452,422,413,422,412,402,392,387,388,389,389,371,373,372,383,383,378,386,377,378,381,385,383,385,387,393,393,392,385,388,386,387,391,393,396,395,395,498,499,501,502,506,548,619,691,762,809,817,804,791,779,766,753,740,727,714,702,689,676,663,650,637,624,616,599,586,573,560,547,535,522,510,505,506,508,501,496,503,510,511,513,502,511,503,541,508,503,509,509,508,518,517,515,504,515,506,519,513,513,511,519,514,993,1020,962,966,1095,1164,1290,1530,1542,1537,1668,1564,1557,1463,1531,1463,1407,1450,1425,1381,1311,1284,1292,1211,1250,1163,1191,1186,1113,1077,1052,1035,1039,1044,983,1008,973,1090,1022,1024,1022,1037,1039,1030,1038,1046,1019,1038,1034,1024,1036,1052,1045,1037,1068,1045,1027,1027,1038,1038,1017,1030,1032,1039,1027,0,0,0,0,0,0,0,0,0,0,0,0,0,0,0,0,0,0,0,0,0,0,0,0,0,0,0,0,0,0,0,0,0,0,0,0,0,0,0,0,0,0,0,0,0,0,0,0,0,0,0,0,0,0,0,0,0,0,0,0,0,0,0,0,0,1440,1480,1488,1557,1665,1960,2160,2445,2300,2469,2449,2277,2242,2345,2171,2101,2072,2062,2017,1980,1984,2009,1889,1853,1782,1766,1729,1705,1634,1645,1594,1525,1522,1506,1458,1456,1533,1464,1600,1544,1545,1563,1548,1575,1567,1566,1595,1652,1578,1598,1688,1593,1604,1688,1605,1589,1588,1597,1683,1758,1789,1826,1817,1650,1642,410,412,413,414,416,446,509,579,628,676,686,669,658,648,637,626,615,604,594,583,577,561,565,540,529,523,507,510,486,475,468,453,443,435,425,417,418,450,425,432,416,418,438,449,435,458,444,463,446,473,455,467,446,479,446,433,457,441,452,483,462,486,465,485,453,867,870,905,920,938,1060,1225,1298,1414,1457,1428,1399,1379,1356,1358,1286,1264,1272,1266,1219,1213,1177,1171,1128,1108,1111,1078,1061,1009,984,987,966,950,925,883,877,880,903,899,901,901,917,931,919,922,939,923,934,939,948,1019,1021,1030,966,922,924,946,937,923,916,935,925,930,924,919,819,821,824,828,889,964,1093,1201,1335,1364,1340,1316,1297,1276,1281,1233,1236,1190,1199,1171,1169,1104,1081,1060,1040,1004,997,976,954,948,912,890,869,836,853,849,833,835,847,850,838,905,873,848,851,871,858,873,904,868,876,855,846,853,868,868,850,854,841,853,843,854,863,858,831,1105,1107,1110,1138,1228,1423,1660,1831,1931,1965,1948,1913,1877,1842,1806,1771,1736,1700,1665,1629,1594,1559,1618,1581,1452,1417,1467,1346,1311,1275,1240,1204,1169,1140,1122,1199,1128,1135,1165,1169,1166,1219,1166,1205,1173,1203,1195,1197,1215,1182,1199,1187,1189,1207,1199,1199,1197,1195,1205,1193,1202,1204,1203,1238,1214,989,992,995,1007,1058,1181,1338,1480,1584,1620,1613,1588,1562,1536,1510,1485,1459,1447,1407,1381,1356,1330,1304,1278,1252,1227,1215,1175,1149,1123,1139,1072,1046,1022,1007,1004,1007,1009,1009,1052,1012,1009,1031,1014,1028,1037,1032,1031,1055,1028,1032,1039,1040,1046,1039,1054,1054,1047,1061,1027,1052,1061,1081,1042,1038,1582,1544,1661,1664,1883,2149,2352,2561,2627,2646,2578,2548,2531,2482,2487,2352,2279,2314,2220,2240,2083,2087,2048,1994,1996,1929,1897,1773,1778,1760,1729,1633,1598,1568,1548,1552,1563,1565,1688,1671,1670,1686,1717,1723,1716,1724,1703,1717,1763,1747,1825,1815,1832,1774,1793,1726,1736,1757,1753,1753,1740,1728,1763,1813,1744,1554,1478,1584,1583,1785,2043,2244,2455,2529,2528,2487,2458,2439,2391,2393,2268,2242,2225,2139,2140,2140,2008,1973,1917,1917,1856,1825,1742,1709,1692,1663,1567,1533,1503,1485,1486,1494,1501,1610,1610,1585,1603,1601,1643,1612,1627,1644,1711,1632,1683,1671,1685,1641,1696,1692,1635,1629,1636,1673,1704,1688,1709,1696,1696,1666,1246,1263,1256,1304,1460,1675,1971,2042,2126,2133,2115,2142,2108,2091,1968,1943,1906,1858,1871,1785,1759,1712,1675,1648,1658,1615,1538,1501,1464,1419,1518,1351,1358,1317,1268,1270,1278,1286,1364,1330,1333,1337,1371,1395,1378,1381,1368,1373,1412,1396,1434,1396,1415,1424,1443,1382,1397,1429,1457,1461,1442,1455,1488,1521,1424,1468,1485,1510,1588,1790,2049,2379,2400,2477,2477,2453,2474,2380,2368,2308,2303,2276,2158,2117,2116,2042,1989,1991,1914,1928,1869,1787,1781,1720,1687,1620,1575,1548,1503,1492,1556,1567,1561,1612,1637,1619,1635,1679,1639,1639,1649,1648,1643,1671,1662,1654,1654,1657,1658,1695,1685,1673,1672,1712,1657,1674,1696,1703,1688,1675,1506,1477,1524,1568,1752,2001,2258,2291,2353,2395,2469,2370,2307,2254,2232,2232,2170,2168,2069,2076,1979,1942,1907,1904,1904,1844,1839,1731,1682,1691,1618,1557,1535,1523,1475,1495,1512,1491,1568,1585,1583,1598,1605,1593,1606,1604,1596,1617,1617,1631,1628,1648,1633,1634,1673,1634,1620,1636,1634,1635,1633,1695,1652,1634,1636,0,0,0,0,0,0,0,0,0,0,0,0,0,0,0,0,0,0,0,0,0,0,0,0,0,0,0,0,0,0,0,0,0,0,0,0,0,0,0,0,0,0,0,0,0,0,0,0,0,0,0,0,0,0,0,0,0,0,0,0,0,0,0,0,0,1321,1248,1336,1308,1454,1684,1928,2095,2253,2200,2160,2156,2123,2080,2088,1967,1928,1953,1854,1843,1773,1737,1696,1676,1663,1633,1596,1502,1506,1471,1410,1348,1313,1282,1264,1264,1271,1278,1359,1361,1351,1378,1406,1402,1384,1384,1394,1427,1390,1426,1435,1414,1373,1398,1390,1407,1412,1382,1428,1478,1440,1441,1448,1405,1402,958,975,961,974,1036,1150,1313,1429,1497,1555,1542,1529,1496,1470,1457,1431,1415,1385,1340,1328,1298,1285,1254,1230,1209,1184,1157,1131,1107,1082,1074,1033,1011,986,985,970,972,975,988,990,988,997,999,993,997,1009,983,997,989,989,996,1007,1004,999,1005,1000,992,992,1006,1007,986,993,993,999,991,1105,1107,1110,1138,1228,1423,1660,1831,1931,1965,1948,1913,1877,1842,1806,1771,1736,1700,1665,1629,1594,1559,1618,1581,1452,1417,1467,1346,1311,1275,1240,1204,1169,1140,1122,1199,1128,1135,1165,1169,1166,1219,1166,1205,1173,1203,1195,1197,1215,1182,1199,1187,1189,1207,1199,1199,1197,1195,1205,1193,1202,1204,1203,1238,1214,755,761,752,737,742,823,952,1094,1203,1188,1217,1152,1134,1162,1148,1059,1059,1115,1021,1044,1026,958,991,928,926,956,930,904,886,867,845,827,792,772,774,741,724,726,740,752,748,756,784,753,758,770,753,761,751,754,751,766,777,792,947,882,789,775,769,756,756,755,774,768,752,520,522,524,507,541,581,658,773,847,845,863,862,835,822,807,792,792,780,753,769,805,678,728,683,720,683,675,662,646,632,613,596,583,567,544,537,569,551,555,547,557,555,561,572,556,560,559,560,575,563,569,567,568,580,571,567,559,568,564,575,570,568,564,582,583,393,394,395,396,408,424,475,533,588,636,646,636,631,637,606,595,590,522,565,575,559,535,525,519,504,499,484,474,461,454,459,437,423,413,413,409,410,411,403,402,403,406,408,411,409,423,409,416,404,414,402,419,411,415,416,418,410,410,409,417,411,412,399,410,403,328,329,330,331,342,351,396,442,487,531,542,534,525,532,508,500,491,483,474,466,471,449,440,431,423,414,406,397,389,380,383,363,355,346,348,343,344,345,328,332,327,335,402,371,368,381,351,409,369,379,373,341,347,368,358,343,387,355,341,373,361,401,377,371,355,717,740,722,736,748,848,965,1041,1129,1162,1205,1152,1196,1138,1097,1099,1330,1041,1044,1025,986,1014,1051,930,912,893,896,856,838,819,890,782,772,747,744,728,730,747,752,749,758,770,763,769,774,784,771,769,783,771,799,793,797,786,764,761,772,772,776,759,767,778,764,777,771,1182,1157,1237,1232,1332,1541,1695,1850,1912,1932,1908,1880,1910,1842,1776,1808,1759,1782,1705,1683,1569,1605,1532,1558,1549,1502,1429,1419,1432,1338,1357,1302,1341,1235,1252,1203,1226,1222,1305,1283,1275,1290,1299,1337,1353,1359,1311,1357,1317,1298,1300,1345,1350,1344,1348,1367,1352,1373,1342,1333,1332,1318,1297,1299,1282,318,319,320,321,322,339,382,425,469,510,559,514,506,498,490,481,473,465,457,449,441,433,425,417,408,400,392,384,376,368,360,352,344,336,327,323,324,325,314,318,315,320,324,327,318,328,317,319,319,318,315,326,324,324,320,323,324,322,330,334,319,328,315,322,320,1138,1140,1151,1189,1317,1525,1761,1921,1994,2012,2024,1959,1924,1891,1850,1811,1777,1741,1699,1668,1630,1595,1557,1532,1486,1457,1424,1385,1341,1305,1268,1230,1196,1168,1168,1169,1162,1169,1222,1212,1254,1506,1260,1198,1252,1345,1277,1221,1320,1290,1239,1244,1323,1300,1292,1208,1229,1228,1273,1277,1207,1264,1231,1235,1242,0,0,0,0,0,0,0,0,0,0,0,0,0,0,0,0,0,0,0,0,0,0,0,0,0,0,0,0,0,0,0,0,0,0,0,0,0,0,0,0,0,0,0,0,0,0,0,0,0,0,0,0,0,0,0,0,0,0,0,0,0,0,0,0,0,863,868,869,909,986,1038,1171,1316,1365,1421,1401,1354,1351,1310,1310,1316,1287,1224,1203,1286,1216,1171,1132,1147,1123,1140,1074,1056,1038,1010,982,960,913,917,909,885,888,890,889,915,900,931,902,896,900,922,912,936,897,892,907,901,971,906,929,901,927,920,919,890,924,932,907,925,919,755,761,752,737,742,823,952,1094,1203,1188,1217,1152,1134,1162,1148,1059,1059,1115,1021,1044,1026,958,991,928,926,956,930,904,886,867,845,827,792,772,774,741,724,726,740,752,748,756,784,753,758,770,753,761,751,754,751,766,777,792,947,882,789,775,769,756,756,755,774,768,752,761,809,767,778,808,882,1090,1158,1223,1276,1254,1244,1238,1176,1216,1150,1134,1099,1157,1085,1044,1048,1002,1031,968,983,990,967,886,907,857,816,808,801,833,822,775,821,785,787,794,822,794,808,795,798,791,786,807,795,823,837,829,808,806,813,808,814,813,797,806,814,787,802,800,481,483,484,485,489,522,647,649,695,744,744,743,732,722,712,701,691,670,675,649,653,628,617,607,596,586,575,565,554,543,533,522,512,539,544,488,489,490,491,494,494,502,516,514,507,526,503,514,510,517,502,524,508,521,519,518,522,509,500,522,509,524,498,515,503,1264,1315,1305,1347,1477,1589,1694,1912,1969,2000,2006,2026,1930,1922,1897,1857,1814,1830,1784,1720,1683,1622,1584,1576,1544,1553,1495,1460,1420,1404,1400,1354,1329,1302,1325,1245,1292,1296,1336,1342,1341,1343,1346,1335,1351,1359,1345,1345,1353,1358,1424,1427,1380,1356,1369,1391,1402,1464,1459,1358,1401,1475,1482,1452,1392,1199,1226,1236,1265,1388,1494,1649,1810,1868,1900,1909,1930,1835,1829,1806,1762,1756,1743,1698,1618,1600,1541,1550,1497,1478,1461,1421,1391,1374,1334,1333,1288,1260,1239,1256,1217,1226,1242,1282,1273,1264,1269,1281,1323,1306,1328,1305,1321,1322,1327,1325,1326,1313,1359,1348,1307,1325,1321,1325,1372,1334,1341,1344,1396,1343,1140,1199,1136,1205,1311,1509,1535,1709,1761,1785,1772,1749,1793,1788,1668,1658,1747,1708,1571,1589,1542,1463,1434,1489,1413,1375,1374,1314,1344,1297,1260,1277,1178,1157,1147,1150,1205,1165,1205,1206,1210,1226,1237,1245,1233,1239,1225,1252,1239,1243,1238,1271,1284,1279,1268,1239,1226,1241,1228,1223,1212,1243,1229,1243,1204,1447,1479,1495,1536,1691,1934,1975,2145,2229,2225,2239,2210,2125,2238,2144,2036,2020,2032,1925,1892,1936,1850,1806,1732,1768,1732,1685,1639,1624,1603,1589,1500,1553,1468,1452,1475,1474,1483,1535,1535,1548,1578,1548,1572,1551,1554,1549,1556,1590,1568,1575,1589,1588,1588,1586,1598,1567,1578,1590,1578,1579,1585,1570,1598,1594,1007,1003,1013,1012,1097,1173,1292,1492,1521,1550,1565,1593,1503,1502,1485,1446,1446,1449,1399,1321,1349,1294,1273,1226,1231,1201,1167,1142,1131,1127,1087,1062,1067,1045,1025,1000,1031,1034,1061,1067,1055,1141,1106,1101,1087,1080,1091,1119,1092,1112,1108,1100,1068,1080,1085,1105,1105,1076,1101,1130,1097,1088,1107,1084,1081,841,863,846,851,890,940,1118,1145,1218,1258,1260,1242,1224,1207,1189,1171,1154,1136,1118,1176,1083,1065,1047,1030,1012,994,977,959,941,923,906,888,870,871,842,854,856,858,838,853,852,868,931,905,875,924,877,952,896,928,901,875,898,937,900,878,923,892,883,911,904,939,901,896,883,1010,1091,1062,1046,1130,1289,1323,1500,1556,1584,1685,1648,1593,1565,1573,1475,1522,1465,1486,1348,1453,1362,1363,1320,1303,1312,1213,1228,1155,1128,1104,1080,1046,1051,1104,1018,1038,1087,1061,1072,1088,1112,1128,1135,1136,1091,1098,1124,1078,1069,1081,1088,1084,1076,1110,1097,1070,1068,1080,1074,1072,1080,1089,1112,1069,0,0,0,0,0,0,0,0,0,0,0,0,0,0,0,0,0,0,0,0,0,0,0,0,0,0,0,0,0,0,0,0,0,0,0,0,0,0,0,0,0,0,0,0,0,0,0,0,0,0,0,0,0,0,0,0,0,0,0,0,0,0,0,0,0,761,809,767,778,808,882,1090,1158,1223,1276,1254,1244,1238,1176,1216,1150,1134,1099,1157,1085,1044,1048,1002,1031,968,983,990,967,886,907,857,816,808,801,833,822,775,821,785,787,794,822,794,808,795,798,791,786,807,795,823,837,829,808,806,813,808,814,813,797,806,814,787,802,800,0,0,0,0,0,0,0,0,0,0,0,0,0,0,0,0,0,0,0,0,0,0,0,0,0,0,0,0,0,0,0,0,0,0,0,0,0,0,0,0,0,0,0,0,0,0,0,0,0,0,0,0,0,0,0,0,0,0,0,0,0,0,0,0,0,345,346,347,348,349,371,420,469,518,563,575,565,556,547,538,529,520,510,501,492,483,474,465,455,446,437,428,419,410,400,391,382,373,364,355,350,351,352,342,341,341,346,346,345,345,351,340,346,346,343,345,348,348,346,346,348,348,347,350,345,345,346,347,348,346,1041,1082,1061,1129,1144,1271,1532,1637,1673,1704,1682,1656,1625,1617,1612,1549,1577,1584,1508,1442,1415,1389,1371,1387,1309,1282,1267,1232,1206,1175,1148,1125,1108,1132,1060,1056,1059,1061,1096,1101,1090,1098,1077,1097,1095,1096,1119,1173,1105,1113,1119,1114,1108,1141,1138,1111,1100,1099,1114,1124,1105,1120,1119,1119,1110,976,1017,996,1061,1059,1179,1429,1533,1570,1604,1583,1558,1533,1523,1519,1457,1483,1500,1416,1357,1332,1306,1294,1308,1231,1206,1192,1155,1130,1105,1080,1055,1101,1066,994,991,993,1067,1038,1015,1013,1022,1060,1077,1044,1055,1051,1078,1087,1068,1092,1066,1069,1088,1096,1054,1080,1081,1078,1114,1091,1105,1122,1141,1099,1075,1032,1087,1112,1192,1258,1424,1697,1639,1694,1664,1637,1611,1584,1558,1621,1602,1479,1451,1426,1420,1373,1347,1321,1318,1268,1259,1215,1189,1162,1133,1106,1169,1183,1048,1045,1099,1051,1085,1093,1087,1104,1100,1114,1104,1115,1104,1119,1106,1111,1103,1099,1092,1092,1105,1112,1098,1101,1092,1095,1097,1112,1111,1111,1090,1412,1351,1395,1513,1557,1792,1998,2283,2132,2222,2298,2105,2071,2060,2081,2028,1952,1946,1914,1868,1887,1760,1730,1739,1727,1715,1611,1650,1564,1490,1467,1469,1428,1455,1395,1356,1360,1461,1440,1428,1435,1448,1429,1467,1445,1460,1460,1460,1487,1463,1468,1466,1465,1489,1509,1468,1470,1488,1471,1478,1480,1476,1490,1514,1490,813,821,815,825,863,944,1117,1266,1309,1345,1347,1325,1304,1276,1265,1259,1218,1191,1179,1130,1121,1095,1108,1047,1048,1003,990,991,957,937,920,943,874,871,847,828,835,841,844,846,845,854,858,853,846,867,841,853,851,846,850,866,859,856,860,858,854,855,864,864,847,852,855,860,850,963,961,968,979,1066,1231,1447,1620,1716,1742,1730,1692,1666,1632,1602,1567,1538,1506,1468,1441,1407,1377,1340,1313,1281,1249,1219,1180,1152,1116,1088,1056,1024,990,979,981,987,993,994,1036,997,1000,1028,1001,1012,1019,1016,1030,1028,1014,1024,1015,1024,1021,1035,1035,1029,1032,1058,1016,1031,1035,1053,1031,1027,758,785,763,868,796,880,1075,1173,1201,1241,1242,1242,1263,1183,1200,1177,1175,1183,1138,1095,1044,1025,1055,1014,965,945,926,906,886,866,846,827,857,810,774,770,772,800,784,782,792,808,805,795,793,798,799,808,810,802,804,840,860,844,832,810,802,813,807,801,793,817,800,818,795,670,675,677,679,692,754,833,929,962,1020,1043,1026,1019,987,992,940,945,934,921,922,916,898,892,846,853,828,825,789,776,784,763,751,716,711,686,686,684,686,686,679,693,684,700,725,689,694,702,707,716,708,709,714,708,710,699,700,693,709,694,712,709,712,706,708,729,0,0,0,0,0,0,0,0,0,0,0,0,0,0,0,0,0,0,0,0,0,0,0,0,0,0,0,0,0,0,0,0,0,0,0,0,0,0,0,0,0,0,0,0,0,0,0,0,0,0,0,0,0,0,0,0,0,0,0,0,0,0,0,0,0 ]);
