n = 10;
D = [200,193,122,274,288,159,264,123,90,199 ];
q = 0;
prec = array2d(1..0,1..2,[]);
steps = 64;
l = 360;
r = 0;
which = [];
interval = array2d(1..0,1..2,[]);
T = array3d(1..11,1..11,0..64,[0,0,0,0,0,0,0,0,0,0,0,0,0,0,0,0,0,0,0,0,0,0,0,0,0,0,0,0,0,0,0,0,0,0,0,0,0,0,0,0,0,0,0,0,0,0,0,0,0,0,0,0,0,0,0,0,0,0,0,0,0,0,0,0,0,1251,1250,1322,1315,1429,1653,1811,1986,2024,2057,2016,1986,2014,1944,1877,1921,1856,1840,1814,1774,1677,1693,1637,1641,1608,1599,1514,1491,1522,1411,1452,1371,1338,1305,1308,1294,1307,1293,1337,1388,1343,1356,1369,1363,1358,1373,1366,1363,1387,1357,1359,1380,1375,1384,1380,1403,1392,1387,1411,1375,1394,1420,1419,1392,1379,955,988,945,1033,1048,1173,1335,1473,1553,1539,1654,1527,1525,1478,1473,1407,1381,1396,1348,1386,1281,1256,1329,1205,1196,1371,1165,1140,1121,1088,1133,1004,979,990,974,971,1090,948,988,996,996,988,980,1001,998,998,998,1017,1020,1014,1027,1007,1009,1016,1042,1016,1009,1034,1087,1051,1039,1014,1047,1051,1052,1342,1347,1312,1483,1585,1862,2039,2161,2212,2196,2271,2156,2141,2061,2063,1975,1970,1937,1888,1910,1824,1748,1833,1715,1657,1765,1600,1562,1530,1484,1488,1375,1340,1382,1340,1363,1384,1322,1402,1419,1414,1449,1457,1455,1464,1455,1427,1464,1429,1418,1451,1440,1440,1436,1475,1456,1442,1429,1441,1429,1427,1444,1451,1460,1442,740,738,745,759,777,897,1021,1089,1177,1208,1250,1197,1239,1181,1138,1140,1121,1080,1089,1120,1021,1024,1085,1010,944,1037,926,885,866,846,858,807,796,770,767,751,753,771,768,761,764,764,763,760,768,764,770,764,764,766,772,774,776,774,771,772,774,775,775,784,777,784,772,770,776,1391,1407,1486,1491,1630,1821,2019,2201,2274,2250,2316,2219,2172,2136,2100,2063,2040,2006,1958,1978,1913,1857,1864,1863,1760,1810,1699,1707,1625,1577,1534,1490,1429,1428,1437,1429,1428,1432,1524,1507,1498,1519,1516,1549,1520,1524,1551,1610,1533,1557,1570,1565,1548,1560,1565,1540,1529,1549,1543,1562,1568,1578,1567,1567,1537,683,653,695,689,698,785,887,1020,1082,1136,1126,1111,1102,1071,1045,1062,992,1002,970,961,907,911,901,891,874,974,848,813,808,790,765,812,737,705,707,707,698,707,713,686,692,692,691,701,701,710,706,701,709,699,702,702,700,708,706,703,708,707,702,699,705,709,709,715,712,1259,1208,1261,1356,1463,1559,1771,1885,1960,1991,1967,1949,1917,1910,1824,1793,1758,1698,1756,1848,1698,1668,1568,1569,1564,1479,1507,1483,1405,1351,1383,1294,1318,1286,1305,1288,1275,1297,1318,1313,1333,1332,1343,1380,1341,1356,1353,1357,1381,1357,1359,1368,1366,1374,1351,1350,1357,1367,1357,1366,1366,1381,1357,1367,1376,1068,1054,1076,1056,1114,1233,1386,1535,1657,1673,1635,1609,1588,1613,1531,1505,1554,1402,1427,1604,1432,1376,1367,1305,1300,1384,1219,1233,1237,1144,1146,1096,1117,1040,1041,1055,1091,1094,1067,1077,1068,1083,1081,1091,1085,1097,1091,1096,1083,1093,1084,1081,1074,1078,1088,1093,1080,1082,1073,1078,1080,1095,1095,1097,1075,316,317,318,316,320,335,383,428,473,592,528,519,511,503,494,481,477,469,460,452,444,435,427,418,410,402,389,385,376,368,356,351,339,334,322,321,322,323,309,305,310,316,311,310,311,317,311,314,314,318,317,326,332,324,319,315,312,322,317,316,311,323,315,319,314,0,0,0,0,0,0,0,0,0,0,0,0,0,0,0,0,0,0,0,0,0,0,0,0,0,0,0,0,0,0,0,0,0,0,0,0,0,0,0,0,0,0,0,0,0,0,0,0,0,0,0,0,0,0,0,0,0,0,0,0,0,0,0,0,0,1109,1100,1104,1132,1214,1358,1538,1675,1813,1802,1776,1764,1717,1689,1660,1649,1660,1575,1551,1519,1491,1503,1484,1399,1405,1385,1323,1294,1278,1236,1208,1179,1193,1171,1148,1145,1118,1198,1184,1174,1204,1192,1204,1242,1199,1208,1208,1230,1243,1231,1231,1243,1239,1235,1210,1212,1207,1229,1210,1221,1221,1229,1203,1216,1239,0,0,0,0,0,0,0,0,0,0,0,0,0,0,0,0,0,0,0,0,0,0,0,0,0,0,0,0,0,0,0,0,0,0,0,0,0,0,0,0,0,0,0,0,0,0,0,0,0,0,0,0,0,0,0,0,0,0,0,0,0,0,0,0,0,868,871,873,881,952,1096,1250,1402,1485,1517,1511,1484,1470,1430,1416,1377,1350,1324,1297,1270,1243,1217,1190,1163,1136,1110,1083,1066,1030,1003,976,949,923,898,886,893,889,893,881,891,900,920,911,909,905,919,894,907,899,894,897,912,907,915,953,945,907,906,913,901,893,897,909,909,896,1140,1150,1154,1207,1361,1602,1839,1986,2041,2071,2067,2014,2012,1937,1910,1860,1821,1783,1744,1828,1667,1629,1611,1552,1513,1494,1455,1439,1360,1321,1275,1345,1206,1180,1171,1227,1180,1283,1281,1264,1267,1267,1299,1345,1289,1315,1315,1346,1337,1353,1360,1349,1317,1359,1318,1310,1322,1319,1338,1409,1389,1417,1392,1359,1365,608,609,611,613,626,688,779,871,957,1000,1004,988,972,956,940,924,908,891,875,859,843,827,811,795,779,763,747,731,715,699,683,666,650,634,621,617,618,620,611,617,608,639,613,638,610,639,621,628,626,623,632,625,641,647,639,641,636,638,645,633,645,648,647,660,655,1229,1239,1245,1312,1482,1742,1982,2126,2179,2206,2272,2144,2185,2063,2034,1982,1942,1901,1861,1942,1780,1739,1719,1658,1668,1596,1636,1560,1456,1415,1367,1434,1295,1269,1260,1363,1270,1373,1360,1350,1380,1391,1398,1432,1382,1399,1404,1417,1437,1407,1413,1457,1470,1463,1435,1406,1398,1425,1401,1403,1399,1429,1405,1434,1415,700,702,704,735,730,806,914,1021,1109,1150,1151,1133,1114,1096,1078,1059,1041,1008,990,986,965,947,930,912,894,863,857,838,820,813,783,765,746,728,714,711,713,715,709,721,714,725,723,728,724,738,720,728,717,718,725,733,732,729,732,726,726,722,738,733,722,728,724,731,725,921,923,926,879,990,1102,1248,1385,1468,1503,1464,1475,1451,1394,1403,1379,1276,1329,1311,1284,1221,1198,1167,1188,1164,1140,1116,1092,1069,1045,1021,997,973,951,938,932,937,940,965,967,922,921,963,950,950,963,969,969,1005,963,962,976,981,977,955,997,1001,992,1013,1005,970,975,1015,951,955,753,756,758,753,777,873,989,1104,1192,1232,1232,1213,1193,1173,1154,1134,1115,1095,1075,1056,1036,1017,997,978,958,938,910,899,880,860,841,821,801,782,768,757,767,769,777,748,756,755,762,775,758,769,761,771,786,786,776,783,789,802,791,798,772,790,790,793,805,794,799,823,812,903,906,908,917,969,1079,1222,1357,1493,1477,1473,1449,1426,1402,1379,1355,1393,1308,1288,1261,1234,1214,1190,1160,1182,1120,1096,1073,1049,1026,1002,979,955,978,920,916,919,977,915,907,928,940,914,930,919,921,923,930,947,938,934,939,940,950,940,945,931,944,944,944,950,944,940,963,963,1109,1100,1104,1132,1214,1358,1538,1675,1813,1802,1776,1764,1717,1689,1660,1649,1660,1575,1551,1519,1491,1503,1484,1399,1405,1385,1323,1294,1278,1236,1208,1179,1193,1171,1148,1145,1118,1198,1184,1174,1204,1192,1204,1242,1199,1208,1208,1230,1243,1231,1231,1243,1239,1235,1210,1212,1207,1229,1210,1221,1221,1229,1203,1216,1239,1036,1079,1047,1065,1137,1286,1441,1574,1652,1682,1676,1649,1622,1596,1580,1557,1516,1491,1504,1436,1448,1407,1370,1329,1354,1327,1255,1234,1245,1188,1143,1115,1100,1090,1065,1056,1056,1062,1074,1068,1083,1108,1089,1095,1084,1110,1093,1099,1098,1085,1101,1124,1149,1131,1116,1113,1083,1106,1091,1084,1082,1113,1098,1115,1083,810,820,820,819,864,939,1064,1188,1276,1313,1312,1316,1272,1249,1228,1207,1237,1186,1207,1123,1130,1129,1088,1159,1018,1041,976,1019,934,914,892,922,872,830,816,813,815,817,818,847,801,798,832,809,822,831,823,832,861,824,827,841,843,845,825,851,847,846,870,824,837,845,874,823,822,0,0,0,0,0,0,0,0,0,0,0,0,0,0,0,0,0,0,0,0,0,0,0,0,0,0,0,0,0,0,0,0,0,0,0,0,0,0,0,0,0,0,0,0,0,0,0,0,0,0,0,0,0,0,0,0,0,0,0,0,0,0,0,0,0,539,541,542,543,549,623,732,842,995,1030,992,985,966,947,928,909,890,912,852,833,815,796,777,758,775,755,701,682,663,645,644,607,580,569,551,548,551,555,552,546,559,576,563,559,555,565,565,572,575,561,572,602,624,606,598,578,559,580,567,559,555,582,570,584,560,492,493,495,496,501,544,617,705,762,809,819,803,790,777,764,751,738,725,712,699,686,673,660,659,634,620,607,594,624,568,555,542,529,516,504,499,501,502,495,488,501,514,504,500,496,502,507,513,516,504,513,544,562,542,538,518,500,519,506,502,495,519,510,524,501,627,629,630,721,645,732,857,982,1198,1287,1131,1122,1101,1080,1059,1170,1016,1062,974,953,932,911,973,869,928,898,806,785,764,743,785,701,672,659,640,637,641,736,662,666,662,671,672,670,669,685,660,670,664,663,667,678,677,676,674,674,670,668,685,684,663,669,668,672,668,521,522,536,526,532,595,674,734,810,876,881,868,835,821,844,812,780,788,776,755,725,732,720,699,670,671,642,628,614,601,592,573,572,563,545,541,529,544,531,530,534,531,538,537,560,542,542,549,560,542,544,546,557,565,547,554,547,546,556,552,547,557,547,598,552,1271,1328,1345,1408,1529,1671,1827,1956,2158,2141,2126,2129,2054,2165,2103,1952,1919,1888,1855,1783,1744,1683,1715,1685,1651,1617,1602,1556,1555,1443,1484,1414,1389,1432,1319,1378,1350,1317,1403,1394,1395,1404,1396,1419,1402,1399,1426,1489,1404,1420,1425,1428,1432,1436,1452,1442,1425,1428,1422,1441,1435,1434,1438,1444,1437,1110,1114,1117,1147,1230,1376,1557,1694,1771,1801,1792,1825,1735,1854,1793,1650,1621,1593,1564,1535,1536,1478,1450,1421,1393,1364,1336,1307,1319,1250,1222,1193,1165,1351,1129,1127,1130,1133,1211,1214,1199,1225,1261,1251,1229,1223,1244,1275,1245,1284,1280,1275,1221,1228,1254,1264,1264,1236,1281,1330,1274,1267,1283,1254,1254,765,768,770,773,806,891,1009,1127,1213,1252,1252,1232,1212,1192,1206,1152,1132,1113,1093,1073,1152,1044,1013,993,1076,993,933,913,901,883,853,833,814,817,780,843,779,825,793,800,787,807,805,809,800,808,800,801,799,804,795,799,797,791,799,806,805,804,797,797,800,817,808,814,800,1036,1079,1047,1065,1137,1286,1441,1574,1652,1682,1676,1649,1622,1596,1580,1557,1516,1491,1504,1436,1448,1407,1370,1329,1354,1327,1255,1234,1245,1188,1143,1115,1100,1090,1065,1056,1056,1062,1074,1068,1083,1108,1089,1095,1084,1110,1093,1099,1098,1085,1101,1124,1149,1131,1116,1113,1083,1106,1091,1084,1082,1113,1098,1115,1083,1458,1440,1473,1541,1624,1980,2120,2330,2484,2430,2393,2364,2253,2213,2277,2191,2121,2109,2080,1975,1935,1970,1856,1840,1776,1736,1697,1748,1657,1630,1607,1531,1536,1510,1489,1456,1451,1465,1537,1519,1532,1543,1544,1545,1535,1550,1551,1565,1595,1562,1560,1686,1563,1572,1700,1573,1565,1575,1573,1571,1578,1573,1590,1620,1603,1195,1246,1204,1273,1347,1568,1776,2040,2025,2132,2041,2016,1981,2004,1965,1863,1945,1857,1756,1721,1685,1649,1652,1583,1542,1507,1512,1435,1439,1381,1334,1293,1285,1232,1252,1261,1219,1252,1287,1285,1281,1297,1281,1298,1287,1295,1314,1378,1298,1315,1320,1322,1315,1334,1342,1317,1307,1310,1320,1332,1315,1329,1323,1338,1315,487,488,489,491,495,559,658,757,853,908,911,894,877,860,842,825,808,791,773,756,739,722,704,687,670,653,635,618,601,584,566,549,532,515,498,495,498,501,493,501,500,506,521,502,510,508,501,504,501,506,502,514,511,522,606,569,517,513,508,500,500,500,521,510,500,0,0,0,0,0,0,0,0,0,0,0,0,0,0,0,0,0,0,0,0,0,0,0,0,0,0,0,0,0,0,0,0,0,0,0,0,0,0,0,0,0,0,0,0,0,0,0,0,0,0,0,0,0,0,0,0,0,0,0,0,0,0,0,0,0,885,887,890,916,989,1138,1263,1426,1529,1570,1563,1535,1507,1479,1450,1422,1442,1371,1373,1310,1282,1254,1238,1198,1170,1142,1114,1086,1058,1030,1044,973,983,919,901,899,904,908,915,912,930,930,942,980,937,951,950,952,978,952,951,958,954,965,940,942,947,955,944,942,952,962,945,957,960,96,96,96,97,97,98,110,121,133,144,154,152,150,147,145,143,140,138,136,134,131,129,127,124,122,120,118,115,113,111,108,106,104,102,99,97,97,98,81,80,79,94,83,81,78,80,81,85,86,83,86,81,81,82,93,82,80,83,80,82,80,78,85,81,78,914,917,919,955,983,1126,1329,1493,1595,1641,1634,1597,1568,1539,1492,1463,1452,1406,1394,1348,1320,1291,1275,1264,1205,1176,1147,1119,1117,1053,1032,1029,975,948,943,940,933,938,939,959,957,965,985,962,963,996,960,965,974,953,975,973,988,991,1141,1087,997,973,977,969,958,954,969,996,951,1735,1707,1792,2059,2136,2433,2715,2708,2839,2852,2873,2727,2775,2605,2595,2511,2511,2625,2443,2490,2434,2264,2377,2169,2155,2107,1998,2006,2031,1891,1902,1752,1768,1692,1725,1746,1699,1734,1956,1962,1915,1925,1961,1947,1953,1966,1960,1971,2019,1969,1981,1993,1993,1999,1979,2006,2017,2017,2054,2006,2001,2007,2061,1998,2006,1531,1510,1545,1747,1790,2134,2340,2423,2505,2529,2505,2462,2420,2377,2334,2291,2295,2276,2162,2216,2127,2034,2082,1948,1905,1862,1819,1803,1734,1774,1698,1606,1606,1571,1528,1528,1535,1541,1670,1678,1652,1673,1672,1711,1674,1711,1717,1782,1694,1727,1715,1719,1696,1750,1731,1705,1696,1680,1697,1732,1705,1739,1715,1726,1686,1256,1163,1167,1205,1341,1538,1714,1958,2095,1998,1984,1983,1914,1880,1894,1810,1849,1741,1737,1672,1637,1614,1636,1533,1499,1464,1478,1432,1360,1350,1315,1256,1222,1196,1187,1177,1243,1188,1236,1236,1243,1249,1259,1302,1251,1282,1280,1290,1299,1288,1277,1284,1272,1297,1261,1265,1277,1274,1259,1294,1279,1298,1276,1285,1289,1458,1440,1473,1541,1624,1980,2120,2330,2484,2430,2393,2364,2253,2213,2277,2191,2121,2109,2080,1975,1935,1970,1856,1840,1776,1736,1697,1748,1657,1630,1607,1531,1536,1510,1489,1456,1451,1465,1537,1519,1532,1543,1544,1545,1535,1550,1551,1565,1595,1562,1560,1686,1563,1572,1700,1573,1565,1575,1573,1571,1578,1573,1590,1620,1603,733,737,737,760,756,834,944,1055,1151,1188,1185,1184,1145,1123,1106,1104,1086,1055,1044,1018,995,976,975,954,918,900,882,882,847,862,840,787,779,760,792,735,745,737,744,752,749,756,764,764,756,779,756,762,763,764,774,790,781,778,772,769,768,762,754,767,760,775,749,764,758,619,632,623,626,638,701,724,775,822,925,928,952,899,885,893,856,842,828,762,800,798,722,756,742,728,714,656,686,629,616,642,628,641,610,633,630,594,632,606,606,603,614,613,611,609,625,602,610,608,606,608,617,617,614,611,614,613,610,623,625,606,614,609,613,610,498,511,501,502,507,552,625,699,802,820,825,812,799,786,773,759,746,733,720,707,710,680,667,654,641,627,614,601,588,575,561,548,535,522,509,505,519,508,510,500,509,514,515,546,515,545,537,523,554,530,526,523,524,545,526,522,526,532,521,523,526,534,525,541,525,772,791,776,779,823,936,1147,1257,1346,1419,1431,1360,1335,1310,1284,1259,1234,1208,1183,1180,1132,1107,1072,1056,1031,1005,980,955,929,922,879,871,828,819,787,803,790,812,790,787,805,821,799,814,794,816,794,823,807,794,805,804,818,833,818,812,813,801,814,814,814,817,798,817,806,0,0,0,0,0,0,0,0,0,0,0,0,0,0,0,0,0,0,0,0,0,0,0,0,0,0,0,0,0,0,0,0,0,0,0,0,0,0,0,0,0,0,0,0,0,0,0,0,0,0,0,0,0,0,0,0,0,0,0,0,0,0,0,0,0,860,927,865,870,927,1056,1316,1401,1574,1607,1593,1495,1468,1440,1413,1385,1358,1330,1303,1354,1248,1220,1184,1165,1138,1110,1083,1129,1028,1019,973,963,918,939,876,923,880,901,923,929,917,925,906,923,919,922,943,999,930,944,948,944,939,970,967,938,929,928,942,952,937,946,951,947,939,208,209,209,210,211,219,248,277,306,335,297,292,287,283,326,321,315,310,304,298,293,287,282,276,271,265,260,254,249,243,237,232,226,221,215,211,212,212,219,193,194,193,207,203,204,195,195,203,227,208,216,215,218,217,207,204,208,225,233,224,204,204,233,204,203,982,985,932,1015,1064,1190,1301,1482,1521,1601,1550,1565,1544,1611,1493,1445,1439,1417,1315,1392,1337,1315,1286,1265,1239,1147,1188,1201,1098,1162,1027,1031,1087,957,971,968,1000,1067,1004,1012,1009,1021,1029,1032,1032,1043,1020,1043,1037,1038,1034,1036,1038,1043,1034,1030,1026,1031,1029,1019,1017,1035,1024,1028,1006,766,769,771,800,804,889,1007,1124,1213,1253,1253,1233,1213,1268,1173,1212,1133,1113,1094,1104,1054,1034,1014,994,974,954,934,957,894,919,855,835,904,795,781,778,780,832,784,784,797,821,807,802,793,808,799,825,813,813,885,885,920,873,831,815,820,825,817,810,822,838,813,829,809,464,465,467,456,458,497,563,629,695,742,750,757,726,710,702,690,699,666,686,642,630,618,622,610,582,570,558,561,534,522,510,498,486,474,470,458,460,461,453,449,456,473,465,457,457,464,461,467,472,475,538,547,570,506,475,462,468,477,472,461,463,473,463,475,463,733,737,737,760,756,834,944,1055,1151,1188,1185,1184,1145,1123,1106,1104,1086,1055,1044,1018,995,976,975,954,918,900,882,882,847,862,840,787,779,760,792,735,745,737,744,752,749,756,764,764,756,779,756,762,763,764,774,790,781,778,772,769,768,762,754,767,760,775,749,764,758,1438,1418,1471,1516,1715,1979,2123,2270,2328,2330,2434,2274,2375,2200,2163,2127,2187,2053,2016,1979,1942,1905,1948,1869,1806,1789,1768,1684,1680,1604,1566,1522,1520,1451,1438,1462,1472,1479,1573,1557,1578,1580,1574,1582,1650,1665,1593,1618,1624,1580,1580,1642,1647,1680,1644,1652,1646,1669,1672,1646,1620,1618,1577,1590,1589,1256,1289,1231,1302,1383,1712,1821,2034,2170,2097,2130,2082,2039,1992,1986,1982,1876,1921,1791,1753,1717,1707,1645,1609,1573,1560,1541,1463,1467,1436,1354,1345,1293,1257,1247,1277,1273,1250,1284,1281,1280,1279,1287,1305,1295,1304,1311,1321,1312,1328,1329,1313,1334,1333,1383,1328,1335,1358,1337,1359,1345,1335,1365,1355,1365,512,514,515,516,522,592,695,798,897,949,952,934,916,898,880,862,844,827,809,791,773,755,737,719,701,683,666,648,630,612,594,576,558,540,524,521,524,527,509,516,522,547,517,521,514,517,518,513,517,518,514,521,518,521,522,529,525,526,526,529,527,559,546,552,547,107,107,108,108,108,110,124,137,151,164,175,172,170,167,164,162,159,156,154,151,148,146,143,140,138,135,132,130,127,124,122,119,116,114,111,109,109,109,93,92,93,93,93,93,93,94,93,93,93,94,94,94,94,94,94,94,94,94,95,94,94,95,95,95,95,910,913,915,924,979,1129,1306,1525,1572,1611,1602,1573,1605,1567,1536,1618,1430,1401,1377,1381,1315,1314,1258,1229,1211,1173,1182,1134,1085,1057,1040,1033,980,944,944,947,930,976,957,959,963,978,980,970,997,997,984,990,1011,1005,1100,1104,1131,1059,985,986,992,988,990,991,988,996,985,1037,992,0,0,0,0,0,0,0,0,0,0,0,0,0,0,0,0,0,0,0,0,0,0,0,0,0,0,0,0,0,0,0,0,0,0,0,0,0,0,0,0,0,0,0,0,0,0,0,0,0,0,0,0,0,0,0,0,0,0,0,0,0,0,0,0,0,939,954,957,956,1031,1165,1373,1537,1657,1656,1665,1617,1595,1558,1565,1609,1470,1441,1411,1382,1372,1330,1294,1295,1247,1235,1190,1147,1118,1088,1072,1042,1000,986,968,954,959,963,977,975,981,986,989,978,991,994,1001,990,984,990,1013,983,991,988,1019,985,985,993,999,996,1001,992,984,991,983,1601,1564,1738,1991,2132,2535,2621,2839,2879,2978,2860,2881,2871,2718,2670,2725,2572,2524,2448,2382,2342,2349,2214,2210,2149,2102,2043,1975,1926,1866,1815,1734,1681,1671,1593,1613,1625,1732,1831,1834,1830,1853,1868,1886,1880,1889,1869,1893,1910,1885,1899,1887,1895,1930,1954,1925,1901,1914,1905,1922,1910,1896,1934,1945,1927,1557,1575,1575,1779,1830,2183,2319,2523,2546,2623,2543,2558,2566,2412,2369,2480,2425,2238,2240,2151,2108,2110,2021,2021,2045,1891,1933,1844,1803,1717,1673,1668,1700,1611,1614,1554,1587,1605,1734,1741,1694,1704,1734,1727,1731,1743,1739,1748,1796,1744,1758,1769,1771,1776,1750,1780,1794,1793,1827,1780,1773,1782,1834,1769,1773,1225,1188,1193,1235,1344,1531,1758,2068,2007,2185,2022,1987,1964,1916,1893,1909,1856,1835,1740,1705,1681,1634,1599,1662,1539,1493,1501,1458,1388,1352,1341,1282,1248,1244,1204,1203,1209,1275,1256,1241,1243,1249,1269,1290,1267,1272,1274,1298,1302,1279,1296,1277,1280,1306,1314,1285,1302,1305,1297,1325,1313,1315,1334,1356,1335,1438,1418,1471,1516,1715,1979,2123,2270,2328,2330,2434,2274,2375,2200,2163,2127,2187,2053,2016,1979,1942,1905,1948,1869,1806,1789,1768,1684,1680,1604,1566,1522,1520,1451,1438,1462,1472,1479,1573,1557,1578,1580,1574,1582,1650,1665,1593,1618,1624,1580,1580,1642,1647,1680,1644,1652,1646,1669,1672,1646,1620,1618,1577,1590,1589,579,570,582,574,585,638,755,807,903,932,939,922,907,908,878,863,891,832,832,803,788,773,757,792,729,717,699,687,669,701,639,635,619,597,581,576,581,580,598,584,580,585,586,606,646,644,594,621,605,590,593,633,640,649,638,653,639,655,644,626,616,605,591,590,580,687,653,691,667,714,756,935,1002,1134,1131,1091,1115,1097,1078,1060,989,972,1006,937,920,952,933,915,897,885,922,891,825,806,748,732,780,696,715,665,761,714,712,694,701,705,723,703,699,709,717,709,703,766,744,700,729,768,766,785,724,721,730,751,716,709,730,724,705,700,486,487,488,490,496,548,623,701,779,825,829,816,879,788,778,764,746,732,718,704,690,677,663,649,635,621,610,593,579,565,606,537,524,510,497,493,495,497,492,502,501,510,509,513,506,513,499,508,502,498,502,515,511,510,517,509,504,504,518,515,500,507,500,510,503,836,883,876,851,944,1045,1212,1385,1479,1509,1492,1473,1449,1418,1368,1367,1381,1309,1282,1245,1265,1251,1176,1166,1118,1110,1066,1036,1009,981,979,919,899,902,868,874,886,868,868,875,879,898,977,954,904,953,905,1005,937,960,951,901,930,974,935,909,984,923,911,959,946,1003,950,944,921,169,169,170,170,171,176,200,223,247,270,284,279,275,270,266,261,257,252,248,243,238,234,229,225,220,216,211,207,202,197,193,188,184,179,175,171,172,172,164,159,159,159,162,162,163,164,164,169,166,171,172,167,166,171,165,165,167,169,172,177,172,173,179,173,173,971,1014,983,945,1052,1168,1351,1599,1619,1648,1628,1607,1581,1548,1569,1493,1504,1430,1401,1448,1380,1395,1369,1307,1225,1249,1169,1136,1107,1077,1073,1011,989,1009,957,1005,975,957,985,976,971,976,978,1014,998,998,999,1005,1016,1013,1009,1007,1003,1029,1032,1007,1019,1020,1014,1044,1022,1021,1031,1062,1035,0,0,0,0,0,0,0,0,0,0,0,0,0,0,0,0,0,0,0,0,0,0,0,0,0,0,0,0,0,0,0,0,0,0,0,0,0,0,0,0,0,0,0,0,0,0,0,0,0,0,0,0,0,0,0,0,0,0,0,0,0,0,0,0,0,1143,1147,1088,1115,1159,1378,1512,1710,1725,1755,1626,1841,1646,1581,1702,1594,1566,1492,1524,1479,1447,1356,1341,1373,1327,1317,1256,1259,1202,1176,1149,1081,1121,1111,1095,1099,1086,1076,1110,1107,1091,1105,1108,1103,1101,1129,1118,1111,1115,1185,1156,1166,1133,1206,1142,1157,1129,1124,1162,1175,1176,1172,1177,1146,1152,886,886,888,879,924,1023,1158,1292,1371,1408,1372,1419,1361,1340,1318,1281,1259,1335,1254,1192,1209,1191,1168,1140,1082,1060,1069,1015,993,971,949,957,905,896,870,879,869,901,889,893,892,902,902,908,897,920,892,904,896,898,896,924,912,911,906,917,911,905,915,923,902,913,891,907,899,299,300,301,302,302,319,391,404,460,487,499,491,483,475,467,459,451,443,435,427,419,411,403,395,387,379,372,364,356,348,340,332,324,316,308,303,304,305,300,294,301,294,299,307,296,301,305,299,303,300,302,303,304,311,307,303,296,310,300,308,304,300,299,305,317,579,570,582,574,585,638,755,807,903,932,939,922,907,908,878,863,891,832,832,803,788,773,757,792,729,717,699,687,669,701,639,635,619,597,581,576,581,580,598,584,580,585,586,606,646,644,594,621,605,590,593,633,640,649,638,653,639,655,644,626,616,605,591,590,580,1142,1157,1179,1207,1205,1384,1606,1753,1804,1806,1764,1804,1704,1702,1651,1668,1671,1610,1567,1520,1539,1452,1517,1459,1481,1339,1374,1323,1348,1240,1258,1171,1207,1185,1146,1163,1168,1113,1161,1159,1173,1200,1169,1192,1167,1174,1170,1174,1205,1193,1231,1248,1245,1214,1190,1204,1191,1207,1210,1197,1206,1208,1181,1215,1212,909,906,882,945,1020,1095,1249,1435,1481,1527,1465,1441,1444,1474,1412,1343,1383,1334,1311,1299,1233,1222,1183,1160,1143,1170,1099,1121,1102,1026,1002,991,967,941,931,926,938,927,952,944,942,947,952,952,955,947,959,952,957,946,965,954,958,952,954,962,954,962,947,957,959,969,955,957,951,1263,1272,1276,1448,1624,1744,2074,2194,2135,2162,2146,2111,2173,2065,2006,2013,1956,2029,1866,1956,1839,1825,1764,1691,1716,1618,1654,1589,1567,1478,1435,1381,1339,1301,1289,1297,1310,1323,1388,1401,1369,1384,1381,1426,1390,1418,1432,1490,1409,1442,1420,1433,1415,1465,1440,1406,1418,1398,1413,1448,1426,1452,1433,1447,1411,1571,1553,1608,1883,2163,2449,2641,2745,2783,2764,2790,2718,2675,2646,2575,2561,2590,2459,2389,2405,2371,2286,2225,2142,2120,2053,1987,1928,1904,1797,1877,1663,1615,1586,1595,1605,1711,1621,1779,1825,1787,1803,1819,1793,1816,1822,1820,1813,1839,1812,1830,1816,1836,1849,1874,1866,1848,1845,1876,1817,1845,1853,1871,1848,1833,939,922,957,935,947,1053,1247,1363,1416,1451,1447,1424,1401,1403,1355,1380,1329,1332,1262,1369,1260,1238,1209,1146,1189,1100,1150,1092,1082,1007,1042,958,973,927,903,933,915,904,937,934,944,935,951,959,980,970,944,961,968,962,967,955,960,986,969,960,955,955,947,963,954,961,950,969,973,1660,1620,1673,1915,2131,2590,2779,2880,2916,2895,3022,2844,2799,2768,2696,2679,2731,2573,2501,2515,2479,2392,2329,2244,2220,2174,2084,2094,1996,1888,1842,1751,1704,1665,1660,1695,1673,1711,1891,1902,1858,1866,1911,1909,1900,1905,1900,1904,1966,1910,1931,1940,1952,1941,1934,1954,1952,1966,2003,1937,1931,1945,2000,1953,1912,994,1015,1032,995,1028,1133,1351,1469,1503,1553,1562,1537,1498,1483,1434,1472,1423,1434,1350,1461,1344,1275,1302,1213,1266,1164,1226,1176,1143,1078,1121,1027,1003,984,978,999,990,970,992,999,998,1014,1017,1014,1022,1022,999,1017,1015,999,1011,1019,1019,1009,1043,1034,1006,1005,1012,1009,1000,1015,1020,1021,1007,0,0,0,0,0,0,0,0,0,0,0,0,0,0,0,0,0,0,0,0,0,0,0,0,0,0,0,0,0,0,0,0,0,0,0,0,0,0,0,0,0,0,0,0,0,0,0,0,0,0,0,0,0,0,0,0,0,0,0,0,0,0,0,0,0,247,248,249,249,250,314,295,395,364,483,488,406,400,393,457,380,373,367,360,419,417,340,334,327,321,314,308,301,295,288,281,275,268,311,255,251,300,301,246,246,254,266,247,251,249,254,250,248,253,249,248,247,248,250,249,249,249,249,248,248,248,250,247,250,248,948,931,955,986,960,1103,1225,1437,1494,1557,1460,1498,1413,1415,1367,1392,1396,1344,1302,1262,1271,1218,1242,1206,1248,1110,1136,1102,1134,1017,1051,970,971,978,961,961,974,913,952,957,957,966,975,962,967,976,968,973,978,981,990,1004,994,999,970,967,977,975,968,975,980,971,969,973,970,1142,1157,1179,1207,1205,1384,1606,1753,1804,1806,1764,1804,1704,1702,1651,1668,1671,1610,1567,1520,1539,1452,1517,1459,1481,1339,1374,1323,1348,1240,1258,1171,1207,1185,1146,1163,1168,1113,1161,1159,1173,1200,1169,1192,1167,1174,1170,1174,1205,1193,1231,1248,1245,1214,1190,1204,1191,1207,1210,1197,1206,1208,1181,1215,1212,980,994,977,959,1014,1204,1377,1504,1518,1533,1606,1504,1537,1456,1423,1410,1385,1358,1403,1309,1285,1269,1263,1212,1190,1163,1164,1114,1117,1109,1090,1088,1033,970,999,985,959,973,993,993,986,1042,1021,1004,1001,1021,1013,1030,1058,1017,1020,1008,996,994,1006,1020,1003,1001,990,996,1000,1012,1019,1019,989,793,795,798,801,837,928,1052,1175,1263,1304,1365,1348,1261,1240,1217,1196,1190,1176,1134,1115,1103,1073,1051,1030,1009,988,976,947,926,905,886,863,844,822,808,805,809,819,798,807,814,840,818,816,809,835,820,817,813,815,807,825,813,828,831,830,827,830,817,836,827,868,840,854,853,1248,1232,1184,1234,1387,1589,1701,1831,1904,1930,1915,1967,1856,1825,1793,1762,1807,1699,1668,1637,1670,1574,1543,1511,1477,1535,1417,1386,1351,1398,1292,1261,1231,1206,1197,1195,1199,1298,1282,1280,1254,1272,1269,1311,1275,1291,1307,1374,1296,1346,1329,1344,1299,1355,1343,1290,1285,1290,1326,1357,1336,1359,1346,1345,1314,1524,1532,1629,1733,1995,2161,2393,2493,2642,2641,2534,2475,2450,2401,2375,2327,2257,2221,2195,2176,2111,2082,2023,1968,1922,1881,1867,1798,1775,1719,1645,1623,1593,1557,1565,1566,1572,1589,1647,1643,1649,1656,1666,1651,1656,1660,1664,1678,1682,1686,1686,1746,1694,1689,1755,1705,1701,1710,1715,1716,1717,1718,1728,1734,1736,737,739,739,744,813,901,968,1082,1171,1211,1208,1263,1173,1154,1134,1115,1146,1076,1057,1037,1018,999,979,960,937,921,902,882,863,841,824,805,785,766,752,748,750,750,768,744,746,821,758,772,751,762,766,764,786,764,770,760,751,770,783,766,753,763,763,764,764,755,770,790,761,1612,1624,1736,1855,2137,2448,2533,2630,2794,2839,2663,2603,2575,2648,2496,2446,2375,2399,2308,2326,2294,2247,2128,2072,2023,1980,1965,1894,1913,1811,1735,1712,1767,1646,1714,1655,1662,1679,1845,1834,1849,1879,1856,1877,1866,1857,1882,1956,1879,1881,1915,1923,1923,1923,1937,1893,1859,1894,1885,1891,1872,1907,1901,1925,1879,792,804,807,810,836,940,1050,1172,1276,1314,1329,1308,1287,1250,1214,1222,1201,1152,1145,1124,1103,1082,1074,1040,1019,1011,977,956,924,925,894,873,852,831,807,814,816,808,828,830,825,838,841,840,836,863,827,837,836,838,831,846,844,847,847,841,844,839,853,854,832,850,832,840,837,249,250,250,251,252,263,339,331,366,400,414,407,401,394,388,381,375,368,361,355,348,342,335,329,322,316,309,303,296,290,283,277,270,263,257,253,253,254,242,242,243,248,251,250,251,266,254,254,255,257,270,268,269,271,258,248,254,251,247,256,253,253,251,253,253,0,0,0,0,0,0,0,0,0,0,0,0,0,0,0,0,0,0,0,0,0,0,0,0,0,0,0,0,0,0,0,0,0,0,0,0,0,0,0,0,0,0,0,0,0,0,0,0,0,0,0,0,0,0,0,0,0,0,0,0,0,0,0,0,0,784,798,751,753,782,931,1041,1160,1184,1224,1298,1205,1285,1166,1138,1127,1107,1088,1136,1049,1082,1002,1013,970,951,945,936,892,900,895,886,914,833,775,822,757,759,761,766,768,778,792,807,805,786,810,781,830,799,813,800,791,808,829,807,797,818,802,801,815,809,827,799,805,798,980,994,977,959,1014,1204,1377,1504,1518,1533,1606,1504,1537,1456,1423,1410,1385,1358,1403,1309,1285,1269,1263,1212,1190,1163,1164,1114,1117,1109,1090,1088,1033,970,999,985,959,973,993,993,986,1042,1021,1004,1001,1021,1013,1030,1058,1017,1020,1008,996,994,1006,1020,1003,1001,990,996,1000,1012,1019,1019,989,272,273,274,274,275,289,326,364,402,439,452,445,438,431,423,416,409,402,395,388,381,373,366,359,352,345,338,331,323,316,309,302,295,288,281,276,277,278,261,261,266,273,261,265,262,269,276,262,269,259,263,265,262,268,263,264,263,271,264,269,264,269,263,269,268,1033,983,1033,1047,1151,1273,1426,1596,1693,1636,1639,1665,1587,1619,1568,1567,1530,1407,1494,1414,1466,1394,1374,1302,1295,1361,1263,1195,1210,1192,1164,1145,1101,1068,1074,1041,990,1069,1090,1080,1081,1088,1090,1087,1158,1153,1085,1122,1104,1092,1089,1143,1150,1165,1152,1156,1154,1161,1169,1143,1123,1123,1093,1092,1093,775,777,779,783,823,918,1046,1173,1258,1295,1293,1314,1251,1229,1208,1187,1165,1144,1123,1101,1165,1059,1037,1016,995,973,952,985,909,888,925,868,824,803,790,787,790,793,785,777,790,787,784,800,790,794,795,804,821,809,806,810,812,821,812,815,801,815,815,815,822,815,813,839,837,1125,1136,1139,1185,1311,1504,1728,1872,1940,1961,1946,1995,1902,1843,1808,1774,1739,1705,1709,1636,1666,1567,1524,1489,1464,1429,1440,1419,1326,1292,1300,1237,1189,1194,1171,1154,1160,1189,1196,1218,1212,1229,1332,1284,1256,1296,1244,1365,1272,1299,1280,1243,1267,1312,1280,1261,1317,1258,1256,1303,1284,1352,1288,1300,1258,521,490,491,493,524,541,648,724,819,804,852,856,842,811,759,791,770,775,760,748,733,719,706,694,679,616,634,620,609,593,579,566,552,538,526,496,523,524,522,516,529,560,532,516,534,546,532,526,529,530,533,531,538,534,544,531,526,526,536,540,525,538,529,530,533,1214,1224,1230,1290,1431,1642,1942,2013,2078,2233,2079,2125,2070,1970,1933,1897,1949,1824,1904,1751,1815,1678,1632,1596,1568,1532,1540,1550,1422,1386,1392,1327,1277,1302,1333,1244,1250,1338,1304,1306,1330,1348,1323,1346,1318,1341,1320,1352,1352,1336,1338,1351,1359,1376,1358,1356,1342,1349,1364,1363,1359,1356,1341,1375,1366,436,405,452,453,456,440,545,613,669,663,724,719,707,639,685,661,643,597,639,622,646,600,589,582,566,560,548,537,511,520,507,474,467,456,456,410,407,454,426,442,442,435,429,429,442,453,444,442,477,435,470,432,454,440,463,462,455,440,442,448,444,438,431,488,429,1102,1075,1131,1135,1250,1402,1537,1813,1761,1824,1810,1731,1762,1685,1657,1721,1621,1573,1584,1555,1497,1397,1468,1440,1431,1317,1373,1325,1305,1236,1276,1226,1171,1123,1189,1114,1092,1151,1149,1191,1151,1149,1172,1154,1169,1179,1174,1174,1198,1169,1175,1183,1184,1190,1184,1198,1198,1192,1206,1173,1198,1207,1228,1189,1185,886,914,917,925,976,1085,1227,1400,1470,1479,1475,1489,1511,1405,1382,1456,1336,1312,1290,1336,1272,1239,1223,1173,1169,1184,1120,1080,1122,1033,1028,1000,1032,941,996,924,971,930,947,945,960,973,970,985,962,983,957,1004,976,958,970,965,978,1001,982,974,984,960,971,980,977,988,965,993,969,0,0,0,0,0,0,0,0,0,0,0,0,0,0,0,0,0,0,0,0,0,0,0,0,0,0,0,0,0,0,0,0,0,0,0,0,0,0,0,0,0,0,0,0,0,0,0,0,0,0,0,0,0,0,0,0,0,0,0,0,0,0,0,0,0,272,273,274,274,275,289,326,364,402,439,452,445,438,431,423,416,409,402,395,388,381,373,366,359,352,345,338,331,323,316,309,302,295,288,281,276,277,278,261,261,266,273,261,265,262,269,276,262,269,259,263,265,262,268,263,264,263,271,264,269,264,269,263,269,268,0,0,0,0,0,0,0,0,0,0,0,0,0,0,0,0,0,0,0,0,0,0,0,0,0,0,0,0,0,0,0,0,0,0,0,0,0,0,0,0,0,0,0,0,0,0,0,0,0,0,0,0,0,0,0,0,0,0,0,0,0,0,0,0,0,1251,1250,1322,1315,1429,1653,1811,1986,2024,2057,2016,1986,2014,1944,1877,1921,1856,1840,1814,1774,1677,1693,1637,1641,1608,1599,1514,1491,1522,1411,1452,1371,1338,1305,1308,1294,1307,1293,1337,1388,1343,1356,1369,1363,1358,1373,1366,1363,1387,1357,1359,1380,1375,1384,1380,1403,1392,1387,1411,1375,1394,1420,1419,1392,1379,955,988,945,1033,1048,1173,1335,1473,1553,1539,1654,1527,1525,1478,1473,1407,1381,1396,1348,1386,1281,1256,1329,1205,1196,1371,1165,1140,1121,1088,1133,1004,979,990,974,971,1090,948,988,996,996,988,980,1001,998,998,998,1017,1020,1014,1027,1007,1009,1016,1042,1016,1009,1034,1087,1051,1039,1014,1047,1051,1052,1342,1347,1312,1483,1585,1862,2039,2161,2212,2196,2271,2156,2141,2061,2063,1975,1970,1937,1888,1910,1824,1748,1833,1715,1657,1765,1600,1562,1530,1484,1488,1375,1340,1382,1340,1363,1384,1322,1402,1419,1414,1449,1457,1455,1464,1455,1427,1464,1429,1418,1451,1440,1440,1436,1475,1456,1442,1429,1441,1429,1427,1444,1451,1460,1442,740,738,745,759,777,897,1021,1089,1177,1208,1250,1197,1239,1181,1138,1140,1121,1080,1089,1120,1021,1024,1085,1010,944,1037,926,885,866,846,858,807,796,770,767,751,753,771,768,761,764,764,763,760,768,764,770,764,764,766,772,774,776,774,771,772,774,775,775,784,777,784,772,770,776,1391,1407,1486,1491,1630,1821,2019,2201,2274,2250,2316,2219,2172,2136,2100,2063,2040,2006,1958,1978,1913,1857,1864,1863,1760,1810,1699,1707,1625,1577,1534,1490,1429,1428,1437,1429,1428,1432,1524,1507,1498,1519,1516,1549,1520,1524,1551,1610,1533,1557,1570,1565,1548,1560,1565,1540,1529,1549,1543,1562,1568,1578,1567,1567,1537,683,653,695,689,698,785,887,1020,1082,1136,1126,1111,1102,1071,1045,1062,992,1002,970,961,907,911,901,891,874,974,848,813,808,790,765,812,737,705,707,707,698,707,713,686,692,692,691,701,701,710,706,701,709,699,702,702,700,708,706,703,708,707,702,699,705,709,709,715,712,1259,1208,1261,1356,1463,1559,1771,1885,1960,1991,1967,1949,1917,1910,1824,1793,1758,1698,1756,1848,1698,1668,1568,1569,1564,1479,1507,1483,1405,1351,1383,1294,1318,1286,1305,1288,1275,1297,1318,1313,1333,1332,1343,1380,1341,1356,1353,1357,1381,1357,1359,1368,1366,1374,1351,1350,1357,1367,1357,1366,1366,1381,1357,1367,1376,1068,1054,1076,1056,1114,1233,1386,1535,1657,1673,1635,1609,1588,1613,1531,1505,1554,1402,1427,1604,1432,1376,1367,1305,1300,1384,1219,1233,1237,1144,1146,1096,1117,1040,1041,1055,1091,1094,1067,1077,1068,1083,1081,1091,1085,1097,1091,1096,1083,1093,1084,1081,1074,1078,1088,1093,1080,1082,1073,1078,1080,1095,1095,1097,1075,316,317,318,316,320,335,383,428,473,592,528,519,511,503,494,481,477,469,460,452,444,435,427,418,410,402,389,385,376,368,356,351,339,334,322,321,322,323,309,305,310,316,311,310,311,317,311,314,314,318,317,326,332,324,319,315,312,322,317,316,311,323,315,319,314,0,0,0,0,0,0,0,0,0,0,0,0,0,0,0,0,0,0,0,0,0,0,0,0,0,0,0,0,0,0,0,0,0,0,0,0,0,0,0,0,0,0,0,0,0,0,0,0,0,0,0,0,0,0,0,0,0,0,0,0,0,0,0,0,0 ]);
