n = 10;
D = [283,144,135,190,84,291,158,148,172,89 ];
q = 0;
prec = array2d(1..0,1..2,[]);
steps = 64;
l = 360;
r = 0;
which = [];
interval = array2d(1..0,1..2,[]);
T = array3d(1..11,1..11,0..64,[0,0,0,0,0,0,0,0,0,0,0,0,0,0,0,0,0,0,0,0,0,0,0,0,0,0,0,0,0,0,0,0,0,0,0,0,0,0,0,0,0,0,0,0,0,0,0,0,0,0,0,0,0,0,0,0,0,0,0,0,0,0,0,0,0,661,730,720,728,693,961,1134,1255,1323,1417,1416,1409,1370,1306,1325,1221,1297,1279,1160,1262,1189,1134,1144,1052,1139,1015,1053,997,958,933,912,740,722,757,734,717,752,652,696,695,706,722,735,717,718,721,733,733,735,734,732,733,734,745,733,727,732,728,722,732,727,742,734,738,722,635,627,639,642,644,788,951,1060,1187,1257,1269,1235,1225,1207,1187,1167,1141,1125,1107,1085,1072,1057,1032,1011,992,970,959,921,895,845,829,764,695,689,663,646,646,590,533,534,535,539,540,540,543,541,541,542,543,544,545,555,551,549,547,548,550,550,550,552,548,548,548,548,548,866,868,870,878,1034,1361,1589,1775,1888,1914,1901,1866,1831,1796,1761,1725,1690,1655,1620,1585,1548,1513,1478,1441,1408,1372,1332,1302,1267,1232,1055,1022,920,894,882,882,886,893,905,913,924,973,937,931,927,970,918,927,925,919,919,934,933,977,1009,993,935,930,934,923,917,918,932,932,918,1224,1225,1240,1257,1300,1854,2120,2262,2330,2393,2365,2321,2289,2248,2225,2178,2161,2099,2081,2044,2002,1989,1920,1897,1871,1816,1765,1721,1584,1559,1362,1349,1287,1255,1240,1246,1246,1213,1255,1251,1252,1264,1286,1256,1253,1265,1264,1295,1287,1270,1262,1289,1309,1315,1294,1266,1303,1293,1288,1281,1265,1282,1276,1281,1275,392,394,395,396,398,486,578,647,710,779,797,791,779,767,745,741,724,712,699,682,669,656,644,631,622,612,597,584,574,559,526,513,500,413,405,398,411,390,363,360,359,359,365,370,367,371,371,372,372,374,373,374,372,375,371,373,394,375,376,391,377,382,383,381,379,1034,1026,1042,1048,1084,1516,1769,1926,1997,2032,2039,2026,1956,1939,1910,1860,1844,1807,1794,1730,1696,1669,1644,1630,1602,1567,1530,1479,1290,1258,1151,1150,1071,1054,1041,1033,1042,1005,1033,1033,1059,1057,1061,1037,1042,1045,1034,1063,1057,1071,1068,1077,1091,1091,1070,1066,1065,1080,1057,1055,1061,1051,1054,1058,1050,407,408,412,411,414,523,595,664,742,809,827,815,800,787,774,761,748,734,721,708,695,690,668,655,642,629,623,602,589,576,563,550,439,490,456,414,415,416,364,365,366,370,370,369,372,371,372,372,372,372,373,381,376,375,373,378,376,373,373,377,377,377,377,377,377,605,608,610,612,613,716,893,1000,1094,1159,1173,1164,1148,1134,1116,1098,1080,1060,1042,1024,1006,987,969,956,932,919,896,877,860,842,823,736,646,639,650,613,615,604,546,547,550,552,553,552,559,555,555,557,557,558,564,570,567,565,564,566,570,568,564,570,568,568,568,568,568,607,608,610,613,617,755,880,972,1067,1133,1147,1136,1119,1104,1089,1075,1060,1042,1025,1008,992,973,962,944,922,909,898,889,873,855,832,705,641,642,616,617,613,615,546,547,548,554,556,554,559,554,555,559,559,558,561,570,567,567,565,566,568,566,567,570,567,567,567,567,567,0,0,0,0,0,0,0,0,0,0,0,0,0,0,0,0,0,0,0,0,0,0,0,0,0,0,0,0,0,0,0,0,0,0,0,0,0,0,0,0,0,0,0,0,0,0,0,0,0,0,0,0,0,0,0,0,0,0,0,0,0,0,0,0,0,694,696,698,710,729,941,1086,1226,1318,1371,1402,1369,1340,1329,1300,1284,1275,1215,1195,1173,1164,1144,1133,1079,1057,1027,1036,992,987,949,932,871,898,700,723,720,700,687,683,683,689,697,695,687,689,691,692,692,695,691,692,705,702,696,700,700,704,706,701,695,704,698,696,700,696,0,0,0,0,0,0,0,0,0,0,0,0,0,0,0,0,0,0,0,0,0,0,0,0,0,0,0,0,0,0,0,0,0,0,0,0,0,0,0,0,0,0,0,0,0,0,0,0,0,0,0,0,0,0,0,0,0,0,0,0,0,0,0,0,0,943,936,935,923,1013,1224,1514,1689,1786,1817,1811,1785,1767,1736,1694,1729,1635,1608,1578,1548,1519,1493,1465,1436,1408,1382,1350,1325,1222,1223,1050,1013,968,950,957,928,908,833,812,813,823,832,822,829,826,824,835,830,833,823,829,830,825,827,829,832,834,832,831,830,831,845,829,844,834,1543,1566,1576,1762,2226,2650,3000,3076,3097,3147,3094,3040,3029,2895,2920,2886,2794,2759,2708,2610,2569,2448,2447,2254,1894,1891,1827,1797,1770,1710,1686,1646,1600,1560,1591,1557,1544,1590,1596,1594,1598,1619,1612,1601,1610,1609,1616,1617,1614,1610,1626,1638,1644,1639,1634,1635,1634,1640,1624,1612,1622,1630,1628,1618,1614,861,861,864,862,919,1178,1417,1545,1661,1696,1722,1680,1638,1612,1608,1559,1535,1505,1474,1436,1448,1422,1373,1369,1343,1288,1273,1240,1214,1196,1172,1125,913,904,892,872,873,880,873,870,870,880,883,884,885,889,878,884,886,890,882,887,887,908,882,883,892,891,889,906,888,911,880,883,880,619,621,622,612,629,733,957,1066,1174,1217,1218,1200,1180,1160,1141,1189,1095,1082,1063,1043,1023,998,985,965,945,926,906,887,913,848,750,731,669,650,657,615,617,564,542,543,551,562,548,557,549,550,561,556,559,549,554,555,551,553,555,557,559,556,554,555,555,572,556,571,561,565,567,568,570,584,785,910,993,1089,1133,1139,1120,1103,1084,1067,1048,1086,1012,993,975,957,939,920,903,882,866,848,830,811,794,779,757,655,640,577,574,574,576,562,565,575,588,577,580,573,583,573,594,577,575,590,591,624,704,650,588,590,594,591,586,595,623,588,596,585,912,917,913,904,956,1183,1484,1651,1751,1783,1776,1752,1732,1699,1660,1695,1604,1576,1548,1520,1490,1465,1438,1406,1379,1349,1321,1291,1244,1180,1066,1006,949,925,940,910,842,780,757,759,767,792,772,776,771,768,790,777,779,773,772,774,773,777,773,783,781,776,780,780,784,793,778,793,783,1019,1020,1015,1005,1062,1342,1626,1829,1902,1929,1921,1897,1887,1870,1832,1844,1755,1729,1692,1666,1639,1609,1567,1542,1512,1484,1460,1433,1247,1247,1105,1101,1048,1030,1038,1008,986,912,892,895,915,919,903,916,905,914,917,911,916,901,908,912,907,906,915,911,912,915,913,919,916,928,910,925,915,1051,1050,1045,1045,1104,1424,1740,1925,2014,2054,2027,2009,1983,1955,1903,1933,1835,1804,1766,1736,1712,1686,1638,1604,1581,1545,1523,1483,1282,1249,1159,1127,1088,1067,1071,1046,1016,946,919,923,942,944,933,943,936,934,945,940,943,933,939,940,935,937,939,942,944,942,941,940,941,955,939,954,944,694,696,698,710,729,941,1086,1226,1318,1371,1402,1369,1340,1329,1300,1284,1275,1215,1195,1173,1164,1144,1133,1079,1057,1027,1036,992,987,949,932,871,898,700,723,720,700,687,683,683,689,697,695,687,689,691,692,692,695,691,692,705,702,696,700,700,704,706,701,695,704,698,696,700,696,654,632,667,678,684,796,1003,1129,1226,1265,1264,1246,1219,1221,1192,1168,1169,1139,1128,1096,1089,1062,1058,1023,997,984,979,931,905,825,838,738,693,697,681,664,665,656,575,579,591,612,586,587,584,585,580,590,582,579,586,587,598,596,599,590,588,586,592,590,592,588,581,587,587,996,1004,1006,1020,1040,1302,1679,1843,1939,1899,1911,1910,1878,1841,1759,1749,1715,1737,1659,1683,1649,1626,1526,1497,1525,1484,1453,1350,1236,1206,1090,1102,1056,1003,1018,1016,968,977,928,929,939,946,962,958,952,969,954,974,956,962,963,956,957,964,976,968,962,957,951,956,951,973,958,958,958,0,0,0,0,0,0,0,0,0,0,0,0,0,0,0,0,0,0,0,0,0,0,0,0,0,0,0,0,0,0,0,0,0,0,0,0,0,0,0,0,0,0,0,0,0,0,0,0,0,0,0,0,0,0,0,0,0,0,0,0,0,0,0,0,0,922,925,927,934,951,1195,1515,1664,1771,1788,1821,1750,1723,1698,1671,1644,1620,1636,1567,1542,1519,1494,1464,1434,1410,1384,1353,1326,1281,1037,1014,1050,981,948,937,931,959,895,847,848,854,857,854,856,852,855,852,856,853,852,853,853,855,857,855,854,855,853,855,855,854,856,851,853,852,1218,1252,1242,1307,1416,1862,2096,2242,2365,2376,2319,2302,2248,2218,2184,2149,2113,2126,2053,2007,1985,1970,1923,1897,1839,1801,1782,1710,1533,1468,1321,1298,1284,1253,1236,1242,1233,1242,1241,1234,1238,1240,1247,1258,1260,1255,1256,1267,1252,1248,1262,1240,1245,1256,1255,1247,1260,1241,1240,1257,1254,1273,1259,1257,1257,470,470,470,473,477,598,712,786,859,914,913,899,884,872,856,847,839,818,801,788,776,763,746,732,718,713,694,662,654,639,550,534,523,492,495,475,477,449,415,412,413,422,421,417,426,421,415,421,418,420,421,424,421,419,435,429,419,419,418,418,417,424,418,421,421,1147,1155,1156,1192,1276,1780,1992,2144,2220,2233,2213,2236,2143,2109,2084,2042,2000,1973,1939,1897,1883,1832,1804,1775,1749,1696,1671,1501,1507,1393,1269,1236,1190,1177,1162,1179,1164,1148,1123,1112,1116,1118,1139,1132,1138,1136,1134,1135,1134,1126,1140,1118,1123,1134,1134,1125,1138,1119,1118,1135,1132,1151,1139,1138,1138,289,291,292,304,294,326,415,458,507,548,556,548,541,533,525,516,507,499,492,484,476,468,459,451,444,436,428,420,413,404,342,334,310,304,313,305,306,296,230,236,234,239,239,241,235,239,230,243,234,232,236,240,246,245,248,241,239,233,243,240,239,242,231,236,236,124,125,125,125,154,157,172,187,187,188,187,187,188,188,188,187,187,187,187,187,187,188,188,188,185,183,180,177,173,171,168,165,161,159,156,154,154,154,99,99,99,101,113,106,104,110,104,114,107,106,108,103,104,107,107,104,111,103,103,103,103,103,103,103,103,149,150,150,183,183,187,209,231,252,300,296,293,304,301,300,281,287,285,281,253,250,240,237,233,228,225,220,214,211,207,203,199,195,192,187,184,184,184,116,117,119,122,119,121,117,120,117,121,118,117,118,118,120,122,120,119,120,118,120,120,119,121,116,118,117,654,632,667,678,684,796,1003,1129,1226,1265,1264,1246,1219,1221,1192,1168,1169,1139,1128,1096,1089,1062,1058,1023,997,984,979,931,905,825,838,738,693,697,681,664,665,656,575,579,591,612,586,587,584,585,580,590,582,579,586,587,598,596,599,590,588,586,592,590,592,588,581,587,587,921,924,926,945,1011,1447,1678,1890,1983,2022,2006,1970,1999,1896,1915,1822,1785,1804,1714,1725,1637,1604,1565,1527,1540,1454,1465,1380,1344,1306,1270,1008,981,953,936,936,941,947,958,968,974,986,980,993,1021,1017,966,999,982,968,969,1010,1028,1027,1033,1028,1017,1032,1036,1001,987,974,981,986,966,1473,1477,1521,1644,2152,2615,2978,3194,3285,3333,3227,3168,3121,3036,3006,2934,2872,2812,2812,2673,2602,2546,2464,2441,2332,2250,2133,1778,1726,1668,1634,1580,1539,1509,1498,1505,1544,1555,1634,1576,1626,1584,1654,1619,1601,1616,1613,1627,1634,1613,1637,1609,1621,1645,1646,1625,1641,1635,1674,1688,1672,1704,1703,1708,1674,931,934,936,972,993,1365,1568,1718,1791,1815,1881,1780,1764,1724,1702,1674,1675,1613,1571,1557,1530,1502,1497,1469,1419,1391,1391,1335,1317,1108,1099,1031,979,980,947,945,934,960,941,943,954,958,949,964,949,950,952,960,974,962,958,963,965,988,966,968,953,966,963,967,970,966,958,975,965,0,0,0,0,0,0,0,0,0,0,0,0,0,0,0,0,0,0,0,0,0,0,0,0,0,0,0,0,0,0,0,0,0,0,0,0,0,0,0,0,0,0,0,0,0,0,0,0,0,0,0,0,0,0,0,0,0,0,0,0,0,0,0,0,0,1426,1424,1471,1630,2256,2840,3256,3446,3483,3479,3416,3344,3269,3203,3121,3078,2983,2899,2828,2762,2704,2616,2506,2470,2427,2321,2232,2135,1994,1660,1605,1548,1485,1467,1453,1469,1485,1502,1638,1629,1625,1630,1648,1661,1653,1649,1657,1685,1658,1672,1683,1721,1670,1677,1709,1674,1652,1675,1675,1667,1665,1675,1671,1748,1656,1258,1242,1252,1304,1381,1989,2227,2343,2416,2444,2488,2406,2365,2318,2274,2267,2205,2179,2128,2100,2033,1995,1959,1964,1883,1823,1801,1763,1530,1398,1344,1336,1293,1269,1279,1233,1221,1259,1235,1234,1246,1250,1240,1249,1242,1245,1244,1247,1281,1257,1253,1256,1258,1295,1260,1261,1250,1262,1261,1264,1264,1264,1255,1284,1284,1379,1377,1433,1542,2149,2598,3023,3201,3272,3278,3229,3153,3086,3014,2951,2893,2850,2776,2684,2640,2596,2490,2423,2370,2356,2222,2198,2123,1848,1715,1544,1510,1438,1461,1401,1430,1440,1442,1547,1535,1547,1559,1557,1572,1559,1564,1561,1580,1607,1580,1588,1575,1580,1623,1599,1589,1590,1602,1595,1627,1628,1622,1618,1667,1603,974,977,981,1016,1090,1449,1642,1797,1907,1943,1934,1903,1895,1864,1869,1779,1769,1733,1687,1656,1625,1593,1563,1532,1501,1470,1457,1409,1378,1276,1182,1052,1026,1017,991,1001,1018,994,1003,1015,1017,1007,1006,1015,1019,1022,1020,1021,1035,1018,1029,1032,1035,1031,1036,1043,1023,1021,1030,1028,1021,1033,1024,1078,1074,861,844,846,882,897,1234,1397,1546,1637,1675,1732,1668,1641,1590,1564,1578,1532,1485,1467,1454,1404,1378,1351,1368,1318,1271,1262,1218,1192,983,931,909,888,868,870,854,833,869,841,841,851,854,844,855,845,849,847,853,886,860,855,859,861,898,862,864,852,865,862,864,866,864,858,887,887,811,814,833,853,866,1188,1346,1526,1586,1655,1693,1595,1568,1543,1516,1490,1465,1438,1425,1387,1361,1335,1334,1307,1257,1232,1205,1179,1153,978,971,932,859,839,827,840,815,852,824,824,832,833,827,838,828,831,830,836,852,843,838,842,843,855,845,847,835,847,845,847,849,847,841,875,861,921,924,926,945,1011,1447,1678,1890,1983,2022,2006,1970,1999,1896,1915,1822,1785,1804,1714,1725,1637,1604,1565,1527,1540,1454,1465,1380,1344,1306,1270,1008,981,953,936,936,941,947,958,968,974,986,980,993,1021,1017,966,999,982,968,969,1010,1028,1027,1033,1028,1017,1032,1036,1001,987,974,981,986,966,1094,1113,1136,1111,1158,1563,1928,2083,2180,2171,2162,2151,2083,2049,2015,2043,1948,1909,1888,1851,1811,1777,1763,1757,1694,1698,1622,1572,1509,1411,1215,1219,1160,1148,1142,1126,1146,1122,1112,1126,1120,1128,1132,1121,1129,1141,1125,1130,1128,1125,1129,1131,1131,1130,1131,1130,1128,1128,1132,1132,1129,1129,1128,1127,1127,656,658,661,664,688,927,1176,1169,1274,1459,1320,1299,1277,1257,1236,1349,1192,1172,1152,1131,1109,1089,1067,1136,1024,1004,983,961,1021,919,735,891,701,683,729,727,669,648,664,664,671,688,675,679,684,684,685,682,684,676,681,681,691,687,679,687,680,688,686,681,689,689,688,687,685,1187,1179,1195,1205,1356,1728,2114,2226,2302,2347,2341,2273,2226,2182,2172,2119,2120,2076,2030,1999,1959,1921,1867,1849,1822,1771,1711,1596,1462,1426,1328,1306,1258,1234,1218,1196,1161,1159,1148,1151,1152,1159,1162,1155,1157,1172,1158,1163,1159,1158,1162,1163,1161,1162,1164,1163,1161,1161,1164,1165,1159,1157,1156,1155,1155,1398,1406,1445,1553,2078,2578,3080,3353,3454,3451,3391,3329,3251,3183,3140,3028,2960,2917,2811,2757,2684,2586,2517,2438,2371,2339,2224,2134,1774,1714,1580,1520,1476,1440,1431,1458,1456,1490,1564,1517,1525,1528,1620,1603,1560,1585,1562,1617,1611,1597,1628,1586,1595,1633,1606,1600,1658,1608,1652,1620,1636,1650,1751,1636,1621,0,0,0,0,0,0,0,0,0,0,0,0,0,0,0,0,0,0,0,0,0,0,0,0,0,0,0,0,0,0,0,0,0,0,0,0,0,0,0,0,0,0,0,0,0,0,0,0,0,0,0,0,0,0,0,0,0,0,0,0,0,0,0,0,0,933,934,939,946,972,1296,1594,1738,1826,1860,1857,1817,1787,1753,1733,1694,1676,1643,1617,1587,1558,1527,1499,1467,1458,1407,1370,1344,1320,1136,1096,1092,998,987,960,953,892,889,878,879,882,885,890,878,883,898,884,889,885,883,888,889,887,888,890,892,887,885,889,889,886,884,883,882,882,454,479,480,482,488,627,717,823,908,935,966,951,936,897,905,889,874,859,843,807,812,797,782,766,750,717,719,704,688,656,652,627,620,532,488,485,486,476,484,477,479,484,487,486,487,484,487,491,490,486,503,492,492,484,485,504,492,505,485,486,508,493,490,487,483,1197,1183,1205,1206,1301,1769,2126,2230,2307,2353,2353,2268,2234,2186,2183,2114,2122,2084,2030,2004,1970,1922,1888,1847,1816,1786,1663,1605,1431,1400,1323,1312,1275,1243,1224,1161,1107,1105,1093,1095,1111,1111,1109,1101,1101,1127,1106,1109,1106,1103,1107,1111,1109,1108,1116,1111,1110,1111,1112,1118,1106,1106,1105,1104,1104,1270,1258,1272,1295,1376,1853,2247,2364,2440,2488,2470,2411,2365,2319,2289,2240,2228,2190,2146,2110,2073,2033,1968,1952,1927,1870,1751,1637,1499,1427,1396,1351,1338,1322,1288,1244,1240,1239,1215,1215,1215,1217,1222,1216,1221,1231,1215,1220,1219,1217,1219,1222,1222,1222,1222,1221,1219,1219,1223,1224,1220,1221,1220,1219,1219,1303,1287,1319,1353,1417,1909,2311,2458,2503,2553,2520,2480,2429,2386,2361,2308,2274,2235,2193,2152,2137,2073,2038,1990,1964,1928,1830,1731,1607,1468,1422,1377,1381,1348,1313,1253,1255,1250,1227,1226,1223,1227,1231,1225,1231,1242,1227,1249,1248,1246,1236,1234,1230,1230,1233,1229,1226,1228,1231,1230,1230,1227,1226,1225,1225,1094,1113,1136,1111,1158,1563,1928,2083,2180,2171,2162,2151,2083,2049,2015,2043,1948,1909,1888,1851,1811,1777,1763,1757,1694,1698,1622,1572,1509,1411,1215,1219,1160,1148,1142,1126,1146,1122,1112,1126,1120,1128,1132,1121,1129,1141,1125,1130,1128,1125,1129,1131,1131,1130,1131,1130,1128,1128,1132,1132,1129,1129,1128,1127,1127,436,437,429,431,452,518,656,719,801,844,881,878,855,830,817,802,789,756,772,723,717,728,696,701,686,649,642,643,622,600,602,587,580,466,454,442,451,453,410,417,408,416,425,420,422,426,415,421,421,422,416,413,416,422,420,420,425,419,418,424,419,424,420,424,418,650,645,655,643,680,797,971,1104,1196,1277,1299,1284,1257,1237,1222,1185,1176,1144,1138,1110,1094,1035,1051,1029,1010,996,959,923,922,828,846,724,700,689,666,672,629,644,564,568,565,577,577,573,580,576,583,579,579,577,571,580,580,581,583,584,578,571,577,578,578,578,578,578,578,350,352,352,353,354,428,507,564,621,679,705,696,683,672,661,650,639,628,616,606,596,584,573,561,551,539,529,517,508,495,485,474,454,442,360,356,357,359,269,269,270,272,270,274,272,277,274,274,274,274,274,275,275,274,274,274,275,275,276,277,275,276,273,273,272,1203,1202,1211,1227,1306,1744,1999,2161,2306,2388,2385,2338,2311,2254,2214,2187,2150,2103,2076,2038,1999,1952,1924,1884,1846,1799,1775,1514,1488,1347,1335,1306,1261,1248,1225,1202,1198,1176,1110,1111,1112,1117,1124,1121,1118,1126,1119,1119,1119,1119,1119,1120,1120,1119,1119,1119,1120,1120,1121,1122,1120,1121,1118,1118,1117,1002,995,1016,1020,1049,1321,1627,1807,1922,1939,1937,1911,1874,1852,1838,1771,1757,1749,1704,1657,1636,1605,1586,1545,1522,1477,1451,1415,1394,1275,1182,1089,1053,1037,1016,1018,1022,1029,958,964,967,964,969,963,976,981,972,981,971,971,969,972,970,981,981,971,974,967,966,970,970,970,970,970,970,0,0,0,0,0,0,0,0,0,0,0,0,0,0,0,0,0,0,0,0,0,0,0,0,0,0,0,0,0,0,0,0,0,0,0,0,0,0,0,0,0,0,0,0,0,0,0,0,0,0,0,0,0,0,0,0,0,0,0,0,0,0,0,0,0,897,902,919,920,934,1160,1480,1630,1737,1786,1784,1766,1721,1709,1658,1633,1624,1593,1565,1531,1502,1453,1433,1421,1379,1351,1321,1291,1274,1154,1008,990,960,938,935,925,926,920,841,842,845,842,847,846,854,862,850,860,849,849,847,850,848,864,864,850,852,845,844,848,848,848,848,848,848,327,330,331,332,336,374,471,528,591,644,671,661,652,640,628,618,605,596,584,575,565,553,542,532,522,511,501,489,479,469,456,447,359,350,343,337,338,339,215,216,215,216,229,226,219,223,218,228,222,220,221,220,219,222,222,220,226,219,223,226,223,229,220,222,219,431,433,432,439,436,491,620,683,739,817,836,816,800,809,772,760,775,765,734,727,719,701,689,676,665,644,630,617,618,603,592,559,501,465,445,441,441,424,348,350,350,352,363,357,355,360,355,364,356,355,357,353,354,356,356,353,361,354,354,360,357,362,358,356,353,463,465,463,464,472,528,706,765,853,926,952,925,920,905,875,860,861,840,818,805,794,774,762,750,735,711,700,679,677,658,641,529,504,489,493,468,468,450,377,382,377,382,389,386,383,391,384,384,384,384,384,385,385,384,384,384,385,385,386,387,385,386,383,383,382,436,437,429,431,452,518,656,719,801,844,881,878,855,830,817,802,789,756,772,723,717,728,696,701,686,649,642,643,622,600,602,587,580,466,454,442,451,453,410,417,408,416,425,420,422,426,415,421,421,422,416,413,416,422,420,420,425,419,418,424,419,424,420,424,418,1037,1034,1040,1060,1245,1526,1717,1897,2016,2036,2037,2008,1975,1937,1903,1870,1832,1810,1777,1734,1711,1670,1647,1614,1582,1549,1518,1498,1437,1268,1229,1108,1082,1062,1052,1049,1051,1023,1016,1023,1029,1039,1035,1054,1035,1058,1052,1042,1065,1063,1058,1060,1065,1068,1048,1044,1069,1051,1034,1055,1032,1051,1042,1036,1025,504,506,508,510,518,693,785,878,968,1071,1021,1005,990,973,957,940,924,907,891,874,859,842,826,809,793,776,760,743,728,711,695,678,662,528,516,513,514,515,510,510,517,542,526,518,524,528,522,526,535,543,539,543,543,545,531,522,524,536,529,514,520,531,522,532,523,1127,1117,1136,1157,1282,1715,1886,2082,2172,2203,2211,2156,2143,2080,2051,2010,1981,1965,1938,1902,1861,1826,1788,1751,1720,1693,1657,1590,1278,1310,1226,1231,1179,1165,1148,1130,1105,1055,1050,1052,1050,1072,1074,1105,1080,1089,1088,1077,1108,1081,1073,1074,1080,1094,1077,1083,1085,1079,1077,1074,1075,1080,1073,1071,1060,1433,1435,1492,1600,2177,2702,3188,3371,3382,3498,3379,3330,3205,3118,3053,3004,2916,2841,2779,2710,2643,2572,2508,2436,2357,2275,2173,2071,1989,1728,1570,1541,1474,1431,1432,1432,1449,1468,1599,1580,1579,1594,1594,1621,1598,1593,1622,1636,1607,1614,1624,1627,1630,1619,1661,1652,1626,1655,1612,1624,1682,1631,1627,1682,1622,588,590,592,594,603,805,940,1050,1097,1149,1256,1135,1117,1100,1122,1065,1073,1030,1038,1019,1002,960,991,925,907,925,872,854,837,852,801,784,721,612,600,596,598,614,609,599,602,599,603,603,607,603,610,604,603,607,623,612,632,612,609,654,608,671,614,651,614,664,610,608,608,868,871,873,881,948,1250,1405,1572,1698,1736,1733,1704,1674,1647,1617,1589,1565,1537,1509,1481,1453,1424,1398,1371,1344,1316,1290,1261,1234,1204,1129,945,918,899,890,885,836,786,780,780,780,798,802,828,806,815,814,803,834,806,798,800,806,820,802,808,809,802,802,798,802,807,800,798,787,0,0,0,0,0,0,0,0,0,0,0,0,0,0,0,0,0,0,0,0,0,0,0,0,0,0,0,0,0,0,0,0,0,0,0,0,0,0,0,0,0,0,0,0,0,0,0,0,0,0,0,0,0,0,0,0,0,0,0,0,0,0,0,0,0,1132,1131,1143,1170,1300,1720,1882,2098,2176,2230,2236,2155,2154,2082,2076,2011,1988,1980,1944,1903,1871,1834,1802,1737,1732,1695,1610,1539,1385,1359,1238,1224,1190,1173,1135,1121,1051,1002,995,996,1009,1024,1021,1051,1024,1043,1036,1023,1055,1026,1017,1022,1028,1040,1028,1027,1032,1028,1025,1029,1022,1029,1022,1020,1009,1207,1203,1219,1238,1348,1842,2018,2225,2309,2330,2343,2293,2281,2189,2163,2118,2104,2083,2055,2019,1976,1940,1888,1864,1831,1803,1751,1629,1407,1396,1344,1314,1264,1245,1224,1180,1184,1136,1132,1144,1137,1153,1161,1184,1170,1171,1169,1160,1186,1160,1155,1156,1159,1180,1156,1161,1168,1161,1166,1159,1158,1161,1154,1152,1141,1249,1234,1252,1283,1440,1947,2112,2308,2400,2440,2431,2367,2349,2284,2249,2210,2180,2156,2122,2081,2042,2007,1961,1922,1885,1863,1811,1707,1442,1450,1349,1349,1298,1285,1252,1189,1206,1168,1157,1162,1169,1184,1185,1213,1190,1199,1198,1187,1218,1191,1183,1184,1190,1204,1187,1193,1195,1189,1187,1184,1185,1190,1183,1181,1170,1037,1034,1040,1060,1245,1526,1717,1897,2016,2036,2037,2008,1975,1937,1903,1870,1832,1810,1777,1734,1711,1670,1647,1614,1582,1549,1518,1498,1437,1268,1229,1108,1082,1062,1052,1049,1051,1023,1016,1023,1029,1039,1035,1054,1035,1058,1052,1042,1065,1063,1058,1060,1065,1068,1048,1044,1069,1051,1034,1055,1032,1051,1042,1036,1025,450,455,455,458,459,583,682,759,837,906,918,897,889,866,855,838,826,814,795,782,773,755,743,729,714,695,678,670,651,639,623,606,595,478,467,463,464,445,391,390,402,421,395,398,395,399,393,393,393,393,393,393,393,393,393,393,393,393,393,393,393,393,393,393,393,900,907,891,904,942,1115,1479,1622,1717,1774,1797,1760,1717,1713,1649,1637,1633,1590,1537,1509,1503,1459,1467,1403,1362,1334,1319,1285,1201,1140,1095,986,966,952,935,918,879,869,824,819,831,831,832,835,832,839,834,834,834,834,834,834,834,834,834,834,834,834,834,834,834,834,834,834,834,227,228,229,258,266,276,331,367,404,442,456,448,442,434,427,421,413,407,399,392,386,378,371,365,357,350,343,336,330,322,315,308,301,279,272,267,269,269,211,200,197,197,211,212,211,205,204,210,216,212,213,215,215,219,203,211,215,223,215,220,207,210,220,203,201,1009,1015,1030,1051,1075,1367,1607,1761,1856,1904,1911,1889,1845,1819,1794,1767,1741,1713,1686,1650,1622,1594,1571,1543,1520,1494,1463,1432,1292,1154,1108,1088,1070,1053,1038,1035,1009,972,942,947,950,969,961,965,956,960,956,969,965,962,964,975,970,972,967,972,971,975,1001,972,992,977,968,973,970,1197,1219,1215,1246,1306,1695,2067,2222,2321,2362,2326,2326,2287,2259,2203,2156,2121,2111,2051,1991,1998,1948,1923,1870,1871,1785,1759,1728,1518,1385,1345,1309,1260,1227,1244,1225,1243,1218,1212,1208,1216,1212,1212,1216,1222,1228,1219,1219,1219,1219,1219,1219,1219,1219,1219,1219,1219,1219,1219,1219,1219,1219,1219,1219,1219,334,336,335,336,338,375,491,546,604,663,682,667,661,645,640,628,613,602,588,579,570,562,548,537,526,515,506,498,471,460,399,389,380,372,360,341,342,355,271,268,272,273,272,272,271,273,270,270,270,270,270,270,270,270,270,270,270,270,270,270,270,270,270,270,270,1128,1132,1156,1167,1242,1549,1920,2113,2173,2230,2215,2176,2175,2108,2073,2035,2047,1964,1949,1911,1835,1850,1794,1756,1740,1681,1658,1610,1287,1331,1295,1212,1175,1188,1172,1167,1161,1130,1097,1094,1094,1099,1098,1103,1100,1106,1097,1097,1097,1097,1097,1097,1097,1097,1097,1097,1097,1097,1097,1097,1097,1097,1097,1097,1097,0,0,0,0,0,0,0,0,0,0,0,0,0,0,0,0,0,0,0,0,0,0,0,0,0,0,0,0,0,0,0,0,0,0,0,0,0,0,0,0,0,0,0,0,0,0,0,0,0,0,0,0,0,0,0,0,0,0,0,0,0,0,0,0,0,326,333,328,329,329,329,337,342,345,348,352,350,349,349,348,347,347,346,345,345,344,343,343,342,341,341,339,338,338,337,336,336,335,331,327,329,330,331,252,252,250,260,251,252,252,256,251,255,253,252,255,253,256,255,253,256,258,256,256,251,255,257,256,257,257,284,284,284,284,284,289,297,305,314,322,325,324,322,321,319,317,315,314,312,311,309,308,305,304,302,301,299,298,295,294,292,291,289,288,286,284,286,286,216,221,217,222,223,227,221,222,217,220,220,218,217,229,223,227,225,227,225,227,287,227,225,229,218,223,221,450,455,455,458,459,583,682,759,837,906,918,897,889,866,855,838,826,814,795,782,773,755,743,729,714,695,678,670,651,639,623,606,595,478,467,463,464,445,391,390,402,421,395,398,395,399,393,393,393,393,393,393,393,393,393,393,393,393,393,393,393,393,393,393,393,608,610,597,632,643,728,934,1045,1154,1191,1193,1177,1151,1144,1126,1101,1087,1079,1048,1038,1058,1025,981,978,936,938,905,886,862,827,803,735,718,616,633,617,641,594,549,548,559,586,550,554,553,554,552,552,554,550,555,553,559,557,556,557,557,559,559,552,557,555,554,557,555,995,996,991,1005,1032,1343,1633,1815,1898,1955,1966,1930,1856,1865,1802,1793,1713,1747,1674,1653,1622,1597,1586,1536,1524,1490,1430,1352,1257,1215,1084,1044,1021,1032,1023,976,987,959,945,945,961,964,961,963,961,971,958,965,962,960,967,968,971,975,970,969,965,961,965,959,964,963,969,965,959,183,165,205,165,165,207,207,212,216,221,226,225,224,223,222,221,220,220,218,217,216,215,214,213,213,212,211,210,216,207,207,206,205,204,166,206,165,206,117,114,116,116,118,117,115,117,116,116,116,116,117,117,115,114,116,117,117,116,115,116,116,116,118,116,114,861,864,866,872,890,1091,1361,1569,1675,1716,1707,1682,1655,1631,1603,1573,1546,1519,1491,1466,1438,1410,1382,1355,1328,1301,1275,1248,1222,1017,1007,942,920,889,882,874,852,842,778,785,785,788,793,792,789,792,789,792,791,793,790,788,789,790,789,789,792,790,788,792,790,797,791,791,789,1279,1305,1291,1342,1458,1955,2193,2383,2462,2485,2491,2435,2391,2379,2295,2250,2201,2198,2159,2112,2079,2030,2003,1964,1960,1873,1855,1797,1451,1443,1416,1418,1338,1310,1308,1298,1324,1282,1299,1291,1306,1303,1304,1315,1312,1312,1315,1313,1309,1310,1311,1314,1313,1312,1316,1320,1316,1312,1315,1313,1309,1313,1323,1318,1309,421,423,423,424,429,524,622,710,813,831,847,830,820,807,794,772,767,753,738,724,711,694,680,672,665,645,632,619,594,580,568,554,544,460,432,428,428,406,396,396,397,402,403,397,404,400,400,400,399,402,401,406,404,408,405,408,403,399,401,397,400,401,405,403,397,1198,1202,1191,1229,1334,1804,2062,2227,2341,2356,2352,2315,2277,2215,2208,2158,2113,2079,2041,2018,1964,1935,1893,1868,1796,1795,1750,1505,1537,1413,1333,1310,1279,1229,1244,1245,1209,1203,1182,1188,1184,1193,1195,1193,1190,1194,1193,1191,1187,1192,1189,1192,1191,1190,1194,1198,1194,1190,1193,1191,1187,1191,1201,1202,1191,243,245,245,246,247,312,350,389,427,446,452,448,445,442,438,435,432,435,427,420,413,405,398,390,382,375,368,360,352,345,337,329,322,315,307,248,248,249,204,205,202,213,203,208,204,208,202,205,206,203,205,206,207,206,205,208,208,206,210,202,204,209,204,206,205,0,0,0,0,0,0,0,0,0,0,0,0,0,0,0,0,0,0,0,0,0,0,0,0,0,0,0,0,0,0,0,0,0,0,0,0,0,0,0,0,0,0,0,0,0,0,0,0,0,0,0,0,0,0,0,0,0,0,0,0,0,0,0,0,0,93,93,109,109,109,110,103,139,152,165,177,175,171,169,167,164,161,159,155,154,151,148,146,142,139,138,134,131,106,104,123,121,118,116,112,109,110,110,52,52,51,53,58,57,54,57,54,57,56,58,55,53,54,55,54,54,57,55,53,57,55,62,56,56,54,608,610,597,632,643,728,934,1045,1154,1191,1193,1177,1151,1144,1126,1101,1087,1079,1048,1038,1058,1025,981,978,936,938,905,886,862,827,803,735,718,616,633,617,641,594,549,548,559,586,550,554,553,554,552,552,554,550,555,553,559,557,556,557,557,559,559,552,557,555,554,557,555,601,603,608,607,617,742,902,999,1138,1175,1200,1166,1147,1120,1117,1086,1069,1075,1038,1019,998,996,964,944,931,908,896,873,854,837,819,752,712,632,621,618,620,573,550,543,543,548,546,552,547,550,545,550,551,549,550,554,552,559,555,554,556,556,560,559,559,563,555,563,555,1008,1022,1028,1054,1135,1375,1715,1904,1965,2046,2047,1966,1974,1918,1900,1867,1805,1753,1738,1722,1718,1664,1613,1584,1590,1544,1488,1398,1330,1270,1116,1111,1098,1043,1055,1012,1009,993,976,976,999,1001,989,996,985,1001,996,995,994,991,998,1000,1007,1004,999,1001,997,1001,999,999,1008,997,997,997,997,210,210,211,211,212,237,288,315,323,328,334,333,332,331,330,328,327,326,344,338,334,328,324,319,316,309,303,299,293,289,283,252,253,243,251,212,213,213,152,153,154,154,154,154,155,155,153,154,152,154,156,156,157,155,155,154,155,156,157,154,157,152,152,152,152,796,832,801,806,817,1004,1231,1386,1515,1581,1601,1581,1534,1509,1483,1462,1443,1409,1382,1357,1334,1308,1279,1257,1232,1206,1180,1156,1137,1048,884,864,877,823,811,809,786,775,726,728,730,748,742,740,735,740,735,752,744,746,745,746,746,753,743,743,748,746,750,747,751,765,746,752,749,1306,1333,1328,1356,1528,1973,2249,2447,2558,2548,2594,2495,2486,2448,2374,2345,2307,2269,2232,2181,2153,2113,2053,2037,1985,1980,1904,1811,1592,1498,1420,1427,1368,1346,1330,1330,1339,1322,1336,1327,1343,1341,1337,1353,1348,1350,1355,1349,1349,1349,1349,1354,1350,1349,1355,1355,1355,1350,1351,1354,1356,1358,1358,1358,1356,459,461,460,461,467,511,703,786,864,920,928,915,895,891,865,852,832,826,808,794,783,764,751,734,722,704,689,662,650,635,621,512,537,479,466,465,466,440,427,427,435,439,431,430,428,430,438,430,431,433,432,438,440,437,434,440,435,439,435,437,444,435,435,435,435,1234,1239,1228,1266,1349,1822,2119,2294,2415,2436,2438,2380,2372,2297,2259,2245,2202,2147,2124,2066,2030,1992,1963,1932,1894,1860,1683,1438,1575,1377,1329,1325,1286,1294,1284,1260,1247,1240,1219,1224,1221,1231,1231,1231,1226,1233,1233,1227,1227,1231,1227,1232,1228,1227,1233,1233,1233,1228,1229,1232,1234,1236,1236,1236,1236,228,232,229,230,282,292,323,352,387,416,427,432,425,429,411,422,391,386,391,385,368,386,358,350,345,338,332,328,322,316,310,304,299,292,287,282,283,284,203,203,203,203,205,205,205,206,206,206,207,208,208,209,209,209,208,209,212,211,212,212,211,212,212,211,211,113,114,114,115,115,116,147,152,159,165,170,169,168,167,166,165,163,162,161,160,159,157,156,155,154,152,151,150,149,148,147,146,145,147,143,115,115,116,59,60,58,60,58,58,57,60,61,58,61,58,59,57,60,60,62,59,61,58,60,59,61,60,57,56,56,0,0,0,0,0,0,0,0,0,0,0,0,0,0,0,0,0,0,0,0,0,0,0,0,0,0,0,0,0,0,0,0,0,0,0,0,0,0,0,0,0,0,0,0,0,0,0,0,0,0,0,0,0,0,0,0,0,0,0,0,0,0,0,0,0,601,603,608,607,617,742,902,999,1138,1175,1200,1166,1147,1120,1117,1086,1069,1075,1038,1019,998,996,964,944,931,908,896,873,854,837,819,752,712,632,621,618,620,573,550,543,543,548,546,552,547,550,545,550,551,549,550,554,552,559,555,554,556,556,560,559,559,563,555,563,555,0,0,0,0,0,0,0,0,0,0,0,0,0,0,0,0,0,0,0,0,0,0,0,0,0,0,0,0,0,0,0,0,0,0,0,0,0,0,0,0,0,0,0,0,0,0,0,0,0,0,0,0,0,0,0,0,0,0,0,0,0,0,0,0,0,661,730,720,728,693,961,1134,1255,1323,1417,1416,1409,1370,1306,1325,1221,1297,1279,1160,1262,1189,1134,1144,1052,1139,1015,1053,997,958,933,912,740,722,757,734,717,752,652,696,695,706,722,735,717,718,721,733,733,735,734,732,733,734,745,733,727,732,728,722,732,727,742,734,738,722,635,627,639,642,644,788,951,1060,1187,1257,1269,1235,1225,1207,1187,1167,1141,1125,1107,1085,1072,1057,1032,1011,992,970,959,921,895,845,829,764,695,689,663,646,646,590,533,534,535,539,540,540,543,541,541,542,543,544,545,555,551,549,547,548,550,550,550,552,548,548,548,548,548,866,868,870,878,1034,1361,1589,1775,1888,1914,1901,1866,1831,1796,1761,1725,1690,1655,1620,1585,1548,1513,1478,1441,1408,1372,1332,1302,1267,1232,1055,1022,920,894,882,882,886,893,905,913,924,973,937,931,927,970,918,927,925,919,919,934,933,977,1009,993,935,930,934,923,917,918,932,932,918,1224,1225,1240,1257,1300,1854,2120,2262,2330,2393,2365,2321,2289,2248,2225,2178,2161,2099,2081,2044,2002,1989,1920,1897,1871,1816,1765,1721,1584,1559,1362,1349,1287,1255,1240,1246,1246,1213,1255,1251,1252,1264,1286,1256,1253,1265,1264,1295,1287,1270,1262,1289,1309,1315,1294,1266,1303,1293,1288,1281,1265,1282,1276,1281,1275,392,394,395,396,398,486,578,647,710,779,797,791,779,767,745,741,724,712,699,682,669,656,644,631,622,612,597,584,574,559,526,513,500,413,405,398,411,390,363,360,359,359,365,370,367,371,371,372,372,374,373,374,372,375,371,373,394,375,376,391,377,382,383,381,379,1034,1026,1042,1048,1084,1516,1769,1926,1997,2032,2039,2026,1956,1939,1910,1860,1844,1807,1794,1730,1696,1669,1644,1630,1602,1567,1530,1479,1290,1258,1151,1150,1071,1054,1041,1033,1042,1005,1033,1033,1059,1057,1061,1037,1042,1045,1034,1063,1057,1071,1068,1077,1091,1091,1070,1066,1065,1080,1057,1055,1061,1051,1054,1058,1050,407,408,412,411,414,523,595,664,742,809,827,815,800,787,774,761,748,734,721,708,695,690,668,655,642,629,623,602,589,576,563,550,439,490,456,414,415,416,364,365,366,370,370,369,372,371,372,372,372,372,373,381,376,375,373,378,376,373,373,377,377,377,377,377,377,605,608,610,612,613,716,893,1000,1094,1159,1173,1164,1148,1134,1116,1098,1080,1060,1042,1024,1006,987,969,956,932,919,896,877,860,842,823,736,646,639,650,613,615,604,546,547,550,552,553,552,559,555,555,557,557,558,564,570,567,565,564,566,570,568,564,570,568,568,568,568,568,607,608,610,613,617,755,880,972,1067,1133,1147,1136,1119,1104,1089,1075,1060,1042,1025,1008,992,973,962,944,922,909,898,889,873,855,832,705,641,642,616,617,613,615,546,547,548,554,556,554,559,554,555,559,559,558,561,570,567,567,565,566,568,566,567,570,567,567,567,567,567,0,0,0,0,0,0,0,0,0,0,0,0,0,0,0,0,0,0,0,0,0,0,0,0,0,0,0,0,0,0,0,0,0,0,0,0,0,0,0,0,0,0,0,0,0,0,0,0,0,0,0,0,0,0,0,0,0,0,0,0,0,0,0,0,0 ]);
