n = 10;
D = [105,258,153,253,297,295,107,296,259,141 ];
q = 0;
prec = array2d(1..0,1..2,[]);
steps = 64;
l = 360;
r = 0;
which = [];
interval = array2d(1..0,1..2,[]);
T = array3d(1..11,1..11,0..64,[0,0,0,0,0,0,0,0,0,0,0,0,0,0,0,0,0,0,0,0,0,0,0,0,0,0,0,0,0,0,0,0,0,0,0,0,0,0,0,0,0,0,0,0,0,0,0,0,0,0,0,0,0,0,0,0,0,0,0,0,0,0,0,0,0,614,616,618,620,622,776,935,1041,1160,1211,1238,1215,1199,1179,1167,1140,1120,1097,1080,1060,1038,996,998,992,959,940,920,901,863,835,786,766,748,627,632,611,625,610,581,582,579,585,588,586,585,592,585,595,588,593,585,584,588,592,591,589,590,595,586,589,586,587,586,588,587,80,80,80,80,80,81,92,102,112,122,132,129,127,125,123,121,118,117,115,113,111,108,106,105,103,101,99,96,94,93,91,89,86,84,82,81,81,81,48,46,48,49,46,51,48,53,52,49,55,49,50,49,49,51,49,49,49,50,49,48,49,50,49,53,49,568,571,572,587,589,678,881,968,1064,1134,1154,1132,1118,1104,1078,1059,1046,1023,1004,986,972,949,931,911,895,883,865,838,827,808,790,689,673,630,597,590,592,571,501,500,499,500,500,501,499,501,498,505,501,499,500,500,500,500,503,502,501,501,501,504,500,503,500,503,502,847,849,852,855,926,1273,1461,1660,1798,1827,1813,1795,1781,1717,1693,1652,1619,1587,1555,1522,1490,1468,1425,1381,1375,1316,1295,1263,1219,1200,1038,1025,901,877,864,865,855,878,827,824,828,838,829,841,838,842,839,839,851,837,837,842,844,842,839,842,841,844,846,840,840,842,845,848,840,195,195,196,197,197,248,277,305,334,363,377,371,366,360,355,349,344,338,333,327,322,316,311,305,300,294,289,283,278,272,267,261,256,250,245,242,242,243,186,189,186,193,190,196,188,194,187,189,189,189,186,193,191,195,191,195,193,194,227,195,190,232,187,191,189,385,386,387,388,390,453,560,629,694,768,777,765,753,742,728,716,704,691,678,666,654,642,630,617,605,593,581,568,562,543,531,517,487,457,395,390,391,426,353,352,356,359,357,360,352,360,350,364,356,353,354,358,359,359,361,360,359,355,360,362,356,357,356,358,357,556,557,558,560,562,688,836,932,1039,1092,1122,1101,1086,1068,1058,1033,1014,994,978,961,940,901,905,901,869,852,834,816,781,779,745,677,660,567,573,552,565,538,520,521,522,527,528,526,528,532,522,535,529,535,525,525,527,531,529,531,532,537,527,531,528,529,528,530,529,354,356,358,359,374,450,525,576,636,696,724,711,700,689,677,666,655,642,631,621,607,597,587,574,563,558,548,528,523,512,501,481,470,462,379,379,381,382,297,296,295,296,296,297,295,297,294,301,297,295,296,296,296,296,299,298,297,297,297,300,296,299,296,299,298,679,678,681,692,697,854,1038,1167,1270,1365,1363,1329,1326,1302,1282,1250,1239,1214,1195,1159,1143,1122,1093,1077,1050,1027,1019,998,978,952,908,812,726,722,697,693,693,658,609,608,607,608,608,609,607,609,606,613,609,607,608,608,608,608,611,610,609,609,609,612,608,611,608,611,610,0,0,0,0,0,0,0,0,0,0,0,0,0,0,0,0,0,0,0,0,0,0,0,0,0,0,0,0,0,0,0,0,0,0,0,0,0,0,0,0,0,0,0,0,0,0,0,0,0,0,0,0,0,0,0,0,0,0,0,0,0,0,0,0,0,566,562,560,571,584,787,892,990,1067,1144,1127,1116,1095,1081,1058,1048,1043,1025,991,973,964,952,919,901,878,861,843,831,827,793,777,760,703,603,578,575,633,576,552,558,569,590,568,580,556,578,569,589,569,557,566,571,589,589,577,572,574,571,577,583,575,589,561,574,567,0,0,0,0,0,0,0,0,0,0,0,0,0,0,0,0,0,0,0,0,0,0,0,0,0,0,0,0,0,0,0,0,0,0,0,0,0,0,0,0,0,0,0,0,0,0,0,0,0,0,0,0,0,0,0,0,0,0,0,0,0,0,0,0,0,536,532,531,541,544,677,845,920,1011,1134,1073,1063,1043,1029,1007,998,994,976,942,926,918,907,874,843,856,818,801,789,773,694,752,677,658,573,548,544,568,545,527,539,537,549,548,559,535,551,533,553,542,534,541,549,553,553,553,551,552,542,553,553,550,553,537,549,539,538,540,541,543,545,627,822,938,1032,1080,1083,1067,1049,1031,1015,998,980,964,947,930,911,894,876,859,846,826,808,795,774,756,739,614,600,585,550,546,547,532,495,501,500,511,507,515,506,517,506,518,518,524,516,514,520,519,518,509,521,527,529,525,517,540,520,520,515,741,743,746,748,794,1044,1196,1478,1585,1638,1625,1596,1566,1535,1505,1479,1446,1416,1388,1384,1360,1298,1267,1238,1208,1179,1140,1119,1090,860,843,819,794,784,749,753,758,745,759,731,734,737,739,763,750,759,761,755,765,757,765,763,757,764,761,758,762,764,762,766,763,767,765,765,765,464,465,467,466,471,632,720,782,857,959,936,914,918,883,888,874,858,844,813,795,800,785,755,740,722,727,711,697,681,653,652,636,609,578,477,472,473,474,455,459,468,479,473,478,463,482,463,483,470,463,478,480,480,483,483,477,476,482,483,478,476,483,469,483,467,342,342,343,345,346,435,496,572,630,682,691,680,669,659,647,637,625,615,604,593,582,571,560,549,539,528,517,506,463,470,459,449,438,360,351,347,348,349,328,325,328,335,338,352,329,365,328,333,333,330,332,339,339,343,341,341,336,338,351,355,335,341,337,354,338,59,59,59,59,59,60,68,75,83,91,97,96,94,93,91,90,89,86,85,84,82,81,79,78,77,74,73,71,70,69,67,66,64,62,61,59,60,60,22,22,22,22,22,22,22,22,23,23,23,23,23,23,23,23,23,23,23,23,23,23,23,23,23,23,23,369,370,371,373,374,476,537,622,686,739,748,737,724,712,700,689,677,664,653,641,629,618,605,594,581,570,558,546,534,523,511,499,487,466,379,375,375,377,357,355,359,375,368,378,352,381,359,378,373,361,374,371,370,367,378,370,360,366,383,386,357,358,362,366,354,438,439,441,443,444,518,641,715,792,878,884,872,857,842,830,814,800,787,772,758,747,737,722,708,695,678,666,653,638,623,610,544,531,474,455,444,446,446,392,397,397,410,414,416,403,432,401,412,409,405,405,409,410,413,408,407,410,409,422,424,405,410,404,406,406,566,562,560,571,584,787,892,990,1067,1144,1127,1116,1095,1081,1058,1048,1043,1025,991,973,964,952,919,901,878,861,843,831,827,793,777,760,703,603,578,575,633,576,552,558,569,590,568,580,556,578,569,589,569,557,566,571,589,589,577,572,574,571,577,583,575,589,561,574,567,89,90,90,90,111,112,125,138,151,165,176,173,170,168,165,162,160,157,155,152,149,147,144,141,139,136,134,132,128,126,123,121,118,115,113,111,111,111,76,76,76,76,78,78,77,80,80,79,78,77,77,77,77,80,78,76,78,77,77,77,78,79,78,79,78,607,608,597,599,614,759,924,1028,1147,1219,1221,1204,1158,1162,1152,1099,1080,1062,1042,1023,1027,984,988,948,948,910,892,873,870,825,807,734,717,631,605,602,604,603,571,574,571,578,605,587,587,594,587,611,587,590,584,580,583,596,585,581,591,589,579,586,585,598,585,583,583,0,0,0,0,0,0,0,0,0,0,0,0,0,0,0,0,0,0,0,0,0,0,0,0,0,0,0,0,0,0,0,0,0,0,0,0,0,0,0,0,0,0,0,0,0,0,0,0,0,0,0,0,0,0,0,0,0,0,0,0,0,0,0,0,0,560,563,564,579,581,661,870,956,1050,1118,1139,1118,1103,1089,1064,1045,1032,1010,991,973,959,937,918,899,883,872,854,827,817,797,728,653,638,622,578,580,585,560,491,492,491,493,516,502,501,503,500,521,500,496,499,496,495,504,497,494,502,495,494,501,499,518,499,498,498,800,795,798,801,874,1192,1373,1560,1693,1725,1715,1671,1659,1635,1591,1547,1528,1494,1453,1441,1410,1369,1348,1317,1272,1254,1223,1192,1161,1130,1099,964,856,828,815,798,806,801,779,778,780,789,783,790,790,789,787,790,796,788,787,793,795,791,790,793,792,794,797,792,791,792,796,795,791,188,188,189,189,232,238,266,293,321,347,363,357,352,346,342,336,331,325,320,315,310,304,299,294,289,283,278,272,268,262,257,251,246,242,236,232,233,233,178,178,180,178,180,180,181,220,183,184,180,182,180,184,181,188,189,184,181,180,178,181,181,182,178,181,180,378,378,379,381,382,436,549,616,681,744,763,752,739,727,715,704,691,678,666,654,642,631,618,606,594,581,569,562,545,538,521,509,497,396,387,383,384,385,343,344,348,352,374,361,354,362,352,380,355,350,353,354,354,363,355,352,360,349,353,359,355,367,355,353,353,548,549,540,540,554,671,825,919,1026,1101,1104,1090,1045,1051,1045,992,975,958,942,924,930,889,895,855,858,822,805,788,787,777,744,588,574,572,548,544,546,531,510,513,514,520,537,527,530,534,524,537,528,532,524,521,522,535,523,523,533,531,520,528,527,537,527,525,525,346,348,350,352,367,403,514,564,622,680,709,697,685,674,663,652,641,629,618,608,594,585,574,562,551,547,537,517,513,501,432,426,412,386,371,372,373,374,287,288,287,289,312,298,297,299,296,317,296,292,295,292,291,300,293,290,298,291,290,297,295,314,295,294,294,672,670,673,684,689,846,1027,1154,1257,1336,1348,1330,1301,1283,1258,1247,1226,1201,1186,1146,1131,1109,1088,1068,1052,1016,1012,987,964,942,869,726,722,715,691,683,685,645,599,600,599,601,624,610,609,611,608,629,608,604,607,604,603,612,605,602,610,603,602,609,607,626,607,606,606,89,90,90,90,111,112,125,138,151,165,176,173,170,168,165,162,160,157,155,152,149,147,144,141,139,136,134,132,128,126,123,121,118,115,113,111,111,111,76,76,76,76,78,78,77,80,80,79,78,77,77,77,77,80,78,76,78,77,77,77,78,79,78,79,78,602,608,611,582,594,765,916,1012,1116,1191,1217,1186,1164,1164,1130,1120,1101,1090,1063,1050,1020,998,1004,973,939,924,913,859,842,752,787,629,692,639,619,585,616,607,566,569,571,580,581,583,577,581,572,582,580,582,583,585,587,586,584,582,586,586,579,582,586,581,582,580,570,535,537,539,540,541,632,795,901,995,1070,1083,1067,1049,1030,1012,996,979,962,944,927,909,892,873,857,839,821,806,788,770,754,720,670,593,580,548,543,544,546,438,433,436,435,445,443,443,442,443,447,449,449,446,448,450,448,446,448,449,449,449,449,449,449,449,449,449,572,578,581,552,561,721,868,961,1060,1134,1163,1134,1115,1103,1080,1071,1051,1035,1014,1003,974,953,962,928,895,881,872,853,801,629,758,597,708,611,589,555,586,571,530,529,534,536,542,545,540,538,537,547,544,548,547,543,547,550,548,545,549,548,546,546,544,546,548,545,535,0,0,0,0,0,0,0,0,0,0,0,0,0,0,0,0,0,0,0,0,0,0,0,0,0,0,0,0,0,0,0,0,0,0,0,0,0,0,0,0,0,0,0,0,0,0,0,0,0,0,0,0,0,0,0,0,0,0,0,0,0,0,0,0,0,1097,1107,1129,1142,1190,1579,1976,2199,2278,2314,2286,2253,2204,2160,2121,2114,2087,2037,2014,1965,1914,1846,1812,1779,1729,1670,1643,1609,1567,1350,1213,1190,1152,1128,1122,1118,1126,1112,1047,1055,1057,1052,1077,1068,1076,1074,1060,1078,1065,1068,1062,1064,1075,1068,1068,1066,1069,1069,1069,1069,1069,1069,1069,1069,1069,536,542,544,515,521,649,803,890,981,1001,1074,1057,1036,1030,1007,1005,982,963,954,936,910,892,870,868,838,824,804,796,750,717,699,558,622,574,552,518,555,526,496,500,489,499,500,503,508,508,496,504,502,511,514,502,506,510,510,506,507,509,503,506,501,506,505,504,494,262,263,264,265,299,354,400,431,476,519,532,523,515,507,498,508,500,491,489,474,471,440,431,423,414,407,398,389,381,372,364,356,347,339,314,300,301,301,176,173,174,175,182,183,180,177,176,181,183,183,183,185,187,183,181,183,183,183,183,183,183,183,183,183,183,476,478,480,481,482,509,702,796,878,950,966,952,936,919,903,888,873,857,841,827,811,795,779,765,749,733,719,704,687,673,570,524,513,500,488,483,485,487,378,374,376,378,395,395,395,393,393,397,399,398,395,397,399,398,396,398,398,398,398,398,398,398,398,398,398,284,286,287,287,289,297,375,453,499,546,581,572,563,553,545,535,526,517,507,498,490,479,470,462,452,443,434,424,416,376,367,359,351,303,295,289,290,290,250,238,239,240,247,249,245,243,241,246,248,248,248,251,252,248,248,250,250,250,250,250,250,250,250,250,250,361,363,363,365,382,402,528,589,649,710,735,726,712,703,691,679,668,655,645,632,620,608,599,587,574,562,552,539,528,516,506,492,409,400,389,383,384,386,295,297,297,302,297,298,298,302,300,303,302,300,302,302,303,303,304,307,305,305,305,305,305,305,305,305,305,602,608,611,582,594,765,916,1012,1116,1191,1217,1186,1164,1164,1130,1120,1101,1090,1063,1050,1020,998,1004,973,939,924,913,859,842,752,787,629,692,639,619,585,616,607,566,569,571,580,581,583,577,581,572,582,580,582,583,585,587,586,584,582,586,586,579,582,586,581,582,580,570,812,814,847,823,913,1217,1414,1657,1707,1751,1741,1723,1679,1648,1681,1586,1555,1524,1509,1513,1431,1400,1369,1338,1320,1276,1245,1214,1182,1151,1120,1020,949,842,826,839,828,833,831,822,827,827,830,837,837,843,838,845,844,842,848,845,840,847,845,836,849,832,828,845,846,853,848,846,831,814,817,819,835,881,1145,1357,1484,1589,1629,1636,1624,1571,1571,1570,1518,1468,1442,1415,1390,1364,1338,1333,1306,1260,1257,1208,1182,1156,1068,1031,882,861,858,829,827,825,817,818,803,810,806,814,818,823,818,817,833,844,827,837,841,838,837,834,840,834,841,849,852,845,840,838,855,846,782,784,815,792,835,1169,1360,1596,1653,1711,1688,1671,1628,1598,1595,1537,1507,1477,1462,1461,1386,1355,1325,1294,1265,1234,1204,1173,1142,1128,1082,970,883,812,796,794,799,801,801,788,791,792,809,814,806,814,814,817,821,807,821,797,801,814,812,803,815,799,794,814,813,821,817,814,799,1136,1138,1142,1177,1346,1810,2059,2239,2339,2371,2355,2313,2271,2283,2250,2149,2107,2068,2073,1983,1941,1904,1868,1870,1820,1741,1702,1698,1596,1291,1287,1233,1193,1168,1154,1170,1121,1121,1110,1119,1119,1131,1130,1140,1129,1144,1124,1151,1127,1123,1127,1135,1145,1148,1155,1136,1137,1137,1141,1136,1131,1132,1122,1130,1120,0,0,0,0,0,0,0,0,0,0,0,0,0,0,0,0,0,0,0,0,0,0,0,0,0,0,0,0,0,0,0,0,0,0,0,0,0,0,0,0,0,0,0,0,0,0,0,0,0,0,0,0,0,0,0,0,0,0,0,0,0,0,0,0,0,690,692,725,695,724,1012,1179,1409,1463,1511,1505,1478,1450,1423,1461,1369,1342,1314,1288,1312,1233,1205,1178,1151,1124,1096,1069,1042,1015,987,960,907,826,719,702,701,704,709,714,712,711,711,721,720,730,782,720,721,727,729,728,720,723,729,725,726,723,724,720,719,720,727,724,729,705,938,940,943,980,1017,1439,1658,1847,1956,1994,1981,1945,1910,1928,1900,1806,1771,1736,1749,1667,1631,1598,1563,1568,1534,1458,1424,1428,1353,1293,1082,1022,994,970,981,981,949,947,961,947,953,956,971,980,972,974,977,986,981,974,986,994,988,990,979,978,987,986,987,978,985,978,975,982,972,825,828,830,857,889,1196,1389,1522,1636,1681,1676,1648,1608,1598,1574,1544,1522,1493,1474,1451,1417,1399,1387,1322,1299,1272,1247,1221,1202,1134,933,906,882,857,841,857,817,792,796,795,799,798,801,804,806,803,799,802,807,815,812,805,815,813,803,804,807,805,805,805,804,812,808,809,797,958,955,958,961,1076,1452,1714,1887,1996,2027,2012,1986,1950,1913,1883,1846,1804,1769,1747,1697,1668,1638,1588,1552,1518,1488,1460,1417,1387,1329,1109,1085,1022,990,969,968,926,923,906,915,915,927,926,936,925,940,920,947,923,919,923,931,941,944,951,932,933,933,937,932,927,928,918,926,916,1097,1113,1106,1148,1224,1564,1897,2035,2173,2176,2171,2140,2126,2073,2026,2003,1956,1944,1910,1866,1828,1784,1765,1712,1696,1649,1612,1595,1456,1272,1229,1178,1177,1130,1130,1114,1092,1098,1096,1101,1100,1109,1102,1117,1107,1105,1111,1111,1113,1123,1123,1134,1124,1122,1124,1128,1132,1130,1124,1121,1124,1125,1131,1126,1116,812,814,847,823,913,1217,1414,1657,1707,1751,1741,1723,1679,1648,1681,1586,1555,1524,1509,1513,1431,1400,1369,1338,1320,1276,1245,1214,1182,1151,1120,1020,949,842,826,839,828,833,831,822,827,827,830,837,837,843,838,845,844,842,848,845,840,847,845,836,849,832,828,845,846,853,848,846,831,133,134,134,134,165,168,189,210,231,251,266,261,257,254,249,245,242,237,233,229,225,221,217,213,209,204,201,196,192,189,184,180,177,172,168,165,166,166,129,122,124,124,125,127,124,126,125,125,125,124,125,125,126,127,128,126,125,126,126,127,126,125,126,126,126,536,538,539,541,547,690,837,918,1013,1095,1083,1065,1048,1065,1012,1000,982,964,947,929,940,893,877,860,842,842,808,817,789,746,729,711,694,579,570,563,559,550,510,513,513,518,522,520,524,530,517,529,529,534,521,520,523,532,522,526,528,532,523,523,523,524,524,523,523,103,104,104,104,128,130,179,163,180,196,255,206,203,200,196,193,190,187,183,181,178,174,171,168,165,161,158,155,151,179,145,141,138,135,132,128,128,129,93,94,92,93,94,94,93,94,93,97,94,97,99,103,99,104,97,94,95,97,94,103,95,94,95,94,94,504,506,507,522,524,592,747,823,947,1005,1022,1003,990,978,955,938,926,906,889,874,861,845,833,817,797,793,776,751,739,727,708,661,554,540,531,525,526,518,431,432,430,434,436,435,436,440,436,436,440,440,439,434,436,441,436,436,439,438,437,439,437,440,438,438,438,783,800,787,792,873,1193,1389,1566,1673,1702,1700,1669,1639,1634,1569,1538,1512,1482,1447,1421,1396,1357,1336,1285,1266,1235,1228,1174,1144,1123,1083,861,837,851,815,796,789,787,806,806,815,801,813,830,807,808,809,845,874,831,855,864,832,831,828,827,809,833,862,862,831,818,818,823,822,0,0,0,0,0,0,0,0,0,0,0,0,0,0,0,0,0,0,0,0,0,0,0,0,0,0,0,0,0,0,0,0,0,0,0,0,0,0,0,0,0,0,0,0,0,0,0,0,0,0,0,0,0,0,0,0,0,0,0,0,0,0,0,0,0,321,321,322,323,324,367,462,516,570,623,647,642,628,618,607,602,587,576,566,556,545,541,525,514,504,495,484,474,464,454,443,436,423,373,329,324,369,326,283,284,287,293,293,294,289,299,288,295,295,294,293,292,295,300,294,294,297,292,296,297,293,294,294,293,293,477,478,482,484,489,602,738,811,895,975,966,950,935,954,903,891,876,861,844,829,842,797,782,767,752,754,721,731,707,698,665,640,618,519,513,509,499,492,452,452,452,461,464,460,464,473,457,466,469,476,463,460,464,471,461,464,470,474,464,464,465,466,466,465,465,290,291,293,313,314,366,423,463,519,567,592,582,572,563,554,545,535,525,516,509,499,490,481,471,462,461,452,435,432,423,414,396,387,371,318,315,315,311,227,228,226,230,232,231,232,236,232,232,236,236,235,230,232,237,232,232,235,234,233,235,233,236,234,234,234,615,613,613,621,629,809,941,1046,1151,1220,1240,1218,1201,1166,1162,1142,1126,1107,1079,1057,1039,1024,992,987,963,933,927,904,874,862,842,724,702,667,632,630,632,609,539,540,538,542,544,543,544,548,544,544,548,548,547,542,544,549,544,544,547,546,545,547,545,548,546,546,546,133,134,134,134,165,168,189,210,231,251,266,261,257,254,249,245,242,237,233,229,225,221,217,213,209,204,201,196,192,189,184,180,177,172,168,165,166,166,129,122,124,124,125,127,124,126,125,125,125,124,125,125,126,127,128,126,125,126,126,127,126,125,126,126,126,396,396,398,399,401,529,592,662,735,788,796,784,771,754,795,733,721,708,696,704,690,658,645,633,621,608,596,583,567,577,535,533,520,521,405,402,403,404,390,396,402,410,404,408,397,406,396,423,402,399,409,404,420,415,415,409,415,407,412,411,417,419,404,409,403,348,349,350,351,352,412,511,571,630,689,708,697,685,675,663,652,640,629,619,606,595,584,573,561,550,539,528,517,506,493,481,438,419,410,399,353,354,356,324,323,324,324,340,334,333,335,334,341,336,334,337,332,333,337,336,332,340,332,332,337,336,343,338,340,335,366,367,368,369,370,467,574,611,680,732,742,730,761,701,717,740,672,660,647,655,643,612,600,588,577,565,553,542,526,518,496,493,482,448,438,371,372,373,354,356,360,361,360,362,360,361,361,369,365,365,368,367,373,376,373,372,375,370,374,376,381,382,375,379,376,252,253,254,256,276,323,365,406,449,490,512,503,499,488,479,475,464,455,447,440,436,427,415,407,399,391,387,375,371,358,350,343,334,326,283,277,278,279,213,208,210,209,210,210,211,211,211,227,212,216,223,217,216,219,216,213,210,215,218,223,220,219,221,218,216,888,881,892,906,987,1305,1491,1736,1869,1905,1900,1861,1820,1794,1781,1734,1696,1662,1623,1593,1559,1524,1497,1456,1425,1406,1360,1311,1291,1258,996,972,966,913,904,904,897,901,883,888,891,884,901,893,895,905,895,899,894,898,899,900,903,913,915,902,902,900,898,910,905,925,923,908,907,330,328,332,333,333,411,517,570,602,652,663,646,642,627,643,611,601,585,580,589,579,548,539,528,518,508,497,487,491,466,445,445,435,424,407,409,333,411,327,328,329,331,329,329,331,331,329,328,329,328,331,333,355,333,329,331,333,333,347,333,331,350,329,331,332,0,0,0,0,0,0,0,0,0,0,0,0,0,0,0,0,0,0,0,0,0,0,0,0,0,0,0,0,0,0,0,0,0,0,0,0,0,0,0,0,0,0,0,0,0,0,0,0,0,0,0,0,0,0,0,0,0,0,0,0,0,0,0,0,0,289,290,291,292,293,325,421,470,518,568,589,580,570,562,552,542,533,523,515,504,496,486,477,467,458,448,440,431,421,411,401,359,339,331,322,295,296,296,264,264,264,267,276,284,277,283,279,276,279,277,274,277,278,279,278,283,279,279,279,280,279,288,277,282,279,84,84,84,84,104,105,118,132,145,158,168,166,163,160,158,156,152,150,148,145,143,140,137,135,132,129,127,124,122,119,116,114,112,108,106,104,104,104,74,65,65,65,65,66,65,66,65,65,65,65,65,66,65,65,67,66,66,66,66,66,66,65,65,66,66,355,356,361,361,364,401,515,573,633,695,719,708,695,680,669,663,649,642,630,616,608,586,583,568,562,548,526,529,501,500,489,440,409,400,371,365,366,367,304,304,301,306,319,314,313,322,309,318,315,327,310,306,308,316,313,308,317,310,308,313,311,320,315,319,312,396,396,398,399,401,529,592,662,735,788,796,784,771,754,795,733,721,708,696,704,690,658,645,633,621,608,596,583,567,577,535,533,520,521,405,402,403,404,390,396,402,410,404,408,397,406,396,423,402,399,409,404,420,415,415,409,415,407,412,411,417,419,404,409,403,586,585,589,591,604,728,923,1036,1106,1170,1169,1155,1136,1118,1095,1076,1046,1044,1026,1007,988,969,951,931,915,891,863,863,836,748,803,729,641,624,589,605,596,590,552,552,552,552,552,552,552,552,552,552,552,552,552,552,552,552,552,552,552,552,552,552,552,552,552,552,552,109,110,110,110,136,139,157,176,194,212,225,222,218,214,211,207,204,200,196,193,190,185,182,179,174,171,168,165,160,157,154,150,146,143,139,136,137,137,85,85,85,85,85,85,85,85,85,85,85,85,85,85,85,85,85,85,85,85,85,85,85,85,85,85,85,556,556,559,561,563,617,876,954,1050,1116,1115,1102,1084,1066,1043,1046,997,995,977,960,942,919,906,887,873,849,821,812,795,625,764,611,594,595,559,576,566,560,527,527,527,527,527,527,527,527,527,527,527,527,527,527,527,527,527,527,527,527,527,527,527,527,527,527,527,558,560,561,562,576,651,853,974,1070,1122,1125,1104,1086,1069,1051,1034,1015,997,981,962,944,926,908,890,872,854,836,818,801,784,714,636,620,591,570,567,568,547,505,505,505,505,505,505,505,505,505,505,505,505,505,505,505,505,505,505,505,505,505,505,505,505,505,505,505,761,763,765,768,780,988,1324,1493,1622,1659,1653,1619,1604,1576,1532,1491,1474,1450,1420,1390,1375,1318,1301,1268,1238,1207,1175,1146,1116,1017,997,900,814,808,776,775,780,771,755,755,755,755,755,755,755,755,755,755,755,755,755,755,755,755,755,755,755,755,755,755,755,755,755,755,755,484,485,488,489,490,572,748,817,896,962,969,953,939,923,924,897,878,863,847,832,821,802,787,771,761,742,725,724,698,680,665,652,554,516,504,491,490,494,455,455,455,455,455,455,455,455,455,455,455,455,455,455,455,455,455,455,455,455,455,455,455,455,455,455,455,361,362,363,364,366,465,527,607,668,721,731,720,708,696,685,673,662,652,638,627,615,604,592,580,568,557,546,534,523,511,500,490,477,395,371,380,381,369,338,338,338,338,338,338,338,338,338,338,338,338,338,338,338,338,338,338,338,338,338,338,338,338,338,338,338,0,0,0,0,0,0,0,0,0,0,0,0,0,0,0,0,0,0,0,0,0,0,0,0,0,0,0,0,0,0,0,0,0,0,0,0,0,0,0,0,0,0,0,0,0,0,0,0,0,0,0,0,0,0,0,0,0,0,0,0,0,0,0,0,0,389,390,391,392,395,502,568,657,724,778,789,775,763,750,738,724,712,701,687,675,662,650,638,625,611,600,588,575,563,550,537,525,512,500,413,396,410,411,367,367,367,367,367,367,367,367,367,367,367,367,367,367,367,367,367,367,367,367,367,367,367,367,367,367,367,441,443,445,447,447,537,646,720,834,885,891,878,864,848,835,821,806,792,778,763,750,739,727,713,697,683,671,657,643,629,592,525,513,468,469,448,450,450,383,383,383,383,383,383,383,383,383,383,383,383,383,383,383,383,383,383,383,383,383,383,383,383,383,383,383,586,585,589,591,604,728,923,1036,1106,1170,1169,1155,1136,1118,1095,1076,1046,1044,1026,1007,988,969,951,931,915,891,863,863,836,748,803,729,641,624,589,605,596,590,552,552,552,552,552,552,552,552,552,552,552,552,552,552,552,552,552,552,552,552,552,552,552,552,552,552,552,386,411,395,396,398,507,588,661,730,782,814,778,765,753,741,728,716,704,708,702,666,653,656,624,634,600,591,579,566,567,541,529,517,413,489,396,397,398,393,395,397,407,405,400,403,407,399,404,402,402,406,418,426,438,408,402,406,410,411,403,403,440,403,409,403,377,344,346,347,348,405,534,596,622,680,699,688,677,666,655,643,632,621,610,599,588,576,565,564,543,542,521,510,498,487,476,465,410,401,352,349,350,351,331,328,330,327,327,332,331,331,331,336,335,329,329,332,330,332,333,335,332,332,332,330,331,332,332,337,334,391,393,365,395,368,467,570,610,675,768,760,724,712,701,689,677,666,654,660,655,619,607,646,580,590,590,548,537,525,528,502,490,479,467,459,366,367,368,357,362,362,373,361,363,360,367,363,361,362,360,360,363,363,367,366,367,363,366,368,370,363,374,362,369,366,261,261,262,263,306,335,379,420,464,508,529,521,512,504,496,487,479,470,463,454,446,441,429,421,412,404,396,390,379,370,363,354,346,337,269,265,266,267,223,219,221,221,222,222,222,223,222,238,223,226,232,226,225,231,228,224,221,227,231,234,231,232,232,229,227,889,885,885,893,933,1301,1509,1735,1873,1905,1899,1861,1828,1795,1772,1724,1700,1666,1634,1588,1571,1531,1498,1461,1430,1397,1352,1321,1278,1245,1106,963,940,938,901,901,888,898,877,881,886,884,896,892,896,901,892,895,890,893,891,893,902,897,901,898,901,895,895,899,902,921,907,914,907,326,363,329,330,331,418,481,541,597,646,680,647,664,627,616,628,596,607,569,589,554,544,529,545,531,499,492,482,468,458,452,442,431,412,368,329,330,331,326,329,322,324,332,335,354,363,332,333,339,342,339,329,332,340,333,333,335,334,328,331,327,334,334,338,324,79,79,79,97,97,99,111,123,135,147,157,155,152,150,148,145,143,140,138,136,134,130,128,126,124,122,118,116,114,112,110,107,104,102,100,97,97,99,63,63,63,63,65,65,65,62,63,64,63,63,63,63,63,63,62,63,62,63,63,63,63,63,63,63,62,319,286,287,288,288,347,444,495,513,561,580,572,562,553,544,534,525,515,507,498,488,479,469,469,451,450,433,423,414,404,396,387,362,352,293,289,290,291,272,267,269,270,269,272,271,274,271,273,275,270,271,272,271,271,272,273,274,274,273,271,273,275,273,275,274,0,0,0,0,0,0,0,0,0,0,0,0,0,0,0,0,0,0,0,0,0,0,0,0,0,0,0,0,0,0,0,0,0,0,0,0,0,0,0,0,0,0,0,0,0,0,0,0,0,0,0,0,0,0,0,0,0,0,0,0,0,0,0,0,0,363,364,365,367,368,412,526,585,646,710,735,724,712,694,689,678,665,644,643,630,620,598,592,572,573,561,537,540,528,517,507,449,420,382,400,359,372,372,312,314,309,316,339,339,323,339,325,337,334,341,333,315,319,335,327,318,338,321,317,339,331,339,337,337,328,386,411,395,396,398,507,588,661,730,782,814,778,765,753,741,728,716,704,708,702,666,653,656,624,634,600,591,579,566,567,541,529,517,413,489,396,397,398,393,395,397,407,405,400,403,407,399,404,402,402,406,418,426,438,408,402,406,410,411,403,403,440,403,409,403,703,713,713,709,721,934,1080,1207,1359,1410,1419,1385,1377,1353,1331,1305,1273,1250,1238,1214,1181,1148,1137,1114,1080,1058,1047,1013,1024,909,874,838,808,742,725,723,725,720,645,654,644,650,654,651,651,651,647,648,649,650,647,646,647,649,648,648,649,648,647,651,646,654,647,649,646,425,425,426,427,432,486,627,700,774,844,862,848,835,820,807,793,779,766,752,738,724,710,700,683,672,655,642,628,613,600,586,486,457,453,437,431,432,417,400,386,386,387,389,388,396,393,393,391,396,399,408,397,402,411,398,398,398,404,416,414,412,412,412,412,412,679,674,683,679,690,883,1033,1154,1304,1355,1365,1332,1325,1302,1281,1256,1232,1202,1176,1175,1135,1103,1093,1072,1037,1015,1006,973,972,870,756,756,778,712,695,692,694,694,609,615,608,614,618,615,615,615,611,612,613,614,611,610,611,613,612,612,613,612,611,615,610,618,611,613,610,373,375,376,377,377,466,539,602,688,742,754,740,740,729,720,692,680,668,658,648,632,624,609,597,585,575,562,551,540,525,514,502,453,391,381,379,380,402,340,347,337,345,351,344,347,346,343,344,345,350,350,344,342,352,345,342,344,343,349,356,349,359,350,351,345,1035,1038,1043,1054,1097,1414,1651,1833,1973,2059,2043,2020,1995,1947,1914,1882,1850,1823,1784,1753,1719,1686,1653,1621,1588,1556,1523,1491,1458,1270,1140,1113,1099,1066,1053,1050,1044,1046,1038,1031,1042,1053,1049,1049,1053,1055,1058,1064,1061,1056,1071,1071,1071,1057,1051,1070,1049,1070,1054,1054,1050,1069,1057,1069,1058,637,635,647,643,644,743,971,1080,1225,1277,1281,1259,1245,1229,1209,1175,1155,1129,1105,1094,1072,1064,1032,1014,980,959,951,931,920,729,715,717,717,675,688,661,655,652,582,587,581,587,591,588,588,588,584,585,586,587,584,583,584,586,585,585,586,585,584,588,583,591,584,586,583,313,317,315,319,320,401,467,521,574,624,635,625,629,619,608,584,575,565,551,545,533,525,514,505,494,483,475,463,454,443,435,426,416,405,395,321,322,321,255,259,254,260,264,261,261,261,257,258,259,260,257,256,257,259,258,258,259,258,257,261,256,264,257,259,256,446,433,450,455,454,519,642,738,794,845,852,915,825,878,797,830,771,756,787,729,759,744,730,738,701,647,672,660,640,610,616,548,519,453,496,454,454,439,422,408,408,409,411,410,418,416,416,414,419,422,431,420,425,434,421,421,421,427,439,437,435,435,435,435,435,390,391,392,403,424,469,582,646,726,783,792,779,781,767,756,729,717,705,687,679,665,654,641,628,615,601,590,577,564,552,512,523,424,473,463,425,401,400,329,324,327,330,335,332,329,335,328,331,330,330,331,330,331,333,332,332,331,332,331,335,330,338,331,332,330,0,0,0,0,0,0,0,0,0,0,0,0,0,0,0,0,0,0,0,0,0,0,0,0,0,0,0,0,0,0,0,0,0,0,0,0,0,0,0,0,0,0,0,0,0,0,0,0,0,0,0,0,0,0,0,0,0,0,0,0,0,0,0,0,0,703,713,713,709,721,934,1080,1207,1359,1410,1419,1385,1377,1353,1331,1305,1273,1250,1238,1214,1181,1148,1137,1114,1080,1058,1047,1013,1024,909,874,838,808,742,725,723,725,720,645,654,644,650,654,651,651,651,647,648,649,650,647,646,647,649,648,648,649,648,647,651,646,654,647,649,646,0,0,0,0,0,0,0,0,0,0,0,0,0,0,0,0,0,0,0,0,0,0,0,0,0,0,0,0,0,0,0,0,0,0,0,0,0,0,0,0,0,0,0,0,0,0,0,0,0,0,0,0,0,0,0,0,0,0,0,0,0,0,0,0,0,614,616,618,620,622,776,935,1041,1160,1211,1238,1215,1199,1179,1167,1140,1120,1097,1080,1060,1038,996,998,992,959,940,920,901,863,835,786,766,748,627,632,611,625,610,581,582,579,585,588,586,585,592,585,595,588,593,585,584,588,592,591,589,590,595,586,589,586,587,586,588,587,80,80,80,80,80,81,92,102,112,122,132,129,127,125,123,121,118,117,115,113,111,108,106,105,103,101,99,96,94,93,91,89,86,84,82,81,81,81,48,46,48,49,46,51,48,53,52,49,55,49,50,49,49,51,49,49,49,50,49,48,49,50,49,53,49,568,571,572,587,589,678,881,968,1064,1134,1154,1132,1118,1104,1078,1059,1046,1023,1004,986,972,949,931,911,895,883,865,838,827,808,790,689,673,630,597,590,592,571,501,500,499,500,500,501,499,501,498,505,501,499,500,500,500,500,503,502,501,501,501,504,500,503,500,503,502,847,849,852,855,926,1273,1461,1660,1798,1827,1813,1795,1781,1717,1693,1652,1619,1587,1555,1522,1490,1468,1425,1381,1375,1316,1295,1263,1219,1200,1038,1025,901,877,864,865,855,878,827,824,828,838,829,841,838,842,839,839,851,837,837,842,844,842,839,842,841,844,846,840,840,842,845,848,840,195,195,196,197,197,248,277,305,334,363,377,371,366,360,355,349,344,338,333,327,322,316,311,305,300,294,289,283,278,272,267,261,256,250,245,242,242,243,186,189,186,193,190,196,188,194,187,189,189,189,186,193,191,195,191,195,193,194,227,195,190,232,187,191,189,385,386,387,388,390,453,560,629,694,768,777,765,753,742,728,716,704,691,678,666,654,642,630,617,605,593,581,568,562,543,531,517,487,457,395,390,391,426,353,352,356,359,357,360,352,360,350,364,356,353,354,358,359,359,361,360,359,355,360,362,356,357,356,358,357,556,557,558,560,562,688,836,932,1039,1092,1122,1101,1086,1068,1058,1033,1014,994,978,961,940,901,905,901,869,852,834,816,781,779,745,677,660,567,573,552,565,538,520,521,522,527,528,526,528,532,522,535,529,535,525,525,527,531,529,531,532,537,527,531,528,529,528,530,529,354,356,358,359,374,450,525,576,636,696,724,711,700,689,677,666,655,642,631,621,607,597,587,574,563,558,548,528,523,512,501,481,470,462,379,379,381,382,297,296,295,296,296,297,295,297,294,301,297,295,296,296,296,296,299,298,297,297,297,300,296,299,296,299,298,679,678,681,692,697,854,1038,1167,1270,1365,1363,1329,1326,1302,1282,1250,1239,1214,1195,1159,1143,1122,1093,1077,1050,1027,1019,998,978,952,908,812,726,722,697,693,693,658,609,608,607,608,608,609,607,609,606,613,609,607,608,608,608,608,611,610,609,609,609,612,608,611,608,611,610,0,0,0,0,0,0,0,0,0,0,0,0,0,0,0,0,0,0,0,0,0,0,0,0,0,0,0,0,0,0,0,0,0,0,0,0,0,0,0,0,0,0,0,0,0,0,0,0,0,0,0,0,0,0,0,0,0,0,0,0,0,0,0,0,0 ]);
