n = 10;
D = [184,232,100,73,283,150,67,64,105,161 ];
q = 0;
prec = array2d(1..0,1..2,[]);
steps = 64;
l = 360;
r = 0;
which = [];
interval = array2d(1..0,1..2,[]);
T = array3d(1..11,1..11,0..64,[0,0,0,0,0,0,0,0,0,0,0,0,0,0,0,0,0,0,0,0,0,0,0,0,0,0,0,0,0,0,0,0,0,0,0,0,0,0,0,0,0,0,0,0,0,0,0,0,0,0,0,0,0,0,0,0,0,0,0,0,0,0,0,0,0,830,833,835,874,913,1245,1315,1463,1509,1606,1534,1532,1490,1469,1493,1437,1405,1384,1372,1328,1307,1285,1323,1277,1280,1271,1190,1170,997,981,953,916,886,866,859,860,839,813,785,787,796,797,792,791,789,802,791,793,797,794,791,800,806,799,798,797,800,805,802,793,803,811,799,799,796,1335,1355,1345,1441,1656,2192,2328,2449,2481,2543,2427,2440,2455,2385,2372,2310,2242,2176,2198,2113,2104,2067,2072,2023,2008,1930,1833,1511,1527,1454,1438,1410,1402,1360,1332,1352,1372,1365,1337,1339,1348,1349,1344,1343,1341,1354,1343,1345,1349,1346,1343,1352,1358,1351,1350,1349,1352,1357,1354,1345,1355,1363,1351,1351,1348,1049,1051,1054,1066,1119,1517,1701,1844,1939,1954,1931,1902,1874,1848,1823,1803,1782,1740,1712,1698,1657,1638,1610,1574,1546,1529,1500,1464,1313,1308,1209,1136,1095,1081,1060,1061,1045,1043,1006,1014,1020,1029,1022,1023,1014,1018,1025,1020,1019,1020,1032,1038,1041,1037,1035,1032,1030,1030,1035,1036,1034,1047,1059,1050,1044,1119,1123,1100,1142,1282,1644,1846,1988,2038,2091,2007,2032,2004,1953,1944,1926,1865,1806,1835,1754,1767,1697,1719,1688,1651,1621,1588,1556,1307,1307,1214,1169,1166,1153,1092,1134,1128,1123,1085,1093,1099,1107,1101,1101,1093,1097,1101,1099,1098,1099,1101,1110,1116,1109,1108,1107,1109,1109,1112,1103,1113,1121,1109,1109,1106,636,637,638,640,659,820,941,1019,1113,1140,1131,1116,1101,1087,1074,1059,1048,1030,1016,1001,986,972,957,942,928,913,898,884,869,854,840,821,663,651,643,643,644,646,604,612,616,625,618,619,611,620,622,620,618,619,621,628,637,633,629,631,628,627,631,633,637,645,657,656,648,1479,1487,1549,1640,2038,2478,2683,2782,2874,2860,2816,2764,2728,2697,2643,2601,2595,2483,2477,2465,2414,2360,2319,2297,1937,1947,1908,1729,1684,1638,1594,1560,1518,1500,1503,1507,1507,1525,1520,1532,1541,1550,1558,1546,1550,1552,1549,1574,1556,1551,1573,1579,1586,1583,1582,1567,1575,1565,1583,1586,1582,1631,1639,1615,1602,1042,1026,1045,1131,1424,1751,2015,2189,2184,2219,2158,2202,2148,2107,2085,2042,1954,1896,1903,1862,1821,1780,1754,1698,1657,1617,1576,1535,1493,1453,1276,1122,1158,1062,1054,1061,1050,1057,1063,1048,1051,1061,1094,1059,1061,1052,1067,1071,1072,1066,1118,1125,1072,1057,1114,1116,1065,1109,1061,1069,1067,1063,1067,1063,1058,1224,1237,1230,1278,1310,1855,2110,2231,2315,2335,2282,2248,2263,2216,2220,2133,2072,2070,2042,2016,1964,1909,1872,1864,1811,1752,1746,1645,1570,1369,1367,1278,1257,1231,1243,1217,1172,1173,1168,1175,1175,1185,1211,1229,1204,1215,1211,1213,1239,1239,1243,1209,1224,1237,1210,1211,1205,1224,1209,1221,1220,1223,1215,1220,1219,953,956,958,960,1037,1424,1564,1710,1773,1789,1772,1740,1699,1693,1695,1659,1614,1593,1579,1546,1517,1491,1460,1468,1437,1404,1336,1312,1242,1224,1026,1019,996,976,952,966,972,951,938,947,940,953,948,945,945,956,946,949,953,949,945,955,954,954,954,952,954,961,950,947,955,949,952,950,932,0,0,0,0,0,0,0,0,0,0,0,0,0,0,0,0,0,0,0,0,0,0,0,0,0,0,0,0,0,0,0,0,0,0,0,0,0,0,0,0,0,0,0,0,0,0,0,0,0,0,0,0,0,0,0,0,0,0,0,0,0,0,0,0,0,881,904,907,882,920,1135,1430,1541,1659,1731,1719,1643,1666,1631,1617,1588,1563,1540,1502,1505,1474,1426,1411,1373,1349,1302,1265,1213,1185,1100,1082,959,951,925,919,909,912,914,912,908,914,915,930,926,927,938,927,936,939,932,938,941,940,946,951,940,936,941,932,937,924,934,934,934,933,0,0,0,0,0,0,0,0,0,0,0,0,0,0,0,0,0,0,0,0,0,0,0,0,0,0,0,0,0,0,0,0,0,0,0,0,0,0,0,0,0,0,0,0,0,0,0,0,0,0,0,0,0,0,0,0,0,0,0,0,0,0,0,0,0,560,561,563,565,569,722,853,956,1051,1117,1102,1102,1083,1049,1055,1036,1019,991,984,965,948,930,913,894,875,838,840,809,805,762,745,655,646,569,571,568,567,560,555,556,559,564,563,562,563,559,563,559,559,561,567,569,565,570,567,564,560,569,566,561,565,565,561,565,562,429,431,444,433,457,564,636,710,804,861,870,859,841,832,814,800,786,772,759,730,731,717,702,689,675,660,647,633,620,606,573,559,565,450,440,436,437,426,403,396,397,402,398,404,402,406,399,401,402,397,400,400,402,403,401,405,404,407,406,401,402,407,401,402,400,410,411,413,438,438,557,623,697,770,822,831,821,805,792,778,765,752,739,726,712,699,686,673,658,645,632,619,606,592,579,577,545,540,526,420,416,417,419,412,409,414,417,414,418,417,421,416,418,417,417,417,419,420,419,419,419,423,421,421,416,420,422,420,421,417,614,611,618,620,621,809,972,1085,1171,1229,1236,1212,1192,1176,1147,1126,1105,1087,1074,1056,1029,1016,996,978,958,938,920,899,870,860,851,821,656,634,621,623,625,627,614,606,605,611,623,623,614,645,618,615,624,624,618,623,629,630,636,626,637,624,629,637,626,657,625,629,628,848,851,862,864,947,1231,1412,1539,1643,1688,1683,1657,1629,1591,1590,1551,1536,1485,1482,1444,1428,1390,1362,1347,1341,1313,1256,1244,1218,1175,1067,909,895,875,876,861,913,873,867,867,881,869,887,884,874,885,882,894,875,881,878,885,891,904,899,891,884,885,880,887,891,887,887,906,878,1104,1107,1149,1177,1182,1610,2060,2318,2422,2405,2414,2363,2350,2303,2200,2218,2109,2103,2046,2011,1958,1953,1902,1806,1783,1775,1731,1702,1604,1390,1250,1233,1177,1172,1165,1161,1153,1154,1155,1157,1151,1161,1175,1173,1175,1194,1168,1164,1175,1165,1181,1171,1177,1181,1193,1186,1175,1181,1177,1170,1183,1163,1171,1169,1156,780,792,788,791,807,1017,1211,1327,1451,1521,1531,1510,1494,1476,1434,1427,1399,1361,1349,1313,1288,1281,1240,1216,1190,1156,1144,1119,1106,1009,876,838,841,811,800,795,799,798,745,748,757,765,759,755,754,764,754,752,757,758,762,765,766,765,765,762,759,767,763,759,760,769,764,766,763,308,309,310,311,312,349,449,502,554,616,646,618,654,643,604,594,584,574,589,553,569,556,547,516,505,494,484,490,464,431,410,411,401,355,345,313,314,315,278,278,283,293,282,279,284,289,283,282,283,282,288,288,288,288,287,284,282,290,287,282,284,291,287,288,285,881,904,907,882,920,1135,1430,1541,1659,1731,1719,1643,1666,1631,1617,1588,1563,1540,1502,1505,1474,1426,1411,1373,1349,1302,1265,1213,1185,1100,1082,959,951,925,919,909,912,914,912,908,914,915,930,926,927,938,927,936,939,932,938,941,940,946,951,940,936,941,932,937,924,934,934,934,933,1269,1287,1266,1356,1464,1851,2081,2242,2397,2420,2357,2354,2311,2282,2245,2208,2171,2135,2098,2062,2026,1989,1953,1936,1873,1843,1802,1690,1611,1389,1461,1354,1314,1282,1271,1287,1304,1276,1314,1320,1321,1334,1333,1344,1342,1352,1340,1348,1342,1339,1339,1342,1345,1366,1375,1362,1363,1354,1347,1339,1347,1352,1351,1351,1351,608,611,612,623,640,782,939,1046,1144,1210,1229,1209,1191,1171,1151,1094,1111,1092,1072,1052,1033,1014,995,961,955,892,869,850,832,858,795,777,758,642,633,625,628,597,571,573,582,592,579,586,580,578,591,587,587,583,588,590,582,583,587,589,589,587,586,587,587,593,587,605,590,0,0,0,0,0,0,0,0,0,0,0,0,0,0,0,0,0,0,0,0,0,0,0,0,0,0,0,0,0,0,0,0,0,0,0,0,0,0,0,0,0,0,0,0,0,0,0,0,0,0,0,0,0,0,0,0,0,0,0,0,0,0,0,0,0,376,377,378,403,404,458,444,616,682,744,768,756,744,731,720,708,695,682,670,658,646,634,622,609,598,585,572,560,548,536,461,450,432,429,418,405,408,409,360,363,364,376,369,368,368,378,365,369,367,364,374,378,401,441,376,372,364,413,373,365,366,411,373,401,366,375,376,376,414,415,468,457,593,651,707,733,722,712,701,690,679,667,657,646,642,631,620,612,600,581,569,559,548,537,526,418,505,408,398,407,423,427,405,336,340,337,342,344,346,343,346,342,346,344,343,344,347,347,346,347,347,344,345,350,348,342,349,348,351,341,822,824,826,835,896,1111,1257,1404,1577,1618,1599,1574,1548,1524,1497,1471,1446,1421,1395,1370,1345,1320,1294,1268,1243,1217,1192,1167,1158,1116,1066,1065,850,831,819,834,837,838,813,809,818,839,831,828,826,838,829,834,839,835,832,841,843,897,847,837,826,840,830,829,825,842,835,835,835,363,365,366,367,369,473,536,598,675,730,739,794,782,704,691,680,668,656,645,633,620,609,598,586,574,562,551,539,526,562,553,536,479,383,373,369,370,371,340,336,338,367,356,345,342,396,340,346,359,357,360,356,358,347,351,348,349,358,370,346,347,356,357,362,346,1544,1560,1595,1788,2184,2705,3058,3183,3214,3150,3162,3155,3113,3010,2943,2920,2874,2778,2746,2673,2644,2550,2497,2342,2088,2051,1908,1856,1797,1726,1675,1629,1602,1578,1603,1586,1605,1602,1606,1606,1612,1641,1621,1621,1628,1613,1623,1622,1618,1632,1623,1630,1621,1635,1633,1625,1632,1633,1627,1639,1611,1643,1617,1649,1620,1161,1192,1187,1209,1349,1721,2042,2182,2297,2294,2321,2257,2205,2143,2142,2140,2071,2039,1999,1952,1961,1862,1845,1838,1807,1744,1747,1619,1436,1412,1338,1306,1217,1212,1185,1169,1171,1144,1130,1137,1151,1159,1143,1144,1149,1138,1148,1148,1151,1142,1151,1155,1151,1151,1155,1156,1158,1154,1154,1155,1155,1180,1156,1188,1159,753,756,753,755,801,953,1189,1331,1455,1497,1510,1483,1448,1424,1401,1440,1354,1331,1315,1291,1266,1236,1210,1192,1179,1164,1140,1114,1097,1055,927,814,800,778,770,760,759,677,660,663,674,680,667,674,668,667,678,674,675,667,672,674,669,669,673,676,678,675,675,674,675,697,673,705,676,1269,1287,1266,1356,1464,1851,2081,2242,2397,2420,2357,2354,2311,2282,2245,2208,2171,2135,2098,2062,2026,1989,1953,1936,1873,1843,1802,1690,1611,1389,1461,1354,1314,1282,1271,1287,1304,1276,1314,1320,1321,1334,1333,1344,1342,1352,1340,1348,1342,1339,1339,1342,1345,1366,1375,1362,1363,1354,1347,1339,1347,1352,1351,1351,1351,1000,1003,1013,1021,1099,1466,1646,1799,1889,1923,1916,1887,1873,1843,1800,1772,1743,1714,1685,1628,1628,1619,1563,1541,1512,1483,1455,1425,1408,1127,1096,1085,1048,1041,1029,1014,1017,1018,1050,1043,1034,1045,1107,1104,1085,1085,1090,1112,1111,1095,1114,1098,1093,1108,1108,1082,1095,1101,1098,1098,1091,1107,1094,1181,1084,525,525,528,530,540,680,786,877,968,1052,1058,1041,1021,1007,991,973,957,937,920,906,889,873,855,839,829,805,788,770,754,738,721,665,631,586,537,533,534,536,514,516,521,531,529,528,531,557,528,529,537,536,540,532,534,560,529,526,540,540,533,532,534,541,533,538,532,392,393,395,396,397,525,595,665,735,788,797,785,772,760,746,733,721,708,696,683,669,704,644,631,619,606,594,580,567,555,542,530,517,541,402,398,399,400,407,396,397,403,470,404,407,400,406,463,460,401,456,465,407,399,400,496,499,470,396,400,475,405,403,399,396,0,0,0,0,0,0,0,0,0,0,0,0,0,0,0,0,0,0,0,0,0,0,0,0,0,0,0,0,0,0,0,0,0,0,0,0,0,0,0,0,0,0,0,0,0,0,0,0,0,0,0,0,0,0,0,0,0,0,0,0,0,0,0,0,0,212,212,213,214,215,268,304,339,374,410,432,425,419,411,404,398,391,383,377,370,364,356,349,343,336,330,322,315,309,302,294,288,281,275,267,215,264,264,184,183,184,185,185,188,184,185,186,186,186,186,186,187,187,186,187,188,190,190,189,190,191,191,190,189,189,553,555,557,558,569,763,863,964,1058,1106,1111,1093,1075,1058,1040,1023,1005,987,970,952,935,917,899,882,864,847,829,811,794,776,759,741,723,577,565,561,563,564,556,573,562,581,576,577,576,682,567,576,567,567,574,681,580,581,684,686,575,576,684,572,566,568,684,692,572,592,608,610,612,610,847,959,1060,1137,1213,1185,1171,1148,1131,1138,1118,1100,1053,1031,1018,999,1026,1006,942,937,903,887,865,867,866,829,809,632,630,684,598,599,618,610,621,614,632,625,627,624,673,622,675,623,618,630,629,632,634,673,630,669,629,676,623,625,685,632,677,674,1491,1493,1515,1578,2070,2576,2907,3034,3121,3094,3095,3037,2983,2940,2901,2841,2760,2700,2657,2625,2555,2480,2428,2359,2324,2153,2117,1809,1772,1756,1679,1598,1569,1526,1519,1539,1527,1530,1522,1532,1539,1552,1543,1560,1556,1548,1543,1547,1544,1551,1550,1561,1570,1582,1558,1562,1559,1581,1573,1560,1562,1566,1562,1572,1567,1203,1199,1204,1221,1365,1633,2026,2171,2272,2324,2314,2274,2242,2199,2168,2122,2101,2063,2017,1996,1942,1908,1866,1845,1817,1762,1721,1619,1360,1350,1353,1297,1249,1229,1215,1214,1215,1154,1130,1139,1140,1145,1148,1143,1165,1148,1140,1150,1153,1164,1158,1155,1155,1162,1160,1162,1167,1162,1158,1162,1159,1161,1162,1163,1163,742,744,746,748,768,896,1164,1255,1410,1443,1457,1456,1436,1391,1387,1343,1344,1317,1275,1271,1240,1217,1194,1169,1162,1096,1077,1068,1044,1034,981,858,818,767,755,754,752,687,660,665,663,666,672,673,684,677,670,676,677,689,679,674,673,680,678,682,687,683,679,681,679,678,679,680,680,1000,1003,1013,1021,1099,1466,1646,1799,1889,1923,1916,1887,1873,1843,1800,1772,1743,1714,1685,1628,1628,1619,1563,1541,1512,1483,1455,1425,1408,1127,1096,1085,1048,1041,1029,1014,1017,1018,1050,1043,1034,1045,1107,1104,1085,1085,1090,1112,1111,1095,1114,1098,1093,1108,1108,1082,1095,1101,1098,1098,1091,1107,1094,1181,1084,1080,1083,1092,1111,1169,1577,1727,1973,2066,2090,2079,2047,2035,1984,1953,1932,1889,1870,1827,1786,1746,1732,1694,1660,1647,1561,1542,1469,1383,1218,1186,1161,1134,1104,1103,1096,1104,1113,1071,1081,1094,1096,1093,1099,1097,1095,1101,1123,1103,1109,1113,1112,1121,1140,1116,1103,1127,1105,1110,1099,1125,1134,1121,1107,1107,412,414,414,415,418,553,626,693,769,839,833,820,807,794,781,767,754,741,728,715,701,688,675,655,649,634,621,608,595,581,568,555,533,502,422,418,419,416,387,389,390,393,394,393,393,393,392,400,393,392,396,397,405,406,403,401,399,396,399,400,401,405,396,397,397,333,341,342,336,338,370,500,587,617,669,689,669,688,649,638,636,624,605,594,583,572,591,550,548,528,518,507,496,485,474,463,452,411,370,361,339,340,341,313,313,309,310,321,324,316,324,313,326,322,340,316,318,326,335,321,323,324,329,324,322,322,326,314,315,315,147,148,148,182,182,188,213,237,261,287,301,297,292,287,282,278,272,268,264,258,254,249,244,239,235,229,225,221,215,211,206,201,196,192,187,183,183,184,141,143,140,142,146,147,144,148,146,146,147,144,145,143,143,145,144,143,145,144,142,144,143,146,144,145,142,0,0,0,0,0,0,0,0,0,0,0,0,0,0,0,0,0,0,0,0,0,0,0,0,0,0,0,0,0,0,0,0,0,0,0,0,0,0,0,0,0,0,0,0,0,0,0,0,0,0,0,0,0,0,0,0,0,0,0,0,0,0,0,0,0,593,594,596,598,625,823,952,1063,1138,1185,1188,1159,1150,1131,1103,1093,1074,1056,1037,1018,991,981,962,942,916,964,886,867,856,844,804,648,632,617,604,601,603,604,610,601,597,604,600,602,688,689,614,630,614,600,603,636,646,691,685,686,644,686,685,636,628,615,603,606,599,614,618,618,620,659,815,916,1017,1188,1227,1213,1199,1182,1162,1144,1124,1107,1088,1069,1051,1032,1014,1020,976,958,939,908,901,872,731,715,699,653,638,626,625,625,627,614,611,607,646,630,616,623,632,622,637,644,645,629,659,652,660,631,631,616,618,610,615,609,612,626,624,599,1379,1413,1433,1455,1885,2409,2661,2920,2909,2887,2907,2893,2800,2778,2684,2646,2566,2508,2489,2393,2385,2347,2290,2227,2140,2117,1967,1917,1603,1587,1521,1494,1435,1443,1436,1440,1410,1446,1413,1420,1427,1423,1431,1446,1446,1437,1431,1446,1435,1434,1445,1448,1452,1463,1445,1446,1448,1459,1465,1443,1435,1439,1434,1436,1436,1085,1082,1090,1108,1195,1503,1801,1959,2082,2125,2101,2065,2027,2007,1972,1944,1889,1873,1839,1803,1790,1736,1705,1669,1635,1602,1562,1541,1401,1236,1197,1170,1143,1122,1101,1098,1099,1061,1010,1012,1021,1019,1022,1022,1030,1031,1021,1021,1044,1026,1031,1031,1033,1036,1029,1032,1036,1041,1034,1034,1034,1036,1031,1032,1032,628,611,632,635,644,817,988,1080,1214,1281,1265,1234,1215,1205,1184,1156,1107,1123,1102,1082,1061,1013,998,1001,980,959,929,889,903,874,855,713,669,653,641,638,639,594,540,538,544,540,546,552,549,560,551,547,568,551,552,550,551,554,547,552,556,562,555,553,554,553,548,549,549,1080,1083,1092,1111,1169,1577,1727,1973,2066,2090,2079,2047,2035,1984,1953,1932,1889,1870,1827,1786,1746,1732,1694,1660,1647,1561,1542,1469,1383,1218,1186,1161,1134,1104,1103,1096,1104,1113,1071,1081,1094,1096,1093,1099,1097,1095,1101,1123,1103,1109,1113,1112,1121,1140,1116,1103,1127,1105,1110,1099,1125,1134,1121,1107,1107,621,622,624,639,636,851,958,1032,1150,1175,1182,1164,1147,1130,1127,1096,1079,1075,1058,1028,1010,986,976,960,942,926,908,909,874,856,840,822,806,759,633,629,630,632,621,621,621,621,621,622,623,627,624,627,629,632,634,636,636,638,640,642,637,640,640,640,695,695,710,719,708,470,471,474,475,480,542,718,800,881,943,949,934,918,903,888,874,860,844,829,815,799,784,768,754,739,724,708,693,678,662,551,518,505,493,500,477,479,461,467,465,471,495,470,460,501,514,472,488,512,488,458,493,500,515,503,492,515,504,495,506,480,480,470,459,457,783,792,788,794,832,1055,1238,1383,1512,1562,1587,1541,1515,1502,1465,1451,1425,1390,1365,1366,1335,1284,1265,1256,1214,1197,1171,1146,1047,1104,919,922,911,820,826,795,813,796,767,769,772,780,779,779,780,776,774,780,776,774,775,780,787,786,782,778,781,778,780,779,779,778,774,778,773,419,421,422,423,426,460,625,697,769,839,850,837,822,809,796,782,768,755,741,728,715,700,687,674,661,646,633,620,606,592,579,462,451,441,430,425,427,428,396,400,402,404,403,404,404,403,398,404,400,401,401,404,411,410,406,402,405,402,404,403,403,404,400,404,400,491,492,494,495,502,653,739,824,907,984,992,993,960,944,928,913,897,881,865,865,833,818,801,786,771,754,754,722,707,691,675,674,644,596,502,498,499,501,479,481,481,483,482,483,483,482,477,483,479,480,480,483,490,489,485,481,484,481,483,482,482,483,479,483,479,0,0,0,0,0,0,0,0,0,0,0,0,0,0,0,0,0,0,0,0,0,0,0,0,0,0,0,0,0,0,0,0,0,0,0,0,0,0,0,0,0,0,0,0,0,0,0,0,0,0,0,0,0,0,0,0,0,0,0,0,0,0,0,0,0,982,985,973,1013,1142,1404,1631,1772,1885,1938,1911,1909,1878,1850,1815,1787,1728,1741,1694,1657,1631,1576,1568,1538,1505,1475,1459,1393,1374,1348,1208,1094,1057,1012,999,1003,1005,996,974,983,986,988,987,988,988,987,982,988,984,985,985,988,995,994,990,986,989,986,988,987,987,988,984,988,984,1294,1277,1263,1287,1515,2196,2467,2584,2699,2700,2665,2622,2611,2534,2486,2459,2439,2361,2282,2244,2245,2193,2088,2051,1985,1954,1940,1836,1655,1440,1436,1384,1361,1346,1295,1279,1306,1292,1297,1279,1288,1292,1296,1290,1303,1311,1290,1294,1297,1289,1300,1296,1308,1306,1316,1293,1300,1298,1324,1318,1298,1310,1294,1293,1293,1153,1150,1153,1171,1293,1607,1910,2095,2195,2236,2223,2184,2150,2135,2096,2041,2019,1972,1935,1915,1878,1837,1809,1770,1731,1704,1661,1640,1525,1503,1308,1226,1198,1179,1166,1167,1159,1110,1121,1120,1147,1159,1147,1120,1162,1167,1150,1158,1152,1158,1128,1179,1174,1165,1161,1171,1158,1156,1174,1182,1176,1175,1174,1155,1153,690,693,697,702,716,854,1085,1202,1336,1370,1368,1363,1340,1318,1296,1256,1241,1214,1196,1168,1151,1124,1117,1102,1080,1039,1036,1002,979,966,812,745,772,722,695,702,702,643,651,646,658,676,677,650,681,693,681,684,676,684,649,688,687,679,672,682,673,671,686,700,687,683,673,654,652,621,622,624,639,636,851,958,1032,1150,1175,1182,1164,1147,1130,1127,1096,1079,1075,1058,1028,1010,986,976,960,942,926,908,909,874,856,840,822,806,759,633,629,630,632,621,621,621,621,621,622,623,627,624,627,629,632,634,636,636,638,640,642,637,640,640,640,695,695,710,719,708,1249,1304,1273,1383,1810,2097,2415,2577,2673,2713,2703,2635,2598,2553,2515,2493,2450,2389,2346,2293,2240,2252,2134,2077,2028,1971,1918,1868,1795,1722,1399,1356,1379,1281,1269,1273,1283,1293,1340,1333,1345,1374,1365,1370,1375,1355,1356,1372,1360,1363,1366,1369,1369,1373,1376,1377,1379,1396,1379,1375,1375,1417,1390,1502,1379,912,915,906,922,1052,1240,1448,1631,1707,1813,1815,1782,1752,1723,1691,1666,1639,1600,1579,1550,1522,1491,1462,1433,1402,1377,1333,1320,1290,1259,1079,981,969,928,928,919,928,896,889,896,902,904,911,913,924,913,907,929,922,943,926,932,957,968,914,919,926,934,924,927,938,926,924,945,923,379,380,381,383,385,459,574,641,708,760,768,756,744,732,720,708,696,683,671,658,646,634,622,610,598,585,573,561,548,508,496,486,474,463,444,385,386,441,369,374,379,386,376,383,374,381,373,375,376,376,369,378,378,381,379,383,380,380,384,381,378,398,372,379,375,595,591,599,600,607,756,896,1005,1112,1187,1184,1180,1161,1128,1123,1104,1084,1065,1046,1026,1007,988,958,939,929,910,893,874,854,836,786,767,749,650,608,607,606,596,588,588,590,597,599,596,601,604,607,604,606,607,606,608,620,661,609,610,610,610,618,616,617,623,612,618,615,598,600,602,603,626,758,900,1010,1116,1192,1205,1185,1166,1147,1127,1108,1089,1069,1050,1031,1011,991,973,953,934,914,898,877,859,839,789,771,660,623,610,610,610,566,556,559,556,560,571,566,563,571,564,578,572,569,573,574,583,673,576,569,576,574,582,579,575,583,575,600,578,976,963,981,988,1196,1330,1580,1746,1868,1919,1921,1890,1838,1828,1777,1766,1735,1706,1674,1651,1596,1586,1542,1505,1475,1445,1434,1403,1373,1351,1058,1202,1013,1004,1005,974,977,994,993,989,983,991,994,1016,1018,991,986,1033,1024,1008,1004,1008,1007,1005,1013,991,1002,1002,1010,1036,1010,1016,1013,996,995,0,0,0,0,0,0,0,0,0,0,0,0,0,0,0,0,0,0,0,0,0,0,0,0,0,0,0,0,0,0,0,0,0,0,0,0,0,0,0,0,0,0,0,0,0,0,0,0,0,0,0,0,0,0,0,0,0,0,0,0,0,0,0,0,0,1419,1423,1476,1610,2325,2769,3061,3246,3326,3316,3297,3180,3143,3047,3032,2915,2828,2742,2720,2610,2564,2535,2449,2366,2300,2216,2108,2016,1748,1624,1570,1493,1489,1424,1445,1485,1523,1496,1575,1587,1596,1615,1591,1619,1620,1603,1606,1618,1629,1610,1616,1641,1645,1654,1663,1673,1603,1612,1649,1622,1610,1615,1605,1701,1630,1555,1567,1574,1616,1991,2480,2722,2834,2974,2996,2929,2899,2828,2844,2746,2759,2709,2649,2573,2516,2508,2459,2377,2069,2043,1845,1844,1786,1790,1742,1692,1667,1602,1583,1559,1547,1517,1512,1506,1515,1516,1523,1520,1532,1512,1525,1521,1526,1518,1527,1524,1529,1529,1536,1535,1541,1534,1534,1539,1536,1545,1554,1549,1538,1534,1121,1126,1136,1148,1254,1618,1885,2064,2141,2222,2207,2157,2134,2091,2062,2022,1987,1960,1915,1865,1843,1831,1793,1754,1710,1688,1654,1497,1458,1271,1252,1217,1166,1141,1135,1120,1050,1042,1032,1038,1037,1047,1050,1051,1041,1055,1047,1050,1043,1048,1043,1047,1047,1054,1055,1061,1055,1055,1058,1056,1062,1071,1066,1055,1051,1249,1304,1273,1383,1810,2097,2415,2577,2673,2713,2703,2635,2598,2553,2515,2493,2450,2389,2346,2293,2240,2252,2134,2077,2028,1971,1918,1868,1795,1722,1399,1356,1379,1281,1269,1273,1283,1293,1340,1333,1345,1374,1365,1370,1375,1355,1356,1372,1360,1363,1366,1369,1369,1373,1376,1377,1379,1396,1379,1375,1375,1417,1390,1502,1379,1151,1112,1158,1148,1253,1730,2004,2241,2395,2431,2476,2352,2311,2308,2227,2185,2171,2102,2060,2018,1987,1941,1895,1849,1804,1765,1772,1665,1579,1287,1250,1213,1175,1144,1139,1170,1147,1145,1168,1168,1168,1168,1168,1168,1168,1168,1168,1168,1168,1168,1168,1168,1168,1168,1168,1168,1168,1168,1168,1168,1168,1168,1168,1168,1168,1064,1066,1080,1120,1191,1687,1942,2127,2286,2337,2291,2258,2216,2209,2137,2104,2076,2008,1966,1926,1906,1868,1829,1773,1727,1682,1643,1598,1512,1335,1196,1182,1156,1099,1117,1121,1038,1033,991,991,991,991,991,991,991,991,991,991,991,991,991,991,991,991,991,991,991,991,991,991,991,991,991,991,991,1458,1433,1473,1575,2054,2574,2873,3059,3110,3203,3133,3077,3030,2968,2909,2857,2781,2750,2718,2639,2527,2513,2449,2387,2208,2104,2049,1971,1937,1661,1595,1534,1503,1510,1451,1455,1467,1495,1543,1543,1543,1543,1543,1543,1543,1543,1543,1543,1543,1543,1543,1543,1543,1543,1543,1543,1543,1543,1543,1543,1543,1543,1543,1543,1543,1370,1327,1360,1461,1609,2218,2460,2669,2817,2833,2806,2752,2709,2674,2593,2545,2533,2450,2402,2355,2317,2273,2214,2162,2118,2067,1997,1924,1744,1514,1491,1431,1395,1377,1361,1361,1333,1328,1286,1286,1286,1286,1286,1286,1286,1286,1286,1286,1286,1286,1286,1286,1286,1286,1286,1286,1286,1286,1286,1286,1286,1286,1286,1286,1286,1374,1331,1401,1498,1651,2269,2544,2714,2827,2878,2853,2783,2728,2681,2635,2576,2554,2469,2427,2407,2325,2283,2229,2176,2141,2088,2002,1812,1588,1543,1524,1449,1439,1395,1389,1392,1348,1343,1301,1301,1301,1301,1301,1301,1301,1301,1301,1301,1301,1301,1301,1301,1301,1301,1301,1301,1301,1301,1301,1301,1301,1301,1301,1301,1301,1300,1288,1285,1383,1533,2057,2304,2517,2643,2674,2664,2597,2572,2546,2461,2415,2422,2338,2280,2246,2200,2150,2101,2051,2010,1970,1919,1782,1687,1435,1476,1372,1334,1290,1284,1284,1299,1308,1278,1278,1278,1278,1278,1278,1278,1278,1278,1278,1278,1278,1278,1278,1278,1278,1278,1278,1278,1278,1278,1278,1278,1278,1278,1278,1278,1370,1377,1391,1521,2064,2524,2901,3087,3218,3227,3180,3107,3044,2999,2954,2835,2774,2755,2640,2568,2523,2445,2403,2316,2286,2215,2152,2067,1890,1597,1538,1466,1462,1395,1389,1396,1406,1426,1429,1429,1429,1429,1429,1429,1429,1429,1429,1429,1429,1429,1429,1429,1429,1429,1429,1429,1429,1429,1429,1429,1429,1429,1429,1429,1429,0,0,0,0,0,0,0,0,0,0,0,0,0,0,0,0,0,0,0,0,0,0,0,0,0,0,0,0,0,0,0,0,0,0,0,0,0,0,0,0,0,0,0,0,0,0,0,0,0,0,0,0,0,0,0,0,0,0,0,0,0,0,0,0,0,926,930,932,930,977,1381,1478,1701,1670,1722,1721,1679,1703,1677,1610,1580,1555,1632,1505,1582,1532,1436,1486,1444,1428,1333,1307,1288,1269,1272,989,1014,948,959,946,945,929,930,931,928,927,924,938,955,944,943,945,960,950,958,960,960,960,960,960,960,952,956,960,960,960,960,960,960,955,997,998,1030,1015,1071,1489,1710,1865,1919,1993,1997,1977,1923,1920,1854,1787,1756,1783,1748,1714,1696,1637,1598,1562,1530,1516,1446,1426,1375,1330,1159,1145,1039,1043,1036,1035,996,1004,1024,1017,1011,1027,1029,1025,1024,1037,1039,1035,1031,1031,1039,1043,1042,1017,1033,1040,1041,1047,1028,1030,1043,1033,1039,1042,1028,1151,1112,1158,1148,1253,1730,2004,2241,2395,2431,2476,2352,2311,2308,2227,2185,2171,2102,2060,2018,1987,1941,1895,1849,1804,1765,1772,1665,1579,1287,1250,1213,1175,1144,1139,1170,1147,1145,1168,1168,1168,1168,1168,1168,1168,1168,1168,1168,1168,1168,1168,1168,1168,1168,1168,1168,1168,1168,1168,1168,1168,1168,1168,1168,1168,1270,1266,1267,1278,1343,1916,2158,2349,2431,2457,2437,2400,2360,2322,2283,2258,2219,2179,2142,2106,2069,2030,1974,1968,1924,1899,1740,1786,1576,1404,1372,1341,1344,1294,1281,1280,1294,1280,1279,1259,1267,1275,1292,1291,1299,1277,1295,1290,1299,1296,1313,1321,1327,1320,1312,1321,1307,1330,1314,1299,1294,1303,1308,1295,1294,719,726,720,766,752,961,1139,1248,1327,1421,1417,1405,1378,1349,1323,1305,1238,1256,1239,1227,1194,1130,1109,1128,1111,1080,1061,1043,1015,1002,850,777,759,746,703,701,702,707,698,698,705,705,696,704,707,707,712,703,712,707,703,698,717,737,721,711,719,704,711,706,716,705,713,715,705,1167,1152,1183,1265,1343,1761,1964,2195,2250,2298,2254,2254,2158,2134,2122,2098,2030,1983,1973,1921,1906,1871,1835,1806,1761,1699,1629,1526,1555,1455,1280,1270,1226,1199,1176,1154,1172,1157,1147,1145,1153,1156,1161,1159,1160,1165,1155,1162,1162,1158,1170,1176,1195,1191,1168,1161,1164,1170,1169,1167,1169,1190,1170,1172,1169,1115,1115,1119,1162,1260,1640,1902,2075,2142,2194,2165,2145,2076,2068,2025,1977,1964,1924,1860,1859,1818,1795,1768,1716,1676,1647,1636,1582,1547,1408,1207,1181,1160,1146,1121,1128,1110,1083,1077,1080,1080,1085,1091,1090,1099,1094,1099,1093,1093,1087,1095,1101,1116,1123,1099,1094,1087,1093,1096,1094,1098,1106,1102,1098,1095,1084,1097,1099,1169,1161,1605,1883,2063,2137,2168,2132,2108,2040,2033,1991,1960,1932,1885,1874,1828,1787,1754,1741,1696,1654,1620,1619,1579,1418,1409,1194,1161,1158,1113,1113,1114,1105,1086,1081,1082,1088,1085,1099,1099,1096,1095,1095,1102,1097,1093,1097,1107,1136,1125,1107,1097,1095,1098,1101,1098,1098,1121,1099,1103,1100,1256,1266,1262,1311,1536,1940,2184,2353,2425,2450,2421,2402,2349,2316,2271,2242,2205,2155,2125,2116,2046,2018,1991,1940,1902,1862,1736,1713,1497,1409,1419,1369,1303,1284,1290,1277,1272,1248,1245,1240,1257,1251,1246,1272,1270,1259,1269,1269,1280,1273,1273,1265,1299,1300,1283,1282,1295,1282,1275,1291,1289,1294,1286,1296,1294,1477,1471,1484,1613,1887,2334,2621,2772,2823,2853,2817,2787,2726,2696,2637,2593,2556,2491,2440,2409,2365,2323,2187,2121,1932,2005,1935,1706,1756,1711,1594,1539,1533,1497,1499,1487,1472,1465,1462,1451,1453,1473,1478,1473,1478,1478,1474,1478,1478,1471,1479,1487,1500,1500,1481,1476,1473,1479,1480,1476,1478,1499,1479,1481,1478,864,852,867,863,903,1133,1384,1461,1619,1740,1612,1590,1593,1547,1492,1523,1447,1425,1402,1380,1357,1335,1333,1310,1268,1245,1223,1218,1131,1024,1003,946,976,900,889,860,861,862,866,875,881,891,890,889,898,914,891,889,902,898,900,895,897,893,899,902,900,896,898,903,898,924,903,898,899,0,0,0,0,0,0,0,0,0,0,0,0,0,0,0,0,0,0,0,0,0,0,0,0,0,0,0,0,0,0,0,0,0,0,0,0,0,0,0,0,0,0,0,0,0,0,0,0,0,0,0,0,0,0,0,0,0,0,0,0,0,0,0,0,0,537,540,542,548,558,714,832,923,978,1052,1065,1020,1024,1007,990,988,973,956,943,926,891,893,859,861,844,845,794,787,770,753,607,594,595,564,544,552,564,518,517,524,521,534,527,535,531,542,530,531,536,537,529,532,543,543,546,531,543,536,538,533,539,541,527,527,527,1270,1266,1267,1278,1343,1916,2158,2349,2431,2457,2437,2400,2360,2322,2283,2258,2219,2179,2142,2106,2069,2030,1974,1968,1924,1899,1740,1786,1576,1404,1372,1341,1344,1294,1281,1280,1294,1280,1279,1259,1267,1275,1292,1291,1299,1277,1295,1290,1299,1296,1313,1321,1327,1320,1312,1321,1307,1330,1314,1299,1294,1303,1308,1295,1294,905,907,939,939,948,1223,1433,1640,1669,1731,1744,1717,1656,1660,1642,1588,1588,1560,1560,1507,1453,1499,1428,1406,1381,1313,1351,1223,1198,1110,1008,1009,988,963,934,939,940,956,920,940,922,925,946,930,937,946,939,953,951,935,950,942,951,947,954,958,952,963,968,946,955,981,961,971,952,235,236,237,238,275,281,343,383,423,462,479,471,464,456,457,447,434,426,419,411,409,396,388,381,374,366,363,350,343,337,329,320,313,309,284,277,277,277,215,209,208,210,210,212,211,212,209,213,211,210,213,216,215,213,214,214,212,211,212,215,212,213,212,214,213,723,700,702,714,734,834,1106,1219,1348,1380,1408,1378,1399,1348,1338,1329,1286,1256,1263,1205,1182,1197,1144,1108,1086,1074,1041,1019,950,954,923,760,746,761,743,719,734,732,685,678,679,685,688,686,688,686,688,687,688,688,689,696,694,698,701,692,689,694,693,693,693,697,691,691,691,653,638,635,629,657,785,973,1098,1181,1266,1269,1265,1248,1206,1203,1178,1174,1147,1105,1100,1064,1045,1040,1004,999,961,973,929,903,883,854,776,696,656,643,656,642,623,611,603,607,610,610,616,613,613,610,614,611,609,612,619,618,612,618,618,620,617,614,616,617,615,613,615,613,641,631,639,640,651,744,966,1084,1198,1273,1285,1265,1235,1213,1194,1178,1163,1133,1111,1093,1085,1050,1033,1009,999,965,953,928,908,887,838,738,676,659,646,651,642,638,614,612,616,620,617,624,628,622,618,627,628,623,624,623,630,627,633,632,625,625,621,625,624,626,622,622,622,778,774,771,779,837,1017,1218,1376,1483,1538,1538,1513,1487,1454,1429,1404,1379,1356,1340,1320,1292,1268,1243,1218,1200,1178,1146,1120,1090,1064,1006,969,840,801,786,783,786,782,756,756,757,767,775,762,779,778,763,773,774,771,779,786,783,792,786,777,805,785,793,781,797,786,796,788,799,1011,1012,1026,1000,1057,1381,1628,1842,1944,1957,1994,1977,1929,1903,1867,1833,1811,1782,1747,1716,1684,1646,1629,1591,1556,1520,1491,1459,1365,1234,1164,1098,1064,1048,1032,1027,1040,1047,993,993,985,985,1005,1003,1002,1004,1001,1006,1004,1004,1002,1005,1007,1007,1008,1005,1004,1003,1002,1004,1002,1006,1000,1000,1000,1046,1054,1063,1076,1172,1493,1692,1900,2051,2075,2064,2064,1994,1969,1936,1896,1872,1846,1807,1775,1743,1700,1684,1642,1616,1587,1537,1518,1427,1289,1174,1125,1098,1093,1063,1072,1061,1052,1037,1034,1035,1038,1066,1041,1059,1062,1061,1052,1094,1065,1082,1092,1094,1086,1064,1044,1062,1072,1081,1060,1052,1081,1081,1081,1081,567,568,570,574,585,728,849,964,1038,1097,1107,1093,1072,1056,1038,1020,1007,986,969,951,935,917,899,900,868,865,833,814,796,779,693,668,704,593,576,589,576,579,547,543,554,582,559,546,559,579,560,555,561,561,576,571,575,565,565,560,560,560,567,568,562,568,568,568,568,0,0,0,0,0,0,0,0,0,0,0,0,0,0,0,0,0,0,0,0,0,0,0,0,0,0,0,0,0,0,0,0,0,0,0,0,0,0,0,0,0,0,0,0,0,0,0,0,0,0,0,0,0,0,0,0,0,0,0,0,0,0,0,0,0,905,907,939,939,948,1223,1433,1640,1669,1731,1744,1717,1656,1660,1642,1588,1588,1560,1560,1507,1453,1499,1428,1406,1381,1313,1351,1223,1198,1110,1008,1009,988,963,934,939,940,956,920,940,922,925,946,930,937,946,939,953,951,935,950,942,951,947,954,958,952,963,968,946,955,981,961,971,952,0,0,0,0,0,0,0,0,0,0,0,0,0,0,0,0,0,0,0,0,0,0,0,0,0,0,0,0,0,0,0,0,0,0,0,0,0,0,0,0,0,0,0,0,0,0,0,0,0,0,0,0,0,0,0,0,0,0,0,0,0,0,0,0,0,830,833,835,874,913,1245,1315,1463,1509,1606,1534,1532,1490,1469,1493,1437,1405,1384,1372,1328,1307,1285,1323,1277,1280,1271,1190,1170,997,981,953,916,886,866,859,860,839,813,785,787,796,797,792,791,789,802,791,793,797,794,791,800,806,799,798,797,800,805,802,793,803,811,799,799,796,1335,1355,1345,1441,1656,2192,2328,2449,2481,2543,2427,2440,2455,2385,2372,2310,2242,2176,2198,2113,2104,2067,2072,2023,2008,1930,1833,1511,1527,1454,1438,1410,1402,1360,1332,1352,1372,1365,1337,1339,1348,1349,1344,1343,1341,1354,1343,1345,1349,1346,1343,1352,1358,1351,1350,1349,1352,1357,1354,1345,1355,1363,1351,1351,1348,1049,1051,1054,1066,1119,1517,1701,1844,1939,1954,1931,1902,1874,1848,1823,1803,1782,1740,1712,1698,1657,1638,1610,1574,1546,1529,1500,1464,1313,1308,1209,1136,1095,1081,1060,1061,1045,1043,1006,1014,1020,1029,1022,1023,1014,1018,1025,1020,1019,1020,1032,1038,1041,1037,1035,1032,1030,1030,1035,1036,1034,1047,1059,1050,1044,1119,1123,1100,1142,1282,1644,1846,1988,2038,2091,2007,2032,2004,1953,1944,1926,1865,1806,1835,1754,1767,1697,1719,1688,1651,1621,1588,1556,1307,1307,1214,1169,1166,1153,1092,1134,1128,1123,1085,1093,1099,1107,1101,1101,1093,1097,1101,1099,1098,1099,1101,1110,1116,1109,1108,1107,1109,1109,1112,1103,1113,1121,1109,1109,1106,636,637,638,640,659,820,941,1019,1113,1140,1131,1116,1101,1087,1074,1059,1048,1030,1016,1001,986,972,957,942,928,913,898,884,869,854,840,821,663,651,643,643,644,646,604,612,616,625,618,619,611,620,622,620,618,619,621,628,637,633,629,631,628,627,631,633,637,645,657,656,648,1479,1487,1549,1640,2038,2478,2683,2782,2874,2860,2816,2764,2728,2697,2643,2601,2595,2483,2477,2465,2414,2360,2319,2297,1937,1947,1908,1729,1684,1638,1594,1560,1518,1500,1503,1507,1507,1525,1520,1532,1541,1550,1558,1546,1550,1552,1549,1574,1556,1551,1573,1579,1586,1583,1582,1567,1575,1565,1583,1586,1582,1631,1639,1615,1602,1042,1026,1045,1131,1424,1751,2015,2189,2184,2219,2158,2202,2148,2107,2085,2042,1954,1896,1903,1862,1821,1780,1754,1698,1657,1617,1576,1535,1493,1453,1276,1122,1158,1062,1054,1061,1050,1057,1063,1048,1051,1061,1094,1059,1061,1052,1067,1071,1072,1066,1118,1125,1072,1057,1114,1116,1065,1109,1061,1069,1067,1063,1067,1063,1058,1224,1237,1230,1278,1310,1855,2110,2231,2315,2335,2282,2248,2263,2216,2220,2133,2072,2070,2042,2016,1964,1909,1872,1864,1811,1752,1746,1645,1570,1369,1367,1278,1257,1231,1243,1217,1172,1173,1168,1175,1175,1185,1211,1229,1204,1215,1211,1213,1239,1239,1243,1209,1224,1237,1210,1211,1205,1224,1209,1221,1220,1223,1215,1220,1219,953,956,958,960,1037,1424,1564,1710,1773,1789,1772,1740,1699,1693,1695,1659,1614,1593,1579,1546,1517,1491,1460,1468,1437,1404,1336,1312,1242,1224,1026,1019,996,976,952,966,972,951,938,947,940,953,948,945,945,956,946,949,953,949,945,955,954,954,954,952,954,961,950,947,955,949,952,950,932,0,0,0,0,0,0,0,0,0,0,0,0,0,0,0,0,0,0,0,0,0,0,0,0,0,0,0,0,0,0,0,0,0,0,0,0,0,0,0,0,0,0,0,0,0,0,0,0,0,0,0,0,0,0,0,0,0,0,0,0,0,0,0,0,0 ]);
