n = 10;
D = [228,146,262,146,215,173,169,282,144,276 ];
q = 0;
prec = array2d(1..0,1..2,[]);
steps = 64;
l = 360;
r = 0;
which = [];
interval = array2d(1..0,1..2,[]);
T = array3d(1..11,1..11,0..64,[0,0,0,0,0,0,0,0,0,0,0,0,0,0,0,0,0,0,0,0,0,0,0,0,0,0,0,0,0,0,0,0,0,0,0,0,0,0,0,0,0,0,0,0,0,0,0,0,0,0,0,0,0,0,0,0,0,0,0,0,0,0,0,0,0,304,305,306,307,308,325,368,411,455,496,508,500,492,483,475,467,459,451,443,492,427,419,411,402,394,386,378,370,362,354,346,338,330,321,313,309,310,310,297,311,314,319,297,300,299,309,308,301,406,387,312,337,404,393,380,294,308,328,342,311,302,315,325,299,291,212,213,213,214,215,223,252,281,310,339,353,348,342,336,331,325,320,314,308,303,297,292,286,281,275,269,264,258,253,247,242,236,230,225,219,215,216,216,211,203,203,202,204,205,203,205,202,215,205,202,205,205,204,204,208,207,204,204,204,208,204,207,205,208,207,312,313,314,315,316,334,379,423,467,526,546,513,528,520,511,502,471,463,454,446,438,430,421,413,405,396,407,398,371,363,355,346,338,330,321,317,318,319,307,312,311,320,319,322,314,325,309,323,315,320,311,317,323,330,320,319,319,317,323,322,316,323,309,316,311,1524,1505,1499,1622,1836,2105,2430,2493,2543,2672,2543,2533,2431,2350,2429,2298,2248,2229,2160,2178,2069,1985,2002,1958,1887,1830,1801,1746,1709,1661,1625,1565,1506,1509,1494,1512,1539,1509,1624,1631,1602,1619,1616,1663,1629,1649,1657,1725,1640,1685,1673,1683,1654,1723,1692,1644,1643,1640,1670,1697,1694,1720,1696,1702,1669,480,481,483,485,489,530,599,671,742,788,793,782,769,757,744,731,717,706,693,681,669,655,643,631,618,605,591,580,567,554,540,580,516,504,491,487,488,490,486,496,491,498,500,501,500,510,491,502,493,493,495,504,506,501,503,503,498,503,510,498,496,492,494,506,494,556,570,560,589,596,614,688,845,887,925,889,878,937,851,837,824,809,797,783,802,757,743,730,717,703,689,674,662,649,635,620,607,608,599,569,564,578,567,564,563,567,577,562,568,568,570,570,565,567,561,565,565,565,567,567,568,569,570,570,573,567,579,565,571,570,578,563,568,569,594,629,734,813,861,909,913,899,903,871,857,859,829,815,796,786,787,782,740,730,735,747,730,673,659,636,646,617,604,589,576,590,574,602,583,584,582,584,590,584,587,586,580,584,583,586,584,588,591,592,588,588,590,586,592,601,591,596,585,590,590,319,320,321,322,323,341,386,430,471,517,524,520,511,503,495,486,478,470,461,453,445,436,428,420,411,401,406,384,378,370,362,353,345,337,328,324,325,326,311,312,311,315,320,315,323,316,315,317,314,317,317,323,317,317,341,342,325,332,322,312,330,316,327,318,314,408,409,410,412,413,437,502,561,609,666,700,665,678,667,656,645,611,591,590,579,568,558,539,536,525,515,523,511,483,513,454,451,440,423,412,408,415,410,397,402,414,427,410,416,404,419,402,414,408,403,406,412,412,412,411,410,410,408,417,416,406,409,402,407,404,0,0,0,0,0,0,0,0,0,0,0,0,0,0,0,0,0,0,0,0,0,0,0,0,0,0,0,0,0,0,0,0,0,0,0,0,0,0,0,0,0,0,0,0,0,0,0,0,0,0,0,0,0,0,0,0,0,0,0,0,0,0,0,0,0,308,309,310,311,312,340,386,431,476,503,529,506,512,504,481,473,479,457,462,440,442,436,428,420,400,391,394,375,374,366,358,349,339,333,324,313,314,315,300,301,303,310,303,307,302,303,308,304,303,302,304,305,303,304,307,308,307,304,307,307,309,315,312,317,311,0,0,0,0,0,0,0,0,0,0,0,0,0,0,0,0,0,0,0,0,0,0,0,0,0,0,0,0,0,0,0,0,0,0,0,0,0,0,0,0,0,0,0,0,0,0,0,0,0,0,0,0,0,0,0,0,0,0,0,0,0,0,0,0,0,310,311,311,312,313,305,346,386,426,505,477,507,499,454,483,474,463,457,416,437,401,393,386,378,401,407,356,348,341,333,325,318,310,303,295,326,327,329,292,294,301,305,303,310,294,305,295,317,301,296,303,304,315,326,311,305,312,302,310,314,310,316,299,304,301,189,189,190,190,191,198,224,250,276,302,316,311,306,301,296,291,286,281,276,271,266,261,256,251,246,241,236,231,225,220,215,210,205,200,195,192,192,193,181,186,181,182,189,186,196,193,185,188,187,187,187,184,185,188,187,185,188,185,185,187,184,189,187,192,185,1453,1418,1480,1500,1686,1943,2117,2243,2340,2401,2390,2337,2267,2235,2210,2178,2129,2084,2041,1998,1977,1914,1946,1829,1798,1744,1702,1660,1614,1582,1543,1500,1452,1509,1420,1423,1431,1461,1501,1487,1491,1493,1495,1526,1527,1526,1516,1528,1545,1529,1533,1527,1528,1554,1568,1539,1543,1554,1556,1567,1559,1550,1577,1619,1589,453,450,451,452,442,493,564,630,696,715,743,739,720,708,720,690,672,623,655,601,625,613,601,610,578,585,554,542,530,518,524,495,483,471,446,442,472,445,450,454,448,453,457,461,487,483,454,460,463,468,463,453,457,469,463,460,462,457,455,458,455,463,462,471,453,529,526,528,529,520,613,653,765,795,813,909,835,815,802,854,782,764,714,745,690,713,701,688,758,663,669,637,625,612,599,604,574,561,548,524,519,550,522,529,525,525,530,545,540,536,544,546,565,552,561,556,555,549,548,560,554,555,557,561,569,559,564,565,570,557,668,669,671,688,753,747,888,963,1079,1167,1091,1100,1075,1040,1022,1004,1012,969,953,920,915,920,888,864,850,894,833,792,826,821,752,729,703,734,683,686,682,730,697,710,695,698,715,728,718,726,706,721,714,720,712,705,702,710,710,714,705,707,700,702,698,708,709,702,687,487,488,480,490,495,547,619,691,763,780,814,789,788,776,754,738,723,785,712,688,686,657,648,708,625,612,608,575,569,597,556,541,530,515,503,484,522,494,495,498,500,516,509,500,506,511,502,508,518,526,634,618,640,547,504,502,515,516,509,501,511,509,504,510,508,328,329,330,331,332,345,390,444,490,533,536,535,519,518,509,501,484,484,475,466,458,449,441,432,419,415,402,398,382,373,368,359,350,346,333,333,330,330,309,309,310,310,311,311,312,314,314,315,316,316,317,318,319,319,320,320,322,323,324,324,325,326,326,326,327,308,309,310,311,312,340,386,431,476,503,529,506,512,504,481,473,479,457,462,440,442,436,428,420,400,391,394,375,374,366,358,349,339,333,324,313,314,315,300,301,303,310,303,307,302,303,308,304,303,302,304,305,303,304,307,308,307,304,307,307,309,315,312,317,311,226,227,228,228,229,239,270,302,333,365,378,372,366,360,354,348,342,336,330,324,318,312,306,300,297,288,282,276,270,264,258,255,249,240,234,230,230,233,211,211,212,212,213,213,215,215,216,216,216,217,217,218,218,219,219,220,220,222,222,222,223,223,224,224,225,256,257,270,258,259,266,302,325,339,371,384,378,372,366,360,354,347,341,335,329,339,335,311,326,298,317,313,308,304,299,283,278,273,268,263,259,260,260,246,245,245,246,248,247,249,247,249,249,248,248,250,250,249,249,250,253,250,251,248,250,255,253,251,249,249,0,0,0,0,0,0,0,0,0,0,0,0,0,0,0,0,0,0,0,0,0,0,0,0,0,0,0,0,0,0,0,0,0,0,0,0,0,0,0,0,0,0,0,0,0,0,0,0,0,0,0,0,0,0,0,0,0,0,0,0,0,0,0,0,0,378,368,369,370,372,397,450,527,556,602,611,601,592,541,580,562,568,543,537,527,525,525,494,484,475,465,441,445,448,426,416,406,414,387,377,372,374,375,370,368,366,379,369,368,368,373,365,372,371,368,371,370,371,370,370,373,374,373,373,365,372,373,371,372,373,1277,1255,1290,1348,1533,1793,2037,2157,2285,2277,2273,2174,2169,2131,2051,2045,2003,1951,1937,1878,1854,1812,1757,1711,1670,1628,1583,1545,1503,1461,1420,1378,1353,1309,1304,1319,1283,1330,1341,1380,1382,1373,1458,1405,1403,1456,1394,1456,1441,1436,1426,1387,1418,1443,1587,1526,1484,1419,1397,1418,1403,1435,1424,1464,1379,272,272,273,274,275,289,327,365,403,441,453,446,439,432,424,417,410,403,395,388,381,374,367,359,352,345,338,331,323,316,309,302,295,288,280,276,276,277,261,264,265,273,262,262,262,265,266,259,263,261,262,262,261,263,263,264,262,265,263,266,262,269,263,266,264,360,361,350,363,364,370,413,455,498,539,550,542,534,526,518,510,502,494,486,478,502,462,454,446,438,430,422,414,406,398,389,398,373,366,370,353,366,367,349,353,353,357,357,355,363,357,351,358,356,353,358,361,357,356,378,362,356,355,357,361,354,360,356,361,357,425,423,437,429,431,479,583,583,638,691,699,675,677,666,655,644,633,617,607,596,589,578,556,556,547,524,513,512,503,481,480,483,458,438,428,432,432,434,427,426,430,427,432,439,429,437,440,432,435,433,435,438,437,444,439,440,433,446,438,441,442,453,453,460,454,405,405,408,409,410,441,486,534,589,661,669,659,651,623,605,616,606,595,585,574,551,554,588,532,513,511,498,546,479,458,458,440,440,428,401,402,397,416,406,406,407,417,415,407,410,412,410,415,424,429,501,501,507,439,415,417,419,412,406,412,414,409,407,415,410,517,528,510,514,525,565,648,772,798,834,850,837,814,755,791,769,772,743,742,712,714,711,668,663,661,648,610,621,602,587,570,579,561,540,527,523,525,526,521,522,524,532,547,532,540,529,529,531,530,531,527,537,536,534,573,564,534,538,529,524,526,530,553,532,523,226,227,228,228,229,239,270,302,333,365,378,372,366,360,354,348,342,336,330,324,318,312,306,300,297,288,282,276,270,264,258,255,249,240,234,230,230,233,211,211,212,212,213,213,215,215,216,216,216,217,217,218,218,219,219,220,220,222,222,222,223,223,224,224,225,412,410,414,412,417,448,508,567,622,670,684,673,701,646,635,630,619,608,597,586,575,564,553,542,527,520,510,499,488,477,462,451,441,433,422,418,419,420,410,404,409,409,403,418,412,415,415,416,430,410,410,414,410,420,414,416,414,412,412,411,416,415,414,438,418,235,236,237,237,238,249,282,315,348,375,404,387,381,375,368,362,356,350,343,323,326,325,318,312,305,287,293,287,281,271,268,262,255,249,239,239,236,236,226,226,227,226,227,228,230,245,233,233,230,231,228,233,231,238,236,233,231,228,226,231,231,231,227,231,230,472,502,482,482,479,552,588,657,726,774,804,768,764,740,731,719,780,694,689,669,664,683,629,622,607,594,582,570,557,545,532,520,505,498,483,479,480,485,480,469,473,475,475,484,483,488,486,483,488,478,475,475,475,483,479,477,478,476,476,475,475,480,475,486,480,0,0,0,0,0,0,0,0,0,0,0,0,0,0,0,0,0,0,0,0,0,0,0,0,0,0,0,0,0,0,0,0,0,0,0,0,0,0,0,0,0,0,0,0,0,0,0,0,0,0,0,0,0,0,0,0,0,0,0,0,0,0,0,0,0,1260,1408,1280,1320,1471,1786,1944,2122,2198,2214,2192,2163,2094,2074,2035,2064,1956,1898,1877,1838,2062,1759,1703,1681,1650,1599,1562,1508,1484,1444,1413,1496,1328,1300,1277,1284,1302,1308,1353,1358,1359,1368,1375,1367,1395,1389,1381,1381,1392,1392,1401,1418,1414,1435,1388,1388,1395,1392,1394,1398,1396,1396,1389,1440,1395,643,646,632,677,669,757,810,927,1003,1054,1012,996,979,986,948,930,914,902,1045,899,1081,833,854,840,821,785,821,767,753,705,691,686,687,671,655,635,624,655,663,628,628,632,636,631,649,645,644,641,651,668,739,663,660,728,652,644,648,666,743,785,791,829,804,712,708,720,722,709,725,750,781,901,1024,1141,1151,1108,1091,1073,1118,1040,1022,1005,992,989,987,1077,920,941,925,905,868,850,849,885,835,771,838,765,799,732,713,752,783,731,743,731,749,753,756,745,763,749,748,747,752,743,746,744,752,761,754,756,752,749,756,753,785,761,770,759,884,877,882,911,948,1034,1168,1270,1378,1416,1434,1361,1374,1318,1325,1300,1274,1240,1272,1211,1186,1152,1161,1136,1083,1102,1046,1053,1012,1022,989,947,923,902,916,892,898,909,893,896,938,1205,948,883,929,1023,966,904,1004,976,923,929,1007,986,982,892,924,917,962,960,909,942,916,920,934,636,737,643,649,656,803,817,911,998,1041,1062,1027,1022,994,978,962,945,916,906,882,878,862,848,817,812,784,768,762,746,729,713,696,677,659,651,645,647,651,628,629,633,649,633,653,634,644,659,639,644,636,637,640,636,639,641,644,641,641,638,639,646,656,651,662,648,141,141,141,142,142,146,157,183,192,220,232,229,225,221,208,205,201,198,194,200,187,193,189,185,182,178,167,171,167,156,160,156,153,149,146,143,143,143,131,131,131,131,131,131,135,140,132,132,133,132,131,131,132,132,133,132,133,131,132,132,133,133,132,134,133,412,410,414,412,417,448,508,567,622,670,684,673,701,646,635,630,619,608,597,586,575,564,553,542,527,520,510,499,488,477,462,451,441,433,422,418,419,420,410,404,409,409,403,418,412,415,415,416,430,410,410,414,410,420,414,416,414,412,412,411,416,415,414,438,418,1408,1412,1436,1520,1699,2101,2215,2391,2429,2533,2539,2559,2351,2437,2255,2219,2252,2218,2134,2152,1977,1965,1920,1905,1821,1777,1733,1697,1763,1601,1590,1496,1466,1544,1438,1440,1440,1471,1559,1535,1558,1570,1587,1625,1571,1589,1591,1605,1644,1602,1608,1649,1664,1656,1613,1596,1597,1618,1601,1610,1587,1621,1605,1613,1597,1520,1526,1552,1651,1767,2102,2272,2348,2427,2414,2399,2364,2371,2343,2275,2246,2209,2173,2186,2074,2041,2000,1982,1915,1902,1841,1827,1780,1731,1702,1655,1576,1556,1554,1513,1529,1538,1542,1643,1636,1643,1655,1647,1674,1683,1679,1669,1675,1697,1693,1746,1753,1778,1742,1671,1693,1703,1698,1694,1687,1689,1667,1694,1743,1664,1294,1302,1308,1371,1539,1810,2034,2204,2259,2367,2241,2270,2193,2161,2102,2059,2049,2043,1992,2001,1837,1819,1777,1775,1694,1653,1604,1563,1583,1486,1478,1386,1341,1333,1319,1321,1330,1330,1419,1415,1412,1443,1471,1461,1442,1440,1457,1491,1463,1501,1517,1516,1470,1457,1473,1475,1480,1460,1503,1542,1491,1488,1501,1474,1470,1355,1346,1361,1428,1549,1799,2039,2194,2271,2281,2331,2290,2212,2167,2152,2058,2087,1978,1938,1900,1885,1817,1777,1761,1723,1685,1839,1629,1536,1498,1479,1465,1379,1373,1338,1341,1411,1397,1414,1421,1432,1455,1441,1448,1434,1449,1429,1429,1447,1436,1468,1482,1468,1452,1448,1459,1455,1467,1465,1442,1466,1466,1451,1452,1449,0,0,0,0,0,0,0,0,0,0,0,0,0,0,0,0,0,0,0,0,0,0,0,0,0,0,0,0,0,0,0,0,0,0,0,0,0,0,0,0,0,0,0,0,0,0,0,0,0,0,0,0,0,0,0,0,0,0,0,0,0,0,0,0,0,1160,1164,1168,1205,1332,1557,1807,1977,2042,2082,2035,1999,1990,2004,1902,1872,1834,1816,1757,1775,1749,1658,1605,1566,1528,1525,1453,1452,1377,1339,1301,1245,1208,1195,1181,1182,1188,1194,1253,1216,1221,1233,1213,1243,1221,1234,1249,1275,1243,1242,1251,1252,1269,1271,1281,1259,1256,1257,1258,1260,1264,1264,1258,1277,1267,1159,1111,1114,1167,1304,1539,1783,1921,1990,2050,2023,1983,1990,1898,1888,1903,1836,1772,1756,1733,1591,1576,1567,1528,1465,1468,1427,1421,1342,1284,1328,1243,1170,1141,1142,1122,1135,1144,1193,1190,1204,1222,1230,1176,1229,1280,1250,1199,1244,1233,1216,1222,1282,1275,1269,1187,1206,1206,1251,1256,1187,1242,1210,1214,1220,1009,1011,1013,1029,1129,1322,1647,1732,1796,1845,1803,1769,1761,1726,1684,1657,1623,1588,1712,1576,1463,1450,1416,1382,1347,1313,1278,1244,1209,1175,1140,1088,1054,1040,1026,1027,1033,1040,1050,1059,1055,1073,1070,1059,1073,1083,1069,1083,1065,1066,1072,1074,1073,1077,1088,1089,1090,1077,1076,1072,1083,1090,1084,1083,1087,1389,1383,1412,1535,1726,1932,2189,2386,2399,2406,2385,2320,2323,2275,2244,2192,2107,2078,2186,2107,1953,1959,1869,1843,1776,1761,1712,1720,1669,1581,1598,1467,1527,1410,1376,1415,1469,1393,1491,1550,1496,1519,1526,1516,1529,1550,1520,1535,1547,1512,1533,1539,1542,1543,1566,1562,1543,1533,1565,1519,1536,1556,1575,1547,1532,1265,1232,1238,1287,1421,1650,1890,2049,2129,2141,2180,2137,2046,2037,2024,1932,1949,1856,1818,1783,1770,1704,1666,1652,1590,1554,1557,1518,1438,1402,1362,1326,1287,1259,1246,1249,1296,1305,1302,1285,1289,1296,1313,1327,1314,1320,1322,1343,1352,1325,1343,1325,1326,1355,1352,1332,1350,1353,1344,1371,1360,1359,1380,1386,1382,1408,1412,1436,1520,1699,2101,2215,2391,2429,2533,2539,2559,2351,2437,2255,2219,2252,2218,2134,2152,1977,1965,1920,1905,1821,1777,1733,1697,1763,1601,1590,1496,1466,1544,1438,1440,1440,1471,1559,1535,1558,1570,1587,1625,1571,1589,1591,1605,1644,1602,1608,1649,1664,1656,1613,1596,1597,1618,1601,1610,1587,1621,1605,1613,1597,525,526,528,529,536,585,663,740,817,862,882,854,840,826,812,799,785,771,757,743,729,715,702,699,674,660,674,643,619,605,591,577,563,558,537,533,534,544,539,525,527,531,537,531,541,537,541,541,549,560,595,556,554,575,552,546,545,565,595,628,625,644,642,600,590,414,471,443,444,420,473,535,573,633,681,689,676,667,656,645,633,623,612,601,590,596,587,557,568,559,550,531,531,518,501,491,458,447,461,451,421,448,449,429,431,431,441,479,460,452,476,446,481,461,480,456,442,448,464,452,441,471,453,444,460,455,473,456,452,448,411,412,419,414,422,455,515,575,635,672,691,670,669,658,645,627,625,614,594,597,581,570,551,571,537,518,513,504,493,482,471,454,454,438,427,422,424,425,454,406,396,397,426,431,422,420,429,431,468,434,438,447,449,445,414,440,472,461,478,485,422,424,460,412,412,559,591,563,565,574,644,728,812,922,921,925,929,895,881,866,915,837,821,807,771,788,775,748,762,718,724,689,674,659,615,646,614,584,585,572,568,570,582,553,557,562,571,564,568,561,568,565,571,562,561,565,569,567,571,570,570,571,565,568,568,571,583,578,583,575,1128,1131,1197,1151,1256,1558,1768,1944,2031,2078,1993,1981,2011,1917,1952,1834,1797,1789,1693,1655,1650,1629,1574,1664,1468,1480,1449,1383,1353,1322,1269,1231,1211,1162,1165,1149,1167,1147,1193,1188,1211,1218,1225,1260,1218,1236,1233,1237,1265,1238,1257,1269,1273,1265,1231,1228,1234,1250,1234,1230,1241,1257,1235,1251,1250,0,0,0,0,0,0,0,0,0,0,0,0,0,0,0,0,0,0,0,0,0,0,0,0,0,0,0,0,0,0,0,0,0,0,0,0,0,0,0,0,0,0,0,0,0,0,0,0,0,0,0,0,0,0,0,0,0,0,0,0,0,0,0,0,0,106,106,106,106,106,107,115,123,131,139,146,144,142,141,139,138,136,135,133,131,130,128,127,125,124,122,120,119,117,116,114,113,111,109,108,106,107,107,90,90,90,89,90,89,90,92,90,106,90,90,90,92,90,89,92,92,90,92,89,90,90,90,90,90,90,549,542,552,566,564,621,680,758,850,896,901,886,858,869,844,816,819,788,787,773,747,733,730,716,692,688,685,659,635,637,617,593,588,574,561,570,545,582,559,555,556,562,557,573,591,577,560,571,582,573,569,564,565,586,580,571,569,567,565,569,567,568,569,601,568,584,586,588,589,599,657,743,829,912,956,960,945,930,988,899,884,869,854,838,823,808,793,778,762,747,732,717,701,722,671,656,641,625,610,597,593,594,596,582,588,594,606,601,608,590,607,587,628,602,619,602,602,625,647,618,609,619,611,614,615,618,628,598,606,599,699,739,704,706,729,838,928,1059,1151,1187,1147,1146,1100,1092,1073,1114,1037,1019,1001,961,966,979,928,939,891,904,855,837,818,771,798,763,729,727,714,710,712,725,723,692,723,741,715,698,731,706,701,754,822,716,725,725,731,716,714,737,707,715,717,712,707,715,717,747,707,525,526,528,529,536,585,663,740,817,862,882,854,840,826,812,799,785,771,757,743,729,715,702,699,674,660,674,643,619,605,591,577,563,558,537,533,534,544,539,525,527,531,537,531,541,537,541,541,549,560,595,556,554,575,552,546,545,565,595,628,625,644,642,600,590,571,564,566,567,576,631,715,799,894,924,1008,914,899,884,869,854,840,825,810,795,792,766,751,736,721,706,691,677,662,647,632,627,603,588,575,571,572,574,573,578,578,584,586,595,579,598,580,585,580,580,577,602,588,592,588,599,593,591,595,605,587,599,575,588,584,478,479,481,482,459,499,563,640,683,729,750,738,726,714,710,690,678,667,654,642,648,637,627,617,607,602,586,566,565,555,533,554,511,500,463,485,502,487,483,488,484,494,494,495,491,508,484,494,492,498,487,499,499,496,494,495,496,496,506,507,490,499,487,494,492,448,456,457,452,461,499,565,631,697,734,732,740,728,716,704,703,680,668,656,645,633,621,600,597,585,565,561,541,537,525,521,501,482,477,465,461,462,464,449,447,456,469,458,465,447,461,452,449,456,457,453,457,463,473,467,470,455,462,461,465,471,468,469,477,468,587,583,601,587,603,710,743,855,919,961,986,970,997,939,922,907,891,870,838,844,839,825,811,797,765,774,733,687,702,675,659,687,639,624,594,606,608,638,610,617,611,618,622,622,619,626,616,618,618,616,614,623,625,630,624,619,625,616,628,634,619,631,614,623,623,1094,1093,1116,1091,1263,1467,1641,1922,1911,2005,1952,1935,1842,1806,1858,1770,1733,1663,1661,1615,1611,1568,1515,1479,1442,1376,1370,1353,1304,1290,1197,1162,1165,1095,1123,1081,1136,1119,1126,1131,1142,1156,1144,1146,1139,1153,1139,1166,1150,1146,1162,1161,1182,1196,1176,1168,1166,1174,1170,1167,1176,1196,1172,1181,1167,95,95,95,95,96,97,110,123,135,148,158,155,153,151,148,146,143,141,138,136,133,131,128,126,123,121,118,116,113,111,108,106,103,101,98,96,96,97,79,79,79,80,80,80,80,80,80,81,79,81,81,86,83,80,79,81,80,80,79,82,80,79,78,81,79,0,0,0,0,0,0,0,0,0,0,0,0,0,0,0,0,0,0,0,0,0,0,0,0,0,0,0,0,0,0,0,0,0,0,0,0,0,0,0,0,0,0,0,0,0,0,0,0,0,0,0,0,0,0,0,0,0,0,0,0,0,0,0,0,0,578,588,598,592,602,659,745,817,925,943,961,932,931,927,905,865,852,855,840,813,810,794,789,767,749,734,722,703,673,673,666,643,628,615,590,608,597,598,617,607,608,603,608,602,638,625,595,593,613,615,607,600,601,602,599,608,603,607,602,600,591,603,607,609,590,621,623,625,713,641,704,796,889,975,1014,1021,1053,988,972,956,940,924,907,891,875,859,843,867,850,794,778,762,745,729,713,697,681,664,648,635,631,633,634,628,628,628,632,631,637,633,639,632,638,636,631,632,633,637,642,641,639,640,637,639,640,636,646,634,641,638,726,724,742,728,760,891,944,1080,1147,1219,1207,1188,1211,1149,1120,1111,1091,1066,1031,1025,1048,1008,990,965,938,943,899,850,888,830,811,841,784,765,767,785,750,780,751,749,748,764,754,768,763,778,768,781,770,759,772,753,763,769,769,764,772,761,764,761,768,778,772,784,782,571,564,566,567,576,631,715,799,894,924,1008,914,899,884,869,854,840,825,810,795,792,766,751,736,721,706,691,677,662,647,632,627,603,588,575,571,572,574,573,578,578,584,586,595,579,598,580,585,580,580,577,602,588,592,588,599,593,591,595,605,587,599,575,588,584,478,489,481,483,511,529,599,669,739,786,793,780,768,755,742,730,717,704,692,679,678,665,641,628,616,603,591,588,565,553,540,527,515,502,490,486,487,488,493,492,495,498,499,503,501,495,500,502,516,501,500,507,510,501,508,511,504,502,500,513,501,507,506,507,500,638,637,629,636,650,716,781,873,958,1001,1004,988,972,956,940,906,908,892,870,860,862,842,836,819,805,776,776,763,737,699,706,691,722,635,643,618,619,635,629,622,631,644,640,645,640,647,633,653,646,634,640,630,633,646,640,640,641,630,630,637,639,646,639,657,640,371,372,373,368,375,401,454,507,560,605,615,606,596,586,576,567,557,547,528,527,518,508,498,488,479,469,457,449,439,430,420,410,400,391,381,376,377,378,366,368,369,374,373,378,370,374,369,386,372,372,372,374,381,386,380,378,380,374,377,376,381,383,372,377,371,737,737,728,744,771,853,954,1112,1191,1230,1181,1210,1190,1160,1133,1113,1095,1060,1066,1052,1051,1028,964,959,937,926,901,877,861,840,824,804,793,780,750,763,751,753,747,763,743,761,763,769,760,767,764,755,753,763,756,755,755,753,760,763,760,756,754,759,759,776,769,777,759,1152,1154,1177,1210,1374,1553,1831,1939,2023,2077,2056,1980,1980,1942,1923,1865,1831,1758,1751,1715,1697,1654,1598,1530,1492,1484,1446,1408,1377,1365,1267,1229,1210,1201,1178,1172,1179,1186,1248,1213,1213,1228,1211,1243,1225,1226,1252,1305,1231,1248,1305,1248,1258,1317,1266,1246,1243,1244,1297,1357,1378,1405,1395,1284,1275,533,534,536,538,544,618,707,773,829,907,880,867,853,868,825,811,797,783,769,755,766,725,712,698,684,686,656,671,643,635,614,600,598,577,570,566,555,557,552,548,550,548,553,552,557,559,557,556,557,560,562,563,560,564,563,561,568,564,562,560,568,575,577,577,575,531,502,504,505,510,584,698,773,805,877,859,847,834,860,809,796,765,735,740,745,766,683,669,656,643,661,617,633,619,626,592,578,564,550,538,564,535,536,529,536,533,550,537,546,534,544,539,538,539,538,537,544,544,547,546,550,548,547,553,550,549,576,561,570,562,0,0,0,0,0,0,0,0,0,0,0,0,0,0,0,0,0,0,0,0,0,0,0,0,0,0,0,0,0,0,0,0,0,0,0,0,0,0,0,0,0,0,0,0,0,0,0,0,0,0,0,0,0,0,0,0,0,0,0,0,0,0,0,0,0,391,392,393,395,433,424,479,534,590,637,646,636,594,616,605,595,585,575,565,527,544,534,524,514,503,493,483,473,463,452,442,432,401,412,401,397,398,399,391,403,389,400,397,399,394,400,393,389,395,395,393,392,395,396,396,400,395,397,397,402,392,409,395,401,395,879,886,869,890,929,1033,1156,1364,1417,1452,1400,1425,1401,1381,1354,1315,1356,1255,1257,1240,1235,1230,1142,1144,1108,1086,1104,1049,1035,1010,983,997,930,914,891,905,895,904,886,888,899,916,907,904,898,911,899,928,909,906,923,930,945,953,940,924,924,931,929,923,934,950,928,937,925,478,489,481,483,511,529,599,669,739,786,793,780,768,755,742,730,717,704,692,679,678,665,641,628,616,603,591,588,565,553,540,527,515,502,490,486,487,488,493,492,495,498,499,503,501,495,500,502,516,501,500,507,510,501,508,511,504,502,500,513,501,507,506,507,500,291,292,293,293,294,310,351,392,433,473,485,477,470,462,454,446,439,431,423,416,408,400,392,385,377,369,362,354,346,338,331,323,315,307,300,295,296,297,280,289,288,293,294,295,288,294,284,304,287,287,292,293,305,317,303,295,295,286,300,297,296,299,287,295,287,565,578,589,626,592,648,734,803,903,964,1015,982,922,906,957,859,854,839,875,863,800,770,755,754,739,724,709,745,678,663,692,633,613,602,589,585,628,588,600,605,603,617,617,618,617,614,611,610,626,613,622,626,624,619,618,637,624,621,607,623,618,625,608,629,613,452,467,469,470,473,493,576,644,729,753,748,736,741,729,717,689,677,669,668,641,637,625,620,580,582,583,571,559,559,510,501,498,492,486,463,470,482,472,464,468,467,483,510,485,481,513,485,506,508,515,547,527,530,514,488,472,504,481,476,484,486,502,490,487,487,509,511,522,514,520,570,655,740,808,837,860,852,822,809,790,804,768,769,736,727,714,700,687,669,668,642,628,615,601,588,574,561,551,548,531,517,519,520,517,519,524,550,538,542,544,518,531,541,540,529,552,524,525,525,534,539,529,523,524,531,530,526,525,553,518,1594,1608,1704,1781,2041,2394,2613,2612,2773,2733,2717,2662,2675,2583,2538,2670,2437,2393,2371,2284,2245,2220,2175,2078,2012,1984,1942,1873,1810,1749,1738,1690,1667,1590,1659,1607,1619,1646,1759,1773,1784,1793,1830,1810,1786,1839,1781,1780,1822,1792,1808,1810,1838,1851,2008,1957,1836,1820,1823,1817,1825,1816,1830,1892,1812,720,692,694,696,718,793,899,1092,1092,1145,1134,1167,1098,1091,1061,1019,1037,1030,985,989,1001,935,917,878,880,885,844,867,843,831,799,736,767,717,722,719,702,754,707,700,717,808,728,708,724,754,731,723,729,726,724,723,730,723,731,723,728,725,732,737,728,737,726,732,737,741,769,771,748,800,875,963,1123,1139,1290,1192,1199,1181,1104,1154,1105,1084,1070,1041,1049,996,1016,959,963,922,923,925,867,865,828,817,815,788,795,743,752,779,768,758,769,762,783,778,775,775,797,770,789,774,767,783,781,783,784,792,785,795,784,790,776,778,789,787,793,793,631,633,628,637,662,713,803,902,987,1040,1044,1017,1001,1003,968,952,936,919,893,877,871,854,838,819,800,789,772,756,738,723,726,718,673,658,658,641,642,644,641,644,648,652,657,654,652,647,652,653,680,659,657,669,684,669,716,689,664,659,654,660,653,662,668,656,649,0,0,0,0,0,0,0,0,0,0,0,0,0,0,0,0,0,0,0,0,0,0,0,0,0,0,0,0,0,0,0,0,0,0,0,0,0,0,0,0,0,0,0,0,0,0,0,0,0,0,0,0,0,0,0,0,0,0,0,0,0,0,0,0,0,605,607,609,611,623,688,774,889,948,992,996,986,970,944,933,990,906,942,869,858,842,827,811,782,767,751,743,769,711,695,679,664,651,635,618,615,616,618,617,630,637,648,632,660,647,641,632,639,743,723,659,667,740,729,713,619,632,654,677,645,629,636,649,624,601,291,292,293,293,294,310,351,392,433,473,485,477,470,462,454,446,439,431,423,416,408,400,392,385,377,369,362,354,346,338,331,323,315,307,300,295,296,297,280,289,288,293,294,295,288,294,284,304,287,287,292,293,305,317,303,295,295,286,300,297,296,299,287,295,287,451,452,454,455,458,491,560,626,692,741,748,736,719,707,696,689,677,665,653,636,629,613,605,589,577,627,557,579,530,522,510,494,486,470,459,458,456,460,450,452,449,450,452,455,479,458,453,456,456,460,455,456,455,458,456,458,460,456,455,455,455,456,457,462,455,312,307,315,312,313,326,369,414,456,499,521,503,492,484,478,468,472,463,455,438,427,430,413,405,397,389,381,380,356,364,355,347,327,322,322,317,307,307,307,301,300,302,301,299,302,307,301,354,301,299,302,303,308,300,308,305,304,307,301,303,303,304,302,305,305,553,532,532,536,542,593,692,750,820,871,882,890,873,859,817,830,797,784,766,775,737,720,712,692,685,689,657,645,637,615,623,586,570,556,546,539,554,542,530,531,534,548,533,547,533,541,557,538,540,534,536,540,534,538,539,541,539,544,538,542,546,555,548,560,550,115,116,116,117,117,119,135,151,166,182,194,191,188,184,181,178,175,172,169,166,163,160,157,154,151,148,144,141,138,135,132,129,126,123,120,117,118,118,102,102,102,103,103,104,103,103,104,104,103,103,104,104,104,104,105,105,104,104,104,105,105,111,111,112,110,1125,1127,1129,1156,1268,1471,1708,1880,1971,1993,1975,2009,1933,1867,1861,1796,1760,1776,1688,1665,1616,1580,1544,1508,1473,1437,1401,1376,1329,1293,1267,1221,1186,1156,1143,1145,1153,1160,1191,1228,1233,1216,1242,1223,1237,1264,1227,1229,1254,1214,1236,1230,1248,1254,1413,1365,1281,1236,1241,1234,1221,1219,1231,1287,1206,685,715,690,690,707,786,890,993,1075,1147,1124,1106,1083,1071,1116,1035,1018,993,1040,958,946,975,943,908,868,892,838,819,797,779,761,747,730,723,708,694,696,694,699,699,695,710,708,701,708,720,710,712,723,722,800,799,806,749,722,714,716,718,705,713,718,709,713,709,707,762,775,778,782,789,923,1022,1135,1173,1312,1245,1201,1177,1220,1166,1135,1117,1083,1090,1046,1069,1062,1003,993,1012,1031,974,932,878,859,893,839,803,856,790,785,801,772,784,791,801,825,809,810,801,824,798,829,814,825,856,848,875,871,816,813,828,824,821,814,829,843,810,816,808,922,945,922,967,1025,1113,1281,1371,1444,1511,1485,1512,1504,1438,1402,1434,1362,1373,1347,1343,1294,1244,1207,1188,1153,1165,1105,1131,1071,1035,1054,983,1031,981,948,965,952,954,958,976,968,983,1090,1045,1012,1050,997,1113,1028,1054,1037,997,1017,1053,1024,1005,1069,1022,1008,1046,1029,1090,1039,1055,1012,695,695,723,692,724,787,928,994,1096,1141,1128,1190,1127,1108,1068,1141,1021,1003,998,1000,961,960,963,904,876,949,839,823,814,788,791,759,741,757,703,697,711,710,703,695,700,699,708,718,717,721,714,730,725,708,715,705,707,718,715,713,717,705,706,710,714,721,717,741,722,0,0,0,0,0,0,0,0,0,0,0,0,0,0,0,0,0,0,0,0,0,0,0,0,0,0,0,0,0,0,0,0,0,0,0,0,0,0,0,0,0,0,0,0,0,0,0,0,0,0,0,0,0,0,0,0,0,0,0,0,0,0,0,0,0,451,452,454,455,458,491,560,626,692,741,748,736,719,707,696,689,677,665,653,636,629,613,605,589,577,627,557,579,530,522,510,494,486,470,459,458,456,460,450,452,449,450,452,455,479,458,453,456,456,460,455,456,455,458,456,458,460,456,455,455,455,456,457,462,455,0,0,0,0,0,0,0,0,0,0,0,0,0,0,0,0,0,0,0,0,0,0,0,0,0,0,0,0,0,0,0,0,0,0,0,0,0,0,0,0,0,0,0,0,0,0,0,0,0,0,0,0,0,0,0,0,0,0,0,0,0,0,0,0,0,304,305,306,307,308,325,368,411,455,496,508,500,492,483,475,467,459,451,443,492,427,419,411,402,394,386,378,370,362,354,346,338,330,321,313,309,310,310,297,311,314,319,297,300,299,309,308,301,406,387,312,337,404,393,380,294,308,328,342,311,302,315,325,299,291,212,213,213,214,215,223,252,281,310,339,353,348,342,336,331,325,320,314,308,303,297,292,286,281,275,269,264,258,253,247,242,236,230,225,219,215,216,216,211,203,203,202,204,205,203,205,202,215,205,202,205,205,204,204,208,207,204,204,204,208,204,207,205,208,207,312,313,314,315,316,334,379,423,467,526,546,513,528,520,511,502,471,463,454,446,438,430,421,413,405,396,407,398,371,363,355,346,338,330,321,317,318,319,307,312,311,320,319,322,314,325,309,323,315,320,311,317,323,330,320,319,319,317,323,322,316,323,309,316,311,1524,1505,1499,1622,1836,2105,2430,2493,2543,2672,2543,2533,2431,2350,2429,2298,2248,2229,2160,2178,2069,1985,2002,1958,1887,1830,1801,1746,1709,1661,1625,1565,1506,1509,1494,1512,1539,1509,1624,1631,1602,1619,1616,1663,1629,1649,1657,1725,1640,1685,1673,1683,1654,1723,1692,1644,1643,1640,1670,1697,1694,1720,1696,1702,1669,480,481,483,485,489,530,599,671,742,788,793,782,769,757,744,731,717,706,693,681,669,655,643,631,618,605,591,580,567,554,540,580,516,504,491,487,488,490,486,496,491,498,500,501,500,510,491,502,493,493,495,504,506,501,503,503,498,503,510,498,496,492,494,506,494,556,570,560,589,596,614,688,845,887,925,889,878,937,851,837,824,809,797,783,802,757,743,730,717,703,689,674,662,649,635,620,607,608,599,569,564,578,567,564,563,567,577,562,568,568,570,570,565,567,561,565,565,565,567,567,568,569,570,570,573,567,579,565,571,570,578,563,568,569,594,629,734,813,861,909,913,899,903,871,857,859,829,815,796,786,787,782,740,730,735,747,730,673,659,636,646,617,604,589,576,590,574,602,583,584,582,584,590,584,587,586,580,584,583,586,584,588,591,592,588,588,590,586,592,601,591,596,585,590,590,319,320,321,322,323,341,386,430,471,517,524,520,511,503,495,486,478,470,461,453,445,436,428,420,411,401,406,384,378,370,362,353,345,337,328,324,325,326,311,312,311,315,320,315,323,316,315,317,314,317,317,323,317,317,341,342,325,332,322,312,330,316,327,318,314,408,409,410,412,413,437,502,561,609,666,700,665,678,667,656,645,611,591,590,579,568,558,539,536,525,515,523,511,483,513,454,451,440,423,412,408,415,410,397,402,414,427,410,416,404,419,402,414,408,403,406,412,412,412,411,410,410,408,417,416,406,409,402,407,404,0,0,0,0,0,0,0,0,0,0,0,0,0,0,0,0,0,0,0,0,0,0,0,0,0,0,0,0,0,0,0,0,0,0,0,0,0,0,0,0,0,0,0,0,0,0,0,0,0,0,0,0,0,0,0,0,0,0,0,0,0,0,0,0,0 ]);
