n = 10;
D = [176,64,237,76,188,180,180,110,148,66 ];
q = 0;
prec = array2d(1..0,1..2,[]);
steps = 64;
l = 360;
r = 0;
which = [];
interval = array2d(1..0,1..2,[]);
T = array3d(1..11,1..11,0..64,[0,0,0,0,0,0,0,0,0,0,0,0,0,0,0,0,0,0,0,0,0,0,0,0,0,0,0,0,0,0,0,0,0,0,0,0,0,0,0,0,0,0,0,0,0,0,0,0,0,0,0,0,0,0,0,0,0,0,0,0,0,0,0,0,0,946,956,947,955,985,1143,1289,1440,1493,1558,1555,1507,1486,1466,1477,1406,1391,1380,1377,1278,1397,1274,1248,1227,1219,1125,1181,1139,1104,1079,1043,990,1025,992,1024,930,956,935,992,989,990,1040,1030,1003,1009,1027,1009,1037,1070,1026,1030,1034,1034,1031,1026,1021,1009,1012,1005,1003,998,1015,1012,1021,985,652,654,667,658,674,701,794,886,972,1015,1019,1003,987,1019,1018,938,922,906,938,892,914,859,825,809,793,777,777,796,765,712,696,714,664,648,634,662,632,633,623,610,615,623,640,608,613,615,617,638,641,637,631,758,637,622,755,640,632,640,642,639,639,633,652,649,655,1529,1542,1664,1750,1986,2170,2490,2455,2554,2552,2529,2498,2423,2401,2362,2382,2296,2217,2191,2138,2132,2052,2065,1999,2029,1953,1883,1827,1742,1749,1664,1607,1572,1593,1585,1627,1619,1557,1702,1719,1725,1756,1776,1744,1751,1763,1736,1758,1732,1720,1746,1746,1750,1756,1779,1761,1748,1735,1747,1733,1735,1753,1761,1772,1750,1052,1037,1040,1047,1130,1236,1394,1618,1641,1642,1700,1616,1735,1565,1540,1674,1485,1463,1438,1412,1387,1362,1348,1311,1285,1257,1232,1209,1181,1158,1140,1134,1082,1059,1099,1043,1043,1151,1092,1081,1073,1078,1095,1136,1115,1123,1111,1131,1136,1149,1153,1145,1126,1161,1165,1116,1131,1137,1152,1193,1156,1169,1173,1231,1164,720,712,715,707,741,817,926,1035,1123,1165,1152,1149,1130,1112,1108,1075,1055,1051,1019,1000,981,963,944,913,894,876,869,851,843,824,795,776,757,729,725,711,723,725,721,724,733,776,732,721,740,753,741,733,781,759,728,747,778,787,787,746,740,753,775,741,735,759,736,735,726,1112,1063,1106,1182,1225,1317,1537,1679,1673,1761,1728,1701,1647,1768,1616,1602,1561,1619,1561,1480,1453,1539,1395,1369,1439,1358,1321,1335,1250,1232,1218,1194,1120,1171,1084,1132,1126,1091,1151,1149,1154,1202,1183,1169,1170,1184,1170,1203,1203,1189,1189,1218,1228,1221,1212,1188,1169,1183,1170,1165,1153,1182,1169,1190,1146,857,847,872,855,902,1039,1189,1274,1358,1387,1370,1405,1355,1330,1340,1314,1252,1296,1220,1198,1164,1142,1118,1085,1074,1041,1031,1009,998,996,943,920,938,867,867,875,862,861,869,858,860,862,878,853,864,870,862,873,879,877,878,923,881,879,930,885,882,884,882,878,883,885,893,892,897,1160,1163,1166,1189,1266,1341,1506,1646,1727,1781,1751,1725,1699,1735,1707,1620,1613,1587,1607,1532,1543,1489,1453,1437,1382,1356,1345,1367,1323,1250,1224,1241,1186,1190,1136,1182,1116,1118,1168,1172,1165,1185,1189,1213,1189,1199,1191,1205,1220,1210,1202,1203,1215,1233,1220,1215,1210,1223,1218,1226,1228,1231,1210,1243,1235,1098,1099,1101,1129,1215,1359,1547,1768,1750,1773,1832,1745,1860,1685,1659,1760,1599,1574,1549,1517,1487,1462,1430,1411,1376,1344,1316,1293,1260,1234,1205,1174,1149,1125,1167,1111,1112,1225,1183,1187,1176,1264,1254,1231,1208,1205,1214,1253,1219,1236,1237,1221,1190,1207,1211,1226,1234,1199,1223,1258,1222,1222,1237,1212,1205,0,0,0,0,0,0,0,0,0,0,0,0,0,0,0,0,0,0,0,0,0,0,0,0,0,0,0,0,0,0,0,0,0,0,0,0,0,0,0,0,0,0,0,0,0,0,0,0,0,0,0,0,0,0,0,0,0,0,0,0,0,0,0,0,0,795,797,800,802,837,925,1046,1167,1254,1295,1420,1274,1253,1233,1213,1192,1172,1151,1131,1110,1090,1069,1049,1028,1008,987,967,947,971,906,885,865,844,824,810,807,809,811,813,814,816,835,843,825,838,848,836,831,844,852,945,945,966,898,829,824,835,832,828,832,830,835,829,852,833,0,0,0,0,0,0,0,0,0,0,0,0,0,0,0,0,0,0,0,0,0,0,0,0,0,0,0,0,0,0,0,0,0,0,0,0,0,0,0,0,0,0,0,0,0,0,0,0,0,0,0,0,0,0,0,0,0,0,0,0,0,0,0,0,0,578,574,581,583,592,646,731,816,898,945,951,936,920,905,890,875,860,845,822,815,800,921,770,755,740,725,703,695,680,664,649,634,613,598,591,587,588,590,591,587,584,588,587,598,588,596,591,588,593,585,588,591,591,595,600,595,590,593,596,601,590,602,592,602,595,794,803,834,808,853,979,1243,1366,1403,1426,1431,1394,1451,1414,1412,1301,1275,1249,1223,1197,1171,1145,1110,1152,1067,1032,1015,989,1016,937,911,885,859,922,816,815,820,824,845,824,830,827,846,856,840,839,844,863,885,877,886,891,886,879,875,866,871,891,901,906,882,886,904,914,896,436,429,430,432,440,473,526,587,647,695,703,702,681,670,659,657,637,631,615,604,593,582,571,560,549,538,527,523,512,501,490,479,460,457,439,440,435,436,430,435,435,442,447,447,454,448,439,444,447,453,454,467,458,461,445,442,450,444,447,447,447,446,438,441,440,340,341,342,343,332,366,414,463,511,556,566,557,548,539,530,521,512,503,494,485,476,565,442,433,424,415,422,413,404,381,386,363,368,358,349,332,333,334,325,328,330,335,346,342,343,342,334,343,340,346,338,346,340,354,339,333,345,338,340,342,343,345,335,335,335,755,748,755,754,802,902,1001,1098,1192,1231,1231,1204,1185,1172,1149,1229,1110,1107,1073,1049,1073,1014,989,1003,965,936,916,892,872,852,915,818,806,779,765,770,775,773,782,782,782,785,786,781,786,793,782,786,784,784,783,798,794,797,792,793,794,787,794,806,792,805,783,791,791,416,402,403,405,422,454,515,575,636,684,692,681,670,633,648,663,626,615,604,570,582,571,559,548,537,526,515,504,493,482,471,460,449,422,411,422,424,425,418,414,415,416,417,412,418,415,417,416,415,416,422,422,422,424,430,422,419,420,420,426,423,425,420,422,423,530,532,533,534,536,569,632,694,756,805,814,754,744,780,769,757,746,735,723,712,701,648,678,666,655,644,632,585,610,564,587,575,564,553,542,537,538,539,517,516,518,518,525,524,524,527,530,532,532,538,539,536,534,536,544,541,542,542,546,552,548,548,556,561,562,476,478,477,481,484,526,596,666,736,785,792,779,766,753,770,728,715,699,690,677,665,652,639,627,611,601,589,576,560,551,538,525,513,500,488,484,485,484,481,484,483,499,493,485,488,504,491,493,502,513,608,607,624,542,490,484,496,492,487,490,491,491,488,491,491,795,797,800,802,837,925,1046,1167,1254,1295,1420,1274,1253,1233,1213,1192,1172,1151,1131,1110,1090,1069,1049,1028,1008,987,967,947,971,906,885,865,844,824,810,807,809,811,813,814,816,835,843,825,838,848,836,831,844,852,945,945,966,898,829,824,835,832,828,832,830,835,829,852,833,495,496,498,499,503,545,616,686,757,792,811,798,786,773,760,748,735,722,709,697,684,671,658,646,633,620,607,595,582,569,557,544,531,518,506,502,503,505,498,493,501,513,510,509,503,499,511,518,515,510,536,531,547,532,526,517,501,508,504,507,501,509,503,519,498,608,610,612,614,626,686,777,828,1020,977,1004,988,972,956,902,904,908,892,931,860,897,828,846,796,780,764,747,778,687,699,656,653,651,635,621,617,606,621,622,625,619,632,633,633,628,646,621,631,628,629,625,637,636,634,631,634,634,632,645,645,625,638,626,633,630,0,0,0,0,0,0,0,0,0,0,0,0,0,0,0,0,0,0,0,0,0,0,0,0,0,0,0,0,0,0,0,0,0,0,0,0,0,0,0,0,0,0,0,0,0,0,0,0,0,0,0,0,0,0,0,0,0,0,0,0,0,0,0,0,0,1307,1281,1315,1372,1519,1751,2020,2152,2165,2184,2178,2102,2089,2050,2080,1984,1974,1922,1963,1919,1787,1756,1713,1680,1646,1630,1617,1553,1490,1520,1411,1351,1337,1318,1356,1313,1338,1320,1402,1368,1367,1384,1368,1402,1381,1383,1409,1465,1388,1404,1460,1405,1417,1474,1424,1405,1401,1402,1455,1513,1536,1563,1550,1442,1430,788,790,792,885,817,935,1011,1124,1264,1252,1252,1233,1264,1194,1175,1156,1137,1117,1098,1079,1060,1041,1021,1002,983,964,957,925,906,911,896,856,857,816,797,799,801,803,815,787,794,795,792,804,804,813,807,804,812,802,806,806,804,812,808,806,810,809,804,798,808,813,813,821,817,492,494,496,497,491,546,618,675,763,810,816,803,790,777,764,736,738,711,698,685,672,659,660,647,634,608,633,583,582,569,556,543,530,517,494,500,501,503,492,495,496,501,508,516,514,513,506,509,510,510,504,519,508,526,510,501,511,504,506,514,510,508,501,502,502,931,852,854,910,919,1022,1158,1270,1354,1440,1387,1365,1390,1320,1298,1290,1254,1276,1210,1187,1207,1143,1121,1138,1077,1068,1032,1010,988,966,944,922,899,878,900,862,864,878,859,869,878,899,886,889,882,896,871,885,876,871,875,889,885,892,914,912,881,883,890,879,871,874,885,889,874,644,646,633,635,639,729,823,890,1050,1079,1081,1031,1015,998,982,966,949,907,891,900,858,890,851,834,839,777,804,769,752,736,735,703,700,671,632,639,655,698,672,660,662,664,669,663,670,664,672,668,667,666,680,675,676,670,670,677,670,679,667,676,679,679,670,667,667,690,692,694,710,707,774,871,939,1046,1069,1075,1059,1043,1028,1025,997,981,978,962,935,919,897,888,873,857,842,826,827,795,779,764,748,733,717,704,699,701,703,691,691,691,691,691,692,693,697,694,697,699,703,705,707,707,709,712,714,708,712,712,712,715,721,716,723,721,848,851,853,960,904,1003,1140,1277,1350,1402,1408,1362,1339,1339,1298,1277,1254,1232,1209,1187,1165,1143,1121,1098,1076,1054,1032,1010,987,963,939,921,896,877,864,861,864,865,867,871,869,883,884,878,888,896,868,885,881,874,884,893,892,884,912,893,876,874,885,879,867,881,882,890,876,495,496,498,499,503,545,616,686,757,792,811,798,786,773,760,748,735,722,709,697,684,671,658,646,633,620,607,595,582,569,557,544,531,518,506,502,503,505,498,493,501,513,510,509,503,499,511,518,515,510,536,531,547,532,526,517,501,508,504,507,501,509,503,519,498,1421,1437,1419,1593,1623,1954,2095,2305,2332,2414,2336,2355,2368,2216,2176,2292,2096,2056,2061,1976,1936,1941,1855,1859,1887,1735,1782,1695,1658,1575,1535,1532,1564,1473,1476,1416,1448,1466,1536,1566,1539,1571,1573,1563,1556,1582,1555,1575,1560,1583,1565,1589,1578,1591,1598,1601,1596,1585,1601,1591,1598,1624,1611,1617,1632,794,815,813,816,838,1030,1140,1297,1410,1444,1438,1390,1365,1334,1321,1418,1282,1263,1203,1204,1160,1152,1126,1100,1050,1048,1006,980,970,944,903,898,852,827,809,807,808,816,868,820,821,833,809,817,825,823,843,858,827,840,902,843,861,907,860,836,836,838,898,946,966,991,988,874,871,1307,1284,1293,1346,1461,1792,1911,2057,2156,2199,2157,2152,2164,2076,2016,2137,1941,1904,1933,1819,1845,1754,1716,1679,1776,1597,1654,1614,1519,1454,1417,1379,1447,1333,1401,1331,1337,1349,1410,1404,1418,1440,1461,1467,1434,1455,1412,1430,1438,1433,1437,1449,1460,1484,1494,1487,1424,1441,1450,1465,1466,1465,1480,1503,1458,0,0,0,0,0,0,0,0,0,0,0,0,0,0,0,0,0,0,0,0,0,0,0,0,0,0,0,0,0,0,0,0,0,0,0,0,0,0,0,0,0,0,0,0,0,0,0,0,0,0,0,0,0,0,0,0,0,0,0,0,0,0,0,0,0,688,689,691,689,707,812,931,1066,1201,1249,1220,1199,1178,1156,1127,1120,1092,1071,1053,1028,1007,986,975,962,971,897,931,845,830,801,780,763,736,719,725,738,702,706,699,698,699,726,705,702,701,706,707,725,716,712,721,705,717,720,723,721,715,728,720,725,723,720,720,726,717,939,954,957,956,1031,1165,1373,1537,1657,1656,1665,1617,1595,1558,1565,1609,1470,1441,1411,1382,1372,1330,1294,1295,1247,1235,1190,1147,1118,1088,1072,1042,1000,986,968,954,959,963,977,975,981,986,989,978,991,994,1001,990,984,990,1013,983,991,988,1019,985,985,993,999,996,1001,992,984,991,983,1046,1079,1053,1074,1131,1302,1433,1619,1672,1710,1702,1713,1648,1620,1593,1602,1580,1512,1553,1457,1430,1403,1376,1349,1351,1328,1267,1240,1213,1185,1158,1157,1104,1106,1065,1062,1098,1068,1119,1119,1073,1069,1112,1097,1101,1108,1105,1126,1162,1111,1120,1133,1134,1135,1111,1141,1144,1150,1183,1146,1128,1130,1183,1116,1120,944,914,916,925,980,1123,1305,1468,1570,1610,1601,1572,1543,1515,1486,1510,1429,1447,1372,1343,1315,1286,1258,1229,1200,1172,1143,1115,1086,1058,1029,1000,972,945,927,926,931,936,937,944,947,977,955,966,954,952,948,947,959,946,957,965,963,961,962,971,952,950,960,959,946,960,951,963,948,1133,1124,1126,1144,1227,1414,1662,1820,1939,2061,2063,1903,1869,1835,1870,1767,1732,1698,1664,1630,1611,1562,1528,1493,1564,1425,1391,1357,1323,1288,1267,1220,1186,1156,1138,1138,1194,1151,1198,1202,1200,1203,1227,1271,1215,1246,1243,1254,1266,1252,1238,1246,1236,1262,1223,1227,1242,1235,1222,1254,1241,1260,1236,1248,1248,643,643,646,648,665,760,889,1018,1230,1198,1172,1158,1129,1107,1085,1064,1039,1018,1005,975,955,932,940,918,869,853,825,804,782,760,737,717,695,674,654,721,657,661,666,674,684,708,692,689,683,706,676,707,695,705,747,733,763,751,695,692,707,701,703,689,706,715,689,695,687,1421,1437,1419,1593,1623,1954,2095,2305,2332,2414,2336,2355,2368,2216,2176,2292,2096,2056,2061,1976,1936,1941,1855,1859,1887,1735,1782,1695,1658,1575,1535,1532,1564,1473,1476,1416,1448,1466,1536,1566,1539,1571,1573,1563,1556,1582,1555,1575,1560,1583,1565,1589,1578,1591,1598,1601,1596,1585,1601,1591,1598,1624,1611,1617,1632,1058,1061,1101,1178,1207,1348,1504,1619,1682,1767,1696,1791,1644,1735,1591,1565,1539,1563,1486,1460,1501,1408,1382,1363,1338,1340,1287,1267,1242,1211,1191,1134,1135,1127,1074,1073,1178,1078,1106,1150,1106,1122,1128,1118,1123,1136,1130,1134,1147,1123,1138,1129,1137,1137,1143,1149,1151,1147,1174,1120,1147,1156,1170,1146,1144,473,457,475,477,480,520,620,671,724,766,770,736,747,734,724,712,701,689,678,666,655,624,632,628,606,607,596,591,586,554,559,515,518,493,482,479,480,482,476,479,480,493,487,492,484,488,484,481,488,485,495,514,508,500,492,495,496,510,510,494,495,508,488,495,492,943,971,949,977,1016,1132,1319,1434,1501,1530,1512,1497,1474,1449,1427,1425,1379,1356,1333,1337,1354,1262,1258,1232,1219,1178,1201,1138,1115,1104,1086,1015,1019,996,974,956,1077,961,1017,1017,1009,1096,1069,1063,1047,1038,1058,1095,1052,1093,1093,1080,1022,1035,1063,1072,1074,1039,1077,1137,1088,1078,1095,1063,1066,665,666,668,758,787,800,929,1053,1155,1189,1183,1162,1140,1119,1098,1077,1055,1037,1022,1001,981,960,960,918,897,876,855,834,814,793,772,751,821,696,753,668,722,683,691,690,691,718,697,694,693,698,699,717,708,703,713,697,709,712,715,713,707,720,712,717,715,712,712,718,709,0,0,0,0,0,0,0,0,0,0,0,0,0,0,0,0,0,0,0,0,0,0,0,0,0,0,0,0,0,0,0,0,0,0,0,0,0,0,0,0,0,0,0,0,0,0,0,0,0,0,0,0,0,0,0,0,0,0,0,0,0,0,0,0,0,515,516,518,526,525,573,645,717,815,848,856,893,822,794,809,787,776,765,727,742,734,728,707,696,655,642,629,624,603,597,577,564,558,538,526,501,524,504,509,514,514,539,517,529,513,522,515,507,524,519,548,560,555,529,516,527,527,530,533,521,522,536,510,522,517,675,677,675,674,697,769,873,976,1101,1077,1084,1057,1068,1044,1030,1011,1006,1016,978,962,936,931,943,900,847,864,821,801,786,788,748,726,734,717,684,701,678,685,674,679,685,698,708,709,687,716,685,731,703,715,703,698,715,733,713,702,720,706,708,717,712,724,699,706,699,357,358,359,360,361,385,433,480,554,587,588,580,573,566,558,551,544,536,529,521,508,507,499,492,455,446,437,428,419,410,402,393,384,375,366,362,363,364,350,355,353,364,426,399,376,411,374,434,399,432,400,368,377,396,380,368,417,392,369,401,388,425,401,385,380,837,875,829,831,912,1012,1185,1299,1399,1341,1336,1315,1313,1273,1254,1233,1213,1209,1172,1151,1131,1110,1151,1077,1057,1038,1018,1004,984,959,945,893,900,852,837,835,838,902,851,848,864,863,877,915,870,884,885,885,913,886,883,892,886,897,876,878,879,889,874,878,885,894,878,891,893,124,125,125,125,126,127,140,152,178,181,187,187,182,182,179,174,172,181,179,177,175,172,170,154,151,149,146,144,157,139,136,151,131,146,126,124,125,125,113,115,113,116,115,121,117,126,123,116,125,118,119,117,117,120,116,116,118,120,116,116,116,118,117,119,115,1058,1061,1101,1178,1207,1348,1504,1619,1682,1767,1696,1791,1644,1735,1591,1565,1539,1563,1486,1460,1501,1408,1382,1363,1338,1340,1287,1267,1242,1211,1191,1134,1135,1127,1074,1073,1178,1078,1106,1150,1106,1122,1128,1118,1123,1136,1130,1134,1147,1123,1138,1129,1137,1137,1143,1149,1151,1147,1174,1120,1147,1156,1170,1146,1144,806,733,790,740,764,840,949,1062,1144,1186,1153,1188,1150,1133,1114,1080,1062,1074,1040,1006,1018,969,936,932,914,895,877,858,840,821,803,771,766,760,733,742,731,747,745,728,732,739,774,768,758,782,758,784,770,768,758,741,746,766,755,743,770,749,744,758,753,776,756,761,753,353,354,355,356,357,363,411,471,513,550,585,575,566,557,532,559,529,520,511,492,492,483,492,464,447,438,437,420,410,409,400,406,381,386,356,358,359,360,353,357,351,362,361,365,357,374,353,362,360,354,356,364,363,360,361,364,361,362,372,364,356,361,356,363,357,752,701,709,743,733,761,862,962,1106,1094,1144,1159,1108,1160,1080,1090,1044,1036,1042,981,980,985,943,916,897,879,890,851,824,806,821,763,767,671,750,715,717,719,717,729,729,725,746,718,737,751,736,728,752,723,741,733,746,748,911,861,771,745,735,732,730,728,745,771,722,971,1014,983,945,1052,1168,1351,1599,1619,1648,1628,1607,1581,1548,1569,1493,1504,1430,1401,1448,1380,1395,1369,1307,1225,1249,1169,1136,1107,1077,1073,1011,989,1009,957,1005,975,957,985,976,971,976,978,1014,998,998,999,1005,1016,1013,1009,1007,1003,1029,1032,1007,1019,1020,1014,1044,1022,1021,1031,1062,1035,448,431,432,433,435,477,535,572,627,673,712,672,662,652,646,636,622,612,623,637,581,571,561,551,541,531,524,511,501,491,493,479,468,457,446,442,443,444,432,432,438,444,440,458,446,463,461,446,467,445,444,445,444,458,445,444,448,449,444,441,444,449,440,456,442,0,0,0,0,0,0,0,0,0,0,0,0,0,0,0,0,0,0,0,0,0,0,0,0,0,0,0,0,0,0,0,0,0,0,0,0,0,0,0,0,0,0,0,0,0,0,0,0,0,0,0,0,0,0,0,0,0,0,0,0,0,0,0,0,0,434,436,480,434,436,471,540,596,663,713,721,710,695,684,669,661,649,641,623,618,604,591,583,572,560,544,533,526,512,503,515,480,464,452,445,438,439,439,432,427,431,432,426,441,435,438,438,440,453,434,433,439,434,445,438,440,439,438,438,438,441,440,439,462,444,169,170,170,171,171,176,200,253,247,270,284,279,275,270,266,261,257,252,248,243,239,234,230,225,221,216,211,207,202,198,193,189,184,180,175,172,172,173,162,158,161,162,167,171,159,167,162,159,165,169,164,165,171,180,174,175,162,170,167,171,178,172,177,182,174,825,835,772,852,793,949,966,1091,1155,1220,1303,1181,1164,1146,1129,1222,1202,1225,1149,1124,1024,1006,989,971,954,953,935,918,900,938,930,846,872,795,843,778,780,781,798,818,807,840,804,824,814,835,824,830,817,814,824,822,831,831,833,838,832,824,839,829,836,852,840,850,848,536,511,499,500,505,553,624,694,775,828,822,819,793,780,797,784,743,731,721,701,694,678,664,651,638,628,616,599,585,572,562,546,533,520,505,503,510,504,501,514,501,510,522,515,527,540,510,518,515,515,514,507,509,521,525,510,517,508,507,517,508,527,513,521,509,806,733,790,740,764,840,949,1062,1144,1186,1153,1188,1150,1133,1114,1080,1062,1074,1040,1006,1018,969,936,932,914,895,877,858,840,821,803,771,766,760,733,742,731,747,745,728,732,739,774,768,758,782,758,784,770,768,758,741,746,766,755,743,770,749,744,758,753,776,756,761,753,1050,1174,1056,1077,1165,1285,1455,1652,1749,1703,1693,1713,1660,1659,1602,1608,1572,1579,1510,1466,1484,1412,1383,1416,1333,1315,1279,1252,1237,1198,1156,1145,1103,1127,1056,1065,1136,1070,1099,1099,1089,1129,1111,1112,1113,1129,1111,1108,1108,1122,1114,1107,1101,1101,1112,1116,1113,1115,1099,1103,1107,1121,1121,1120,1099,731,703,677,679,739,770,871,974,1102,1103,1104,1157,1069,1051,1034,1036,1084,981,964,946,1007,1024,893,875,858,895,823,924,788,770,753,735,740,699,732,728,724,687,710,718,700,716,720,720,726,740,716,714,722,732,724,714,716,723,721,721,721,723,713,716,710,722,721,718,705,975,1073,996,994,1134,1170,1379,1472,1573,1588,1579,1555,1520,1505,1480,1451,1490,1420,1380,1354,1382,1369,1279,1277,1228,1248,1178,1199,1144,1103,1093,1069,1043,1108,992,1084,1054,994,1053,1046,1044,1045,1047,1050,1063,1057,1060,1063,1065,1055,1063,1067,1077,1083,1074,1084,1060,1075,1073,1062,1073,1085,1058,1065,1052,1016,1019,1022,1040,1099,1216,1377,1637,1605,1657,1649,1718,1597,1570,1544,1518,1492,1466,1439,1413,1451,1361,1335,1308,1282,1256,1260,1204,1177,1151,1125,1099,1073,1050,1035,1031,1034,1036,1040,1047,1046,1061,1072,1081,1084,1099,1090,1097,1114,1111,1107,1087,1114,1141,1104,1096,1098,1110,1105,1114,1105,1100,1106,1127,1097,621,617,625,667,666,685,769,853,983,979,1038,969,1027,989,967,951,894,879,885,849,834,883,859,790,790,785,745,730,728,702,705,701,663,670,633,629,625,634,616,624,628,624,619,623,624,626,630,644,642,645,647,642,644,638,646,647,645,649,672,660,654,644,648,649,662,431,432,433,435,437,472,535,598,660,708,715,704,692,681,670,654,671,635,624,613,622,590,578,591,551,544,533,517,510,498,487,475,460,470,441,437,438,440,444,425,426,427,427,429,431,434,430,431,431,432,433,434,433,437,437,434,438,435,434,431,437,439,440,440,440,0,0,0,0,0,0,0,0,0,0,0,0,0,0,0,0,0,0,0,0,0,0,0,0,0,0,0,0,0,0,0,0,0,0,0,0,0,0,0,0,0,0,0,0,0,0,0,0,0,0,0,0,0,0,0,0,0,0,0,0,0,0,0,0,0,388,389,391,392,393,422,478,535,591,638,646,636,626,615,605,590,584,574,564,553,564,533,522,512,502,491,481,471,460,450,440,429,419,409,398,394,395,396,401,378,381,383,393,401,384,397,387,385,397,401,391,396,403,420,408,414,392,403,401,406,419,412,418,434,415,1132,1173,1184,1138,1282,1387,1509,1647,1749,1779,1795,1722,1696,1670,1687,1613,1735,1561,1617,1512,1583,1534,1470,1430,1380,1439,1328,1374,1275,1307,1254,1218,1213,1165,1211,1132,1204,1137,1189,1179,1188,1189,1180,1189,1193,1199,1193,1197,1203,1195,1198,1195,1198,1205,1207,1211,1197,1202,1203,1199,1206,1208,1203,1222,1216,684,685,690,675,716,793,887,968,1049,1092,1201,1081,1070,1039,1039,1032,1012,977,965,961,939,914,907,856,873,833,833,817,793,782,744,726,727,705,677,674,676,686,669,677,687,703,686,694,683,700,678,691,683,677,679,689,692,694,693,689,683,684,695,690,679,682,676,691,682,1050,1174,1056,1077,1165,1285,1455,1652,1749,1703,1693,1713,1660,1659,1602,1608,1572,1579,1510,1466,1484,1412,1383,1416,1333,1315,1279,1252,1237,1198,1156,1145,1103,1127,1056,1065,1136,1070,1099,1099,1089,1129,1111,1112,1113,1129,1111,1108,1108,1122,1114,1107,1101,1101,1112,1116,1113,1115,1099,1103,1107,1121,1121,1120,1099,875,892,894,886,932,1025,1160,1291,1404,1425,1421,1417,1365,1342,1331,1308,1286,1277,1261,1208,1196,1203,1182,1130,1162,1111,1061,1049,1097,993,971,936,931,919,891,902,890,902,907,908,904,914,919,911,919,928,923,919,927,935,1007,1007,1019,963,920,927,932,944,925,923,944,913,924,922,915,427,429,430,431,433,467,528,589,650,698,706,695,685,673,662,651,640,628,617,606,595,584,572,561,550,539,528,516,505,494,483,472,469,449,438,434,435,436,430,444,429,441,439,440,434,444,432,431,435,434,432,434,437,437,437,441,435,438,440,444,432,448,434,441,434,800,861,805,869,913,1015,1149,1169,1293,1307,1399,1285,1416,1331,1310,1202,1287,1265,1242,1235,1098,1154,1132,1110,1118,1065,1043,1049,992,993,954,932,925,856,874,866,921,884,914,892,901,898,904,899,948,946,908,940,928,898,904,959,963,968,954,963,952,969,959,952,939,919,898,898,898,931,933,936,1042,1041,1180,1368,1529,1619,1674,1631,1607,1649,1548,1619,1489,1460,1430,1401,1484,1457,1303,1346,1254,1216,1199,1192,1140,1107,1169,1072,1019,989,1005,948,947,952,986,984,985,981,978,1006,1003,988,991,991,1015,1028,1030,1082,1024,1044,1019,1058,1015,1019,1058,1161,1101,1080,1076,1119,1100,1049,435,431,432,439,435,462,517,572,627,704,731,672,662,652,687,632,622,612,623,612,581,571,561,551,541,531,534,511,501,523,480,479,468,457,446,442,455,438,426,429,431,434,434,434,432,434,431,444,435,435,439,439,446,453,446,444,446,441,446,446,448,450,444,447,445,253,253,228,229,256,252,286,329,334,410,422,416,386,380,395,349,382,365,348,351,355,348,332,316,328,321,315,308,301,287,288,281,259,267,261,256,257,258,243,245,246,247,247,248,247,249,246,245,246,246,247,257,250,250,250,251,253,255,258,253,251,256,246,248,249,415,417,418,415,443,449,514,569,628,682,687,647,665,654,646,630,655,644,632,621,609,569,555,541,532,520,489,528,487,481,448,459,446,459,426,422,423,470,431,424,431,424,430,439,432,435,435,429,439,435,437,434,437,447,439,435,426,442,430,438,435,431,430,439,449,0,0,0,0,0,0,0,0,0,0,0,0,0,0,0,0,0,0,0,0,0,0,0,0,0,0,0,0,0,0,0,0,0,0,0,0,0,0,0,0,0,0,0,0,0,0,0,0,0,0,0,0,0,0,0,0,0,0,0,0,0,0,0,0,0,892,918,897,939,964,1026,1209,1313,1399,1436,1433,1387,1367,1369,1351,1327,1305,1305,1263,1268,1200,1199,1178,1137,1116,1114,1075,1071,1044,1029,1024,1002,957,921,915,904,906,938,919,932,935,940,953,952,951,960,936,953,945,954,942,950,960,970,958,968,952,961,962,948,944,939,951,957,936,487,492,490,492,496,544,612,684,762,803,815,796,789,796,767,780,740,718,705,692,679,681,659,645,627,615,602,593,576,567,550,582,524,511,521,503,500,501,496,494,502,518,509,503,499,503,508,513,534,519,542,580,594,568,526,517,507,519,507,506,501,516,514,521,508,875,892,894,886,932,1025,1160,1291,1404,1425,1421,1417,1365,1342,1331,1308,1286,1277,1261,1208,1196,1203,1182,1130,1162,1111,1061,1049,1097,993,971,936,931,919,891,902,890,902,907,908,904,914,919,911,919,928,923,919,927,935,1007,1007,1019,963,920,927,932,944,925,923,944,913,924,922,915,1126,1094,1106,1161,1227,1332,1581,1580,1722,1669,1673,1611,1618,1581,1571,1548,1570,1473,1477,1497,1431,1381,1371,1390,1328,1304,1290,1272,1243,1211,1196,1198,1149,1132,1123,1125,1127,1130,1168,1143,1136,1153,1205,1250,1170,1170,1190,1215,1187,1235,1273,1229,1183,1223,1220,1199,1211,1197,1253,1367,1328,1338,1345,1252,1253,534,535,536,503,507,544,587,630,673,702,699,691,682,674,666,673,650,642,648,626,618,623,602,593,585,590,614,604,553,586,537,529,521,513,505,505,516,517,506,509,495,591,533,514,519,536,517,516,522,532,529,511,504,515,514,518,515,511,502,508,506,509,519,511,491,707,709,710,712,733,800,874,948,1067,1039,1030,1017,1003,990,977,963,997,937,924,910,897,884,870,857,844,830,817,804,790,777,764,785,737,724,715,715,716,718,710,714,715,718,729,722,731,718,725,721,735,735,801,795,810,751,723,741,741,748,739,717,740,717,731,729,720,1030,984,986,1100,1097,1269,1472,1630,1691,1790,1828,1661,1719,1601,1571,1541,1511,1481,1451,1421,1413,1361,1331,1381,1271,1241,1313,1181,1151,1121,1091,1061,1031,1004,1011,1016,1022,1012,1031,1028,1022,1031,1021,1038,1030,1036,1053,1110,1038,1068,1076,1073,1053,1088,1083,1045,1037,1047,1067,1083,1073,1089,1087,1088,1066,729,739,732,733,770,854,963,1055,1134,1161,1149,1132,1114,1097,1079,1067,1045,1027,1010,992,975,957,940,922,905,888,884,867,835,825,808,783,765,748,737,738,749,744,737,737,737,751,770,739,748,758,747,748,756,766,839,844,853,790,875,831,784,770,748,746,762,740,755,751,743,794,796,798,848,837,964,1009,1183,1164,1259,1246,1229,1247,1203,1212,1117,1144,1128,1069,1032,1016,1000,1072,1032,994,1004,922,906,890,874,859,843,827,812,803,803,861,868,809,828,831,844,825,838,833,825,832,830,947,916,859,863,942,919,914,824,830,850,864,839,828,841,856,829,807,1205,1208,1214,1268,1363,1592,1734,1846,1866,1930,1905,1877,1842,1812,1818,1788,1764,1704,1663,1665,1606,1583,1545,1556,1493,1514,1424,1399,1373,1348,1307,1286,1249,1228,1219,1256,1230,1228,1281,1276,1277,1289,1287,1310,1290,1298,1292,1300,1314,1317,1379,1380,1398,1342,1295,1312,1320,1335,1307,1305,1315,1284,1309,1299,1283,892,895,896,930,964,1088,1198,1333,1365,1383,1368,1323,1291,1286,1325,1264,1231,1236,1208,1221,1179,1141,1110,1102,1103,1077,1066,1064,1010,999,978,955,952,913,903,912,939,912,917,919,917,924,921,932,974,962,924,945,939,922,927,957,970,989,975,992,978,980,976,954,950,942,940,943,931,0,0,0,0,0,0,0,0,0,0,0,0,0,0,0,0,0,0,0,0,0,0,0,0,0,0,0,0,0,0,0,0,0,0,0,0,0,0,0,0,0,0,0,0,0,0,0,0,0,0,0,0,0,0,0,0,0,0,0,0,0,0,0,0,0,778,779,778,783,821,923,1034,1145,1219,1249,1235,1216,1197,1225,1159,1140,1121,1098,1083,1064,1091,1026,1007,984,969,946,930,911,892,873,854,835,816,797,786,785,791,794,776,769,783,781,771,785,784,776,779,792,808,799,795,799,799,807,795,800,787,800,799,798,802,794,792,813,822,1126,1094,1106,1161,1227,1332,1581,1580,1722,1669,1673,1611,1618,1581,1571,1548,1570,1473,1477,1497,1431,1381,1371,1390,1328,1304,1290,1272,1243,1211,1196,1198,1149,1132,1123,1125,1127,1130,1168,1143,1136,1153,1205,1250,1170,1170,1190,1215,1187,1235,1273,1229,1183,1223,1220,1199,1211,1197,1253,1367,1328,1338,1345,1252,1253,1107,1111,1154,1142,1224,1429,1543,1801,1732,1759,1802,1720,1693,1666,1638,1611,1584,1556,1529,1532,1475,1633,1459,1430,1447,1373,1345,1374,1269,1282,1294,1224,1159,1151,1125,1164,1126,1129,1183,1167,1177,1179,1203,1243,1193,1211,1208,1212,1249,1218,1215,1226,1221,1238,1196,1204,1216,1221,1215,1229,1212,1229,1216,1214,1218,508,523,505,526,532,580,632,729,776,796,880,811,798,785,773,739,727,715,722,710,697,726,712,699,667,671,657,643,610,597,584,571,558,559,519,515,531,518,525,525,527,539,527,531,533,540,533,529,533,525,537,536,540,538,537,534,527,542,536,529,530,550,537,544,534,993,1011,999,1014,1098,1202,1356,1618,1594,1581,1628,1548,1546,1499,1488,1450,1414,1422,1376,1372,1422,1474,1317,1291,1265,1239,1231,1246,1143,1118,1200,1068,1044,1036,1003,1063,1025,1053,1075,1089,1069,1158,1122,1113,1093,1105,1107,1137,1111,1126,1119,1106,1083,1096,1096,1115,1118,1092,1108,1130,1101,1095,1115,1091,1081,604,670,655,609,619,701,822,943,1052,1108,1106,1085,1054,1044,1155,1004,983,963,932,922,988,871,860,831,819,906,770,758,738,709,697,676,723,652,617,613,617,638,638,636,637,656,638,633,699,702,641,663,708,672,629,701,741,749,760,708,701,717,724,682,659,662,656,633,628,93,93,93,93,93,94,102,109,117,124,131,129,128,126,125,123,122,120,119,117,116,114,113,111,110,108,107,105,104,102,101,99,98,96,95,94,94,94,70,71,71,72,71,72,71,73,71,72,72,72,72,72,73,73,73,73,73,73,74,73,73,73,73,74,74,596,605,607,581,621,656,753,845,936,967,957,944,940,924,909,890,868,862,849,836,822,818,791,778,746,755,729,715,684,654,670,648,634,620,608,584,595,587,602,592,584,586,583,624,600,600,601,610,617,621,623,594,619,641,668,600,600,636,596,624,603,592,625,619,600,782,767,810,774,807,912,1016,1094,1175,1205,1193,1207,1172,1161,1136,1141,1095,1080,1061,1045,1069,1023,1010,1024,979,968,935,946,862,847,858,846,803,805,771,774,772,781,775,785,777,784,789,799,793,800,783,795,786,794,790,782,777,784,787,791,779,785,777,782,776,786,789,781,768,438,440,441,442,444,479,535,601,661,707,701,692,692,681,669,654,637,635,626,617,607,598,584,575,570,560,539,529,501,499,489,478,468,458,448,444,445,447,441,445,440,450,448,452,446,462,441,450,446,442,445,454,453,449,449,450,449,449,461,461,445,452,445,450,447,886,876,925,881,913,1016,1147,1257,1352,1393,1407,1366,1419,1323,1302,1297,1275,1237,1232,1193,1172,1150,1129,1122,1085,1122,1042,1034,1012,990,981,946,925,951,899,898,938,892,951,888,891,900,882,919,891,902,900,913,925,908,908,904,916,921,955,902,902,920,905,915,911,905,911,930,909,0,0,0,0,0,0,0,0,0,0,0,0,0,0,0,0,0,0,0,0,0,0,0,0,0,0,0,0,0,0,0,0,0,0,0,0,0,0,0,0,0,0,0,0,0,0,0,0,0,0,0,0,0,0,0,0,0,0,0,0,0,0,0,0,0,1107,1111,1154,1142,1224,1429,1543,1801,1732,1759,1802,1720,1693,1666,1638,1611,1584,1556,1529,1532,1475,1633,1459,1430,1447,1373,1345,1374,1269,1282,1294,1224,1159,1151,1125,1164,1126,1129,1183,1167,1177,1179,1203,1243,1193,1211,1208,1212,1249,1218,1215,1226,1221,1238,1196,1204,1216,1221,1215,1229,1212,1229,1216,1214,1218,0,0,0,0,0,0,0,0,0,0,0,0,0,0,0,0,0,0,0,0,0,0,0,0,0,0,0,0,0,0,0,0,0,0,0,0,0,0,0,0,0,0,0,0,0,0,0,0,0,0,0,0,0,0,0,0,0,0,0,0,0,0,0,0,0,946,956,947,955,985,1143,1289,1440,1493,1558,1555,1507,1486,1466,1477,1406,1391,1380,1377,1278,1397,1274,1248,1227,1219,1125,1181,1139,1104,1079,1043,990,1025,992,1024,930,956,935,992,989,990,1040,1030,1003,1009,1027,1009,1037,1070,1026,1030,1034,1034,1031,1026,1021,1009,1012,1005,1003,998,1015,1012,1021,985,652,654,667,658,674,701,794,886,972,1015,1019,1003,987,1019,1018,938,922,906,938,892,914,859,825,809,793,777,777,796,765,712,696,714,664,648,634,662,632,633,623,610,615,623,640,608,613,615,617,638,641,637,631,758,637,622,755,640,632,640,642,639,639,633,652,649,655,1529,1542,1664,1750,1986,2170,2490,2455,2554,2552,2529,2498,2423,2401,2362,2382,2296,2217,2191,2138,2132,2052,2065,1999,2029,1953,1883,1827,1742,1749,1664,1607,1572,1593,1585,1627,1619,1557,1702,1719,1725,1756,1776,1744,1751,1763,1736,1758,1732,1720,1746,1746,1750,1756,1779,1761,1748,1735,1747,1733,1735,1753,1761,1772,1750,1052,1037,1040,1047,1130,1236,1394,1618,1641,1642,1700,1616,1735,1565,1540,1674,1485,1463,1438,1412,1387,1362,1348,1311,1285,1257,1232,1209,1181,1158,1140,1134,1082,1059,1099,1043,1043,1151,1092,1081,1073,1078,1095,1136,1115,1123,1111,1131,1136,1149,1153,1145,1126,1161,1165,1116,1131,1137,1152,1193,1156,1169,1173,1231,1164,720,712,715,707,741,817,926,1035,1123,1165,1152,1149,1130,1112,1108,1075,1055,1051,1019,1000,981,963,944,913,894,876,869,851,843,824,795,776,757,729,725,711,723,725,721,724,733,776,732,721,740,753,741,733,781,759,728,747,778,787,787,746,740,753,775,741,735,759,736,735,726,1112,1063,1106,1182,1225,1317,1537,1679,1673,1761,1728,1701,1647,1768,1616,1602,1561,1619,1561,1480,1453,1539,1395,1369,1439,1358,1321,1335,1250,1232,1218,1194,1120,1171,1084,1132,1126,1091,1151,1149,1154,1202,1183,1169,1170,1184,1170,1203,1203,1189,1189,1218,1228,1221,1212,1188,1169,1183,1170,1165,1153,1182,1169,1190,1146,857,847,872,855,902,1039,1189,1274,1358,1387,1370,1405,1355,1330,1340,1314,1252,1296,1220,1198,1164,1142,1118,1085,1074,1041,1031,1009,998,996,943,920,938,867,867,875,862,861,869,858,860,862,878,853,864,870,862,873,879,877,878,923,881,879,930,885,882,884,882,878,883,885,893,892,897,1160,1163,1166,1189,1266,1341,1506,1646,1727,1781,1751,1725,1699,1735,1707,1620,1613,1587,1607,1532,1543,1489,1453,1437,1382,1356,1345,1367,1323,1250,1224,1241,1186,1190,1136,1182,1116,1118,1168,1172,1165,1185,1189,1213,1189,1199,1191,1205,1220,1210,1202,1203,1215,1233,1220,1215,1210,1223,1218,1226,1228,1231,1210,1243,1235,1098,1099,1101,1129,1215,1359,1547,1768,1750,1773,1832,1745,1860,1685,1659,1760,1599,1574,1549,1517,1487,1462,1430,1411,1376,1344,1316,1293,1260,1234,1205,1174,1149,1125,1167,1111,1112,1225,1183,1187,1176,1264,1254,1231,1208,1205,1214,1253,1219,1236,1237,1221,1190,1207,1211,1226,1234,1199,1223,1258,1222,1222,1237,1212,1205,0,0,0,0,0,0,0,0,0,0,0,0,0,0,0,0,0,0,0,0,0,0,0,0,0,0,0,0,0,0,0,0,0,0,0,0,0,0,0,0,0,0,0,0,0,0,0,0,0,0,0,0,0,0,0,0,0,0,0,0,0,0,0,0,0 ]);
