n = 10;
D = [101,204,77,106,100,228,251,226,140,284 ];
q = 0;
prec = array2d(1..0,1..2,[]);
steps = 64;
l = 360;
r = 0;
which = [];
interval = array2d(1..0,1..2,[]);
T = array3d(1..11,1..11,0..64,[0,0,0,0,0,0,0,0,0,0,0,0,0,0,0,0,0,0,0,0,0,0,0,0,0,0,0,0,0,0,0,0,0,0,0,0,0,0,0,0,0,0,0,0,0,0,0,0,0,0,0,0,0,0,0,0,0,0,0,0,0,0,0,0,0,749,752,754,757,787,871,1014,1103,1203,1279,1230,1212,1181,1161,1226,1132,1160,1150,1073,1053,1033,1014,994,976,955,957,916,888,914,857,837,845,816,778,764,761,814,765,774,756,758,762,759,786,776,769,774,777,799,782,785,781,781,798,808,783,783,801,794,804,793,784,809,827,808,1637,1640,1694,1899,2320,2593,2937,2888,2922,3071,2959,3015,2821,2829,2738,2677,2624,2599,2549,2475,2542,2362,2320,2345,2241,2170,2100,2015,2000,1909,1841,1749,1764,1732,1654,1782,1684,1702,1966,1956,1923,1943,1945,1995,2017,2034,2001,2093,1993,2003,1985,2046,2032,2086,2052,2038,2035,2033,2025,2039,2017,2026,1992,2000,1955,1104,1014,1069,1190,1104,1358,1404,1540,1792,1650,1659,1622,1640,1561,1586,1554,1482,1501,1444,1404,1378,1410,1361,1342,1334,1361,1352,1195,1169,1192,1189,1112,1064,1042,1080,1026,1029,1031,1078,1090,1065,1075,1066,1097,1078,1092,1104,1160,1084,1119,1108,1116,1095,1164,1124,1084,1080,1074,1098,1116,1106,1134,1120,1123,1096,1118,1027,1076,1139,1107,1277,1385,1522,1665,1633,1631,1658,1634,1576,1606,1525,1480,1488,1462,1405,1379,1414,1347,1366,1296,1282,1302,1203,1178,1181,1128,1114,1078,1055,1040,1083,1067,1091,1063,1077,1088,1100,1092,1110,1092,1103,1078,1092,1087,1081,1083,1096,1101,1108,1101,1114,1095,1103,1112,1097,1088,1081,1093,1099,1078,939,969,985,956,1007,1129,1344,1421,1537,1581,1527,1503,1545,1454,1430,1405,1432,1354,1325,1313,1288,1259,1235,1236,1249,1210,1197,1131,1093,1065,1049,1039,1030,973,978,969,1007,958,963,1007,973,983,985,973,977,988,993,986,1003,977,983,989,989,994,1001,1013,1003,1000,1012,991,1013,1043,1058,1030,1029,830,837,835,840,880,978,1108,1236,1324,1361,1359,1337,1315,1294,1272,1250,1228,1207,1185,1163,1142,1126,1098,1076,1055,1033,1011,989,968,946,924,902,881,860,846,843,845,847,840,882,841,844,862,846,854,858,859,874,870,854,867,858,867,863,868,874,868,874,900,859,874,874,891,871,863,760,761,773,774,800,897,1031,1135,1227,1265,1247,1229,1207,1191,1180,1153,1134,1170,1099,1068,1059,1028,1008,973,979,977,928,908,893,875,834,818,831,789,784,772,783,776,782,779,782,784,784,802,821,818,794,804,810,804,797,798,794,823,812,807,799,793,786,799,797,800,793,825,795,1592,1557,1699,1730,1970,2219,2333,2449,2495,2519,2470,2411,2401,2436,2352,2324,2229,2202,2132,2091,2126,2015,2014,2024,1904,1917,1872,1775,1750,1766,1708,1726,1616,1691,1590,1636,1596,1642,1746,1801,1746,1773,1770,1755,1778,1801,1782,1790,1800,1769,1771,1777,1792,1792,1797,1816,1797,1801,1822,1776,1808,1819,1826,1789,1787,1677,1701,1759,1936,2349,2706,2899,2992,3050,3025,3048,2954,2914,2892,2795,2753,2697,2636,2589,2514,2485,2419,2373,2277,2260,2197,2167,2121,2056,1942,1947,1818,1757,1726,1720,1787,1757,1866,2076,2049,2079,2129,2123,2170,2110,2106,2116,2140,2168,2127,2126,2170,2194,2198,2136,2121,2125,2136,2121,2131,2110,2144,2127,2145,2115,0,0,0,0,0,0,0,0,0,0,0,0,0,0,0,0,0,0,0,0,0,0,0,0,0,0,0,0,0,0,0,0,0,0,0,0,0,0,0,0,0,0,0,0,0,0,0,0,0,0,0,0,0,0,0,0,0,0,0,0,0,0,0,0,0,771,774,812,778,810,914,1013,1121,1189,1259,1258,1238,1225,1260,1178,1248,1138,1119,1102,1048,1058,1017,1018,1000,985,964,946,924,899,879,853,839,793,799,786,782,784,896,783,794,798,822,806,805,798,817,800,805,799,804,794,810,799,813,818,816,813,807,802,815,810,840,816,828,821,0,0,0,0,0,0,0,0,0,0,0,0,0,0,0,0,0,0,0,0,0,0,0,0,0,0,0,0,0,0,0,0,0,0,0,0,0,0,0,0,0,0,0,0,0,0,0,0,0,0,0,0,0,0,0,0,0,0,0,0,0,0,0,0,0,1324,1336,1443,1416,1507,1711,1961,2056,2144,2165,2154,2094,2060,2057,2009,2123,1924,1924,1998,1822,1806,1754,1737,1686,1669,1691,1600,1550,1510,1518,1448,1414,1434,1463,1360,1355,1342,1351,1394,1391,1392,1395,1403,1412,1409,1415,1424,1436,1430,1440,1442,1430,1455,1445,1482,1447,1451,1471,1456,1474,1464,1456,1480,1471,1482,642,698,686,670,665,732,835,934,992,1062,1060,1049,1027,1006,988,967,962,939,922,941,889,872,855,837,820,805,782,772,743,737,721,704,687,662,656,651,654,656,653,649,655,668,659,663,659,670,662,656,663,656,666,669,677,678,674,670,655,677,667,662,664,685,674,685,669,497,471,473,474,476,508,567,626,686,733,742,731,720,709,698,687,676,665,655,644,633,622,611,600,589,579,568,557,546,535,524,513,502,492,481,477,478,479,475,469,468,521,480,487,469,473,481,483,499,487,492,480,472,490,509,481,472,485,483,487,484,471,490,502,476,502,503,492,500,488,574,620,706,779,826,817,804,774,760,775,753,731,734,713,700,697,660,676,652,640,627,610,605,591,571,565,552,532,522,507,487,488,502,494,493,494,509,507,498,496,499,502,509,514,521,596,605,624,546,517,503,509,517,504,500,507,501,500,515,500,920,906,890,979,1028,1093,1248,1405,1487,1520,1515,1491,1466,1388,1456,1341,1318,1295,1271,1338,1225,1302,1219,1172,1176,1142,1069,1047,1024,1019,1018,954,934,936,937,931,913,959,946,939,944,943,969,1013,957,982,980,992,1001,999,991,997,981,1003,975,974,985,977,971,1011,991,1007,989,997,1001,94,94,94,95,95,96,109,122,134,147,157,155,152,150,147,145,142,140,137,135,132,130,127,125,122,120,117,115,112,110,107,105,102,100,97,95,95,96,75,74,75,78,78,77,77,75,77,79,78,78,79,85,87,83,85,79,77,79,77,78,75,79,78,80,77,969,943,949,922,1004,1101,1247,1365,1501,1473,1469,1443,1427,1484,1419,1414,1321,1368,1327,1257,1240,1262,1196,1159,1137,1188,1178,1117,1080,1050,1007,1083,982,971,919,976,930,955,952,951,966,970,969,1007,962,978,983,977,1005,978,982,986,982,988,974,978,971,988,969,982,980,998,981,990,996,1429,1440,1460,1566,1766,2046,2332,2434,2485,2497,2469,2425,2417,2332,2287,2253,2209,2159,2294,2070,2162,1985,1931,1873,1854,1799,1766,1715,1665,1648,1578,1560,1492,1469,1472,1480,1477,1479,1586,1587,1588,1623,1643,1637,1610,1610,1627,1664,1635,1646,1650,1674,1663,1655,1654,1652,1644,1624,1642,1672,1626,1639,1642,1635,1616,771,774,812,778,810,914,1013,1121,1189,1259,1258,1238,1225,1260,1178,1248,1138,1119,1102,1048,1058,1017,1018,1000,985,964,946,924,899,879,853,839,793,799,786,782,784,896,783,794,798,822,806,805,798,817,800,805,799,804,794,810,799,813,818,816,813,807,802,815,810,840,816,828,821,1715,1772,1838,1911,2161,2493,2948,2776,2942,2840,2798,2762,2714,2655,2618,2570,2534,2526,2427,2379,2371,2342,2269,2178,2139,2091,2127,1996,1948,1900,1852,1801,1748,1794,1774,1733,1750,1752,1978,2045,1991,2016,2042,2007,2022,2061,2025,2025,2049,2010,2053,2033,2057,2060,2217,2168,2077,2054,2085,2024,2041,2045,2083,2085,2033,1344,1350,1364,1432,1622,1746,1982,2110,2170,2166,2155,2203,2138,2049,2019,1980,2000,1918,1876,1876,1842,1801,1765,1761,1675,1659,1651,1615,1561,1526,1512,1442,1471,1478,1390,1363,1369,1415,1465,1456,1449,1473,1541,1542,1507,1543,1505,1560,1568,1562,1577,1534,1542,1581,1566,1507,1560,1541,1539,1574,1550,1580,1583,1625,1557,0,0,0,0,0,0,0,0,0,0,0,0,0,0,0,0,0,0,0,0,0,0,0,0,0,0,0,0,0,0,0,0,0,0,0,0,0,0,0,0,0,0,0,0,0,0,0,0,0,0,0,0,0,0,0,0,0,0,0,0,0,0,0,0,0,935,953,939,949,1045,1192,1488,1537,1672,1649,1626,1681,1581,1540,1523,1570,1477,1459,1407,1378,1382,1331,1280,1317,1232,1203,1174,1145,1116,1087,1076,1021,997,966,952,953,960,967,960,969,974,1000,988,981,976,999,978,984,982,988,998,1016,1005,1004,1000,1000,998,991,983,997,992,1029,1005,1019,1011,1200,1203,1206,1241,1339,1475,1627,1793,1922,1867,1896,1867,1841,1807,1806,1713,1708,1693,1665,1598,1620,1541,1512,1541,1489,1459,1436,1413,1359,1328,1314,1283,1253,1257,1179,1201,1220,1224,1253,1271,1276,1277,1314,1290,1277,1310,1287,1310,1304,1299,1311,1320,1317,1335,1296,1295,1312,1292,1284,1313,1306,1317,1299,1304,1296,1099,1061,1063,1128,1173,1359,1591,1760,1859,1892,1876,1842,1808,1773,1742,1754,1724,1636,1602,1571,1536,1548,1465,1431,1396,1362,1328,1293,1297,1225,1193,1156,1124,1093,1075,1077,1082,1088,1089,1089,1093,1098,1097,1101,1107,1123,1107,1112,1104,1107,1113,1111,1114,1113,1119,1129,1121,1124,1123,1116,1134,1126,1126,1130,1123,1527,1534,1664,1658,1900,2148,2392,2489,2634,2571,2601,2495,2458,2462,2364,2378,2289,2328,2190,2146,2114,2070,2050,2034,1928,1915,1868,1822,1777,1715,1682,1627,1587,1575,1566,1547,1569,1579,1662,1664,1680,1705,1680,1702,1678,1680,1680,1685,1724,1696,1715,1738,1731,1719,1706,1725,1706,1724,1725,1711,1720,1727,1700,1731,1727,1316,1322,1334,1398,1580,1730,1943,2066,2136,2125,2107,2148,2079,2004,1978,1942,1962,1875,1873,1862,1829,1757,1724,1759,1649,1622,1627,1582,1532,1497,1478,1414,1414,1383,1371,1363,1341,1380,1440,1437,1418,1432,1424,1455,1432,1440,1471,1518,1447,1468,1467,1467,1459,1489,1482,1458,1457,1448,1463,1494,1456,1471,1482,1467,1453,774,791,798,796,806,914,1000,1146,1231,1270,1292,1251,1201,1211,1281,1143,1152,1104,1085,1138,1073,1053,1033,1014,970,974,931,935,893,895,875,861,816,816,803,814,802,784,793,808,801,790,805,815,805,812,807,837,831,837,856,835,836,823,851,824,827,847,923,881,855,846,876,873,852,458,459,460,461,463,486,537,588,639,682,696,686,677,667,658,648,639,629,620,610,601,591,582,572,563,553,544,534,525,515,506,496,487,477,468,463,464,465,442,449,452,472,460,453,453,457,449,454,453,454,452,447,448,453,452,450,454,452,447,455,450,460,454,455,452,1715,1772,1838,1911,2161,2493,2948,2776,2942,2840,2798,2762,2714,2655,2618,2570,2534,2526,2427,2379,2371,2342,2269,2178,2139,2091,2127,1996,1948,1900,1852,1801,1748,1794,1774,1733,1750,1752,1978,2045,1991,2016,2042,2007,2022,2061,2025,2025,2049,2010,2053,2033,2057,2060,2217,2168,2077,2054,2085,2024,2041,2045,2083,2085,2033,1125,1128,1132,1171,1259,1457,1583,1695,1862,1892,1820,1791,1762,1732,1735,1733,1756,1616,1574,1558,1731,1499,1461,1441,1412,1362,1334,1305,1290,1262,1275,1205,1177,1196,1241,1146,1144,1147,1212,1219,1219,1237,1227,1259,1275,1282,1221,1249,1241,1228,1226,1272,1288,1313,1291,1313,1275,1296,1295,1269,1261,1239,1256,1266,1236,638,639,642,644,660,723,821,951,1040,1045,1053,1038,1023,1008,1068,1018,978,960,943,908,908,891,874,856,806,788,780,763,804,730,714,697,680,664,651,656,648,644,631,637,654,671,649,660,638,656,638,668,648,641,648,653,664,677,662,656,662,649,662,663,657,664,644,653,646,889,891,894,901,951,1084,1291,1423,1525,1572,1616,1534,1509,1478,1450,1422,1589,1370,1342,1311,1283,1259,1360,1200,1196,1167,1116,1089,1061,1025,1008,977,1053,1023,998,902,907,993,962,937,950,945,981,974,957,948,955,973,1017,997,999,1001,1009,989,1012,989,982,1013,1024,1005,989,986,1014,1032,1013,0,0,0,0,0,0,0,0,0,0,0,0,0,0,0,0,0,0,0,0,0,0,0,0,0,0,0,0,0,0,0,0,0,0,0,0,0,0,0,0,0,0,0,0,0,0,0,0,0,0,0,0,0,0,0,0,0,0,0,0,0,0,0,0,0,259,260,261,261,262,269,296,352,371,389,398,394,391,387,384,398,392,373,380,366,368,362,356,350,309,312,307,302,297,292,286,281,276,271,266,262,263,263,242,246,242,254,242,249,245,249,247,250,248,247,250,247,251,250,250,251,254,251,253,248,253,255,253,255,255,983,993,998,1071,1099,1203,1361,1532,1587,1632,1581,1558,1546,1554,1555,1526,1471,1439,1426,1426,1377,1388,1335,1309,1262,1283,1233,1192,1189,1106,1092,1077,1069,1019,1048,1004,1006,1027,1069,1059,1051,1137,1108,1104,1089,1074,1095,1130,1101,1137,1137,1131,1074,1081,1106,1114,1114,1092,1136,1185,1127,1114,1144,1103,1103,947,950,964,988,1065,1187,1290,1396,1602,1540,1535,1604,1486,1468,1437,1450,1483,1363,1326,1323,1289,1265,1231,1221,1249,1219,1190,1098,1093,1069,1047,1016,1076,1056,1033,961,959,961,1027,991,993,1001,986,1001,996,1001,1014,1075,1006,1017,1028,1027,1016,1032,1047,1019,1009,1014,1022,1032,1015,1022,1029,1037,1024,545,546,548,550,557,611,688,801,876,903,903,890,878,865,852,857,842,820,812,794,782,768,753,738,689,682,668,654,640,626,612,597,586,569,557,556,554,556,557,564,557,563,571,563,564,571,557,564,561,562,560,568,568,568,565,564,567,561,570,578,564,572,560,565,564,702,704,706,758,728,796,967,1044,1163,1153,1154,1135,1087,1070,1129,1117,1057,1108,1019,1011,972,956,969,935,979,902,868,885,841,796,779,793,745,739,715,698,713,715,709,699,703,701,709,709,713,712,714,720,724,721,728,725,723,726,732,729,731,738,744,747,741,736,758,756,766,912,914,917,924,975,1149,1338,1524,1655,1683,1669,1638,1606,1591,1543,1512,1505,1449,1433,1387,1355,1338,1291,1261,1230,1199,1167,1136,1105,1073,1042,1010,979,949,899,926,927,938,932,958,953,950,970,944,965,978,958,950,976,945,966,959,974,975,1137,1087,996,963,960,954,948,945,965,1005,942,1125,1128,1132,1171,1259,1457,1583,1695,1862,1892,1820,1791,1762,1732,1735,1733,1756,1616,1574,1558,1731,1499,1461,1441,1412,1362,1334,1305,1290,1262,1275,1205,1177,1196,1241,1146,1144,1147,1212,1219,1219,1237,1227,1259,1275,1282,1221,1249,1241,1228,1226,1272,1288,1313,1291,1313,1275,1296,1295,1269,1261,1239,1256,1266,1236,1076,1005,1021,1025,1093,1239,1443,1508,1599,1631,1601,1592,1533,1526,1515,1476,1462,1472,1401,1393,1351,1326,1286,1289,1266,1374,1201,1162,1151,1126,1101,1097,1116,1029,1018,1031,1019,1022,1030,1045,1040,1059,1100,1066,1058,1097,1051,1085,1065,1092,1058,1066,1088,1110,1254,1185,1106,1096,1074,1069,1063,1077,1080,1072,1053,436,438,439,440,442,478,534,591,648,691,696,700,675,665,665,643,633,623,612,614,590,593,571,559,550,539,529,518,508,498,486,477,466,456,446,442,443,445,441,437,441,442,448,453,439,450,452,441,447,445,448,450,452,464,457,457,446,462,453,467,462,475,475,485,481,1086,1114,1081,1106,1186,1356,1527,1694,1730,1866,1723,1760,1673,1668,1621,1597,1571,1540,1513,1490,1471,1433,1392,1504,1355,1312,1301,1274,1275,1317,1178,1151,1139,1139,1092,1090,1212,1116,1139,1188,1143,1167,1182,1175,1160,1182,1166,1182,1180,1154,1172,1175,1188,1188,1184,1189,1185,1176,1198,1181,1193,1205,1208,1205,1196,376,377,378,379,380,402,444,515,553,594,602,596,632,594,576,545,563,519,537,543,523,540,508,501,494,455,465,439,431,443,416,408,400,392,384,380,381,382,372,370,371,373,374,372,370,370,371,374,370,371,372,379,373,370,378,373,372,373,371,381,373,372,376,371,371,0,0,0,0,0,0,0,0,0,0,0,0,0,0,0,0,0,0,0,0,0,0,0,0,0,0,0,0,0,0,0,0,0,0,0,0,0,0,0,0,0,0,0,0,0,0,0,0,0,0,0,0,0,0,0,0,0,0,0,0,0,0,0,0,0,781,810,792,814,830,920,1038,1138,1229,1246,1259,1277,1220,1201,1181,1183,1183,1108,1132,1083,1087,1046,1013,1007,1005,968,948,942,910,931,871,869,832,813,801,799,785,803,795,787,801,816,806,810,800,822,810,820,814,806,816,844,862,848,838,827,800,816,805,804,795,815,825,828,799,943,910,949,1000,975,1132,1278,1347,1496,1549,1453,1426,1401,1378,1435,1425,1499,1282,1321,1255,1227,1241,1218,1276,1155,1148,1134,1091,1101,1110,993,1009,1018,970,961,937,947,921,947,953,943,967,955,954,963,975,960,952,957,969,967,955,954,960,963,963,961,965,953,960,957,970,973,970,955,343,344,345,346,347,369,411,454,497,536,543,541,527,519,514,503,495,487,479,476,463,460,447,439,431,423,415,407,399,391,383,375,367,359,351,348,349,349,331,339,335,338,340,339,340,343,337,345,337,338,340,343,348,351,349,347,342,339,348,347,346,347,343,347,342,691,724,695,697,675,734,867,938,1034,1084,1115,1067,1047,1030,1016,987,978,954,1000,1017,929,923,948,856,849,836,843,777,787,807,786,775,699,716,685,733,701,699,701,699,706,694,692,691,702,703,693,713,728,700,702,706,710,701,705,703,701,706,700,692,706,698,701,702,712,1203,1178,1229,1238,1389,1616,1848,2025,2075,2086,2081,2047,2010,1972,1935,1928,1875,1845,1853,1762,1711,1673,1636,1599,1561,1524,1505,1449,1412,1374,1310,1293,1263,1234,1222,1225,1231,1238,1262,1254,1271,1291,1268,1292,1267,1283,1272,1292,1304,1296,1288,1299,1304,1322,1298,1304,1297,1303,1312,1321,1306,1310,1297,1322,1315,1076,1005,1021,1025,1093,1239,1443,1508,1599,1631,1601,1592,1533,1526,1515,1476,1462,1472,1401,1393,1351,1326,1286,1289,1266,1374,1201,1162,1151,1126,1101,1097,1116,1029,1018,1031,1019,1022,1030,1045,1040,1059,1100,1066,1058,1097,1051,1085,1065,1092,1058,1066,1088,1110,1254,1185,1106,1096,1074,1069,1063,1077,1080,1072,1053,1105,1083,1061,1080,1231,1377,1561,1753,1681,1804,1842,1690,1734,1701,1679,1641,1617,1618,1526,1535,1461,1417,1449,1382,1390,1338,1330,1306,1275,1248,1190,1164,1134,1199,1101,1096,1099,1035,1128,1158,1158,1139,1139,1129,1126,1139,1162,1169,1182,1149,1135,1145,1181,1162,1181,1196,1184,1197,1181,1183,1179,1169,1199,1257,1208,425,426,427,429,431,466,548,590,649,701,711,723,708,696,661,673,643,631,620,629,594,582,571,560,552,558,529,518,515,495,522,470,458,447,439,431,446,434,432,431,431,437,442,435,444,437,435,439,438,441,456,462,457,444,464,463,448,456,444,435,454,438,447,440,435,1030,998,1000,1011,1105,1379,1494,1663,1819,1833,1776,1743,1710,1677,1645,1612,1579,1547,1514,1517,1449,1451,1383,1348,1318,1317,1248,1250,1187,1154,1150,1089,1056,1027,1013,1041,1047,1026,1072,1067,1070,1074,1068,1072,1088,1084,1077,1084,1087,1078,1078,1089,1093,1104,1105,1104,1087,1099,1113,1088,1093,1112,1083,1090,1082,951,965,1037,982,1023,1191,1363,1491,1517,1596,1582,1534,1489,1515,1480,1439,1418,1366,1365,1317,1316,1320,1264,1240,1206,1210,1180,1160,1096,1072,1069,1062,1013,1025,978,977,997,965,994,1014,993,1015,1015,994,1053,1007,1008,1027,1051,1034,988,1011,1053,1044,1066,1004,1013,1038,1081,1006,1008,1017,1019,996,991,807,820,823,826,838,966,1085,1207,1238,1307,1307,1263,1236,1270,1240,1205,1188,1141,1145,1102,1105,1116,1065,1046,1005,1027,1001,986,927,908,888,885,850,845,830,830,849,816,818,816,820,818,825,827,852,846,839,837,841,838,838,843,864,874,851,847,841,850,853,854,846,853,847,889,846,0,0,0,0,0,0,0,0,0,0,0,0,0,0,0,0,0,0,0,0,0,0,0,0,0,0,0,0,0,0,0,0,0,0,0,0,0,0,0,0,0,0,0,0,0,0,0,0,0,0,0,0,0,0,0,0,0,0,0,0,0,0,0,0,0,1328,1329,1323,1408,1648,1771,2040,2015,2082,2347,2149,2163,2144,2058,1971,1991,1910,1964,1894,1831,1822,1854,1806,1687,1622,1681,1650,1569,1545,1493,1500,1503,1405,1387,1342,1447,1348,1344,1465,1466,1438,1455,1444,1468,1455,1480,1490,1532,1475,1509,1490,1499,1498,1543,1514,1473,1494,1472,1496,1522,1499,1527,1509,1521,1491,516,516,516,520,525,575,696,728,797,848,859,868,851,837,796,809,775,763,752,755,718,707,693,674,667,671,639,628,620,598,625,570,554,540,531,524,538,525,518,523,527,536,532,539,524,531,524,552,530,527,534,533,550,567,546,540,546,533,541,542,548,555,532,539,532,966,932,934,945,970,1109,1273,1383,1452,1487,1495,1489,1467,1415,1410,1395,1384,1331,1307,1320,1268,1268,1209,1241,1163,1140,1120,1161,1073,1076,1050,1003,998,1009,946,916,976,947,961,955,971,993,978,983,973,999,981,993,985,975,991,1015,1042,1027,1008,1000,973,993,982,973,971,999,986,1004,970,1055,1057,1059,1074,1173,1360,1584,1760,1854,1877,1862,1828,1794,1760,1726,1692,1658,1624,1590,1569,1523,1489,1455,1421,1387,1353,1319,1296,1251,1217,1194,1149,1116,1085,1072,1074,1081,1089,1111,1136,1138,1124,1147,1120,1144,1158,1143,1131,1179,1142,1241,1218,1245,1175,1307,1265,1202,1159,1142,1136,1153,1128,1143,1191,1121,1105,1083,1061,1080,1231,1377,1561,1753,1681,1804,1842,1690,1734,1701,1679,1641,1617,1618,1526,1535,1461,1417,1449,1382,1390,1338,1330,1306,1275,1248,1190,1164,1134,1199,1101,1096,1099,1035,1128,1158,1158,1139,1139,1129,1126,1139,1162,1169,1182,1149,1135,1145,1181,1162,1181,1196,1184,1197,1181,1183,1179,1169,1199,1257,1208,1065,1073,1072,1095,1203,1305,1534,1669,1694,1777,1723,1747,1676,1641,1613,1586,1559,1531,1490,1476,1449,1421,1381,1367,1339,1312,1284,1257,1229,1202,1193,1136,1137,1112,1102,1103,1092,1087,1089,1133,1096,1093,1113,1097,1111,1119,1115,1116,1136,1110,1118,1121,1123,1130,1133,1141,1138,1134,1145,1120,1144,1152,1169,1137,1141,1113,1087,1112,1110,1191,1372,1636,1699,1716,1791,1743,1715,1731,1659,1674,1628,1617,1548,1560,1492,1503,1474,1446,1381,1388,1325,1307,1278,1274,1243,1217,1158,1160,1185,1095,1122,1102,1091,1149,1115,1124,1144,1129,1144,1135,1145,1146,1139,1166,1142,1146,1145,1133,1157,1152,1149,1145,1145,1143,1142,1153,1150,1158,1183,1156,1454,1480,1592,1608,1799,2239,2330,2614,2533,2541,2654,2472,2427,2430,2390,2289,2243,2336,2200,2106,2060,2014,1968,1922,1871,1946,1787,1739,1693,1649,1601,1640,1517,1573,1579,1482,1595,1499,1658,1632,1625,1646,1633,1686,1697,1700,1675,1757,1663,1658,1660,1705,1709,1718,1725,1726,1704,1721,1700,1692,1685,1669,1656,1657,1637,947,950,958,977,1033,1183,1333,1485,1571,1626,1598,1571,1549,1517,1490,1463,1461,1409,1382,1355,1328,1322,1288,1247,1232,1212,1184,1149,1121,1093,1065,1030,1024,991,971,969,973,971,975,976,1020,1288,1031,965,1011,1106,1047,986,1087,1060,1006,1013,1090,1069,1065,976,1009,1001,1046,1044,994,1027,1000,1005,1019,1007,1010,1013,1025,1100,1237,1413,1567,1652,1681,1677,1650,1622,1594,1627,1538,1510,1482,1511,1426,1398,1425,1343,1315,1287,1259,1231,1203,1175,1147,1119,1092,1064,1038,1026,1023,1027,1031,1023,1014,1028,1050,1055,1026,1021,1036,1027,1069,1054,1046,1057,1184,1083,1078,1190,1062,1054,1066,1067,1060,1066,1080,1072,1078,1072,1546,1521,1589,1648,1843,2049,2320,2402,2407,2451,2407,2376,2373,2292,2318,2238,2217,2118,2134,2068,2066,1984,1958,1911,1877,1807,1789,1759,1731,1700,1657,1604,1597,1651,1543,1571,1545,1523,1655,1664,1652,1666,1671,1690,1671,1679,1674,1685,1666,1680,1672,1671,1664,1664,1675,1682,1669,1672,1662,1667,1670,1687,1692,1685,1671,0,0,0,0,0,0,0,0,0,0,0,0,0,0,0,0,0,0,0,0,0,0,0,0,0,0,0,0,0,0,0,0,0,0,0,0,0,0,0,0,0,0,0,0,0,0,0,0,0,0,0,0,0,0,0,0,0,0,0,0,0,0,0,0,0,1031,993,1018,1004,1070,1233,1480,1553,1565,1645,1597,1572,1591,1521,1538,1486,1486,1418,1433,1367,1381,1354,1328,1265,1276,1214,1192,1173,1170,1144,1118,1061,1065,1093,1000,1027,1008,1002,1035,1044,1044,1051,1062,1074,1105,1108,1045,1087,1066,1063,1050,1091,1105,1126,1105,1121,1103,1116,1111,1084,1068,1055,1061,1067,1044,1540,1591,1596,1685,1843,2074,2509,2555,2562,2700,2518,2533,2464,2336,2470,2295,2260,2249,2200,2171,2101,2045,1977,1937,1943,1966,1900,1808,1765,1726,1692,1645,1662,1600,1618,1563,1597,1635,1733,1716,1715,1732,1753,1763,1761,1769,1747,1761,1807,1784,1862,1855,1871,1818,1827,1772,1779,1795,1786,1794,1784,1772,1803,1845,1787,1477,1481,1510,1620,1863,2196,2459,2877,2616,2669,2749,2566,2519,2468,2419,2384,2320,2285,2222,2173,2099,2074,2025,1989,1927,1874,1840,1791,1861,1681,1631,1583,1511,1513,1506,1509,1518,1528,1623,1625,1635,1651,1682,1670,1639,1695,1636,1643,1663,1652,1658,1670,1698,1720,1735,1719,1681,1683,1681,1690,1685,1675,1692,1726,1678,1065,1073,1072,1095,1203,1305,1534,1669,1694,1777,1723,1747,1676,1641,1613,1586,1559,1531,1490,1476,1449,1421,1381,1367,1339,1312,1284,1257,1229,1202,1193,1136,1137,1112,1102,1103,1092,1087,1089,1133,1096,1093,1113,1097,1111,1119,1115,1116,1136,1110,1118,1121,1123,1130,1133,1141,1138,1134,1145,1120,1144,1152,1169,1137,1141,806,808,785,923,851,942,1024,1157,1278,1331,1314,1314,1248,1280,1231,1237,1189,1167,1300,1126,1105,1087,1064,1022,1022,1002,980,960,939,910,897,852,857,835,837,811,813,822,817,818,820,828,832,825,825,838,832,830,843,838,846,861,854,859,829,833,839,835,825,846,833,835,833,838,832,102,102,103,103,103,105,119,133,147,160,171,168,166,163,160,157,155,152,149,147,144,141,138,136,133,130,128,125,122,119,117,114,111,109,106,104,104,104,89,89,87,90,102,98,93,101,93,103,97,102,96,90,93,96,94,93,100,96,92,98,95,105,97,96,95,1384,1289,1401,1352,1453,1645,1849,1972,2049,2064,2107,2151,2003,1970,1972,1885,1999,1839,1787,1747,1714,1740,1649,1616,1584,1570,1537,1486,1521,1421,1408,1361,1345,1308,1287,1285,1310,1311,1340,1338,1352,1382,1351,1375,1355,1356,1351,1358,1387,1371,1376,1388,1386,1389,1384,1392,1366,1376,1389,1378,1379,1381,1365,1399,1392,584,601,589,564,573,680,709,778,870,905,909,896,897,872,841,831,817,812,789,775,764,794,733,735,722,691,677,663,646,646,647,620,651,590,578,568,569,597,567,562,568,573,569,570,569,569,569,570,571,575,570,576,613,651,576,573,584,578,579,590,584,586,580,587,588,413,414,415,416,417,441,491,547,596,649,657,639,630,621,620,611,601,585,576,574,557,555,546,537,521,519,503,500,485,469,460,451,441,432,423,418,419,420,404,412,407,419,415,427,410,427,418,418,411,409,414,419,417,415,417,419,416,412,424,419,416,418,416,425,415,533,535,536,534,548,599,673,739,796,875,879,852,821,824,827,815,814,787,768,726,728,729,698,674,673,633,660,632,628,605,591,585,563,552,537,533,546,538,534,541,533,546,545,554,541,557,544,546,539,539,540,550,548,545,547,548,545,541,555,556,542,548,541,549,542,842,888,812,820,913,998,1202,1181,1331,1303,1292,1332,1256,1242,1215,1233,1210,1201,1183,1197,1388,1115,1131,1050,1055,1023,1068,996,928,919,898,877,884,840,916,819,962,828,858,839,839,863,836,858,881,904,920,840,844,838,852,837,847,836,892,839,847,846,844,858,875,852,837,847,838,0,0,0,0,0,0,0,0,0,0,0,0,0,0,0,0,0,0,0,0,0,0,0,0,0,0,0,0,0,0,0,0,0,0,0,0,0,0,0,0,0,0,0,0,0,0,0,0,0,0,0,0,0,0,0,0,0,0,0,0,0,0,0,0,0,858,876,931,899,926,1009,1126,1295,1379,1377,1409,1440,1377,1344,1415,1292,1284,1262,1270,1211,1213,1173,1167,1125,1098,1084,1046,1074,1004,983,973,971,933,918,868,890,868,868,888,893,879,988,915,901,900,916,911,899,898,913,913,898,886,893,902,908,899,897,888,896,897,908,917,913,888,1341,1373,1413,1479,1636,1926,2161,2298,2507,2366,2343,2326,2259,2216,2167,2147,2086,2094,2005,1959,1920,1895,1833,1788,1748,1710,1660,1633,1576,1547,1491,1465,1444,1396,1389,1407,1415,1410,1494,1487,1479,1570,1550,1534,1518,1518,1533,1574,1526,1567,1587,1552,1510,1542,1533,1542,1555,1522,1574,1643,1608,1616,1625,1562,1558,806,808,785,923,851,942,1024,1157,1278,1331,1314,1314,1248,1280,1231,1237,1189,1167,1300,1126,1105,1087,1064,1022,1022,1002,980,960,939,910,897,852,857,835,837,811,813,822,817,818,820,828,832,825,825,838,832,830,843,838,846,861,854,859,829,833,839,835,825,846,833,835,833,838,832,1596,1634,1734,1827,2023,2318,2400,2543,2633,2616,2531,2502,2480,2506,2478,2403,2399,2277,2219,2247,2160,2121,2110,2073,2004,1984,1933,1886,1835,1826,1730,1692,1741,1721,1645,1650,1676,1663,1841,1805,1822,1874,1833,1846,1824,1878,1866,1863,1872,1861,1953,1972,2079,1923,1866,1848,1879,1871,1850,1835,1857,1869,1856,1871,1845,909,945,920,949,1033,1131,1307,1411,1426,1464,1484,1488,1440,1446,1439,1422,1396,1368,1287,1342,1241,1240,1196,1201,1192,1203,1143,1103,1092,1066,1038,998,1021,937,935,959,960,952,977,978,960,969,959,978,968,977,997,1058,985,1001,1005,1003,1000,1028,1017,989,991,982,1000,1022,990,1004,1008,1001,989,715,718,720,722,769,816,860,938,1008,1043,1049,1035,1021,1007,993,979,965,951,937,923,909,895,881,867,853,839,825,811,838,783,769,727,758,739,718,726,687,730,705,709,710,722,725,726,724,723,716,723,731,740,754,766,759,733,731,732,740,751,743,723,741,732,721,726,725,784,782,789,803,831,912,1026,1141,1223,1258,1258,1238,1219,1199,1198,1160,1169,1122,1102,1077,1063,1044,1024,1005,990,966,947,923,908,888,871,845,830,807,795,795,797,799,795,804,804,820,809,813,815,818,815,818,806,807,802,807,820,827,830,824,813,827,828,810,817,808,816,821,804,766,808,810,812,831,912,1032,1087,1157,1196,1261,1179,1162,1205,1186,1163,1182,1120,1067,1106,1030,1056,1038,1018,1009,981,962,972,925,907,894,869,857,832,780,816,818,820,809,807,798,802,817,825,815,833,839,855,833,843,825,830,828,839,825,839,868,837,833,869,839,846,840,840,839,924,913,921,977,1064,1120,1229,1330,1404,1455,1431,1431,1394,1386,1403,1412,1342,1301,1259,1238,1258,1205,1213,1174,1130,1108,1131,1064,1043,1022,1050,992,996,937,940,929,976,927,950,950,998,1250,1005,935,988,1080,1014,961,1055,1029,978,986,1062,1042,1028,943,969,971,1014,1016,952,997,969,966,977,1559,1648,1741,1780,1867,2106,2254,2386,2473,2384,2448,2338,2376,2402,2252,2248,2396,2345,2077,2178,2070,1995,1959,1930,1929,1903,1819,1827,1817,1717,1683,1590,1668,1570,1535,1544,1649,1595,1720,1717,1720,1728,1726,1735,1738,1758,1740,1746,1741,1746,1750,1751,1757,1754,1764,1778,1761,1769,1764,1756,1770,1773,1766,1774,1762,882,908,892,915,993,1092,1247,1364,1386,1420,1434,1431,1396,1405,1372,1406,1351,1330,1250,1295,1204,1204,1194,1197,1166,1170,1106,1072,1062,1036,1000,991,1004,910,898,926,932,921,953,923,923,931,919,930,925,930,943,1004,934,950,959,957,948,965,977,950,939,944,952,963,947,952,960,968,955,0,0,0,0,0,0,0,0,0,0,0,0,0,0,0,0,0,0,0,0,0,0,0,0,0,0,0,0,0,0,0,0,0,0,0,0,0,0,0,0,0,0,0,0,0,0,0,0,0,0,0,0,0,0,0,0,0,0,0,0,0,0,0,0,0,982,991,988,1012,1061,1157,1264,1424,1451,1465,1511,1447,1427,1408,1389,1370,1351,1332,1313,1293,1310,1255,1236,1217,1198,1179,1230,1149,1126,1115,1140,1036,1029,1007,994,995,1038,1000,1006,1016,1019,1032,1061,1032,1030,1062,1023,1043,1029,1040,1024,1039,1053,1067,1221,1153,1063,1052,1045,1035,1024,1027,1043,1038,1022,1596,1634,1734,1827,2023,2318,2400,2543,2633,2616,2531,2502,2480,2506,2478,2403,2399,2277,2219,2247,2160,2121,2110,2073,2004,1984,1933,1886,1835,1826,1730,1692,1741,1721,1645,1650,1676,1663,1841,1805,1822,1874,1833,1846,1824,1878,1866,1863,1872,1861,1953,1972,2079,1923,1866,1848,1879,1871,1850,1835,1857,1869,1856,1871,1845,1671,1720,1712,1859,2109,2439,2588,2792,2802,2976,2844,2778,2671,2792,2628,2602,2524,2426,2378,2329,2280,2231,2182,2403,2194,2303,2168,1937,1889,1840,1828,1786,1708,1734,1668,1698,1722,1763,1910,1903,1926,2002,1927,1899,1938,1975,1937,1923,1937,1939,2011,2009,1972,1940,1956,1964,1983,2041,2049,1961,1978,2070,2061,2031,1985,1419,1418,1416,1478,1660,1922,2164,2321,2397,2404,2378,2348,2293,2250,2204,2165,2121,2165,2121,2042,1963,1909,1971,1922,1789,1784,1696,1687,1643,1568,1524,1514,1445,1416,1412,1451,1450,1476,1566,1506,1505,1526,1511,1540,1531,1531,1557,1611,1539,1560,1643,1552,1558,1634,1558,1547,1543,1556,1637,1708,1742,1777,1771,1602,1593,513,515,516,517,522,558,618,678,746,780,787,835,773,754,743,732,721,710,699,688,677,666,655,649,633,622,611,600,589,577,566,555,548,533,523,520,524,526,516,510,519,538,525,524,518,526,525,531,536,523,534,563,584,564,557,538,519,546,526,519,518,544,533,545,523,877,879,880,886,983,1127,1322,1494,1587,1609,1621,1565,1535,1505,1551,1445,1415,1385,1377,1347,1294,1367,1234,1204,1174,1144,1114,1103,1117,1023,993,963,933,904,890,892,899,905,942,935,915,923,919,935,928,938,940,999,944,962,962,967,951,1013,976,935,937,934,960,975,948,971,973,968,946,1101,1168,1100,1127,1258,1453,1678,1833,1949,1965,1935,1899,1877,1832,1807,1776,1724,1678,1668,1633,1571,1564,1503,1461,1427,1474,1439,1350,1315,1258,1231,1197,1160,1130,1121,1184,1126,1199,1183,1176,1180,1183,1175,1189,1184,1182,1199,1274,1191,1203,1212,1213,1215,1226,1236,1225,1211,1214,1213,1225,1221,1219,1221,1233,1230,1194,1196,1203,1286,1366,1590,1795,1954,2100,2058,2038,2004,2020,1983,1891,1854,1872,1834,1747,1711,1674,1634,1600,1603,1524,1488,1451,1417,1420,1341,1304,1304,1232,1260,1210,1213,1223,1228,1252,1269,1272,1273,1390,1262,1268,1273,1272,1310,1371,1379,1314,1294,1297,1283,1437,1334,1295,1303,1414,1327,1320,1292,1336,1313,1333,1471,1477,1496,1663,1765,2065,2294,2523,2521,2541,2508,2524,2498,2413,2381,2288,2229,2236,2180,2142,2051,2026,2006,1953,1906,1894,1811,1739,1699,1666,1605,1561,1533,1521,1482,1531,1499,1529,1596,1593,1603,1605,1605,1594,1614,1629,1606,1609,1617,1619,1698,1693,1642,1621,1640,1667,1662,1728,1725,1623,1664,1744,1747,1713,1654,1325,1324,1306,1360,1515,1765,2012,2173,2251,2261,2237,2202,2156,2115,2078,2035,1999,2024,1956,1922,1837,1792,1797,1752,1671,1670,1590,1584,1543,1469,1429,1419,1351,1321,1311,1355,1354,1374,1411,1422,1369,1382,1414,1407,1405,1426,1426,1424,1468,1420,1424,1435,1440,1441,1415,1457,1475,1453,1482,1457,1433,1443,1476,1418,1421,992,1042,984,1056,1059,1173,1313,1438,1483,1540,1534,1480,1541,1464,1441,1496,1395,1480,1322,1326,1303,1280,1231,1233,1227,1187,1164,1141,1118,1095,1072,1049,1026,985,974,992,995,997,1001,1015,1013,1093,1044,1034,1032,1015,1024,1049,1032,1038,1046,1036,1013,1015,1029,1043,1022,1023,1043,1035,1037,1022,1047,1026,1024,0,0,0,0,0,0,0,0,0,0,0,0,0,0,0,0,0,0,0,0,0,0,0,0,0,0,0,0,0,0,0,0,0,0,0,0,0,0,0,0,0,0,0,0,0,0,0,0,0,0,0,0,0,0,0,0,0,0,0,0,0,0,0,0,0,1671,1720,1712,1859,2109,2439,2588,2792,2802,2976,2844,2778,2671,2792,2628,2602,2524,2426,2378,2329,2280,2231,2182,2403,2194,2303,2168,1937,1889,1840,1828,1786,1708,1734,1668,1698,1722,1763,1910,1903,1926,2002,1927,1899,1938,1975,1937,1923,1937,1939,2011,2009,1972,1940,1956,1964,1983,2041,2049,1961,1978,2070,2061,2031,1985,0,0,0,0,0,0,0,0,0,0,0,0,0,0,0,0,0,0,0,0,0,0,0,0,0,0,0,0,0,0,0,0,0,0,0,0,0,0,0,0,0,0,0,0,0,0,0,0,0,0,0,0,0,0,0,0,0,0,0,0,0,0,0,0,0,749,752,754,757,787,871,1014,1103,1203,1279,1230,1212,1181,1161,1226,1132,1160,1150,1073,1053,1033,1014,994,976,955,957,916,888,914,857,837,845,816,778,764,761,814,765,774,756,758,762,759,786,776,769,774,777,799,782,785,781,781,798,808,783,783,801,794,804,793,784,809,827,808,1637,1640,1694,1899,2320,2593,2937,2888,2922,3071,2959,3015,2821,2829,2738,2677,2624,2599,2549,2475,2542,2362,2320,2345,2241,2170,2100,2015,2000,1909,1841,1749,1764,1732,1654,1782,1684,1702,1966,1956,1923,1943,1945,1995,2017,2034,2001,2093,1993,2003,1985,2046,2032,2086,2052,2038,2035,2033,2025,2039,2017,2026,1992,2000,1955,1104,1014,1069,1190,1104,1358,1404,1540,1792,1650,1659,1622,1640,1561,1586,1554,1482,1501,1444,1404,1378,1410,1361,1342,1334,1361,1352,1195,1169,1192,1189,1112,1064,1042,1080,1026,1029,1031,1078,1090,1065,1075,1066,1097,1078,1092,1104,1160,1084,1119,1108,1116,1095,1164,1124,1084,1080,1074,1098,1116,1106,1134,1120,1123,1096,1118,1027,1076,1139,1107,1277,1385,1522,1665,1633,1631,1658,1634,1576,1606,1525,1480,1488,1462,1405,1379,1414,1347,1366,1296,1282,1302,1203,1178,1181,1128,1114,1078,1055,1040,1083,1067,1091,1063,1077,1088,1100,1092,1110,1092,1103,1078,1092,1087,1081,1083,1096,1101,1108,1101,1114,1095,1103,1112,1097,1088,1081,1093,1099,1078,939,969,985,956,1007,1129,1344,1421,1537,1581,1527,1503,1545,1454,1430,1405,1432,1354,1325,1313,1288,1259,1235,1236,1249,1210,1197,1131,1093,1065,1049,1039,1030,973,978,969,1007,958,963,1007,973,983,985,973,977,988,993,986,1003,977,983,989,989,994,1001,1013,1003,1000,1012,991,1013,1043,1058,1030,1029,830,837,835,840,880,978,1108,1236,1324,1361,1359,1337,1315,1294,1272,1250,1228,1207,1185,1163,1142,1126,1098,1076,1055,1033,1011,989,968,946,924,902,881,860,846,843,845,847,840,882,841,844,862,846,854,858,859,874,870,854,867,858,867,863,868,874,868,874,900,859,874,874,891,871,863,760,761,773,774,800,897,1031,1135,1227,1265,1247,1229,1207,1191,1180,1153,1134,1170,1099,1068,1059,1028,1008,973,979,977,928,908,893,875,834,818,831,789,784,772,783,776,782,779,782,784,784,802,821,818,794,804,810,804,797,798,794,823,812,807,799,793,786,799,797,800,793,825,795,1592,1557,1699,1730,1970,2219,2333,2449,2495,2519,2470,2411,2401,2436,2352,2324,2229,2202,2132,2091,2126,2015,2014,2024,1904,1917,1872,1775,1750,1766,1708,1726,1616,1691,1590,1636,1596,1642,1746,1801,1746,1773,1770,1755,1778,1801,1782,1790,1800,1769,1771,1777,1792,1792,1797,1816,1797,1801,1822,1776,1808,1819,1826,1789,1787,1677,1701,1759,1936,2349,2706,2899,2992,3050,3025,3048,2954,2914,2892,2795,2753,2697,2636,2589,2514,2485,2419,2373,2277,2260,2197,2167,2121,2056,1942,1947,1818,1757,1726,1720,1787,1757,1866,2076,2049,2079,2129,2123,2170,2110,2106,2116,2140,2168,2127,2126,2170,2194,2198,2136,2121,2125,2136,2121,2131,2110,2144,2127,2145,2115,0,0,0,0,0,0,0,0,0,0,0,0,0,0,0,0,0,0,0,0,0,0,0,0,0,0,0,0,0,0,0,0,0,0,0,0,0,0,0,0,0,0,0,0,0,0,0,0,0,0,0,0,0,0,0,0,0,0,0,0,0,0,0,0,0 ]);
