n = 10;
D = [298,146,245,202,130,102,150,62,189,237 ];
q = 0;
prec = array2d(1..0,1..2,[]);
steps = 64;
l = 360;
r = 0;
which = [];
interval = array2d(1..0,1..2,[]);
T = array3d(1..11,1..11,0..64,[0,0,0,0,0,0,0,0,0,0,0,0,0,0,0,0,0,0,0,0,0,0,0,0,0,0,0,0,0,0,0,0,0,0,0,0,0,0,0,0,0,0,0,0,0,0,0,0,0,0,0,0,0,0,0,0,0,0,0,0,0,0,0,0,0,1278,1281,1296,1340,1642,2058,2416,2527,2606,2637,2635,2567,2540,2476,2445,2399,2340,2322,2286,2225,2182,2139,2069,2042,2003,1956,1903,1862,1631,1575,1543,1359,1330,1312,1309,1312,1324,1292,1284,1289,1294,1318,1306,1307,1307,1316,1327,1324,1311,1316,1332,1330,1337,1339,1334,1334,1335,1330,1331,1333,1339,1355,1344,1349,1335,1175,1179,1184,1207,1342,1626,2007,2154,2268,2309,2307,2262,2246,2180,2151,2116,2079,2053,2008,1987,1938,1906,1875,1831,1800,1750,1658,1618,1531,1367,1346,1306,1244,1196,1205,1199,1136,1144,1111,1118,1123,1122,1131,1133,1142,1135,1128,1134,1135,1147,1137,1132,1131,1138,1136,1140,1145,1141,1137,1139,1137,1136,1137,1138,1138,732,731,734,735,787,1000,1134,1271,1416,1460,1476,1437,1466,1387,1378,1340,1307,1307,1276,1246,1224,1204,1189,1155,1147,1113,1085,1062,1039,1016,987,898,879,756,757,735,746,744,728,726,729,738,741,734,737,734,741,742,744,748,762,759,762,767,754,753,751,769,752,740,762,740,749,752,752,853,855,855,860,932,1094,1359,1474,1610,1661,1657,1632,1624,1565,1555,1538,1507,1497,1456,1443,1416,1384,1367,1333,1320,1259,1262,1232,1186,1176,1072,995,900,865,873,880,853,819,791,796,792,797,809,807,823,814,807,813,814,826,816,811,810,817,815,819,824,820,816,818,816,815,816,817,817,467,468,470,471,481,608,687,766,844,917,935,929,906,891,885,862,847,840,818,809,788,773,766,744,729,715,707,685,671,656,641,618,603,488,477,473,475,438,414,416,410,413,420,420,435,430,418,422,423,437,426,419,420,429,425,427,430,428,424,428,425,428,430,432,432,637,637,640,648,659,851,1009,1134,1237,1282,1284,1259,1242,1222,1200,1180,1161,1138,1120,1099,1078,1064,1036,1013,997,976,950,909,889,868,852,768,732,664,647,652,654,611,604,604,609,618,616,619,609,622,611,615,616,616,616,620,627,632,629,628,626,622,627,625,628,645,629,649,628,441,442,444,445,451,517,647,724,797,868,889,876,862,846,833,819,805,791,777,763,750,734,720,707,693,678,665,651,636,623,582,568,556,524,488,447,448,447,396,401,399,402,430,425,413,436,422,433,436,416,452,409,412,430,419,410,438,416,416,417,417,417,417,416,416,946,930,950,960,1051,1267,1560,1669,1807,1873,1837,1830,1800,1766,1751,1707,1679,1654,1602,1596,1566,1561,1508,1515,1464,1432,1391,1360,1314,1254,1171,1030,1006,981,985,981,951,943,944,936,938,943,945,943,948,962,952,961,963,946,956,963,968,978,982,967,964,976,967,978,979,966,953,951,951,825,827,828,832,911,1060,1325,1440,1576,1627,1623,1598,1590,1531,1520,1504,1473,1463,1421,1409,1382,1350,1332,1299,1286,1225,1228,1197,1152,1142,1080,957,872,837,845,852,816,785,758,762,758,764,774,773,788,779,772,778,779,791,781,776,775,782,780,784,789,785,781,783,781,780,781,782,782,0,0,0,0,0,0,0,0,0,0,0,0,0,0,0,0,0,0,0,0,0,0,0,0,0,0,0,0,0,0,0,0,0,0,0,0,0,0,0,0,0,0,0,0,0,0,0,0,0,0,0,0,0,0,0,0,0,0,0,0,0,0,0,0,0,1205,1208,1222,1298,1449,1924,2214,2390,2473,2513,2483,2440,2398,2355,2323,2269,2254,2196,2140,2112,2069,2012,1968,1934,1891,1840,1812,1754,1710,1535,1330,1295,1294,1251,1233,1217,1199,1196,1191,1191,1189,1204,1201,1196,1195,1224,1189,1197,1195,1194,1197,1220,1205,1199,1229,1203,1205,1205,1222,1227,1197,1202,1200,1201,1194,0,0,0,0,0,0,0,0,0,0,0,0,0,0,0,0,0,0,0,0,0,0,0,0,0,0,0,0,0,0,0,0,0,0,0,0,0,0,0,0,0,0,0,0,0,0,0,0,0,0,0,0,0,0,0,0,0,0,0,0,0,0,0,0,0,837,842,842,861,903,1055,1337,1476,1600,1652,1662,1626,1611,1584,1557,1538,1505,1479,1453,1428,1403,1381,1348,1322,1296,1273,1247,1224,1181,1067,1035,961,891,884,864,858,820,819,786,785,783,780,790,794,790,798,794,788,800,800,804,803,813,816,808,818,812,813,814,811,803,804,804,804,804,1148,1151,1156,1165,1335,1666,2056,2218,2345,2411,2392,2353,2339,2275,2236,2198,2160,2141,2087,2050,2011,1972,1933,1883,1837,1791,1752,1700,1550,1436,1322,1242,1206,1179,1169,1165,1178,1179,1170,1162,1165,1170,1173,1176,1183,1190,1186,1185,1192,1193,1193,1189,1190,1199,1196,1199,1187,1195,1196,1196,1198,1200,1191,1201,1197,822,815,827,829,865,1186,1343,1544,1657,1707,1707,1677,1645,1623,1594,1563,1534,1492,1480,1454,1423,1397,1365,1339,1306,1278,1258,1218,1189,1159,974,935,911,852,853,825,806,783,778,786,774,771,784,775,791,790,790,782,794,797,790,794,810,786,789,780,788,805,792,790,790,810,796,787,786,1093,1068,1070,1107,1284,1670,1908,2149,2196,2230,2214,2177,2137,2098,2114,2022,1984,1944,1905,1866,1830,1797,1802,1716,1677,1639,1644,1603,1522,1455,1205,1152,1122,1098,1081,1080,1021,1026,1015,1016,1037,1034,1030,1043,1027,1047,1036,1047,1040,1035,1039,1053,1050,1042,1079,1053,1048,1055,1054,1069,1047,1052,1050,1051,1044,779,782,783,814,826,1170,1356,1534,1647,1694,1686,1656,1625,1595,1565,1534,1525,1492,1443,1427,1382,1353,1346,1292,1261,1230,1201,1170,1140,1109,991,962,957,810,793,792,794,779,775,778,777,787,785,780,781,808,772,780,779,777,779,816,787,788,811,788,785,785,815,813,779,782,786,789,782,1306,1300,1304,1345,1609,2109,2372,2577,2638,2666,2582,2602,2549,2452,2489,2417,2372,2322,2279,2180,2149,2103,2119,2055,2010,1965,1860,1823,1730,1606,1448,1386,1352,1331,1315,1315,1276,1273,1268,1268,1266,1281,1278,1273,1272,1301,1266,1274,1272,1271,1274,1297,1282,1276,1306,1280,1282,1282,1299,1304,1274,1279,1277,1278,1271,648,649,652,652,670,908,1042,1204,1323,1375,1377,1349,1326,1302,1278,1255,1230,1208,1184,1159,1136,1112,1087,1063,1040,1016,992,974,949,925,897,714,694,675,659,657,661,621,616,624,612,609,622,613,625,626,628,619,624,625,623,626,647,619,629,617,626,641,624,622,628,647,629,625,624,815,804,819,805,852,1166,1325,1510,1624,1675,1674,1647,1618,1593,1565,1537,1511,1473,1455,1418,1403,1380,1350,1305,1277,1246,1219,1216,1175,1120,1010,891,886,828,812,838,791,767,764,773,761,757,770,761,776,775,776,767,780,783,779,780,799,769,774,766,774,789,777,776,776,797,782,773,772,1205,1208,1222,1298,1449,1924,2214,2390,2473,2513,2483,2440,2398,2355,2323,2269,2254,2196,2140,2112,2069,2012,1968,1934,1891,1840,1812,1754,1710,1535,1330,1295,1294,1251,1233,1217,1199,1196,1191,1191,1189,1204,1201,1196,1195,1224,1189,1197,1195,1194,1197,1220,1205,1199,1229,1203,1205,1205,1222,1227,1197,1202,1200,1201,1194,1197,1199,1206,1227,1452,1796,1997,2200,2276,2302,2262,2247,2215,2179,2130,2129,2082,2054,2020,1952,1949,1878,1842,1818,1775,1779,1703,1678,1523,1352,1314,1269,1225,1216,1207,1199,1185,1162,1162,1161,1168,1169,1167,1167,1174,1174,1166,1173,1173,1173,1173,1173,1173,1173,1173,1173,1173,1173,1173,1173,1173,1173,1173,1173,1173,783,786,789,794,866,1118,1279,1412,1511,1565,1565,1541,1512,1514,1472,1437,1413,1388,1362,1338,1316,1289,1263,1238,1214,1189,1164,1139,1115,1090,1064,898,887,811,799,796,798,802,776,777,772,796,784,773,782,798,785,798,793,801,789,787,779,779,784,794,779,783,778,778,778,778,778,778,778,0,0,0,0,0,0,0,0,0,0,0,0,0,0,0,0,0,0,0,0,0,0,0,0,0,0,0,0,0,0,0,0,0,0,0,0,0,0,0,0,0,0,0,0,0,0,0,0,0,0,0,0,0,0,0,0,0,0,0,0,0,0,0,0,0,753,756,757,789,862,1005,1235,1332,1419,1463,1452,1439,1421,1398,1375,1354,1332,1298,1293,1254,1250,1211,1211,1168,1145,1122,1101,1079,1057,1031,831,935,795,811,825,778,767,729,725,725,725,726,726,726,726,726,725,726,726,726,726,726,726,726,726,726,726,726,726,726,726,726,726,726,726,558,549,549,552,570,734,799,888,958,998,1019,1005,979,966,953,941,924,916,903,891,869,859,852,839,816,818,775,774,776,746,733,706,640,566,597,553,595,518,511,512,512,512,514,517,516,515,514,512,512,512,512,512,512,512,512,512,512,512,512,512,512,512,512,512,512,895,893,893,890,952,1248,1381,1581,1670,1703,1701,1680,1653,1631,1611,1590,1577,1545,1523,1453,1469,1402,1380,1348,1319,1321,1266,1243,1137,1082,978,955,960,912,896,900,839,816,806,807,812,813,823,822,816,821,823,821,820,824,816,826,824,824,826,821,824,824,815,815,815,815,815,815,815,955,958,964,996,1111,1398,1521,1738,1814,1863,1845,1830,1778,1742,1731,1735,1708,1673,1639,1588,1589,1514,1488,1456,1423,1435,1376,1359,1236,1203,1174,1086,999,984,976,977,941,915,914,923,913,915,917,920,924,919,919,921,921,921,921,921,921,921,921,921,921,921,921,921,921,921,921,921,921,1137,1115,1136,1133,1293,1657,1863,2065,2141,2175,2095,2127,2077,2064,2043,2019,1960,1926,1923,1853,1830,1782,1737,1690,1675,1657,1584,1543,1442,1349,1260,1218,1196,1161,1111,1120,1100,1075,1070,1078,1074,1076,1089,1092,1081,1085,1089,1087,1087,1088,1084,1096,1091,1091,1091,1090,1090,1088,1082,1081,1081,1081,1081,1081,1081,588,572,573,575,594,764,851,994,1037,1074,1078,1062,1047,1031,1016,1001,984,1003,953,938,922,907,892,876,861,919,830,815,798,783,767,752,678,663,580,577,579,580,564,559,574,578,565,578,569,575,569,573,578,573,566,571,570,578,573,576,571,575,572,572,572,572,572,572,572,568,548,561,549,564,751,800,924,984,1027,1032,1024,1005,992,977,964,950,937,922,909,905,862,845,847,823,843,764,764,786,756,741,655,606,592,568,571,565,481,477,479,478,478,481,482,482,480,479,477,477,477,477,477,477,477,477,477,477,477,477,477,477,477,477,477,477,1197,1199,1206,1227,1452,1796,1997,2200,2276,2302,2262,2247,2215,2179,2130,2129,2082,2054,2020,1952,1949,1878,1842,1818,1775,1779,1703,1678,1523,1352,1314,1269,1225,1216,1207,1199,1185,1162,1162,1161,1168,1169,1167,1167,1174,1174,1166,1173,1173,1173,1173,1173,1173,1173,1173,1173,1173,1173,1173,1173,1173,1173,1173,1173,1173,704,705,711,711,729,996,1139,1266,1367,1411,1427,1402,1365,1338,1320,1298,1272,1248,1245,1207,1185,1177,1140,1143,1125,1089,1050,1027,1005,1002,960,867,835,733,718,715,717,685,703,701,713,723,712,707,705,713,719,733,726,727,727,734,761,747,733,724,721,734,723,717,711,736,724,734,726,1107,1128,1134,1182,1257,1722,1951,2156,2308,2364,2313,2277,2249,2206,2165,2129,2095,2055,2040,1984,1926,1937,1901,1819,1806,1733,1713,1672,1527,1385,1308,1217,1164,1137,1144,1128,1167,1161,1160,1181,1173,1193,1190,1177,1196,1184,1181,1183,1185,1181,1185,1204,1201,1200,1194,1192,1192,1184,1196,1200,1199,1199,1199,1199,1199,703,705,706,709,713,939,1099,1202,1352,1404,1388,1384,1344,1333,1311,1279,1290,1235,1214,1192,1168,1183,1141,1105,1083,1097,1041,1023,996,979,901,906,849,737,738,711,733,736,680,680,681,698,694,685,690,706,695,691,705,705,718,718,738,750,689,689,701,698,694,697,695,695,695,695,695,0,0,0,0,0,0,0,0,0,0,0,0,0,0,0,0,0,0,0,0,0,0,0,0,0,0,0,0,0,0,0,0,0,0,0,0,0,0,0,0,0,0,0,0,0,0,0,0,0,0,0,0,0,0,0,0,0,0,0,0,0,0,0,0,0,654,655,658,659,664,822,975,1094,1221,1268,1289,1269,1248,1229,1208,1184,1165,1148,1128,1108,1087,1078,1047,1044,1008,993,979,949,929,880,863,747,746,691,666,666,665,627,567,567,569,573,573,575,577,576,576,577,578,579,580,590,586,584,582,583,585,585,585,587,583,583,583,583,583,406,407,409,410,412,543,645,719,753,847,816,843,789,777,764,751,739,726,748,700,687,675,694,650,636,697,641,598,585,600,559,547,534,426,433,413,414,413,405,406,404,405,406,409,407,412,407,409,408,406,409,408,409,412,409,411,410,410,409,409,409,410,408,412,409,775,786,779,785,813,1027,1226,1380,1493,1551,1559,1537,1515,1484,1449,1437,1408,1383,1356,1323,1304,1274,1258,1233,1210,1192,1164,1124,1105,1061,928,880,834,816,792,798,773,707,680,677,676,676,682,687,684,688,688,689,689,691,690,691,689,692,688,690,711,692,693,708,694,699,700,698,696,473,475,479,477,482,641,724,808,891,943,950,953,920,902,891,875,861,842,847,816,800,800,771,780,770,753,711,696,680,666,651,647,621,499,484,480,482,450,474,470,478,491,487,480,476,483,481,494,490,494,486,496,532,534,495,491,484,500,487,482,479,493,485,491,483,818,809,822,819,836,1047,1270,1408,1556,1613,1616,1592,1564,1536,1514,1488,1471,1444,1411,1388,1360,1332,1321,1295,1255,1234,1202,1175,1151,981,1030,918,900,863,837,829,831,790,736,738,743,746,747,742,750,743,743,744,745,746,747,757,753,751,749,750,752,752,752,754,750,750,750,750,750,635,627,639,642,644,788,951,1060,1187,1257,1269,1235,1225,1207,1187,1167,1141,1125,1107,1085,1072,1057,1032,1011,992,970,959,921,895,845,829,764,695,689,663,646,646,590,533,534,535,539,540,540,543,541,541,542,543,544,545,555,551,549,547,548,550,550,550,552,548,548,548,548,548,704,705,711,711,729,996,1139,1266,1367,1411,1427,1402,1365,1338,1320,1298,1272,1248,1245,1207,1185,1177,1140,1143,1125,1089,1050,1027,1005,1002,960,867,835,733,718,715,717,685,703,701,713,723,712,707,705,713,719,733,726,727,727,734,761,747,733,724,721,734,723,717,711,736,724,734,726,748,791,743,747,793,1054,1186,1345,1432,1471,1468,1445,1417,1416,1375,1351,1335,1322,1282,1259,1235,1202,1189,1166,1130,1119,1111,1072,1049,1022,999,824,807,756,752,741,743,732,718,718,719,719,719,719,719,719,719,719,719,719,719,719,719,719,719,719,719,719,719,719,719,719,719,719,719,688,689,684,693,703,976,1096,1334,1465,1504,1503,1467,1454,1414,1389,1362,1342,1311,1288,1249,1233,1205,1178,1150,1123,1094,1067,1039,1012,984,957,939,855,715,701,698,716,706,692,691,692,692,692,692,692,692,692,692,692,692,692,692,692,692,692,692,692,692,692,692,692,692,692,692,692,410,411,406,414,393,485,594,665,739,788,778,766,778,766,744,733,739,720,713,682,690,653,675,650,622,625,600,588,578,479,471,426,505,427,410,410,419,415,361,361,361,361,361,361,361,361,361,361,361,361,361,361,361,361,361,361,361,361,361,361,361,361,361,361,361,625,639,629,630,655,752,966,1077,1189,1230,1232,1214,1189,1180,1160,1115,1120,1108,1057,1070,1056,1043,1002,991,964,951,931,904,888,813,819,759,666,649,657,629,648,622,557,557,557,557,557,557,557,557,557,557,557,557,557,557,557,557,557,557,557,557,557,557,557,557,557,557,557,0,0,0,0,0,0,0,0,0,0,0,0,0,0,0,0,0,0,0,0,0,0,0,0,0,0,0,0,0,0,0,0,0,0,0,0,0,0,0,0,0,0,0,0,0,0,0,0,0,0,0,0,0,0,0,0,0,0,0,0,0,0,0,0,0,504,505,507,508,510,636,762,864,947,997,1002,986,971,955,940,924,909,893,877,863,846,831,814,800,784,768,752,737,722,706,690,552,539,526,521,512,512,462,431,431,431,431,431,431,431,431,431,431,431,431,431,431,431,431,431,431,431,431,431,431,431,431,431,431,431,510,512,499,515,517,679,769,885,972,1034,1022,1009,995,974,957,943,926,911,888,877,842,842,831,810,784,759,766,732,734,710,700,663,537,533,523,513,520,477,463,463,463,463,463,463,463,463,463,463,463,463,463,463,463,463,463,463,463,463,463,463,463,463,463,463,463,722,735,735,740,746,979,1145,1305,1413,1462,1423,1430,1409,1325,1365,1340,1261,1295,1231,1251,1225,1203,1128,1106,1134,1110,1088,1065,1036,1019,997,890,809,757,747,745,746,723,690,690,690,690,690,690,690,690,690,690,690,690,690,690,690,690,690,690,690,690,690,690,690,690,690,690,690,225,226,227,227,228,285,332,365,401,425,436,430,437,431,412,405,400,393,388,382,381,375,368,361,354,347,341,333,326,320,308,303,297,291,233,279,230,230,207,207,207,207,207,207,207,207,207,207,207,207,207,207,207,207,207,207,207,207,207,207,207,207,207,207,207,55,55,55,55,55,55,59,62,66,69,72,72,71,70,70,69,68,68,67,67,66,64,64,63,62,62,61,60,60,59,58,58,57,56,56,55,55,55,7,7,7,7,7,7,7,7,7,7,7,7,7,7,7,7,7,7,7,7,7,7,7,7,7,7,7,748,791,743,747,793,1054,1186,1345,1432,1471,1468,1445,1417,1416,1375,1351,1335,1322,1282,1259,1235,1202,1189,1166,1130,1119,1111,1072,1049,1022,999,824,807,756,752,741,743,732,718,718,719,719,719,719,719,719,719,719,719,719,719,719,719,719,719,719,719,719,719,719,719,719,719,719,719,548,556,558,559,574,715,833,959,1065,1103,1143,1122,1094,1065,1058,1040,1021,992,999,981,935,920,895,893,867,857,861,823,812,754,738,721,600,585,601,556,564,568,480,478,483,487,486,486,486,491,489,491,488,487,492,494,497,496,494,488,488,488,488,488,488,488,488,488,488,1010,1013,1016,1037,1150,1409,1766,1996,2094,2133,2123,2082,2044,2006,1978,1934,1891,1860,1811,1785,1747,1709,1672,1634,1597,1559,1521,1483,1437,1362,1133,1090,1060,1038,1028,1027,1033,1067,949,957,959,954,979,968,978,975,961,979,964,966,962,963,974,967,967,963,963,963,963,963,963,963,963,963,963,780,781,787,792,823,966,1239,1373,1496,1540,1561,1517,1493,1468,1444,1414,1390,1385,1347,1319,1328,1273,1248,1237,1218,1184,1162,1109,1054,1031,982,974,874,814,794,789,792,779,701,702,699,704,716,712,710,713,706,710,712,712,710,711,713,711,709,709,709,709,709,709,709,709,709,709,709,463,464,466,468,472,538,700,769,859,931,935,921,909,883,868,853,839,824,817,794,790,775,756,744,728,705,689,683,660,654,639,618,528,495,482,470,480,472,423,425,423,430,430,434,431,440,427,425,429,427,424,428,430,433,431,429,429,429,429,429,429,429,429,429,429,461,463,464,466,468,575,693,768,832,891,904,891,876,863,850,836,822,808,795,782,767,754,740,727,713,699,686,672,658,644,631,592,603,483,472,468,469,464,384,377,379,382,385,387,388,387,385,389,391,391,389,390,392,390,388,388,388,388,388,388,388,388,388,388,388,0,0,0,0,0,0,0,0,0,0,0,0,0,0,0,0,0,0,0,0,0,0,0,0,0,0,0,0,0,0,0,0,0,0,0,0,0,0,0,0,0,0,0,0,0,0,0,0,0,0,0,0,0,0,0,0,0,0,0,0,0,0,0,0,0,514,514,516,522,529,626,765,854,939,1012,1041,1020,1007,993,971,955,941,923,905,890,872,851,845,823,807,790,777,757,717,700,684,626,598,538,530,526,527,487,395,391,392,398,404,404,401,408,392,402,406,403,406,409,411,404,402,404,404,404,404,404,404,404,404,404,404,392,394,396,397,410,507,572,640,698,763,801,783,771,764,752,734,720,708,695,693,671,659,645,634,627,610,595,582,571,557,546,533,521,509,420,407,408,409,348,344,352,361,353,353,357,360,353,353,355,354,359,359,359,360,357,354,354,354,354,354,354,354,354,354,354,625,627,620,621,643,738,950,1063,1163,1215,1236,1204,1185,1167,1158,1129,1118,1100,1072,1059,1039,1019,997,980,961,941,922,902,885,862,843,735,709,692,636,625,627,627,547,543,550,552,550,560,555,560,552,556,558,558,556,557,559,557,555,555,555,555,555,555,555,555,555,555,555,433,435,436,438,441,541,658,734,798,856,870,856,842,829,816,801,788,774,761,748,733,720,706,693,679,665,652,638,624,610,597,557,569,455,444,441,441,427,347,343,346,348,351,354,353,353,350,354,356,356,354,355,357,355,353,353,353,353,353,353,353,353,353,353,353,548,556,558,559,574,715,833,959,1065,1103,1143,1122,1094,1065,1058,1040,1021,992,999,981,935,920,895,893,867,857,861,823,812,754,738,721,600,585,601,556,564,568,480,478,483,487,486,486,486,491,489,491,488,487,492,494,497,496,494,488,488,488,488,488,488,488,488,488,488,493,495,496,498,514,596,776,853,941,991,996,981,981,949,940,934,900,885,885,853,843,830,806,789,782,757,742,753,718,702,687,663,599,541,513,501,502,490,472,471,469,471,473,473,472,474,474,480,472,473,474,475,475,473,479,478,479,477,477,478,478,480,480,492,492,721,712,699,702,793,1042,1238,1384,1525,1533,1525,1498,1498,1431,1414,1387,1358,1350,1302,1274,1247,1283,1191,1180,1135,1107,1079,1051,1024,995,968,939,869,834,702,708,712,716,702,708,721,790,720,730,713,763,713,732,723,713,719,725,733,763,733,729,727,721,763,733,726,730,719,731,721,810,800,816,804,884,1060,1298,1412,1562,1596,1601,1568,1584,1542,1501,1456,1438,1405,1380,1363,1360,1323,1300,1265,1250,1229,1179,1144,1101,1076,1067,920,876,853,809,810,817,754,745,742,745,746,745,740,740,740,740,740,740,740,740,740,740,740,740,740,740,740,740,740,740,740,740,740,740,746,751,761,764,774,944,1159,1295,1410,1501,1507,1466,1414,1427,1407,1363,1333,1328,1318,1278,1249,1240,1212,1187,1153,1116,1087,1097,1076,1037,909,916,819,790,774,762,770,752,683,680,672,680,679,679,679,679,679,679,679,679,679,679,679,679,679,679,679,679,679,679,679,679,679,679,679,520,521,523,529,537,615,791,875,932,985,1017,980,988,953,956,953,917,899,908,874,875,859,843,827,811,796,781,765,748,744,700,650,629,564,538,532,534,488,478,472,474,478,479,473,473,473,473,473,473,473,473,473,473,473,473,473,473,473,473,473,473,473,473,473,473,431,435,436,438,443,506,627,710,783,852,867,866,847,832,819,806,792,772,764,750,737,723,709,696,681,668,655,641,622,618,540,528,516,463,452,442,443,408,354,351,350,351,350,350,350,350,350,350,350,350,350,350,350,350,350,350,350,350,350,350,350,350,350,350,350,0,0,0,0,0,0,0,0,0,0,0,0,0,0,0,0,0,0,0,0,0,0,0,0,0,0,0,0,0,0,0,0,0,0,0,0,0,0,0,0,0,0,0,0,0,0,0,0,0,0,0,0,0,0,0,0,0,0,0,0,0,0,0,0,0,591,604,605,608,613,734,894,1010,1133,1183,1204,1176,1167,1139,1120,1101,1070,1061,1044,1014,986,952,968,957,938,909,893,888,845,752,808,721,682,605,614,585,608,609,581,578,577,578,577,577,577,577,577,577,577,577,577,577,577,577,577,577,577,577,577,577,577,577,577,577,577,466,467,476,470,476,542,709,789,869,931,937,923,917,895,880,865,851,836,819,805,790,775,760,745,730,705,701,686,671,667,631,538,525,513,469,466,474,440,410,412,412,419,419,430,430,430,430,429,430,430,429,429,431,431,430,431,430,430,430,432,430,430,430,428,428,484,486,487,495,494,585,737,819,866,919,951,914,922,887,873,887,872,833,843,827,814,798,783,770,753,738,723,708,694,690,617,605,590,557,495,491,493,473,444,439,440,446,446,443,443,443,443,443,443,443,443,443,443,443,443,443,443,443,443,443,443,443,443,443,443,493,495,496,498,514,596,776,853,941,991,996,981,981,949,940,934,900,885,885,853,843,830,806,789,782,757,742,753,718,702,687,663,599,541,513,501,502,490,472,471,469,471,473,473,472,474,474,480,472,473,474,475,475,473,479,478,479,477,477,478,478,480,480,492,492,242,243,243,243,244,313,355,396,437,478,492,485,477,469,462,453,445,437,430,422,414,407,399,391,382,375,367,359,352,344,336,328,321,312,304,245,301,301,236,229,231,235,301,225,227,229,230,243,244,241,237,342,238,230,345,238,233,237,238,236,235,232,243,239,243,1287,1314,1320,1387,1673,2061,2383,2566,2631,2710,2679,2610,2590,2490,2483,2425,2401,2373,2262,2245,2147,2181,2118,2102,2017,1945,1966,1882,1631,1458,1474,1402,1374,1365,1328,1329,1349,1323,1322,1330,1332,1351,1351,1343,1349,1348,1362,1359,1352,1353,1356,1380,1369,1371,1369,1371,1363,1365,1372,1370,1363,1373,1375,1370,1366,1166,1187,1195,1218,1332,1629,2056,2206,2309,2350,2336,2269,2237,2206,2173,2139,2100,2031,1999,1988,1959,1895,1885,1843,1805,1775,1662,1627,1489,1413,1364,1281,1235,1245,1191,1194,1157,1150,1094,1105,1114,1118,1120,1124,1114,1123,1113,1147,1123,1144,1119,1125,1149,1148,1127,1130,1134,1134,1133,1129,1130,1127,1118,1120,1117,658,664,702,670,689,915,1063,1198,1261,1371,1340,1298,1330,1255,1234,1213,1199,1211,1192,1148,1158,1113,1085,1091,1049,1003,1022,961,967,919,924,837,701,690,696,662,695,663,672,666,665,669,674,680,678,671,675,680,686,688,688,680,673,680,681,687,682,681,674,677,678,678,686,679,659,846,864,871,873,900,1097,1397,1526,1654,1702,1698,1643,1609,1613,1592,1555,1527,1477,1450,1459,1432,1377,1371,1349,1326,1300,1267,1240,1214,1104,1067,996,908,921,864,877,874,825,774,783,783,793,798,798,793,802,792,826,802,823,798,804,828,827,806,809,813,813,812,808,809,806,797,799,796,453,454,456,457,458,584,692,768,844,903,912,897,883,868,853,840,825,811,795,783,767,753,738,724,709,695,681,665,653,637,626,615,503,484,473,459,460,444,397,403,401,409,409,411,405,417,403,435,411,435,408,412,438,439,416,417,419,421,420,418,418,419,411,413,410,676,678,686,688,720,914,1080,1198,1309,1361,1351,1338,1316,1295,1273,1256,1230,1207,1186,1162,1149,1121,1100,1077,1061,1027,1017,965,945,922,901,746,725,707,718,692,693,654,642,645,647,651,653,655,651,654,652,666,657,658,658,660,669,669,668,665,676,664,668,667,690,673,662,670,666,0,0,0,0,0,0,0,0,0,0,0,0,0,0,0,0,0,0,0,0,0,0,0,0,0,0,0,0,0,0,0,0,0,0,0,0,0,0,0,0,0,0,0,0,0,0,0,0,0,0,0,0,0,0,0,0,0,0,0,0,0,0,0,0,0,956,957,962,970,1039,1270,1561,1721,1835,1883,1874,1829,1791,1786,1763,1760,1705,1675,1644,1586,1579,1569,1544,1502,1474,1442,1434,1410,1314,1115,1134,1065,1025,994,959,973,971,952,940,953,953,959,965,957,960,969,959,979,969,987,965,971,979,980,973,969,980,980,978,975,976,973,964,966,963,819,836,843,845,872,1063,1363,1492,1620,1668,1664,1609,1575,1579,1557,1521,1493,1443,1416,1417,1398,1343,1337,1315,1292,1266,1233,1206,1180,1069,1009,961,880,893,836,849,837,791,741,749,749,760,763,764,758,767,757,791,767,788,763,769,793,792,771,774,778,778,777,773,774,771,762,764,761,242,243,243,243,244,313,355,396,437,478,492,485,477,469,462,453,445,437,430,422,414,407,399,391,382,375,367,359,352,344,336,328,321,312,304,245,301,301,236,229,231,235,301,225,227,229,230,243,244,241,237,342,238,230,345,238,233,237,238,236,235,232,243,239,243,818,799,806,808,855,1139,1296,1446,1541,1593,1606,1568,1542,1512,1476,1469,1459,1414,1399,1357,1338,1313,1284,1265,1236,1214,1185,1171,1120,1108,900,878,845,817,824,818,800,795,766,761,767,773,775,766,772,794,771,775,768,772,770,784,782,782,778,782,780,777,783,795,778,795,766,776,773,575,570,578,577,612,765,896,1028,1234,1281,1279,1255,1232,1207,1211,1161,1137,1112,1090,1065,1032,1017,996,979,949,925,902,877,854,830,807,784,621,621,602,578,588,607,568,566,569,573,575,584,577,582,577,577,591,577,574,578,576,583,578,580,579,579,579,582,577,586,578,638,582,435,435,434,436,445,573,683,733,809,861,869,855,841,825,814,800,792,773,759,745,748,733,708,699,677,663,646,643,633,612,595,580,576,457,442,441,440,441,428,415,416,426,424,434,426,437,430,437,437,428,432,422,422,437,438,425,427,427,421,431,432,432,432,444,433,816,821,835,837,866,1069,1272,1446,1559,1601,1601,1567,1560,1535,1496,1498,1477,1452,1420,1404,1364,1356,1309,1301,1274,1240,1217,1182,1074,1041,1008,910,881,848,840,837,837,781,702,706,716,736,714,715,712,715,707,717,710,713,721,726,725,749,724,715,713,714,726,724,728,744,716,726,712,242,242,245,246,254,274,344,377,395,418,437,433,428,423,419,414,411,406,401,398,392,387,391,384,384,378,369,363,355,348,334,292,320,256,273,255,255,256,167,167,165,167,168,168,168,172,168,170,168,175,175,178,170,198,169,168,166,168,174,176,177,197,174,176,169,563,565,568,569,571,662,867,966,1059,1120,1142,1114,1093,1075,1059,1040,1021,1004,986,969,951,933,915,897,882,862,844,826,808,791,773,636,603,588,586,573,574,524,473,470,480,481,494,499,484,498,499,501,495,492,496,491,491,507,489,485,496,498,486,488,489,500,488,498,494,556,572,568,573,591,769,888,987,1088,1139,1166,1119,1110,1096,1079,1055,1037,1007,1007,982,970,945,915,914,891,873,856,828,820,793,784,753,628,598,585,577,582,549,527,511,521,525,522,529,515,529,523,519,530,524,515,514,513,516,521,517,515,517,518,519,516,518,524,531,517,792,795,796,801,807,995,1263,1406,1527,1585,1592,1558,1529,1510,1438,1449,1374,1347,1378,1349,1328,1303,1231,1206,1232,1155,1178,1155,1122,1104,1070,891,808,821,786,782,775,785,732,734,751,747,757,768,755,763,764,767,761,763,767,762,762,777,756,752,767,769,753,758,760,770,759,768,764,0,0,0,0,0,0,0,0,0,0,0,0,0,0,0,0,0,0,0,0,0,0,0,0,0,0,0,0,0,0,0,0,0,0,0,0,0,0,0,0,0,0,0,0,0,0,0,0,0,0,0,0,0,0,0,0,0,0,0,0,0,0,0,0,0,208,208,212,219,220,224,294,311,329,352,371,367,362,357,353,348,345,340,335,332,326,321,336,330,325,317,312,305,299,287,287,281,273,231,225,220,221,221,152,151,151,154,154,154,154,156,153,155,154,160,161,164,158,178,158,151,151,154,160,160,162,183,160,163,155,818,799,806,808,855,1139,1296,1446,1541,1593,1606,1568,1542,1512,1476,1469,1459,1414,1399,1357,1338,1313,1284,1265,1236,1214,1185,1171,1120,1108,900,878,845,817,824,818,800,795,766,761,767,773,775,766,772,794,771,775,768,772,770,784,782,782,778,782,780,777,783,795,778,795,766,776,773,767,791,772,794,814,1104,1243,1389,1477,1505,1502,1528,1459,1436,1405,1382,1359,1336,1313,1296,1267,1244,1221,1213,1190,1151,1128,1119,1089,1055,995,907,801,812,772,778,778,762,737,726,730,732,748,743,748,742,746,744,740,740,747,732,737,748,748,739,752,733,732,747,746,749,751,748,748,692,694,697,696,698,950,1170,1318,1447,1483,1500,1455,1420,1382,1395,1332,1318,1292,1274,1248,1246,1195,1169,1142,1120,1094,1067,1061,1010,968,942,915,830,719,727,724,705,702,689,689,690,702,686,704,700,702,701,705,719,698,701,700,699,710,704,706,703,704,701,699,703,706,702,733,733,405,407,408,435,447,467,584,652,715,768,785,780,759,731,735,737,721,706,672,660,649,638,660,636,626,612,602,590,578,490,482,509,480,472,444,415,414,414,362,363,365,368,365,367,363,366,363,367,364,363,364,364,366,368,366,365,366,364,366,366,365,367,362,364,363,654,632,667,678,684,796,1003,1129,1226,1265,1264,1246,1219,1221,1192,1168,1169,1139,1128,1096,1089,1062,1058,1023,997,984,979,931,905,825,838,738,693,697,681,664,665,656,575,579,591,612,586,587,584,585,580,590,582,579,586,587,598,596,599,590,588,586,592,590,592,588,581,587,587,83,83,83,83,83,83,83,83,83,83,83,83,83,83,83,83,83,83,83,83,83,83,83,83,83,83,83,83,83,83,83,83,83,83,83,83,83,83,48,46,46,48,48,46,46,46,46,46,46,46,48,46,46,46,46,46,46,46,46,46,48,48,46,46,46,533,534,536,537,539,671,818,902,984,1032,1032,1017,1002,986,971,955,940,925,909,894,878,862,847,831,816,800,784,770,754,738,675,635,622,554,542,540,540,490,449,447,447,455,473,461,464,467,465,478,463,471,466,461,459,466,478,476,467,462,456,461,456,478,463,463,463,533,532,540,544,555,664,819,906,1011,1058,1057,1031,1031,1002,991,973,960,937,942,910,885,864,859,841,825,810,799,779,762,748,730,648,620,573,551,544,551,516,481,481,502,501,510,495,502,507,493,505,490,489,496,491,490,489,488,492,491,489,494,497,490,490,484,493,493,762,764,764,769,775,1014,1213,1342,1452,1426,1455,1461,1439,1408,1334,1312,1293,1325,1264,1283,1257,1237,1161,1139,1166,1143,1120,1097,1067,1052,1006,832,802,790,775,773,764,751,708,711,718,721,736,730,735,732,730,744,729,742,737,732,730,736,745,743,738,733,723,731,727,748,734,733,733,221,222,222,223,273,280,317,350,382,403,412,407,401,397,391,386,380,375,378,371,365,359,353,346,341,334,327,342,315,309,303,295,290,283,279,273,275,275,212,210,211,212,214,211,212,214,211,210,212,212,214,214,215,215,214,215,215,214,215,216,212,215,216,216,215,0,0,0,0,0,0,0,0,0,0,0,0,0,0,0,0,0,0,0,0,0,0,0,0,0,0,0,0,0,0,0,0,0,0,0,0,0,0,0,0,0,0,0,0,0,0,0,0,0,0,0,0,0,0,0,0,0,0,0,0,0,0,0,0,0,767,791,772,794,814,1104,1243,1389,1477,1505,1502,1528,1459,1436,1405,1382,1359,1336,1313,1296,1267,1244,1221,1213,1190,1151,1128,1119,1089,1055,995,907,801,812,772,778,778,762,737,726,730,732,748,743,748,742,746,744,740,740,747,732,737,748,748,739,752,733,732,747,746,749,751,748,748,0,0,0,0,0,0,0,0,0,0,0,0,0,0,0,0,0,0,0,0,0,0,0,0,0,0,0,0,0,0,0,0,0,0,0,0,0,0,0,0,0,0,0,0,0,0,0,0,0,0,0,0,0,0,0,0,0,0,0,0,0,0,0,0,0,1278,1281,1296,1340,1642,2058,2416,2527,2606,2637,2635,2567,2540,2476,2445,2399,2340,2322,2286,2225,2182,2139,2069,2042,2003,1956,1903,1862,1631,1575,1543,1359,1330,1312,1309,1312,1324,1292,1284,1289,1294,1318,1306,1307,1307,1316,1327,1324,1311,1316,1332,1330,1337,1339,1334,1334,1335,1330,1331,1333,1339,1355,1344,1349,1335,1175,1179,1184,1207,1342,1626,2007,2154,2268,2309,2307,2262,2246,2180,2151,2116,2079,2053,2008,1987,1938,1906,1875,1831,1800,1750,1658,1618,1531,1367,1346,1306,1244,1196,1205,1199,1136,1144,1111,1118,1123,1122,1131,1133,1142,1135,1128,1134,1135,1147,1137,1132,1131,1138,1136,1140,1145,1141,1137,1139,1137,1136,1137,1138,1138,732,731,734,735,787,1000,1134,1271,1416,1460,1476,1437,1466,1387,1378,1340,1307,1307,1276,1246,1224,1204,1189,1155,1147,1113,1085,1062,1039,1016,987,898,879,756,757,735,746,744,728,726,729,738,741,734,737,734,741,742,744,748,762,759,762,767,754,753,751,769,752,740,762,740,749,752,752,853,855,855,860,932,1094,1359,1474,1610,1661,1657,1632,1624,1565,1555,1538,1507,1497,1456,1443,1416,1384,1367,1333,1320,1259,1262,1232,1186,1176,1072,995,900,865,873,880,853,819,791,796,792,797,809,807,823,814,807,813,814,826,816,811,810,817,815,819,824,820,816,818,816,815,816,817,817,467,468,470,471,481,608,687,766,844,917,935,929,906,891,885,862,847,840,818,809,788,773,766,744,729,715,707,685,671,656,641,618,603,488,477,473,475,438,414,416,410,413,420,420,435,430,418,422,423,437,426,419,420,429,425,427,430,428,424,428,425,428,430,432,432,637,637,640,648,659,851,1009,1134,1237,1282,1284,1259,1242,1222,1200,1180,1161,1138,1120,1099,1078,1064,1036,1013,997,976,950,909,889,868,852,768,732,664,647,652,654,611,604,604,609,618,616,619,609,622,611,615,616,616,616,620,627,632,629,628,626,622,627,625,628,645,629,649,628,441,442,444,445,451,517,647,724,797,868,889,876,862,846,833,819,805,791,777,763,750,734,720,707,693,678,665,651,636,623,582,568,556,524,488,447,448,447,396,401,399,402,430,425,413,436,422,433,436,416,452,409,412,430,419,410,438,416,416,417,417,417,417,416,416,946,930,950,960,1051,1267,1560,1669,1807,1873,1837,1830,1800,1766,1751,1707,1679,1654,1602,1596,1566,1561,1508,1515,1464,1432,1391,1360,1314,1254,1171,1030,1006,981,985,981,951,943,944,936,938,943,945,943,948,962,952,961,963,946,956,963,968,978,982,967,964,976,967,978,979,966,953,951,951,825,827,828,832,911,1060,1325,1440,1576,1627,1623,1598,1590,1531,1520,1504,1473,1463,1421,1409,1382,1350,1332,1299,1286,1225,1228,1197,1152,1142,1080,957,872,837,845,852,816,785,758,762,758,764,774,773,788,779,772,778,779,791,781,776,775,782,780,784,789,785,781,783,781,780,781,782,782,0,0,0,0,0,0,0,0,0,0,0,0,0,0,0,0,0,0,0,0,0,0,0,0,0,0,0,0,0,0,0,0,0,0,0,0,0,0,0,0,0,0,0,0,0,0,0,0,0,0,0,0,0,0,0,0,0,0,0,0,0,0,0,0,0 ]);
