n = 10;
D = [221,122,154,259,126,167,141,278,203,176 ];
q = 0;
prec = array2d(1..0,1..2,[]);
steps = 64;
l = 360;
r = 0;
which = [];
interval = array2d(1..0,1..2,[]);
T = array3d(1..11,1..11,0..64,[0,0,0,0,0,0,0,0,0,0,0,0,0,0,0,0,0,0,0,0,0,0,0,0,0,0,0,0,0,0,0,0,0,0,0,0,0,0,0,0,0,0,0,0,0,0,0,0,0,0,0,0,0,0,0,0,0,0,0,0,0,0,0,0,0,299,300,348,301,302,467,530,579,623,666,676,668,660,651,643,634,626,618,609,601,592,584,581,573,560,556,543,519,511,502,495,487,478,455,356,303,351,352,276,273,271,272,273,274,278,280,273,277,278,273,272,280,280,280,280,280,280,280,282,284,280,278,278,278,278,941,945,964,996,1011,1380,1946,2113,2206,2241,2217,2196,2157,2118,2084,2052,2018,1988,1954,1920,1885,1860,1835,1796,1774,1728,1497,1314,1336,1165,1044,1007,999,1010,962,962,958,952,935,931,931,932,933,934,938,940,933,937,938,933,932,937,940,940,940,940,940,938,937,944,940,938,938,938,938,431,433,435,435,439,563,762,864,950,1039,1024,1022,999,992,976,961,946,929,915,901,890,874,858,843,788,770,758,746,733,720,602,585,545,539,446,440,441,429,370,369,378,403,371,374,374,379,372,371,373,375,373,371,372,374,374,373,372,374,371,373,371,373,373,374,371,427,427,428,430,432,588,789,869,948,1007,1008,993,978,992,951,936,921,906,891,876,861,846,831,816,800,786,771,756,706,691,599,596,583,521,435,433,434,436,423,413,418,422,420,424,416,424,421,424,426,428,421,421,427,420,429,432,430,431,426,429,429,428,437,441,433,927,946,954,982,1015,1368,1909,2081,2175,2227,2172,2165,2120,2099,2045,2034,1989,1968,1923,1904,1870,1837,1821,1770,1726,1686,1660,1430,1154,1160,1021,1039,996,952,952,940,940,946,927,927,927,929,930,930,934,936,929,933,934,930,928,936,936,936,936,936,936,937,936,940,936,934,934,934,934,319,320,320,321,322,398,574,630,686,735,740,730,720,709,698,687,678,667,656,645,636,625,630,603,594,583,572,561,552,541,530,519,404,332,325,323,324,324,295,294,295,295,295,295,295,299,296,295,295,295,294,294,294,295,296,295,295,296,294,295,294,294,294,294,294,506,508,523,511,547,749,934,1044,1139,1177,1176,1155,1139,1123,1107,1097,1074,1064,1042,1027,1011,999,991,981,957,941,913,903,866,868,832,650,636,586,516,513,514,506,481,478,476,477,478,479,483,485,478,482,483,478,477,485,485,485,485,485,485,485,487,489,485,483,483,483,483,127,188,127,128,128,130,248,256,260,297,284,265,279,286,285,284,266,280,262,259,259,274,259,255,254,258,255,258,256,247,256,256,255,255,211,128,208,128,131,132,131,133,136,135,133,136,132,132,135,139,131,135,136,136,132,135,136,140,136,136,133,138,132,135,132,524,525,540,528,548,783,972,1102,1188,1225,1224,1202,1185,1167,1150,1140,1116,1105,1081,1065,1049,1036,1027,1015,991,974,946,936,918,861,633,626,626,554,533,540,557,521,496,493,491,492,493,494,498,500,493,497,498,493,492,500,500,500,500,500,500,500,502,504,500,498,498,498,498,0,0,0,0,0,0,0,0,0,0,0,0,0,0,0,0,0,0,0,0,0,0,0,0,0,0,0,0,0,0,0,0,0,0,0,0,0,0,0,0,0,0,0,0,0,0,0,0,0,0,0,0,0,0,0,0,0,0,0,0,0,0,0,0,0,231,232,232,232,233,343,381,464,490,551,566,558,549,537,516,522,499,506,499,472,463,454,462,453,444,420,421,395,387,378,371,362,354,349,295,234,235,235,209,206,207,210,210,210,210,210,209,211,209,209,206,209,208,204,207,209,210,210,206,205,210,209,207,208,205,0,0,0,0,0,0,0,0,0,0,0,0,0,0,0,0,0,0,0,0,0,0,0,0,0,0,0,0,0,0,0,0,0,0,0,0,0,0,0,0,0,0,0,0,0,0,0,0,0,0,0,0,0,0,0,0,0,0,0,0,0,0,0,0,0,765,760,762,773,811,1202,1516,1714,1819,1856,1849,1819,1790,1760,1730,1703,1671,1646,1609,1582,1558,1527,1500,1484,1455,1406,1380,1346,1317,1165,1051,946,870,781,771,768,788,764,757,758,760,760,760,758,760,759,761,760,759,760,764,766,764,765,785,764,765,766,766,783,785,783,765,764,763,464,466,467,468,474,509,761,963,1068,1135,1155,1135,1112,1098,1080,1062,998,998,1006,987,943,932,931,890,852,836,822,805,790,738,638,574,509,501,482,475,464,466,343,342,352,371,345,348,347,351,346,347,347,346,348,353,352,350,349,350,347,346,350,352,347,346,344,348,345,425,427,428,429,431,559,822,922,1017,1077,1082,1064,1040,1028,1010,992,974,956,938,920,902,884,866,848,830,812,794,776,735,718,603,470,455,446,435,432,433,435,425,419,414,420,422,454,445,453,452,448,450,427,422,457,451,477,461,453,464,454,469,450,443,438,426,429,418,754,756,755,759,788,1184,1461,1701,1783,1839,1795,1776,1779,1729,1720,1691,1658,1634,1562,1575,1539,1513,1449,1473,1421,1380,1368,1306,1172,973,849,803,784,797,756,764,763,748,749,756,758,759,759,757,758,758,756,759,758,759,763,763,763,764,777,763,764,764,765,772,777,777,764,763,762,464,465,467,468,485,536,876,981,1069,1142,1147,1145,1111,1112,1095,1080,1063,1020,1002,982,992,963,928,910,891,873,855,837,834,800,758,628,543,484,474,471,472,465,439,433,435,442,441,440,439,440,439,445,442,443,451,450,451,442,442,440,442,445,437,435,442,440,437,441,435,322,320,324,324,326,404,584,676,740,796,807,795,762,751,758,745,732,709,707,696,683,670,658,646,633,621,595,594,572,572,547,546,419,347,340,327,328,328,309,307,312,322,338,333,329,343,330,340,333,325,381,373,371,382,334,320,344,353,320,334,333,351,343,343,330,299,300,299,301,302,421,542,602,658,733,729,718,706,696,685,673,662,651,639,628,613,606,595,584,572,561,550,538,528,517,505,441,432,422,307,303,304,304,283,277,279,286,285,284,283,284,283,289,286,287,292,295,293,286,286,284,286,289,281,279,286,284,281,285,279,339,340,341,341,343,397,618,719,789,845,855,843,809,815,802,788,775,762,748,735,721,708,695,682,667,654,628,627,605,607,578,579,402,393,357,344,367,356,324,323,325,329,363,360,341,353,346,361,346,338,362,332,334,354,342,332,358,332,330,360,347,364,361,351,344,231,232,232,232,233,343,381,464,490,551,566,558,549,537,516,522,499,506,499,472,463,454,462,453,444,420,421,395,387,378,371,362,354,349,295,234,235,235,209,206,207,210,210,210,210,210,209,211,209,209,206,209,208,204,207,209,210,210,206,205,210,209,207,208,205,888,889,882,890,943,1530,1861,2034,2129,2161,2141,2137,2088,2078,2029,1976,1957,1905,1883,1854,1813,1777,1745,1691,1675,1640,1543,1338,1137,1289,994,970,935,980,900,904,902,871,827,833,827,836,855,866,859,873,852,868,867,876,855,845,845,860,850,848,861,857,844,850,847,905,849,854,838,707,717,698,704,710,1202,1382,1555,1666,1713,1754,1684,1634,1630,1586,1553,1551,1506,1491,1469,1443,1415,1389,1340,1334,1306,1305,1233,1202,1131,871,850,736,841,712,704,700,718,683,685,691,696,721,722,713,739,717,729,726,726,718,706,711,724,714,704,729,715,700,713,717,751,721,725,715,0,0,0,0,0,0,0,0,0,0,0,0,0,0,0,0,0,0,0,0,0,0,0,0,0,0,0,0,0,0,0,0,0,0,0,0,0,0,0,0,0,0,0,0,0,0,0,0,0,0,0,0,0,0,0,0,0,0,0,0,0,0,0,0,0,760,763,765,771,790,1288,1564,1728,1825,1884,1861,1832,1811,1772,1745,1705,1683,1653,1623,1594,1570,1540,1504,1469,1444,1414,1388,1357,1206,1061,1041,855,805,829,777,775,762,768,722,728,732,744,749,766,736,763,745,748,760,756,742,749,744,758,742,747,757,768,752,748,747,818,739,752,742,1082,1092,1106,1139,1317,1864,2333,2529,2597,2641,2633,2586,2561,2506,2474,2420,2378,2302,2256,2226,2199,2165,2130,2074,2033,1985,1697,1681,1514,1406,1187,1161,1149,1160,1105,1116,1093,1100,1059,1073,1071,1094,1084,1119,1107,1123,1119,1121,1117,1101,1102,1092,1097,1107,1101,1099,1108,1103,1114,1099,1098,1153,1098,1122,1109,236,236,237,238,239,267,428,478,529,578,594,584,574,565,555,546,536,526,517,508,499,489,480,470,460,451,441,432,422,412,403,393,272,265,259,240,240,257,233,232,232,232,239,232,236,314,234,240,236,234,239,239,236,237,320,240,240,240,236,237,236,240,240,240,240,1172,1177,1166,1189,1285,2167,2523,2694,2775,2804,2787,2731,2689,2650,2588,2535,2513,2469,2419,2379,2334,2293,2262,2195,2153,2087,1885,1759,1656,1490,1266,1256,1210,1228,1183,1168,1142,1152,1105,1114,1112,1119,1141,1152,1142,1158,1137,1153,1152,1161,1140,1130,1130,1145,1135,1133,1146,1142,1129,1135,1132,1190,1134,1139,1123,762,764,766,773,798,1083,1508,1684,1797,1849,1850,1816,1788,1767,1727,1706,1673,1637,1621,1591,1558,1533,1495,1457,1449,1402,1369,1356,1326,1204,845,828,807,791,777,772,774,746,740,740,750,748,749,759,750,753,748,752,779,753,751,752,759,776,754,752,752,753,751,753,753,754,744,773,756,970,969,959,971,1010,1680,2026,2210,2289,2320,2308,2287,2236,2223,2172,2130,2108,2057,2033,2002,1961,1918,1885,1826,1823,1772,1657,1594,1358,1376,1165,1065,1016,1034,978,974,982,952,903,911,907,916,933,944,938,949,928,944,943,952,931,921,921,936,926,924,937,933,920,926,923,981,925,930,914,865,865,868,874,948,1303,1765,1932,2039,2087,2087,2051,2017,1993,1950,1930,1892,1854,1834,1802,1765,1734,1692,1646,1606,1538,1472,1434,1294,1205,1084,950,904,896,879,875,853,830,823,828,850,830,833,839,830,838,835,841,861,837,833,833,840,859,839,838,842,833,835,835,842,841,830,866,840,888,889,882,890,943,1530,1861,2034,2129,2161,2141,2137,2088,2078,2029,1976,1957,1905,1883,1854,1813,1777,1745,1691,1675,1640,1543,1338,1137,1289,994,970,935,980,900,904,902,871,827,833,827,836,855,866,859,873,852,868,867,876,855,845,845,860,850,848,861,857,844,850,847,905,849,854,838,485,478,487,481,491,608,894,1021,1115,1179,1193,1188,1160,1140,1122,1099,1088,1060,1045,1012,1004,987,968,947,920,908,879,867,852,778,691,562,511,509,493,485,492,483,425,429,432,436,436,438,434,436,432,445,434,436,440,445,449,451,444,444,446,437,444,447,446,448,438,443,438,497,499,499,500,501,587,941,1045,1168,1231,1227,1207,1187,1164,1170,1128,1108,1105,1088,1070,1035,1016,993,973,974,937,941,898,875,796,754,701,548,520,509,504,517,504,446,438,445,447,441,457,442,461,453,452,455,446,451,449,451,459,450,448,453,454,448,450,452,456,447,455,449,816,821,821,827,913,1429,1711,1827,1988,2052,1993,1968,1933,1945,1923,1844,1850,1766,1811,1723,1692,1664,1554,1577,1566,1513,1507,1450,1425,1244,1053,947,924,862,834,831,833,833,819,809,816,815,819,817,818,818,818,817,821,820,818,821,820,820,815,819,820,820,822,817,817,817,819,816,815,0,0,0,0,0,0,0,0,0,0,0,0,0,0,0,0,0,0,0,0,0,0,0,0,0,0,0,0,0,0,0,0,0,0,0,0,0,0,0,0,0,0,0,0,0,0,0,0,0,0,0,0,0,0,0,0,0,0,0,0,0,0,0,0,0,814,816,818,821,837,1214,1638,1827,1947,1997,2001,1967,1933,1907,1877,1840,1814,1780,1742,1713,1679,1645,1614,1581,1551,1513,1467,1440,1342,1130,900,882,910,845,831,827,828,821,755,754,771,785,786,781,783,786,770,793,774,771,770,777,787,790,779,787,779,771,770,781,788,785,783,776,775,862,867,868,876,932,1476,1820,1936,2090,2143,2094,2074,2034,2041,2019,1909,1927,1903,1889,1807,1780,1734,1623,1669,1635,1593,1575,1425,1409,1205,1058,1015,941,898,885,877,879,884,872,868,875,866,875,876,877,877,877,876,880,879,877,880,879,879,874,878,879,879,881,876,876,876,878,875,874,634,636,638,640,647,844,1186,1317,1439,1514,1523,1500,1472,1448,1424,1401,1383,1359,1331,1308,1288,1263,1243,1227,1192,1172,1149,1130,1105,1081,886,804,672,661,646,643,645,639,593,587,593,598,602,601,600,596,601,621,601,597,615,608,611,606,598,617,605,619,595,599,626,627,621,622,618,667,667,678,672,673,1035,1295,1439,1579,1640,1632,1598,1577,1545,1546,1499,1467,1458,1440,1414,1380,1354,1324,1299,1280,1237,1246,1194,1178,885,844,774,724,695,680,677,678,679,621,613,620,622,616,632,617,636,628,627,630,621,626,624,626,634,625,623,628,629,623,625,627,631,622,630,624,430,429,431,432,435,495,767,850,935,1012,1029,1018,999,982,967,951,940,924,904,889,873,859,847,828,812,796,781,765,750,734,519,507,496,485,438,434,436,436,388,385,390,394,401,403,390,398,390,402,397,397,400,401,409,422,406,407,399,398,398,410,410,411,405,406,405,715,717,718,720,724,1113,1409,1584,1713,1761,1749,1720,1691,1659,1657,1613,1578,1566,1541,1514,1472,1449,1417,1390,1378,1337,1331,1248,1012,986,914,792,773,741,731,726,726,722,664,656,663,665,659,675,660,679,671,670,673,664,669,667,669,677,668,666,671,672,666,668,670,674,665,673,667,485,478,487,481,491,608,894,1021,1115,1179,1193,1188,1160,1140,1122,1099,1088,1060,1045,1012,1004,987,968,947,920,908,879,867,852,778,691,562,511,509,493,485,492,483,425,429,432,436,436,438,434,436,432,445,434,436,440,445,449,451,444,444,446,437,444,447,446,448,438,443,438,476,477,481,543,491,668,854,948,1045,1108,1150,1118,1087,1087,1066,1053,1035,1015,1001,985,968,950,933,916,890,886,866,848,726,714,656,678,604,510,488,483,486,480,443,443,443,445,444,443,443,444,444,447,444,444,446,443,445,445,445,445,444,448,445,446,445,445,445,446,445,596,604,606,608,612,894,1140,1254,1353,1401,1405,1392,1374,1347,1335,1309,1291,1272,1252,1233,1215,1196,1175,1159,1142,1112,1101,1066,944,926,860,826,773,618,621,611,606,622,583,583,587,589,588,587,587,588,588,591,588,588,590,587,589,589,589,589,588,592,589,590,589,589,589,590,589,1146,1144,1154,1175,1361,1883,2446,2619,2732,2758,2736,2689,2649,2601,2560,2514,2470,2443,2398,2353,2295,2265,2209,2176,2123,1993,1875,1562,1371,1444,1303,1210,1205,1182,1159,1157,1160,1153,1132,1125,1137,1153,1147,1141,1131,1139,1142,1152,1160,1139,1145,1150,1150,1163,1152,1154,1138,1149,1144,1145,1150,1147,1142,1147,1140,838,844,842,905,896,1321,1657,1842,1947,2009,2022,1989,1939,1909,1878,1846,1815,1783,1766,1735,1705,1656,1584,1555,1542,1512,1484,1434,1248,1126,938,916,879,870,852,866,840,796,759,759,759,761,760,759,759,760,760,763,760,760,762,759,761,761,761,761,760,764,761,762,761,761,761,762,761,0,0,0,0,0,0,0,0,0,0,0,0,0,0,0,0,0,0,0,0,0,0,0,0,0,0,0,0,0,0,0,0,0,0,0,0,0,0,0,0,0,0,0,0,0,0,0,0,0,0,0,0,0,0,0,0,0,0,0,0,0,0,0,0,0,986,983,988,1001,1057,1526,2051,2231,2359,2392,2376,2331,2300,2256,2223,2179,2142,2121,2081,2028,1989,1965,1914,1888,1849,1800,1771,1539,1416,1245,1096,1048,1043,1020,996,995,997,1000,973,976,981,998,997,983,995,988,986,1002,1007,997,999,1006,1005,1001,1011,1004,998,1001,1000,1010,1001,1008,1013,1003,991,505,507,510,503,521,823,923,1024,1123,1166,1194,1177,1174,1137,1120,1119,1071,1082,1036,1018,1001,1012,990,972,944,900,916,891,874,856,828,733,537,525,516,512,513,507,467,467,467,469,468,467,467,468,468,471,468,468,470,467,469,469,469,469,468,472,469,470,469,469,469,470,469,473,475,476,478,486,532,884,984,1105,1160,1165,1147,1128,1110,1092,1072,1054,1036,1017,999,981,962,944,940,907,889,871,865,834,795,532,519,507,495,484,480,482,483,468,470,474,476,490,481,475,509,478,511,512,481,482,492,486,580,511,488,482,480,481,484,481,555,473,487,475,534,539,535,606,597,857,970,1073,1181,1249,1287,1253,1222,1204,1186,1167,1146,1129,1121,1103,1084,1053,1033,1014,1006,988,961,944,921,906,873,856,610,611,541,557,554,510,500,486,491,495,487,493,496,498,500,499,498,492,497,495,494,495,498,497,497,500,496,493,494,499,495,503,499,496,505,495,508,506,655,948,1042,1149,1239,1243,1223,1203,1184,1157,1131,1125,1105,1085,1042,1046,1025,974,955,962,944,907,887,885,848,548,696,527,525,514,512,512,509,496,488,499,504,500,503,494,498,499,500,506,500,503,508,505,507,505,509,494,501,501,502,504,499,499,508,503,476,477,481,543,491,668,854,948,1045,1108,1150,1118,1087,1087,1066,1053,1035,1015,1001,985,968,950,933,916,890,886,866,848,726,714,656,678,604,510,488,483,486,480,443,443,443,445,444,443,443,444,444,447,444,444,446,443,445,445,445,445,444,448,445,446,445,445,445,446,445,853,849,858,858,932,1434,1800,1974,2050,2086,2094,2067,2002,1959,1968,1917,1872,1858,1812,1773,1748,1712,1684,1627,1595,1594,1487,1273,1258,1141,1029,911,934,882,868,877,864,838,837,840,839,842,842,842,842,842,842,842,842,842,842,842,842,842,842,842,842,842,842,842,842,842,842,842,842,670,672,675,677,693,993,1318,1488,1602,1618,1626,1601,1546,1522,1523,1471,1473,1437,1412,1395,1375,1348,1293,1299,1243,1231,1231,1202,1131,1035,748,707,714,684,684,681,672,673,654,654,654,654,654,654,654,654,654,654,654,654,654,654,654,654,654,654,654,654,654,654,654,654,654,654,654,215,216,216,217,255,342,387,433,477,523,540,531,523,513,505,496,488,480,471,462,453,445,436,428,420,411,402,393,385,376,368,360,350,342,333,327,328,330,198,197,198,198,198,198,197,198,198,198,198,198,198,198,198,198,198,198,198,198,198,198,198,198,198,198,198,729,732,766,741,779,1310,1561,1652,1794,1846,1782,1754,1790,1696,1669,1640,1611,1574,1545,1532,1503,1470,1441,1443,1384,1407,1396,1320,1216,1181,885,884,802,756,760,753,767,733,748,747,744,748,745,751,751,751,751,747,746,746,746,746,746,746,746,746,746,746,746,746,746,746,746,746,746,964,932,970,985,1144,1507,2008,2165,2311,2282,2272,2235,2259,2161,2177,2086,2050,2011,1975,1936,1899,1861,1820,1837,1754,1778,1706,1632,1453,1292,1028,996,972,955,944,944,936,940,937,937,937,937,937,937,937,937,937,937,937,937,937,937,937,937,937,937,937,937,937,937,937,937,937,937,937,0,0,0,0,0,0,0,0,0,0,0,0,0,0,0,0,0,0,0,0,0,0,0,0,0,0,0,0,0,0,0,0,0,0,0,0,0,0,0,0,0,0,0,0,0,0,0,0,0,0,0,0,0,0,0,0,0,0,0,0,0,0,0,0,0,1135,1123,1140,1162,1268,1923,2443,2589,2707,2698,2682,2642,2583,2542,2500,2453,2425,2367,2344,2300,2249,2216,2158,2147,2080,2063,1895,1662,1599,1239,1239,1197,1169,1140,1131,1137,1081,1081,1089,1089,1089,1089,1089,1089,1089,1089,1089,1089,1089,1089,1089,1089,1089,1089,1089,1089,1089,1089,1089,1089,1089,1089,1089,1089,1089,599,600,602,607,619,782,1172,1304,1417,1453,1466,1443,1427,1397,1373,1349,1326,1304,1283,1260,1236,1213,1190,1172,1143,1120,1098,1072,1049,1027,821,741,641,626,611,608,612,584,577,577,577,577,577,577,577,577,577,577,577,577,577,577,577,577,577,577,577,577,577,577,577,577,577,577,577,929,925,938,939,1068,1571,1964,2142,2211,2253,2247,2212,2152,2106,2111,2062,2026,2007,1965,1920,1893,1859,1823,1767,1754,1729,1601,1529,1474,1218,1034,1017,1001,963,948,950,944,919,913,918,919,922,922,922,922,922,922,922,922,922,922,922,922,922,922,922,922,922,922,922,922,922,922,922,922,701,702,703,708,749,984,1407,1556,1663,1695,1704,1680,1660,1627,1599,1575,1550,1523,1500,1473,1447,1420,1394,1368,1336,1256,1231,1175,1150,1125,793,777,754,728,714,712,716,670,660,660,660,660,660,660,660,660,660,660,660,660,660,660,660,660,660,660,660,660,660,660,660,660,660,660,660,853,849,858,858,932,1434,1800,1974,2050,2086,2094,2067,2002,1959,1968,1917,1872,1858,1812,1773,1748,1712,1684,1627,1595,1594,1487,1273,1258,1141,1029,911,934,882,868,877,864,838,837,840,839,842,842,842,842,842,842,842,842,842,842,842,842,842,842,842,842,842,842,842,842,842,842,842,842,387,388,392,391,406,584,715,793,864,915,922,909,896,883,870,856,842,825,816,801,788,774,750,747,733,720,705,690,678,632,620,581,574,419,410,392,393,390,380,377,380,383,380,378,381,388,381,380,384,382,380,383,383,388,384,388,384,387,386,383,384,382,380,386,382,617,619,620,621,646,898,1208,1342,1423,1468,1467,1446,1425,1407,1383,1360,1343,1318,1297,1273,1251,1228,1204,1181,1164,1135,1113,1100,1068,1051,1020,667,651,636,627,624,627,614,602,598,604,607,599,616,610,626,608,613,612,607,610,612,612,614,609,610,612,612,609,608,608,612,610,617,610,1263,1273,1272,1321,1401,2324,2783,2918,2972,2992,2960,2922,2871,2829,2780,2732,2692,2643,2595,2550,2503,2176,2141,2086,2038,1857,1719,1763,1420,1613,1356,1328,1304,1288,1286,1280,1275,1273,1261,1247,1262,1262,1260,1272,1268,1288,1268,1264,1272,1261,1267,1265,1263,1274,1269,1268,1265,1269,1265,1261,1261,1265,1263,1270,1263,731,747,734,750,742,1268,1409,1608,1699,1739,1724,1706,1669,1652,1621,1598,1571,1536,1518,1490,1462,1438,1411,1384,1357,1336,1308,1285,1236,1112,804,786,769,772,745,740,741,731,698,691,702,689,691,707,696,710,702,700,703,693,698,696,699,704,700,698,698,702,699,693,695,699,697,704,697,553,555,556,557,655,920,1015,1108,1344,1330,1245,1228,1212,1194,1177,1084,1143,1126,1034,1176,1076,1078,1042,1026,1009,992,975,957,940,888,876,851,833,668,622,560,524,612,597,552,552,551,548,554,557,558,555,554,555,553,556,553,557,556,560,560,555,556,559,560,555,616,558,561,560,1259,1249,1263,1306,1480,2285,2728,2905,2922,2961,2949,2890,2823,2802,2754,2706,2666,2614,2571,2504,2476,2446,2268,2255,2212,1935,1790,1684,1404,1398,1361,1312,1279,1273,1265,1260,1269,1265,1254,1246,1253,1261,1258,1271,1266,1280,1264,1259,1269,1256,1266,1264,1258,1273,1268,1266,1264,1268,1264,1260,1260,1264,1262,1269,1262,0,0,0,0,0,0,0,0,0,0,0,0,0,0,0,0,0,0,0,0,0,0,0,0,0,0,0,0,0,0,0,0,0,0,0,0,0,0,0,0,0,0,0,0,0,0,0,0,0,0,0,0,0,0,0,0,0,0,0,0,0,0,0,0,0,825,827,826,832,862,1317,1685,1843,1920,1968,1966,1919,1897,1865,1833,1805,1778,1747,1718,1689,1658,1628,1593,1582,1541,1511,1474,1446,1414,1262,974,884,860,851,834,832,837,819,807,805,813,816,813,820,815,829,813,818,817,812,815,817,817,824,821,819,817,817,816,815,815,818,815,822,817,400,415,401,418,406,650,719,793,882,924,930,918,898,891,877,864,849,836,823,808,792,781,767,754,739,727,716,704,691,677,664,651,426,538,408,406,407,422,381,370,374,376,372,386,378,406,386,378,402,375,378,377,376,382,378,377,378,381,377,375,376,380,378,385,378,843,844,846,849,882,1355,1734,1900,1968,2015,2012,1963,1940,1908,1875,1846,1817,1785,1756,1727,1695,1664,1644,1615,1574,1544,1509,1455,1267,1201,933,927,892,869,855,857,856,834,822,818,827,830,828,839,830,845,828,833,832,827,830,832,832,839,836,834,832,832,831,830,830,833,830,837,832,387,388,392,391,406,584,715,793,864,915,922,909,896,883,870,856,842,825,816,801,788,774,750,747,733,720,705,690,678,632,620,581,574,419,410,392,393,390,380,377,380,383,380,378,381,388,381,380,384,382,380,383,383,388,384,388,384,387,386,383,384,382,380,386,382,476,470,471,472,480,628,867,989,1062,1160,1119,1105,1090,1122,1060,1069,1042,1023,1002,984,1000,949,932,876,859,859,807,798,780,763,692,628,577,509,495,492,496,466,444,443,446,455,447,455,447,451,451,453,450,454,452,450,457,458,458,450,452,461,452,458,453,451,454,453,451,275,276,276,277,278,347,462,548,605,661,684,673,662,651,640,630,619,608,597,596,576,565,554,543,532,531,511,500,471,462,380,371,364,354,283,279,340,340,253,244,245,254,243,253,244,251,249,249,250,248,251,247,250,255,255,248,249,251,247,253,247,245,248,247,245,674,676,689,682,713,933,1303,1453,1588,1654,1653,1627,1600,1574,1548,1521,1495,1468,1473,1416,1389,1363,1336,1310,1284,1257,1231,1204,1178,1054,865,846,715,698,687,684,703,704,679,682,676,680,683,684,683,687,683,688,687,687,689,685,690,692,694,686,688,689,687,693,687,687,688,688,686,597,589,595,604,610,858,1140,1218,1391,1430,1430,1387,1378,1394,1387,1351,1327,1285,1280,1227,1229,1216,1194,1148,1107,1095,1066,1045,1023,956,818,723,655,632,615,612,614,602,534,521,522,530,531,539,529,531,530,536,535,535,537,533,538,540,542,534,536,537,535,541,535,533,536,535,533,488,489,491,492,510,643,940,1047,1152,1198,1201,1182,1164,1144,1125,1106,1093,1074,1050,1034,1012,993,974,956,937,918,898,880,861,842,722,626,608,591,498,496,496,498,496,497,499,496,493,495,523,546,493,497,502,498,496,527,500,500,502,498,500,500,499,495,525,498,500,499,520,514,516,529,519,539,590,967,1078,1191,1268,1274,1254,1233,1213,1192,1172,1152,1131,1138,1090,1070,1050,1029,1009,988,968,948,927,907,812,615,564,550,536,525,522,540,542,520,512,514,515,524,531,517,529,520,516,526,527,524,526,529,532,529,539,526,533,536,531,535,542,530,549,529,691,696,697,699,703,921,1375,1570,1653,1737,1695,1671,1645,1642,1595,1566,1539,1516,1488,1462,1474,1384,1379,1350,1322,1328,1268,1258,1240,1024,985,895,755,729,719,718,724,694,647,650,649,662,655,670,649,668,651,667,651,652,658,657,667,666,668,654,653,659,664,667,650,649,654,653,647,0,0,0,0,0,0,0,0,0,0,0,0,0,0,0,0,0,0,0,0,0,0,0,0,0,0,0,0,0,0,0,0,0,0,0,0,0,0,0,0,0,0,0,0,0,0,0,0,0,0,0,0,0,0,0,0,0,0,0,0,0,0,0,0,0,542,544,545,547,548,781,1022,1153,1253,1341,1324,1303,1282,1288,1240,1218,1202,1178,1156,1136,1146,1098,1077,1057,1033,1034,991,1000,970,947,793,674,600,581,573,570,564,538,524,523,525,532,524,528,526,525,529,530,528,539,534,542,540,537,538,530,530,537,526,534,530,531,534,527,527,159,159,159,159,162,244,283,302,332,361,394,381,375,369,362,358,352,346,340,336,329,323,317,311,307,300,294,289,282,279,270,264,259,252,248,163,242,243,129,125,127,127,133,131,129,132,129,129,139,135,134,131,134,131,135,133,130,133,135,130,130,131,135,138,131,476,470,471,472,480,628,867,989,1062,1160,1119,1105,1090,1122,1060,1069,1042,1023,1002,984,1000,949,932,876,859,859,807,798,780,763,692,628,577,509,495,492,496,466,444,443,446,455,447,455,447,451,451,453,450,454,452,450,457,458,458,450,452,461,452,458,453,451,454,453,451,150,151,151,204,204,176,264,295,326,378,351,350,349,382,355,348,381,336,330,326,319,312,292,300,294,288,282,276,270,265,258,252,246,240,178,173,174,174,119,119,119,119,119,119,119,119,119,119,119,119,119,119,119,119,119,119,119,119,119,119,119,119,119,119,119,313,314,315,316,317,493,558,622,686,751,778,765,753,741,729,716,704,692,680,670,655,644,632,618,606,594,584,568,556,544,531,519,509,354,321,318,319,322,269,269,269,269,269,269,269,269,269,269,269,269,269,269,269,269,269,269,269,269,269,269,269,269,269,269,269,956,958,962,971,1019,1554,1969,2168,2287,2327,2334,2276,2239,2202,2166,2128,2091,2062,2027,1986,1944,1920,1876,1837,1812,1759,1497,1348,1336,1238,1049,1044,1015,992,1001,977,974,970,922,922,922,922,922,922,922,922,922,922,922,922,922,922,922,922,922,922,922,922,922,922,922,922,922,922,922,333,334,336,336,338,471,597,665,736,805,829,816,802,789,776,763,750,736,723,710,697,684,670,657,644,631,618,611,598,579,566,495,479,401,342,338,340,340,328,331,334,344,332,338,332,349,344,333,343,336,339,337,332,338,335,338,333,336,335,334,336,335,338,339,334,506,507,509,511,513,615,954,1069,1183,1206,1276,1189,1234,1154,1183,1172,1104,1087,1070,1087,1022,1005,988,1007,954,937,937,919,891,815,720,696,657,528,521,514,516,520,459,459,459,459,459,459,459,459,459,459,459,459,459,459,459,459,459,459,459,459,459,459,459,459,459,459,459,942,954,947,960,1014,1527,1932,2120,2274,2272,2281,2245,2209,2172,2136,2098,2062,2024,2008,1960,1933,1880,1861,1794,1774,1749,1704,1430,1312,1058,1044,1038,1000,968,980,956,955,962,920,920,920,920,920,920,920,920,920,920,920,920,920,920,920,920,920,920,920,920,920,920,920,920,920,920,920,288,288,289,290,291,450,498,560,609,656,664,668,646,637,627,618,609,600,590,580,572,562,554,543,535,525,516,506,504,494,483,474,463,451,294,292,292,293,275,272,271,276,273,274,272,276,271,277,272,272,273,272,276,278,273,274,274,276,276,275,274,280,273,275,273,520,522,523,525,533,707,990,1078,1184,1289,1292,1261,1236,1222,1211,1191,1165,1144,1115,1096,1072,1072,1034,1016,992,971,970,935,916,898,815,753,658,556,532,528,529,524,475,475,475,475,475,475,475,475,475,475,475,475,475,475,475,475,475,475,475,475,475,475,475,475,475,475,475,0,0,0,0,0,0,0,0,0,0,0,0,0,0,0,0,0,0,0,0,0,0,0,0,0,0,0,0,0,0,0,0,0,0,0,0,0,0,0,0,0,0,0,0,0,0,0,0,0,0,0,0,0,0,0,0,0,0,0,0,0,0,0,0,0,538,539,540,543,566,741,1043,1136,1233,1337,1340,1308,1282,1276,1254,1234,1212,1191,1154,1134,1110,1109,1070,1050,1025,1004,1003,968,947,886,742,593,596,570,549,570,572,539,490,490,490,490,490,490,490,490,490,490,490,490,490,490,490,490,490,490,490,490,490,490,490,490,490,490,490,150,151,151,204,204,176,264,295,326,378,351,350,349,382,355,348,381,336,330,326,319,312,292,300,294,288,282,276,270,265,258,252,246,240,178,173,174,174,119,119,119,119,119,119,119,119,119,119,119,119,119,119,119,119,119,119,119,119,119,119,119,119,119,119,119,517,519,520,520,521,664,945,1059,1134,1226,1238,1222,1206,1189,1180,1178,1158,1137,1106,1084,1064,1044,1023,971,952,913,872,850,826,808,582,569,564,539,528,524,526,495,473,473,473,473,473,473,473,473,473,473,473,473,473,473,473,473,473,473,473,473,473,473,473,473,473,473,473,361,362,364,365,356,435,650,696,767,874,872,858,844,825,812,802,784,771,761,748,730,742,707,715,700,686,672,634,624,568,556,528,516,368,360,368,369,358,334,334,334,334,334,334,334,334,334,334,334,334,334,334,334,334,334,334,334,334,334,334,334,334,334,334,334,824,827,829,842,858,1098,1537,1814,1949,2014,2006,1974,1942,1910,1878,1846,1814,1782,1749,1718,1686,1653,1622,1590,1574,1547,1514,1439,1354,1171,919,908,867,849,851,845,839,840,821,821,817,820,818,818,818,818,818,818,818,818,818,818,818,818,818,818,818,818,818,818,818,818,818,818,818,722,711,714,703,744,1057,1368,1550,1685,1742,1707,1668,1704,1640,1641,1614,1596,1541,1536,1472,1481,1416,1418,1356,1323,1309,1277,1250,1135,1020,785,781,768,753,750,727,720,695,656,656,656,656,656,656,656,656,656,656,656,656,656,656,656,656,656,656,656,656,656,656,656,656,656,656,656,447,448,449,451,457,751,850,950,1047,1102,1108,1090,1074,1056,1038,1057,1003,985,967,949,932,914,896,878,861,843,825,807,789,772,754,691,678,468,456,453,455,456,448,445,448,448,448,448,448,448,448,448,448,448,448,448,448,448,448,448,448,448,448,448,448,448,448,448,448,664,666,668,672,684,755,1180,1420,1555,1634,1632,1606,1580,1554,1527,1501,1476,1449,1423,1396,1371,1345,1318,1292,1266,1260,1234,1188,1161,885,795,777,704,688,689,683,676,678,665,657,660,658,658,658,658,658,658,658,658,658,658,658,658,658,658,658,658,658,658,658,658,658,658,658,658,735,743,746,749,760,1105,1441,1610,1730,1801,1812,1771,1747,1713,1699,1667,1638,1607,1579,1550,1517,1496,1450,1432,1409,1387,1357,1318,1294,1117,988,850,776,768,748,746,753,698,681,679,676,681,681,679,681,681,681,681,681,681,681,681,681,681,681,681,681,681,681,681,681,681,681,681,681,158,158,159,160,160,165,278,308,339,370,387,381,376,370,364,358,352,346,340,334,328,322,316,310,304,298,292,286,280,274,268,262,172,168,164,161,161,162,145,145,146,146,146,146,146,146,146,146,146,146,146,146,146,146,146,146,146,146,146,146,146,146,146,146,146,590,592,593,594,605,845,1097,1229,1352,1427,1442,1421,1397,1370,1347,1328,1300,1284,1260,1240,1214,1192,1169,1143,1123,1100,1082,1059,976,935,798,782,628,671,603,600,601,567,544,544,544,544,544,544,544,544,544,544,544,544,544,544,544,544,544,544,544,544,544,544,544,544,544,544,544,0,0,0,0,0,0,0,0,0,0,0,0,0,0,0,0,0,0,0,0,0,0,0,0,0,0,0,0,0,0,0,0,0,0,0,0,0,0,0,0,0,0,0,0,0,0,0,0,0,0,0,0,0,0,0,0,0,0,0,0,0,0,0,0,0,517,519,520,520,521,664,945,1059,1134,1226,1238,1222,1206,1189,1180,1178,1158,1137,1106,1084,1064,1044,1023,971,952,913,872,850,826,808,582,569,564,539,528,524,526,495,473,473,473,473,473,473,473,473,473,473,473,473,473,473,473,473,473,473,473,473,473,473,473,473,473,473,473,0,0,0,0,0,0,0,0,0,0,0,0,0,0,0,0,0,0,0,0,0,0,0,0,0,0,0,0,0,0,0,0,0,0,0,0,0,0,0,0,0,0,0,0,0,0,0,0,0,0,0,0,0,0,0,0,0,0,0,0,0,0,0,0,0,299,300,348,301,302,467,530,579,623,666,676,668,660,651,643,634,626,618,609,601,592,584,581,573,560,556,543,519,511,502,495,487,478,455,356,303,351,352,276,273,271,272,273,274,278,280,273,277,278,273,272,280,280,280,280,280,280,280,282,284,280,278,278,278,278,941,945,964,996,1011,1380,1946,2113,2206,2241,2217,2196,2157,2118,2084,2052,2018,1988,1954,1920,1885,1860,1835,1796,1774,1728,1497,1314,1336,1165,1044,1007,999,1010,962,962,958,952,935,931,931,932,933,934,938,940,933,937,938,933,932,937,940,940,940,940,940,938,937,944,940,938,938,938,938,431,433,435,435,439,563,762,864,950,1039,1024,1022,999,992,976,961,946,929,915,901,890,874,858,843,788,770,758,746,733,720,602,585,545,539,446,440,441,429,370,369,378,403,371,374,374,379,372,371,373,375,373,371,372,374,374,373,372,374,371,373,371,373,373,374,371,427,427,428,430,432,588,789,869,948,1007,1008,993,978,992,951,936,921,906,891,876,861,846,831,816,800,786,771,756,706,691,599,596,583,521,435,433,434,436,423,413,418,422,420,424,416,424,421,424,426,428,421,421,427,420,429,432,430,431,426,429,429,428,437,441,433,927,946,954,982,1015,1368,1909,2081,2175,2227,2172,2165,2120,2099,2045,2034,1989,1968,1923,1904,1870,1837,1821,1770,1726,1686,1660,1430,1154,1160,1021,1039,996,952,952,940,940,946,927,927,927,929,930,930,934,936,929,933,934,930,928,936,936,936,936,936,936,937,936,940,936,934,934,934,934,319,320,320,321,322,398,574,630,686,735,740,730,720,709,698,687,678,667,656,645,636,625,630,603,594,583,572,561,552,541,530,519,404,332,325,323,324,324,295,294,295,295,295,295,295,299,296,295,295,295,294,294,294,295,296,295,295,296,294,295,294,294,294,294,294,506,508,523,511,547,749,934,1044,1139,1177,1176,1155,1139,1123,1107,1097,1074,1064,1042,1027,1011,999,991,981,957,941,913,903,866,868,832,650,636,586,516,513,514,506,481,478,476,477,478,479,483,485,478,482,483,478,477,485,485,485,485,485,485,485,487,489,485,483,483,483,483,127,188,127,128,128,130,248,256,260,297,284,265,279,286,285,284,266,280,262,259,259,274,259,255,254,258,255,258,256,247,256,256,255,255,211,128,208,128,131,132,131,133,136,135,133,136,132,132,135,139,131,135,136,136,132,135,136,140,136,136,133,138,132,135,132,524,525,540,528,548,783,972,1102,1188,1225,1224,1202,1185,1167,1150,1140,1116,1105,1081,1065,1049,1036,1027,1015,991,974,946,936,918,861,633,626,626,554,533,540,557,521,496,493,491,492,493,494,498,500,493,497,498,493,492,500,500,500,500,500,500,500,502,504,500,498,498,498,498,0,0,0,0,0,0,0,0,0,0,0,0,0,0,0,0,0,0,0,0,0,0,0,0,0,0,0,0,0,0,0,0,0,0,0,0,0,0,0,0,0,0,0,0,0,0,0,0,0,0,0,0,0,0,0,0,0,0,0,0,0,0,0,0,0 ]);
