n = 10;
D = [245,259,254,282,266,139,265,142,61,187 ];
q = 0;
prec = array2d(1..0,1..2,[]);
steps = 64;
l = 360;
r = 0;
which = [];
interval = array2d(1..0,1..2,[]);
T = array3d(1..11,1..11,0..64,[0,0,0,0,0,0,0,0,0,0,0,0,0,0,0,0,0,0,0,0,0,0,0,0,0,0,0,0,0,0,0,0,0,0,0,0,0,0,0,0,0,0,0,0,0,0,0,0,0,0,0,0,0,0,0,0,0,0,0,0,0,0,0,0,0,1161,1257,1146,1221,1311,1449,1649,1890,1888,1862,1831,1950,1932,1790,1701,1665,1814,1758,1773,1660,1628,1643,1513,1507,1467,1447,1461,1352,1357,1249,1330,1258,1184,1181,1286,1183,1147,1169,1231,1203,1204,1208,1245,1237,1229,1231,1242,1252,1266,1290,1333,1274,1295,1294,1329,1260,1266,1306,1344,1371,1358,1375,1404,1340,1310,1151,1149,1116,1157,1269,1469,1751,1902,1909,1931,1919,1882,1848,1814,1779,1816,1701,1677,1643,1609,1575,1570,1507,1476,1430,1407,1371,1337,1330,1268,1234,1200,1169,1141,1131,1131,1137,1144,1165,1185,1141,1135,1177,1154,1170,1177,1170,1169,1216,1175,1179,1197,1195,1204,1172,1200,1208,1203,1227,1180,1188,1196,1235,1172,1170,140,140,141,141,142,145,162,180,198,216,229,225,222,218,215,211,208,204,201,197,194,190,187,183,180,176,173,169,166,162,159,155,152,148,145,142,142,143,131,131,132,132,131,131,133,133,133,131,133,132,131,131,131,131,131,131,132,132,132,131,131,131,131,132,133,125,125,125,126,126,128,143,158,173,188,200,197,194,191,188,185,182,179,176,173,170,167,164,161,158,155,152,150,147,144,141,138,135,132,129,126,127,127,112,112,112,113,113,115,112,112,115,115,112,113,112,113,113,112,113,113,113,113,112,113,113,113,115,112,113,176,177,177,178,179,184,208,233,257,282,296,291,286,282,277,272,267,263,258,253,249,244,239,235,230,225,220,216,211,206,202,197,192,187,183,179,180,180,185,165,165,166,167,166,173,169,171,167,174,175,209,171,175,202,169,170,171,177,208,228,239,249,242,190,193,1214,1239,1179,1254,1392,1592,1881,2025,2034,2054,2037,2002,2050,1930,1894,1945,1878,1802,1764,1754,1723,1713,1609,1573,1580,1541,1458,1430,1423,1344,1323,1288,1253,1228,1235,1197,1224,1239,1274,1273,1273,1386,1326,1290,1298,1312,1300,1305,1318,1321,1314,1309,1312,1320,1317,1306,1306,1304,1295,1291,1282,1312,1311,1310,1267,713,716,676,706,698,769,931,1040,1098,1102,1162,1146,1111,1108,1074,1069,1051,981,1014,997,977,948,931,910,903,840,855,805,834,770,753,735,717,700,724,682,721,723,728,698,700,709,691,697,705,702,720,739,706,720,776,722,730,784,736,716,714,714,764,818,835,860,859,747,745,809,861,821,830,867,978,1077,1254,1313,1297,1364,1417,1274,1267,1264,1236,1248,1194,1299,1188,1165,1144,1071,1074,1075,1029,1095,1015,969,926,936,924,884,826,840,826,846,867,852,851,848,862,871,855,864,875,868,862,873,878,950,953,968,924,864,859,866,870,863,869,866,863,860,886,862,951,951,936,968,1039,1111,1273,1403,1479,1478,1462,1486,1524,1409,1406,1361,1440,1366,1373,1289,1294,1240,1217,1285,1239,1206,1145,1137,1095,1087,1078,1003,1008,977,967,960,977,948,968,966,974,970,1006,1001,1015,1017,985,1032,1024,1023,1017,998,1005,1034,1015,1004,1013,1006,996,1013,1009,1028,1011,1029,1028,0,0,0,0,0,0,0,0,0,0,0,0,0,0,0,0,0,0,0,0,0,0,0,0,0,0,0,0,0,0,0,0,0,0,0,0,0,0,0,0,0,0,0,0,0,0,0,0,0,0,0,0,0,0,0,0,0,0,0,0,0,0,0,0,0,995,979,1002,1039,1019,1172,1302,1517,1572,1582,1536,1523,1486,1498,1437,1461,1464,1410,1367,1337,1334,1280,1303,1266,1267,1167,1192,1156,1187,1069,1102,1019,1027,1026,1009,1009,980,962,980,975,978,980,986,977,986,988,988,992,996,997,999,1013,999,1003,1013,1001,1008,1008,1007,1005,1011,1013,1019,1019,1021,0,0,0,0,0,0,0,0,0,0,0,0,0,0,0,0,0,0,0,0,0,0,0,0,0,0,0,0,0,0,0,0,0,0,0,0,0,0,0,0,0,0,0,0,0,0,0,0,0,0,0,0,0,0,0,0,0,0,0,0,0,0,0,0,0,1568,1536,1578,1803,2003,2483,2688,2794,2832,2808,2808,2763,2692,2686,2615,2600,2568,2496,2425,2441,2408,2320,2261,2174,2152,2084,2017,1959,1934,1829,1761,1680,1624,1584,1579,1615,1591,1653,1753,1800,1761,1773,1789,1772,1790,1789,1792,1790,1804,1782,1802,1788,1804,1813,1813,1825,1817,1815,1842,1785,1813,1818,1839,1823,1804,1050,1041,1047,1065,1095,1223,1450,1553,1630,1633,1616,1601,1642,1623,1523,1593,1566,1492,1421,1397,1412,1342,1401,1348,1330,1239,1301,1225,1269,1128,1167,1077,1076,1105,1059,1054,1035,1069,1075,1082,1074,1181,1081,1119,1078,1112,1103,1110,1123,1093,1114,1093,1096,1114,1122,1104,1099,1103,1114,1100,1103,1101,1108,1138,1111,972,956,979,1012,987,1132,1255,1468,1524,1535,1490,1478,1443,1455,1396,1421,1425,1372,1330,1300,1298,1245,1269,1233,1235,1136,1162,1127,1160,1042,1076,995,1003,1002,986,985,956,938,961,976,974,992,1027,1039,1020,1042,1008,1053,1031,1014,1026,1003,1032,1050,1037,1012,1035,1015,1019,1034,1029,1037,1022,1051,1026,1082,1076,1081,1130,1139,1281,1518,1605,1694,1684,1671,1662,1602,1665,1549,1590,1569,1542,1463,1438,1463,1381,1447,1349,1350,1274,1318,1268,1266,1164,1197,1115,1104,1095,1094,1069,1064,1072,1095,1097,1090,1098,1095,1101,1096,1105,1107,1242,1096,1095,1097,1107,1112,1087,1111,1106,1096,1108,1087,1103,1103,1104,1100,1103,1097,1564,1568,1660,1746,2002,2483,2813,2913,2949,2927,2991,2876,2876,2855,2726,2723,2722,2611,2536,2495,2427,2420,2292,2297,2157,2114,2046,1975,1886,1857,1785,1685,1676,1609,1584,1577,1640,1704,1797,1812,1770,1781,1817,1790,1809,1816,1812,1808,1870,1815,1823,1836,1848,1853,1862,1872,1857,1859,1895,1833,1833,1845,1888,1832,1816,1362,1347,1391,1422,1503,1688,2104,2133,2089,2112,2097,2064,2219,2021,1965,1966,1950,1909,1819,1922,1796,1799,1740,1656,1700,1586,1633,1560,1546,1471,1476,1392,1464,1354,1330,1357,1355,1336,1422,1427,1432,1451,1463,1453,1453,1461,1447,1474,1475,1470,1457,1461,1468,1474,1472,1460,1456,1458,1452,1444,1434,1467,1458,1460,1422,386,368,369,370,337,356,401,475,492,535,546,538,529,547,512,555,520,536,479,470,508,453,445,436,497,419,452,442,394,385,437,368,360,365,343,372,352,340,341,346,343,361,372,361,357,351,351,350,365,371,363,389,381,358,353,371,372,355,335,391,355,355,350,376,350,1901,1966,2055,2072,2375,2503,2767,2854,2885,2917,2860,2788,2749,2705,2732,2671,2656,2594,2497,2487,2410,2361,2368,2243,2292,2226,2258,2129,2096,1992,1997,1934,1931,1906,1879,1909,1837,1892,2188,2197,2230,2246,2277,2272,2293,2316,2305,2351,2363,2394,2427,2398,2375,2427,2468,2447,2428,2463,2529,2553,2557,2601,2594,2611,2600,995,979,1002,1039,1019,1172,1302,1517,1572,1582,1536,1523,1486,1498,1437,1461,1464,1410,1367,1337,1334,1280,1303,1266,1267,1167,1192,1156,1187,1069,1102,1019,1027,1026,1009,1009,980,962,980,975,978,980,986,977,986,988,988,992,996,997,999,1013,999,1003,1013,1001,1008,1008,1007,1005,1011,1013,1019,1019,1021,1173,1176,1180,1380,1377,1507,1805,1944,1985,2071,2005,1970,1935,1959,1956,1876,1795,1760,1781,1690,1699,1663,1613,1604,1515,1480,1465,1410,1383,1375,1339,1270,1245,1209,1231,1190,1239,1251,1298,1297,1290,1317,1346,1340,1320,1317,1333,1366,1335,1373,1374,1367,1314,1320,1344,1352,1355,1330,1375,1421,1367,1361,1376,1345,1346,1655,1715,1791,1897,2074,2474,2610,2696,2797,2936,2777,2648,2762,2635,2687,2695,2419,2529,2486,2352,2390,2300,2215,2170,2116,2029,2080,1914,1924,1843,1783,1770,1715,1650,1678,1711,1706,1734,1889,1894,1923,2195,1933,1902,1922,2022,1991,1989,2004,1993,1941,1945,2017,2014,2014,1904,1919,1920,1968,1985,1915,1961,1938,1938,1933,0,0,0,0,0,0,0,0,0,0,0,0,0,0,0,0,0,0,0,0,0,0,0,0,0,0,0,0,0,0,0,0,0,0,0,0,0,0,0,0,0,0,0,0,0,0,0,0,0,0,0,0,0,0,0,0,0,0,0,0,0,0,0,0,0,1066,1069,1072,1133,1230,1338,1621,1764,1805,1895,1835,1802,1771,1794,1703,1721,1642,1610,1616,1546,1559,1526,1450,1472,1385,1353,1342,1289,1265,1259,1227,1160,1138,1101,1123,1082,1130,1142,1145,1139,1152,1175,1181,1190,1167,1182,1147,1164,1165,1162,1160,1175,1185,1200,1214,1207,1153,1167,1175,1179,1185,1187,1199,1215,1180,1149,1152,1156,1347,1340,1463,1756,1896,1939,2026,1961,1926,1892,1918,1916,1837,1756,1722,1745,1654,1665,1630,1580,1572,1484,1450,1436,1382,1356,1349,1314,1246,1221,1186,1207,1167,1215,1227,1274,1265,1259,1349,1319,1317,1298,1284,1304,1341,1314,1348,1345,1349,1285,1297,1318,1323,1325,1303,1349,1397,1336,1325,1351,1310,1313,990,992,995,1049,1126,1230,1491,1645,1693,1785,1722,1692,1661,1684,1600,1617,1539,1509,1528,1448,1462,1431,1357,1374,1296,1265,1249,1204,1175,1179,1147,1082,1061,1025,1046,1005,1052,1058,1055,1050,1070,1127,1090,1099,1083,1069,1074,1103,1085,1074,1082,1113,1150,1149,1113,1091,1078,1087,1076,1070,1073,1099,1080,1103,1063,317,318,319,320,321,337,379,422,464,505,518,510,502,553,486,545,470,462,454,446,438,490,422,414,406,398,390,382,374,366,358,350,342,334,326,322,323,323,310,310,311,314,315,320,319,324,322,318,324,316,311,311,312,319,314,314,315,312,311,311,311,314,308,318,312,668,670,671,673,687,769,889,1009,1114,1167,1166,1146,1125,1105,1085,1064,1068,1058,1036,1026,963,942,922,902,881,861,851,836,800,802,759,739,751,703,681,673,690,694,685,685,686,687,687,686,686,690,685,691,691,691,692,694,694,697,697,698,694,699,697,700,698,700,701,701,698,1372,1412,1391,1414,1535,1874,2026,2181,2236,2400,2247,2208,2255,2131,2194,2156,2015,2006,2030,1899,1911,1934,1832,1744,1706,1667,1728,1590,1551,1512,1474,1435,1409,1414,1356,1391,1370,1376,1473,1467,1458,1548,1541,1518,1497,1495,1507,1563,1509,1545,1559,1526,1480,1516,1510,1520,1527,1495,1542,1611,1575,1585,1593,1528,1524,647,644,646,648,664,726,818,910,993,1035,1039,1022,1058,990,974,1030,942,926,910,961,878,861,845,829,813,857,781,804,793,733,716,700,684,668,655,651,658,660,653,661,656,672,676,669,676,699,676,684,686,693,732,691,701,726,683,670,685,679,674,683,682,678,675,689,676,1173,1176,1180,1380,1377,1507,1805,1944,1985,2071,2005,1970,1935,1959,1956,1876,1795,1760,1781,1690,1699,1663,1613,1604,1515,1480,1465,1410,1383,1375,1339,1270,1245,1209,1231,1190,1239,1251,1298,1297,1290,1317,1346,1340,1320,1317,1333,1366,1335,1373,1374,1367,1314,1320,1344,1352,1355,1330,1375,1421,1367,1361,1376,1345,1346,182,182,183,183,184,190,215,241,266,292,306,301,296,291,286,281,276,271,267,262,257,252,247,242,237,232,227,222,218,213,208,203,198,193,188,184,185,185,172,172,172,172,173,172,174,173,174,173,173,173,174,174,173,174,175,177,174,174,174,175,178,177,175,174,174,1111,1162,1147,1148,1312,1465,1597,1794,1817,1851,1840,1882,1771,1746,1675,1756,1740,1641,1552,1501,1546,1447,1457,1455,1427,1397,1369,1322,1282,1220,1249,1247,1166,1192,1157,1093,1192,1134,1183,1167,1177,1179,1203,1243,1193,1211,1208,1212,1249,1218,1215,1226,1221,1238,1196,1204,1216,1221,1215,1229,1212,1229,1216,1214,1218,1094,1097,1100,1131,1279,1434,1693,1787,1871,1887,1883,1839,1814,1791,1751,1723,1710,1644,1613,1588,1541,1529,1489,1456,1418,1365,1331,1322,1275,1232,1211,1185,1132,1125,1109,1110,1117,1125,1158,1147,1177,1167,1179,1216,1173,1182,1182,1206,1218,1205,1204,1220,1215,1208,1188,1185,1184,1203,1182,1193,1195,1203,1175,1192,1211,0,0,0,0,0,0,0,0,0,0,0,0,0,0,0,0,0,0,0,0,0,0,0,0,0,0,0,0,0,0,0,0,0,0,0,0,0,0,0,0,0,0,0,0,0,0,0,0,0,0,0,0,0,0,0,0,0,0,0,0,0,0,0,0,0,159,159,160,160,160,164,184,204,224,244,257,253,249,245,241,237,233,230,226,222,218,214,210,206,203,199,195,191,187,183,179,176,172,168,164,161,161,162,148,154,150,151,154,154,154,157,150,155,151,151,152,155,157,159,157,155,152,151,159,156,152,152,154,157,154,120,120,121,121,121,124,140,157,173,189,201,198,195,192,188,185,182,179,176,173,169,166,163,160,157,153,150,147,144,141,137,134,131,128,125,122,122,122,110,110,109,110,110,111,109,109,109,110,109,109,109,109,110,111,109,110,111,109,110,112,110,111,109,109,109,1157,1160,1191,1217,1385,1580,1823,1911,1997,2046,2076,1985,1929,1972,1889,1837,1839,1807,1771,1692,1646,1632,1591,1590,1514,1502,1451,1434,1360,1308,1311,1278,1218,1188,1174,1206,1213,1225,1244,1216,1229,1246,1272,1264,1239,1238,1242,1253,1303,1284,1284,1269,1285,1280,1310,1273,1269,1297,1298,1294,1280,1280,1309,1330,1300,657,659,697,663,722,749,905,946,1035,1077,1078,1060,1044,1027,1008,1045,976,958,941,923,906,889,872,855,838,820,825,787,769,766,735,718,711,684,671,667,668,670,692,679,659,664,690,695,691,703,683,707,714,753,741,752,710,771,714,678,693,707,754,779,747,777,764,749,731,789,845,793,795,828,915,1024,1151,1239,1286,1284,1257,1237,1222,1197,1167,1160,1138,1117,1100,1085,1027,1009,1017,998,977,958,937,892,897,877,849,838,792,804,793,802,779,778,792,789,802,799,792,801,802,794,797,792,795,794,793,791,797,799,799,802,797,793,799,799,831,829,835,822,944,950,911,961,976,1066,1206,1360,1432,1468,1579,1442,1407,1417,1378,1411,1331,1291,1328,1289,1286,1277,1256,1169,1204,1125,1121,1071,1081,1086,1071,1048,964,997,949,966,956,970,958,960,984,998,965,989,965,981,967,998,1000,980,983,986,988,1000,991,986,977,984,1013,996,991,983,970,999,992,182,182,183,183,184,190,215,241,266,292,306,301,296,291,286,281,276,271,267,262,257,252,247,242,237,232,227,222,218,213,208,203,198,193,188,184,185,185,172,172,172,172,173,172,174,173,174,173,173,173,174,174,173,174,175,177,174,174,174,175,178,177,175,174,174,38,39,39,39,39,39,44,50,55,60,65,64,63,62,61,60,59,58,57,56,55,54,53,52,51,50,49,47,46,45,44,43,42,41,40,39,39,39,8,8,9,9,9,9,9,9,9,9,9,9,9,9,9,8,8,9,9,9,9,9,9,9,9,9,9,1225,1245,1223,1264,1311,1545,1814,1732,1852,2014,2095,1971,1862,1831,1802,1770,1692,1771,1750,1700,1555,1507,1519,1540,1538,1496,1468,1377,1394,1401,1305,1275,1213,1217,1268,1176,1230,1284,1274,1267,1276,1273,1303,1328,1285,1313,1306,1332,1319,1323,1320,1321,1305,1332,1305,1315,1306,1307,1296,1336,1317,1333,1310,1313,1328,1149,1152,1156,1208,1388,1534,1759,1903,1971,1991,1979,2014,1905,1870,1940,1800,1765,1730,1686,1663,1625,1590,1558,1520,1485,1450,1415,1383,1337,1305,1275,1240,1279,1181,1171,1171,1177,1247,1235,1234,1235,1267,1254,1273,1243,1249,1249,1248,1279,1257,1272,1268,1257,1269,1283,1273,1249,1254,1269,1259,1254,1253,1253,1281,1248,179,180,180,181,181,186,209,233,256,280,294,289,285,280,276,271,267,262,258,253,249,244,240,235,231,226,221,217,212,208,203,199,194,190,185,182,182,183,173,174,175,232,188,172,171,174,178,190,188,179,184,181,170,172,177,184,173,171,172,173,174,171,179,178,169,0,0,0,0,0,0,0,0,0,0,0,0,0,0,0,0,0,0,0,0,0,0,0,0,0,0,0,0,0,0,0,0,0,0,0,0,0,0,0,0,0,0,0,0,0,0,0,0,0,0,0,0,0,0,0,0,0,0,0,0,0,0,0,0,0,215,216,217,217,218,226,256,286,316,346,361,355,349,343,338,332,326,321,315,309,303,298,292,286,280,275,269,263,257,252,246,240,234,229,223,219,219,220,200,201,205,212,201,200,200,202,204,200,202,200,201,201,200,201,201,202,201,203,201,204,201,204,202,204,203,1212,1238,1220,1304,1520,1720,1889,2030,2096,2114,2097,2133,2023,2051,1974,1933,1894,1892,1852,1812,1737,1694,1693,1620,1613,1547,1533,1494,1454,1414,1364,1327,1296,1268,1264,1265,1273,1335,1343,1318,1315,1341,1313,1312,1313,1340,1334,1420,1314,1320,1341,1325,1367,1321,1337,1336,1352,1334,1319,1328,1342,1336,1338,1335,1330,748,741,753,718,786,820,984,1099,1162,1224,1166,1205,1171,1148,1092,1114,1108,1088,1073,1049,1030,1010,944,971,907,952,913,851,832,854,795,806,758,740,726,722,761,765,746,746,745,758,756,748,756,770,755,762,772,771,847,848,854,793,776,767,766,764,752,760,767,758,756,759,754,854,864,867,870,930,1023,1242,1237,1368,1453,1527,1428,1326,1305,1285,1261,1271,1239,1270,1249,1164,1123,1110,1108,1219,1211,1059,1009,1007,1020,963,941,893,898,915,849,876,950,889,891,886,936,915,890,897,913,904,920,952,909,917,902,890,894,901,912,894,894,886,894,892,902,912,912,884,969,992,1007,1069,1060,1204,1383,1442,1507,1560,1557,1533,1489,1476,1489,1463,1438,1368,1350,1324,1351,1295,1298,1237,1219,1290,1157,1171,1159,1105,1240,1043,1081,1078,973,1000,983,1027,1016,1027,1038,1054,1051,1045,1040,1055,1034,1040,1042,1038,1034,1051,1052,1067,1108,1099,1050,1051,1054,1040,1032,1032,1050,1050,1035,38,39,39,39,39,39,44,50,55,60,65,64,63,62,61,60,59,58,57,56,55,54,53,52,51,50,49,47,46,45,44,43,42,41,40,39,39,39,8,8,9,9,9,9,9,9,9,9,9,9,9,9,9,8,8,9,9,9,9,9,9,9,9,9,9,190,191,192,192,193,199,226,253,279,306,320,315,310,305,300,295,289,284,279,274,269,264,259,254,248,243,238,233,228,223,218,212,207,202,197,193,194,194,196,179,180,184,189,185,189,186,189,187,195,205,243,205,200,215,202,188,189,205,248,255,258,271,279,234,218,1149,1096,1130,1211,1235,1380,1525,1721,1831,1859,1846,1844,1681,1783,1726,1751,1593,1621,1635,1582,1516,1456,1577,1465,1435,1408,1314,1349,1342,1283,1231,1151,1169,1178,1184,1156,1213,1172,1236,1204,1200,1208,1197,1211,1208,1215,1223,1288,1218,1242,1254,1251,1230,1265,1267,1225,1216,1226,1248,1265,1249,1271,1266,1269,1252,996,988,1012,1032,1104,1287,1476,1620,1695,1719,1697,1679,1652,1621,1580,1557,1523,1489,1456,1432,1404,1380,1343,1310,1282,1253,1219,1180,1157,1138,1122,1080,1067,1020,1010,1029,1032,1013,1052,1011,1020,1017,1035,1045,1029,1036,1029,1043,1072,1062,1057,1066,1072,1087,1068,1076,1051,1081,1085,1084,1087,1073,1099,1108,1097,85,85,85,85,86,87,97,107,117,127,136,134,132,130,128,126,124,122,120,118,116,114,112,110,108,106,104,102,100,98,96,94,92,90,88,86,86,86,66,65,65,66,66,69,65,66,66,66,66,66,65,66,66,64,65,66,66,66,65,65,66,66,65,65,65,167,168,168,169,169,174,195,216,237,258,271,267,263,259,255,251,247,242,238,234,230,226,222,218,214,210,206,202,197,193,189,185,181,177,173,170,170,171,158,161,158,162,165,163,164,169,161,165,165,177,159,162,164,165,162,162,165,169,163,163,163,163,161,162,161,0,0,0,0,0,0,0,0,0,0,0,0,0,0,0,0,0,0,0,0,0,0,0,0,0,0,0,0,0,0,0,0,0,0,0,0,0,0,0,0,0,0,0,0,0,0,0,0,0,0,0,0,0,0,0,0,0,0,0,0,0,0,0,0,0,1082,1089,1099,1136,1245,1465,1690,1745,1822,1844,1820,1796,1768,1759,1720,1671,1636,1616,1565,1587,1519,1482,1443,1446,1410,1351,1315,1317,1248,1215,1211,1148,1159,1110,1074,1120,1119,1100,1115,1128,1129,1170,1169,1154,1146,1161,1142,1143,1157,1164,1150,1187,1169,1161,1166,1176,1177,1157,1133,1193,1157,1196,1169,1203,1173,573,574,576,577,600,643,744,817,897,939,942,927,917,900,879,869,854,835,824,812,798,786,770,756,736,722,713,686,675,674,643,628,649,598,585,593,582,584,577,591,591,603,605,605,595,617,586,617,606,631,603,607,626,639,615,606,616,610,617,608,610,615,596,605,596,797,800,777,917,838,925,1003,1132,1253,1308,1291,1291,1226,1259,1211,1217,1170,1149,1282,1109,1089,1071,1048,1008,1008,988,967,947,927,899,887,842,848,826,828,802,804,813,805,799,812,824,817,821,812,828,821,830,825,816,824,851,869,854,846,837,813,822,814,816,807,825,822,836,810,831,850,904,871,895,974,1086,1253,1338,1336,1370,1352,1339,1306,1302,1255,1248,1226,1235,1177,1179,1140,1134,1092,1067,1053,1015,1044,975,954,945,943,906,891,841,863,841,841,866,888,873,878,879,896,878,896,890,930,908,929,943,916,905,912,936,902,906,915,1000,977,939,930,948,947,934,190,191,192,192,193,199,226,253,279,306,320,315,310,305,300,295,289,284,279,274,269,264,259,254,248,243,238,233,228,223,218,212,207,202,197,193,194,194,196,179,180,184,189,185,189,186,189,187,195,205,243,205,200,215,202,188,189,205,248,255,258,271,279,234,218,1352,1365,1422,1441,1614,1977,2130,2192,2275,2306,2331,2237,2197,2158,2181,2126,2183,2001,1961,1974,1911,1925,1832,1775,1794,1767,1738,1607,1632,1565,1527,1450,1415,1389,1374,1374,1380,1480,1471,1459,1473,1497,1481,1488,1480,1506,1488,1501,1494,1476,1495,1519,1542,1524,1518,1511,1481,1502,1488,1481,1475,1511,1496,1517,1484,1578,1643,1729,1923,2387,2657,2930,3050,3133,3066,2956,3061,3084,2964,2810,2706,2726,2606,2626,2590,2484,2446,2307,2295,2255,2190,2035,2011,1988,1906,1840,1793,1714,1677,1628,1735,1734,1740,1904,1901,1963,2228,1983,1953,1958,2068,2006,1946,2070,2018,1966,1980,2055,2041,2014,1923,1961,1962,1996,2003,1952,1998,1948,1962,1984,295,296,297,298,299,314,356,398,439,480,494,486,478,470,462,455,447,439,431,423,415,407,399,391,383,376,368,360,352,344,336,328,320,312,304,300,301,301,294,296,295,296,300,295,297,303,293,299,295,294,297,301,300,300,300,297,295,295,302,303,296,297,295,297,296,1246,1258,1303,1306,1424,1683,1937,2014,2102,2136,2164,2072,2034,1999,2026,1973,1933,1853,1817,1832,1752,1761,1671,1645,1667,1643,1542,1488,1444,1452,1416,1342,1307,1281,1259,1266,1271,1306,1342,1335,1334,1338,1325,1336,1328,1328,1349,1406,1334,1350,1352,1355,1352,1364,1371,1352,1344,1344,1344,1351,1342,1346,1356,1353,1355,1329,1342,1394,1408,1572,1928,2082,2145,2230,2262,2288,2194,2156,2117,2142,2087,2146,1964,1925,1939,1878,1892,1800,1744,1764,1738,1710,1580,1605,1540,1502,1426,1391,1365,1350,1350,1356,1456,1452,1432,1444,1452,1457,1455,1472,1479,1464,1465,1476,1480,1498,1505,1476,1472,1489,1502,1503,1531,1541,1476,1511,1541,1549,1524,1512,1169,1175,1222,1217,1322,1567,1829,1897,1986,2015,2053,1962,1927,1892,1921,1870,1832,1753,1718,1736,1648,1668,1579,1548,1578,1556,1523,1404,1369,1371,1338,1265,1231,1204,1189,1188,1194,1287,1239,1235,1250,1340,1259,1242,1258,1291,1268,1256,1267,1267,1267,1266,1279,1273,1281,1274,1269,1271,1280,1285,1274,1289,1274,1283,1289,0,0,0,0,0,0,0,0,0,0,0,0,0,0,0,0,0,0,0,0,0,0,0,0,0,0,0,0,0,0,0,0,0,0,0,0,0,0,0,0,0,0,0,0,0,0,0,0,0,0,0,0,0,0,0,0,0,0,0,0,0,0,0,0,0,850,849,851,856,899,1015,1168,1354,1453,1453,1450,1425,1400,1410,1350,1348,1300,1425,1281,1226,1201,1176,1151,1126,1101,1076,1052,1027,1002,977,952,927,902,878,862,864,864,869,889,893,845,841,876,866,867,870,875,899,931,879,883,898,907,897,871,900,902,913,947,904,891,892,940,873,871,1515,1561,1556,1700,1876,2074,2369,2586,2584,2538,2515,2504,2624,2509,2399,2300,2257,2214,2292,2158,2114,2071,2076,1999,1914,1977,1855,1785,1909,1699,1694,1614,1616,1553,1629,1576,1571,1552,1681,1680,1694,1729,1701,1724,1698,1711,1696,1695,1729,1703,1732,1749,1733,1731,1725,1726,1719,1738,1732,1715,1739,1733,1719,1743,1719,782,785,787,842,821,910,1032,1153,1242,1403,1296,1340,1243,1223,1202,1182,1161,1170,1120,1100,1079,1076,1038,1034,997,976,964,935,923,917,873,853,832,812,805,794,796,798,793,808,806,821,832,822,818,832,805,829,820,847,810,829,838,839,837,841,837,838,829,816,815,823,827,821,805,1352,1365,1422,1441,1614,1977,2130,2192,2275,2306,2331,2237,2197,2158,2181,2126,2183,2001,1961,1974,1911,1925,1832,1775,1794,1767,1738,1607,1632,1565,1527,1450,1415,1389,1374,1374,1380,1480,1471,1459,1473,1497,1481,1488,1480,1506,1488,1501,1494,1476,1495,1519,1542,1524,1518,1511,1481,1502,1488,1481,1475,1511,1496,1517,1484,643,645,647,649,666,734,832,930,1017,1059,1061,1044,1041,1010,993,976,959,942,925,908,891,874,887,840,834,807,790,773,756,764,722,705,688,671,657,653,664,657,674,666,663,667,676,669,675,668,675,674,671,667,685,677,680,672,672,678,672,679,668,677,679,676,672,668,667,1474,1484,1559,1512,1732,1929,2215,2223,2289,2348,2438,2267,2259,2281,2258,2146,2119,2154,2119,1982,1924,1924,1900,1829,1877,1775,1770,1697,1711,1626,1577,1509,1490,1506,1431,1464,1500,1514,1579,1567,1572,1597,1583,1618,1573,1585,1617,1689,1595,1616,1620,1660,1664,1660,1681,1620,1603,1617,1616,1624,1610,1632,1619,1655,1606,688,689,691,693,721,825,963,1105,1210,1276,1244,1221,1198,1175,1154,1131,1110,1190,1061,1037,1015,993,970,971,924,892,870,855,824,810,789,764,734,735,703,699,706,707,723,710,712,718,723,715,729,716,722,722,720,715,735,728,724,720,741,735,718,725,714,720,725,729,721,720,714,537,539,541,542,549,590,677,756,833,878,882,869,869,831,828,814,800,786,771,758,744,730,707,702,687,674,660,646,631,618,604,583,575,555,549,545,540,548,540,532,532,537,563,561,565,568,560,573,561,547,561,542,542,559,552,545,560,547,538,559,557,569,560,564,556,620,622,624,626,639,701,792,883,968,1011,1014,998,996,966,950,934,918,902,887,871,855,839,852,807,801,775,759,743,727,736,695,679,663,647,633,629,640,633,629,629,637,653,644,653,651,668,655,646,670,654,686,680,684,674,644,642,655,657,656,639,651,659,645,657,648,461,463,464,466,469,508,576,644,711,759,766,753,747,729,717,705,692,680,668,656,643,631,619,607,599,582,570,558,546,533,521,509,497,484,473,468,473,471,461,464,464,476,481,479,483,508,484,485,490,502,508,480,490,517,480,478,488,500,481,485,490,495,488,487,486,778,780,777,767,827,931,1082,1231,1339,1403,1414,1344,1394,1366,1269,1244,1283,1197,1173,1198,1171,1163,1116,1109,1060,1000,968,977,949,903,893,837,822,838,787,786,769,805,814,799,802,806,801,802,874,871,807,837,822,807,809,859,864,877,870,876,864,881,882,855,839,837,816,810,812,0,0,0,0,0,0,0,0,0,0,0,0,0,0,0,0,0,0,0,0,0,0,0,0,0,0,0,0,0,0,0,0,0,0,0,0,0,0,0,0,0,0,0,0,0,0,0,0,0,0,0,0,0,0,0,0,0,0,0,0,0,0,0,0,0,1164,1130,1201,1148,1232,1360,1620,1695,1773,1801,1803,1777,1734,1721,1678,1648,1634,1609,1579,1519,1507,1479,1464,1436,1405,1365,1475,1308,1319,1251,1211,1209,1192,1144,1131,1143,1145,1148,1185,1167,1170,1172,1195,1214,1205,1213,1196,1203,1235,1214,1214,1210,1218,1229,1258,1211,1214,1230,1231,1233,1218,1215,1243,1289,1233,586,575,576,578,587,636,712,789,868,909,914,901,888,891,877,848,830,816,802,789,775,761,748,748,720,707,693,679,666,652,650,625,622,597,585,581,583,584,577,570,564,573,577,606,573,580,593,587,576,582,570,579,579,565,580,584,582,580,575,577,588,594,587,594,584,643,645,647,649,666,734,832,930,1017,1059,1061,1044,1041,1010,993,976,959,942,925,908,891,874,887,840,834,807,790,773,756,764,722,705,688,671,657,653,664,657,674,666,663,667,676,669,675,668,675,674,671,667,685,677,680,672,672,678,672,679,668,677,679,676,672,668,667,742,701,706,708,732,860,970,1064,1112,1218,1189,1196,1119,1092,1078,1063,1080,1080,1008,985,1024,952,930,915,911,878,907,870,877,849,783,767,749,730,717,753,709,711,728,723,726,731,732,726,736,725,731,733,738,728,739,743,740,740,754,744,731,733,731,737,731,740,737,739,735,442,469,471,472,478,517,585,653,721,678,688,677,754,697,729,633,704,692,639,663,579,568,630,618,605,593,577,565,553,544,528,516,507,494,482,478,422,424,461,467,462,471,473,472,470,483,462,472,468,468,464,475,475,473,471,471,472,468,480,483,467,473,464,471,468,1467,1479,1544,1670,1821,2076,2294,2368,2465,2464,2442,2413,2339,2318,2280,2213,2178,2139,2114,2062,2058,1979,1943,1894,1858,1838,1770,1730,1677,1636,1604,1545,1509,1533,1597,1499,1515,1494,1597,1642,1600,1617,1657,1613,1621,1634,1628,1633,1655,1643,1643,1632,1642,1641,1675,1658,1656,1651,1688,1625,1654,1658,1678,1656,1651,764,760,769,809,802,910,1030,1226,1196,1276,1250,1257,1260,1189,1169,1149,1129,1135,1090,1061,1074,1093,1011,983,971,991,968,932,912,892,852,832,812,793,779,794,771,773,777,791,792,794,806,806,805,807,793,801,797,791,795,806,813,821,812,822,804,810,818,802,798,792,806,812,791,719,678,683,685,704,825,928,1015,1063,1170,1142,1150,1074,1048,1035,1022,1039,1041,969,948,988,917,895,882,878,847,877,840,848,821,756,742,724,707,693,729,685,687,692,700,706,723,725,725,716,747,716,744,728,739,751,720,748,793,730,721,739,733,725,729,738,749,721,725,717,797,794,806,802,822,953,1079,1254,1255,1336,1300,1305,1256,1242,1221,1207,1179,1179,1144,1114,1114,1124,1057,1031,1015,1037,1010,976,955,924,892,866,850,830,816,822,809,802,812,804,817,836,832,830,818,816,829,851,824,831,859,874,906,886,871,840,825,833,831,829,824,838,823,855,816,1553,1566,1660,1780,1969,2205,2505,2489,2587,2585,2561,2530,2518,2433,2449,2346,2362,2247,2220,2167,2160,2082,2039,1989,1980,1952,1895,1838,1767,1724,1689,1632,1596,1617,1620,1595,1612,1581,1718,1704,1709,1709,1840,1746,1747,1757,1738,1749,1828,1836,1757,1762,1763,1790,1915,1788,1766,1767,1799,1786,1774,1764,1796,1825,1801,1058,1071,1085,1106,1178,1316,1489,1702,1703,1731,1787,1692,1817,1645,1618,1730,1559,1538,1507,1522,1452,1429,1399,1363,1348,1319,1284,1260,1238,1204,1177,1139,1122,1140,1140,1084,1084,1185,1121,1137,1135,1151,1172,1167,1168,1185,1157,1187,1175,1159,1167,1170,1177,1184,1179,1180,1173,1166,1175,1174,1167,1172,1172,1200,1170,0,0,0,0,0,0,0,0,0,0,0,0,0,0,0,0,0,0,0,0,0,0,0,0,0,0,0,0,0,0,0,0,0,0,0,0,0,0,0,0,0,0,0,0,0,0,0,0,0,0,0,0,0,0,0,0,0,0,0,0,0,0,0,0,0,1540,1558,1619,1733,1831,2166,2310,2486,2416,2524,2525,2384,2349,2331,2293,2276,2286,2273,2249,2118,2138,2043,2008,1954,1939,1927,1827,1831,1771,1776,1723,1684,1647,1590,1575,1629,1569,1600,1732,1738,1690,1701,1732,1723,1727,1740,1733,1743,1792,1740,1754,1764,1766,1770,1744,1774,1788,1788,1822,1773,1767,1777,1827,1762,1766,742,701,706,708,732,860,970,1064,1112,1218,1189,1196,1119,1092,1078,1063,1080,1080,1008,985,1024,952,930,915,911,878,907,870,877,849,783,767,749,730,717,753,709,711,728,723,726,731,732,726,736,725,731,733,738,728,739,743,740,740,754,744,731,733,731,737,731,740,737,739,735,1093,1092,1109,1174,1282,1307,1513,1580,1721,1678,1700,1701,1700,1659,1640,1603,1563,1509,1495,1483,1427,1380,1354,1350,1324,1381,1353,1252,1213,1198,1189,1147,1127,1102,1117,1117,1076,1099,1106,1113,1120,1128,1141,1139,1136,1149,1123,1143,1131,1122,1133,1131,1142,1152,1146,1154,1137,1138,1143,1133,1131,1129,1142,1151,1127,1954,2026,2209,2265,2609,2679,2923,3069,3135,3046,3031,3001,2973,2968,2964,2908,2736,2688,2689,2613,2643,2530,2425,2415,2413,2367,2271,2175,2133,2168,2053,2059,2033,1952,2002,2018,1993,2047,2322,2337,2378,2389,2560,2401,2424,2442,2430,2462,2559,2589,2505,2493,2502,2513,2718,2600,2543,2562,2629,2575,2584,2609,2616,2613,2643,718,720,722,724,747,817,935,1021,1105,1149,1147,1129,1111,1093,1076,1058,1040,1062,1020,987,1013,995,934,930,912,881,863,858,828,810,792,796,757,739,746,815,745,748,745,747,743,752,756,762,776,787,756,753,758,766,760,751,756,775,768,761,758,764,754,764,761,767,764,779,760,938,935,953,926,1057,1086,1229,1316,1471,1477,1520,1461,1476,1474,1401,1349,1339,1288,1279,1271,1219,1176,1159,1151,1147,1119,1097,1078,1053,1027,1007,985,952,941,973,943,917,939,948,935,942,939,969,1014,955,980,985,1004,1003,1023,1016,1021,980,1001,993,982,991,985,996,1058,1022,1036,1019,1017,1029,1070,1068,1086,1144,1246,1265,1463,1531,1674,1632,1655,1657,1657,1617,1599,1563,1524,1470,1458,1447,1392,1346,1320,1318,1293,1351,1324,1224,1186,1171,1163,1122,1104,1078,1093,1093,1052,1075,1092,1098,1088,1122,1101,1092,1103,1115,1099,1112,1116,1111,1112,1098,1096,1103,1112,1113,1095,1103,1091,1101,1091,1108,1103,1103,1087,921,924,941,914,1034,1073,1208,1289,1450,1452,1430,1441,1453,1437,1381,1337,1326,1276,1304,1259,1207,1164,1138,1129,1125,1107,1115,1060,1034,1016,995,1011,935,920,955,932,906,922,942,902,908,919,902,940,916,927,925,928,953,928,930,922,927,947,954,928,923,943,924,934,931,924,937,959,935,969,963,975,1010,1059,1159,1325,1431,1513,1549,1542,1474,1480,1472,1473,1449,1424,1439,1381,1349,1339,1317,1262,1279,1243,1218,1194,1183,1101,1150,1075,1091,1051,1014,1036,1047,1022,980,1034,1060,1024,1029,1067,1055,1035,1045,1039,1066,1058,1034,1047,1050,1062,1068,1063,1066,1050,1054,1066,1073,1074,1077,1082,1080,1067,810,759,761,760,790,865,966,1067,1145,1176,1240,1160,1144,1126,1108,1091,1074,1056,1039,1128,1099,988,970,952,980,917,900,882,906,888,830,813,831,778,812,764,771,773,767,807,768,767,789,778,776,790,783,798,806,779,784,787,797,804,804,815,793,799,809,792,814,816,833,810,805,1652,1663,1821,1820,2011,2189,2362,2514,2585,2518,2508,2479,2472,2477,2498,2426,2303,2224,2307,2205,2105,2101,2038,2129,2028,1977,1917,1828,1793,1823,1754,1739,1679,1657,1735,1673,1636,1721,1845,1815,1810,1826,1825,1864,1886,1879,1861,1953,1854,1849,1854,1902,1911,1912,1924,1932,1905,1925,1896,1889,1894,1876,1857,1868,1849,0,0,0,0,0,0,0,0,0,0,0,0,0,0,0,0,0,0,0,0,0,0,0,0,0,0,0,0,0,0,0,0,0,0,0,0,0,0,0,0,0,0,0,0,0,0,0,0,0,0,0,0,0,0,0,0,0,0,0,0,0,0,0,0,0,1093,1092,1109,1174,1282,1307,1513,1580,1721,1678,1700,1701,1700,1659,1640,1603,1563,1509,1495,1483,1427,1380,1354,1350,1324,1381,1353,1252,1213,1198,1189,1147,1127,1102,1117,1117,1076,1099,1106,1113,1120,1128,1141,1139,1136,1149,1123,1143,1131,1122,1133,1131,1142,1152,1146,1154,1137,1138,1143,1133,1131,1129,1142,1151,1127,0,0,0,0,0,0,0,0,0,0,0,0,0,0,0,0,0,0,0,0,0,0,0,0,0,0,0,0,0,0,0,0,0,0,0,0,0,0,0,0,0,0,0,0,0,0,0,0,0,0,0,0,0,0,0,0,0,0,0,0,0,0,0,0,0,1161,1257,1146,1221,1311,1449,1649,1890,1888,1862,1831,1950,1932,1790,1701,1665,1814,1758,1773,1660,1628,1643,1513,1507,1467,1447,1461,1352,1357,1249,1330,1258,1184,1181,1286,1183,1147,1169,1231,1203,1204,1208,1245,1237,1229,1231,1242,1252,1266,1290,1333,1274,1295,1294,1329,1260,1266,1306,1344,1371,1358,1375,1404,1340,1310,1151,1149,1116,1157,1269,1469,1751,1902,1909,1931,1919,1882,1848,1814,1779,1816,1701,1677,1643,1609,1575,1570,1507,1476,1430,1407,1371,1337,1330,1268,1234,1200,1169,1141,1131,1131,1137,1144,1165,1185,1141,1135,1177,1154,1170,1177,1170,1169,1216,1175,1179,1197,1195,1204,1172,1200,1208,1203,1227,1180,1188,1196,1235,1172,1170,140,140,141,141,142,145,162,180,198,216,229,225,222,218,215,211,208,204,201,197,194,190,187,183,180,176,173,169,166,162,159,155,152,148,145,142,142,143,131,131,132,132,131,131,133,133,133,131,133,132,131,131,131,131,131,131,132,132,132,131,131,131,131,132,133,125,125,125,126,126,128,143,158,173,188,200,197,194,191,188,185,182,179,176,173,170,167,164,161,158,155,152,150,147,144,141,138,135,132,129,126,127,127,112,112,112,113,113,115,112,112,115,115,112,113,112,113,113,112,113,113,113,113,112,113,113,113,115,112,113,176,177,177,178,179,184,208,233,257,282,296,291,286,282,277,272,267,263,258,253,249,244,239,235,230,225,220,216,211,206,202,197,192,187,183,179,180,180,185,165,165,166,167,166,173,169,171,167,174,175,209,171,175,202,169,170,171,177,208,228,239,249,242,190,193,1214,1239,1179,1254,1392,1592,1881,2025,2034,2054,2037,2002,2050,1930,1894,1945,1878,1802,1764,1754,1723,1713,1609,1573,1580,1541,1458,1430,1423,1344,1323,1288,1253,1228,1235,1197,1224,1239,1274,1273,1273,1386,1326,1290,1298,1312,1300,1305,1318,1321,1314,1309,1312,1320,1317,1306,1306,1304,1295,1291,1282,1312,1311,1310,1267,713,716,676,706,698,769,931,1040,1098,1102,1162,1146,1111,1108,1074,1069,1051,981,1014,997,977,948,931,910,903,840,855,805,834,770,753,735,717,700,724,682,721,723,728,698,700,709,691,697,705,702,720,739,706,720,776,722,730,784,736,716,714,714,764,818,835,860,859,747,745,809,861,821,830,867,978,1077,1254,1313,1297,1364,1417,1274,1267,1264,1236,1248,1194,1299,1188,1165,1144,1071,1074,1075,1029,1095,1015,969,926,936,924,884,826,840,826,846,867,852,851,848,862,871,855,864,875,868,862,873,878,950,953,968,924,864,859,866,870,863,869,866,863,860,886,862,951,951,936,968,1039,1111,1273,1403,1479,1478,1462,1486,1524,1409,1406,1361,1440,1366,1373,1289,1294,1240,1217,1285,1239,1206,1145,1137,1095,1087,1078,1003,1008,977,967,960,977,948,968,966,974,970,1006,1001,1015,1017,985,1032,1024,1023,1017,998,1005,1034,1015,1004,1013,1006,996,1013,1009,1028,1011,1029,1028,0,0,0,0,0,0,0,0,0,0,0,0,0,0,0,0,0,0,0,0,0,0,0,0,0,0,0,0,0,0,0,0,0,0,0,0,0,0,0,0,0,0,0,0,0,0,0,0,0,0,0,0,0,0,0,0,0,0,0,0,0,0,0,0,0 ]);
