n = 10;
D = [259,114,70,150,129,121,117,103,287,80 ];
q = 0;
prec = array2d(1..0,1..2,[]);
steps = 64;
l = 360;
r = 0;
which = [];
interval = array2d(1..0,1..2,[]);
T = array3d(1..11,1..11,0..64,[0,0,0,0,0,0,0,0,0,0,0,0,0,0,0,0,0,0,0,0,0,0,0,0,0,0,0,0,0,0,0,0,0,0,0,0,0,0,0,0,0,0,0,0,0,0,0,0,0,0,0,0,0,0,0,0,0,0,0,0,0,0,0,0,0,730,691,700,697,733,900,1098,1235,1359,1336,1338,1307,1298,1276,1257,1241,1230,1243,1236,1190,1172,1173,1138,1118,1069,1056,1024,1002,989,955,935,748,738,718,709,698,702,682,679,679,679,692,687,686,685,683,686,691,690,689,695,687,685,682,693,690,681,685,677,685,689,698,687,677,672,657,613,619,616,629,718,949,1079,1189,1177,1180,1158,1142,1125,1106,1104,1085,1105,1107,1069,1052,1033,1015,997,952,933,914,894,719,718,713,689,681,636,613,618,621,592,578,587,591,589,592,593,590,594,588,606,586,590,595,599,614,618,620,602,602,588,605,603,603,601,600,616,597,152,153,153,178,187,194,219,245,269,295,312,306,302,299,292,287,282,277,272,267,262,257,253,247,243,237,232,227,222,217,212,207,202,198,192,189,189,190,114,114,114,115,115,115,116,116,115,116,116,116,116,117,117,117,117,117,117,117,116,116,116,116,116,116,116,765,767,769,783,817,1030,1247,1373,1383,1428,1430,1409,1389,1368,1313,1328,1361,1288,1267,1247,1226,1261,1185,1166,1188,1125,1139,1115,1089,1043,1024,921,888,787,787,774,774,778,782,767,771,784,760,767,773,770,792,764,774,783,800,790,802,788,791,788,786,784,783,789,789,795,788,788,784,662,606,608,609,630,789,940,1066,1170,1162,1163,1151,1128,1115,1093,1091,1072,1095,1074,1056,1038,1020,1003,985,942,922,903,884,864,842,823,805,743,629,617,611,616,603,581,581,589,581,589,581,586,587,588,586,579,583,595,592,595,596,606,589,586,594,597,599,584,591,589,588,586,725,686,695,692,727,892,1089,1225,1349,1326,1329,1298,1289,1267,1248,1233,1222,1234,1228,1182,1164,1165,1130,1110,1061,1048,1017,995,982,948,928,774,731,711,703,693,696,682,679,679,679,698,687,686,685,683,686,691,698,689,695,687,685,682,693,690,681,685,677,685,689,698,687,677,672,97,97,98,98,121,123,139,156,172,189,201,198,194,191,188,184,181,178,174,171,168,165,162,159,156,152,149,146,143,139,136,133,129,126,123,121,121,121,85,86,87,90,88,88,87,90,86,90,88,90,88,88,90,92,90,88,90,90,90,88,90,91,87,88,87,719,663,666,668,695,878,1039,1191,1287,1277,1275,1262,1237,1223,1199,1194,1173,1195,1171,1152,1133,1113,1093,1073,1029,1008,989,965,944,920,900,880,703,687,675,670,675,663,644,641,640,650,659,644,681,648,652,646,649,650,649,651,667,663,668,651,647,643,662,666,649,653,658,654,651,591,535,536,538,540,732,825,939,1021,1017,1020,1005,990,975,960,960,943,969,950,935,919,904,888,875,832,816,798,782,764,744,712,697,680,557,545,540,544,543,526,530,532,537,536,533,532,539,526,556,528,528,539,535,551,570,557,536,537,532,542,551,541,555,533,535,529,0,0,0,0,0,0,0,0,0,0,0,0,0,0,0,0,0,0,0,0,0,0,0,0,0,0,0,0,0,0,0,0,0,0,0,0,0,0,0,0,0,0,0,0,0,0,0,0,0,0,0,0,0,0,0,0,0,0,0,0,0,0,0,0,0,722,722,729,720,737,938,1123,1284,1365,1431,1377,1355,1355,1362,1317,1326,1318,1280,1224,1244,1175,1177,1163,1096,1109,1094,1070,1031,1036,997,833,831,790,739,765,724,745,701,686,693,688,691,695,705,700,701,696,696,701,696,695,702,701,707,707,712,706,708,707,712,708,712,707,707,707,0,0,0,0,0,0,0,0,0,0,0,0,0,0,0,0,0,0,0,0,0,0,0,0,0,0,0,0,0,0,0,0,0,0,0,0,0,0,0,0,0,0,0,0,0,0,0,0,0,0,0,0,0,0,0,0,0,0,0,0,0,0,0,0,0,437,438,441,441,447,542,643,716,792,856,873,856,843,824,814,802,787,773,766,737,734,718,701,688,676,662,648,635,621,607,593,579,546,466,448,443,445,409,363,362,364,364,365,367,368,369,369,369,370,370,370,371,370,371,370,371,374,374,373,373,374,376,376,375,375,740,744,745,750,760,859,1150,1287,1408,1477,1458,1459,1415,1392,1382,1346,1351,1307,1284,1273,1247,1209,1185,1167,1188,1132,1101,1074,1043,1030,1001,884,813,794,783,750,743,729,666,667,669,685,681,676,677,694,681,678,691,691,704,705,719,730,677,676,685,683,682,682,680,684,679,679,679,1020,1022,1027,1065,1166,1568,1789,2017,2157,2192,2179,2165,2104,2096,2042,2002,1973,1936,1887,1862,1790,1788,1742,1706,1661,1619,1578,1520,1491,1431,1151,1139,1084,1059,1038,1044,1060,1065,1059,1057,1050,1060,1052,1071,1059,1065,1085,1102,1066,1076,1090,1091,1081,1080,1112,1076,1068,1074,1085,1082,1079,1096,1091,1102,1085,562,569,572,576,591,709,858,958,1057,1126,1138,1117,1099,1076,1061,1049,1027,1012,1001,967,958,939,917,899,884,865,847,830,810,790,715,698,617,590,584,586,592,555,481,481,483,486,487,489,485,487,491,491,492,492,492,493,492,493,492,493,496,496,495,493,497,495,491,492,492,53,53,53,53,53,55,61,69,77,83,90,89,86,85,84,83,81,80,79,77,75,74,72,71,70,69,67,66,64,62,61,60,58,57,56,55,55,55,18,17,18,18,18,18,18,18,18,18,18,18,18,18,18,18,17,18,18,18,18,18,18,18,17,18,18,639,642,648,639,651,746,951,1078,1145,1194,1169,1152,1136,1149,1155,1141,1100,1105,1061,1059,1015,1007,1016,960,974,963,944,888,896,881,764,845,750,657,682,642,659,661,638,635,639,646,644,646,652,655,645,647,646,647,648,659,657,658,668,666,648,655,659,652,649,653,648,648,648,563,571,581,577,582,711,861,960,1059,1128,1141,1119,1101,1078,1062,1050,1029,1014,1003,969,961,941,919,901,887,867,849,831,812,749,716,700,683,592,585,583,586,540,470,469,471,471,472,474,475,476,476,476,477,477,477,478,477,478,477,478,481,481,480,480,482,483,483,482,482,504,511,514,513,523,617,762,848,936,1005,1021,1000,986,964,950,938,922,905,895,865,859,841,822,805,792,776,759,744,698,711,684,653,598,579,520,516,518,499,454,453,455,455,456,458,459,460,460,460,461,461,461,462,461,462,461,462,465,465,464,464,466,467,467,466,466,722,722,729,720,737,938,1123,1284,1365,1431,1377,1355,1355,1362,1317,1326,1318,1280,1224,1244,1175,1177,1163,1096,1109,1094,1070,1031,1036,997,833,831,790,739,765,724,745,701,686,693,688,691,695,705,700,701,696,696,701,696,695,702,701,707,707,712,706,708,707,712,708,712,707,707,707,653,655,651,657,680,741,1039,1161,1254,1287,1329,1307,1249,1229,1215,1189,1169,1180,1144,1147,1088,1076,1048,1023,1019,982,972,946,871,835,819,751,688,672,687,694,662,659,626,631,626,631,638,635,632,639,633,636,637,637,630,629,630,634,632,630,635,631,629,633,631,639,631,635,630,355,355,357,358,360,379,521,581,642,701,730,710,705,687,675,664,659,647,639,624,590,578,583,572,561,534,537,525,519,509,456,403,453,377,364,360,364,365,328,333,320,328,350,338,334,351,331,341,338,346,350,346,333,343,349,330,334,339,349,347,349,353,351,354,349,0,0,0,0,0,0,0,0,0,0,0,0,0,0,0,0,0,0,0,0,0,0,0,0,0,0,0,0,0,0,0,0,0,0,0,0,0,0,0,0,0,0,0,0,0,0,0,0,0,0,0,0,0,0,0,0,0,0,0,0,0,0,0,0,0,617,619,615,628,645,718,956,1086,1180,1210,1254,1229,1180,1158,1143,1122,1096,1106,1080,1087,1025,1019,988,968,966,928,917,890,803,795,791,764,662,646,649,665,636,608,573,578,573,578,585,582,579,586,580,583,584,584,577,576,577,581,579,577,582,578,576,580,578,586,578,582,577,991,1007,996,1013,1050,1381,1631,1791,1953,1980,1980,1978,1911,1891,1850,1818,1787,1747,1725,1706,1654,1633,1590,1568,1540,1509,1478,1434,1404,1279,1102,1070,1071,1049,1031,1008,967,969,966,971,970,975,981,981,1008,1015,972,980,971,978,989,1005,992,986,1008,1006,987,977,988,989,976,974,967,980,973,196,197,197,198,198,226,286,320,353,387,401,396,389,382,376,369,363,357,350,344,337,331,324,319,312,305,299,292,286,280,273,267,260,254,226,198,199,199,184,173,171,174,182,182,179,174,173,176,194,178,183,190,190,187,178,179,183,228,198,189,177,179,194,175,172,374,375,377,378,388,440,555,630,683,744,770,749,744,731,712,700,694,692,680,657,623,625,624,602,590,577,566,554,548,536,495,414,485,397,388,391,402,383,346,350,338,346,362,356,352,369,349,359,356,364,368,364,351,361,366,348,352,357,367,365,367,371,368,370,367,584,586,558,542,567,708,818,899,988,1101,1046,1051,1048,994,977,963,951,932,1006,907,956,930,898,845,834,845,801,810,776,759,636,612,557,578,586,611,598,552,560,570,568,579,589,574,576,576,570,581,583,579,574,583,587,593,607,604,582,587,583,572,570,568,590,583,568,198,198,198,199,199,254,288,322,355,389,403,398,391,385,378,371,365,358,353,346,339,333,326,320,313,308,301,294,288,281,275,268,262,256,249,200,246,246,176,177,177,179,177,186,179,186,184,180,185,178,180,180,178,183,180,181,180,183,183,179,179,182,178,184,181,155,155,156,156,157,198,223,248,275,300,314,310,304,300,294,290,284,280,275,270,266,260,256,250,246,240,236,231,226,221,216,211,206,201,161,157,158,158,144,147,144,147,145,153,149,177,154,148,156,150,152,148,148,152,148,148,150,149,147,147,145,150,149,151,144,653,655,651,657,680,741,1039,1161,1254,1287,1329,1307,1249,1229,1215,1189,1169,1180,1144,1147,1088,1076,1048,1023,1019,982,972,946,871,835,819,751,688,672,687,694,662,659,626,631,626,631,638,635,632,639,633,636,637,637,630,629,630,634,632,630,635,631,629,633,631,639,631,635,630,177,178,178,179,180,224,256,285,314,344,363,357,352,346,339,334,328,323,316,311,305,300,293,288,282,276,270,265,259,253,247,242,236,229,224,180,220,221,128,128,128,128,128,128,128,128,128,128,128,128,128,128,128,128,128,128,128,128,128,128,128,128,128,128,128,777,786,790,790,829,1081,1248,1384,1488,1518,1522,1499,1464,1450,1420,1422,1389,1366,1347,1315,1265,1267,1240,1193,1169,1155,1163,1107,1102,1055,937,835,827,811,796,794,779,782,740,740,740,740,740,740,740,740,740,740,740,740,740,740,740,740,740,740,740,740,740,740,740,740,740,740,740,697,701,705,709,723,942,1109,1241,1315,1362,1367,1338,1324,1303,1277,1271,1248,1224,1206,1175,1125,1139,1115,1070,1055,1033,1046,974,944,946,839,797,793,715,710,708,712,689,656,656,656,656,656,656,656,656,656,656,656,656,656,656,656,656,656,656,656,656,656,656,656,656,656,656,656,0,0,0,0,0,0,0,0,0,0,0,0,0,0,0,0,0,0,0,0,0,0,0,0,0,0,0,0,0,0,0,0,0,0,0,0,0,0,0,0,0,0,0,0,0,0,0,0,0,0,0,0,0,0,0,0,0,0,0,0,0,0,0,0,0,682,687,689,690,724,962,1101,1209,1313,1359,1366,1350,1328,1307,1288,1265,1244,1231,1192,1180,1172,1137,1105,1094,1073,1039,1030,1008,974,966,829,784,738,720,695,692,693,695,691,679,683,695,671,679,683,678,705,674,683,702,717,701,712,717,718,697,695,690,717,717,717,716,716,716,716,692,695,696,704,749,964,1081,1201,1295,1344,1348,1327,1305,1295,1266,1261,1240,1210,1198,1167,1120,1134,1108,1066,1042,1021,1034,984,998,934,866,755,750,720,704,719,706,682,641,641,641,641,641,641,641,641,641,641,641,641,641,641,641,641,641,641,641,641,641,641,641,641,641,641,641,772,781,783,785,823,1075,1239,1373,1477,1509,1513,1490,1455,1441,1411,1413,1380,1357,1339,1307,1257,1259,1233,1186,1161,1148,1156,1100,1096,1048,930,828,821,804,791,789,779,782,740,740,740,740,740,740,740,740,740,740,740,740,740,740,740,740,740,740,740,740,740,740,740,740,740,740,740,225,223,224,233,234,286,298,368,388,446,418,430,424,398,391,385,397,391,403,378,371,381,374,367,324,338,311,326,319,290,314,308,300,287,280,235,235,236,194,194,194,194,194,194,194,194,194,194,194,194,194,194,194,194,194,194,194,194,194,194,194,194,194,194,194,749,753,755,763,820,1053,1180,1314,1412,1458,1459,1436,1413,1400,1370,1364,1341,1309,1295,1262,1213,1226,1199,1154,1129,1106,1117,1069,1078,1012,943,816,817,778,763,778,765,742,704,704,704,704,704,704,704,704,704,704,704,704,704,704,704,704,704,704,704,704,704,704,704,704,704,704,704,621,623,625,632,649,862,966,1062,1146,1200,1206,1187,1168,1157,1134,1131,1112,1089,1075,1046,999,1017,995,952,935,915,930,878,894,837,677,663,668,648,633,630,634,627,589,589,589,589,589,589,589,589,589,589,589,589,589,589,589,589,589,589,589,589,589,589,589,589,589,589,589,177,178,178,179,180,224,256,285,314,344,363,357,352,346,339,334,328,323,316,311,305,300,293,288,282,276,270,265,259,253,247,242,236,229,224,180,220,221,128,128,128,128,128,128,128,128,128,128,128,128,128,128,128,128,128,128,128,128,128,128,128,128,128,128,128,892,901,898,913,1010,1291,1471,1625,1715,1763,1785,1735,1708,1681,1656,1631,1604,1580,1554,1514,1505,1464,1435,1420,1391,1353,1327,1323,1073,1052,1031,1025,980,958,946,909,898,895,870,869,879,874,879,879,884,890,881,888,891,883,888,880,890,895,889,887,892,880,880,887,890,892,892,892,892,1057,1060,1095,1082,1150,1583,1897,2119,2263,2339,2321,2278,2244,2192,2149,2106,2071,2019,1985,1942,1899,1848,1814,1762,1726,1683,1632,1598,1546,1400,1220,1185,1125,1122,1077,1071,1083,1081,1066,1064,1066,1070,1073,1071,1081,1089,1082,1079,1082,1079,1086,1086,1086,1092,1088,1087,1088,1092,1088,1088,1092,1091,1088,1092,1088,1113,1114,1114,1171,1242,1746,1983,2160,2256,2291,2304,2260,2225,2170,2117,2088,2057,2013,2020,1983,1950,1866,1857,1783,1747,1730,1654,1622,1580,1368,1230,1220,1207,1172,1133,1143,1125,1129,1101,1109,1109,1116,1112,1120,1116,1122,1122,1116,1123,1115,1117,1116,1116,1120,1116,1116,1116,1119,1116,1115,1116,1117,1116,1120,1116,771,773,779,780,829,1090,1233,1377,1499,1543,1608,1515,1491,1466,1455,1416,1406,1368,1343,1381,1294,1269,1245,1219,1195,1171,1146,1134,1097,1072,901,880,817,798,784,782,785,788,767,759,767,770,769,772,773,778,774,774,781,773,780,772,780,786,780,781,783,776,772,778,782,782,782,782,782,0,0,0,0,0,0,0,0,0,0,0,0,0,0,0,0,0,0,0,0,0,0,0,0,0,0,0,0,0,0,0,0,0,0,0,0,0,0,0,0,0,0,0,0,0,0,0,0,0,0,0,0,0,0,0,0,0,0,0,0,0,0,0,0,0,990,992,995,1026,1069,1513,1736,1949,2065,2093,2137,2102,2005,1969,1932,1954,1860,1874,1852,1799,1765,1677,1685,1603,1611,1575,1494,1457,1421,1384,1269,1073,1084,1030,1010,1006,1010,1016,989,996,996,1004,1003,1008,1004,1010,1010,1004,1011,1003,1005,1004,1004,1008,1004,1004,1004,1007,1004,1003,1004,1005,1004,1008,1004,1052,1055,1089,1076,1183,1574,1886,2108,2254,2330,2312,2269,2236,2183,2140,2097,2063,2011,1977,1934,1891,1840,1806,1754,1719,1677,1625,1591,1540,1393,1277,1180,1120,1116,1072,1066,1083,1081,1066,1064,1066,1070,1073,1071,1081,1089,1082,1079,1082,1079,1086,1088,1086,1092,1092,1087,1089,1095,1088,1088,1092,1091,1088,1092,1088,926,938,941,952,1025,1371,1552,1669,1801,1870,1856,1827,1797,1784,1797,1724,1732,1648,1634,1619,1538,1530,1500,1452,1408,1448,1395,1354,1209,1185,1147,1043,984,963,954,948,972,954,947,941,929,926,952,956,953,965,960,962,969,962,968,960,968,976,970,972,974,966,965,971,976,976,976,976,976,988,991,998,1021,1070,1493,1749,1957,2069,2095,2081,2043,2007,1970,1941,1955,1868,1823,1861,1756,1773,1680,1684,1612,1569,1532,1500,1457,1427,1383,1204,1084,1070,1041,1036,1032,996,1004,962,975,972,977,969,981,977,983,983,977,984,976,978,977,977,981,977,977,977,980,977,976,977,978,977,981,977,1064,1088,1098,1113,1164,1632,1884,2005,2099,2137,2150,2091,2080,2045,1999,1971,1937,1901,1871,1845,1831,1775,1718,1700,1650,1615,1596,1554,1515,1369,1208,1150,1152,1106,1087,1082,1093,1099,1075,1072,1083,1090,1087,1094,1079,1090,1083,1075,1096,1089,1091,1090,1090,1094,1090,1090,1090,1093,1090,1089,1090,1091,1090,1094,1090,892,901,898,913,1010,1291,1471,1625,1715,1763,1785,1735,1708,1681,1656,1631,1604,1580,1554,1514,1505,1464,1435,1420,1391,1353,1327,1323,1073,1052,1031,1025,980,958,946,909,898,895,870,869,879,874,879,879,884,890,881,888,891,883,888,880,890,895,889,887,892,880,880,887,890,892,892,892,892,688,707,693,711,701,871,1085,1239,1316,1396,1387,1377,1348,1334,1316,1301,1249,1232,1203,1187,1171,1160,1136,1093,1090,1072,1049,995,925,914,889,768,748,732,720,719,704,682,626,623,618,626,631,626,631,633,627,629,630,641,649,650,652,638,634,628,631,634,625,626,625,628,629,628,618,459,462,464,465,467,533,679,759,837,913,937,916,902,853,873,861,852,831,793,803,769,754,756,742,733,696,687,667,667,652,611,537,589,521,470,467,468,472,438,419,409,418,438,425,420,447,417,424,423,421,417,414,416,421,422,420,423,419,416,423,417,449,443,446,443,121,121,149,149,149,154,173,193,213,233,247,243,239,235,231,227,223,220,215,212,207,204,200,196,192,189,214,180,177,172,196,165,161,157,154,150,150,151,115,113,112,113,113,115,118,118,114,114,117,117,116,114,114,117,115,115,114,115,113,113,114,114,115,117,114,652,671,656,675,674,842,1026,1165,1241,1319,1316,1302,1280,1264,1247,1236,1182,1169,1143,1119,1108,1103,1079,1039,1032,1018,997,976,857,862,811,741,722,706,694,688,678,629,573,570,565,573,578,573,578,580,574,576,577,588,598,598,602,585,581,575,578,581,572,573,572,575,576,575,565,987,981,991,993,1012,1368,1726,1931,2043,2072,2044,2010,1996,1963,1935,1882,1854,1822,1787,1750,1705,1673,1646,1606,1559,1531,1485,1451,1372,1329,1204,1075,1041,1016,1004,997,929,934,924,927,931,938,949,952,944,955,937,950,943,961,958,959,950,965,947,957,958,948,949,954,946,963,929,938,938,0,0,0,0,0,0,0,0,0,0,0,0,0,0,0,0,0,0,0,0,0,0,0,0,0,0,0,0,0,0,0,0,0,0,0,0,0,0,0,0,0,0,0,0,0,0,0,0,0,0,0,0,0,0,0,0,0,0,0,0,0,0,0,0,0,478,481,491,486,493,541,709,813,874,954,975,961,946,907,909,896,893,878,841,836,802,787,802,777,756,739,726,717,700,678,604,530,582,514,490,486,498,490,455,437,427,436,445,443,438,457,435,442,441,439,435,432,434,438,440,438,441,437,434,441,435,449,449,451,448,625,644,628,621,661,696,914,1065,1133,1203,1182,1142,1147,1131,1074,1108,1082,1067,1056,1075,1034,1027,1010,994,967,954,921,849,880,852,795,773,674,639,634,638,648,627,603,600,595,603,608,603,608,610,604,606,607,617,618,621,622,615,611,605,608,611,602,603,602,605,606,605,595,130,130,131,131,161,166,187,209,231,253,267,262,258,254,249,246,242,237,233,228,224,220,216,212,207,203,199,194,190,187,182,178,173,169,165,161,162,162,121,121,122,122,122,124,126,163,126,126,125,125,124,124,124,128,128,124,125,122,122,124,125,126,124,125,125,116,116,143,143,143,146,166,184,203,222,235,231,227,224,220,216,213,209,205,202,198,194,191,187,183,180,211,172,169,198,161,158,154,150,176,144,144,145,102,101,102,103,103,103,103,102,102,103,108,102,103,106,107,104,109,108,103,103,101,103,101,104,104,103,102,688,707,693,711,701,871,1085,1239,1316,1396,1387,1377,1348,1334,1316,1301,1249,1232,1203,1187,1171,1160,1136,1093,1090,1072,1049,995,925,914,889,768,748,732,720,719,704,682,626,623,618,626,631,626,631,633,627,629,630,641,649,650,652,638,634,628,631,634,625,626,625,628,629,628,618,726,727,734,725,744,903,1130,1286,1374,1440,1388,1365,1366,1368,1326,1326,1311,1279,1233,1252,1184,1184,1169,1104,1113,1102,1038,1023,1021,1004,801,837,797,746,759,731,737,708,680,686,683,688,688,693,696,693,691,690,694,689,690,690,690,690,690,690,690,690,690,690,690,690,690,690,690,5,5,5,5,7,7,7,8,9,9,11,11,11,9,9,9,9,9,9,9,9,8,8,8,8,8,8,8,7,7,7,7,7,7,7,7,7,7,0,0,0,0,0,0,0,0,0,0,0,0,0,0,0,0,0,0,0,0,0,0,0,0,0,0,0,387,390,391,395,397,483,582,647,715,774,785,771,759,742,735,722,706,696,687,660,659,646,634,622,608,596,583,571,559,546,534,522,492,409,399,396,394,383,345,345,346,346,347,349,350,351,351,351,352,352,352,353,352,353,353,353,356,356,355,355,356,358,357,357,357,738,740,741,753,761,854,1144,1282,1403,1473,1462,1452,1408,1395,1373,1349,1348,1294,1279,1268,1241,1203,1193,1162,1135,1127,1096,1068,1037,1026,993,890,820,801,779,746,742,736,660,660,664,682,674,667,672,690,676,670,685,684,694,694,694,694,669,668,678,681,676,673,676,679,677,677,677,1024,1026,1032,1054,1149,1513,1796,2012,2152,2201,2190,2148,2115,2053,2050,2006,1952,1918,1896,1870,1799,1796,1750,1712,1668,1615,1568,1528,1498,1438,1158,1115,1091,1062,1043,1051,1067,1072,1059,1059,1059,1059,1059,1059,1059,1059,1059,1059,1059,1059,1059,1059,1059,1059,1059,1059,1059,1059,1059,1059,1059,1059,1059,1059,1059,515,520,521,523,538,629,797,889,980,1045,1055,1036,1019,998,987,969,946,935,922,890,883,867,850,832,816,799,782,766,748,732,654,638,559,546,533,531,540,528,467,464,464,467,469,471,472,469,472,473,474,474,474,475,474,475,475,475,478,478,477,475,479,477,474,476,475,0,0,0,0,0,0,0,0,0,0,0,0,0,0,0,0,0,0,0,0,0,0,0,0,0,0,0,0,0,0,0,0,0,0,0,0,0,0,0,0,0,0,0,0,0,0,0,0,0,0,0,0,0,0,0,0,0,0,0,0,0,0,0,0,0,644,647,653,644,658,700,958,1085,1154,1203,1180,1161,1147,1129,1164,1147,1109,1064,1070,1068,1024,1015,1024,968,982,963,929,880,900,888,703,834,744,664,665,649,666,662,632,628,634,643,637,637,647,651,640,639,640,640,645,653,651,648,659,658,641,653,653,643,645,648,646,646,646,517,521,523,537,539,656,800,891,982,1047,1057,1039,1020,1000,989,970,948,937,924,892,886,869,852,833,819,801,784,767,750,688,655,640,625,547,535,533,542,521,452,452,453,453,454,456,457,458,458,458,459,459,459,460,459,460,460,460,463,463,462,462,464,465,464,464,464,457,462,463,465,466,535,701,779,859,926,933,919,900,885,875,858,841,827,816,788,784,769,755,739,723,708,694,680,634,650,623,606,546,527,472,470,471,468,436,436,437,437,438,440,441,442,442,442,443,443,443,444,443,444,444,444,447,447,446,446,448,449,448,448,448,726,727,734,725,744,903,1130,1286,1374,1440,1388,1365,1366,1368,1326,1326,1311,1279,1233,1252,1184,1184,1169,1104,1113,1102,1038,1023,1021,1004,801,837,797,746,759,731,737,708,680,686,683,688,688,693,696,693,691,690,694,689,690,690,690,690,690,690,690,690,690,690,690,690,690,690,690,193,212,192,183,184,190,263,294,325,355,372,366,360,389,348,343,336,331,324,319,313,306,301,294,291,283,277,271,265,259,254,247,245,224,188,184,185,215,145,134,136,136,137,140,136,140,136,136,137,138,136,138,138,138,140,141,138,138,138,138,141,138,136,136,136,689,668,682,696,703,860,1038,1169,1276,1295,1298,1286,1275,1244,1234,1204,1190,1179,1155,1137,1119,1098,1073,1056,1038,1008,993,966,938,888,819,773,702,694,702,673,671,651,631,635,639,646,648,650,638,653,634,642,644,641,642,653,651,649,652,651,654,649,649,652,652,657,634,642,634,609,583,602,618,635,727,900,1006,1100,1145,1147,1129,1110,1094,1074,1058,1053,1064,1025,1000,982,963,945,928,911,908,887,869,831,813,650,643,625,624,622,607,591,619,571,572,583,573,570,578,571,579,584,572,579,573,574,574,587,589,594,579,595,578,581,581,587,575,572,582,579,238,239,240,246,241,262,347,388,428,474,487,479,473,464,467,448,441,437,425,416,412,401,393,386,378,380,363,355,347,339,333,322,273,266,260,242,243,243,205,205,205,208,235,237,222,232,223,239,226,219,231,213,214,231,222,212,241,213,211,237,227,241,231,228,223,849,838,856,850,910,1147,1305,1444,1532,1629,1573,1579,1577,1547,1512,1459,1437,1414,1421,1369,1347,1351,1302,1302,1277,1245,1221,1079,1164,1063,1049,935,903,845,850,828,849,852,837,844,848,849,856,862,848,855,853,845,855,855,880,857,859,866,863,861,873,864,853,864,870,899,878,886,879,604,577,591,642,676,760,892,995,1092,1130,1131,1114,1097,1080,1061,1046,1041,1024,1007,991,973,953,935,918,901,891,875,839,821,803,769,712,614,609,614,596,586,635,551,552,551,560,563,558,557,558,559,565,560,559,562,571,570,564,565,568,568,576,580,566,568,561,564,565,562,684,663,677,690,698,852,1029,1159,1265,1285,1289,1277,1266,1235,1225,1195,1181,1170,1147,1129,1112,1090,1065,1048,1030,1000,986,959,931,881,812,788,696,689,695,667,666,651,631,635,639,646,648,650,638,653,634,642,644,641,642,653,651,649,652,651,654,649,649,652,652,657,634,642,634,0,0,0,0,0,0,0,0,0,0,0,0,0,0,0,0,0,0,0,0,0,0,0,0,0,0,0,0,0,0,0,0,0,0,0,0,0,0,0,0,0,0,0,0,0,0,0,0,0,0,0,0,0,0,0,0,0,0,0,0,0,0,0,0,0,661,634,649,701,743,849,991,1113,1208,1245,1244,1225,1206,1186,1167,1149,1142,1123,1106,1086,1067,1046,1025,1007,988,976,959,921,902,881,846,827,674,667,672,655,645,695,611,615,610,611,630,632,625,638,621,630,629,624,625,625,629,636,632,630,632,637,630,632,630,627,626,631,627,533,506,519,538,571,636,777,868,950,988,990,973,959,943,930,915,911,897,883,869,851,836,820,806,790,784,770,737,721,705,673,668,557,537,594,524,514,578,496,500,503,509,508,511,507,511,502,515,505,506,513,512,523,528,513,513,519,523,521,509,524,532,508,512,505,193,212,192,183,184,190,263,294,325,355,372,366,360,389,348,343,336,331,324,319,313,306,301,294,291,283,277,271,265,259,254,247,245,224,188,184,185,215,145,134,136,136,137,140,136,140,136,136,137,138,136,138,138,138,140,141,138,138,138,138,141,138,136,136,136,747,742,751,738,743,931,1166,1316,1413,1479,1472,1461,1428,1410,1400,1371,1327,1306,1277,1257,1242,1238,1203,1161,1159,1112,1115,1057,1002,955,993,897,821,774,754,758,748,714,658,652,656,665,660,662,659,664,661,666,666,663,680,685,682,664,662,661,663,667,656,654,662,661,657,662,655,496,489,490,486,503,569,732,837,906,984,1010,971,955,921,941,924,905,891,873,837,827,827,797,796,761,740,741,733,700,708,618,598,628,506,499,505,507,508,456,459,452,467,481,466,465,493,459,467,469,482,466,458,465,472,461,464,469,481,466,463,465,495,487,492,487,149,150,150,184,184,190,215,239,265,290,304,300,294,290,286,280,276,271,266,261,290,251,247,242,237,233,227,223,217,213,209,203,199,193,189,185,185,187,141,142,143,140,141,143,143,142,142,148,144,143,142,144,143,144,144,145,144,143,143,143,143,143,143,146,144,696,706,715,700,716,913,1104,1243,1338,1402,1401,1386,1360,1343,1331,1307,1260,1243,1216,1193,1180,1181,1147,1107,1101,1059,1063,1020,934,888,899,870,782,748,728,731,720,661,605,599,603,612,607,609,606,611,608,613,613,610,629,633,632,611,609,608,610,614,603,601,609,608,604,609,602,1015,1009,1018,1021,1040,1517,1731,1954,2099,2145,2120,2094,2063,2017,1991,1941,1914,1877,1826,1799,1763,1703,1691,1657,1608,1560,1527,1479,1406,1322,1156,1098,1074,1063,1027,1027,960,957,951,948,959,966,964,961,970,981,968,967,968,966,959,976,970,976,1000,988,962,963,971,972,965,973,959,969,963,94,95,95,95,117,119,135,150,167,182,194,192,189,185,182,179,176,173,170,167,163,160,158,155,151,148,145,141,139,136,133,129,126,123,121,117,117,118,82,82,84,86,83,85,83,84,83,86,84,83,83,83,84,85,84,83,84,83,84,84,83,84,82,83,83,514,517,519,514,524,610,762,872,950,1025,1060,1033,1009,975,977,959,940,925,907,870,874,858,842,829,804,783,779,769,727,735,678,617,621,526,519,525,526,526,473,477,470,485,488,484,483,511,477,485,487,500,484,476,483,489,479,482,487,499,484,481,483,511,496,497,494,642,644,647,661,698,784,992,1102,1219,1267,1248,1249,1245,1192,1201,1151,1166,1146,1160,1071,1109,1102,1063,1081,1052,1056,1007,927,957,874,839,811,686,682,684,665,676,649,635,629,633,642,637,639,636,641,638,643,643,640,659,662,657,641,639,638,640,644,633,631,639,638,634,639,632,0,0,0,0,0,0,0,0,0,0,0,0,0,0,0,0,0,0,0,0,0,0,0,0,0,0,0,0,0,0,0,0,0,0,0,0,0,0,0,0,0,0,0,0,0,0,0,0,0,0,0,0,0,0,0,0,0,0,0,0,0,0,0,0,0,169,170,170,171,171,216,244,272,300,328,344,338,333,327,322,316,311,305,301,295,290,284,279,273,268,262,257,251,246,240,235,231,225,220,214,171,211,211,163,162,160,162,159,166,159,162,162,166,167,165,168,162,168,166,164,162,162,166,162,166,162,159,164,162,161,747,742,751,738,743,931,1166,1316,1413,1479,1472,1461,1428,1410,1400,1371,1327,1306,1277,1257,1242,1238,1203,1161,1159,1112,1115,1057,1002,955,993,897,821,774,754,758,748,714,658,652,656,665,660,662,659,664,661,666,666,663,680,685,682,664,662,661,663,667,656,654,662,661,657,662,655,599,603,582,607,615,691,897,999,1113,1177,1175,1153,1138,1134,1099,1096,1062,1067,1054,1003,980,966,964,930,911,897,875,862,835,761,720,762,699,612,591,587,598,578,553,556,552,556,565,558,557,561,555,564,560,564,557,557,557,559,558,557,563,559,557,560,560,565,559,559,559,390,405,407,408,410,481,581,660,729,801,800,808,795,762,765,755,748,729,722,709,695,644,663,640,638,610,590,598,565,572,558,468,494,431,437,414,416,433,358,360,362,362,361,360,359,368,369,362,362,361,363,369,366,370,368,368,367,365,368,372,368,368,367,366,363,173,174,175,175,176,223,251,281,310,339,355,348,343,337,361,356,321,315,310,304,298,292,287,281,301,270,265,259,254,248,242,236,231,225,180,176,236,236,160,161,161,165,160,162,161,163,163,164,163,162,164,163,164,164,164,164,166,164,167,164,166,166,166,166,166,563,567,545,573,589,660,844,937,1040,1103,1105,1077,1069,1067,1028,1032,999,1004,993,943,917,909,908,875,858,842,823,805,801,693,692,667,673,583,562,561,572,527,500,503,499,503,512,505,504,508,502,511,507,511,504,504,504,506,505,504,510,506,504,507,507,512,506,506,506,950,946,952,958,977,1291,1560,1732,1844,1871,1865,1868,1807,1781,1751,1724,1713,1670,1644,1615,1595,1561,1530,1532,1478,1445,1371,1342,1315,1290,1168,1060,1007,974,968,959,896,903,889,890,896,895,895,906,899,915,898,904,896,904,895,913,905,928,903,917,909,907,909,910,906,915,889,901,898,170,171,171,210,210,217,247,276,304,334,349,343,337,332,326,321,315,310,304,299,293,288,282,277,270,265,259,254,248,243,237,232,226,221,215,211,212,212,161,161,161,161,162,162,162,163,162,162,162,162,162,163,162,163,162,162,165,163,162,161,162,163,165,165,163,419,427,426,437,433,512,608,707,773,842,866,847,832,823,802,792,795,770,756,742,737,677,695,700,667,653,632,625,606,585,572,526,520,445,442,439,432,435,360,364,362,362,369,370,370,374,369,368,371,370,369,371,371,375,370,369,371,365,368,372,368,368,367,366,363,533,535,485,538,576,618,748,881,930,1025,947,911,920,907,925,932,869,888,863,898,836,833,819,825,806,794,779,731,672,699,658,633,643,598,544,503,504,543,515,519,523,533,522,534,519,526,521,513,529,525,534,534,534,535,523,534,532,535,534,527,528,540,518,529,525,227,228,229,229,230,294,334,372,412,451,465,457,449,443,435,427,421,413,405,398,391,383,421,368,361,354,346,338,332,324,316,309,302,294,287,231,283,283,223,221,222,222,281,223,225,231,222,282,225,223,228,227,225,228,284,231,283,230,227,229,225,229,229,229,231,0,0,0,0,0,0,0,0,0,0,0,0,0,0,0,0,0,0,0,0,0,0,0,0,0,0,0,0,0,0,0,0,0,0,0,0,0,0,0,0,0,0,0,0,0,0,0,0,0,0,0,0,0,0,0,0,0,0,0,0,0,0,0,0,0,599,603,582,607,615,691,897,999,1113,1177,1175,1153,1138,1134,1099,1096,1062,1067,1054,1003,980,966,964,930,911,897,875,862,835,761,720,762,699,612,591,587,598,578,553,556,552,556,565,558,557,561,555,564,560,564,557,557,557,559,558,557,563,559,557,560,560,565,559,559,559,0,0,0,0,0,0,0,0,0,0,0,0,0,0,0,0,0,0,0,0,0,0,0,0,0,0,0,0,0,0,0,0,0,0,0,0,0,0,0,0,0,0,0,0,0,0,0,0,0,0,0,0,0,0,0,0,0,0,0,0,0,0,0,0,0,730,691,700,697,733,900,1098,1235,1359,1336,1338,1307,1298,1276,1257,1241,1230,1243,1236,1190,1172,1173,1138,1118,1069,1056,1024,1002,989,955,935,748,738,718,709,698,702,682,679,679,679,692,687,686,685,683,686,691,690,689,695,687,685,682,693,690,681,685,677,685,689,698,687,677,672,657,613,619,616,629,718,949,1079,1189,1177,1180,1158,1142,1125,1106,1104,1085,1105,1107,1069,1052,1033,1015,997,952,933,914,894,719,718,713,689,681,636,613,618,621,592,578,587,591,589,592,593,590,594,588,606,586,590,595,599,614,618,620,602,602,588,605,603,603,601,600,616,597,152,153,153,178,187,194,219,245,269,295,312,306,302,299,292,287,282,277,272,267,262,257,253,247,243,237,232,227,222,217,212,207,202,198,192,189,189,190,114,114,114,115,115,115,116,116,115,116,116,116,116,117,117,117,117,117,117,117,116,116,116,116,116,116,116,765,767,769,783,817,1030,1247,1373,1383,1428,1430,1409,1389,1368,1313,1328,1361,1288,1267,1247,1226,1261,1185,1166,1188,1125,1139,1115,1089,1043,1024,921,888,787,787,774,774,778,782,767,771,784,760,767,773,770,792,764,774,783,800,790,802,788,791,788,786,784,783,789,789,795,788,788,784,662,606,608,609,630,789,940,1066,1170,1162,1163,1151,1128,1115,1093,1091,1072,1095,1074,1056,1038,1020,1003,985,942,922,903,884,864,842,823,805,743,629,617,611,616,603,581,581,589,581,589,581,586,587,588,586,579,583,595,592,595,596,606,589,586,594,597,599,584,591,589,588,586,725,686,695,692,727,892,1089,1225,1349,1326,1329,1298,1289,1267,1248,1233,1222,1234,1228,1182,1164,1165,1130,1110,1061,1048,1017,995,982,948,928,774,731,711,703,693,696,682,679,679,679,698,687,686,685,683,686,691,698,689,695,687,685,682,693,690,681,685,677,685,689,698,687,677,672,97,97,98,98,121,123,139,156,172,189,201,198,194,191,188,184,181,178,174,171,168,165,162,159,156,152,149,146,143,139,136,133,129,126,123,121,121,121,85,86,87,90,88,88,87,90,86,90,88,90,88,88,90,92,90,88,90,90,90,88,90,91,87,88,87,719,663,666,668,695,878,1039,1191,1287,1277,1275,1262,1237,1223,1199,1194,1173,1195,1171,1152,1133,1113,1093,1073,1029,1008,989,965,944,920,900,880,703,687,675,670,675,663,644,641,640,650,659,644,681,648,652,646,649,650,649,651,667,663,668,651,647,643,662,666,649,653,658,654,651,591,535,536,538,540,732,825,939,1021,1017,1020,1005,990,975,960,960,943,969,950,935,919,904,888,875,832,816,798,782,764,744,712,697,680,557,545,540,544,543,526,530,532,537,536,533,532,539,526,556,528,528,539,535,551,570,557,536,537,532,542,551,541,555,533,535,529,0,0,0,0,0,0,0,0,0,0,0,0,0,0,0,0,0,0,0,0,0,0,0,0,0,0,0,0,0,0,0,0,0,0,0,0,0,0,0,0,0,0,0,0,0,0,0,0,0,0,0,0,0,0,0,0,0,0,0,0,0,0,0,0,0 ]);
