n = 10;
D = [122,158,251,268,81,91,157,211,162,151 ];
q = 0;
prec = array2d(1..0,1..2,[]);
steps = 64;
l = 360;
r = 0;
which = [];
interval = array2d(1..0,1..2,[]);
T = array3d(1..11,1..11,0..64,[0,0,0,0,0,0,0,0,0,0,0,0,0,0,0,0,0,0,0,0,0,0,0,0,0,0,0,0,0,0,0,0,0,0,0,0,0,0,0,0,0,0,0,0,0,0,0,0,0,0,0,0,0,0,0,0,0,0,0,0,0,0,0,0,0,384,385,386,387,389,417,473,521,628,670,660,595,655,687,595,575,579,557,530,539,530,566,475,466,456,447,438,428,419,409,400,425,415,404,394,390,391,375,371,373,366,371,372,394,371,377,387,410,372,374,369,373,378,365,374,376,372,374,369,372,378,377,372,378,371,790,749,794,797,795,971,1123,1295,1446,1513,1480,1468,1393,1365,1397,1337,1309,1253,1193,1251,1138,1111,1180,1110,1081,1053,974,974,946,975,865,837,834,826,796,814,809,814,820,814,817,823,818,818,830,833,822,822,820,822,825,829,832,831,835,833,828,835,845,833,831,840,828,827,828,558,560,561,563,571,631,687,758,846,915,897,905,859,845,840,847,812,817,790,769,755,759,744,712,721,676,686,671,657,642,628,613,584,584,580,552,578,565,565,576,565,580,570,564,582,588,578,583,571,571,564,567,577,573,582,587,568,579,585,578,580,582,573,569,565,339,340,341,342,343,364,412,476,549,550,564,544,579,570,547,528,508,512,486,496,488,502,435,427,418,410,401,393,384,376,367,375,366,358,349,344,345,346,332,340,334,343,342,349,338,342,335,337,338,335,333,348,342,347,345,349,347,348,357,349,345,354,335,343,339,439,441,420,421,423,454,512,601,715,714,733,709,699,686,663,653,620,633,623,613,602,605,595,584,572,564,553,531,521,511,540,460,450,439,428,424,425,426,427,432,422,425,434,434,460,463,430,437,437,445,440,429,433,441,440,434,439,433,431,434,431,439,438,445,426,708,709,711,721,748,858,1033,1197,1305,1375,1344,1334,1291,1265,1270,1213,1187,1172,1146,1128,1118,1056,1040,1003,977,951,935,899,873,856,820,794,768,742,732,738,724,730,722,729,735,748,766,763,740,771,738,789,758,770,759,749,769,789,767,755,776,761,760,772,767,783,756,761,753,690,689,694,721,722,794,927,1000,1133,1107,1115,1128,1089,1072,1045,1048,1027,996,983,971,956,933,921,903,874,857,839,820,812,785,775,757,731,719,707,702,701,724,712,703,707,732,721,699,709,726,705,774,831,725,733,729,721,712,714,737,702,703,700,699,700,706,705,720,693,1591,1584,1654,1713,1924,2116,2330,2513,2588,2464,2485,2496,2439,2358,2501,2354,2321,2200,2226,2153,2064,2094,1996,1984,1931,1945,1907,1850,1794,1757,1725,1651,1655,1575,1554,1682,1557,1623,1713,1727,1723,1769,1753,1735,1727,1758,1734,1746,1738,1778,1788,1815,1789,1780,1770,1809,1789,1779,1787,1786,1803,1820,1807,1805,1828,631,633,635,637,652,718,813,908,1009,1037,1040,1023,1006,990,986,990,940,923,951,902,874,857,840,824,807,791,784,757,741,724,708,691,684,658,644,641,642,644,631,629,630,631,633,633,638,641,638,639,640,641,644,645,644,648,646,644,651,648,645,641,651,654,656,655,655,0,0,0,0,0,0,0,0,0,0,0,0,0,0,0,0,0,0,0,0,0,0,0,0,0,0,0,0,0,0,0,0,0,0,0,0,0,0,0,0,0,0,0,0,0,0,0,0,0,0,0,0,0,0,0,0,0,0,0,0,0,0,0,0,0,397,402,403,405,406,436,493,553,607,655,663,652,639,634,621,613,600,592,579,616,553,548,537,527,516,508,495,485,476,464,446,445,432,422,411,407,408,402,392,401,395,414,394,408,399,414,402,408,403,399,408,404,410,409,409,410,411,408,417,409,409,414,409,415,415,0,0,0,0,0,0,0,0,0,0,0,0,0,0,0,0,0,0,0,0,0,0,0,0,0,0,0,0,0,0,0,0,0,0,0,0,0,0,0,0,0,0,0,0,0,0,0,0,0,0,0,0,0,0,0,0,0,0,0,0,0,0,0,0,0,895,915,898,905,951,1053,1188,1317,1437,1478,1450,1428,1412,1398,1346,1323,1447,1283,1256,1234,1212,1189,1164,1145,1122,1100,1094,1081,1033,1052,988,966,927,922,909,906,908,893,921,920,927,938,935,929,954,955,944,946,965,953,994,1009,1022,1008,945,948,947,957,957,951,946,958,947,1000,951,702,718,721,723,748,827,915,1022,1110,1174,1202,1155,1163,1096,1073,1067,1066,1043,1024,986,968,968,950,935,912,915,875,856,838,819,785,782,753,748,731,713,732,731,732,721,729,738,732,741,744,753,740,739,748,737,745,741,744,747,737,732,741,740,745,729,737,747,733,746,739,126,127,127,128,128,129,134,139,145,150,155,154,153,152,151,150,149,148,147,146,145,143,142,141,140,139,138,137,136,135,134,133,132,134,130,128,128,129,112,110,110,110,139,119,112,112,112,112,129,131,126,123,129,113,144,121,119,127,136,118,115,119,127,133,117,181,181,182,182,183,188,210,235,240,262,290,277,264,273,259,254,266,263,242,237,233,229,241,237,228,224,219,215,211,207,203,196,191,191,186,183,184,184,169,170,170,172,169,187,170,177,169,173,170,172,172,170,170,172,171,171,171,173,174,177,171,171,171,172,170,851,884,877,894,937,1008,1137,1262,1307,1386,1432,1378,1341,1319,1258,1277,1401,1238,1173,1223,1170,1148,1158,1125,1115,1093,1057,1047,1024,1026,918,934,896,854,898,837,839,862,855,864,870,889,948,925,886,936,892,977,915,945,921,890,919,965,917,893,948,913,899,930,927,968,920,913,901,383,384,385,387,388,414,462,508,627,617,618,612,606,620,592,586,579,572,577,567,514,560,498,488,480,470,461,454,445,436,427,418,409,400,392,388,390,390,366,368,370,371,374,374,374,372,374,377,374,376,377,377,377,378,378,380,380,381,383,383,385,385,385,387,386,1483,1534,1561,1669,1789,1987,2212,2368,2415,2424,2405,2322,2411,2284,2327,2247,2182,2171,2155,2137,2040,2048,2023,1890,1893,1869,1817,1818,1699,1731,1624,1603,1607,1534,1546,1563,1526,1514,1632,1680,1640,1650,1664,1649,1667,1669,1670,1666,1687,1658,1675,1665,1681,1690,1692,1705,1695,1692,1719,1663,1693,1698,1719,1697,1685,593,593,592,596,608,667,756,844,924,972,973,966,939,936,908,896,874,866,848,832,817,801,788,773,757,738,726,711,695,678,664,651,653,617,612,600,602,603,598,600,602,610,610,618,615,628,618,611,625,616,614,616,617,625,611,608,622,619,619,621,615,626,609,618,610,397,402,403,405,406,436,493,553,607,655,663,652,639,634,621,613,600,592,579,616,553,548,537,527,516,508,495,485,476,464,446,445,432,422,411,407,408,402,392,401,395,414,394,408,399,414,402,408,403,399,408,404,410,409,409,410,411,408,417,409,409,414,409,415,415,839,841,835,848,902,999,1184,1353,1437,1497,1475,1464,1423,1433,1358,1343,1329,1277,1253,1238,1243,1204,1161,1131,1121,1070,1040,1010,979,949,919,906,872,828,854,843,857,821,867,841,840,841,881,906,861,863,870,906,892,925,916,925,888,899,897,884,893,889,912,971,923,935,934,913,925,858,843,846,851,895,995,1155,1256,1341,1394,1427,1368,1373,1324,1288,1266,1244,1252,1213,1190,1191,1146,1134,1111,1067,1045,1023,1013,971,957,954,913,884,888,857,915,856,850,869,859,875,901,894,898,884,868,888,909,888,889,888,935,965,945,928,899,883,896,884,885,876,894,892,920,879,0,0,0,0,0,0,0,0,0,0,0,0,0,0,0,0,0,0,0,0,0,0,0,0,0,0,0,0,0,0,0,0,0,0,0,0,0,0,0,0,0,0,0,0,0,0,0,0,0,0,0,0,0,0,0,0,0,0,0,0,0,0,0,0,0,949,974,958,969,1049,1182,1410,1572,1667,1709,1691,1632,1602,1601,1564,1541,1529,1455,1444,1414,1394,1361,1327,1293,1242,1209,1179,1142,1109,1072,1057,1023,989,946,969,983,988,952,976,970,981,980,977,1003,985,984,986,989,999,990,981,983,993,1001,997,1009,1001,1006,998,997,993,990,1001,997,983,873,876,894,885,951,1036,1197,1304,1387,1440,1472,1437,1390,1368,1331,1308,1336,1294,1302,1251,1208,1185,1150,1127,1105,1082,1060,1028,1006,992,969,947,916,918,905,886,904,935,906,909,909,927,931,928,937,934,907,932,921,909,919,928,923,915,947,937,913,913,921,912,906,917,923,924,908,741,743,745,748,775,856,969,1081,1169,1226,1263,1206,1187,1168,1134,1115,1096,1107,1070,1051,1031,1012,980,961,942,923,904,876,857,846,827,808,781,769,756,752,754,748,744,754,754,761,787,756,760,774,756,769,754,758,756,767,783,801,953,884,793,777,769,760,761,760,777,770,754,178,179,179,180,180,185,208,231,254,277,291,287,282,278,273,269,264,260,256,251,247,242,238,233,229,224,220,215,211,207,202,198,193,189,184,181,181,182,166,166,166,166,167,166,166,167,166,167,169,167,169,169,167,169,169,169,170,170,170,170,172,171,171,170,172,1024,999,1002,1051,1068,1191,1349,1534,1628,1630,1784,1597,1571,1545,1534,1535,1467,1441,1415,1462,1364,1338,1352,1322,1260,1380,1208,1215,1227,1130,1135,1078,1052,1059,1014,1011,1013,1016,1028,1024,1028,1031,1034,1037,1039,1054,1045,1045,1037,1040,1047,1044,1047,1043,1042,1061,1051,1059,1049,1043,1066,1052,1049,1050,1040,1285,1281,1249,1337,1564,1921,2288,2485,2486,2509,2515,2427,2376,2325,2286,2223,2172,2127,2070,2012,1968,1912,1866,1815,1745,1707,1662,1586,1561,1517,1431,1372,1331,1293,1277,1277,1290,1311,1346,1334,1336,1342,1394,1398,1378,1380,1373,1428,1406,1380,1405,1374,1379,1417,1418,1383,1420,1402,1397,1436,1417,1441,1444,1476,1437,1378,1331,1356,1481,1677,1738,2006,2210,2230,2263,2297,2197,2171,2176,2081,2061,2018,1965,1977,1888,1917,1816,1914,1732,1726,1690,1605,1619,1636,1477,1482,1392,1445,1322,1349,1381,1355,1394,1429,1434,1438,1472,1461,1458,1470,1488,1451,1464,1458,1467,1460,1453,1459,1466,1461,1456,1453,1452,1461,1465,1447,1471,1453,1449,1441,839,841,835,848,902,999,1184,1353,1437,1497,1475,1464,1423,1433,1358,1343,1329,1277,1253,1238,1243,1204,1161,1131,1121,1070,1040,1010,979,949,919,906,872,828,854,843,857,821,867,841,840,841,881,906,861,863,870,906,892,925,916,925,888,899,897,884,893,889,912,971,923,935,934,913,925,513,515,516,518,529,569,640,707,781,828,834,821,810,795,784,766,755,752,719,715,702,694,676,662,658,636,631,618,593,591,578,564,543,537,525,527,515,523,521,525,516,524,526,529,540,533,526,527,529,533,527,529,531,534,527,527,533,531,527,529,525,533,526,530,517,652,654,678,658,676,746,883,962,1149,1171,1193,1124,1074,1057,1041,1024,972,955,938,921,1009,923,869,852,835,817,800,865,766,769,731,714,697,680,666,692,664,666,656,672,661,694,659,682,666,687,675,683,675,668,683,676,686,684,684,685,690,683,695,682,686,703,697,706,706,963,966,925,980,1062,1243,1465,1647,1748,1774,1760,1677,1664,1596,1642,1609,1535,1527,1493,1500,1427,1369,1360,1303,1242,1261,1190,1206,1139,1106,1161,1072,1028,1017,980,949,967,950,978,975,993,1013,982,1004,983,992,986,998,1014,1005,994,1006,1007,1020,1008,1013,997,1012,1013,1013,1015,1016,999,1029,1026,0,0,0,0,0,0,0,0,0,0,0,0,0,0,0,0,0,0,0,0,0,0,0,0,0,0,0,0,0,0,0,0,0,0,0,0,0,0,0,0,0,0,0,0,0,0,0,0,0,0,0,0,0,0,0,0,0,0,0,0,0,0,0,0,0,624,626,649,630,644,707,838,911,1026,1068,1118,1074,1026,1010,994,978,927,911,895,879,955,883,830,814,797,781,765,811,732,736,700,684,667,651,637,664,635,637,659,656,644,654,651,660,654,667,664,660,663,690,684,685,685,739,684,653,660,656,684,699,678,699,689,691,669,812,818,861,814,859,978,1105,1229,1374,1374,1400,1383,1329,1324,1260,1254,1185,1180,1133,1140,1159,1158,1076,1064,1052,1035,980,1041,958,949,933,905,854,852,831,866,849,841,840,847,850,863,868,864,858,878,859,871,858,853,862,871,866,867,877,875,878,870,879,876,869,894,892,899,896,881,883,885,890,958,1121,1323,1504,1608,1638,1625,1606,1571,1545,1513,1498,1466,1408,1377,1382,1315,1284,1253,1222,1191,1170,1142,1111,1077,1045,1048,994,952,924,896,908,903,909,915,912,908,921,1016,993,953,982,957,1043,993,986,988,936,946,990,984,947,1016,968,944,1008,980,1032,1004,1024,976,755,748,755,754,802,902,1001,1098,1192,1231,1231,1204,1185,1172,1149,1229,1110,1107,1073,1049,1073,1014,989,1003,965,936,916,892,872,852,915,818,806,779,765,770,775,773,782,782,782,785,786,781,786,793,782,786,784,784,783,798,794,797,792,793,794,787,794,806,792,805,783,791,791,1538,1491,1527,1686,1878,2026,2301,2394,2449,2534,2373,2353,2320,2376,2315,2266,2217,2157,2101,2096,1979,1981,1976,1959,1908,1872,1806,1744,1770,1687,1641,1570,1545,1521,1509,1526,1537,1521,1633,1631,1695,1957,1695,1650,1683,1795,1732,1662,1790,1738,1687,1696,1773,1765,1736,1644,1682,1683,1721,1719,1666,1708,1658,1680,1701,607,600,602,604,628,676,777,870,940,983,987,971,956,940,937,908,905,993,861,845,840,814,798,782,776,751,735,719,713,698,672,656,658,625,611,624,621,631,600,609,621,638,621,628,610,630,607,631,615,610,615,623,631,638,629,624,624,616,632,630,621,625,611,622,614,513,515,516,518,529,569,640,707,781,828,834,821,810,795,784,766,755,752,719,715,702,694,676,662,658,636,631,618,593,591,578,564,543,537,525,527,515,523,521,525,516,524,526,529,540,533,526,527,529,533,527,529,531,534,527,527,533,531,527,529,525,533,526,530,517,402,403,405,406,407,437,489,542,618,652,663,654,644,635,619,616,607,597,584,561,569,604,536,531,547,510,499,488,468,467,455,446,429,425,402,408,409,410,399,401,402,415,409,406,411,420,406,409,415,425,435,438,437,431,408,407,417,423,422,411,417,419,412,412,412,129,130,130,130,130,132,115,147,157,153,163,160,158,155,153,150,148,145,143,157,155,153,151,148,146,144,142,140,118,116,144,142,140,139,132,131,131,131,115,115,117,120,117,116,118,121,116,118,117,117,120,118,120,120,117,118,118,121,121,118,120,124,120,119,119,968,968,959,994,1049,1158,1334,1478,1519,1742,1540,1662,1501,1476,1452,1460,1404,1368,1355,1327,1295,1283,1277,1234,1210,1203,1178,1150,1128,1105,1066,1025,1006,978,965,1074,981,973,1047,1006,1006,1007,1038,1060,1032,1036,1035,1051,1089,1054,1061,1066,1050,1049,1029,1044,1054,1070,1073,1074,1038,1029,1078,1022,1013,679,677,711,667,685,751,860,950,1026,1127,1105,1109,1070,1047,1043,976,996,1010,961,903,927,886,892,875,821,819,823,811,794,790,735,737,705,702,674,685,687,689,676,685,686,707,698,689,690,705,687,705,702,713,744,741,761,753,701,694,706,700,703,694,701,708,695,705,697,0,0,0,0,0,0,0,0,0,0,0,0,0,0,0,0,0,0,0,0,0,0,0,0,0,0,0,0,0,0,0,0,0,0,0,0,0,0,0,0,0,0,0,0,0,0,0,0,0,0,0,0,0,0,0,0,0,0,0,0,0,0,0,0,0,261,252,263,297,264,277,332,348,384,434,441,437,411,405,399,412,386,398,373,371,364,341,351,344,337,330,324,317,329,322,296,290,283,276,269,265,300,266,259,258,259,262,264,266,271,264,262,268,272,265,266,263,264,277,264,270,264,264,261,263,265,266,265,273,268,900,900,905,949,992,1112,1208,1382,1466,1668,1462,1627,1482,1428,1405,1386,1394,1360,1312,1284,1287,1203,1219,1228,1203,1179,1126,1087,1071,1081,1056,993,975,947,934,937,913,954,936,934,950,948,962,1000,957,970,971,971,999,974,970,980,975,985,965,967,968,977,963,968,975,985,969,982,985,409,414,410,416,434,475,502,559,622,629,630,624,617,611,604,633,591,602,585,581,565,554,577,533,544,515,507,496,505,475,460,450,441,433,422,418,420,417,410,408,414,420,424,440,423,448,440,434,449,432,429,420,422,438,424,422,431,432,420,423,424,434,426,437,423,1466,1529,1589,1574,1750,1968,2196,2263,2332,2314,2333,2334,2238,2276,2275,2152,2073,2144,2017,1988,2070,1944,1919,1882,1862,1803,1736,1710,1718,1679,1590,1537,1509,1509,1537,1483,1502,1559,1563,1606,1573,1586,1608,1596,1589,1603,1605,1605,1618,1594,1603,1613,1616,1620,1632,1635,1634,1627,1643,1637,1649,1671,1681,1667,1662,550,552,554,553,565,616,695,775,885,888,899,882,875,857,842,825,815,801,784,770,759,737,730,716,706,688,671,657,643,631,612,603,589,585,562,560,558,571,564,561,561,569,550,561,557,559,577,613,560,570,576,575,580,588,596,573,568,565,571,576,568,569,572,575,570,402,403,405,406,407,437,489,542,618,652,663,654,644,635,619,616,607,597,584,561,569,604,536,531,547,510,499,488,468,467,455,446,429,425,402,408,409,410,399,401,402,415,409,406,411,420,406,409,415,425,435,438,437,431,408,407,417,423,422,411,417,419,412,412,412,484,482,483,484,515,534,620,671,740,786,791,773,761,813,742,730,711,705,692,675,668,655,643,626,661,606,594,581,569,552,544,527,515,507,495,491,492,494,486,481,500,494,490,514,495,514,515,506,537,508,507,509,507,519,501,499,502,509,498,499,501,506,493,513,513,236,236,237,238,238,249,281,312,344,376,388,382,376,370,391,358,352,346,340,334,328,321,315,309,303,297,291,285,279,273,267,261,255,249,285,239,240,240,228,226,227,230,230,231,230,231,228,232,232,231,230,232,231,228,231,233,233,234,232,230,233,233,232,232,232,824,815,817,846,894,956,1067,1182,1267,1336,1294,1274,1255,1256,1237,1197,1178,1158,1139,1124,1101,1100,1056,1061,1041,1004,988,965,964,940,907,878,852,853,838,835,840,840,853,843,843,846,843,859,912,911,847,879,862,851,852,891,900,913,908,884,898,908,916,890,874,869,855,852,851,913,909,919,928,985,1093,1239,1369,1451,1462,1480,1432,1389,1388,1367,1346,1339,1303,1291,1268,1251,1215,1208,1174,1156,1128,1088,1081,1068,1035,1011,967,950,933,930,927,939,933,939,943,939,946,955,946,957,961,959,953,965,970,1044,1043,1058,1007,955,968,970,982,965,959,977,947,963,962,950,268,268,269,270,271,284,319,376,389,424,435,429,422,415,432,402,395,389,382,375,369,362,355,349,342,335,329,322,315,309,302,295,289,282,275,271,272,273,259,259,262,266,262,261,265,266,263,261,265,263,266,268,269,268,261,262,264,268,268,259,264,268,263,263,265,0,0,0,0,0,0,0,0,0,0,0,0,0,0,0,0,0,0,0,0,0,0,0,0,0,0,0,0,0,0,0,0,0,0,0,0,0,0,0,0,0,0,0,0,0,0,0,0,0,0,0,0,0,0,0,0,0,0,0,0,0,0,0,0,0,814,805,787,790,795,949,1018,1127,1213,1278,1242,1224,1165,1225,1168,1150,1132,1113,1095,1080,1095,1076,1016,1037,985,997,951,929,938,883,894,846,821,808,770,825,772,771,805,790,790,797,801,806,808,805,805,814,813,805,808,815,817,809,810,823,814,824,809,800,818,820,801,801,791,610,616,628,607,629,677,743,844,901,941,863,850,841,826,894,937,861,912,833,862,804,825,775,790,747,732,745,731,703,703,688,674,659,618,615,611,617,628,600,606,613,619,617,622,608,616,608,640,616,616,622,621,639,659,636,628,636,621,631,638,638,644,622,629,623,1695,1777,1786,1957,2214,2323,2511,2744,2793,2718,2762,2636,2604,2637,2551,2527,2453,2482,2338,2297,2344,2260,2223,2144,2157,2038,2021,2060,1999,1881,1856,1797,1807,1801,1740,1727,1745,1743,1957,1966,1976,1991,2025,2032,2002,2025,2024,2061,2088,2065,2067,2102,2098,2113,2107,2118,2126,2141,2146,2141,2164,2168,2174,2194,2211,784,796,793,799,855,928,1045,1207,1304,1278,1284,1273,1240,1224,1237,1182,1162,1137,1117,1104,1081,1086,1087,1017,999,979,965,936,918,898,951,859,864,852,801,802,804,799,801,814,813,824,820,814,825,844,817,820,816,820,817,816,815,827,828,822,824,816,814,822,820,840,831,841,830,484,482,483,484,515,534,620,671,740,786,791,773,761,813,742,730,711,705,692,675,668,655,643,626,661,606,594,581,569,552,544,527,515,507,495,491,492,494,486,481,500,494,490,514,495,514,515,506,537,508,507,509,507,519,501,499,502,509,498,499,501,506,493,513,513,854,839,841,845,881,1020,1170,1355,1438,1486,1452,1464,1425,1386,1374,1353,1308,1295,1345,1229,1203,1176,1167,1124,1118,1083,1036,1019,993,967,932,932,888,863,852,846,850,881,866,869,869,879,885,874,878,890,882,884,891,893,902,916,907,914,883,879,890,890,881,889,891,884,883,886,884,896,899,902,911,962,1070,1213,1347,1431,1466,1479,1455,1431,1408,1384,1360,1337,1313,1289,1266,1265,1218,1217,1171,1169,1124,1100,1076,1053,1029,1005,982,958,936,923,910,912,1010,928,961,943,981,944,944,942,969,957,983,939,934,953,945,1020,955,976,947,973,963,969,938,970,982,953,975,967,194,195,196,196,197,202,228,254,280,306,323,318,313,308,303,298,293,288,283,277,272,267,262,257,252,247,242,237,232,227,222,217,212,207,201,197,198,198,185,186,186,189,190,188,189,189,186,187,187,189,187,190,192,192,187,188,192,189,192,189,190,193,186,189,188,951,958,975,982,1057,1204,1396,1535,1654,1683,1673,1622,1614,1584,1554,1504,1502,1465,1497,1405,1376,1328,1316,1287,1240,1203,1203,1168,1122,1093,1057,1049,1019,983,982,1000,981,991,977,1019,982,986,1014,998,996,1006,1005,1019,1021,994,1003,1009,1017,1016,1027,1029,1024,1023,1036,1029,1036,1050,1060,1044,1043,928,931,948,945,1000,1112,1284,1394,1500,1512,1546,1500,1475,1472,1427,1403,1378,1354,1330,1306,1281,1257,1233,1209,1184,1187,1136,1112,1104,1063,1039,1015,991,968,955,942,945,981,976,954,966,985,969,970,966,976,976,978,986,967,981,1008,1030,1011,1006,989,967,991,975,969,962,998,980,998,971,796,799,801,804,839,929,1051,1173,1260,1310,1315,1294,1273,1252,1231,1210,1189,1183,1148,1127,1106,1085,1064,1051,1022,1002,981,960,939,918,897,876,856,835,821,808,821,846,813,818,824,848,836,837,822,850,827,829,828,831,820,836,829,847,847,845,833,836,827,844,838,854,830,845,836,0,0,0,0,0,0,0,0,0,0,0,0,0,0,0,0,0,0,0,0,0,0,0,0,0,0,0,0,0,0,0,0,0,0,0,0,0,0,0,0,0,0,0,0,0,0,0,0,0,0,0,0,0,0,0,0,0,0,0,0,0,0,0,0,0,1051,1054,1058,1079,1137,1313,1439,1578,1696,1716,1710,1682,1703,1671,1600,1573,1546,1519,1491,1464,1437,1464,1413,1355,1327,1300,1301,1245,1218,1191,1163,1136,1109,1086,1102,1096,1081,1125,1113,1105,1099,1114,1103,1138,1107,1115,1141,1193,1118,1137,1136,1139,1133,1136,1156,1131,1122,1129,1130,1141,1135,1138,1139,1150,1129,1391,1393,1442,1540,1817,2259,2471,2631,2740,2703,2678,2619,2581,2503,2449,2410,2348,2291,2240,2178,2132,2078,2001,1960,1916,1866,1808,1721,1671,1613,1563,1527,1445,1422,1436,1414,1442,1450,1512,1511,1516,1518,1545,1591,1536,1571,1567,1594,1594,1585,1565,1574,1565,1593,1554,1557,1577,1570,1554,1588,1577,1595,1572,1585,1586,1326,1352,1353,1406,1583,1872,2007,2156,2335,2245,2260,2200,2161,2203,2071,2081,2039,2069,1971,1879,1841,1802,1764,1869,1687,1739,1620,1596,1567,1528,1499,1456,1382,1399,1380,1342,1348,1354,1427,1425,1435,1453,1493,1475,1441,1484,1433,1441,1450,1456,1451,1473,1486,1506,1624,1571,1471,1476,1478,1470,1481,1476,1493,1506,1479,854,839,841,845,881,1020,1170,1355,1438,1486,1452,1464,1425,1386,1374,1353,1308,1295,1345,1229,1203,1176,1167,1124,1118,1083,1036,1019,993,967,932,932,888,863,852,846,850,881,866,869,869,879,885,874,878,890,882,884,891,893,902,916,907,914,883,879,890,890,881,889,891,884,883,886,884,683,684,687,722,747,769,885,1067,1114,1124,1191,1109,1114,1080,1086,1072,1023,994,976,958,955,955,943,875,870,851,834,816,811,782,783,765,717,734,696,692,706,697,698,695,692,708,762,753,739,739,720,777,751,744,746,710,716,752,751,717,753,729,709,747,733,764,752,767,729,361,355,356,353,358,382,434,445,483,511,532,518,512,510,503,496,488,481,474,467,460,452,445,438,451,449,439,430,420,411,401,392,382,366,363,354,355,361,353,345,349,349,341,355,347,348,350,365,373,363,356,362,356,364,363,355,350,356,350,360,356,356,350,374,360,1030,1019,1022,1041,1101,1227,1403,1520,1611,1664,1656,1626,1605,1579,1553,1527,1501,1468,1441,1442,1389,1486,1346,1320,1294,1285,1242,1216,1178,1164,1139,1113,1073,1050,1036,1045,1034,1037,1066,1035,1045,1044,1091,1082,1054,1061,1057,1070,1118,1107,1101,1106,1121,1111,1128,1110,1088,1124,1136,1120,1114,1108,1144,1165,1124,731,703,677,679,739,770,871,974,1102,1103,1104,1157,1069,1051,1034,1036,1084,981,964,946,1007,1024,893,875,858,895,823,924,788,770,753,735,740,699,732,728,724,687,710,718,700,716,720,720,726,740,716,714,722,732,724,714,716,723,721,721,721,723,713,716,710,722,721,718,705,357,352,353,353,354,384,416,460,509,533,556,542,538,536,523,524,507,511,490,482,492,466,458,450,441,433,425,431,409,401,392,384,385,368,360,355,363,364,355,341,347,347,343,355,350,358,355,350,360,349,350,349,350,356,353,354,349,353,350,349,353,353,353,361,357,374,375,376,377,379,405,457,510,563,609,618,608,629,589,579,602,593,550,588,530,521,511,501,491,482,472,462,452,443,433,423,413,404,394,384,380,381,382,362,363,371,384,365,376,368,377,380,370,379,370,372,374,371,378,374,376,376,379,376,377,379,395,393,400,393,962,988,991,1006,1060,1180,1326,1425,1558,1612,1565,1576,1556,1490,1506,1481,1456,1423,1398,1433,1354,1331,1306,1281,1256,1220,1206,1181,1150,1131,1129,1081,1042,1020,981,1014,1003,1005,1050,1034,1044,1037,1040,1030,1063,1043,1027,1023,1042,1038,1032,1038,1038,1036,1030,1043,1038,1039,1043,1047,1032,1045,1037,1038,1036,0,0,0,0,0,0,0,0,0,0,0,0,0,0,0,0,0,0,0,0,0,0,0,0,0,0,0,0,0,0,0,0,0,0,0,0,0,0,0,0,0,0,0,0,0,0,0,0,0,0,0,0,0,0,0,0,0,0,0,0,0,0,0,0,0,1374,1354,1368,1424,1629,1722,2002,2210,2212,2277,2131,2158,2136,2097,2010,2046,1993,1915,1955,1897,1901,1746,1732,1713,1678,1643,1677,1567,1524,1529,1481,1456,1453,1371,1363,1357,1388,1450,1440,1445,1470,1494,1510,1491,1472,1484,1466,1473,1466,1459,1466,1478,1486,1499,1507,1497,1459,1465,1475,1478,1479,1481,1490,1506,1473,426,431,429,436,438,472,529,590,659,708,716,704,686,682,671,659,656,636,616,606,595,579,571,557,557,544,527,516,505,493,482,468,457,445,442,433,438,441,438,431,431,431,439,438,435,440,432,487,438,431,440,439,434,438,442,440,435,440,433,445,434,437,435,439,437,683,684,687,722,747,769,885,1067,1114,1124,1191,1109,1114,1080,1086,1072,1023,994,976,958,955,955,943,875,870,851,834,816,811,782,783,765,717,734,696,692,706,697,698,695,692,708,762,753,739,739,720,777,751,744,746,710,716,752,751,717,753,729,709,747,733,764,752,767,729,1529,1527,1561,1718,1925,2236,2455,2533,2546,2526,2533,2493,2479,2453,2472,2350,2369,2248,2259,2172,2178,2076,2061,1984,1966,1931,1903,1848,1779,1754,1713,1651,1600,1565,1553,1583,1579,1609,1733,1719,1742,1734,1740,1781,1742,1748,1757,1773,1800,1772,1780,1789,1793,1785,1766,1781,1748,1785,1755,1763,1771,1788,1751,1765,1788,1493,1520,1550,1637,1767,2037,2182,2303,2376,2427,2406,2336,2256,2260,2252,2181,2174,2130,2049,1994,2006,1978,1888,1881,1900,1806,1740,1758,1704,1644,1624,1547,1584,1578,1544,1498,1537,1504,1625,1620,1626,1692,1666,1674,1672,1649,1649,1670,1666,1664,1657,1686,1716,1717,1685,1663,1659,1660,1647,1644,1636,1665,1651,1674,1624,1489,1464,1532,1634,1955,2407,2669,2831,2893,2886,2822,2830,2685,2666,2588,2548,2531,2394,2461,2313,2220,2196,2137,2078,1987,1929,1902,1813,1755,1697,1638,1609,1561,1530,1521,1566,1545,1547,1664,1635,1652,1663,1670,1678,1692,1694,1671,1690,1698,1705,1717,1717,1683,1685,1706,1723,1710,1740,1753,1719,1721,1757,1761,1733,1720,1483,1418,1487,1568,1672,1894,2234,2358,2442,2399,2301,2372,2232,2226,2325,2206,2156,2062,2154,1973,2042,1920,1891,1894,1771,1856,1720,1644,1610,1612,1603,1599,1560,1492,1438,1455,1449,1536,1525,1567,1543,1567,1570,1556,1551,1562,1567,1565,1579,1558,1560,1573,1577,1580,1593,1598,1595,1590,1604,1600,1612,1649,1658,1644,1640,1447,1490,1502,1533,1719,1937,2114,2237,2307,2364,2322,2252,2211,2184,2177,2118,2085,2070,1980,1955,1942,1904,1831,1803,1830,1753,1709,1704,1653,1578,1595,1519,1565,1526,1515,1469,1495,1459,1528,1572,1536,1542,1572,1556,1558,1570,1568,1571,1586,1563,1571,1580,1583,1589,1596,1597,1602,1596,1608,1597,1613,1627,1641,1623,1623,1633,1711,1735,1802,2027,2295,2415,2536,2634,2655,2647,2534,2488,2442,2464,2381,2400,2307,2235,2232,2226,2134,2065,2053,2052,1981,1940,1906,1857,1818,1789,1720,1739,1721,1696,1668,1679,1646,1850,1871,1828,1835,1876,1871,1866,1869,1862,1862,1903,1866,1888,1887,1901,1908,1891,1912,1908,1914,1958,1879,1886,1900,1957,1905,1866,1523,1526,1570,1715,2050,2458,2719,2879,2940,2933,2909,2916,2814,2710,2671,2591,2574,2480,2503,2361,2301,2235,2176,2116,2057,1998,1938,1879,1819,1760,1701,1643,1595,1564,1555,1600,1579,1609,1700,1748,1708,1716,1728,1731,1733,1740,1735,1735,1762,1726,1735,1738,1750,1763,1755,1777,1764,1756,1774,1732,1761,1769,1789,1758,1749,1308,1350,1386,1367,1580,1763,1894,2021,2126,2246,2169,2065,2008,1998,2072,1949,1973,1917,1810,1776,1818,1770,1677,1643,1703,1596,1543,1599,1534,1477,1456,1378,1427,1410,1345,1328,1398,1358,1410,1396,1396,1402,1399,1432,1432,1443,1424,1434,1450,1435,1457,1457,1457,1479,1465,1433,1440,1451,1447,1468,1451,1442,1465,1505,1471,0,0,0,0,0,0,0,0,0,0,0,0,0,0,0,0,0,0,0,0,0,0,0,0,0,0,0,0,0,0,0,0,0,0,0,0,0,0,0,0,0,0,0,0,0,0,0,0,0,0,0,0,0,0,0,0,0,0,0,0,0,0,0,0,0,865,900,911,859,945,1076,1138,1295,1380,1482,1442,1390,1342,1345,1354,1276,1349,1232,1210,1187,1260,1189,1121,1099,1146,1074,1032,1060,1028,966,1041,922,944,927,913,878,908,866,890,900,894,908,905,908,908,919,902,919,909,916,912,905,899,906,911,916,904,908,902,905,904,930,935,929,914,1529,1527,1561,1718,1925,2236,2455,2533,2546,2526,2533,2493,2479,2453,2472,2350,2369,2248,2259,2172,2178,2076,2061,1984,1966,1931,1903,1848,1779,1754,1713,1651,1600,1565,1553,1583,1579,1609,1733,1719,1742,1734,1740,1781,1742,1748,1757,1773,1800,1772,1780,1789,1793,1785,1766,1781,1748,1785,1755,1763,1771,1788,1751,1765,1788,775,786,765,771,796,883,1028,1111,1219,1257,1262,1217,1193,1174,1151,1139,1116,1106,1120,1065,1043,1016,1044,984,962,971,929,901,887,913,849,829,810,790,775,774,771,811,774,775,778,786,848,832,812,835,816,861,828,824,823,791,797,821,806,793,840,801,792,824,815,855,828,825,815,629,631,639,636,655,725,829,919,1019,1043,1045,1035,1011,1008,984,971,951,939,914,898,885,853,857,821,803,794,774,764,744,727,705,686,680,663,645,637,644,642,641,644,645,642,651,664,660,652,651,651,654,652,653,655,660,662,656,672,664,678,669,654,671,647,662,659,647,1352,1362,1374,1474,1660,1932,2200,2253,2385,2360,2336,2307,2257,2210,2204,2142,2088,2088,1952,1996,1976,1834,1842,1800,1704,1701,1675,1576,1583,1545,1478,1455,1421,1390,1394,1368,1413,1397,1458,1499,1457,1475,1488,1470,1480,1490,1487,1491,1499,1488,1509,1490,1496,1503,1507,1509,1509,1507,1542,1499,1532,1540,1555,1517,1510,641,627,629,631,644,707,823,888,971,1013,1042,999,984,967,952,935,920,904,889,872,857,841,825,809,793,778,762,746,730,762,698,683,667,651,638,634,636,637,645,652,641,674,646,672,645,676,654,661,660,656,666,659,677,682,675,676,669,671,682,668,679,682,682,695,690,601,594,596,598,614,659,753,827,900,952,955,969,937,921,900,887,889,861,845,832,818,790,806,782,738,725,719,710,695,679,663,655,641,626,611,608,603,614,607,606,613,606,609,619,642,629,608,623,629,628,622,618,623,637,624,625,621,617,617,616,618,619,617,644,630,782,810,789,801,834,911,1042,1208,1241,1281,1300,1269,1266,1232,1194,1187,1165,1143,1106,1082,1100,1064,1050,1024,1003,970,962,943,928,892,871,867,839,819,828,792,788,808,820,786,794,797,786,812,802,813,808,807,827,799,799,804,799,814,807,809,805,805,804,801,808,808,806,837,814,1297,1298,1283,1369,1536,1788,2084,2183,2226,2281,2248,2222,2134,2094,2083,2017,1973,1973,1896,1888,1841,1782,1738,1722,1655,1604,1580,1540,1492,1456,1412,1371,1346,1325,1318,1312,1329,1312,1368,1365,1371,1395,1388,1394,1396,1407,1391,1402,1399,1395,1398,1426,1450,1437,1418,1409,1391,1402,1392,1388,1379,1407,1395,1412,1373,460,462,463,465,468,507,625,642,774,756,763,751,739,727,715,703,737,678,666,654,642,692,617,604,593,580,569,602,544,532,520,508,496,483,510,467,469,470,456,457,464,483,456,468,458,464,458,455,463,458,455,457,461,465,461,468,461,462,462,463,461,472,456,467,464,950,942,939,950,1008,1192,1259,1457,1527,1575,1563,1497,1555,1470,1515,1400,1463,1351,1376,1369,1341,1308,1311,1252,1244,1216,1214,1099,1083,1183,1034,1042,986,1014,1001,985,967,981,997,991,1000,1000,997,1024,1006,1005,1008,1009,1019,1011,1003,1004,1014,1022,1017,1030,1021,1027,1016,1017,1014,1009,1021,1015,1003,0,0,0,0,0,0,0,0,0,0,0,0,0,0,0,0,0,0,0,0,0,0,0,0,0,0,0,0,0,0,0,0,0,0,0,0,0,0,0,0,0,0,0,0,0,0,0,0,0,0,0,0,0,0,0,0,0,0,0,0,0,0,0,0,0,775,786,765,771,796,883,1028,1111,1219,1257,1262,1217,1193,1174,1151,1139,1116,1106,1120,1065,1043,1016,1044,984,962,971,929,901,887,913,849,829,810,790,775,774,771,811,774,775,778,786,848,832,812,835,816,861,828,824,823,791,797,821,806,793,840,801,792,824,815,855,828,825,815,0,0,0,0,0,0,0,0,0,0,0,0,0,0,0,0,0,0,0,0,0,0,0,0,0,0,0,0,0,0,0,0,0,0,0,0,0,0,0,0,0,0,0,0,0,0,0,0,0,0,0,0,0,0,0,0,0,0,0,0,0,0,0,0,0,384,385,386,387,389,417,473,521,628,670,660,595,655,687,595,575,579,557,530,539,530,566,475,466,456,447,438,428,419,409,400,425,415,404,394,390,391,375,371,373,366,371,372,394,371,377,387,410,372,374,369,373,378,365,374,376,372,374,369,372,378,377,372,378,371,790,749,794,797,795,971,1123,1295,1446,1513,1480,1468,1393,1365,1397,1337,1309,1253,1193,1251,1138,1111,1180,1110,1081,1053,974,974,946,975,865,837,834,826,796,814,809,814,820,814,817,823,818,818,830,833,822,822,820,822,825,829,832,831,835,833,828,835,845,833,831,840,828,827,828,558,560,561,563,571,631,687,758,846,915,897,905,859,845,840,847,812,817,790,769,755,759,744,712,721,676,686,671,657,642,628,613,584,584,580,552,578,565,565,576,565,580,570,564,582,588,578,583,571,571,564,567,577,573,582,587,568,579,585,578,580,582,573,569,565,339,340,341,342,343,364,412,476,549,550,564,544,579,570,547,528,508,512,486,496,488,502,435,427,418,410,401,393,384,376,367,375,366,358,349,344,345,346,332,340,334,343,342,349,338,342,335,337,338,335,333,348,342,347,345,349,347,348,357,349,345,354,335,343,339,439,441,420,421,423,454,512,601,715,714,733,709,699,686,663,653,620,633,623,613,602,605,595,584,572,564,553,531,521,511,540,460,450,439,428,424,425,426,427,432,422,425,434,434,460,463,430,437,437,445,440,429,433,441,440,434,439,433,431,434,431,439,438,445,426,708,709,711,721,748,858,1033,1197,1305,1375,1344,1334,1291,1265,1270,1213,1187,1172,1146,1128,1118,1056,1040,1003,977,951,935,899,873,856,820,794,768,742,732,738,724,730,722,729,735,748,766,763,740,771,738,789,758,770,759,749,769,789,767,755,776,761,760,772,767,783,756,761,753,690,689,694,721,722,794,927,1000,1133,1107,1115,1128,1089,1072,1045,1048,1027,996,983,971,956,933,921,903,874,857,839,820,812,785,775,757,731,719,707,702,701,724,712,703,707,732,721,699,709,726,705,774,831,725,733,729,721,712,714,737,702,703,700,699,700,706,705,720,693,1591,1584,1654,1713,1924,2116,2330,2513,2588,2464,2485,2496,2439,2358,2501,2354,2321,2200,2226,2153,2064,2094,1996,1984,1931,1945,1907,1850,1794,1757,1725,1651,1655,1575,1554,1682,1557,1623,1713,1727,1723,1769,1753,1735,1727,1758,1734,1746,1738,1778,1788,1815,1789,1780,1770,1809,1789,1779,1787,1786,1803,1820,1807,1805,1828,631,633,635,637,652,718,813,908,1009,1037,1040,1023,1006,990,986,990,940,923,951,902,874,857,840,824,807,791,784,757,741,724,708,691,684,658,644,641,642,644,631,629,630,631,633,633,638,641,638,639,640,641,644,645,644,648,646,644,651,648,645,641,651,654,656,655,655,0,0,0,0,0,0,0,0,0,0,0,0,0,0,0,0,0,0,0,0,0,0,0,0,0,0,0,0,0,0,0,0,0,0,0,0,0,0,0,0,0,0,0,0,0,0,0,0,0,0,0,0,0,0,0,0,0,0,0,0,0,0,0,0,0 ]);
