n = 10;
D = [255,99,204,147,285,156,215,112,182,242 ];
q = 0;
prec = array2d(1..0,1..2,[]);
steps = 64;
l = 360;
r = 0;
which = [];
interval = array2d(1..0,1..2,[]);
T = array3d(1..11,1..11,0..64,[0,0,0,0,0,0,0,0,0,0,0,0,0,0,0,0,0,0,0,0,0,0,0,0,0,0,0,0,0,0,0,0,0,0,0,0,0,0,0,0,0,0,0,0,0,0,0,0,0,0,0,0,0,0,0,0,0,0,0,0,0,0,0,0,0,240,241,242,242,243,384,432,481,529,576,590,582,572,564,554,544,536,526,518,508,499,490,481,471,463,453,445,435,426,417,408,399,390,380,248,244,244,245,235,242,240,247,244,310,241,327,240,248,242,237,243,246,306,306,247,244,243,240,327,248,240,243,239,244,240,617,620,621,624,664,1089,1243,1377,1491,1520,1519,1495,1471,1447,1422,1414,1393,1350,1344,1329,1304,1252,1255,1230,1179,1155,1131,1106,1082,1095,1034,771,724,643,624,641,628,630,628,633,629,664,638,632,639,679,636,646,644,648,644,638,632,640,643,647,637,640,632,637,635,647,670,689,636,1008,1000,1003,1027,1130,1776,2112,2272,2380,2425,2429,2361,2328,2290,2256,2215,2181,2138,2101,2062,2022,1983,1944,1928,1867,1829,1795,1527,1438,1340,1230,1073,1046,1037,1012,1012,978,980,974,981,987,1002,1002,1023,1006,1023,1007,1039,1017,1040,1032,1005,1026,1041,1031,1011,1015,1009,1012,1041,1035,1027,1029,1023,1017,840,843,845,854,1086,1515,1840,2083,2238,2313,2293,2253,2206,2167,2120,2080,2037,1990,1951,1922,1864,1821,1774,1731,1692,1659,1602,1558,1418,1320,1256,1047,895,870,856,853,892,865,871,864,868,869,872,877,881,883,883,883,889,890,894,887,887,894,892,896,885,892,892,895,897,898,896,896,896,231,232,232,233,234,334,410,455,499,546,566,558,548,540,531,523,514,505,496,488,480,470,462,453,445,435,427,418,410,400,392,358,350,341,238,235,235,236,205,206,208,207,208,208,209,236,211,214,210,212,209,217,210,225,229,214,211,209,205,211,211,211,205,205,205,464,466,467,468,476,532,875,944,1076,1136,1149,1134,1119,1100,1082,1015,1000,991,974,960,950,932,919,910,894,874,856,838,801,784,710,694,638,530,475,472,472,474,452,457,453,456,460,459,459,468,455,456,457,457,454,461,461,469,460,459,461,456,468,468,459,490,454,454,454,759,761,752,789,796,1213,1528,1664,1786,1840,1833,1804,1776,1746,1717,1687,1658,1737,1599,1570,1563,1512,1482,1453,1424,1394,1365,1335,1306,1111,963,812,804,775,762,759,761,763,756,778,756,780,772,772,775,794,818,810,826,790,826,820,814,821,800,819,778,800,788,779,776,784,828,811,788,1313,1346,1329,1392,1608,2714,2952,3140,3253,3274,3241,3248,3144,3078,3032,2975,2912,2875,2802,2746,2696,2638,2382,2087,1959,1749,1574,1568,1568,1464,1488,1460,1377,1344,1341,1331,1338,1342,1343,1341,1349,1359,1345,1370,1351,1356,1351,1352,1372,1353,1347,1360,1357,1382,1370,1365,1360,1366,1366,1366,1363,1371,1350,1378,1358,231,232,232,233,234,330,410,455,499,546,566,558,548,540,531,523,514,505,496,488,480,470,462,453,445,435,427,418,410,400,392,384,344,337,238,235,235,236,205,200,203,205,205,203,203,205,202,208,208,206,204,208,203,203,203,207,208,210,205,203,209,208,205,205,205,0,0,0,0,0,0,0,0,0,0,0,0,0,0,0,0,0,0,0,0,0,0,0,0,0,0,0,0,0,0,0,0,0,0,0,0,0,0,0,0,0,0,0,0,0,0,0,0,0,0,0,0,0,0,0,0,0,0,0,0,0,0,0,0,0,305,306,320,321,252,299,454,556,610,660,685,674,714,702,691,679,667,608,597,632,620,628,554,543,532,475,465,499,492,482,471,462,451,294,257,253,254,255,256,256,257,260,262,258,258,257,260,260,263,258,259,260,262,259,260,261,259,259,256,260,260,261,260,268,257,0,0,0,0,0,0,0,0,0,0,0,0,0,0,0,0,0,0,0,0,0,0,0,0,0,0,0,0,0,0,0,0,0,0,0,0,0,0,0,0,0,0,0,0,0,0,0,0,0,0,0,0,0,0,0,0,0,0,0,0,0,0,0,0,0,460,460,471,464,472,774,877,980,1078,1166,1140,1122,1104,1084,1066,1048,1060,1027,1105,975,957,952,921,903,884,866,848,892,812,794,775,757,589,480,476,466,468,469,466,467,460,467,466,478,465,473,472,478,467,468,462,468,473,456,468,470,467,470,461,463,470,470,464,470,463,844,869,849,864,899,1538,1771,1934,2027,2072,2086,2048,2005,1969,1949,1918,1888,1855,1819,1755,1723,1720,1685,1671,1618,1584,1572,1535,1398,1152,1194,934,903,888,872,868,871,838,828,831,834,837,830,834,838,848,842,847,841,838,850,843,849,851,850,850,856,849,846,848,854,875,852,849,849,817,832,835,826,926,1459,1677,1842,1958,1996,1999,2015,1934,1901,1867,1860,1810,1779,1746,1714,1681,1649,1617,1604,1550,1519,1507,1474,1419,1166,930,897,906,848,836,842,845,800,790,793,796,799,792,796,800,810,804,809,803,800,812,805,811,813,812,812,818,811,808,810,816,837,814,811,811,436,438,439,440,426,482,797,911,996,1063,1079,1062,1022,1006,990,973,956,962,943,907,890,891,877,860,844,801,784,791,776,752,648,634,600,465,439,436,436,427,406,405,407,411,418,417,410,407,413,412,415,408,410,411,412,409,410,416,411,413,407,410,414,414,419,428,409,658,661,663,665,660,793,1286,1455,1502,1631,1627,1603,1559,1533,1476,1483,1434,1412,1390,1369,1347,1336,1317,1287,1263,1214,1188,1174,1139,1059,934,777,762,696,665,660,662,655,636,635,638,646,654,650,647,642,648,648,656,650,649,654,655,655,650,652,651,650,645,645,653,650,656,663,646,608,609,612,613,633,1036,1174,1312,1418,1490,1502,1478,1454,1430,1406,1406,1358,1334,1310,1286,1262,1238,1214,1190,1166,1162,1118,1094,1070,1046,978,902,649,633,621,616,618,620,604,607,621,647,619,627,610,624,611,635,619,614,620,622,632,637,631,626,622,622,629,624,621,646,617,625,621,1384,1389,1399,1450,1731,2839,3058,3206,3271,3287,3268,3214,3146,3117,3041,3007,2955,2902,2959,2796,2742,2550,2190,2071,1711,1660,1687,1643,1556,1539,1498,1508,1436,1426,1410,1397,1404,1380,1380,1374,1379,1387,1381,1395,1383,1393,1390,1392,1386,1385,1381,1386,1390,1377,1388,1391,1384,1390,1380,1378,1385,1385,1379,1384,1377,436,438,439,440,426,528,797,911,996,1063,1079,1062,1022,1006,990,973,956,962,943,907,890,891,877,860,844,801,784,791,776,752,697,658,600,465,439,433,434,427,408,407,406,410,418,419,411,410,415,413,416,413,416,411,415,415,410,416,412,411,408,415,411,414,418,435,407,305,306,320,321,252,299,454,556,610,660,685,674,714,702,691,679,667,608,597,632,620,628,554,543,532,475,465,499,492,482,471,462,451,294,257,253,254,255,256,256,257,260,262,258,258,257,260,260,263,258,259,260,262,259,260,261,259,259,256,260,260,261,260,268,257,656,657,659,661,706,943,1299,1389,1574,1654,1663,1633,1556,1550,1507,1533,1503,1477,1413,1428,1360,1343,1347,1322,1326,1262,1280,1215,1113,998,868,899,698,683,669,666,670,632,609,614,616,617,617,612,617,611,617,615,612,617,617,617,617,617,616,616,615,617,617,617,617,617,617,617,616,477,479,480,481,483,617,873,974,1076,1164,1179,1160,1141,1123,1105,1087,1066,1048,1030,1010,992,973,955,936,916,898,884,860,842,823,730,679,616,498,488,484,486,487,462,457,462,458,470,463,456,470,465,462,468,470,466,470,470,470,466,463,463,466,465,462,466,465,463,462,461,0,0,0,0,0,0,0,0,0,0,0,0,0,0,0,0,0,0,0,0,0,0,0,0,0,0,0,0,0,0,0,0,0,0,0,0,0,0,0,0,0,0,0,0,0,0,0,0,0,0,0,0,0,0,0,0,0,0,0,0,0,0,0,0,0,419,420,420,423,415,584,764,840,931,984,992,980,948,951,972,925,885,870,901,889,861,856,840,819,806,792,752,736,740,690,651,570,545,470,416,425,426,451,395,396,398,403,397,404,400,404,410,401,405,398,402,402,398,399,402,402,402,403,402,403,404,410,408,410,408,564,575,568,570,595,734,1078,1213,1325,1372,1374,1341,1308,1316,1293,1267,1240,1208,1221,1191,1179,1160,1124,1113,1071,1055,1032,1009,989,795,750,624,663,611,576,573,592,569,491,491,491,491,491,491,491,491,491,491,491,491,491,491,491,491,490,490,491,491,491,491,491,491,491,491,490,666,668,672,693,694,1216,1442,1625,1763,1823,1789,1781,1768,1706,1747,1642,1645,1646,1610,1574,1541,1460,1466,1431,1354,1320,1290,1253,1229,1127,1008,868,716,717,705,698,709,691,686,684,684,688,692,693,694,700,690,694,695,700,700,711,713,710,718,699,697,694,695,704,695,708,699,721,721,700,701,703,705,710,1327,1599,1781,1924,1964,1948,1911,1903,1851,1856,1761,1724,1697,1650,1612,1575,1537,1500,1462,1425,1392,1351,1312,1275,1238,1114,929,751,727,714,710,715,718,728,728,712,715,730,736,735,748,725,741,741,768,755,768,768,762,757,723,734,734,758,756,759,765,753,756,754,241,249,249,249,252,357,431,471,518,552,561,572,558,556,542,537,530,523,514,505,498,498,484,473,464,456,446,440,432,423,413,402,262,260,255,252,253,247,182,182,182,182,182,182,182,182,182,182,182,182,182,182,182,182,181,181,182,182,182,182,182,182,182,182,181,932,937,939,946,998,1471,1900,2097,2208,2268,2253,2216,2198,2166,2109,2073,2051,2002,1974,1945,1910,1863,1824,1789,1764,1733,1426,1153,1129,1119,1053,1015,977,960,959,952,950,937,911,914,907,919,920,919,917,918,920,918,914,919,917,919,918,917,921,920,921,917,920,919,915,915,915,915,914,666,668,672,693,694,1216,1442,1625,1763,1823,1789,1781,1768,1706,1747,1642,1645,1646,1610,1574,1541,1460,1466,1431,1354,1320,1290,1253,1229,1153,838,753,716,717,705,698,709,690,685,685,683,686,690,691,709,709,687,695,695,713,700,710,722,722,718,698,697,694,694,703,693,706,698,706,706,656,657,659,661,706,943,1299,1389,1574,1654,1663,1633,1556,1550,1507,1533,1503,1477,1413,1428,1360,1343,1347,1322,1326,1262,1280,1215,1113,998,868,899,698,683,669,666,670,632,609,614,616,617,617,612,617,611,617,615,612,617,617,617,617,617,616,616,615,617,617,617,617,617,617,617,616,980,983,995,1004,1062,1646,1983,2222,2367,2433,2371,2391,2308,2281,2255,2213,2197,2157,2113,2060,2014,1969,1924,1928,1869,1852,1790,1722,1423,1239,1147,1071,1040,1018,1008,999,1002,1001,979,989,993,1000,1007,998,997,1012,993,1013,1014,1010,1025,1015,1029,1021,1013,1008,1010,1008,1006,1022,1008,1010,1006,1012,1012,847,849,850,855,873,1322,1648,1834,1983,2062,2053,2030,1988,1972,1921,1894,1863,1828,1803,1764,1731,1695,1665,1633,1600,1568,1547,1503,1316,956,934,915,891,874,863,860,862,864,836,835,828,829,847,844,845,853,845,854,845,846,845,852,856,853,858,856,852,849,848,854,849,849,845,855,855,509,511,513,517,520,584,894,962,1031,1084,1094,1081,1068,1054,1042,1029,1016,1002,990,976,966,969,955,941,920,914,885,871,855,723,711,583,555,523,523,511,520,505,463,464,463,467,468,472,469,470,461,469,465,464,465,482,474,479,494,481,472,476,486,480,474,481,467,470,469,0,0,0,0,0,0,0,0,0,0,0,0,0,0,0,0,0,0,0,0,0,0,0,0,0,0,0,0,0,0,0,0,0,0,0,0,0,0,0,0,0,0,0,0,0,0,0,0,0,0,0,0,0,0,0,0,0,0,0,0,0,0,0,0,0,242,243,243,244,244,308,419,477,515,576,602,592,583,573,557,548,538,528,518,517,500,498,488,478,469,459,444,440,430,416,411,403,393,384,306,245,300,300,231,233,228,229,231,228,240,238,232,237,230,230,228,228,231,230,231,231,230,232,237,231,231,233,230,232,230,976,978,1000,1031,1122,1739,2244,2448,2591,2551,2639,2485,2439,2393,2418,2370,2385,2271,2203,2132,2141,2084,2030,1970,1911,1936,1822,1782,1508,1328,1083,1116,1078,1020,1010,1011,999,1035,1009,1014,1012,1010,1022,1016,1013,1020,1026,1027,1029,1029,1030,1030,1031,1039,1034,1031,1028,1032,1030,1036,1036,1044,1041,1043,1042,1024,1012,1015,1041,1426,1781,2420,2653,2751,2693,2745,2614,2563,2512,2469,2411,2425,2308,2259,2212,2221,2151,2073,2024,1975,1971,1882,1599,1418,1324,1119,1118,1090,1040,1026,1030,1033,1060,1049,1039,1058,1039,1063,1045,1060,1056,1060,1055,1046,1062,1057,1065,1066,1074,1068,1070,1062,1067,1064,1071,1071,1082,1077,1083,1081,258,260,260,261,262,335,472,526,581,633,647,636,627,616,606,596,584,575,565,555,544,533,523,511,502,492,481,471,461,450,440,430,421,340,370,263,327,327,235,233,234,235,235,236,237,236,234,236,234,235,238,242,240,239,259,242,237,238,241,241,238,243,237,238,237,748,750,744,749,791,1140,1437,1593,1746,1824,1817,1771,1756,1707,1684,1672,1642,1592,1584,1540,1528,1483,1468,1438,1414,1388,1359,1259,1132,1059,995,811,774,772,762,750,756,743,727,725,728,725,739,737,738,748,736,753,738,739,738,740,739,762,760,745,739,738,735,746,746,756,744,751,743,976,978,1000,1031,1176,1739,2244,2448,2591,2551,2639,2485,2439,2393,2418,2370,2385,2271,2203,2132,2141,2084,2030,1970,1911,1936,1822,1782,1533,1316,1083,1132,1078,1020,1010,1011,999,1034,1008,1013,1009,1008,1020,1013,1010,1017,1026,1030,1026,1030,1035,1035,1036,1039,1036,1031,1033,1040,1035,1036,1038,1043,1035,1035,1034,980,983,995,1004,1062,1646,1983,2222,2367,2433,2371,2391,2308,2281,2255,2213,2197,2157,2113,2060,2014,1969,1924,1928,1869,1852,1790,1722,1423,1239,1147,1071,1040,1018,1008,999,1002,1001,979,989,993,1000,1007,998,997,1012,993,1013,1014,1010,1025,1015,1029,1021,1013,1008,1010,1008,1006,1022,1008,1010,1006,1012,1012,848,850,886,899,965,1699,1992,2272,2332,2404,2347,2335,2222,2178,2134,2090,2047,2004,1959,1916,1872,1828,1784,1741,1696,1653,1609,1566,1439,1281,956,927,897,902,898,864,894,876,921,939,932,929,923,954,932,934,945,956,940,929,948,956,957,974,962,935,936,935,930,938,929,921,917,958,925,835,837,852,852,866,1391,1628,1882,2001,2068,2029,1996,1964,1932,1899,1868,1836,1803,1796,1740,1686,1698,1666,1591,1579,1546,1514,1482,1316,960,961,928,880,862,887,848,849,852,843,833,846,844,854,855,844,860,860,863,852,854,851,855,858,874,867,862,847,861,855,856,850,858,852,860,849,551,554,555,557,561,726,1034,1164,1262,1333,1346,1334,1314,1292,1270,1249,1228,1206,1185,1166,1142,1120,1100,1078,1057,1039,1014,991,969,878,843,652,591,586,576,560,561,552,501,502,503,507,508,507,508,508,509,510,510,512,517,521,519,517,515,518,520,521,519,522,519,519,519,519,519,195,196,196,208,241,246,341,381,420,460,487,479,472,465,457,450,442,433,427,418,411,402,395,388,379,373,364,356,349,341,334,327,319,254,247,241,243,243,184,182,177,177,185,189,185,191,186,191,189,198,199,199,190,200,189,183,200,187,199,203,203,203,204,204,196,0,0,0,0,0,0,0,0,0,0,0,0,0,0,0,0,0,0,0,0,0,0,0,0,0,0,0,0,0,0,0,0,0,0,0,0,0,0,0,0,0,0,0,0,0,0,0,0,0,0,0,0,0,0,0,0,0,0,0,0,0,0,0,0,0,912,932,916,1004,1046,1836,2138,2385,2448,2584,2487,2401,2355,2348,2264,2256,2210,2163,2082,2036,1990,1978,1933,1878,1840,1762,1808,1760,1541,1383,1023,992,962,938,928,929,946,958,986,985,993,991,991,986,996,1008,992,996,1002,993,1020,1024,1013,1002,1015,995,995,1011,1014,1006,995,996,992,1015,1000,1049,1045,1069,1094,1311,2044,2390,2527,2690,2724,2701,2587,2611,2497,2451,2406,2431,2316,2270,2240,2179,2134,2089,2088,1998,1953,1952,1599,1459,1435,1159,1145,1117,1069,1067,1078,1084,1073,1136,1129,1109,1106,1144,1132,1137,1148,1149,1148,1165,1150,1152,1164,1162,1167,1146,1196,1180,1181,1180,1183,1162,1168,1159,1149,1153,362,363,366,365,368,465,649,732,809,882,902,889,873,859,844,830,816,801,787,772,758,745,729,715,700,686,679,657,643,628,598,568,390,462,441,368,369,370,323,324,325,328,328,328,330,329,330,330,330,330,331,338,334,333,331,336,334,331,331,335,335,335,335,335,335,785,790,784,785,827,1393,1590,1764,1852,1894,1907,1896,1827,1792,1767,1737,1725,1691,1680,1617,1587,1573,1527,1525,1500,1467,1421,1179,1338,1128,1058,960,819,817,808,788,790,748,774,769,781,793,793,779,783,780,820,786,790,794,789,821,826,815,802,799,788,807,798,792,817,796,795,796,789,912,932,916,1004,1256,1836,2138,2385,2448,2584,2487,2401,2355,2348,2264,2256,2210,2163,2082,2036,1990,1978,1933,1878,1840,1762,1808,1760,1541,1443,1083,992,962,938,928,929,945,958,983,986,990,989,989,986,991,1005,990,996,1001,996,1003,1008,1006,1002,1014,1003,1012,999,1006,1004,995,1005,989,1080,997,848,850,886,899,965,1699,1992,2272,2332,2404,2347,2335,2222,2178,2134,2090,2047,2004,1959,1916,1872,1828,1784,1741,1696,1653,1609,1566,1439,1281,956,927,897,902,898,864,894,876,921,939,932,929,923,954,932,934,945,956,940,929,948,956,957,974,962,935,936,935,930,938,929,921,917,958,925,135,135,136,136,136,210,237,265,292,320,339,333,328,322,318,312,307,301,296,290,285,279,274,268,264,258,253,247,242,236,231,225,220,214,210,136,137,137,131,127,127,127,129,129,130,131,131,135,132,136,137,133,132,136,132,132,133,135,137,168,137,170,171,169,167,345,347,348,348,350,520,636,709,781,838,850,837,824,811,798,784,770,757,744,730,717,704,691,678,664,651,638,625,612,597,584,571,372,363,354,351,352,352,344,344,351,353,362,357,348,348,351,361,346,349,355,348,351,358,346,348,348,348,350,350,346,351,350,356,346,737,740,735,743,779,1102,1470,1653,1731,1807,1788,1759,1730,1722,1674,1645,1616,1587,1558,1531,1502,1473,1444,1455,1388,1359,1330,1302,1288,1244,1075,888,772,769,744,748,744,760,755,756,756,760,764,761,769,767,767,776,776,777,772,771,764,776,775,773,770,775,769,772,763,791,776,811,762,1102,1106,1110,1142,1245,1772,2349,2523,2659,2688,2665,2605,2562,2542,2478,2460,2391,2350,2307,2272,2224,2187,2143,2102,2058,2015,1887,1527,1333,1377,1218,1183,1154,1131,1131,1119,1085,1092,1102,1103,1104,1115,1107,1114,1105,1119,1099,1107,1107,1109,1108,1135,1117,1115,1114,1115,1118,1111,1144,1143,1107,1115,1107,1112,1108,973,977,981,989,1219,1725,2230,2405,2577,2603,2584,2527,2506,2451,2401,2359,2307,2266,2216,2215,2115,2067,2019,1969,1922,1875,1827,1778,1506,1430,1248,1060,1028,1004,1020,988,999,1001,1002,991,995,996,1001,1006,1011,1014,1014,1018,1021,1026,1024,1020,1019,1030,1024,1028,1018,1027,1025,1026,1026,1054,1024,1056,1049,0,0,0,0,0,0,0,0,0,0,0,0,0,0,0,0,0,0,0,0,0,0,0,0,0,0,0,0,0,0,0,0,0,0,0,0,0,0,0,0,0,0,0,0,0,0,0,0,0,0,0,0,0,0,0,0,0,0,0,0,0,0,0,0,0,492,494,496,496,507,742,900,1053,1156,1210,1218,1198,1179,1159,1140,1120,1101,1082,1063,1042,1023,1004,985,966,946,926,992,888,868,845,826,794,764,670,503,500,501,502,504,504,506,504,500,503,543,551,502,504,548,505,504,560,508,508,508,504,507,508,507,502,509,505,506,505,556,864,856,859,876,932,1209,1760,1928,2074,2090,2082,2048,2014,2006,1948,1915,1905,1849,1815,1782,1771,1737,1704,1669,1616,1602,1568,1516,1401,1195,1108,1037,911,881,894,866,868,871,880,891,883,891,897,888,894,901,904,899,917,894,896,904,903,908,906,940,911,911,925,901,913,940,935,940,932,1326,1339,1342,1457,1731,2741,2994,3201,3286,3302,3269,3213,3237,3116,3111,2994,2938,2882,2919,2772,2721,2663,2382,2191,1973,1927,1827,1551,1714,1539,1504,1405,1391,1357,1364,1354,1349,1357,1348,1364,1363,1369,1363,1374,1366,1374,1370,1372,1373,1374,1392,1376,1392,1390,1382,1393,1382,1390,1385,1377,1390,1377,1376,1383,1366,269,270,271,272,272,325,464,540,594,644,661,651,640,631,620,610,600,590,579,570,559,549,538,529,518,508,498,488,477,460,451,440,339,331,324,316,317,318,262,267,267,268,265,262,270,268,271,269,264,268,264,269,267,270,272,305,266,265,268,271,279,272,269,267,266,135,135,136,136,136,210,237,265,292,320,339,333,328,322,318,312,307,301,296,290,285,279,274,268,264,258,253,247,242,236,231,225,220,214,210,136,137,137,131,127,127,127,129,129,130,131,131,135,132,136,137,133,132,136,132,132,133,135,137,168,137,170,171,169,167,495,496,486,488,512,846,967,1086,1171,1249,1257,1240,1215,1208,1172,1153,1131,1127,1106,1069,1072,1027,1006,985,943,943,922,901,880,801,780,739,717,561,494,502,504,505,497,504,503,511,511,512,506,517,504,513,504,505,507,514,516,512,516,517,509,511,532,509,507,506,509,553,507,656,659,660,686,693,1189,1364,1489,1567,1681,1606,1584,1562,1615,1597,1557,1474,1453,1431,1494,1406,1430,1356,1338,1300,1266,1234,1204,1154,1035,748,731,702,677,697,680,677,681,676,681,680,690,691,686,690,700,695,694,700,729,713,706,726,730,696,691,699,700,691,698,734,694,694,698,695,708,711,712,714,758,1282,1591,1776,1921,1976,1962,1924,1886,1833,1810,1772,1723,1700,1670,1627,1574,1552,1515,1480,1441,1405,1378,1327,1290,1246,1192,929,754,858,713,721,724,708,697,686,697,694,729,688,690,696,696,721,720,715,705,743,722,709,760,710,716,709,719,714,706,710,738,719,718,1052,1046,1039,1085,1292,2044,2377,2579,2700,2785,2719,2671,2654,2603,2553,2500,2463,2410,2368,2290,2253,2150,2142,2071,2058,1955,1869,1644,1597,1428,1168,1131,1132,1089,1065,1060,1076,1075,1074,1061,1074,1073,1096,1066,1072,1083,1087,1104,1097,1098,1083,1109,1084,1108,1115,1092,1089,1090,1096,1087,1092,1079,1113,1091,1090,1048,1019,1026,1087,1542,2169,2503,2940,2940,2870,2844,2796,2817,2698,2610,2552,2500,2442,2385,2330,2275,2276,2163,2108,2065,1998,1964,1816,1572,1513,1411,1141,1076,1046,1034,1050,1044,1082,1094,1118,1098,1100,1124,1120,1111,1121,1121,1128,1135,1110,1119,1122,1128,1136,1136,1136,1128,1137,1140,1196,1188,1184,1218,1197,1196,396,396,398,399,401,657,749,843,937,998,951,988,972,955,889,921,906,889,873,855,838,822,806,789,772,759,739,727,706,690,676,656,639,415,404,401,402,398,374,378,383,411,384,404,380,403,381,385,385,382,379,382,386,565,386,386,384,383,406,386,383,411,379,386,379,0,0,0,0,0,0,0,0,0,0,0,0,0,0,0,0,0,0,0,0,0,0,0,0,0,0,0,0,0,0,0,0,0,0,0,0,0,0,0,0,0,0,0,0,0,0,0,0,0,0,0,0,0,0,0,0,0,0,0,0,0,0,0,0,0,878,881,883,893,1067,1659,1989,2193,2324,2373,2351,2306,2263,2207,2175,2132,2102,2049,2013,1961,1923,1877,1837,1792,1745,1702,1658,1613,1422,1298,1110,1064,953,928,885,884,867,865,866,857,870,867,883,857,863,862,869,884,882,887,874,907,885,881,911,883,883,882,888,887,879,871,906,885,884,1265,1281,1240,1266,1504,2569,2856,3115,3154,3184,3150,3102,3037,3040,2925,2872,2817,2774,2701,2643,2587,2530,2468,2426,2172,2205,2019,1784,1424,1387,1420,1347,1294,1272,1251,1243,1266,1252,1252,1260,1265,1274,1274,1266,1274,1278,1263,1271,1277,1279,1274,1273,1298,1300,1288,1285,1280,1292,1291,1280,1279,1287,1280,1282,1269,396,396,398,399,401,657,749,843,937,998,951,988,972,955,889,921,906,889,873,855,838,822,806,789,772,759,739,727,706,690,676,656,639,622,404,401,402,397,373,377,382,406,381,404,378,403,378,382,383,382,378,382,385,403,385,386,383,383,401,385,382,410,377,385,379,495,496,486,488,512,846,967,1086,1171,1249,1257,1240,1215,1208,1172,1153,1131,1127,1106,1069,1072,1027,1006,985,943,943,922,901,880,801,780,739,717,561,494,502,504,505,497,504,503,511,511,512,506,517,504,513,504,505,507,514,516,512,516,517,509,511,532,509,507,506,509,553,507,852,863,863,861,904,1254,1674,1835,1899,1996,2001,1916,1897,1857,1845,1858,1832,1755,1735,1693,1674,1693,1658,1581,1600,1526,1536,1473,1301,1071,1038,940,894,880,870,852,852,828,803,803,807,819,810,817,806,803,812,807,804,803,807,822,818,818,812,819,806,819,840,818,831,820,813,819,815,681,683,684,713,688,996,1228,1343,1454,1515,1527,1492,1473,1455,1436,1420,1400,1380,1358,1328,1306,1286,1267,1246,1226,1206,1185,1165,1144,1031,784,770,708,696,688,689,691,684,648,652,646,665,655,656,661,658,650,661,664,654,657,673,669,664,660,661,660,661,679,663,661,664,652,659,655,260,260,261,261,261,270,416,436,436,475,453,451,447,445,442,439,436,434,430,428,426,422,441,438,433,429,425,414,400,394,273,271,268,265,263,262,262,262,227,232,228,233,233,237,230,233,230,230,233,229,228,238,234,238,238,238,237,237,267,237,237,240,228,234,232,309,288,289,330,291,392,528,589,649,656,669,670,652,644,644,636,618,609,625,614,602,591,580,568,558,546,535,523,512,500,489,477,443,303,296,292,371,293,269,273,272,277,278,273,277,279,273,273,273,273,273,273,273,273,273,273,273,273,273,273,273,273,273,273,273,400,404,404,407,408,501,744,828,919,988,1001,979,969,945,934,914,901,888,867,854,843,824,811,795,779,759,740,731,702,697,618,575,563,425,415,412,412,413,347,346,357,374,351,354,351,355,349,349,349,349,349,349,349,349,349,349,349,349,349,349,349,349,349,349,349,785,787,789,800,826,1459,1782,1919,2076,2094,2082,2058,2017,1980,1940,1973,1860,1855,1904,1818,1711,1693,1638,1643,1612,1537,1530,1489,1430,1201,1060,972,850,840,828,801,816,817,796,793,813,842,801,814,799,803,803,809,834,817,814,823,822,827,822,824,810,824,818,827,836,824,820,835,832,819,835,823,824,836,1521,1906,2095,2234,2254,2234,2191,2146,2104,2059,2046,1976,1940,1941,1855,1812,1770,1726,1699,1641,1612,1556,1526,1471,1344,1044,1013,868,843,852,835,840,860,821,833,836,890,830,854,828,854,840,842,841,835,845,842,853,858,856,856,852,851,880,854,856,896,859,920,874,0,0,0,0,0,0,0,0,0,0,0,0,0,0,0,0,0,0,0,0,0,0,0,0,0,0,0,0,0,0,0,0,0,0,0,0,0,0,0,0,0,0,0,0,0,0,0,0,0,0,0,0,0,0,0,0,0,0,0,0,0,0,0,0,0,844,851,867,869,911,1243,1712,1917,2022,2059,2047,2014,2002,1950,1917,1885,1883,1820,1806,1770,1722,1717,1657,1629,1617,1560,1436,1335,1244,1081,991,909,888,898,866,863,873,847,817,814,813,818,817,821,819,825,816,816,816,816,816,816,816,816,816,816,816,816,816,816,816,816,816,816,816,785,787,789,800,826,1459,1782,1919,2076,2094,2082,2058,2017,1980,1940,1973,1860,1855,1904,1818,1711,1693,1638,1643,1612,1537,1530,1489,1433,1189,1072,1017,850,840,828,801,816,816,795,792,810,840,799,811,796,800,801,809,816,815,813,820,821,827,821,824,810,822,824,825,820,823,820,828,824,852,863,863,861,904,1254,1674,1835,1899,1996,2001,1916,1897,1857,1845,1858,1832,1755,1735,1693,1674,1693,1658,1581,1600,1526,1536,1473,1301,1071,1038,940,894,880,870,852,852,828,803,803,807,819,810,817,806,803,812,807,804,803,807,822,818,818,812,819,806,819,840,818,831,820,813,819,815,1318,1328,1328,1420,1994,2636,3072,3226,3278,3288,3266,3210,3136,3094,3031,2988,2923,2868,2797,2744,2698,2594,2445,2088,2192,1952,1593,1550,1525,1498,1436,1416,1392,1354,1338,1299,1307,1296,1282,1282,1303,1327,1287,1313,1311,1295,1295,1300,1321,1298,1300,1308,1311,1329,1301,1306,1301,1336,1325,1301,1312,1298,1295,1361,1305,1391,1383,1386,1470,1683,2319,3026,3166,3261,3269,3298,3220,3201,3090,3016,2959,2957,2875,2856,2589,2386,2533,2314,2060,1700,1688,1640,1642,1569,1550,1496,1444,1451,1422,1410,1384,1359,1355,1350,1365,1347,1348,1381,1362,1380,1390,1375,1387,1385,1380,1386,1387,1387,1385,1391,1377,1386,1388,1386,1380,1373,1388,1383,1385,1376,954,957,959,962,1012,1322,2006,2161,2269,2305,2354,2258,2247,2188,2112,2063,2082,2028,2036,1976,1931,1890,1858,1827,1767,1741,1640,1476,1216,1273,1036,1010,1016,982,970,960,917,901,901,905,899,898,927,905,931,934,919,933,934,948,930,930,931,931,935,921,933,931,930,933,920,935,930,932,923,723,728,728,757,745,1045,1478,1624,1735,1780,1841,1734,1778,1684,1662,1628,1598,1620,1541,1524,1484,1456,1432,1405,1375,1342,1342,1270,1140,1114,931,934,783,763,738,731,770,728,721,721,714,709,737,740,748,747,729,751,743,759,742,744,744,743,747,737,741,749,740,747,749,746,744,751,737,756,759,758,773,778,1142,1556,1693,1809,1858,1900,1809,1852,1757,1722,1698,1667,1638,1608,1584,1538,1519,1489,1465,1430,1400,1370,1341,1196,1037,835,838,816,792,771,765,779,769,772,767,759,768,791,789,783,788,786,803,797,804,809,814,815,812,807,792,796,819,802,790,815,794,797,806,788,1225,1247,1242,1309,1869,2424,2865,3045,3097,3100,3086,3031,2973,2921,2871,2820,2793,2706,2657,2606,2543,2521,2445,2341,2129,2006,1853,1508,1493,1393,1337,1316,1308,1275,1255,1254,1260,1254,1239,1217,1232,1286,1231,1252,1249,1247,1246,1282,1269,1249,1254,1256,1266,1262,1266,1257,1267,1255,1253,1253,1260,1261,1254,1331,1263,1258,1262,1268,1336,1911,2578,3037,3176,3235,3246,3209,3152,3084,3028,2971,2920,2860,2798,2734,2680,2619,2583,2508,2302,2168,2105,2001,1792,1463,1429,1372,1363,1328,1291,1280,1282,1288,1280,1276,1266,1303,1309,1287,1289,1298,1290,1292,1289,1307,1287,1290,1298,1301,1329,1301,1299,1293,1308,1302,1296,1316,1301,1302,1414,1304,842,841,848,852,882,1079,1733,1915,1996,2013,2108,2015,1998,1948,1886,1848,1858,1793,1792,1744,1722,1680,1656,1623,1558,1554,1445,1291,1147,1164,941,900,895,872,853,851,798,759,750,752,736,755,776,774,780,779,774,784,780,793,774,776,780,781,780,774,781,787,781,783,786,783,779,786,772,0,0,0,0,0,0,0,0,0,0,0,0,0,0,0,0,0,0,0,0,0,0,0,0,0,0,0,0,0,0,0,0,0,0,0,0,0,0,0,0,0,0,0,0,0,0,0,0,0,0,0,0,0,0,0,0,0,0,0,0,0,0,0,0,0,1225,1247,1242,1309,1869,2424,2865,3045,3097,3100,3086,3031,2973,2921,2871,2820,2793,2706,2657,2606,2543,2521,2445,2341,2348,2006,1853,1508,1493,1393,1337,1316,1308,1275,1255,1253,1259,1253,1227,1214,1230,1284,1228,1249,1246,1245,1246,1270,1269,1248,1251,1255,1266,1261,1266,1257,1266,1254,1251,1251,1259,1260,1253,1323,1263,1318,1328,1328,1420,1994,2636,3072,3226,3278,3288,3266,3210,3136,3094,3031,2988,2923,2868,2797,2744,2698,2594,2445,2088,2192,1952,1593,1550,1525,1498,1436,1416,1392,1354,1338,1299,1307,1296,1282,1282,1303,1327,1287,1313,1311,1295,1295,1300,1321,1298,1300,1308,1311,1329,1301,1306,1301,1336,1325,1301,1312,1298,1295,1361,1305,135,135,136,136,136,210,237,265,292,320,339,333,328,322,318,312,307,301,296,290,285,279,274,268,264,258,253,247,242,236,231,225,220,214,210,136,206,206,131,129,133,135,132,131,132,131,130,133,180,177,207,136,136,136,132,136,131,133,130,131,132,131,131,132,170,345,347,348,348,350,538,636,709,781,838,850,837,824,811,798,784,770,757,744,730,717,704,691,678,664,651,638,625,612,597,584,571,372,363,354,351,352,352,344,355,352,356,341,346,341,352,353,341,356,356,353,357,358,358,359,340,357,356,401,353,352,359,356,345,343,737,740,735,743,779,1115,1470,1653,1731,1807,1788,1759,1730,1722,1674,1645,1616,1587,1558,1531,1502,1473,1444,1455,1388,1359,1330,1302,1288,932,910,888,772,769,744,748,744,760,754,749,759,758,761,763,768,765,764,774,790,776,771,770,768,776,775,769,768,773,762,768,767,778,765,802,767,1102,1106,1110,1142,1245,1772,2349,2523,2659,2688,2665,2605,2562,2542,2478,2460,2391,2350,2307,2272,2224,2187,2143,2102,2058,2015,1887,1527,1428,1393,1218,1194,1154,1131,1131,1119,1085,1092,1103,1087,1085,1123,1085,1104,1121,1142,1131,1108,1105,1091,1115,1109,1143,1128,1143,1129,1124,1114,1122,1138,1128,1111,1088,1104,1088,973,977,981,989,1219,1725,2230,2405,2577,2603,2584,2527,2506,2451,2401,2359,2307,2266,2216,2215,2115,2067,2019,1969,1922,1875,1827,1778,1523,1430,1248,1060,1028,1004,1020,989,999,1036,1001,993,1001,1004,1003,1008,1013,1014,1013,1015,1055,1014,1011,1012,1014,1030,1018,1032,1016,1017,1018,1016,1017,1029,1013,1031,1027,269,270,271,272,272,346,484,540,594,644,661,651,640,631,620,610,600,590,579,570,559,549,538,529,518,508,498,488,477,468,457,447,359,350,335,330,331,332,274,257,259,260,260,262,261,264,261,261,264,260,261,264,261,264,266,265,266,265,264,264,264,266,266,267,268,492,494,496,496,507,742,943,1053,1156,1210,1218,1198,1179,1159,1140,1120,1101,1082,1063,1042,1023,1004,985,966,946,926,992,888,868,849,813,794,692,514,503,500,501,502,503,503,504,504,512,515,533,538,512,555,521,518,515,513,512,527,534,520,517,510,507,515,515,520,513,532,516,864,856,859,876,932,1209,1760,1928,2074,2090,2082,2048,2014,2006,1948,1915,1905,1849,1815,1782,1771,1737,1704,1669,1616,1602,1568,1516,1455,1174,1098,1037,911,881,894,866,868,871,880,891,885,891,897,888,894,901,904,899,917,894,896,904,903,908,906,951,909,911,918,901,908,915,916,932,916,1326,1339,1342,1457,1682,2741,2994,3201,3286,3302,3269,3213,3237,3116,3111,2994,2938,2882,2919,2772,2721,2663,2382,2022,1662,1927,1609,1551,1656,1539,1467,1405,1391,1357,1364,1354,1349,1357,1355,1352,1364,1376,1364,1374,1365,1378,1365,1376,1386,1366,1369,1374,1381,1394,1389,1377,1379,1375,1379,1382,1380,1384,1364,1389,1370,0,0,0,0,0,0,0,0,0,0,0,0,0,0,0,0,0,0,0,0,0,0,0,0,0,0,0,0,0,0,0,0,0,0,0,0,0,0,0,0,0,0,0,0,0,0,0,0,0,0,0,0,0,0,0,0,0,0,0,0,0,0,0,0,0,135,135,136,136,136,210,237,265,292,320,339,333,328,322,318,312,307,301,296,290,285,279,274,268,264,258,253,247,242,236,231,225,220,214,210,136,206,206,131,129,133,135,132,131,132,131,130,133,180,177,207,136,136,136,132,136,131,133,130,131,132,131,131,132,170,0,0,0,0,0,0,0,0,0,0,0,0,0,0,0,0,0,0,0,0,0,0,0,0,0,0,0,0,0,0,0,0,0,0,0,0,0,0,0,0,0,0,0,0,0,0,0,0,0,0,0,0,0,0,0,0,0,0,0,0,0,0,0,0,0,240,241,242,242,243,384,432,481,529,576,590,582,572,564,554,544,536,526,518,508,499,490,481,471,463,453,445,435,426,417,408,399,390,380,248,244,244,245,235,242,240,247,244,310,241,327,240,248,242,237,243,246,306,306,247,244,243,240,327,248,240,243,239,244,240,617,620,621,624,664,1089,1243,1377,1491,1520,1519,1495,1471,1447,1422,1414,1393,1350,1344,1329,1304,1252,1255,1230,1179,1155,1131,1106,1082,1095,1034,771,724,643,624,641,628,630,628,633,629,664,638,632,639,679,636,646,644,648,644,638,632,640,643,647,637,640,632,637,635,647,670,689,636,1008,1000,1003,1027,1130,1776,2112,2272,2380,2425,2429,2361,2328,2290,2256,2215,2181,2138,2101,2062,2022,1983,1944,1928,1867,1829,1795,1527,1438,1340,1230,1073,1046,1037,1012,1012,978,980,974,981,987,1002,1002,1023,1006,1023,1007,1039,1017,1040,1032,1005,1026,1041,1031,1011,1015,1009,1012,1041,1035,1027,1029,1023,1017,840,843,845,854,1086,1515,1840,2083,2238,2313,2293,2253,2206,2167,2120,2080,2037,1990,1951,1922,1864,1821,1774,1731,1692,1659,1602,1558,1418,1320,1256,1047,895,870,856,853,892,865,871,864,868,869,872,877,881,883,883,883,889,890,894,887,887,894,892,896,885,892,892,895,897,898,896,896,896,231,232,232,233,234,334,410,455,499,546,566,558,548,540,531,523,514,505,496,488,480,470,462,453,445,435,427,418,410,400,392,358,350,341,238,235,235,236,205,206,208,207,208,208,209,236,211,214,210,212,209,217,210,225,229,214,211,209,205,211,211,211,205,205,205,464,466,467,468,476,532,875,944,1076,1136,1149,1134,1119,1100,1082,1015,1000,991,974,960,950,932,919,910,894,874,856,838,801,784,710,694,638,530,475,472,472,474,452,457,453,456,460,459,459,468,455,456,457,457,454,461,461,469,460,459,461,456,468,468,459,490,454,454,454,759,761,752,789,796,1213,1528,1664,1786,1840,1833,1804,1776,1746,1717,1687,1658,1737,1599,1570,1563,1512,1482,1453,1424,1394,1365,1335,1306,1111,963,812,804,775,762,759,761,763,756,778,756,780,772,772,775,794,818,810,826,790,826,820,814,821,800,819,778,800,788,779,776,784,828,811,788,1313,1346,1329,1392,1608,2714,2952,3140,3253,3274,3241,3248,3144,3078,3032,2975,2912,2875,2802,2746,2696,2638,2382,2087,1959,1749,1574,1568,1568,1464,1488,1460,1377,1344,1341,1331,1338,1342,1343,1341,1349,1359,1345,1370,1351,1356,1351,1352,1372,1353,1347,1360,1357,1382,1370,1365,1360,1366,1366,1366,1363,1371,1350,1378,1358,231,232,232,233,234,330,410,455,499,546,566,558,548,540,531,523,514,505,496,488,480,470,462,453,445,435,427,418,410,400,392,384,344,337,238,235,235,236,205,200,203,205,205,203,203,205,202,208,208,206,204,208,203,203,203,207,208,210,205,203,209,208,205,205,205,0,0,0,0,0,0,0,0,0,0,0,0,0,0,0,0,0,0,0,0,0,0,0,0,0,0,0,0,0,0,0,0,0,0,0,0,0,0,0,0,0,0,0,0,0,0,0,0,0,0,0,0,0,0,0,0,0,0,0,0,0,0,0,0,0 ]);
