n = 10;
D = [101,204,77,106,100,228,251,226,140,284 ];
q = 0;
prec = array2d(1..0,1..2,[]);
steps = 64;
l = 360;
r = 0;
which = [];
interval = array2d(1..0,1..2,[]);
T = array3d(1..11,1..11,0..64,[0,0,0,0,0,0,0,0,0,0,0,0,0,0,0,0,0,0,0,0,0,0,0,0,0,0,0,0,0,0,0,0,0,0,0,0,0,0,0,0,0,0,0,0,0,0,0,0,0,0,0,0,0,0,0,0,0,0,0,0,0,0,0,0,0,674,676,678,681,708,958,1115,1213,1323,1406,1353,1333,1299,1277,1278,1245,1276,1259,1180,1158,1136,1115,1093,1073,1050,1052,1007,976,1005,942,855,839,820,700,687,684,700,649,646,649,648,651,651,651,651,651,651,651,651,651,651,651,651,651,651,651,651,651,651,651,651,651,651,651,651,1473,1476,1524,1680,2168,2552,3018,3148,3210,3200,3172,3111,3083,3027,2978,2923,2866,2808,2753,2690,2634,2588,2517,2465,2313,2090,2015,1813,1800,1718,1656,1574,1560,1531,1484,1547,1510,1528,1584,1584,1584,1584,1584,1584,1584,1584,1584,1584,1584,1584,1584,1584,1584,1584,1584,1584,1584,1584,1584,1584,1584,1584,1584,1584,1584,980,912,962,1001,993,1299,1544,1694,1920,1815,1823,1784,1804,1717,1697,1707,1630,1611,1584,1544,1515,1497,1497,1476,1410,1478,1446,1314,1285,1265,1181,1000,957,937,953,923,920,923,942,933,935,938,939,934,940,937,943,937,939,938,947,947,947,945,942,947,947,947,944,947,947,947,940,936,935,955,924,961,964,1004,1299,1523,1674,1830,1796,1794,1813,1770,1733,1738,1677,1628,1636,1608,1545,1516,1539,1481,1482,1425,1410,1408,1306,1295,1250,1111,1010,970,949,936,969,952,951,930,930,930,930,930,930,930,930,930,930,930,930,930,930,930,930,930,930,930,930,930,930,930,930,930,930,930,845,872,886,860,906,1241,1478,1563,1690,1739,1679,1653,1692,1599,1573,1545,1575,1489,1457,1444,1416,1384,1358,1359,1362,1331,1313,1244,1202,1168,1122,1006,935,875,880,872,897,862,866,880,875,880,880,875,879,880,880,880,880,879,880,880,880,880,880,880,880,880,880,880,880,880,880,880,880,747,753,751,756,800,1075,1218,1359,1456,1497,1494,1470,1446,1423,1399,1375,1350,1327,1303,1279,1256,1238,1207,1183,1160,1136,1112,1087,1064,1040,981,819,800,774,761,758,760,762,756,772,756,759,772,761,768,772,772,772,772,768,772,772,772,772,772,772,772,772,772,772,772,772,772,772,772,684,684,695,696,720,986,1134,1248,1349,1391,1371,1351,1327,1310,1298,1268,1247,1285,1208,1174,1164,1130,1108,1070,1076,1074,1020,998,982,962,878,760,780,710,705,694,704,662,659,662,662,666,666,666,666,666,666,666,666,666,666,666,666,666,666,666,666,666,666,666,666,666,666,666,666,1405,1401,1423,1446,1742,2191,2471,2592,2701,2710,2705,2640,2588,2527,2528,2477,2415,2372,2345,2300,2282,2216,2198,2146,2094,2082,1930,1597,1575,1589,1524,1496,1454,1449,1412,1422,1373,1373,1354,1354,1354,1354,1354,1354,1354,1354,1354,1354,1354,1354,1354,1354,1354,1354,1354,1354,1354,1354,1354,1354,1354,1354,1354,1354,1354,1509,1530,1573,1711,2236,2662,3161,3255,3321,3307,3273,3213,3189,3105,3069,3009,2923,2890,2830,2765,2714,2650,2563,2420,2155,2129,2067,1908,1850,1747,1752,1636,1581,1553,1548,1608,1581,1641,1654,1649,1654,1652,1654,1654,1654,1654,1654,1654,1654,1654,1654,1654,1654,1654,1654,1654,1654,1654,1654,1654,1654,1654,1654,1654,1654,0,0,0,0,0,0,0,0,0,0,0,0,0,0,0,0,0,0,0,0,0,0,0,0,0,0,0,0,0,0,0,0,0,0,0,0,0,0,0,0,0,0,0,0,0,0,0,0,0,0,0,0,0,0,0,0,0,0,0,0,0,0,0,0,0,693,695,697,690,707,863,1043,1233,1307,1384,1383,1360,1288,1313,1293,1252,1250,1227,1210,1152,1163,1118,1119,1099,1061,1009,1001,997,988,962,938,797,713,719,707,700,703,684,679,682,683,688,694,693,700,702,696,702,695,695,694,691,694,701,701,691,698,692,691,696,696,700,693,702,695,0,0,0,0,0,0,0,0,0,0,0,0,0,0,0,0,0,0,0,0,0,0,0,0,0,0,0,0,0,0,0,0,0,0,0,0,0,0,0,0,0,0,0,0,0,0,0,0,0,0,0,0,0,0,0,0,0,0,0,0,0,0,0,0,0,1182,1180,1189,1226,1278,1704,1956,2133,2267,2352,2351,2303,2266,2219,2183,2151,2116,2073,2045,2004,1969,1925,1893,1854,1817,1766,1746,1483,1503,1370,1303,1272,1245,1233,1208,1208,1205,1183,1103,1103,1103,1103,1103,1103,1103,1103,1103,1103,1103,1103,1103,1103,1103,1103,1103,1103,1103,1103,1103,1103,1103,1103,1103,1103,1103,559,561,562,568,579,666,852,961,1057,1122,1133,1116,1108,1079,1062,1043,1025,1013,989,972,953,934,914,898,880,863,860,837,809,790,772,671,632,595,589,577,578,584,509,509,509,509,509,509,509,509,509,509,509,509,509,509,509,509,509,509,509,509,509,509,509,509,509,509,509,422,423,424,426,428,465,608,670,733,795,816,804,792,779,767,755,743,731,720,708,696,684,672,660,647,636,624,612,600,588,576,564,552,442,432,429,430,431,374,374,374,374,374,374,374,374,374,374,374,374,374,374,374,374,374,374,374,374,374,374,374,374,374,374,374,446,447,442,445,439,505,669,734,814,864,898,884,851,828,835,820,804,767,784,742,735,726,714,717,694,666,659,658,635,616,614,601,543,474,456,438,439,451,410,410,410,410,410,410,410,410,410,410,410,410,410,410,410,410,410,410,410,410,410,410,410,410,410,410,410,824,802,801,820,846,1101,1360,1430,1542,1594,1593,1561,1524,1506,1497,1453,1449,1424,1378,1412,1328,1345,1301,1262,1254,1217,1175,1151,1073,1038,949,858,840,842,842,820,821,823,758,758,758,758,758,758,758,758,758,758,758,758,758,758,758,758,758,758,758,758,758,758,758,758,758,758,758,84,84,84,104,104,105,119,134,147,161,172,170,167,165,161,159,156,154,150,148,145,143,139,137,134,132,128,126,123,121,117,115,112,110,106,104,104,105,29,29,29,29,29,29,29,29,29,29,29,29,29,29,29,29,29,29,29,29,29,29,29,29,29,29,29,813,827,821,824,836,1001,1284,1382,1532,1575,1582,1568,1568,1542,1488,1498,1451,1412,1409,1382,1364,1333,1315,1274,1250,1255,1216,1183,1170,1052,972,904,875,852,827,832,837,832,753,753,753,753,753,753,753,753,753,753,753,753,753,753,753,753,753,753,753,753,753,753,753,753,753,753,753,1278,1274,1262,1297,1522,1974,2337,2542,2668,2710,2713,2665,2620,2565,2514,2452,2418,2360,2313,2257,2211,2166,2116,2057,2016,1966,1906,1733,1733,1465,1420,1390,1339,1299,1318,1299,1295,1315,1246,1246,1246,1246,1246,1246,1246,1246,1246,1246,1246,1246,1246,1246,1246,1246,1246,1246,1246,1246,1246,1246,1246,1246,1246,1246,1246,693,695,697,690,707,863,1043,1233,1307,1384,1383,1360,1288,1313,1293,1252,1250,1227,1210,1152,1163,1118,1119,1099,1061,1009,1001,997,988,962,938,797,713,719,707,700,703,684,679,682,683,688,694,693,700,702,696,702,695,695,694,691,694,701,701,691,698,692,691,696,696,700,693,702,695,1543,1535,1553,1627,1917,2536,2891,3027,3104,3124,3077,3038,2985,2920,2879,2827,2777,2724,2669,2616,2573,2534,2462,2395,2350,2100,1965,1796,1753,1710,1666,1620,1573,1577,1545,1559,1557,1570,1549,1551,1553,1546,1546,1556,1551,1548,1558,1556,1559,1555,1558,1560,1561,1558,1559,1569,1558,1565,1566,1565,1569,1597,1558,1564,1560,1209,1215,1227,1273,1368,1920,2171,2318,2387,2382,2370,2351,2313,2253,2220,2178,2171,2109,2063,2053,2016,1981,1937,1896,1819,1798,1760,1722,1579,1373,1360,1297,1292,1252,1242,1210,1202,1215,1209,1208,1221,1224,1215,1223,1217,1219,1218,1222,1255,1232,1228,1231,1232,1273,1234,1235,1224,1236,1235,1238,1239,1237,1230,1260,1243,0,0,0,0,0,0,0,0,0,0,0,0,0,0,0,0,0,0,0,0,0,0,0,0,0,0,0,0,0,0,0,0,0,0,0,0,0,0,0,0,0,0,0,0,0,0,0,0,0,0,0,0,0,0,0,0,0,0,0,0,0,0,0,0,0,840,844,845,848,873,1249,1483,1653,1760,1807,1788,1765,1733,1694,1669,1662,1606,1572,1540,1515,1520,1464,1408,1379,1348,1323,1284,1259,1219,1078,1049,976,897,869,856,857,864,870,857,839,842,844,852,856,854,852,854,852,857,852,853,853,853,855,857,857,855,855,856,857,855,892,855,861,857,1045,1062,1049,1067,1095,1576,1788,1936,2080,2052,2083,2009,1979,1947,1916,1883,1851,1821,1789,1757,1770,1693,1661,1678,1600,1604,1536,1516,1486,1245,1246,1154,1127,1106,1061,1080,1038,1044,1030,1013,1022,1021,1026,1034,1029,1033,1031,1032,1034,1026,1027,1029,1029,1030,1035,1033,1029,1032,1032,1037,1031,1068,1031,1037,1033,954,954,956,986,1047,1488,1724,1913,2036,2080,2063,2026,1988,1950,1916,1880,1842,1799,1762,1728,1689,1656,1611,1574,1535,1498,1460,1422,1391,1347,1312,1053,1011,983,967,969,973,979,965,975,981,988,987,990,996,1010,973,1000,989,975,974,999,1002,1001,1007,1035,1008,1011,1010,1004,994,981,988,991,970,1366,1380,1376,1415,1626,2209,2552,2706,2834,2828,2795,2744,2703,2651,2600,2557,2506,2457,2409,2360,2311,2277,2221,2191,2120,2065,2021,1957,1660,1543,1513,1464,1428,1417,1409,1392,1412,1419,1415,1410,1408,1408,1405,1411,1407,1412,1410,1407,1411,1409,1407,1406,1412,1414,1412,1416,1410,1411,1418,1414,1412,1454,1413,1419,1415,1184,1189,1200,1239,1347,1882,2116,2262,2340,2337,2317,2306,2269,2204,2175,2136,2119,2062,2054,2029,1974,1932,1896,1860,1804,1782,1743,1707,1486,1388,1352,1272,1262,1227,1217,1222,1186,1205,1195,1199,1209,1215,1200,1215,1200,1208,1204,1211,1241,1225,1222,1228,1225,1242,1226,1221,1218,1233,1227,1231,1227,1230,1219,1243,1232,696,711,718,716,725,1005,1100,1260,1354,1397,1421,1376,1321,1332,1376,1257,1267,1214,1193,1251,1180,1158,1136,1115,1067,1071,1024,1028,982,984,962,940,734,734,722,732,721,705,713,727,720,711,724,733,724,730,726,744,747,753,750,745,748,740,756,741,744,753,763,763,742,761,750,784,747,412,413,414,414,473,534,590,646,702,750,765,754,744,733,723,712,702,691,682,671,661,650,640,629,619,608,598,587,577,566,556,545,535,524,514,473,474,475,397,404,406,439,414,407,407,411,404,408,407,408,406,402,403,407,406,405,408,406,402,409,405,414,408,409,406,1543,1535,1553,1627,1917,2536,2891,3027,3104,3124,3077,3038,2985,2920,2879,2827,2777,2724,2669,2616,2573,2534,2462,2395,2350,2100,1965,1796,1753,1710,1666,1620,1573,1577,1545,1559,1557,1570,1549,1551,1553,1546,1546,1556,1551,1548,1558,1556,1559,1555,1558,1560,1561,1558,1559,1569,1558,1565,1566,1565,1569,1597,1558,1564,1560,1003,1006,1010,1029,1082,1364,1646,1819,1929,1981,1984,1959,1922,1905,1864,1829,1815,1765,1731,1703,1672,1648,1607,1585,1553,1498,1467,1435,1299,1135,1148,1084,1059,1066,1051,1031,1029,1032,976,980,980,992,1001,987,1002,991,990,994,1001,1000,994,1001,1001,1003,1008,1002,1003,1006,1001,1017,1005,1014,1018,1002,1001,573,575,577,578,594,742,878,977,1074,1139,1158,1138,1121,1107,1089,1071,1052,1034,1018,998,979,960,944,925,886,866,858,839,824,803,785,721,628,613,585,582,583,547,488,488,487,488,494,491,489,492,489,495,491,494,491,488,489,490,490,489,492,490,488,491,490,494,491,490,490,798,800,803,805,855,1120,1398,1508,1641,1713,1715,1685,1659,1625,1595,1564,1539,1507,1476,1442,1411,1384,1353,1320,1290,1259,1227,1197,1165,1127,907,879,886,901,816,811,815,807,786,787,792,797,799,799,807,803,803,804,812,816,814,835,820,837,802,805,839,809,817,811,806,840,798,801,799,0,0,0,0,0,0,0,0,0,0,0,0,0,0,0,0,0,0,0,0,0,0,0,0,0,0,0,0,0,0,0,0,0,0,0,0,0,0,0,0,0,0,0,0,0,0,0,0,0,0,0,0,0,0,0,0,0,0,0,0,0,0,0,0,0,233,234,234,234,270,295,325,355,384,414,435,429,423,418,413,406,401,395,390,384,378,373,368,363,339,343,337,332,326,321,314,309,303,298,275,271,271,271,174,174,173,174,180,177,175,178,175,181,177,180,177,174,175,176,176,175,178,176,174,177,176,180,177,176,176,884,892,898,898,927,1173,1387,1596,1696,1733,1726,1706,1690,1665,1637,1631,1611,1562,1553,1526,1476,1473,1425,1416,1361,1342,1287,1285,1136,995,982,969,962,917,925,903,894,846,750,767,775,764,772,766,763,765,757,775,760,762,767,770,775,774,775,768,769,766,769,770,772,771,764,769,769,840,854,860,865,883,1141,1336,1488,1602,1659,1688,1643,1623,1607,1563,1537,1537,1485,1458,1433,1417,1391,1354,1326,1317,1275,1263,1207,1186,1152,999,914,922,901,903,864,863,864,845,841,845,858,857,853,853,858,849,850,852,853,852,856,857,855,854,860,852,856,845,851,848,845,852,844,843,490,491,493,494,499,616,739,821,904,973,993,976,961,951,933,917,902,886,871,855,839,823,810,793,757,750,734,719,704,688,673,618,604,551,501,497,498,488,430,430,429,430,436,433,431,434,431,437,433,436,433,430,431,432,432,431,434,432,430,433,432,436,433,432,432,631,633,626,640,650,758,959,1062,1155,1217,1235,1217,1195,1177,1172,1153,1128,1111,1092,1072,1056,1036,1017,1014,980,961,943,925,904,839,831,780,743,665,643,628,641,643,594,594,593,594,600,597,595,598,595,601,597,600,597,594,595,596,596,595,598,596,594,597,596,600,597,596,596,819,795,820,831,877,1179,1396,1628,1770,1844,1835,1801,1766,1723,1697,1663,1643,1593,1573,1525,1490,1468,1420,1387,1353,1318,1283,1249,1215,1162,1146,1005,914,854,809,833,834,841,829,839,837,836,842,849,843,857,852,850,857,850,849,863,854,868,850,846,866,854,846,850,853,850,849,856,844,1003,1006,1010,1029,1082,1364,1646,1819,1929,1981,1984,1959,1922,1905,1864,1829,1815,1765,1731,1703,1672,1648,1607,1585,1553,1498,1467,1435,1299,1135,1148,1084,1059,1066,1051,1031,1029,1032,976,980,980,992,1001,987,1002,991,990,994,1001,1000,994,1001,1001,1003,1008,1002,1003,1006,1001,1017,1005,1014,1018,1002,1001,919,904,915,920,983,1322,1561,1658,1758,1794,1761,1726,1686,1678,1666,1623,1608,1593,1541,1532,1486,1458,1414,1417,1365,1404,1321,1278,1240,1214,1148,1096,1056,926,916,927,913,919,916,914,917,923,913,926,921,927,925,927,925,922,922,925,921,942,926,927,925,925,923,921,927,926,925,957,925,392,393,394,396,397,495,564,624,685,745,765,758,742,731,725,707,696,685,673,667,649,643,628,614,605,592,581,569,558,547,534,524,512,410,401,397,398,400,347,345,347,353,351,347,348,351,349,354,352,352,351,348,351,351,353,354,350,357,352,355,353,353,350,353,353,976,999,972,975,1062,1342,1574,1780,1860,1901,1895,1877,1840,1815,1783,1756,1728,1694,1664,1619,1590,1574,1529,1539,1477,1443,1420,1390,1347,1274,1060,1035,1020,1025,982,981,1001,951,905,902,908,912,911,909,910,912,910,914,914,915,936,937,939,920,915,913,914,917,913,911,915,913,913,913,913,336,337,340,341,378,420,474,555,595,651,661,653,647,640,625,599,607,570,590,597,575,568,558,551,543,500,493,482,474,467,457,433,427,417,386,383,384,375,316,318,315,318,322,324,324,333,327,325,325,326,324,320,323,333,326,320,327,323,319,324,322,327,323,324,318,0,0,0,0,0,0,0,0,0,0,0,0,0,0,0,0,0,0,0,0,0,0,0,0,0,0,0,0,0,0,0,0,0,0,0,0,0,0,0,0,0,0,0,0,0,0,0,0,0,0,0,0,0,0,0,0,0,0,0,0,0,0,0,0,0,702,710,712,732,739,1012,1137,1251,1331,1370,1374,1342,1324,1311,1292,1269,1266,1218,1207,1191,1195,1150,1114,1107,1099,1064,1042,1029,1001,963,873,851,802,731,720,719,706,711,650,649,666,688,664,654,660,668,661,658,667,664,671,671,671,672,661,661,668,671,665,655,666,666,662,666,664,847,819,816,866,911,1117,1378,1481,1606,1667,1598,1568,1541,1515,1553,1528,1503,1410,1450,1380,1349,1365,1339,1324,1270,1262,1247,1200,1146,1119,1037,944,955,901,863,843,852,828,831,823,832,850,825,847,825,837,842,838,861,834,840,838,836,849,866,838,831,853,833,846,861,832,841,884,840,308,309,310,311,312,365,438,485,529,575,597,592,579,570,565,553,544,535,526,520,509,503,491,482,474,465,456,447,438,430,421,412,403,394,359,313,355,355,288,287,289,294,306,298,293,308,294,310,303,304,302,291,296,301,299,297,302,305,296,306,300,312,302,302,299,617,605,615,625,607,696,894,1018,1111,1124,1164,1119,1139,1113,1095,1085,1075,1024,1033,1010,978,961,966,941,933,916,927,854,865,837,737,703,629,647,616,639,613,629,557,554,556,560,559,557,558,560,558,562,562,563,584,585,587,568,563,561,562,565,561,559,563,561,561,561,561,1056,1058,1106,1114,1207,1721,1967,2186,2260,2292,2287,2242,2209,2169,2128,2120,2062,2029,1981,1938,1882,1840,1799,1758,1717,1676,1655,1593,1532,1441,1329,1163,1136,1110,1098,1102,1083,1107,1108,1106,1106,1116,1119,1116,1127,1125,1124,1133,1131,1120,1140,1127,1139,1125,1122,1142,1130,1120,1125,1147,1134,1125,1125,1125,1125,919,904,915,920,983,1322,1561,1658,1758,1794,1761,1726,1686,1678,1666,1623,1608,1593,1541,1532,1486,1458,1414,1417,1365,1404,1321,1278,1240,1214,1148,1096,1056,926,916,927,913,919,916,914,917,923,913,926,921,927,925,927,925,922,922,925,921,942,926,927,925,925,923,921,927,926,925,957,925,956,960,954,969,993,1416,1626,1756,1849,1903,1896,1859,1833,1815,1773,1753,1712,1691,1666,1631,1607,1558,1543,1520,1521,1463,1420,1384,1302,1304,1196,1047,1020,1012,980,970,973,931,958,962,975,968,981,977,975,981,977,990,980,979,982,979,1004,1011,992,984,984,984,986,986,977,997,996,986,978,382,383,384,386,387,471,563,630,695,759,782,772,760,747,727,722,707,694,682,664,653,640,628,616,607,597,581,569,559,544,511,500,487,402,395,387,401,390,363,360,359,359,365,370,367,371,371,372,372,374,373,374,372,375,371,373,394,375,376,391,377,382,383,381,379,927,898,900,909,1075,1445,1643,1829,1982,2007,1953,1917,1881,1844,1809,1773,1736,1701,1665,1665,1593,1590,1521,1482,1449,1444,1372,1372,1305,1269,1092,980,950,924,911,936,912,919,930,939,949,966,961,957,953,975,944,952,950,944,945,960,959,1003,1035,1019,961,956,959,950,942,944,958,958,944,855,844,857,862,872,1122,1354,1509,1643,1702,1704,1658,1637,1621,1585,1560,1532,1502,1475,1448,1430,1410,1378,1348,1323,1293,1271,1231,1198,1042,1040,967,911,915,880,864,860,863,809,801,812,818,816,818,817,820,819,817,820,825,826,829,827,829,829,830,828,817,820,824,824,824,824,824,824,722,714,727,729,731,910,1078,1196,1331,1398,1407,1373,1359,1342,1320,1299,1272,1255,1234,1212,1198,1182,1154,1132,1105,1089,1072,1038,1008,998,976,908,765,760,747,732,734,734,674,675,677,679,684,682,687,685,685,687,685,687,688,698,695,695,691,692,694,694,695,695,693,693,693,693,693,0,0,0,0,0,0,0,0,0,0,0,0,0,0,0,0,0,0,0,0,0,0,0,0,0,0,0,0,0,0,0,0,0,0,0,0,0,0,0,0,0,0,0,0,0,0,0,0,0,0,0,0,0,0,0,0,0,0,0,0,0,0,0,0,0,1180,1179,1187,1217,1377,1763,1980,2171,2274,2320,2299,2277,2254,2200,2168,2120,2083,2071,2030,1969,1912,1921,1888,1842,1784,1772,1652,1626,1460,1343,1318,1285,1252,1210,1191,1199,1208,1148,1121,1118,1117,1117,1123,1128,1125,1129,1129,1130,1130,1132,1131,1132,1130,1133,1129,1131,1152,1133,1134,1149,1135,1140,1141,1139,1137,464,464,464,468,472,523,691,772,853,925,944,933,918,903,875,874,852,839,827,805,789,777,762,741,733,722,702,690,676,657,553,540,528,486,477,471,484,419,392,389,388,388,394,399,396,400,400,401,401,403,402,403,401,404,400,402,423,404,405,420,406,411,412,410,408,814,817,819,821,830,1044,1286,1469,1562,1631,1629,1618,1583,1556,1544,1526,1491,1463,1437,1412,1367,1371,1329,1312,1275,1254,1214,1185,1180,1071,1033,938,898,902,851,824,850,852,793,798,803,822,819,817,805,814,805,807,812,813,812,816,816,824,818,819,816,816,812,828,818,818,818,818,818,949,951,953,966,1055,1496,1742,1936,2039,2064,2048,2010,1973,1936,1898,1861,1823,1786,1749,1725,1675,1637,1600,1563,1525,1488,1450,1425,1376,1338,1216,1034,1004,976,964,966,972,980,999,1022,1024,1011,1032,1008,1029,1042,1028,1017,1061,1027,1188,1168,1133,1057,1157,1131,1133,1043,1027,1022,1037,1015,1028,1232,1008,956,960,954,969,993,1416,1626,1756,1849,1903,1896,1859,1833,1815,1773,1753,1712,1691,1666,1631,1607,1558,1543,1520,1521,1463,1420,1384,1302,1304,1196,1047,1020,1012,980,970,973,931,958,962,975,968,981,977,975,981,977,990,980,979,982,979,1004,1011,992,984,984,984,986,986,977,997,996,986,978,956,960,964,974,1106,1397,1569,1735,1863,1899,1895,1898,1833,1803,1772,1742,1714,1679,1639,1623,1593,1563,1519,1503,1472,1443,1412,1382,1351,1322,1295,1022,1023,1000,991,971,967,963,964,958,973,983,980,968,970,972,970,965,964,961,981,972,975,1017,977,975,974,1020,977,974,981,1031,977,973,970,967,969,972,979,1063,1397,1651,1791,1887,1922,1915,1884,1860,1824,1799,1768,1736,1702,1675,1641,1611,1570,1549,1517,1486,1455,1423,1392,1370,1305,1111,1059,1058,1051,983,988,941,893,887,883,887,890,952,891,905,911,904,891,891,891,887,891,895,913,892,893,891,892,899,895,897,897,896,977,896,1308,1313,1314,1445,1945,2234,2562,2873,2781,2791,2918,2719,2669,2620,2570,2517,2466,2414,2363,2313,2266,2215,2164,2114,2058,2004,1964,1883,1523,1484,1440,1402,1365,1341,1334,1333,1327,1332,1352,1372,1354,1457,1358,1376,1374,1489,1385,1402,1387,1372,1401,1383,1397,1394,1522,1498,1390,1399,1487,1390,1477,1476,1393,1491,1395,852,855,862,879,929,1301,1466,1633,1728,1788,1757,1728,1703,1668,1639,1609,1607,1549,1520,1490,1460,1454,1416,1371,1355,1333,1302,1263,1233,1202,1171,927,921,891,873,872,875,873,875,878,892,893,900,868,898,915,886,887,891,887,890,904,898,918,917,878,897,898,903,893,887,888,900,904,891,906,909,911,922,1132,1360,1554,1723,1817,1849,1844,1815,1784,1753,1789,1691,1661,1630,1662,1568,1537,1567,1477,1446,1415,1384,1354,1323,1292,1261,1230,1173,957,934,923,920,924,927,920,912,925,945,949,923,918,932,924,944,948,941,951,956,956,960,957,955,948,959,960,954,955,1007,964,1024,964,1347,1350,1357,1406,1629,2101,2409,2514,2603,2596,2613,2574,2533,2499,2454,2417,2358,2307,2275,2240,2195,2128,2109,2064,2010,1987,1935,1835,1749,1582,1491,1443,1433,1437,1361,1353,1304,1256,1249,1246,1250,1253,1315,1254,1268,1274,1267,1254,1254,1254,1250,1254,1258,1276,1255,1256,1254,1255,1262,1258,1260,1260,1259,1340,1259,0,0,0,0,0,0,0,0,0,0,0,0,0,0,0,0,0,0,0,0,0,0,0,0,0,0,0,0,0,0,0,0,0,0,0,0,0,0,0,0,0,0,0,0,0,0,0,0,0,0,0,0,0,0,0,0,0,0,0,0,0,0,0,0,0,882,884,887,891,933,1256,1480,1620,1721,1759,1755,1728,1704,1673,1647,1619,1591,1559,1534,1503,1477,1447,1419,1389,1362,1333,1305,1277,1256,1183,1117,954,958,967,898,897,882,834,828,824,828,831,893,832,846,852,845,832,832,832,828,832,836,854,833,834,832,833,840,836,838,838,837,918,837,1386,1398,1386,1456,1888,2249,2520,2640,2737,2759,2738,2695,2617,2569,2563,2507,2448,2405,2406,2343,2304,2249,2174,2130,2120,2073,1949,1831,1588,1553,1522,1480,1453,1424,1400,1406,1360,1362,1371,1371,1382,1398,1393,1395,1389,1404,1392,1390,1425,1421,1426,1405,1397,1395,1398,1405,1396,1403,1398,1392,1382,1413,1390,1461,1382,1329,1332,1349,1458,1942,2327,2704,3029,2877,2921,3023,2822,2770,2714,2660,2622,2552,2513,2444,2390,2308,2281,2227,2187,2119,2061,2024,1970,1872,1512,1467,1424,1359,1361,1355,1358,1366,1375,1409,1425,1410,1424,1434,1425,1421,1510,1415,1415,1426,1422,1432,1503,1506,1519,1499,1430,1425,1419,1512,1511,1421,1495,1418,1425,1422,956,960,964,974,1106,1397,1569,1735,1863,1899,1895,1898,1833,1803,1772,1742,1714,1679,1639,1623,1593,1563,1519,1503,1472,1443,1412,1382,1351,1322,1295,1022,1023,1000,991,971,967,963,964,958,973,983,980,968,970,972,970,965,964,961,981,972,975,1017,977,975,974,1020,977,974,981,1031,977,973,970,706,727,706,722,726,918,1126,1272,1390,1442,1443,1423,1351,1373,1354,1327,1305,1283,1263,1238,1215,1187,1170,1124,1106,1066,1070,1037,1029,1001,978,866,826,751,741,729,731,716,700,689,694,699,691,703,697,701,700,696,700,690,696,694,696,695,697,698,697,696,697,699,693,704,694,701,696,91,91,92,92,92,115,130,146,161,176,188,184,182,179,176,172,170,167,163,161,158,155,151,149,146,143,140,137,134,130,128,125,122,119,116,114,114,114,59,58,58,59,59,62,58,59,59,59,59,59,58,59,59,57,58,59,59,59,58,58,59,59,58,58,58,1129,1135,1143,1158,1204,1616,1884,2050,2189,2267,2257,2217,2191,2137,2107,2073,2034,2008,1965,1921,1885,1860,1813,1777,1742,1718,1682,1414,1503,1328,1271,1224,1210,1177,1158,1156,1165,1127,1082,1084,1085,1090,1098,1095,1091,1100,1092,1093,1092,1092,1092,1093,1093,1093,1093,1093,1092,1092,1093,1093,1092,1092,1092,1093,1092,518,525,527,507,515,608,779,854,950,995,999,985,985,959,925,914,898,889,867,852,840,836,806,802,787,760,744,729,710,707,711,622,563,546,520,511,512,527,485,484,485,490,491,499,489,494,503,501,490,495,492,498,503,491,500,500,497,499,496,498,504,504,504,505,501,371,372,373,374,375,426,540,591,643,696,722,702,693,683,682,672,661,643,633,631,612,610,600,590,573,570,553,550,533,515,506,496,485,429,419,376,377,378,353,351,352,353,356,355,354,360,357,358,356,356,357,358,358,358,358,358,356,357,358,358,356,357,357,358,357,472,474,475,480,493,592,706,775,862,929,957,937,903,899,891,870,855,840,836,792,800,788,767,741,740,690,717,695,673,665,650,572,568,531,483,479,491,477,442,446,436,444,449,451,450,451,445,449,451,449,444,441,444,450,448,447,449,445,444,450,445,449,451,450,450,757,766,730,738,784,991,1203,1299,1454,1433,1421,1455,1381,1366,1336,1349,1331,1302,1300,1277,1272,1210,1192,1155,1160,1125,1093,1066,963,990,907,789,795,756,760,737,795,745,729,745,729,727,748,736,743,750,743,744,751,740,744,751,752,752,754,755,760,757,759,743,762,766,753,751,751,0,0,0,0,0,0,0,0,0,0,0,0,0,0,0,0,0,0,0,0,0,0,0,0,0,0,0,0,0,0,0,0,0,0,0,0,0,0,0,0,0,0,0,0,0,0,0,0,0,0,0,0,0,0,0,0,0,0,0,0,0,0,0,0,0,762,776,789,777,788,955,1222,1313,1426,1485,1518,1476,1482,1478,1435,1400,1387,1367,1332,1307,1299,1268,1240,1219,1194,1189,1150,1115,1104,985,908,875,827,829,781,785,781,781,732,738,733,738,746,743,737,748,740,741,740,740,737,741,741,741,741,741,740,740,741,741,740,740,740,741,740,1206,1226,1213,1227,1404,1933,2265,2446,2590,2582,2577,2543,2484,2437,2381,2339,2288,2240,2196,2154,2112,2077,2016,1966,1922,1881,1826,1664,1664,1392,1341,1318,1278,1256,1232,1239,1228,1244,1225,1220,1238,1233,1246,1238,1255,1245,1231,1229,1241,1235,1231,1231,1231,1238,1238,1235,1235,1226,1234,1234,1257,1275,1265,1233,1232,706,727,706,722,726,918,1126,1272,1390,1442,1443,1423,1351,1373,1354,1327,1305,1283,1263,1238,1215,1187,1170,1124,1106,1066,1070,1037,1029,1001,978,866,826,751,741,729,731,716,700,689,694,699,691,703,697,701,700,696,700,690,696,694,696,695,697,698,697,696,697,699,693,704,694,701,696,1436,1448,1469,1614,1892,2355,2617,2724,2787,2809,2784,2752,2714,2697,2643,2621,2586,2504,2440,2451,2357,2305,2257,2259,2115,2039,1817,1720,1651,1643,1557,1522,1552,1490,1469,1467,1501,1482,1448,1454,1460,1483,1471,1475,1471,1484,1474,1470,1485,1461,1471,1473,1472,1479,1477,1475,1472,1478,1478,1476,1471,1484,1470,1482,1474,818,819,828,846,896,1132,1349,1510,1568,1610,1632,1581,1555,1568,1543,1540,1512,1484,1415,1452,1364,1341,1315,1319,1305,1282,1239,1198,1138,1072,1000,898,929,843,832,849,847,811,799,795,793,804,805,812,806,805,815,809,810,804,814,817,815,797,808,813,814,817,797,798,814,810,800,799,790,643,646,648,649,778,897,946,1031,1108,1147,1153,1138,1123,1107,1092,1076,1061,1046,1030,1015,999,984,969,953,938,922,907,892,921,861,791,654,779,665,646,653,618,657,634,638,639,649,652,653,651,650,644,650,657,666,740,738,741,659,657,658,666,740,724,650,666,658,648,653,652,704,702,708,720,802,969,1124,1253,1345,1383,1383,1361,1340,1318,1317,1275,1266,1232,1210,1184,1169,1146,1126,1104,1088,1062,1040,1013,998,976,923,901,836,726,715,715,717,691,692,681,691,691,679,699,689,694,694,703,703,702,702,700,699,707,704,704,691,704,703,703,704,699,699,698,698,689,689,700,717,747,984,1092,1192,1271,1315,1341,1296,1277,1295,1276,1279,1259,1232,1172,1202,1132,1116,1093,1105,1088,1067,1058,1024,999,985,893,791,820,748,702,706,736,709,666,670,674,684,673,684,676,690,683,675,685,671,675,677,680,689,680,680,678,683,683,680,676,689,675,687,679,829,819,827,866,929,1020,1311,1445,1541,1576,1573,1549,1531,1520,1497,1497,1472,1431,1384,1361,1358,1325,1309,1275,1243,1217,1219,1170,1116,919,949,892,896,843,845,836,850,792,786,783,788,789,792,792,791,789,790,791,790,790,790,792,792,793,791,792,792,792,790,791,791,791,789,789,789,1357,1358,1410,1491,1743,2252,2463,2555,2626,2622,2651,2571,2555,2565,2477,2472,2427,2374,2284,2349,2229,2170,2151,2115,2101,2022,1861,1674,1666,1545,1514,1431,1488,1389,1378,1382,1422,1403,1376,1393,1381,1404,1382,1394,1400,1389,1397,1380,1390,1387,1390,1398,1399,1406,1395,1406,1390,1403,1417,1397,1396,1410,1405,1411,1403,791,795,799,821,860,1100,1304,1461,1524,1562,1577,1535,1509,1522,1498,1496,1470,1442,1375,1413,1324,1301,1282,1281,1267,1245,1216,1179,1157,1115,999,938,888,819,808,818,838,793,790,778,777,788,796,797,792,788,800,808,795,793,801,800,798,781,792,798,797,805,785,782,802,798,789,788,779,0,0,0,0,0,0,0,0,0,0,0,0,0,0,0,0,0,0,0,0,0,0,0,0,0,0,0,0,0,0,0,0,0,0,0,0,0,0,0,0,0,0,0,0,0,0,0,0,0,0,0,0,0,0,0,0,0,0,0,0,0,0,0,0,0,883,891,889,903,973,1265,1378,1561,1579,1610,1662,1591,1569,1548,1527,1505,1484,1463,1444,1422,1441,1380,1359,1338,1317,1296,1303,1263,1238,1226,1209,932,926,906,894,895,934,881,890,893,889,892,901,890,898,888,902,891,887,894,896,935,947,953,903,902,898,906,906,931,921,924,901,899,898,1436,1448,1469,1614,1892,2355,2617,2724,2787,2809,2784,2752,2714,2697,2643,2621,2586,2504,2440,2451,2357,2305,2257,2259,2115,2039,1817,1720,1651,1643,1557,1522,1552,1490,1469,1467,1501,1482,1448,1454,1460,1483,1471,1475,1471,1484,1474,1470,1485,1461,1471,1473,1472,1479,1477,1475,1472,1478,1478,1476,1471,1484,1470,1482,1474,1491,1530,1501,1632,1926,2593,2846,3016,3082,3160,3128,3001,2938,2946,2890,2836,2745,2668,2615,2561,2508,2454,2400,2355,2375,2252,2103,1743,1700,1656,1640,1586,1537,1560,1501,1515,1508,1547,1537,1540,1531,1529,1534,1559,1542,1541,1571,1572,1553,1569,1578,1581,1573,1586,1592,1580,1564,1575,1580,1581,1594,1580,1597,1588,1575,1271,1275,1251,1330,1574,2105,2378,2553,2635,2642,2611,2565,2522,2475,2424,2381,2333,2287,2239,2238,2142,2099,2103,2042,1960,1952,1865,1855,1713,1411,1371,1362,1300,1273,1263,1261,1255,1241,1252,1268,1275,1281,1286,1280,1280,1300,1275,1287,1286,1276,1280,1291,1302,1317,1311,1320,1307,1296,1294,1290,1279,1273,1284,1300,1268,461,463,464,465,469,613,679,745,820,858,865,918,850,829,817,805,793,781,768,756,744,732,720,713,696,684,672,660,647,634,622,610,602,479,470,468,471,473,464,459,467,484,472,471,466,473,472,477,482,470,480,517,519,520,513,484,467,516,473,467,466,489,479,516,470,789,791,792,797,1003,1239,1454,1643,1745,1769,1783,1721,1688,1655,1706,1589,1556,1523,1514,1481,1423,1472,1357,1324,1291,1258,1225,1213,1228,1125,1092,866,839,813,801,802,809,814,829,841,823,830,827,840,835,844,843,843,842,849,844,843,842,846,851,841,843,840,843,846,847,917,877,871,851,990,1025,990,1014,1211,1575,1838,2016,2112,2139,2123,2073,2035,2010,1978,1936,1885,1845,1830,1794,1728,1719,1653,1607,1569,1547,1536,1485,1446,1374,1207,1077,1044,1017,1008,1040,983,988,989,1004,998,1001,996,993,998,1006,999,1010,1010,1014,1011,1011,1013,1007,1016,1017,1010,1013,1008,1009,1015,1010,1039,1029,1027,1074,1076,1082,1157,1483,1674,1974,2149,2310,2263,2241,2204,2222,2181,2080,2039,2059,2017,1921,1882,1841,1797,1760,1763,1676,1636,1596,1558,1562,1475,1173,1173,1108,1134,1089,1091,1100,1105,1126,1142,1144,1145,1183,1135,1141,1145,1144,1179,1277,1194,1182,1164,1167,1154,1194,1279,1165,1172,1200,1194,1188,1162,1189,1181,1304,1323,1329,1346,1437,1648,2266,2523,2759,2773,2795,2758,2710,2660,2654,2600,2516,2451,2442,2398,2353,2256,2228,2171,2140,2096,2008,1956,1897,1819,1689,1444,1404,1379,1368,1333,1377,1349,1376,1403,1395,1386,1396,1393,1414,1397,1405,1420,1427,1405,1424,1425,1421,1424,1417,1430,1426,1411,1417,1427,1423,1422,1433,1429,1432,1424,1187,1191,1167,1201,1460,1935,2212,2390,2475,2485,2458,2414,2371,2326,2282,2238,2194,2148,2105,2105,2013,1971,1971,1919,1838,1834,1749,1731,1685,1398,1286,1277,1215,1188,1178,1202,1196,1183,1193,1209,1216,1222,1227,1221,1221,1241,1216,1228,1227,1217,1221,1232,1243,1258,1252,1261,1248,1237,1235,1231,1220,1214,1225,1241,1209,892,921,885,925,1064,1251,1444,1581,1631,1694,1687,1628,1695,1610,1585,1626,1534,1543,1454,1458,1433,1408,1354,1356,1349,1305,1280,1255,1229,1204,1179,1082,923,886,876,892,895,897,900,913,911,967,939,930,927,913,921,929,924,928,924,932,911,913,926,938,919,920,938,931,933,919,937,923,921,0,0,0,0,0,0,0,0,0,0,0,0,0,0,0,0,0,0,0,0,0,0,0,0,0,0,0,0,0,0,0,0,0,0,0,0,0,0,0,0,0,0,0,0,0,0,0,0,0,0,0,0,0,0,0,0,0,0,0,0,0,0,0,0,0,1491,1530,1501,1632,1926,2593,2846,3016,3082,3160,3128,3001,2938,2946,2890,2836,2745,2668,2615,2561,2508,2454,2400,2355,2375,2252,2103,1743,1700,1656,1640,1586,1537,1560,1501,1515,1508,1547,1537,1540,1531,1529,1534,1559,1542,1541,1571,1572,1553,1569,1578,1581,1573,1586,1592,1580,1564,1575,1580,1581,1594,1580,1597,1588,1575,0,0,0,0,0,0,0,0,0,0,0,0,0,0,0,0,0,0,0,0,0,0,0,0,0,0,0,0,0,0,0,0,0,0,0,0,0,0,0,0,0,0,0,0,0,0,0,0,0,0,0,0,0,0,0,0,0,0,0,0,0,0,0,0,0,674,676,678,681,708,958,1115,1213,1323,1406,1353,1333,1299,1277,1278,1245,1276,1259,1180,1158,1136,1115,1093,1073,1050,1052,1007,976,1005,942,855,839,820,700,687,684,700,649,646,649,648,651,651,651,651,651,651,651,651,651,651,651,651,651,651,651,651,651,651,651,651,651,651,651,651,1473,1476,1524,1680,2168,2552,3018,3148,3210,3200,3172,3111,3083,3027,2978,2923,2866,2808,2753,2690,2634,2588,2517,2465,2313,2090,2015,1813,1800,1718,1656,1574,1560,1531,1484,1547,1510,1528,1584,1584,1584,1584,1584,1584,1584,1584,1584,1584,1584,1584,1584,1584,1584,1584,1584,1584,1584,1584,1584,1584,1584,1584,1584,1584,1584,980,912,962,1001,993,1299,1544,1694,1920,1815,1823,1784,1804,1717,1697,1707,1630,1611,1584,1544,1515,1497,1497,1476,1410,1478,1446,1314,1285,1265,1181,1000,957,937,953,923,920,923,942,933,935,938,939,934,940,937,943,937,939,938,947,947,947,945,942,947,947,947,944,947,947,947,940,936,935,955,924,961,964,1004,1299,1523,1674,1830,1796,1794,1813,1770,1733,1738,1677,1628,1636,1608,1545,1516,1539,1481,1482,1425,1410,1408,1306,1295,1250,1111,1010,970,949,936,969,952,951,930,930,930,930,930,930,930,930,930,930,930,930,930,930,930,930,930,930,930,930,930,930,930,930,930,930,930,845,872,886,860,906,1241,1478,1563,1690,1739,1679,1653,1692,1599,1573,1545,1575,1489,1457,1444,1416,1384,1358,1359,1362,1331,1313,1244,1202,1168,1122,1006,935,875,880,872,897,862,866,880,875,880,880,875,879,880,880,880,880,879,880,880,880,880,880,880,880,880,880,880,880,880,880,880,880,747,753,751,756,800,1075,1218,1359,1456,1497,1494,1470,1446,1423,1399,1375,1350,1327,1303,1279,1256,1238,1207,1183,1160,1136,1112,1087,1064,1040,981,819,800,774,761,758,760,762,756,772,756,759,772,761,768,772,772,772,772,768,772,772,772,772,772,772,772,772,772,772,772,772,772,772,772,684,684,695,696,720,986,1134,1248,1349,1391,1371,1351,1327,1310,1298,1268,1247,1285,1208,1174,1164,1130,1108,1070,1076,1074,1020,998,982,962,878,760,780,710,705,694,704,662,659,662,662,666,666,666,666,666,666,666,666,666,666,666,666,666,666,666,666,666,666,666,666,666,666,666,666,1405,1401,1423,1446,1742,2191,2471,2592,2701,2710,2705,2640,2588,2527,2528,2477,2415,2372,2345,2300,2282,2216,2198,2146,2094,2082,1930,1597,1575,1589,1524,1496,1454,1449,1412,1422,1373,1373,1354,1354,1354,1354,1354,1354,1354,1354,1354,1354,1354,1354,1354,1354,1354,1354,1354,1354,1354,1354,1354,1354,1354,1354,1354,1354,1354,1509,1530,1573,1711,2236,2662,3161,3255,3321,3307,3273,3213,3189,3105,3069,3009,2923,2890,2830,2765,2714,2650,2563,2420,2155,2129,2067,1908,1850,1747,1752,1636,1581,1553,1548,1608,1581,1641,1654,1649,1654,1652,1654,1654,1654,1654,1654,1654,1654,1654,1654,1654,1654,1654,1654,1654,1654,1654,1654,1654,1654,1654,1654,1654,1654,0,0,0,0,0,0,0,0,0,0,0,0,0,0,0,0,0,0,0,0,0,0,0,0,0,0,0,0,0,0,0,0,0,0,0,0,0,0,0,0,0,0,0,0,0,0,0,0,0,0,0,0,0,0,0,0,0,0,0,0,0,0,0,0,0 ]);
