n = 10;
D = [67,130,85,216,264,79,262,145,95,181 ];
q = 0;
prec = array2d(1..0,1..2,[]);
steps = 64;
l = 360;
r = 0;
which = [];
interval = array2d(1..0,1..2,[]);
T = array3d(1..11,1..11,0..64,[0,0,0,0,0,0,0,0,0,0,0,0,0,0,0,0,0,0,0,0,0,0,0,0,0,0,0,0,0,0,0,0,0,0,0,0,0,0,0,0,0,0,0,0,0,0,0,0,0,0,0,0,0,0,0,0,0,0,0,0,0,0,0,0,0,651,618,620,621,660,864,995,1111,1194,1238,1240,1221,1201,1181,1161,1141,1136,1101,1081,1061,1083,1021,1002,993,962,996,975,913,918,863,843,789,756,706,629,661,627,629,628,628,629,632,632,625,626,627,627,633,632,630,631,638,632,627,637,632,630,632,632,635,631,628,633,632,631,515,516,518,520,529,708,801,896,985,1081,1039,1023,1006,990,973,957,940,924,907,889,915,856,840,823,807,790,774,757,776,724,708,691,657,604,526,576,524,526,514,515,517,529,528,524,524,525,525,525,528,532,531,526,528,527,533,532,530,532,524,526,524,528,533,527,519,1158,1160,1178,1207,1330,1745,2062,2269,2396,2447,2443,2411,2365,2328,2291,2252,2208,2174,2140,2101,2022,2014,1971,1887,1862,1822,1775,1727,1580,1470,1335,1245,1257,1214,1181,1196,1216,1224,1205,1204,1203,1222,1200,1235,1232,1239,1228,1246,1232,1235,1244,1248,1243,1241,1214,1239,1224,1241,1225,1224,1225,1224,1222,1226,1223,686,691,693,694,703,810,1048,1142,1275,1333,1352,1334,1312,1283,1268,1249,1218,1199,1207,1157,1153,1124,1125,1062,1083,1039,1011,996,995,961,781,774,759,736,721,711,739,714,659,659,667,670,664,672,666,667,665,668,666,670,663,678,672,677,669,685,673,676,672,682,676,675,673,677,674,292,296,297,297,298,375,425,476,538,585,598,587,577,567,559,549,540,530,521,512,502,491,482,476,466,456,447,437,427,418,409,397,390,378,303,297,297,300,270,270,268,273,278,266,267,268,268,274,273,274,270,287,271,268,290,271,271,271,271,276,270,269,272,273,270,548,549,551,553,555,718,815,912,1057,1103,1107,1090,1071,1055,1036,1018,1001,982,965,947,929,911,894,876,859,841,823,806,787,770,752,734,653,637,559,556,558,537,514,512,511,520,530,512,521,515,514,521,518,521,520,531,520,524,532,534,523,527,522,518,518,516,543,524,517,787,792,807,807,822,1104,1275,1409,1530,1578,1567,1543,1524,1493,1488,1449,1383,1393,1313,1349,1315,1317,1266,1241,1241,1217,1188,1166,1120,1060,1071,1015,836,819,855,779,803,772,771,779,784,819,796,794,782,785,795,831,796,812,812,817,814,797,799,810,836,829,837,804,803,841,815,819,816,641,609,611,612,630,757,964,1076,1174,1295,1221,1202,1182,1162,1142,1124,1165,1084,1064,1046,1068,1006,986,968,948,978,961,889,905,850,785,664,648,631,678,641,618,665,625,621,622,625,628,618,619,620,620,626,625,625,624,640,625,620,639,625,623,625,625,628,624,621,626,625,624,210,210,211,212,213,271,306,341,378,413,430,423,415,409,402,396,389,381,375,368,361,354,347,341,334,326,320,313,306,300,292,286,279,272,265,213,251,251,192,193,194,196,196,196,194,197,194,200,193,196,193,203,198,200,196,203,198,197,198,198,199,198,192,197,195,0,0,0,0,0,0,0,0,0,0,0,0,0,0,0,0,0,0,0,0,0,0,0,0,0,0,0,0,0,0,0,0,0,0,0,0,0,0,0,0,0,0,0,0,0,0,0,0,0,0,0,0,0,0,0,0,0,0,0,0,0,0,0,0,0,686,694,693,695,703,826,1050,1172,1290,1388,1386,1359,1338,1319,1297,1271,1258,1238,1207,1194,1167,1149,1127,1106,1073,1057,1031,1012,991,935,858,824,790,720,709,702,704,689,649,635,642,646,647,646,640,644,647,649,649,648,648,649,649,649,649,649,647,649,646,648,643,649,649,649,645,0,0,0,0,0,0,0,0,0,0,0,0,0,0,0,0,0,0,0,0,0,0,0,0,0,0,0,0,0,0,0,0,0,0,0,0,0,0,0,0,0,0,0,0,0,0,0,0,0,0,0,0,0,0,0,0,0,0,0,0,0,0,0,0,0,355,355,357,360,360,389,515,574,635,683,695,686,677,667,658,656,647,639,613,619,600,597,587,572,564,552,541,529,515,504,487,476,397,414,366,361,362,363,281,281,281,281,281,281,281,281,281,281,281,281,281,281,281,281,281,281,281,281,281,281,281,281,281,281,281,722,683,722,725,756,1004,1229,1474,1622,1688,1655,1551,1591,1526,1527,1464,1463,1431,1399,1367,1335,1315,1211,1250,1149,1149,1087,1111,1079,1047,1015,796,778,782,732,730,764,702,720,721,729,735,735,735,733,735,735,735,735,735,735,735,735,735,735,735,735,735,735,735,732,735,735,735,725,683,692,657,678,701,794,1069,1195,1267,1365,1395,1342,1355,1335,1274,1265,1234,1256,1208,1174,1151,1141,1131,1126,1049,1027,1032,993,962,912,736,815,727,757,717,716,717,661,598,598,598,598,598,598,598,598,598,598,598,598,598,598,598,598,598,598,598,598,598,598,598,598,598,598,598,551,552,554,556,557,763,857,952,1047,1107,1111,1093,1075,1058,1040,1023,1007,987,969,951,937,916,898,884,863,845,829,809,792,774,756,716,626,611,563,559,561,546,523,523,523,523,523,523,523,523,523,523,523,523,523,523,523,523,523,523,523,523,523,523,523,523,523,523,523,436,451,441,508,446,594,673,749,827,880,889,875,861,915,832,818,804,789,775,761,746,790,719,719,690,676,662,663,633,617,602,588,576,459,449,445,446,447,446,427,433,436,431,439,434,440,437,436,438,432,432,435,435,437,439,440,436,438,437,439,436,444,438,439,439,1080,1078,1085,1094,1221,1629,1844,2011,2088,2118,2108,2072,2098,2008,1975,1941,1908,1874,1841,1807,1774,1741,1750,1689,1640,1607,1577,1532,1297,1289,1215,1189,1139,1104,1126,1096,1086,1080,1079,1071,1079,1079,1079,1072,1071,1079,1079,1079,1079,1079,1079,1079,1079,1079,1079,1079,1079,1079,1079,1079,1079,1079,1079,1079,1074,120,120,121,121,149,152,172,192,213,233,247,243,239,235,231,227,223,220,215,212,207,203,200,195,192,188,184,180,176,172,168,165,160,157,152,149,149,150,93,93,93,93,93,93,93,93,93,93,93,93,93,93,93,93,93,93,93,93,93,93,93,93,93,93,93,784,786,789,794,853,1005,1219,1365,1500,1571,1571,1545,1510,1493,1469,1442,1416,1394,1368,1344,1318,1298,1273,1243,1223,1186,1171,1151,1076,991,913,893,876,818,805,799,793,738,690,690,690,690,690,690,690,690,690,690,690,690,690,690,690,690,690,690,690,690,690,690,690,690,690,690,690,686,694,693,695,703,826,1050,1172,1290,1388,1386,1359,1338,1319,1297,1271,1258,1238,1207,1194,1167,1149,1127,1106,1073,1057,1031,1012,991,935,858,824,790,720,709,702,704,689,649,635,642,646,647,646,640,644,647,649,649,648,648,649,649,649,649,649,647,649,646,648,643,649,649,649,645,473,474,476,477,479,590,727,810,893,951,957,941,927,906,891,881,860,850,838,819,837,788,774,759,743,730,718,697,633,636,622,522,508,524,484,489,478,478,475,465,466,473,465,486,469,471,474,476,494,479,479,475,474,490,493,476,471,484,472,481,479,472,480,495,477,236,236,237,238,292,317,347,388,430,469,484,476,468,460,453,445,437,430,422,414,407,399,391,383,375,367,359,352,344,336,328,321,313,305,298,293,293,294,233,225,229,230,227,234,232,237,236,232,237,230,231,230,230,234,232,233,231,232,231,230,231,233,232,238,235,0,0,0,0,0,0,0,0,0,0,0,0,0,0,0,0,0,0,0,0,0,0,0,0,0,0,0,0,0,0,0,0,0,0,0,0,0,0,0,0,0,0,0,0,0,0,0,0,0,0,0,0,0,0,0,0,0,0,0,0,0,0,0,0,0,869,911,874,915,941,1333,1535,1738,1867,1910,1899,1866,1839,1809,1780,1763,1735,1705,1684,1645,1627,1582,1499,1518,1424,1390,1408,1353,1332,1121,1156,979,927,900,924,922,923,912,904,902,906,907,921,912,910,914,910,916,912,917,911,909,909,912,911,909,914,909,908,913,911,915,912,912,909,542,551,528,537,509,688,785,831,945,1029,972,957,997,983,943,955,939,871,857,871,883,875,841,878,811,832,745,729,598,704,666,628,558,556,587,575,577,515,497,502,497,509,511,502,500,504,500,506,502,507,501,499,499,502,501,499,504,499,498,503,501,505,502,502,499,452,453,454,456,458,578,684,776,857,908,915,900,886,871,856,842,827,812,799,783,768,754,739,725,710,696,682,667,652,638,615,585,570,474,462,459,460,453,425,424,420,432,444,446,425,445,430,439,445,451,446,430,438,443,463,431,438,457,428,443,431,443,470,435,429,561,557,552,566,571,727,862,964,1069,1108,1111,1094,1075,1058,1040,1019,1022,984,968,951,932,914,896,879,862,843,827,806,792,730,727,710,613,588,561,571,559,538,527,520,529,537,528,535,534,536,543,532,543,548,545,538,541,557,543,539,535,538,561,553,543,550,544,544,536,974,978,981,987,1075,1417,1636,1817,1952,1931,1920,1890,1860,1829,1799,1768,1751,1705,1689,1646,1615,1586,1555,1524,1494,1464,1441,1403,1372,1342,1229,1048,1023,1003,1010,996,991,979,977,979,980,978,993,984,990,989,985,986,981,985,985,992,996,987,1000,1000,997,994,991,983,979,982,1002,994,984,226,227,228,229,230,378,333,371,411,449,464,456,449,442,434,427,420,412,404,398,390,382,375,368,360,353,345,338,331,323,316,252,246,240,234,230,231,232,234,228,220,221,238,246,233,242,238,248,235,245,248,246,237,246,244,239,247,235,246,247,245,247,247,248,247,567,568,570,572,577,689,847,946,1051,1144,1146,1128,1110,1093,1073,1054,1036,1017,999,981,965,949,925,912,894,875,855,838,819,800,716,711,682,605,586,580,584,579,516,497,512,533,508,513,506,511,507,503,508,510,508,510,517,520,520,521,508,518,515,515,519,516,516,516,516,473,474,476,477,479,590,727,810,893,951,957,941,927,906,891,881,860,850,838,819,837,788,774,759,743,730,718,697,633,636,622,522,508,524,484,489,478,478,475,465,466,473,465,486,469,471,474,476,494,479,479,475,474,490,493,476,471,484,472,481,479,472,480,495,477,1216,1217,1241,1287,1420,1886,2184,2335,2373,2420,2433,2378,2319,2307,2259,2198,2154,2147,2117,2077,2045,1971,1954,1888,1866,1826,1767,1638,1605,1559,1325,1310,1261,1276,1256,1252,1217,1222,1234,1235,1232,1246,1252,1249,1246,1252,1252,1252,1252,1252,1252,1252,1252,1237,1250,1252,1252,1252,1252,1252,1252,1252,1252,1252,1252,746,760,751,762,793,1109,1296,1482,1652,1696,1678,1650,1620,1622,1563,1533,1523,1461,1462,1417,1423,1348,1314,1280,1252,1219,1178,1151,1109,1074,1047,1008,819,768,761,782,787,762,738,738,738,738,738,738,738,738,738,738,738,738,738,738,738,738,738,738,738,738,738,738,738,738,738,738,738,860,863,878,877,927,1258,1464,1589,1678,1732,1765,1722,1684,1670,1600,1573,1546,1552,1526,1501,1477,1423,1410,1355,1327,1318,1272,1236,1208,1188,1030,929,900,904,898,873,864,863,879,873,869,882,889,900,885,887,898,898,888,888,887,891,893,871,885,899,891,898,878,880,900,903,895,898,884,0,0,0,0,0,0,0,0,0,0,0,0,0,0,0,0,0,0,0,0,0,0,0,0,0,0,0,0,0,0,0,0,0,0,0,0,0,0,0,0,0,0,0,0,0,0,0,0,0,0,0,0,0,0,0,0,0,0,0,0,0,0,0,0,0,926,930,932,930,977,1381,1478,1701,1670,1722,1721,1679,1703,1677,1610,1580,1555,1632,1505,1582,1532,1436,1486,1444,1428,1333,1307,1288,1269,1272,989,1014,948,959,946,945,929,930,931,928,927,924,938,955,944,943,945,960,950,958,960,960,960,960,960,960,952,956,960,960,960,960,960,960,955,1152,1185,1170,1279,1353,1829,2153,2363,2451,2489,2502,2416,2372,2370,2287,2244,2219,2161,2152,2076,2054,1997,1959,1904,1857,1816,1763,1704,1565,1428,1386,1252,1233,1189,1214,1173,1161,1159,1136,1136,1136,1136,1136,1136,1136,1136,1136,1136,1136,1136,1136,1136,1136,1136,1136,1136,1136,1136,1136,1136,1136,1136,1136,1136,1136,951,930,933,984,1029,1425,1637,1853,2011,2054,2039,1988,1968,1956,1896,1845,1846,1771,1738,1716,1677,1637,1597,1557,1523,1484,1449,1412,1357,1317,1250,1012,980,951,942,943,947,951,918,918,918,918,918,918,918,918,918,918,918,918,918,918,918,918,918,918,918,918,918,918,918,918,918,918,918,1588,1586,1685,1823,2011,2763,3027,3180,3284,3327,3295,3218,3154,3104,3051,2984,2955,2867,2813,2787,2697,2594,2387,2272,2236,2169,2014,1904,1850,1800,1758,1689,1658,1627,1614,1619,1596,1591,1549,1549,1549,1549,1549,1549,1549,1549,1549,1549,1549,1549,1549,1549,1549,1549,1549,1549,1549,1549,1549,1549,1549,1549,1549,1549,1549,781,806,796,799,838,1183,1375,1574,1734,1783,1756,1725,1694,1703,1632,1600,1597,1537,1507,1476,1496,1420,1383,1348,1313,1278,1241,1206,1171,1136,1081,1040,857,814,806,805,811,808,792,792,792,792,792,792,792,792,792,792,792,792,792,792,792,792,792,792,792,792,792,792,792,792,792,792,792,971,973,1010,999,1075,1526,1763,1974,2107,2179,2159,2123,2078,2065,2028,1948,1908,1867,1827,1787,1746,1714,1666,1636,1586,1545,1560,1465,1434,1383,1272,1196,1049,1008,987,996,1000,999,995,995,995,995,995,995,995,995,995,995,995,995,995,995,995,995,995,995,995,995,995,995,995,995,995,995,995,1216,1217,1241,1287,1420,1886,2184,2335,2373,2420,2433,2378,2319,2307,2259,2198,2154,2147,2117,2077,2045,1971,1954,1888,1866,1826,1767,1638,1605,1559,1325,1310,1261,1276,1256,1252,1217,1222,1234,1235,1232,1246,1252,1249,1246,1252,1252,1252,1252,1252,1252,1252,1252,1237,1250,1252,1252,1252,1252,1252,1252,1252,1252,1252,1252,697,689,693,769,715,937,1097,1246,1340,1382,1359,1353,1305,1295,1266,1243,1252,1202,1185,1169,1137,1141,1121,1073,1052,1031,1026,1013,991,1003,927,841,729,711,710,706,710,690,688,684,694,708,703,701,699,705,703,698,707,704,702,712,717,729,701,710,702,706,720,710,710,725,708,710,707,649,643,644,646,656,859,999,1112,1217,1259,1259,1240,1221,1202,1182,1177,1156,1136,1117,1097,1078,1058,1020,1022,1002,991,941,931,915,834,816,799,740,665,654,650,663,648,626,604,604,611,632,635,626,620,629,643,644,638,651,651,656,635,636,641,646,649,653,641,638,636,636,635,634,415,408,409,410,422,555,621,685,735,786,794,783,771,760,748,749,737,724,712,700,688,676,645,652,640,636,597,595,583,570,558,545,537,426,416,414,425,415,407,383,384,384,405,408,398,393,397,406,417,407,421,421,422,413,413,410,414,418,423,417,410,412,420,422,413,864,852,867,863,903,1133,1384,1461,1619,1740,1612,1590,1593,1547,1492,1523,1447,1425,1402,1380,1357,1335,1333,1310,1268,1245,1223,1218,1131,1024,1003,946,976,900,889,860,861,862,866,875,881,891,890,889,898,914,891,889,902,898,900,895,897,893,899,902,900,896,898,903,898,924,903,898,899,0,0,0,0,0,0,0,0,0,0,0,0,0,0,0,0,0,0,0,0,0,0,0,0,0,0,0,0,0,0,0,0,0,0,0,0,0,0,0,0,0,0,0,0,0,0,0,0,0,0,0,0,0,0,0,0,0,0,0,0,0,0,0,0,0,730,730,734,802,764,999,1169,1323,1414,1462,1437,1425,1383,1370,1339,1315,1312,1272,1247,1235,1203,1181,1179,1136,1114,1092,1083,1070,1041,1052,831,783,770,752,747,745,745,709,707,704,709,710,715,710,715,715,711,715,715,708,716,724,737,737,718,713,710,717,717,713,715,736,716,718,715,941,951,945,976,1034,1374,1556,1734,1821,1858,1847,1831,1789,1760,1731,1702,1678,1645,1614,1616,1556,1537,1515,1470,1441,1410,1391,1351,1303,1205,1034,1065,1001,966,981,959,935,920,915,909,911,912,915,928,932,927,927,929,943,930,926,920,950,946,938,940,948,930,932,930,946,949,941,951,949,1368,1363,1378,1483,1648,2114,2407,2569,2618,2657,2637,2599,2525,2508,2457,2398,2376,2329,2264,2253,2201,2173,2144,2083,2037,1999,1780,1739,1622,1619,1495,1437,1414,1399,1383,1368,1373,1340,1336,1340,1343,1348,1354,1352,1362,1357,1365,1356,1356,1350,1358,1366,1381,1389,1362,1357,1350,1356,1359,1357,1361,1373,1365,1361,1358,640,634,635,637,647,845,983,1093,1190,1240,1240,1221,1202,1183,1164,1159,1138,1119,1101,1081,1062,1042,1005,1007,987,978,928,918,899,880,810,744,728,656,644,641,654,635,623,602,602,613,629,625,627,620,629,633,642,638,641,646,646,646,632,638,637,657,650,643,637,632,640,639,638,535,543,539,674,550,738,829,951,1016,1061,1064,1060,1031,1015,988,981,964,939,921,926,896,882,865,849,832,815,798,807,788,785,732,709,699,558,547,543,544,524,520,516,522,527,521,520,522,523,522,522,522,522,527,535,539,546,527,523,522,530,527,523,522,544,523,528,525,697,689,693,769,715,937,1097,1246,1340,1382,1359,1353,1305,1295,1266,1243,1252,1202,1185,1169,1137,1141,1121,1073,1052,1031,1026,1013,991,1003,927,841,729,711,710,706,710,690,688,684,694,708,703,701,699,705,703,698,707,704,702,712,717,729,701,710,702,706,720,710,710,725,708,710,707,273,275,276,277,278,299,396,443,490,537,561,552,542,533,524,515,507,498,489,480,470,462,453,444,435,426,417,408,399,335,327,320,313,304,296,279,279,280,214,214,214,214,214,214,214,214,214,214,214,214,214,214,214,214,214,214,214,214,214,214,214,214,214,214,214,571,558,562,567,575,761,862,964,1066,1120,1139,1093,1080,1062,1040,1031,1009,1003,979,964,943,918,942,891,870,849,841,814,803,814,767,750,732,585,570,569,567,593,506,506,506,506,506,506,506,506,506,506,506,506,506,506,506,506,506,506,506,506,506,506,506,506,506,506,506,491,492,493,497,504,636,720,811,896,984,992,977,960,945,930,914,896,883,866,852,836,821,804,788,772,756,739,724,714,693,663,552,528,515,504,499,501,502,406,406,406,406,406,406,406,406,406,406,406,406,406,406,406,406,406,406,406,406,406,406,406,406,406,406,406,1223,1195,1236,1269,1440,1856,2183,2428,2540,2581,2558,2512,2468,2444,2380,2367,2288,2211,2161,2143,2101,2031,2040,1940,1888,1885,1842,1705,1610,1485,1341,1321,1290,1262,1241,1242,1242,1248,1186,1186,1186,1186,1186,1186,1186,1186,1186,1186,1186,1186,1186,1186,1186,1186,1186,1186,1186,1186,1186,1186,1186,1186,1186,1186,1186,795,806,801,804,821,1021,1235,1351,1477,1555,1559,1527,1526,1480,1462,1438,1424,1386,1373,1336,1312,1304,1263,1238,1213,1188,1163,1140,1126,922,907,887,844,837,832,810,829,815,716,716,716,716,716,716,716,716,716,716,716,716,716,716,716,716,716,716,716,716,716,716,716,716,716,716,716,0,0,0,0,0,0,0,0,0,0,0,0,0,0,0,0,0,0,0,0,0,0,0,0,0,0,0,0,0,0,0,0,0,0,0,0,0,0,0,0,0,0,0,0,0,0,0,0,0,0,0,0,0,0,0,0,0,0,0,0,0,0,0,0,0,388,390,391,393,395,510,579,646,714,775,793,781,767,754,742,729,717,704,691,678,666,653,641,628,614,602,589,577,564,552,539,526,513,410,399,396,396,391,346,350,339,349,347,347,347,347,347,347,347,347,347,347,347,347,347,347,347,347,347,347,347,347,347,347,347,648,639,641,643,656,857,1015,1131,1232,1286,1296,1251,1232,1217,1197,1171,1169,1131,1112,1113,1071,1051,1045,1010,995,971,950,930,910,903,870,850,679,663,680,647,648,653,663,629,634,644,653,650,656,648,642,652,665,655,665,665,665,665,658,655,663,665,665,665,660,665,665,664,660,562,549,550,558,564,654,847,946,1046,1101,1120,1074,1061,1045,1023,1014,993,986,962,948,928,903,888,876,855,830,827,838,789,736,721,661,645,619,561,560,557,558,499,499,499,499,499,499,499,499,499,499,499,499,499,499,499,499,499,499,499,499,499,499,499,499,499,499,499,330,331,332,333,334,436,495,553,610,661,683,662,677,721,638,628,608,597,586,575,565,554,543,532,522,511,509,498,479,468,457,446,444,358,348,335,336,337,315,315,315,315,315,315,315,315,315,315,315,315,315,315,315,315,315,315,315,315,315,315,315,315,315,315,315,273,275,276,277,278,299,396,443,490,537,561,552,542,533,524,515,507,498,489,480,470,462,453,444,435,426,417,408,399,335,327,320,313,304,296,279,279,280,214,214,214,214,214,214,214,214,214,214,214,214,214,214,214,214,214,214,214,214,214,214,214,214,214,214,214,564,567,569,571,573,672,850,949,1044,1122,1135,1121,1103,1086,1067,1046,1032,1014,992,979,961,941,922,900,888,869,852,833,815,794,727,656,638,622,576,575,577,556,492,487,490,501,501,502,496,503,503,503,504,500,503,499,496,505,505,498,507,502,491,508,507,509,507,508,505,373,375,376,384,409,498,565,631,698,752,761,749,737,724,712,722,688,675,663,651,639,627,614,602,590,578,566,564,542,529,534,504,403,393,383,387,380,381,359,358,365,375,365,369,359,368,368,361,365,365,364,367,367,376,372,372,365,374,369,375,376,374,375,393,377,558,560,562,564,576,678,860,953,1054,1122,1125,1107,1089,1071,1053,1057,1016,999,984,965,947,930,911,894,874,858,839,821,803,786,755,652,636,583,570,568,570,558,516,517,519,527,526,525,525,532,521,533,529,533,525,526,534,536,531,532,537,537,535,535,536,536,536,536,535,979,976,922,1007,1088,1493,1800,1994,2129,2079,2113,2021,1945,1976,1907,1899,1860,1821,1782,1680,1705,1680,1626,1530,1563,1526,1471,1432,1357,1353,1197,1026,1013,946,972,935,963,946,972,970,981,998,989,979,997,1008,992,982,986,989,988,993,994,996,992,987,989,984,1023,1009,985,1010,978,982,981,931,934,930,943,973,1265,1461,1621,1750,1808,1813,1765,1738,1726,1697,1676,1637,1599,1577,1567,1537,1499,1479,1442,1413,1378,1344,1336,1251,1182,1056,1054,995,955,949,947,937,890,868,866,881,883,873,882,882,884,884,884,885,884,884,884,885,886,886,886,888,888,889,889,888,890,888,889,888,419,423,425,426,430,538,619,691,764,836,865,851,830,817,799,795,775,762,748,734,721,707,693,676,666,652,639,625,611,598,584,570,551,511,433,441,431,430,371,371,375,379,372,374,370,379,379,380,373,373,374,380,374,376,377,377,373,382,371,382,375,374,371,377,373,0,0,0,0,0,0,0,0,0,0,0,0,0,0,0,0,0,0,0,0,0,0,0,0,0,0,0,0,0,0,0,0,0,0,0,0,0,0,0,0,0,0,0,0,0,0,0,0,0,0,0,0,0,0,0,0,0,0,0,0,0,0,0,0,0,768,771,773,777,788,1084,1221,1388,1489,1530,1543,1502,1494,1469,1430,1405,1423,1365,1333,1309,1284,1260,1242,1223,1188,1175,1140,1174,1092,1068,1068,941,883,777,783,780,782,784,756,762,763,763,759,756,758,768,770,779,755,754,759,758,778,758,776,756,766,770,770,756,775,774,757,772,765,364,366,367,368,369,485,549,615,679,732,741,729,718,706,694,704,671,658,646,634,623,611,599,587,575,564,552,540,528,517,515,492,480,419,407,402,433,434,356,357,367,400,362,367,357,367,360,362,362,360,360,363,366,369,366,366,365,363,366,367,366,367,362,366,363,739,736,745,745,755,893,1143,1285,1361,1471,1459,1439,1382,1401,1387,1339,1335,1315,1288,1255,1215,1209,1182,1157,1132,1121,1109,1084,1001,988,893,886,810,778,754,746,762,721,659,652,660,667,666,667,666,668,668,668,669,668,668,668,669,670,670,670,672,672,669,673,672,674,672,673,672,564,567,569,571,573,672,850,949,1044,1122,1135,1121,1103,1086,1067,1046,1032,1014,992,979,961,941,922,900,888,869,852,833,815,794,727,656,638,622,576,575,577,556,492,487,490,501,501,502,496,503,503,503,504,500,503,499,496,505,505,498,507,502,491,508,507,509,507,508,505,835,838,840,843,854,1215,1374,1520,1626,1674,1666,1649,1623,1588,1563,1536,1509,1482,1456,1430,1401,1376,1347,1322,1294,1269,1239,1216,1188,1162,1133,1093,881,865,852,848,853,850,799,806,803,803,817,818,838,826,813,836,817,822,815,830,817,826,819,821,822,817,815,819,819,817,822,825,813,1045,1056,1061,1095,1213,1589,1798,1946,2038,2084,2107,2061,2027,1985,1959,1910,1870,1824,1811,1762,1744,1714,1687,1659,1613,1579,1563,1520,1469,1368,1157,1130,1107,1120,1102,1077,1069,1074,1033,1041,1063,1066,1086,1092,1113,1064,1065,1089,1056,1044,1053,1079,1058,1061,1082,1069,1047,1046,1057,1057,1045,1055,1058,1077,1041,1050,1050,1047,1068,1097,1637,1785,1964,2052,2087,2075,2063,2010,1992,1949,1912,1881,1845,1826,1786,1758,1720,1697,1637,1601,1590,1543,1515,1277,1370,1252,1218,1107,1138,1069,1064,1059,1040,987,999,992,1001,1004,1024,1027,1007,999,1007,1007,1020,1005,1020,1000,1012,1005,1010,1012,1009,1005,1006,1004,1002,1002,1003,991,1635,1678,1695,1851,2373,3082,3280,3433,3443,3487,3460,3400,3325,3275,3226,3126,3023,2984,2949,2887,2842,2638,2631,2347,2145,2153,2100,2002,1933,1908,1831,1793,1737,1713,1745,1690,1711,1740,1709,1720,1718,1748,1718,1749,1748,1747,1737,1750,1733,1742,1745,1760,1748,1747,1745,1741,1754,1754,1751,1757,1734,1757,1732,1742,1736,1389,1393,1396,1447,1661,2201,2439,2581,2663,2715,2671,2644,2571,2568,2496,2467,2418,2373,2336,2286,2247,2215,2173,2123,2080,2037,1918,1600,1564,1549,1527,1469,1445,1457,1411,1408,1374,1356,1307,1320,1313,1316,1316,1334,1345,1324,1320,1330,1329,1346,1333,1348,1329,1341,1332,1338,1339,1335,1331,1334,1331,1332,1332,1333,1321,638,640,642,644,646,897,1008,1119,1225,1284,1285,1270,1249,1224,1204,1183,1162,1142,1122,1102,1081,1060,1039,1015,999,978,953,933,916,896,877,851,748,666,653,645,652,639,590,593,588,593,598,603,627,607,597,603,604,619,601,615,598,610,601,603,602,601,598,601,598,599,601,602,590,789,792,792,801,813,1089,1232,1377,1541,1581,1563,1538,1526,1485,1476,1447,1426,1401,1376,1346,1313,1284,1262,1240,1210,1199,1162,1148,1123,1097,1068,933,910,816,802,801,779,784,743,755,754,769,755,751,766,765,761,781,751,749,755,771,770,760,773,757,764,767,766,755,774,775,753,766,758,0,0,0,0,0,0,0,0,0,0,0,0,0,0,0,0,0,0,0,0,0,0,0,0,0,0,0,0,0,0,0,0,0,0,0,0,0,0,0,0,0,0,0,0,0,0,0,0,0,0,0,0,0,0,0,0,0,0,0,0,0,0,0,0,0,1036,1047,1051,1080,1200,1572,1778,1927,2005,2065,2075,2042,2008,1962,1941,1894,1853,1803,1795,1747,1730,1700,1672,1654,1600,1561,1550,1483,1451,1322,1288,1121,1095,1111,1093,1065,1060,1064,1018,1028,1025,1060,1019,1052,1046,1088,1044,1051,1050,1035,1046,1055,1048,1055,1047,1049,1052,1050,1073,1044,1049,1085,1049,1072,1063,887,890,889,896,911,1310,1475,1633,1731,1789,1819,1787,1719,1683,1651,1622,1595,1566,1542,1523,1480,1453,1425,1397,1369,1341,1312,1284,1256,1227,1067,958,949,915,903,900,903,934,861,873,876,892,896,896,908,900,892,893,894,901,894,911,895,905,900,898,898,901,898,902,901,904,911,906,894,835,838,840,843,854,1215,1374,1520,1626,1674,1666,1649,1623,1588,1563,1536,1509,1482,1456,1430,1401,1376,1347,1322,1294,1269,1239,1216,1188,1162,1133,1093,881,865,852,848,853,850,799,806,803,803,817,818,838,826,813,836,817,822,815,830,817,826,819,821,822,817,815,819,819,817,822,825,813,630,636,637,635,648,829,967,1079,1186,1271,1286,1265,1236,1210,1192,1169,1161,1140,1110,1087,1079,1055,1035,1006,996,976,952,936,913,891,873,838,716,664,646,650,649,631,596,575,579,580,579,590,586,603,589,590,601,584,585,584,586,592,591,588,587,586,585,585,587,588,589,601,591,115,115,116,116,116,119,165,184,204,224,237,233,229,225,222,217,214,210,206,202,199,194,191,188,183,180,176,172,168,165,160,157,125,122,119,117,117,117,112,110,107,108,116,120,112,116,114,121,117,158,162,160,122,126,126,114,117,120,158,170,157,169,163,172,126,299,299,301,301,304,380,432,481,531,583,611,601,591,583,573,564,553,543,533,524,513,504,495,485,475,465,456,446,436,426,416,407,397,388,309,305,306,372,279,282,278,281,296,289,285,305,286,303,290,291,289,285,287,293,290,288,296,289,288,294,294,294,294,294,294,643,684,646,686,711,980,1202,1395,1468,1603,1584,1480,1522,1438,1460,1430,1399,1368,1337,1306,1247,1245,1214,1182,1167,1064,1064,1059,1028,1010,966,913,701,697,695,692,697,686,689,687,690,692,693,699,699,697,698,703,692,698,694,708,706,705,699,713,713,700,700,707,703,712,691,695,693,674,683,667,684,704,775,1045,1102,1259,1315,1304,1297,1286,1233,1215,1197,1211,1186,1165,1125,1138,1070,1112,1105,1049,1014,994,949,961,875,814,838,769,703,694,711,702,676,614,612,613,618,616,615,617,641,621,619,618,620,636,641,637,650,621,615,617,621,616,619,619,618,615,615,615,495,496,498,500,502,637,768,854,940,995,1005,985,971,953,937,921,905,889,873,858,841,826,810,794,777,761,745,729,713,697,681,664,656,554,506,503,513,489,470,463,463,469,484,480,475,493,491,493,500,488,480,472,473,486,477,474,485,481,474,477,476,495,481,493,480,400,402,403,405,406,539,610,682,754,807,815,801,788,775,763,750,737,723,710,697,684,671,658,645,647,619,606,592,579,567,554,541,541,421,424,406,408,409,412,387,386,392,415,402,398,391,390,394,415,405,406,406,420,405,410,404,403,439,453,409,396,401,418,402,389,1018,1027,1025,1036,1207,1536,1750,1900,1984,2014,2003,1972,1940,1908,1876,1892,1821,1780,1853,1732,1697,1654,1622,1602,1558,1526,1504,1471,1353,1345,1260,1093,1097,1047,1035,1034,1036,1023,1013,1010,1016,1015,1017,1028,1016,1022,1030,1020,1022,1018,1016,1021,1017,1016,1019,1024,1022,1023,1019,1018,1024,1047,1028,1035,1026,0,0,0,0,0,0,0,0,0,0,0,0,0,0,0,0,0,0,0,0,0,0,0,0,0,0,0,0,0,0,0,0,0,0,0,0,0,0,0,0,0,0,0,0,0,0,0,0,0,0,0,0,0,0,0,0,0,0,0,0,0,0,0,0,0,728,730,733,736,782,997,1136,1261,1386,1448,1462,1439,1417,1394,1374,1349,1326,1302,1279,1256,1231,1212,1188,1138,1136,1099,1090,1064,1042,913,922,899,782,778,745,742,744,682,657,652,665,677,661,677,660,660,665,668,671,664,673,667,673,674,679,670,667,677,669,670,670,670,670,670,670,630,636,637,635,648,829,967,1079,1186,1271,1286,1265,1236,1210,1192,1169,1161,1140,1110,1087,1079,1055,1035,1006,996,976,952,936,913,891,873,838,716,664,646,650,649,631,596,575,579,580,579,590,586,603,589,590,601,584,585,584,586,592,591,588,587,586,585,585,587,588,589,601,591,402,403,404,405,409,520,587,657,725,793,800,796,783,770,765,737,731,718,705,705,684,671,662,649,636,614,610,598,576,571,550,545,524,507,406,410,407,409,382,379,384,386,383,389,385,388,387,391,390,387,386,386,389,395,391,389,390,391,387,391,389,390,388,392,390,730,730,733,737,747,908,1135,1268,1396,1454,1467,1434,1412,1401,1381,1354,1330,1306,1279,1248,1233,1210,1179,1155,1131,1115,1091,1071,1045,1021,979,792,777,764,742,744,741,744,686,682,682,699,690,701,697,695,701,702,705,700,701,712,702,706,700,708,701,699,695,706,708,705,702,702,701,500,502,503,523,535,561,769,869,957,1050,1061,995,979,962,993,966,914,898,916,865,849,833,817,801,785,805,753,771,753,705,671,550,558,542,512,533,510,515,461,462,462,474,475,469,469,469,469,481,475,486,485,501,483,493,480,481,493,491,481,488,485,490,502,481,480,948,950,1026,1001,1186,1509,1828,1994,2151,2162,2142,2102,2016,1976,1981,1941,1857,1819,1820,1779,1740,1661,1746,1703,1542,1502,1498,1458,1417,1378,1296,1035,1028,1001,990,992,973,1006,1032,1042,1037,1059,1047,1073,1061,1059,1071,1100,1063,1060,1082,1074,1049,1051,1062,1072,1061,1054,1055,1051,1071,1053,1054,1062,1039,542,544,546,562,557,692,820,937,1052,1103,1114,1039,1045,1006,987,973,979,940,924,954,891,896,856,883,849,853,809,793,783,792,742,710,719,566,552,550,567,553,545,547,557,558,550,555,548,553,552,549,551,555,553,572,575,559,553,563,556,558,558,564,559,577,565,567,567,443,444,444,446,450,574,652,729,804,874,882,875,861,847,841,811,804,788,776,776,750,738,728,714,699,676,670,657,634,628,606,599,577,457,448,451,450,432,414,408,409,414,411,425,413,426,419,418,423,420,420,421,417,430,419,415,422,425,415,424,419,422,417,427,418,699,700,701,703,718,950,1075,1202,1321,1391,1387,1371,1348,1325,1314,1274,1259,1236,1214,1211,1173,1151,1134,1115,1087,1058,1045,1026,991,935,829,809,753,716,706,711,710,676,658,650,652,661,663,671,667,673,665,665,668,667,670,675,666,700,691,679,674,677,666,666,667,669,680,674,665,908,906,916,928,994,1333,1504,1656,1750,1810,1778,1768,1734,1700,1705,1658,1632,1581,1553,1525,1518,1468,1456,1412,1400,1356,1281,1338,1224,1255,1135,999,947,957,930,913,882,925,892,882,887,908,925,895,889,891,905,960,927,938,935,956,940,911,940,932,959,948,967,926,924,958,929,937,926,721,721,723,727,737,894,1118,1248,1376,1436,1448,1417,1393,1383,1363,1336,1313,1289,1263,1233,1218,1186,1163,1140,1117,1101,1078,1058,1033,972,923,796,768,754,733,735,732,723,670,669,680,694,680,688,675,681,679,677,680,682,681,695,689,698,690,693,683,686,680,697,694,691,692,692,691,0,0,0,0,0,0,0,0,0,0,0,0,0,0,0,0,0,0,0,0,0,0,0,0,0,0,0,0,0,0,0,0,0,0,0,0,0,0,0,0,0,0,0,0,0,0,0,0,0,0,0,0,0,0,0,0,0,0,0,0,0,0,0,0,0,402,403,404,405,409,520,587,657,725,793,800,796,783,770,765,737,731,718,705,705,684,671,662,649,636,614,610,598,576,571,550,545,524,507,406,410,407,409,382,379,384,386,383,389,385,388,387,391,390,387,386,386,389,395,391,389,390,391,387,391,389,390,388,392,390,0,0,0,0,0,0,0,0,0,0,0,0,0,0,0,0,0,0,0,0,0,0,0,0,0,0,0,0,0,0,0,0,0,0,0,0,0,0,0,0,0,0,0,0,0,0,0,0,0,0,0,0,0,0,0,0,0,0,0,0,0,0,0,0,0,651,618,620,621,660,864,995,1111,1194,1238,1240,1221,1201,1181,1161,1141,1136,1101,1081,1061,1083,1021,1002,993,962,996,975,913,918,863,843,789,756,706,629,661,627,629,628,628,629,632,632,625,626,627,627,633,632,630,631,638,632,627,637,632,630,632,632,635,631,628,633,632,631,515,516,518,520,529,708,801,896,985,1081,1039,1023,1006,990,973,957,940,924,907,889,915,856,840,823,807,790,774,757,776,724,708,691,657,604,526,576,524,526,514,515,517,529,528,524,524,525,525,525,528,532,531,526,528,527,533,532,530,532,524,526,524,528,533,527,519,1158,1160,1178,1207,1330,1745,2062,2269,2396,2447,2443,2411,2365,2328,2291,2252,2208,2174,2140,2101,2022,2014,1971,1887,1862,1822,1775,1727,1580,1470,1335,1245,1257,1214,1181,1196,1216,1224,1205,1204,1203,1222,1200,1235,1232,1239,1228,1246,1232,1235,1244,1248,1243,1241,1214,1239,1224,1241,1225,1224,1225,1224,1222,1226,1223,686,691,693,694,703,810,1048,1142,1275,1333,1352,1334,1312,1283,1268,1249,1218,1199,1207,1157,1153,1124,1125,1062,1083,1039,1011,996,995,961,781,774,759,736,721,711,739,714,659,659,667,670,664,672,666,667,665,668,666,670,663,678,672,677,669,685,673,676,672,682,676,675,673,677,674,292,296,297,297,298,375,425,476,538,585,598,587,577,567,559,549,540,530,521,512,502,491,482,476,466,456,447,437,427,418,409,397,390,378,303,297,297,300,270,270,268,273,278,266,267,268,268,274,273,274,270,287,271,268,290,271,271,271,271,276,270,269,272,273,270,548,549,551,553,555,718,815,912,1057,1103,1107,1090,1071,1055,1036,1018,1001,982,965,947,929,911,894,876,859,841,823,806,787,770,752,734,653,637,559,556,558,537,514,512,511,520,530,512,521,515,514,521,518,521,520,531,520,524,532,534,523,527,522,518,518,516,543,524,517,787,792,807,807,822,1104,1275,1409,1530,1578,1567,1543,1524,1493,1488,1449,1383,1393,1313,1349,1315,1317,1266,1241,1241,1217,1188,1166,1120,1060,1071,1015,836,819,855,779,803,772,771,779,784,819,796,794,782,785,795,831,796,812,812,817,814,797,799,810,836,829,837,804,803,841,815,819,816,641,609,611,612,630,757,964,1076,1174,1295,1221,1202,1182,1162,1142,1124,1165,1084,1064,1046,1068,1006,986,968,948,978,961,889,905,850,785,664,648,631,678,641,618,665,625,621,622,625,628,618,619,620,620,626,625,625,624,640,625,620,639,625,623,625,625,628,624,621,626,625,624,210,210,211,212,213,271,306,341,378,413,430,423,415,409,402,396,389,381,375,368,361,354,347,341,334,326,320,313,306,300,292,286,279,272,265,213,251,251,192,193,194,196,196,196,194,197,194,200,193,196,193,203,198,200,196,203,198,197,198,198,199,198,192,197,195,0,0,0,0,0,0,0,0,0,0,0,0,0,0,0,0,0,0,0,0,0,0,0,0,0,0,0,0,0,0,0,0,0,0,0,0,0,0,0,0,0,0,0,0,0,0,0,0,0,0,0,0,0,0,0,0,0,0,0,0,0,0,0,0,0 ]);
