n = 30;
D = [158,225,65,250,245,164,213,216,137,203,180,108,236,290,157,71,141,252,119,146,157,87,277,151,257,116,152,65,231,294 ];
q = 0;
prec = array2d(1..0,1..2,[]);
steps = 64;
l = 360;
r = 0;
which = [];
interval = array2d(1..0,1..2,[]);
T = array3d(1..31,1..31,0..64,[0,0,0,0,0,0,0,0,0,0,0,0,0,0,0,0,0,0,0,0,0,0,0,0,0,0,0,0,0,0,0,0,0,0,0,0,0,0,0,0,0,0,0,0,0,0,0,0,0,0,0,0,0,0,0,0,0,0,0,0,0,0,0,0,0,358,387,361,361,362,386,436,527,582,581,592,585,572,564,590,545,536,526,517,549,501,527,478,500,461,480,470,466,450,414,405,396,386,377,367,363,364,365,357,363,358,364,370,364,371,369,361,364,364,369,362,365,366,370,364,363,369,364,366,366,364,369,361,365,361,1143,1147,1115,1184,1278,1374,1614,1744,1793,1794,1892,1848,1779,1750,1702,1644,1645,1669,1559,1530,1529,1474,1478,1478,1410,1402,1332,1322,1333,1293,1251,1224,1203,1140,1163,1125,1162,1134,1175,1172,1189,1197,1195,1202,1189,1218,1199,1213,1203,1195,1207,1208,1208,1204,1214,1227,1204,1215,1206,1200,1205,1221,1208,1223,1192,616,618,620,648,653,696,830,880,993,1007,1068,995,978,963,947,931,915,899,883,867,851,835,852,803,809,806,755,758,745,707,716,739,700,643,640,625,682,660,664,666,653,713,697,670,672,690,676,695,726,691,693,675,667,675,685,683,670,668,657,666,661,663,678,672,644,822,866,866,831,825,967,1078,1221,1312,1426,1398,1353,1247,1279,1277,1263,1270,1193,1186,1153,1183,1128,1091,1085,1107,1025,997,1013,978,979,912,893,918,855,841,837,836,807,846,859,851,869,869,869,861,883,863,869,868,870,881,897,888,884,879,881,877,870,866,878,869,896,867,883,874,1126,1055,1058,1110,1203,1290,1580,1598,1703,1762,1858,1762,1695,1617,1673,1563,1566,1592,1483,1456,1503,1447,1407,1374,1342,1336,1308,1259,1274,1232,1191,1166,1145,1119,1105,1067,1167,1126,1152,1143,1142,1156,1152,1176,1154,1164,1162,1170,1190,1181,1174,1183,1182,1197,1179,1188,1181,1189,1192,1205,1191,1197,1188,1210,1206,1351,1354,1334,1399,1494,1659,1848,1974,2070,2106,2117,2062,2030,1999,1968,1936,1905,1873,1834,1997,1771,1748,1717,1685,1651,1623,1591,1622,1529,1548,1494,1421,1445,1355,1500,1421,1369,1391,1441,1501,1447,1465,1474,1467,1471,1496,1472,1482,1494,1463,1476,1487,1495,1495,1495,1505,1497,1494,1521,1472,1496,1502,1521,1501,1491,799,817,792,824,870,936,1044,1183,1319,1337,1334,1312,1217,1260,1183,1227,1148,1157,1115,1111,1121,1114,1105,1057,1075,961,999,983,955,883,936,912,836,844,855,864,854,803,852,831,822,830,891,937,856,852,869,883,868,894,892,894,864,868,886,877,896,877,897,962,911,921,938,891,894,529,591,532,534,574,583,680,735,817,816,824,790,800,766,794,743,757,813,708,733,685,674,732,686,639,645,682,633,651,606,591,619,566,604,582,537,580,523,550,555,552,553,556,561,569,569,553,571,564,570,562,556,554,563,563,567,554,557,550,552,548,553,556,553,545,554,556,560,586,562,655,708,811,895,915,920,906,890,863,861,874,828,813,803,806,773,759,742,761,728,700,685,686,680,649,619,612,618,574,569,590,591,593,565,562,564,563,573,569,570,571,572,576,583,584,586,582,584,585,591,586,587,591,596,594,593,593,606,605,607,379,379,385,380,381,393,409,426,442,457,465,462,458,455,452,449,446,442,439,436,433,430,430,423,420,417,433,429,407,404,401,398,394,387,383,381,387,382,357,350,358,370,364,363,362,370,361,370,364,362,365,354,358,363,363,361,363,356,354,361,363,369,364,370,364,537,563,540,542,572,626,671,747,833,843,846,848,845,830,823,805,800,799,781,750,775,768,740,719,709,667,686,642,689,613,631,613,575,587,570,545,568,570,559,557,561,573,561,564,565,572,567,563,567,560,571,573,579,575,572,568,561,578,569,561,563,584,570,579,567,434,436,439,439,440,476,543,602,668,735,725,721,700,686,698,691,655,643,631,619,610,595,585,574,562,551,536,525,517,503,488,479,467,457,445,443,442,449,446,444,444,441,448,458,498,481,447,467,461,446,446,479,487,503,488,508,494,503,493,471,467,449,457,454,442,343,344,345,346,347,370,421,468,517,577,586,575,571,544,535,526,517,510,498,492,485,474,462,453,444,435,425,416,407,400,389,380,371,362,353,348,349,350,340,340,341,342,342,341,343,343,342,340,342,341,341,346,346,345,341,342,346,343,347,347,343,348,340,343,345,630,643,634,636,690,727,804,874,989,976,997,997,991,993,997,944,947,932,912,861,897,892,864,838,826,783,798,751,781,703,729,713,698,682,661,639,663,665,652,659,656,668,655,655,662,664,663,664,659,661,659,663,666,667,669,677,666,663,667,666,672,675,668,668,667,1378,1403,1427,1443,1583,1746,2147,2071,2145,2197,2201,2144,2088,2045,2080,2004,2031,1954,1978,1843,1932,1824,1784,1723,1685,1639,1599,1720,1553,1497,1463,1472,1531,1383,1370,1396,1422,1381,1461,1424,1433,1430,1447,1461,1445,1455,1449,1464,1490,1482,1480,1489,1495,1512,1494,1504,1481,1511,1516,1518,1522,1507,1536,1550,1541,162,163,163,164,164,169,173,206,228,249,263,258,254,250,246,242,237,233,229,225,221,217,212,208,204,200,196,179,176,189,185,181,176,172,168,165,165,165,165,158,154,154,155,158,217,209,155,187,173,155,151,201,204,218,208,217,210,218,211,192,179,167,157,155,152,587,589,591,619,621,661,789,835,945,961,1022,950,934,919,904,889,873,858,843,828,812,797,815,766,773,771,720,724,712,674,683,669,670,613,611,596,652,629,617,624,654,799,653,609,637,700,666,619,737,707,633,654,739,721,724,615,644,640,678,660,623,651,636,628,631,701,704,692,694,731,806,911,993,1073,1070,1063,1068,1055,1031,1032,1030,1015,1011,977,941,928,914,931,898,884,864,851,846,828,799,783,765,757,743,715,712,714,716,701,712,710,732,723,715,725,725,713,718,715,718,718,714,714,722,724,718,725,717,716,725,723,751,745,752,739,362,355,356,364,357,370,395,421,458,470,477,472,467,462,457,452,447,442,437,433,428,423,418,460,408,403,398,393,389,384,379,374,369,364,359,357,358,358,348,348,348,350,353,347,350,355,345,351,349,347,349,353,350,350,350,350,348,348,353,351,349,349,348,349,349,466,467,469,470,473,514,583,651,720,767,774,762,761,737,724,712,711,687,675,662,650,638,625,613,600,588,576,563,551,539,526,514,501,489,477,482,474,483,472,470,477,478,477,473,475,477,478,483,478,485,502,517,511,494,480,487,478,481,477,480,470,485,476,483,479,1014,974,1036,1061,1070,1214,1358,1492,1599,1706,1621,1603,1504,1556,1515,1478,1462,1403,1426,1404,1365,1338,1314,1302,1314,1234,1193,1212,1202,1097,1092,1087,1074,1028,986,1004,1002,977,1028,1027,1027,1055,1040,1061,1026,1037,1039,1034,1066,1050,1083,1084,1073,1063,1068,1055,1044,1059,1059,1053,1051,1051,1045,1069,1038,993,996,972,1015,1132,1211,1387,1511,1574,1578,1677,1685,1537,1537,1542,1485,1489,1479,1408,1382,1348,1296,1303,1271,1242,1237,1170,1163,1175,1141,1101,1078,1059,1024,1018,981,1029,1000,1074,1022,1035,1054,1036,1069,1046,1080,1061,1051,1083,1054,1080,1082,1089,1080,1053,1045,1063,1067,1061,1044,1058,1068,1045,1067,1054,786,781,783,785,772,876,908,1040,1152,1114,1131,1105,1162,1072,1056,1112,1084,1075,1018,985,967,952,985,920,952,939,919,855,891,870,853,809,820,773,760,771,758,778,794,770,768,776,782,787,844,836,786,821,802,782,784,833,837,839,832,853,840,858,833,813,815,799,782,777,768,982,1020,988,1044,1064,1170,1341,1459,1608,1574,1672,1544,1549,1544,1499,1474,1479,1426,1400,1376,1347,1324,1333,1271,1272,1209,1185,1188,1158,1124,1128,1060,1088,1012,1048,996,1035,1068,1045,1043,1059,1128,1066,1085,1045,1070,1059,1084,1084,1063,1074,1066,1068,1098,1104,1070,1063,1067,1075,1081,1072,1063,1063,1087,1054,865,868,870,876,906,1002,1133,1261,1360,1388,1352,1342,1324,1325,1289,1280,1276,1235,1217,1209,1187,1165,1143,1113,1098,1076,1053,1031,1009,986,964,942,920,898,882,878,880,924,904,879,892,885,912,909,898,889,894,913,952,931,934,937,943,929,940,925,919,947,954,940,925,921,947,957,951,1043,1068,1067,1103,1174,1256,1426,1584,1699,1706,1640,1747,1656,1603,1557,1574,1530,1510,1535,1422,1378,1398,1325,1345,1287,1247,1220,1247,1202,1160,1146,1089,1083,1083,1091,1040,1075,1067,1076,1068,1078,1092,1070,1100,1082,1089,1087,1097,1108,1095,1082,1082,1101,1104,1099,1113,1114,1101,1104,1099,1097,1096,1115,1112,1090,360,353,354,362,355,368,393,419,456,468,475,470,465,460,455,450,445,440,435,431,426,421,416,458,406,401,396,391,387,382,377,372,367,362,357,355,356,356,338,340,348,361,348,350,346,356,343,360,347,343,357,355,369,374,357,351,353,358,356,350,357,371,351,355,348,1373,1345,1411,1423,1597,1787,1998,2238,2133,2142,2141,2105,2071,2259,2047,1969,1935,1901,1867,1893,1799,1765,1732,1698,1732,1630,1596,1606,1528,1600,1460,1458,1475,1374,1562,1394,1467,1414,1488,1476,1474,1496,1582,1563,1529,1559,1526,1572,1602,1587,1627,1582,1595,1587,1605,1536,1581,1571,1568,1579,1560,1583,1601,1642,1577,432,433,435,460,438,473,535,598,683,706,715,704,691,681,670,658,647,636,624,613,601,590,577,567,580,545,533,522,535,499,483,477,507,454,443,438,440,441,424,429,434,460,429,433,424,431,429,423,430,427,423,429,429,431,430,435,431,434,433,434,432,442,429,435,433,0,0,0,0,0,0,0,0,0,0,0,0,0,0,0,0,0,0,0,0,0,0,0,0,0,0,0,0,0,0,0,0,0,0,0,0,0,0,0,0,0,0,0,0,0,0,0,0,0,0,0,0,0,0,0,0,0,0,0,0,0,0,0,0,0,284,283,284,284,285,301,341,381,419,460,477,469,457,449,446,438,427,419,412,408,400,389,385,374,366,359,351,346,336,328,321,313,306,300,293,286,287,288,276,281,278,286,287,292,282,296,279,287,289,314,280,292,289,293,288,292,294,305,300,291,289,296,281,286,284,0,0,0,0,0,0,0,0,0,0,0,0,0,0,0,0,0,0,0,0,0,0,0,0,0,0,0,0,0,0,0,0,0,0,0,0,0,0,0,0,0,0,0,0,0,0,0,0,0,0,0,0,0,0,0,0,0,0,0,0,0,0,0,0,0,897,864,903,867,910,1002,1143,1273,1357,1368,1394,1361,1347,1324,1364,1307,1261,1237,1218,1195,1171,1149,1106,1105,1083,1061,1079,976,995,974,951,929,890,890,872,914,876,916,890,864,863,867,913,904,888,884,891,890,923,920,953,928,945,914,940,912,930,959,994,961,931,946,983,988,930,360,350,360,361,362,386,436,486,591,566,594,585,573,563,554,530,535,576,519,507,545,489,467,470,461,452,484,435,464,414,405,396,376,367,368,354,355,365,361,345,345,345,364,360,354,351,353,356,374,364,371,372,377,364,372,364,369,383,387,379,364,366,391,383,369,537,539,541,542,549,598,677,756,834,879,888,925,865,845,831,840,803,789,775,760,743,732,718,704,709,693,662,604,630,619,605,618,577,563,578,549,545,548,562,549,572,571,567,553,568,573,562,568,572,553,555,571,572,591,562,570,559,569,571,591,565,562,549,561,576,801,807,804,807,843,925,1057,1179,1323,1278,1305,1274,1261,1240,1220,1226,1179,1158,1140,1163,1096,1075,1034,1034,1014,993,1055,954,931,948,890,869,832,833,815,816,855,809,828,823,832,831,828,855,837,835,838,839,848,840,831,832,844,851,846,859,850,854,844,844,840,836,848,843,828,1371,1403,1385,1474,1676,1962,2205,2352,2430,2442,2423,2368,2325,2361,2241,2213,2151,2111,2051,2031,1980,1926,1901,1871,1806,1757,1717,1671,1651,1592,1541,1502,1485,1406,1435,1426,1445,1438,1532,1518,1535,1541,1522,1532,1601,1609,1541,1566,1566,1528,1531,1586,1595,1621,1598,1612,1588,1616,1616,1593,1566,1570,1534,1545,1543,1017,1019,995,1041,1111,1203,1364,1502,1628,1638,1605,1727,1555,1565,1504,1522,1451,1471,1401,1412,1331,1323,1281,1233,1247,1221,1249,1165,1144,1147,1135,1096,1037,1048,1006,1032,973,1009,1021,1027,1035,1052,1065,1066,1038,1066,1031,1037,1042,1049,1043,1062,1068,1093,1100,1105,1043,1063,1066,1066,1072,1061,1087,1099,1066,775,734,744,724,773,865,960,1054,1117,1178,1178,1164,1133,1113,1115,1058,1097,1064,1002,1012,1031,1024,1050,970,967,907,948,836,890,839,799,802,822,799,764,793,808,798,774,778,769,781,772,799,774,786,793,875,779,779,772,781,798,764,784,784,781,790,774,775,791,790,775,787,777,395,418,397,423,399,453,480,569,591,636,644,634,624,610,604,594,620,593,564,585,544,530,539,514,504,526,484,474,464,482,444,434,424,428,402,398,415,418,400,399,397,397,401,397,401,397,401,399,397,400,402,403,403,404,407,407,404,410,406,403,410,404,404,407,404,493,495,474,470,502,514,615,682,717,796,803,754,780,767,736,858,730,684,679,663,683,635,625,610,598,588,605,593,580,568,526,514,507,517,509,501,502,476,491,483,486,486,496,487,492,492,493,502,494,509,517,502,498,509,503,496,495,501,517,529,527,529,537,518,518,749,752,771,752,786,881,1012,1112,1219,1253,1228,1250,1206,1188,1136,1145,1128,1109,1120,1108,1022,1015,1003,995,961,959,946,891,875,848,845,836,828,777,773,778,760,787,766,777,777,793,787,790,791,800,777,792,783,776,789,794,791,791,818,799,783,779,795,791,779,795,793,802,791,150,151,151,152,152,156,177,197,218,238,251,248,244,240,236,232,228,224,220,216,212,208,204,200,196,192,188,184,180,176,172,168,164,160,156,153,153,154,141,141,142,143,146,148,147,148,148,146,149,147,142,144,144,149,144,143,147,143,143,144,144,146,142,147,142,103,103,103,104,104,106,120,134,147,161,172,169,167,164,161,158,156,153,150,147,145,142,139,137,134,131,128,126,123,120,117,115,112,109,107,104,104,105,90,89,89,89,89,89,88,92,96,89,89,88,88,90,88,90,89,89,88,94,89,93,90,89,88,90,92,842,845,865,834,897,1003,1196,1270,1373,1410,1356,1396,1345,1329,1275,1277,1262,1237,1228,1268,1147,1137,1123,1108,1102,1071,1055,1003,981,951,946,931,923,871,867,872,855,868,871,878,875,890,904,884,891,902,874,888,883,883,881,900,894,899,986,953,898,896,897,878,875,877,899,891,876,1099,1076,1106,1134,1164,1310,1471,1608,1685,1769,1710,1862,1661,1648,1660,1596,1547,1564,1502,1465,1517,1479,1384,1407,1463,1320,1349,1235,1227,1194,1167,1188,1113,1091,1106,1119,1111,1122,1126,1112,1128,1135,1127,1142,1128,1128,1137,1154,1160,1153,1138,1145,1164,1153,1160,1167,1166,1175,1156,1143,1152,1133,1160,1226,1160,272,272,273,274,275,289,327,366,404,442,458,451,439,432,429,422,410,403,396,393,385,374,371,360,352,345,338,333,323,316,309,302,297,343,283,276,276,277,271,268,270,273,274,274,274,272,274,280,274,276,278,291,295,286,289,281,278,291,280,273,287,276,276,281,272,331,321,331,332,333,353,399,445,487,518,548,539,527,518,510,487,493,481,479,467,456,450,429,433,424,416,405,401,388,381,373,364,346,337,339,325,325,336,317,322,320,331,391,360,338,377,338,401,362,396,361,333,345,361,347,334,377,357,335,362,351,387,361,349,343,879,917,901,935,942,1073,1182,1327,1446,1433,1450,1424,1434,1397,1396,1363,1353,1300,1288,1278,1208,1186,1186,1171,1134,1133,1089,1090,1035,996,998,965,957,919,918,882,906,933,909,928,916,938,936,934,934,957,925,943,927,922,937,939,943,944,951,942,946,938,950,931,930,940,940,953,946,407,408,410,437,412,444,501,561,621,667,718,663,654,643,633,758,611,600,590,579,568,557,547,536,525,514,504,493,482,471,461,450,439,428,416,413,414,416,408,404,410,416,409,408,410,412,411,410,411,410,416,425,431,423,416,412,410,419,416,412,410,422,412,417,414,528,516,517,533,525,591,630,719,825,855,845,860,818,819,819,778,761,755,845,737,735,695,697,669,679,642,651,637,623,599,595,569,556,540,526,536,538,525,530,540,531,536,541,537,541,539,533,534,532,536,532,540,540,540,537,537,539,534,542,552,536,544,532,538,539,711,730,722,718,733,820,930,1086,1174,1158,1189,1202,1177,1114,1084,1096,1074,1091,1044,1019,980,964,960,917,916,907,884,801,850,806,814,798,784,732,766,751,722,726,753,741,741,741,741,744,814,807,745,778,761,747,747,794,802,814,809,815,800,813,815,786,774,768,752,747,747,745,721,718,721,759,816,935,1045,1191,1148,1177,1148,1161,1117,1099,1107,1062,1098,1027,1022,986,968,964,930,911,892,888,857,836,869,798,780,744,754,728,730,732,741,728,726,728,786,743,736,768,740,736,755,776,746,745,755,737,745,740,748,740,737,737,740,740,738,744,745,733,795,783,800,803,843,887,960,1129,1144,1186,1188,1261,1199,1154,1119,1102,1085,1125,1107,1111,1110,1025,1007,989,1019,982,983,938,929,902,911,845,843,858,810,807,809,847,821,829,820,833,838,833,831,848,822,831,828,828,827,839,839,836,835,836,837,830,845,848,828,840,830,838,832,719,750,747,750,747,847,963,1038,1163,1142,1207,1176,1165,1146,1127,1085,1149,1040,1055,1034,1015,996,957,960,941,921,902,887,884,846,827,809,788,776,757,759,760,725,753,756,751,762,755,754,758,766,760,749,758,759,761,754,758,761,761,762,756,762,756,764,756,772,761,763,759,1080,1051,1067,1089,1152,1309,1481,1588,1727,1689,1683,1719,1690,1633,1642,1607,1531,1525,1525,1519,1432,1417,1394,1354,1325,1303,1271,1245,1210,1220,1193,1165,1138,1089,1086,1074,1064,1102,1096,1105,1104,1119,1137,1119,1113,1131,1113,1121,1110,1110,1114,1130,1129,1144,1229,1215,1145,1135,1138,1127,1122,1135,1157,1153,1136,883,847,852,868,901,1032,1185,1281,1402,1536,1469,1353,1352,1304,1355,1265,1295,1290,1279,1223,1240,1213,1127,1091,1114,1134,1069,1167,983,1070,989,961,933,937,897,857,912,916,891,899,906,924,984,960,921,971,927,1012,951,981,955,925,954,1000,953,929,984,947,935,965,962,1003,954,947,937,405,406,408,435,410,442,499,559,619,665,716,661,652,641,631,756,609,598,588,577,566,555,545,534,523,512,502,491,480,469,459,448,437,426,414,411,412,414,400,412,411,420,419,422,411,427,406,437,416,434,416,419,437,450,431,422,425,422,427,424,423,426,411,419,410,1389,1479,1529,1664,1778,1860,2010,2285,2204,2238,2458,2220,2172,2115,2101,2032,1993,2141,1956,2000,1937,1815,1902,1833,1850,1772,1690,1612,1577,1595,1508,1580,1448,1425,1561,1524,1414,1571,1588,1571,1591,1600,1589,1575,1657,1658,1587,1621,1606,1581,1581,1647,1656,1683,1644,1639,1644,1663,1673,1667,1623,1619,1580,1590,1608,270,271,272,272,273,295,321,355,390,424,436,429,423,416,410,403,396,390,383,377,370,364,357,350,344,355,331,324,317,311,304,298,291,284,278,274,275,275,265,258,265,278,273,269,272,266,268,278,278,270,278,300,304,294,316,284,264,272,264,266,258,273,272,280,264,284,283,284,284,285,301,341,381,419,460,477,469,457,449,446,438,427,419,412,408,400,389,385,374,366,359,351,346,336,328,321,313,306,300,293,286,287,288,276,281,278,286,287,292,282,296,279,287,289,314,280,292,289,293,288,292,294,305,300,291,289,296,281,286,284,1110,1062,1087,1122,1202,1349,1535,1611,1740,1801,1713,1826,1700,1670,1644,1617,1581,1616,1527,1505,1460,1474,1446,1397,1371,1340,1315,1276,1249,1228,1195,1166,1135,1151,1101,1100,1111,1128,1146,1131,1130,1137,1151,1160,1138,1147,1149,1189,1143,1142,1146,1154,1147,1149,1162,1157,1144,1153,1142,1167,1152,1153,1157,1158,1150,805,807,810,813,851,943,1068,1191,1373,1315,1314,1392,1273,1252,1231,1210,1189,1225,1147,1126,1172,1084,1108,1043,1022,1001,980,959,938,917,896,875,854,869,820,817,819,821,821,830,836,855,863,870,869,851,836,861,839,829,851,846,844,840,868,854,831,829,843,843,831,840,841,851,829,0,0,0,0,0,0,0,0,0,0,0,0,0,0,0,0,0,0,0,0,0,0,0,0,0,0,0,0,0,0,0,0,0,0,0,0,0,0,0,0,0,0,0,0,0,0,0,0,0,0,0,0,0,0,0,0,0,0,0,0,0,0,0,0,0,706,731,745,712,729,856,920,977,1058,1102,1106,1140,1074,1153,1134,1025,1009,992,1057,1022,944,927,911,895,879,862,846,870,814,797,781,807,776,757,755,716,717,719,720,722,731,744,745,749,732,759,728,761,738,729,741,736,747,759,751,740,744,730,744,747,740,748,735,748,736,523,525,527,528,534,582,660,737,814,860,867,912,839,825,811,797,784,770,756,742,728,714,701,687,673,659,645,631,608,604,630,616,562,548,536,531,533,534,537,533,537,538,536,534,538,538,538,537,536,537,540,546,546,541,542,538,544,542,545,549,541,549,540,541,545,244,245,246,247,247,257,289,322,354,387,401,395,389,383,376,370,364,358,352,345,339,333,327,320,314,308,302,296,289,283,277,271,265,258,252,248,249,249,238,238,241,242,239,241,242,239,242,241,243,240,239,239,241,243,242,242,241,246,255,239,239,240,245,241,239,1821,1861,1959,2209,2711,3093,3286,3422,3382,3402,3414,3368,3244,3226,3145,3058,3005,2998,2898,2945,2752,2747,2637,2562,2473,2420,2317,2244,2160,2099,2042,1965,1944,1908,1936,1892,1906,1937,2263,2249,2257,2285,2354,2348,2314,2332,2329,2354,2415,2405,2415,2461,2435,2446,2454,2461,2484,2517,2553,2497,2507,2545,2582,2552,2539,1841,1788,1976,2047,2296,2547,2677,2820,2795,2907,2898,2853,2766,2710,2685,2590,2576,2542,2517,2453,2467,2375,2367,2267,2203,2194,2094,2084,2050,1971,1926,1864,1868,1878,1895,1833,1836,1835,2180,2221,2163,2178,2234,2200,2207,2244,2207,2209,2289,2203,2246,2253,2272,2253,2413,2374,2290,2271,2313,2237,2221,2234,2306,2301,2206,1527,1489,1626,1696,1832,2088,2274,2302,2357,2513,2368,2417,2295,2355,2302,2201,2185,2211,2157,2132,2027,1953,2010,1965,1896,1827,1811,1816,1777,1742,1667,1661,1579,1575,1567,1546,1599,1586,1695,1685,1705,1735,1693,1751,1709,1732,1706,1728,1762,1721,1705,1716,1734,1758,1758,1740,1731,1742,1740,1742,1719,1703,1766,1751,1700,1015,1008,1009,1001,1068,1194,1340,1487,1572,1606,1581,1561,1543,1497,1497,1468,1441,1509,1409,1361,1333,1333,1278,1255,1229,1229,1177,1165,1163,1114,1088,1060,1037,1037,1021,999,999,1000,1044,1017,1047,1027,1032,1043,1081,1042,1020,1035,1060,1051,1052,1044,1045,1059,1040,1051,1038,1045,1039,1045,1032,1038,1038,1061,1052,1268,1223,1389,1348,1476,1668,1794,2001,2006,2064,2034,2084,1953,1926,1926,1827,1841,1834,1772,1737,1736,1646,1668,1630,1567,1593,1462,1498,1483,1405,1400,1378,1296,1367,1289,1306,1243,1289,1337,1320,1320,1325,1364,1373,1358,1367,1349,1358,1398,1381,1383,1379,1387,1395,1435,1368,1374,1396,1402,1401,1375,1375,1410,1460,1390,1526,1513,1636,1687,1863,2130,2269,2411,2448,2490,2447,2504,2400,2345,2312,2264,2255,2225,2155,2101,2080,2009,2056,1974,1891,1877,1782,1794,1753,1724,1684,1679,1588,1623,1576,1574,1561,1594,1735,1734,1705,1725,1726,1772,1735,1757,1777,1840,1754,1782,1769,1777,1761,1799,1773,1753,1758,1748,1746,1778,1769,1792,1767,1778,1735,712,714,716,718,756,820,929,1039,1168,1168,1169,1248,1188,1113,1095,1076,1057,1039,1020,1017,983,964,945,923,922,903,867,849,833,815,823,774,759,740,726,723,725,726,724,722,741,740,733,756,740,761,756,748,779,752,753,756,755,769,744,743,749,758,748,745,749,760,737,760,759,836,838,841,846,889,987,1119,1247,1427,1369,1367,1443,1323,1301,1280,1258,1236,1270,1192,1170,1215,1127,1150,1083,1061,1039,1017,996,974,952,930,908,886,901,852,848,851,853,881,864,858,870,853,864,860,867,879,905,867,896,906,900,899,919,917,870,870,877,905,912,905,920,913,916,898,1645,1597,1751,1817,2024,2285,2421,2553,2593,2632,2567,2641,2582,2479,2425,2388,2363,2349,2277,2204,2206,2125,2153,2069,1984,1968,1886,1895,1853,1817,1765,1773,1708,1717,1696,1666,1682,1690,1853,1849,1918,2165,1934,1901,1911,2017,1953,1903,2024,1972,1919,1937,2009,1998,1960,1876,1905,1917,1947,1958,1896,1950,1907,1914,1933,526,531,530,531,537,583,662,734,810,886,864,850,837,823,809,796,800,769,755,741,728,714,701,703,673,660,646,633,619,606,606,578,591,564,539,534,548,537,539,538,539,544,545,542,552,548,553,544,542,544,541,547,549,550,557,557,547,556,552,545,555,545,553,553,541,1099,1052,1078,1110,1173,1332,1540,1649,1751,1823,1696,1840,1681,1706,1628,1630,1566,1629,1512,1516,1446,1460,1432,1384,1359,1327,1303,1264,1238,1217,1184,1155,1125,1138,1091,1091,1101,1117,1116,1111,1136,1156,1157,1184,1139,1164,1159,1166,1202,1177,1251,1295,1359,1235,1162,1152,1153,1177,1154,1144,1156,1176,1157,1177,1168,725,702,716,731,751,819,948,1008,1103,1164,1137,1170,1128,1110,1091,1053,1054,1019,1017,983,969,962,936,919,902,885,869,837,835,818,802,777,795,728,726,735,736,738,735,723,725,730,782,759,762,761,747,781,755,743,759,729,735,752,746,737,758,733,729,751,749,771,758,759,751,1656,1647,1812,1904,2065,2310,2503,2660,2689,2752,2605,2721,2563,2536,2504,2409,2421,2427,2349,2248,2295,2177,2181,2139,2026,2065,1940,1939,1899,1872,1829,1794,1747,1772,1734,1763,1677,1710,1940,1947,1903,1909,1947,1946,1945,1949,1945,1950,2008,1948,1961,1971,1980,1991,1961,1996,1996,1996,2033,1978,1970,1977,2032,1964,1955,1181,1167,1274,1228,1359,1542,1675,1859,1881,1959,1906,1963,1846,1825,1825,1746,1725,1740,1695,1624,1625,1564,1598,1523,1456,1527,1450,1403,1385,1363,1308,1280,1231,1274,1206,1213,1206,1201,1239,1257,1258,1254,1374,1252,1256,1260,1259,1291,1349,1367,1302,1279,1284,1273,1434,1318,1282,1294,1402,1317,1307,1279,1326,1299,1320,1189,1192,1179,1241,1311,1528,1670,1809,1892,1895,1966,1910,1843,1811,1810,1737,1700,1769,1647,1619,1586,1589,1573,1540,1493,1468,1426,1382,1362,1314,1286,1256,1231,1245,1230,1232,1188,1194,1253,1250,1250,1378,1299,1271,1284,1299,1277,1285,1292,1294,1300,1311,1311,1312,1328,1294,1281,1284,1276,1276,1265,1294,1288,1297,1258,495,497,498,500,503,549,622,716,768,815,821,808,796,781,790,776,763,749,736,722,691,695,664,651,655,625,628,614,576,587,559,560,547,533,521,502,504,506,507,507,509,516,501,510,503,507,509,499,511,509,501,501,549,590,523,506,529,509,515,508,521,514,507,513,508,312,313,314,315,316,334,379,423,468,510,522,514,506,497,489,481,472,464,456,447,439,430,422,414,405,397,389,380,372,364,355,347,338,330,322,317,318,319,305,305,307,308,307,312,326,311,309,310,310,312,308,318,309,315,309,310,311,310,311,312,312,310,309,307,310,1520,1528,1572,1611,1769,1946,2154,2224,2292,2314,2299,2359,2258,2311,2218,2209,2132,2275,2144,2067,2066,1971,1986,1916,1819,1865,1772,1776,1718,1713,1674,1647,1586,1613,1546,1567,1521,1555,1678,1672,1746,1986,1754,1723,1731,1833,1769,1735,1845,1805,1750,1771,1842,1816,1777,1695,1717,1736,1759,1773,1711,1758,1711,1724,1754,457,459,460,461,504,498,562,621,690,741,749,738,726,709,702,691,679,667,656,644,632,621,609,597,586,574,562,550,539,527,512,504,492,480,466,464,465,467,455,455,453,456,461,469,460,463,469,470,460,463,461,463,463,462,468,469,465,464,462,465,470,479,479,481,476,1806,1882,2023,2069,2279,2522,2823,2874,2863,2915,2847,2896,2803,2779,2675,2640,2628,2616,2540,2475,2465,2337,2386,2267,2187,2254,2098,2114,2046,2014,1974,1941,1880,1974,1878,1913,1846,1869,2233,2201,2184,2240,2308,2275,2234,2268,2320,2291,2369,2328,2360,2413,2383,2408,2389,2381,2416,2406,2471,2409,2416,2465,2462,2444,2406,979,982,995,1000,1063,1188,1346,1486,1679,1600,1567,1542,1543,1517,1467,1442,1441,1415,1403,1341,1339,1313,1288,1241,1237,1273,1166,1175,1146,1109,1094,1063,1033,1023,1045,1007,997,999,1007,1023,1020,1038,1074,1087,1068,1090,1055,1101,1078,1061,1073,1051,1081,1099,1085,1061,1082,1063,1069,1083,1077,1085,1072,1101,1075,1179,1165,1272,1226,1357,1540,1673,1857,1879,1957,1904,1961,1844,1823,1823,1744,1723,1738,1693,1622,1623,1562,1596,1521,1454,1525,1448,1401,1383,1361,1306,1278,1229,1272,1204,1211,1204,1199,1266,1244,1264,1282,1269,1268,1294,1272,1272,1274,1288,1276,1304,1290,1296,1266,1290,1287,1264,1281,1272,1268,1258,1281,1273,1289,1259,2156,2213,2328,2504,2663,3211,3120,3233,3274,3301,3245,3239,3180,3034,3022,3105,2874,2916,2855,2805,2678,2658,2799,2567,2500,2455,2478,2330,2441,2272,2228,2291,2181,2133,2121,2231,2101,2178,2394,2412,2452,2478,2465,2484,2504,2530,2525,2531,2568,2565,2603,2584,2600,2623,2675,2673,2661,2689,2723,2715,2731,2751,2749,2766,2797,877,879,864,869,915,1017,1152,1319,1366,1403,1451,1526,1356,1329,1359,1289,1253,1345,1222,1199,1177,1183,1148,1150,1110,1066,1065,1021,1019,1034,977,932,932,988,930,871,874,876,905,904,901,902,906,908,900,901,907,912,902,911,907,912,911,907,909,912,911,911,907,908,913,923,925,925,925,1110,1062,1087,1122,1202,1349,1535,1611,1740,1801,1713,1826,1700,1670,1644,1617,1581,1616,1527,1505,1460,1474,1446,1397,1371,1340,1315,1276,1249,1228,1195,1166,1135,1151,1101,1100,1111,1128,1146,1131,1130,1137,1151,1160,1138,1147,1149,1189,1143,1142,1146,1154,1147,1149,1162,1157,1144,1153,1142,1167,1152,1153,1157,1158,1150,633,681,669,653,683,748,837,965,1076,1110,1099,1047,1050,1015,1047,1007,1011,966,948,894,925,900,861,844,839,832,819,787,774,724,745,727,696,693,678,678,677,693,664,678,677,692,729,714,693,733,686,749,710,746,709,695,716,744,716,697,728,710,705,718,712,736,706,706,695,380,381,382,383,384,411,465,518,572,631,705,694,608,672,661,627,569,559,549,539,529,562,509,499,489,479,469,459,449,440,430,454,444,400,390,415,416,387,387,386,392,397,393,412,400,417,415,400,420,399,399,397,396,411,399,397,401,403,397,395,397,402,395,409,396,520,522,524,525,530,576,651,725,800,847,853,840,827,813,800,786,773,760,746,733,719,706,692,679,666,652,639,625,612,599,585,572,558,545,532,528,530,531,523,527,530,538,542,547,547,547,539,542,548,546,550,562,554,557,540,537,547,540,540,542,544,544,534,538,536,0,0,0,0,0,0,0,0,0,0,0,0,0,0,0,0,0,0,0,0,0,0,0,0,0,0,0,0,0,0,0,0,0,0,0,0,0,0,0,0,0,0,0,0,0,0,0,0,0,0,0,0,0,0,0,0,0,0,0,0,0,0,0,0,0,386,387,388,389,391,418,473,528,583,630,640,630,705,693,682,590,579,569,559,549,539,604,589,508,498,488,478,554,529,510,437,487,476,406,396,392,393,394,411,400,401,407,412,409,411,403,411,412,412,406,419,412,412,402,403,414,412,420,401,403,415,409,408,403,399,464,501,467,468,471,551,574,640,706,754,762,750,738,726,714,703,691,730,667,655,643,631,619,607,595,583,571,559,547,535,523,549,536,487,475,471,472,473,469,465,464,469,472,470,472,477,472,472,471,472,476,476,475,479,480,478,483,478,477,472,479,484,485,486,485,1630,1620,1692,1998,2066,2381,2637,2763,2792,2767,2779,2740,2645,2609,2613,2520,2476,2371,2323,2330,2320,2229,2167,2089,2073,1969,1948,1956,1870,1850,1820,1718,1656,1732,1661,1660,1649,1786,1847,1836,1869,1884,1887,1927,1876,1909,1899,1910,1932,1897,1907,1942,1960,1953,1918,1910,1891,1912,1892,1893,1893,1924,1901,1928,1905,1346,1405,1467,1495,1542,1737,2004,2097,2179,2166,2245,2169,2104,2052,2100,1990,1982,1942,1904,1860,1885,1799,1753,1790,1693,1631,1636,1618,1554,1498,1523,1507,1441,1397,1361,1430,1411,1370,1501,1465,1470,1503,1528,1532,1486,1549,1525,1559,1528,1520,1533,1493,1532,1529,1517,1498,1556,1511,1489,1518,1525,1550,1525,1522,1504,1066,1098,1195,1166,1284,1305,1568,1602,1756,1797,1760,1678,1759,1713,1687,1620,1548,1551,1569,1506,1576,1432,1474,1418,1411,1342,1315,1325,1320,1214,1170,1217,1161,1130,1137,1096,1223,1159,1188,1181,1183,1189,1182,1190,1198,1195,1199,1195,1199,1190,1197,1199,1208,1210,1206,1216,1198,1208,1205,1200,1205,1223,1193,1202,1192,573,557,574,578,563,637,722,838,888,933,970,922,943,927,877,852,842,833,818,832,788,773,753,720,723,713,698,708,668,677,660,623,608,593,580,566,568,561,575,577,572,572,586,586,613,617,584,598,590,595,592,591,587,610,601,590,593,584,579,595,586,595,587,599,583,823,843,836,847,866,986,1084,1189,1288,1340,1390,1339,1346,1275,1254,1216,1244,1274,1232,1149,1174,1109,1068,1104,1031,1043,1025,969,965,933,891,908,886,852,857,840,843,877,855,845,855,875,860,863,858,864,864,868,876,856,870,899,920,901,897,877,855,882,863,859,853,888,871,888,861,1094,1107,1167,1199,1265,1358,1580,1685,1776,1791,1804,1768,1780,1701,1696,1651,1612,1596,1613,1514,1540,1442,1426,1421,1380,1352,1347,1319,1292,1211,1214,1209,1170,1125,1117,1144,1152,1116,1159,1173,1172,1205,1153,1198,1172,1199,1185,1205,1215,1185,1202,1189,1199,1206,1199,1198,1192,1199,1234,1198,1204,1200,1193,1230,1227,281,282,283,284,285,299,339,378,418,456,474,466,459,451,444,436,428,421,413,406,398,391,383,376,368,361,353,346,338,330,323,315,308,300,293,285,286,287,286,271,272,272,311,293,280,277,279,282,310,302,307,302,311,287,322,293,295,312,323,305,288,294,320,322,294,410,412,413,414,416,448,507,567,626,686,759,747,661,723,711,676,617,606,595,584,574,606,552,541,530,519,508,497,486,475,465,488,477,432,421,446,447,419,416,412,418,423,427,419,422,433,427,441,427,429,435,427,422,427,434,444,426,427,427,434,426,432,426,426,424,1188,1200,1304,1308,1375,1503,1736,1838,1920,1918,1949,1891,1915,1839,1831,1766,1742,1724,1721,1620,1661,1561,1543,1519,1476,1461,1454,1409,1380,1298,1312,1330,1264,1216,1216,1238,1233,1198,1299,1285,1294,1291,1295,1290,1367,1364,1290,1333,1318,1298,1294,1357,1361,1379,1363,1372,1366,1388,1388,1356,1334,1329,1298,1297,1300,863,848,838,855,918,978,1107,1254,1320,1406,1355,1386,1340,1337,1314,1248,1227,1223,1184,1162,1141,1119,1098,1143,1070,1064,1012,991,969,964,926,932,899,905,861,876,879,850,859,861,858,858,881,908,871,866,869,881,881,871,871,876,873,878,882,878,875,875,870,882,886,892,894,879,878,622,671,657,642,671,766,821,947,1058,1072,1136,1083,1033,998,1030,1013,995,950,933,879,910,886,848,831,826,837,807,775,762,712,734,731,686,682,683,665,667,683,657,655,657,661,663,666,664,666,663,669,666,667,668,675,675,671,682,676,680,675,678,675,679,683,676,684,676,162,163,163,164,164,168,190,211,232,254,268,264,259,255,251,247,243,239,234,230,226,222,218,214,210,205,201,197,193,189,185,181,176,172,168,165,165,166,156,156,157,157,156,156,159,164,159,158,159,157,156,156,157,159,161,156,157,157,156,156,157,158,156,157,159,1238,1280,1290,1328,1437,1575,1795,1910,1997,2038,2012,1988,1947,1938,1915,1849,1807,1787,1801,1690,1733,1634,1602,1557,1541,1513,1475,1448,1445,1374,1332,1328,1303,1270,1263,1294,1328,1262,1352,1326,1325,1330,1344,1369,1388,1389,1360,1394,1369,1346,1338,1402,1404,1389,1398,1413,1405,1429,1392,1380,1387,1369,1344,1344,1329,736,753,777,780,837,873,988,1081,1191,1242,1265,1210,1223,1171,1151,1132,1112,1118,1149,1034,1055,992,994,975,955,976,925,952,969,839,822,818,826,765,765,786,788,766,777,776,783,799,799,792,791,791,789,800,804,797,798,833,852,837,827,800,795,806,798,795,785,809,793,810,787,764,759,748,750,786,867,1023,1126,1257,1281,1228,1213,1227,1204,1182,1164,1187,1102,1082,1064,1087,1075,1024,1013,941,907,966,929,869,917,856,811,791,803,758,752,841,761,804,778,776,784,790,794,852,844,792,828,810,789,791,841,844,846,839,861,848,864,840,818,822,805,789,784,774,559,624,563,565,574,627,711,795,876,921,977,911,972,956,965,852,914,822,808,816,778,827,856,773,719,704,689,753,730,699,630,667,651,585,572,568,570,571,577,576,580,592,576,583,577,587,591,577,583,573,579,583,580,585,580,582,584,591,585,592,584,595,580,588,586,405,407,408,409,411,410,465,520,619,621,676,665,654,643,632,622,611,600,589,578,568,557,546,535,524,513,503,492,481,470,459,448,438,427,416,412,413,414,404,406,410,419,417,411,414,418,411,415,415,416,418,427,433,429,419,412,418,423,424,415,415,427,415,422,415,1076,1129,1125,1150,1194,1399,1402,1563,1686,1657,1640,1712,1592,1568,1544,1663,1574,1508,1532,1482,1478,1430,1376,1421,1324,1331,1285,1281,1273,1243,1180,1201,1169,1106,1149,1100,1105,1136,1154,1142,1133,1153,1157,1192,1165,1172,1172,1187,1195,1211,1216,1207,1185,1216,1222,1177,1190,1202,1210,1251,1215,1226,1236,1277,1222,408,409,410,411,413,440,494,548,569,649,626,616,640,635,625,609,599,589,579,573,560,549,542,531,519,509,499,489,452,469,431,422,438,428,392,388,389,416,422,381,385,386,391,399,387,396,387,388,396,396,389,395,397,408,403,406,394,399,399,401,408,404,408,418,408,1367,1421,1491,1563,1655,1835,2046,2152,2200,2214,2207,2174,2142,2089,2055,2044,1985,1931,1944,1885,1993,1812,1777,1772,1708,1674,1618,1657,1586,1531,1486,1489,1505,1400,1421,1485,1418,1422,1503,1489,1524,1572,1539,1567,1537,1535,1547,1557,1581,1543,1542,1581,1608,1614,1565,1541,1537,1549,1533,1528,1527,1552,1525,1568,1535,850,918,862,867,905,1022,1151,1293,1368,1404,1401,1379,1356,1342,1302,1300,1274,1254,1222,1239,1168,1155,1132,1119,1145,1135,1042,1013,1051,975,946,941,913,873,873,870,879,874,893,882,882,889,889,891,900,892,897,906,908,893,900,906,909,913,905,920,901,919,902,891,909,917,891,897,882,734,751,775,778,835,871,986,1079,1189,1240,1263,1208,1221,1169,1149,1130,1110,1116,1147,1032,1053,990,992,973,953,974,923,950,967,837,820,816,824,763,763,784,786,764,776,782,778,797,822,815,808,820,793,820,824,844,839,843,838,815,817,815,832,831,816,809,822,833,809,807,800,1739,1645,1727,1906,2113,2201,2466,2581,2765,2589,2698,2556,2567,2506,2477,2570,2393,2290,2249,2210,2386,2332,2106,2087,2028,1925,1953,1904,1827,1816,1761,1810,1792,1733,1758,1687,1715,1791,1966,1973,1928,1935,1973,1972,1972,1978,1971,1977,2034,1975,1987,1998,2007,2018,1988,2024,2024,2023,2061,2007,1996,2004,2057,1991,1981,451,434,436,437,439,473,536,626,714,721,717,705,745,733,720,708,696,637,626,640,675,635,623,569,557,546,535,587,512,537,510,478,466,524,444,440,441,442,437,442,449,457,453,457,442,452,441,475,449,449,454,452,472,492,465,457,465,452,460,462,467,473,448,455,448,633,681,669,653,683,748,837,965,1076,1110,1099,1047,1050,1015,1047,1007,1011,966,948,894,925,900,861,844,839,832,819,787,774,724,745,727,696,693,678,678,677,693,664,678,677,692,729,714,693,733,686,749,710,746,709,695,716,744,716,697,728,710,705,718,712,736,706,706,695,830,816,822,849,865,977,1086,1216,1299,1335,1353,1327,1292,1269,1249,1255,1223,1192,1162,1146,1120,1117,1119,1061,1046,1012,992,971,949,942,920,884,877,844,834,825,835,830,852,845,841,847,858,850,855,848,853,851,850,850,860,856,861,855,852,860,854,858,851,864,860,866,850,850,848,545,541,543,568,551,659,680,759,837,880,963,948,861,842,895,902,819,856,774,762,748,734,751,710,749,675,663,647,635,673,610,591,579,564,552,547,552,550,553,557,552,564,563,565,560,575,553,563,559,557,555,568,568,564,562,564,564,561,575,575,559,568,555,564,560,457,458,459,461,463,500,564,629,693,741,749,737,726,714,702,690,679,667,655,643,632,620,608,597,585,573,561,550,538,526,514,503,491,479,468,463,465,466,450,450,453,450,458,453,460,462,457,457,460,460,462,463,461,467,465,463,469,465,463,461,467,470,472,471,470,566,567,569,559,579,616,699,748,817,860,911,855,842,830,818,805,793,810,768,798,743,768,754,739,690,681,668,680,665,650,636,606,594,591,578,562,564,563,553,565,563,577,567,561,564,567,563,560,561,565,564,564,562,564,567,568,569,568,565,569,568,593,592,593,587,0,0,0,0,0,0,0,0,0,0,0,0,0,0,0,0,0,0,0,0,0,0,0,0,0,0,0,0,0,0,0,0,0,0,0,0,0,0,0,0,0,0,0,0,0,0,0,0,0,0,0,0,0,0,0,0,0,0,0,0,0,0,0,0,0,489,490,551,493,497,539,609,679,749,796,803,790,868,765,752,740,798,715,702,689,677,664,651,639,626,658,601,588,632,563,550,576,525,512,500,555,497,499,504,502,502,502,510,508,513,506,513,510,508,510,514,517,517,513,514,526,515,525,511,508,521,513,516,514,503,1720,1742,1816,1973,2286,2510,2725,2877,2905,2910,2836,2800,2750,2728,2700,2799,2545,2536,2453,2389,2391,2285,2418,2193,2191,2104,2072,2027,1953,1890,1860,1848,1770,1804,1747,1745,1898,1784,2102,2067,2078,2098,2083,2109,2130,2137,2124,2209,2118,2104,2110,2172,2171,2184,2177,2164,2142,2167,2153,2176,2142,2127,2103,2121,2107,1515,1602,1578,1629,1811,2159,2222,2358,2445,2436,2378,2402,2317,2303,2282,2354,2194,2220,2139,2062,2066,1969,1966,1901,1875,1842,1824,1730,1756,1695,1621,1606,1556,1568,1552,1512,1563,1543,1649,1641,1647,1741,1660,1674,1663,1702,1702,1743,1675,1704,1705,1702,1695,1715,1721,1674,1670,1679,1705,1727,1706,1733,1716,1726,1706,1303,1267,1332,1336,1397,1660,1773,1923,1962,2055,1979,2021,1938,1926,1912,1958,1829,1793,1801,1757,1708,1667,1635,1592,1595,1529,1559,1479,1432,1442,1412,1382,1381,1352,1321,1288,1348,1330,1352,1372,1363,1364,1371,1369,1361,1386,1366,1388,1367,1419,1397,1396,1376,1397,1395,1425,1392,1395,1447,1429,1433,1401,1420,1391,1418,773,775,797,781,802,922,1025,1124,1295,1298,1298,1277,1250,1209,1229,1168,1131,1152,1162,1105,1065,1034,1021,995,945,975,940,914,926,844,859,836,805,821,753,800,806,789,789,778,781,783,817,815,824,821,807,833,812,797,814,787,790,807,805,794,813,789,785,808,806,827,814,818,812,1039,1007,1006,1045,1104,1272,1443,1549,1662,1630,1616,1664,1604,1569,1529,1514,1494,1450,1447,1417,1359,1369,1281,1281,1256,1305,1209,1157,1131,1120,1111,1106,1057,1026,1023,1041,992,1066,1039,1030,1028,1030,1032,1069,1062,1072,1057,1063,1073,1063,1059,1057,1057,1089,1089,1060,1072,1067,1067,1090,1075,1073,1081,1127,1085,1321,1263,1335,1397,1483,1690,1853,2043,2069,2063,2029,2186,2001,1943,1902,1947,1891,1842,1804,1738,1718,1704,1644,1643,1676,1576,1574,1488,1452,1435,1375,1372,1314,1365,1336,1320,1304,1347,1374,1378,1334,1329,1374,1357,1367,1374,1371,1375,1427,1376,1386,1401,1397,1403,1375,1404,1415,1417,1448,1404,1394,1401,1455,1384,1389,411,413,414,415,417,448,507,567,626,674,684,673,662,646,640,629,618,607,596,586,575,564,553,538,531,520,509,498,487,477,466,455,444,433,422,418,419,420,401,402,410,422,404,412,408,414,418,409,416,409,411,412,410,415,414,415,415,416,414,414,418,440,438,444,439,576,572,574,622,585,687,725,810,892,934,1001,985,912,893,930,936,867,889,820,807,792,777,793,789,777,715,701,685,671,708,645,625,611,596,583,579,584,582,573,587,579,614,573,601,582,607,592,598,593,580,595,586,598,598,594,594,599,594,606,590,592,601,593,607,607,1439,1385,1436,1517,1618,1885,2002,2173,2212,2188,2172,2248,2159,2060,2035,2078,2020,1969,1911,1843,1821,1821,1759,1751,1786,1699,1675,1592,1553,1560,1458,1463,1405,1459,1431,1411,1396,1443,1484,1493,1484,1491,1516,1511,1529,1543,1498,1531,1527,1558,1551,1548,1535,1578,1540,1539,1527,1520,1514,1543,1537,1536,1528,1534,1558,658,660,696,664,718,749,846,944,1031,1073,1075,1111,1041,1024,1008,991,974,957,940,923,906,898,872,864,838,821,838,787,770,787,736,719,702,685,705,675,704,671,680,687,683,687,691,692,689,703,689,690,685,687,685,698,697,699,694,695,695,687,697,706,691,703,684,694,692,819,806,813,838,853,963,1071,1197,1281,1317,1367,1310,1275,1253,1280,1239,1210,1179,1147,1171,1106,1103,1105,1048,1033,1000,979,958,937,931,930,873,887,834,824,816,851,821,831,869,855,839,850,831,878,881,863,883,873,838,845,878,911,908,916,932,904,932,915,901,892,876,889,885,871,537,586,540,530,548,639,660,802,849,892,865,851,872,886,828,833,821,769,795,758,769,793,716,702,732,704,691,702,632,618,604,626,564,562,549,533,534,582,539,545,539,555,547,560,542,547,556,547,544,549,540,546,546,541,548,554,548,547,546,548,553,565,556,565,554,1437,1419,1529,1605,1646,1912,2089,2241,2312,2301,2227,2283,2222,2151,2101,2155,2045,2037,1988,1909,1932,1880,1806,1814,1793,1888,1703,1642,1630,1586,1524,1517,1459,1483,1454,1438,1465,1443,1532,1525,1512,1536,1558,1590,1570,1585,1562,1575,1594,1602,1594,1613,1598,1621,1609,1579,1601,1582,1568,1665,1594,1602,1604,1677,1602,953,921,946,951,989,1151,1298,1421,1578,1599,1495,1541,1482,1454,1399,1428,1374,1367,1333,1280,1284,1256,1208,1250,1195,1195,1113,1089,1065,1056,1045,1016,1007,1002,958,954,982,960,959,968,970,974,988,982,982,982,968,983,976,973,981,988,980,988,1003,993,985,988,994,982,996,994,980,988,981,959,957,977,976,1031,1161,1316,1440,1522,1589,1573,1537,1486,1496,1464,1437,1401,1400,1359,1330,1289,1284,1262,1208,1206,1201,1194,1144,1109,1051,1100,1034,1004,996,1030,973,986,961,993,978,1015,1031,1031,1037,1030,992,1021,1060,1020,1005,993,991,1011,998,1006,1013,1017,1020,1004,1014,1009,1004,1019,1101,1035,194,195,196,196,197,204,231,259,286,313,327,322,317,311,306,301,296,290,285,280,275,269,264,259,254,248,243,238,233,227,222,217,212,206,201,197,198,199,186,186,186,186,195,187,190,195,187,200,189,188,192,192,189,193,196,194,196,194,190,192,190,196,195,195,196,325,326,327,328,329,350,435,482,528,570,582,573,564,556,547,538,530,521,512,503,495,486,477,469,460,451,405,419,387,379,370,361,352,344,335,330,331,332,342,318,337,326,322,322,350,332,319,316,333,327,324,323,322,319,317,327,323,327,324,319,318,323,328,323,318,1325,1256,1365,1312,1389,1583,1779,1915,1943,1960,1934,1922,1929,1931,1915,1863,1816,1861,1756,1716,1736,1670,1653,1607,1548,1570,1532,1477,1472,1456,1386,1355,1399,1319,1303,1325,1348,1311,1386,1391,1361,1379,1382,1427,1384,1407,1420,1486,1403,1449,1430,1443,1414,1474,1449,1402,1404,1396,1424,1456,1438,1468,1448,1459,1419,508,484,509,486,516,530,630,666,734,782,789,776,764,752,739,759,715,702,690,678,667,653,641,658,645,604,592,579,568,582,542,556,557,505,519,489,491,492,493,498,498,511,510,499,503,507,501,506,516,529,685,659,699,546,504,506,513,511,503,494,507,500,502,507,503,1597,1568,1661,1823,1895,2135,2393,2442,2495,2513,2579,2455,2437,2383,2316,2297,2301,2248,2194,2128,2144,2128,2010,1963,1924,1947,1895,1814,1810,1826,1686,1649,1626,1608,1598,1607,1616,1626,1741,1766,1746,1778,1782,1764,1767,1811,1763,1795,1763,1800,1793,1807,1794,1809,1809,1830,1812,1801,1815,1803,1823,1802,1815,1817,1835,964,965,963,975,1074,1158,1312,1440,1532,1592,1559,1534,1509,1484,1459,1434,1409,1375,1359,1334,1301,1289,1259,1226,1216,1177,1159,1286,1173,1085,1060,1035,1017,987,981,971,974,970,996,980,975,983,1019,1040,1016,1012,1009,1036,1045,1030,1047,1029,1028,1049,1060,1015,1039,1044,1042,1073,1046,1062,1078,1111,1053,951,919,944,949,987,1149,1296,1419,1576,1597,1493,1539,1480,1452,1397,1426,1372,1365,1331,1278,1282,1254,1206,1248,1193,1193,1111,1087,1063,1054,1043,1014,1005,1000,956,952,980,958,965,950,951,957,1011,1012,991,993,982,1037,1017,989,1012,980,984,1021,1023,984,1021,1000,997,1031,1011,1037,1037,1067,1023,1942,1865,1969,2100,2463,2550,2735,2830,3108,3021,2905,2936,2944,2807,2905,2649,2691,2608,2554,2573,2473,2463,2445,2306,2397,2304,2260,2107,2103,1975,2037,2072,1937,1932,1877,1865,1925,1858,2184,2201,2239,2254,2248,2261,2285,2301,2290,2303,2330,2328,2366,2347,2351,2375,2412,2422,2400,2430,2458,2451,2455,2481,2481,2492,2514,648,650,662,654,662,737,835,920,1081,1062,1105,1100,1032,1029,1042,995,953,960,1024,963,896,869,862,833,789,823,791,777,776,704,726,706,684,676,627,658,677,661,667,679,647,655,668,651,718,677,659,701,672,655,654,662,672,672,675,678,672,700,723,672,677,674,663,660,659,830,816,822,849,865,977,1086,1216,1299,1335,1353,1327,1292,1269,1249,1255,1223,1192,1162,1146,1120,1117,1119,1061,1046,1012,992,971,949,942,920,884,877,844,834,825,835,830,852,845,841,847,858,850,855,848,853,851,850,850,860,856,861,855,852,860,854,858,851,864,860,866,850,850,848,1016,998,1006,1024,1087,1219,1380,1516,1625,1587,1676,1600,1596,1556,1535,1456,1544,1534,1451,1410,1359,1336,1321,1367,1260,1233,1234,1180,1155,1130,1112,1063,1060,1030,1017,1020,1014,1018,1035,1030,1040,1032,1027,1026,1039,1044,1028,1049,1062,1035,1043,1052,1060,1045,1046,1042,1037,1046,1040,1031,1042,1044,1039,1044,1049,735,723,725,727,753,831,941,1050,1192,1179,1231,1161,1165,1124,1105,1086,1183,1141,1127,1031,992,974,997,1050,917,899,906,861,859,882,805,821,800,749,735,731,733,735,740,741,755,756,762,783,769,789,779,771,800,772,774,776,768,791,769,761,774,771,761,770,776,775,764,781,776,335,336,337,338,338,354,387,421,454,486,494,488,481,475,469,462,456,450,443,437,431,424,418,412,405,399,393,386,380,374,367,361,355,348,342,339,340,340,326,331,330,340,339,340,333,339,330,337,341,356,340,348,351,354,340,341,347,350,348,337,340,345,330,334,333,516,517,486,488,492,532,602,672,741,788,850,785,770,760,747,735,722,710,697,684,672,702,646,634,621,609,596,583,571,558,544,533,520,508,496,490,492,494,487,485,487,488,499,491,501,506,499,490,492,491,488,491,492,511,491,493,490,492,494,492,492,495,490,513,493,553,511,512,514,519,562,683,685,747,786,789,778,766,755,744,733,721,763,699,687,676,665,653,642,631,620,660,597,586,574,611,552,581,529,519,516,517,519,516,527,518,529,530,534,527,542,525,531,522,522,525,532,534,529,534,531,525,522,537,527,523,524,525,534,523,0,0,0,0,0,0,0,0,0,0,0,0,0,0,0,0,0,0,0,0,0,0,0,0,0,0,0,0,0,0,0,0,0,0,0,0,0,0,0,0,0,0,0,0,0,0,0,0,0,0,0,0,0,0,0,0,0,0,0,0,0,0,0,0,0,1995,1863,1989,2242,2534,2812,3000,3147,3098,3121,3089,3032,3014,2909,2877,2869,2785,2705,2655,2597,2549,2473,2436,2385,2331,2273,2218,2148,2121,2062,1986,1958,1927,1908,1924,1910,1918,1948,2323,2313,2284,2312,2313,2369,2375,2407,2363,2398,2355,2369,2363,2407,2390,2450,2421,2413,2392,2394,2390,2409,2379,2397,2358,2364,2316,1755,1690,1753,1967,2130,2355,2571,2625,2838,2735,2801,2665,2586,2568,2544,2470,2543,2450,2456,2343,2369,2261,2190,2219,2097,2076,2050,1991,1994,1938,1842,1812,1794,1746,1781,1752,1717,1807,1992,1977,2003,2023,2035,2040,2049,2058,2035,2052,2081,2067,2094,2098,2079,2081,2103,2103,2080,2107,2118,2107,2118,2116,2110,2114,2129,1506,1442,1560,1565,1736,1905,2109,2130,2293,2277,2348,2196,2254,2186,2137,2098,2093,2136,2025,1947,1946,1885,1898,1963,1758,1750,1729,1690,1661,1652,1545,1540,1494,1482,1549,1475,1551,1524,1611,1611,1589,1602,1596,1625,1604,1613,1629,1688,1618,1642,1637,1648,1629,1687,1654,1616,1611,1612,1633,1660,1629,1654,1656,1646,1618,773,775,776,756,811,901,1021,1155,1186,1231,1265,1247,1221,1203,1186,1221,1238,1126,1102,1085,1065,1016,1024,1004,1003,961,918,923,900,851,861,842,822,799,786,759,784,763,763,776,779,798,794,789,784,795,774,784,776,776,779,795,790,795,835,827,787,789,795,786,778,778,794,792,779,1171,1182,1184,1219,1271,1465,1611,1786,1891,1917,1922,1826,1818,1796,1757,1704,1784,1730,1733,1646,1582,1529,1550,1511,1452,1495,1438,1388,1373,1325,1255,1264,1245,1216,1269,1162,1178,1231,1252,1258,1256,1260,1269,1267,1302,1284,1281,1275,1290,1291,1364,1365,1382,1352,1280,1298,1296,1303,1298,1287,1297,1277,1285,1343,1276,1515,1450,1520,1575,1749,1961,2115,2224,2375,2297,2381,2263,2242,2252,2189,2108,2146,2167,2062,2037,1931,1895,1866,1903,1786,1771,1730,1697,1692,1661,1554,1515,1551,1476,1496,1478,1472,1532,1556,1533,1544,1562,1551,1570,1562,1562,1563,1578,1603,1580,1589,1572,1579,1608,1594,1586,1590,1602,1593,1618,1613,1605,1623,1636,1640,667,654,631,658,688,743,842,901,1029,1064,1097,1018,1062,1018,985,947,969,960,937,918,901,882,865,848,834,813,800,783,764,737,716,738,697,679,641,637,663,666,659,663,668,669,680,672,679,668,667,678,671,668,677,677,671,675,692,678,674,676,677,671,683,679,674,678,672,766,754,756,758,789,874,990,1106,1247,1233,1284,1213,1216,1174,1154,1134,1229,1187,1172,1075,1036,1016,1038,1094,957,937,943,898,895,917,839,854,832,780,766,763,765,767,793,778,781,785,783,784,848,841,786,816,799,786,789,837,841,853,854,853,838,851,852,831,812,810,793,791,789,1595,1532,1631,1701,1895,2112,2306,2368,2501,2421,2502,2402,2379,2367,2321,2220,2255,2291,2184,2157,2045,1994,1980,2029,1895,1863,1834,1801,1792,1781,1649,1605,1668,1570,1577,1573,1567,1628,1703,1736,1703,1742,1742,1724,1739,1770,1719,1755,1735,1749,1749,1758,1753,1756,1792,1774,1758,1742,1759,1743,1751,1767,1769,1764,1781,650,675,651,678,667,729,811,893,968,1054,1004,1037,975,1000,946,932,917,903,888,890,859,844,863,815,805,801,772,822,743,728,750,699,711,670,671,656,657,669,652,659,652,668,661,674,656,660,671,661,656,663,655,661,660,655,663,668,662,661,660,663,668,680,672,680,670,1006,1013,1017,1050,1075,1205,1364,1498,1607,1570,1661,1614,1579,1542,1519,1489,1554,1519,1436,1395,1378,1322,1307,1354,1254,1222,1222,1169,1181,1120,1101,1073,1049,1041,1007,1010,1004,1007,1032,1029,1022,1037,1036,1031,1037,1036,1039,1029,1036,1032,1049,1035,1038,1034,1035,1043,1036,1049,1027,1039,1039,1050,1037,1034,1028,534,536,504,507,512,555,628,701,773,820,881,816,800,789,776,763,750,737,724,711,698,727,671,658,645,632,619,606,593,579,565,553,540,527,515,509,512,513,503,513,510,516,518,518,514,518,510,530,513,510,518,521,531,541,530,525,523,516,525,524,527,529,516,522,513,1670,1578,1674,1786,1958,2147,2341,2450,2549,2513,2590,2469,2463,2418,2365,2289,2328,2317,2285,2217,2155,2070,2037,2038,1919,1994,1889,1846,1793,1785,1713,1673,1696,1608,1641,1624,1618,1685,1765,1749,1773,1802,1812,1808,1813,1833,1807,1826,1854,1846,1888,1846,1856,1886,1885,1842,1847,1865,1857,1874,1872,1884,1878,1887,1894,1107,1095,1099,1143,1222,1371,1645,1643,1791,1787,1871,1738,1804,1731,1759,1605,1667,1700,1668,1539,1545,1456,1442,1515,1352,1389,1340,1373,1271,1277,1187,1157,1185,1124,1154,1137,1153,1142,1161,1167,1176,1174,1161,1182,1181,1189,1183,1179,1213,1175,1183,1173,1193,1200,1203,1214,1215,1189,1200,1199,1190,1188,1185,1212,1172,979,982,984,998,1063,1189,1347,1584,1657,1680,1591,1568,1537,1513,1491,1541,1490,1415,1386,1364,1338,1433,1287,1262,1236,1208,1185,1160,1132,1117,1082,1058,1032,1016,995,993,994,999,1022,1015,1015,1019,1017,1017,1046,1035,1012,1004,1022,1026,1017,1013,1012,1013,1014,1027,1019,1020,1017,1016,1011,1035,1035,1043,1014,482,483,484,485,488,528,586,644,701,741,745,734,723,713,702,692,681,670,660,649,637,692,617,607,595,584,575,564,554,543,531,522,510,499,490,488,489,490,465,470,479,500,473,483,472,486,472,477,478,475,470,476,479,484,479,480,477,476,483,479,475,484,469,479,472,299,299,300,301,301,315,345,375,405,435,444,438,432,426,420,415,409,403,397,392,386,380,374,368,363,357,351,345,340,334,328,322,316,311,305,302,303,303,282,282,278,282,286,303,282,287,293,292,286,288,281,286,288,279,287,288,288,288,286,287,293,292,286,291,286,1391,1359,1373,1419,1542,1655,1827,2139,2137,2184,2113,2126,2049,2142,2002,1987,1962,1855,1846,1860,1819,1902,1751,1698,1686,1651,1606,1592,1544,1511,1466,1464,1411,1387,1375,1371,1428,1384,1478,1476,1471,1501,1527,1521,1503,1504,1513,1550,1510,1547,1558,1545,1507,1528,1520,1528,1533,1505,1552,1600,1558,1565,1568,1529,1522,231,231,232,233,233,241,271,301,331,360,375,369,364,358,352,347,341,335,330,324,318,312,307,301,295,290,284,278,272,267,261,255,250,244,238,234,235,235,223,223,224,223,225,225,230,243,228,228,227,227,225,225,226,232,233,226,227,224,225,225,227,228,225,230,227,1789,1778,1814,2026,2104,2364,2529,2753,2748,2756,2791,2685,2692,2592,2534,2608,2506,2565,2497,2379,2344,2265,2238,2215,2125,2111,2051,2053,1962,1973,1914,1805,1851,1779,1772,1830,1754,1745,2047,2086,2092,2121,2147,2154,2091,2116,2119,2124,2168,2168,2175,2215,2178,2195,2201,2207,2218,2237,2268,2216,2240,2280,2282,2268,2263,744,737,739,741,769,850,964,1077,1184,1207,1207,1188,1169,1149,1130,1111,1091,1072,1053,1034,1014,995,988,956,937,918,898,879,860,851,821,812,782,763,749,746,748,750,745,752,746,756,823,805,793,812,769,845,805,829,793,768,775,804,783,775,820,792,772,800,787,829,800,812,781,1105,1093,1097,1141,1220,1369,1643,1641,1789,1785,1869,1736,1802,1729,1757,1603,1665,1698,1666,1537,1543,1454,1440,1513,1350,1387,1338,1371,1269,1275,1185,1155,1183,1122,1152,1135,1151,1140,1176,1187,1136,1139,1180,1168,1168,1184,1188,1183,1229,1182,1183,1196,1197,1200,1175,1215,1239,1211,1241,1219,1191,1200,1241,1175,1179,1963,1913,2151,2276,2433,2581,2860,2999,3190,3147,3005,2980,2810,2896,2767,2972,2676,2662,2535,2491,2445,2541,2391,2306,2260,2370,2416,2121,2073,2100,1982,1946,2001,1996,1934,1936,1939,1928,2257,2299,2303,2335,2336,2364,2305,2330,2335,2339,2368,2369,2390,2427,2386,2414,2394,2419,2433,2452,2478,2442,2469,2511,2505,2489,2485,725,727,728,788,757,836,992,1057,1145,1185,1186,1169,1148,1131,1113,1094,1075,1056,1037,1018,999,993,961,980,923,916,921,867,882,862,808,873,772,763,739,734,738,749,749,752,752,758,767,756,767,758,762,760,775,778,854,847,867,799,761,779,779,789,775,761,784,755,771,770,759,1016,998,1006,1024,1087,1219,1380,1516,1625,1587,1676,1600,1596,1556,1535,1456,1544,1534,1451,1410,1359,1336,1321,1367,1260,1233,1234,1180,1155,1130,1112,1063,1060,1030,1017,1020,1014,1018,1035,1030,1040,1032,1027,1026,1039,1044,1028,1049,1062,1035,1043,1052,1060,1045,1046,1042,1037,1046,1040,1031,1042,1044,1039,1044,1049,1307,1310,1323,1355,1501,1760,1933,2046,2106,2149,2132,2099,2161,2008,1997,1985,1911,2044,1902,1792,1769,1772,1705,1684,1632,1630,1611,1575,1500,1461,1446,1381,1344,1338,1301,1328,1313,1321,1371,1365,1361,1379,1371,1395,1398,1413,1392,1397,1424,1411,1455,1474,1466,1451,1430,1397,1412,1406,1395,1420,1406,1398,1406,1449,1407,1388,1387,1380,1437,1611,1866,2110,2338,2346,2354,2328,2299,2245,2203,2171,2119,2090,2113,2036,2001,1922,1869,1872,1940,1829,1748,1660,1653,1610,1535,1538,1482,1414,1384,1381,1419,1418,1444,1475,1465,1496,1522,1516,1545,1509,1525,1520,1532,1558,1522,1533,1564,1568,1565,1564,1528,1518,1536,1518,1521,1518,1551,1525,1550,1536,1896,1974,2109,2260,2456,2860,3002,3140,3257,3428,3282,3077,3098,3042,2977,3007,2825,2799,2804,2708,2650,2597,2542,2624,2439,2318,2377,2264,2148,2153,2109,2001,1996,1983,1993,2015,2061,2014,2382,2422,2392,2409,2422,2440,2416,2431,2430,2438,2459,2424,2427,2432,2452,2461,2465,2478,2476,2474,2477,2461,2475,2488,2509,2489,2475,1400,1435,1542,1555,1667,2002,2220,2376,2451,2504,2469,2365,2361,2305,2300,2306,2169,2156,2073,2148,2015,1968,2052,1842,1825,1739,1735,1710,1627,1584,1589,1504,1481,1483,1452,1419,1451,1487,1570,1578,1552,1566,1560,1593,1572,1587,1598,1663,1578,1624,1616,1621,1591,1667,1625,1579,1575,1571,1601,1643,1619,1651,1635,1628,1597,1790,1777,1918,2055,2275,2576,2722,2877,3075,2962,2871,2950,2875,2809,2765,2625,2650,2659,2597,2474,2423,2370,2344,2291,2263,2201,2117,2099,2039,2006,1892,1903,1832,1834,1854,1793,1794,1878,2148,2127,2109,2168,2218,2194,2155,2193,2245,2215,2274,2240,2272,2325,2291,2323,2295,2295,2332,2315,2374,2323,2336,2384,2367,2361,2325,1805,1868,1876,2046,2363,2647,2791,2991,2997,3053,3032,2997,2854,2971,2806,2776,2751,2596,2544,2493,2441,2389,2338,2554,2375,2255,2311,2079,2028,1976,1962,1944,1842,1912,1803,1833,1858,1899,2192,2229,2195,2211,2221,2230,2221,2230,2228,2234,2254,2232,2245,2226,2244,2257,2256,2267,2262,2266,2292,2247,2272,2278,2307,2264,2244,0,0,0,0,0,0,0,0,0,0,0,0,0,0,0,0,0,0,0,0,0,0,0,0,0,0,0,0,0,0,0,0,0,0,0,0,0,0,0,0,0,0,0,0,0,0,0,0,0,0,0,0,0,0,0,0,0,0,0,0,0,0,0,0,0,996,999,1011,1057,1128,1204,1348,1473,1543,1567,1561,1537,1567,1490,1466,1443,1419,1445,1372,1348,1335,1311,1278,1264,1231,1207,1183,1188,1165,1113,1089,1066,1042,1030,1011,1016,1012,1014,1023,1000,1015,1019,1014,1028,1019,1016,1019,1030,1059,1038,1042,1046,1046,1057,1042,1044,1034,1059,1062,1058,1052,1042,1061,1069,1070,1277,1260,1292,1363,1464,1557,1734,1942,1945,2092,1949,2017,2055,1895,1830,1845,1809,1835,1677,1717,1716,1660,1591,1562,1602,1493,1469,1434,1495,1383,1353,1323,1295,1331,1264,1279,1343,1259,1329,1321,1342,1405,1357,1371,1355,1345,1360,1361,1363,1342,1351,1383,1411,1407,1376,1363,1344,1368,1345,1344,1340,1371,1352,1381,1341,1095,1101,1103,1127,1242,1437,1693,1868,1947,1967,1948,1906,1870,1840,1792,1768,1727,1691,1640,1620,1584,1548,1512,1481,1445,1409,1392,1333,1301,1261,1225,1179,1158,1128,1111,1101,1125,1132,1180,1164,1174,1176,1175,1168,1195,1190,1156,1159,1175,1168,1162,1175,1173,1169,1161,1176,1172,1172,1183,1181,1157,1173,1167,1172,1164,1106,1109,1150,1142,1256,1411,1609,1759,1795,1868,1864,1777,1789,1734,1706,1653,1665,1673,1609,1534,1541,1519,1486,1447,1399,1414,1353,1342,1306,1282,1226,1200,1165,1152,1122,1158,1132,1139,1202,1182,1202,1204,1195,1184,1265,1265,1197,1233,1215,1190,1190,1250,1260,1287,1254,1249,1244,1266,1269,1262,1226,1216,1190,1198,1212,1171,1148,1146,1241,1256,1409,1577,1700,1771,1793,1795,1806,1780,1748,1662,1690,1619,1695,1565,1547,1510,1473,1446,1420,1462,1385,1348,1331,1285,1267,1231,1204,1186,1167,1164,1161,1173,1160,1199,1203,1188,1221,1207,1199,1214,1225,1207,1199,1205,1219,1220,1203,1205,1211,1214,1219,1208,1214,1200,1212,1205,1222,1215,1211,1197,1536,1444,1444,1511,1697,2001,2205,2362,2472,2443,2416,2385,2329,2286,2253,2200,2168,2190,2112,2075,1995,1940,1970,2011,1988,1813,1724,1715,1671,1618,1551,1539,1471,1442,1461,1477,1499,1502,1543,1536,1541,1596,1552,1568,1549,1568,1572,1573,1597,1574,1587,1578,1566,1590,1620,1582,1577,1589,1585,1586,1590,1581,1603,1621,1594,1419,1418,1416,1478,1660,1922,2164,2321,2397,2404,2378,2348,2293,2250,2204,2165,2121,2165,2121,2042,1963,1909,1971,1922,1789,1784,1696,1687,1643,1568,1524,1514,1445,1416,1412,1451,1450,1476,1566,1506,1505,1526,1511,1540,1531,1531,1557,1611,1539,1560,1643,1552,1558,1634,1558,1547,1543,1556,1637,1708,1742,1777,1771,1602,1593,1123,1094,1097,1185,1193,1337,1499,1623,1696,1718,1764,1728,1710,1632,1593,1683,1552,1633,1501,1476,1449,1413,1408,1361,1405,1319,1293,1267,1233,1215,1181,1155,1137,1118,1106,1106,1108,1111,1141,1126,1138,1160,1143,1146,1142,1151,1152,1159,1160,1139,1156,1182,1203,1183,1180,1165,1141,1164,1149,1144,1135,1173,1153,1175,1145,1633,1640,1708,1911,2294,2700,2913,3040,3090,3154,3031,2960,2918,2855,2872,2815,2656,2605,2531,2462,2428,2344,2282,2219,2211,2104,2032,1970,1907,1845,1782,1723,1675,1671,1708,1691,1737,1711,1848,1857,1877,1894,1894,1887,1877,1912,1878,1897,1912,1885,1893,1907,1924,1934,2078,2025,1920,1918,1917,1909,1903,1894,1908,1949,1915,1296,1299,1312,1342,1485,1742,1914,2028,2089,2178,2257,2056,2145,1992,1981,1970,1896,2030,1887,1777,1756,1785,1692,1672,1619,1618,1599,1557,1489,1450,1435,1370,1334,1327,1291,1318,1303,1310,1361,1360,1359,1375,1411,1365,1383,1404,1387,1379,1388,1395,1463,1468,1489,1455,1465,1458,1419,1412,1389,1386,1396,1376,1392,1402,1376,1371,1406,1477,1518,1625,1954,2174,2331,2406,2461,2426,2322,2319,2265,2260,2267,2130,2118,2035,2072,1979,1932,1879,1807,1792,1706,1703,1679,1596,1554,1608,1475,1451,1454,1422,1438,1422,1457,1520,1509,1505,1529,1616,1595,1562,1593,1558,1605,1637,1623,1675,1629,1644,1624,1636,1568,1616,1605,1602,1611,1595,1616,1632,1674,1609,842,844,847,850,899,1009,1096,1205,1282,1348,1349,1291,1363,1253,1269,1249,1196,1214,1188,1168,1148,1216,1108,1064,1068,1048,1028,989,959,951,922,928,908,866,855,853,888,857,855,855,856,858,859,859,860,861,860,864,864,867,869,870,873,874,874,878,871,877,875,883,878,883,881,883,878,1220,1222,1240,1234,1361,1597,1767,1884,1948,2039,1998,1933,1990,1862,1854,1845,1783,1814,1748,1661,1641,1673,1592,1564,1514,1515,1499,1465,1392,1355,1358,1280,1244,1234,1201,1250,1212,1219,1276,1250,1254,1259,1257,1265,1260,1260,1271,1340,1267,1277,1289,1290,1292,1303,1319,1304,1292,1292,1294,1304,1298,1297,1299,1312,1310,946,948,950,961,1070,1229,1444,1616,1701,1727,1736,1674,1642,1620,1606,1557,1514,1486,1477,1455,1386,1370,1323,1291,1259,1227,1233,1182,1149,1136,1090,1114,1003,974,970,978,969,976,1028,1001,1006,1005,1014,1015,1062,1058,1016,1057,1043,1016,1016,1074,1075,1072,1069,1083,1076,1101,1069,1055,1054,1035,1015,1012,1004,1800,1835,1946,2177,2513,2808,3013,3104,3218,3186,3141,3073,3021,2971,2941,2862,2817,2722,2661,2628,2550,2490,2438,2446,2309,2252,2197,2172,2140,2008,1956,1895,1850,1837,1858,1839,1853,1890,2190,2178,2197,2224,2207,2224,2215,2202,2229,2301,2231,2230,2239,2252,2285,2269,2294,2255,2226,2257,2243,2248,2243,2269,2257,2274,2249,1752,1841,1981,2050,2274,2641,2830,2972,3045,3086,3054,2919,2867,2876,2826,2842,2642,2655,2657,2555,2480,2432,2368,2400,2280,2161,2219,2119,2028,2020,1965,1885,1884,1866,1868,1866,1845,1868,2191,2177,2206,2232,2245,2224,2247,2279,2285,2299,2340,2335,2419,2352,2328,2371,2416,2383,2364,2383,2499,2488,2519,2552,2561,2483,2460,912,913,964,921,997,1160,1353,1487,1603,1582,1576,1552,1566,1536,1481,1457,1445,1497,1356,1356,1338,1296,1267,1237,1207,1177,1147,1201,1087,1057,1027,997,967,939,925,977,933,939,963,969,954,965,946,971,957,961,990,1034,966,981,982,978,974,1000,1001,974,962,961,971,982,969,980,984,978,968,1584,1625,1604,1731,1958,2285,2438,2647,2660,2722,2708,2644,2539,2598,2501,2478,2403,2307,2260,2214,2167,2121,2074,2230,2093,2161,2061,1842,1796,1749,1740,1698,1620,1646,1579,1609,1633,1674,1757,1816,1765,1792,1819,1787,1799,1825,1795,1802,1805,1787,1809,1810,1820,1831,1955,1907,1839,1825,1856,1794,1812,1822,1861,1833,1812,638,639,641,643,657,713,792,871,944,979,983,969,1010,940,926,912,898,950,884,856,842,828,814,800,786,772,758,744,730,716,702,688,674,660,649,646,647,649,632,636,637,648,645,647,641,649,648,646,642,642,647,649,647,649,655,655,656,652,653,652,656,680,678,682,677,1461,1477,1507,1641,1763,2080,2295,2524,2522,2541,2507,2467,2499,2413,2374,2287,2230,2185,2161,2142,2052,2038,1995,1970,1880,1828,1827,1738,1694,1667,1619,1560,1545,1520,1481,1556,1494,1538,1621,1627,1671,1948,1696,1618,1680,1782,1698,1667,1765,1733,1673,1674,1747,1736,1721,1634,1656,1658,1696,1702,1629,1681,1651,1649,1644,1218,1220,1238,1232,1359,1595,1765,1882,1946,2037,1996,1931,1988,1860,1852,1843,1781,1812,1746,1659,1639,1671,1590,1562,1512,1513,1497,1463,1390,1353,1356,1278,1242,1232,1199,1248,1210,1217,1258,1259,1266,1288,1265,1269,1268,1281,1280,1371,1288,1267,1283,1313,1350,1311,1313,1291,1269,1303,1276,1271,1273,1305,1281,1305,1279,1232,1195,1221,1205,1369,1500,1755,1834,1972,1935,2010,1953,1915,1824,1852,1777,1795,1751,1742,1647,1623,1583,1589,1558,1594,1460,1429,1400,1367,1337,1306,1319,1263,1252,1208,1208,1213,1217,1250,1235,1238,1243,1241,1268,1260,1256,1261,1266,1287,1273,1276,1272,1271,1291,1307,1281,1281,1299,1295,1309,1299,1288,1318,1341,1328,1187,1174,1178,1215,1345,1554,1817,2011,2085,2078,2057,2009,1982,1944,1928,1869,1854,1801,1756,1740,1688,1635,1605,1589,1531,1493,1474,1418,1394,1343,1318,1255,1250,1201,1200,1194,1199,1206,1261,1253,1256,1267,1251,1274,1325,1326,1264,1291,1277,1260,1262,1302,1312,1326,1321,1300,1311,1322,1330,1306,1284,1294,1267,1271,1266,1307,1310,1323,1355,1501,1760,1933,2046,2106,2149,2132,2099,2161,2008,1997,1985,1911,2044,1902,1792,1769,1772,1705,1684,1632,1630,1611,1575,1500,1461,1446,1381,1344,1338,1301,1328,1313,1321,1371,1365,1361,1379,1371,1395,1398,1413,1392,1397,1424,1411,1455,1474,1466,1451,1430,1397,1412,1406,1395,1420,1406,1398,1406,1449,1407,856,840,821,857,901,997,1075,1257,1220,1344,1361,1305,1285,1318,1255,1264,1242,1221,1162,1179,1123,1140,1106,1086,1065,1057,1030,961,968,941,937,884,904,869,861,867,855,855,837,845,859,838,843,851,855,852,853,854,859,855,855,856,855,863,860,868,881,883,866,869,870,871,876,878,869,1086,1136,1023,1043,1150,1286,1406,1638,1623,1760,1766,1666,1596,1593,1618,1619,1529,1537,1473,1412,1386,1430,1422,1349,1367,1316,1261,1220,1208,1225,1148,1127,1107,1049,1052,1062,1065,1126,1106,1104,1103,1213,1147,1124,1127,1141,1128,1136,1145,1144,1146,1166,1177,1172,1161,1139,1128,1137,1123,1122,1113,1138,1134,1143,1101,1847,1856,1900,2127,2324,2586,2769,2838,2871,2917,2897,2800,2723,2672,2732,2682,2561,2549,2528,2486,2459,2444,2339,2235,2268,2152,2107,2056,2015,2027,1968,1924,1860,1844,1820,1848,1826,1945,2214,2220,2223,2198,2256,2269,2238,2283,2257,2274,2301,2290,2302,2318,2318,2339,2316,2278,2300,2309,2303,2337,2305,2307,2326,2383,2307,1344,1334,1307,1381,1541,1697,1933,2062,2078,2161,2165,2269,2011,1970,1987,1960,1886,1888,1818,1833,1755,1768,1745,1651,1673,1592,1558,1522,1492,1524,1423,1420,1362,1337,1312,1338,1322,1402,1399,1387,1391,1410,1403,1428,1429,1444,1420,1429,1457,1441,1484,1488,1495,1494,1460,1427,1436,1455,1445,1453,1443,1440,1459,1499,1459,1523,1583,1521,1672,1827,2052,2262,2355,2364,2449,2512,2336,2316,2258,2246,2237,2189,2138,2071,2031,2012,1990,1967,1885,1898,1873,1820,1709,1671,1697,1607,1595,1554,1535,1535,1556,1545,1617,1657,1666,1654,1682,1686,1663,1672,1703,1673,1700,1674,1711,1702,1708,1693,1709,1708,1735,1723,1708,1706,1708,1735,1718,1725,1713,1742,1790,1791,1827,2030,2230,2476,2647,2750,2786,2833,2886,2802,2643,2593,2654,2642,2486,2476,2553,2499,2411,2399,2329,2211,2203,2089,2045,2035,1993,2060,1911,1866,1803,1786,1762,1872,1768,1849,2091,2079,2099,2125,2150,2133,2150,2165,2137,2148,2185,2179,2269,2272,2257,2217,2260,2251,2198,2224,2222,2205,2222,2210,2223,2211,2224,850,853,855,859,890,974,1090,1205,1291,1330,1330,1310,1291,1271,1251,1232,1212,1220,1173,1153,1134,1114,1094,1075,1055,1035,1016,996,976,957,937,917,898,879,865,891,873,895,885,876,879,878,894,900,913,925,894,900,898,898,898,892,893,922,912,897,894,898,885,905,896,901,893,909,902,0,0,0,0,0,0,0,0,0,0,0,0,0,0,0,0,0,0,0,0,0,0,0,0,0,0,0,0,0,0,0,0,0,0,0,0,0,0,0,0,0,0,0,0,0,0,0,0,0,0,0,0,0,0,0,0,0,0,0,0,0,0,0,0,0,417,419,409,410,412,443,502,562,621,668,677,666,706,645,634,623,612,617,590,580,569,558,547,536,525,554,504,493,495,471,460,449,439,428,417,413,414,415,411,423,425,431,407,426,417,435,417,415,527,501,422,455,524,515,499,411,426,446,465,433,415,427,437,408,399,1287,1231,1207,1282,1418,1560,1725,1935,1898,1974,1965,1925,1881,1902,1821,1819,1788,1762,1689,1722,1622,1618,1628,1595,1564,1515,1473,1415,1391,1431,1345,1287,1290,1276,1260,1252,1251,1244,1267,1310,1273,1279,1309,1291,1290,1302,1300,1315,1319,1294,1302,1310,1318,1318,1329,1332,1329,1327,1341,1335,1343,1357,1368,1352,1352,754,798,758,746,792,832,926,1021,1095,1152,1164,1128,1111,1095,1127,1074,1061,1047,1029,1011,997,963,945,930,943,911,880,877,866,906,815,799,782,766,752,750,760,753,738,736,753,840,764,739,760,789,768,754,763,762,763,760,769,769,787,771,768,764,775,782,766,777,771,776,782,302,303,304,305,306,323,366,408,451,492,504,496,488,480,472,464,456,448,440,432,424,416,408,400,392,384,376,368,360,352,344,336,328,320,311,307,308,309,311,302,297,300,299,303,360,358,304,333,318,300,296,347,351,361,358,358,356,360,360,340,328,315,304,302,299,1135,1179,1090,1132,1231,1361,1549,1731,1750,1841,1924,1753,1731,1669,1692,1648,1601,1607,1540,1517,1481,1445,1489,1411,1429,1382,1333,1277,1277,1278,1206,1208,1162,1127,1102,1127,1109,1208,1181,1180,1225,1495,1238,1168,1220,1314,1250,1189,1285,1265,1207,1219,1296,1276,1264,1175,1213,1204,1253,1253,1195,1236,1197,1203,1218,1044,1086,1009,1028,1133,1224,1395,1572,1603,1691,1749,1647,1580,1532,1559,1517,1472,1480,1417,1395,1368,1379,1405,1298,1317,1272,1247,1172,1192,1179,1108,1112,1094,1034,1021,1047,1015,1112,1081,1078,1067,1081,1072,1108,1077,1088,1111,1164,1087,1119,1121,1120,1105,1129,1130,1093,1084,1096,1113,1129,1122,1138,1129,1135,1110,312,313,314,315,316,334,379,456,500,541,553,545,536,528,596,586,503,495,487,478,470,430,422,414,405,397,389,380,372,364,355,347,339,330,322,317,318,319,310,310,302,305,310,316,326,333,314,310,319,325,320,310,312,319,315,315,315,317,308,309,307,314,315,312,303,1968,2034,2162,2447,2700,2912,3086,3201,3168,3226,3273,3090,3057,3044,3018,3011,2886,2827,2826,2740,2673,2616,2586,2491,2492,2371,2356,2238,2181,2272,2062,2009,2032,1965,1966,1972,2047,2091,2413,2409,2466,2490,2474,2393,2468,2500,2484,2435,2537,2515,2544,2547,2571,2527,2531,2474,2498,2561,2597,2512,2481,2578,2581,2543,2498,845,830,810,837,877,982,1069,1238,1250,1327,1343,1326,1280,1290,1239,1248,1227,1206,1147,1164,1108,1106,1101,1073,1052,1044,1011,982,956,956,926,873,884,858,851,857,845,844,840,836,837,854,845,854,841,846,847,845,843,845,840,848,846,841,846,854,850,847,846,854,852,866,856,863,853,1315,1305,1276,1345,1501,1651,1886,2016,2033,2117,2121,2056,1969,1929,1946,1920,1847,1849,1843,1796,1718,1732,1710,1616,1639,1558,1526,1490,1458,1493,1393,1390,1333,1308,1282,1309,1293,1372,1371,1380,1382,1396,1420,1441,1407,1430,1392,1440,1425,1447,1403,1403,1426,1445,1422,1432,1438,1448,1424,1422,1413,1425,1427,1422,1392,407,469,410,472,413,443,501,559,617,664,673,663,652,641,631,620,711,599,588,577,568,556,546,535,524,514,503,492,482,471,460,450,439,429,418,414,476,450,420,424,426,430,430,430,426,430,425,440,430,430,433,433,442,449,441,438,440,434,440,440,442,445,437,441,438,757,741,721,746,773,862,934,1089,1068,1183,1202,1161,1143,1155,1106,1118,1099,1081,1024,1043,990,989,988,961,943,937,906,854,856,840,830,780,793,769,761,750,755,754,745,746,755,759,782,756,760,768,759,759,758,761,768,766,760,771,856,823,769,766,761,756,764,762,777,764,755,1043,1003,984,1024,1091,1240,1356,1564,1497,1603,1667,1568,1543,1548,1493,1497,1472,1462,1384,1396,1347,1329,1320,1287,1263,1263,1212,1155,1149,1126,1118,1053,1059,1032,1025,1015,1020,1020,1054,1055,1013,1009,1062,1036,1042,1045,1036,1050,1113,1047,1067,1081,1095,1073,1061,1074,1076,1106,1135,1066,1058,1072,1134,1069,1043,1749,1761,1741,1870,2095,2234,2544,2603,2636,2677,2713,2595,2556,2443,2508,2498,2459,2370,2251,2253,2232,2205,2178,2092,2113,1996,2029,1891,1849,1884,1796,1732,1731,1674,1747,1726,1674,1795,1994,1973,1948,1971,1972,2011,2033,2041,2017,2114,2016,2048,2041,2090,2055,2117,2096,2053,2038,2068,2077,2096,2072,2080,2052,2049,2009,1703,1697,1750,1860,2097,2286,2548,2624,2662,2712,2735,2616,2526,2477,2541,2448,2376,2368,2347,2274,2266,2207,2195,2071,2107,2024,1952,1944,1866,1892,1825,1780,1716,1700,1690,1702,1681,1761,1938,1920,1907,1942,1924,1945,1981,1999,1957,2073,1938,1932,1947,1981,2032,1979,1989,2011,2014,2014,1971,1963,1984,1960,1941,1933,1914,931,935,936,942,1008,1094,1220,1336,1435,1513,1542,1456,1436,1415,1396,1338,1370,1297,1291,1244,1224,1291,1183,1162,1141,1135,1126,1091,1069,1122,1026,1028,976,957,963,948,1004,950,975,978,974,986,986,989,983,1008,977,989,983,981,978,997,992,992,989,993,994,986,996,998,984,997,977,990,984,1707,1727,1772,1899,2125,2417,2476,2658,2692,2685,2710,2650,2523,2506,2501,2476,2408,2391,2337,2286,2257,2238,2220,2100,2137,2092,2050,1909,1895,1862,1810,1761,1739,1792,1719,1706,1703,1764,1961,1940,1966,1961,1973,2010,2042,2053,1983,2025,2037,1989,1986,2054,2054,2079,2045,2056,2047,2083,2063,2039,2025,2027,1986,1994,2001,507,552,510,511,525,560,632,704,777,823,830,817,804,791,778,765,752,767,726,713,700,699,674,661,659,635,622,609,596,583,570,557,553,531,527,543,525,546,539,518,522,525,519,529,522,526,522,527,525,517,521,522,522,525,529,525,524,522,525,527,521,530,519,527,524,1776,1697,1726,1943,2167,2310,2567,2767,2623,2806,2740,2649,2545,2616,2463,2535,2464,2421,2423,2380,2198,2227,2217,2107,2107,2035,2022,1929,1944,1952,1856,1841,1840,1736,1757,1751,1752,1760,1992,1984,1998,2000,2000,1986,2014,2027,2001,2007,2010,2015,2101,2095,2044,2019,2048,2068,2063,2130,2127,2034,2069,2154,2148,2114,2058,755,739,719,744,771,860,932,1087,1066,1181,1200,1159,1141,1153,1104,1116,1097,1079,1022,1041,988,987,986,959,941,935,904,852,854,838,828,778,791,767,759,748,753,752,741,739,756,777,762,764,748,760,755,785,771,756,775,801,836,830,807,778,767,781,769,766,768,792,769,786,760,1481,1486,1640,1604,1752,2160,2408,2272,2298,2377,2542,2303,2270,2235,2182,2165,2096,2170,2104,2014,2059,1944,1902,2007,1872,1791,1753,1798,1798,1633,1604,1552,1612,1501,1504,1646,1548,1540,1648,1641,1647,1723,1695,1673,1667,1706,1677,1709,1734,1690,1704,1715,1726,1721,1716,1701,1669,1682,1666,1663,1655,1679,1696,1695,1637,1158,1138,1128,1164,1265,1409,1546,1742,1680,1812,1804,1742,1711,1723,1670,1669,1658,1630,1549,1596,1510,1484,1487,1429,1423,1386,1346,1292,1297,1259,1232,1179,1182,1156,1152,1139,1146,1157,1195,1156,1165,1161,1176,1189,1174,1182,1176,1190,1215,1205,1205,1213,1215,1231,1213,1222,1200,1229,1234,1236,1236,1227,1252,1265,1257,856,840,821,857,901,997,1075,1257,1220,1344,1361,1305,1285,1318,1255,1264,1242,1221,1162,1179,1123,1140,1106,1086,1065,1057,1030,961,968,941,937,884,904,869,861,867,855,855,837,845,859,838,843,851,855,852,853,854,859,855,855,856,855,863,860,868,881,883,866,869,870,871,876,878,869,526,497,511,530,540,561,607,683,790,776,781,782,770,758,733,734,734,738,733,687,685,673,660,648,626,631,621,606,579,567,555,551,530,529,545,515,504,535,500,501,517,532,511,522,506,524,507,523,515,504,509,513,517,523,516,514,516,509,517,516,510,515,502,510,506,795,786,774,826,863,969,990,1135,1229,1280,1234,1277,1220,1214,1204,1202,1133,1173,1093,1076,1035,1054,1067,1042,1021,953,967,910,896,889,842,861,801,799,830,784,830,827,805,813,816,837,813,810,823,828,822,818,878,854,809,839,878,885,896,839,829,845,863,823,821,846,830,818,807,1582,1546,1616,1696,1868,1986,2189,2315,2346,2346,2325,2289,2253,2216,2179,2144,2119,2128,2118,2053,1995,1936,1899,1904,1939,1797,1762,1803,1673,1637,1600,1572,1534,1524,1532,1515,1506,1558,1623,1635,1609,1621,1618,1648,1631,1656,1670,1741,1652,1687,1667,1678,1658,1718,1686,1654,1666,1648,1664,1698,1673,1702,1688,1698,1666,1080,989,1097,1061,1169,1210,1377,1520,1566,1579,1571,1547,1522,1498,1473,1450,1437,1412,1434,1409,1362,1314,1289,1265,1262,1224,1200,1208,1135,1111,1086,1070,1036,1026,1032,1013,1003,1054,1040,1045,1000,998,1054,1031,1030,1037,1032,1049,1096,1046,1063,1076,1081,1058,1060,1070,1075,1095,1127,1072,1058,1073,1126,1074,1046,1260,1270,1219,1362,1500,1669,1745,1846,2030,2027,1986,2007,1948,1951,1862,1853,1795,1799,1745,1753,1668,1705,1659,1622,1564,1557,1498,1447,1461,1368,1334,1327,1322,1280,1324,1301,1250,1295,1319,1344,1345,1334,1356,1329,1355,1380,1357,1344,1388,1353,1450,1433,1456,1401,1521,1474,1412,1371,1351,1355,1365,1340,1353,1403,1330,1559,1488,1539,1668,1781,1893,2098,2225,2258,2259,2240,2258,2170,2187,2099,2179,2042,2053,2091,1980,1923,1866,1830,1837,1821,1732,1739,1741,1612,1577,1578,1515,1476,1467,1474,1457,1448,1500,1542,1547,1503,1499,1543,1527,1537,1544,1542,1548,1600,1550,1560,1574,1573,1580,1554,1582,1594,1596,1629,1588,1575,1582,1637,1568,1574,1237,1265,1245,1263,1384,1535,1613,1919,1799,1832,1826,1887,1820,1831,1803,1700,1674,1649,1624,1598,1675,1548,1604,1497,1525,1530,1462,1396,1371,1345,1350,1295,1285,1300,1240,1335,1277,1270,1311,1317,1315,1320,1328,1328,1335,1344,1330,1353,1366,1325,1340,1333,1341,1348,1363,1363,1363,1368,1404,1350,1341,1337,1325,1373,1314,386,415,388,424,426,496,520,581,597,690,699,643,633,612,612,643,632,581,610,599,604,576,565,554,544,546,520,509,466,487,476,435,417,442,431,461,459,394,415,412,414,416,417,414,414,415,414,416,416,416,417,425,419,417,423,419,418,418,419,427,419,419,422,420,420,0,0,0,0,0,0,0,0,0,0,0,0,0,0,0,0,0,0,0,0,0,0,0,0,0,0,0,0,0,0,0,0,0,0,0,0,0,0,0,0,0,0,0,0,0,0,0,0,0,0,0,0,0,0,0,0,0,0,0,0,0,0,0,0,0,935,896,937,969,1026,1068,1205,1401,1437,1420,1414,1390,1380,1374,1326,1295,1299,1277,1300,1274,1219,1184,1192,1130,1134,1103,1081,1043,1028,1004,979,968,938,924,920,939,904,955,922,931,922,937,936,947,931,954,935,937,929,929,928,947,944,943,942,944,943,934,947,953,938,951,929,943,935,435,455,437,438,440,468,561,542,609,650,658,649,639,630,620,628,666,593,584,575,565,556,547,522,569,579,510,543,496,522,479,521,486,452,444,440,461,442,437,440,449,458,449,460,441,457,444,465,450,449,450,452,460,463,458,455,462,452,458,456,456,465,444,450,445,213,213,214,219,215,224,253,282,312,341,355,350,344,338,340,327,321,316,310,304,299,293,287,282,276,276,265,259,254,245,240,235,230,225,220,216,216,217,203,203,203,205,261,234,220,232,223,263,225,217,234,211,212,231,220,209,242,211,208,234,226,258,235,227,222,874,866,853,877,956,1038,1111,1271,1372,1362,1366,1356,1343,1336,1282,1276,1249,1253,1205,1198,1142,1160,1126,1104,1082,1055,1028,1002,989,975,925,915,883,877,881,864,879,877,894,878,890,889,886,881,955,953,888,923,911,885,882,943,946,968,951,963,942,965,967,939,920,905,886,886,890,780,772,759,782,845,912,973,1134,1219,1215,1220,1212,1202,1179,1143,1142,1118,1119,1076,1074,1018,1036,1014,1005,970,937,918,893,880,873,827,817,787,784,787,769,786,784,766,766,763,782,771,781,770,783,781,771,774,776,772,772,769,768,774,777,775,777,769,771,774,787,783,787,776,292,293,294,313,296,312,354,395,437,477,488,481,515,465,485,449,479,473,426,418,447,403,395,387,379,394,364,356,348,353,345,350,353,322,314,297,297,298,300,300,302,301,305,305,309,328,310,314,308,310,307,312,308,319,317,311,310,304,301,311,309,310,303,311,307,1734,1735,1834,2021,2402,2504,2690,2724,2881,2822,2793,2811,2703,2693,2594,2571,2541,2544,2453,2421,2387,2373,2291,2252,2171,2166,2081,2031,1978,1921,1864,1811,1832,1767,1766,1834,1772,1788,2044,2111,2057,2084,2111,2076,2090,2129,2092,2094,2114,2078,2118,2100,2124,2124,2284,2234,2144,2121,2153,2087,2103,2106,2144,2152,2098,516,486,501,520,555,548,603,678,771,798,802,764,752,741,753,718,718,706,717,705,670,658,645,634,623,618,608,593,567,555,543,540,519,518,524,505,493,524,510,491,496,498,496,506,506,510,508,506,510,499,496,498,496,502,501,499,501,498,498,496,495,502,495,507,502,1051,960,1031,1082,1132,1169,1331,1473,1520,1534,1526,1503,1479,1456,1431,1409,1396,1373,1395,1371,1324,1277,1253,1230,1227,1189,1167,1175,1103,1079,1055,1040,1007,996,1003,984,974,1024,990,983,998,1014,1009,1012,997,1015,1007,1030,1005,1008,1014,1055,1088,1073,1052,1028,1006,1015,1011,1006,1001,1021,1009,1037,998,534,537,537,526,559,579,698,713,807,859,845,845,820,807,795,791,770,758,750,733,740,692,695,668,671,670,646,653,641,630,579,600,576,540,570,529,543,545,546,546,544,555,553,554,549,567,541,554,550,547,547,560,556,552,553,556,555,555,565,563,548,556,548,553,550,428,398,412,431,433,442,484,544,596,623,630,621,612,603,592,584,587,577,579,569,549,539,529,520,510,509,500,474,464,455,445,444,426,427,435,415,403,435,393,401,403,424,403,402,397,402,399,395,399,399,395,396,396,401,400,400,400,401,396,403,399,406,399,402,400,688,659,709,693,755,763,897,1007,1032,1054,1055,1039,1023,1007,989,975,970,953,974,957,986,888,870,865,838,830,815,782,765,749,732,724,699,693,698,679,668,735,680,684,683,687,692,686,697,694,684,689,686,693,691,694,697,698,692,687,700,694,701,703,695,705,689,692,693,1435,1404,1423,1501,1759,1990,2063,2121,2307,2317,2271,2270,2280,2195,2059,2038,2037,2079,1936,1971,1863,1841,1869,1753,1725,1759,1715,1602,1705,1571,1515,1460,1492,1457,1459,1473,1445,1485,1542,1525,1527,1526,1534,1558,1578,1598,1555,1627,1564,1540,1535,1585,1604,1594,1595,1551,1580,1579,1593,1575,1572,1564,1537,1541,1527,1450,1401,1464,1547,1659,1758,2011,2140,2132,2135,2117,2084,2091,2057,1984,1952,1929,1942,1935,1873,1818,1796,1761,1758,1714,1667,1634,1648,1550,1516,1482,1456,1417,1407,1415,1370,1388,1412,1432,1482,1436,1450,1455,1442,1457,1470,1465,1466,1481,1455,1458,1468,1471,1476,1476,1496,1484,1475,1493,1458,1490,1501,1510,1475,1475,755,749,751,690,754,782,914,1028,1059,1171,1116,1126,1154,1053,1103,1048,1044,1030,968,995,961,906,889,924,855,879,821,808,792,840,758,792,725,767,755,765,759,697,743,732,731,733,743,736,743,736,741,739,737,736,751,745,748,741,739,746,739,747,739,751,747,751,739,737,737,1402,1372,1467,1542,1674,1772,1980,2125,2161,2149,2150,2098,2065,2046,1998,1982,1957,1928,1923,1902,1847,1789,1759,1710,1713,1651,1633,1569,1550,1503,1470,1458,1419,1396,1403,1373,1376,1441,1450,1450,1471,1490,1464,1499,1470,1489,1466,1487,1493,1476,1461,1476,1493,1497,1488,1504,1495,1493,1498,1487,1474,1466,1497,1499,1465,750,753,755,757,810,880,964,1080,1172,1224,1210,1192,1229,1171,1152,1127,1107,1088,1068,1050,1030,1011,992,972,953,934,914,902,888,864,830,843,825,774,789,769,763,765,789,754,758,760,785,786,798,792,778,801,784,771,784,764,766,778,778,770,784,764,762,778,778,793,783,787,782,1480,1388,1411,1539,1750,1761,1956,2125,2196,2135,2182,2137,2104,2008,1984,2032,1984,1901,2017,1915,1898,1763,1748,1687,1678,1648,1603,1555,1567,1538,1457,1434,1453,1399,1380,1431,1430,1456,1497,1486,1466,1488,1483,1526,1488,1494,1529,1580,1505,1520,1526,1521,1514,1526,1528,1513,1511,1507,1498,1528,1514,1521,1517,1512,1489,426,396,410,429,431,440,482,542,594,621,628,619,610,601,590,582,585,575,577,567,547,537,527,518,508,507,498,472,462,453,443,442,424,425,433,413,401,433,396,406,404,409,409,410,407,412,403,419,404,404,410,412,422,431,422,417,414,408,419,417,418,422,410,417,409,1402,1398,1420,1413,1645,1726,2006,2093,2106,2196,2126,2119,2129,2015,2046,2021,1956,1926,1849,1858,1808,1790,1706,1722,1639,1644,1572,1588,1511,1626,1445,1459,1382,1420,1410,1422,1417,1449,1473,1522,1478,1490,1496,1483,1498,1511,1506,1507,1522,1496,1498,1509,1512,1518,1516,1537,1525,1516,1534,1499,1532,1541,1551,1513,1509,840,781,844,849,925,939,1070,1199,1219,1268,1265,1246,1227,1207,1187,1169,1160,1141,1168,1134,1105,1062,1041,1023,1024,976,952,937,917,897,877,844,825,829,834,815,783,855,799,808,818,831,817,827,816,831,809,823,815,809,813,822,825,828,825,823,816,821,829,818,815,812,808,824,815,526,497,511,530,540,561,607,683,790,776,781,782,770,758,733,734,734,738,733,687,685,673,660,648,626,631,621,606,579,567,555,551,530,529,545,515,504,535,500,501,517,532,511,522,506,524,507,523,515,504,509,513,517,523,516,514,516,509,517,516,510,515,502,510,506,438,439,441,442,443,481,545,610,674,721,729,717,706,694,682,671,659,647,636,622,612,601,589,577,592,580,542,569,519,507,496,484,472,460,449,445,446,447,426,427,427,430,434,439,433,433,434,435,435,437,438,439,439,440,441,442,442,444,445,446,447,449,450,449,450,360,360,362,363,364,387,443,490,527,586,596,585,577,567,558,558,539,530,520,511,502,491,478,473,464,455,445,436,428,456,411,398,389,378,361,365,366,367,360,365,362,366,370,369,366,376,362,369,365,374,363,372,374,374,370,369,371,370,377,383,368,376,364,370,368,838,840,843,847,888,994,1092,1280,1303,1375,1372,1317,1296,1275,1254,1263,1212,1190,1186,1165,1155,1080,1103,1082,1036,1039,1089,973,958,936,938,931,923,852,853,850,896,855,850,841,867,886,883,881,853,870,873,905,882,881,893,940,961,948,943,898,874,906,886,881,876,908,884,922,870,346,347,348,349,350,355,401,440,494,537,548,539,531,522,513,505,496,488,497,488,462,426,464,455,421,437,428,395,393,384,376,383,374,350,356,351,352,353,334,334,334,337,338,337,339,337,340,340,338,338,340,341,341,340,341,345,341,342,339,346,345,343,342,341,340,700,705,707,763,732,874,894,990,1087,1214,1164,1181,1232,1159,1058,1162,1022,1066,1003,985,1011,970,933,965,906,878,859,875,863,788,822,815,793,716,755,713,758,715,739,753,749,833,793,775,764,753,761,794,768,771,784,768,745,749,761,772,758,751,770,768,766,759,777,755,749,782,784,786,815,863,917,1028,1186,1236,1284,1283,1230,1235,1214,1194,1181,1154,1134,1114,1088,1080,1006,1031,1011,992,971,1023,907,894,892,898,877,831,795,797,793,796,798,791,783,800,829,801,810,797,814,815,810,820,800,815,846,863,853,840,815,797,830,807,800,795,829,809,835,801,1206,1181,1214,1217,1356,1605,1934,2031,2114,2111,2132,2052,2142,1975,1937,1898,1860,1821,1783,1779,1806,1684,1643,1650,1580,1529,1490,1425,1424,1374,1359,1320,1243,1228,1238,1228,1236,1243,1284,1283,1285,1314,1318,1304,1313,1313,1306,1313,1325,1326,1315,1317,1329,1334,1328,1313,1319,1319,1307,1303,1292,1327,1317,1321,1283,1129,1092,1123,1162,1218,1391,1545,1667,1725,1807,1801,1807,1722,1774,1731,1593,1721,1626,1508,1630,1514,1433,1422,1447,1418,1371,1328,1283,1283,1235,1226,1179,1154,1157,1124,1121,1110,1110,1157,1175,1143,1160,1154,1156,1216,1175,1153,1190,1199,1164,1192,1160,1169,1175,1182,1184,1180,1192,1231,1180,1175,1165,1151,1187,1144,909,871,911,868,945,1056,1166,1256,1341,1375,1431,1421,1313,1313,1292,1277,1293,1238,1234,1172,1272,1211,1200,1136,1086,1128,1093,1037,1053,1010,917,1019,946,938,873,879,916,951,900,905,916,953,922,936,908,923,912,905,922,914,923,945,939,943,930,939,928,950,945,935,935,953,924,942,929,0,0,0,0,0,0,0,0,0,0,0,0,0,0,0,0,0,0,0,0,0,0,0,0,0,0,0,0,0,0,0,0,0,0,0,0,0,0,0,0,0,0,0,0,0,0,0,0,0,0,0,0,0,0,0,0,0,0,0,0,0,0,0,0,0,524,525,527,528,535,584,701,777,817,960,900,966,947,906,846,799,819,806,757,779,765,715,701,687,674,660,646,632,618,604,590,679,562,548,536,532,533,535,529,536,531,547,530,540,537,544,541,545,542,539,546,541,547,548,547,546,553,548,550,542,550,555,553,557,559,834,810,839,864,988,985,1130,1270,1312,1403,1404,1374,1338,1356,1347,1227,1304,1236,1180,1221,1200,1123,1101,1099,1077,1036,1033,994,969,929,926,915,868,863,867,863,866,851,845,854,859,877,937,914,876,920,875,967,906,939,913,879,908,946,907,885,944,904,890,925,917,960,912,904,892,416,416,419,420,422,453,519,575,621,683,691,678,669,658,684,645,625,630,603,592,581,568,554,548,537,526,515,519,494,498,474,460,449,437,418,447,449,425,445,415,419,420,416,429,423,433,429,427,432,419,423,422,420,424,426,425,423,424,422,422,422,426,424,431,427,391,391,393,394,393,424,469,538,580,641,650,638,629,604,609,574,588,577,567,557,546,535,521,515,505,494,484,533,452,442,432,432,422,395,392,397,398,399,395,395,394,394,397,392,396,396,395,394,393,393,399,397,399,400,400,396,394,394,399,404,399,400,396,395,399,924,890,930,964,1007,1116,1274,1427,1460,1532,1552,1520,1461,1476,1485,1394,1437,1366,1304,1347,1319,1227,1252,1215,1175,1133,1138,1101,1074,1017,1023,1009,964,957,968,954,957,933,982,985,973,1060,1039,1030,1004,1004,1016,1060,1013,1042,1047,1028,989,1011,1013,1029,1037,996,1030,1082,1039,1040,1050,1020,1015,1151,1188,1167,1194,1319,1512,1670,1802,1852,1901,1862,1800,1790,1742,1775,1732,1655,1626,1634,1624,1621,1485,1503,1485,1431,1411,1495,1364,1323,1291,1284,1269,1240,1169,1183,1183,1241,1187,1225,1213,1213,1225,1322,1302,1262,1290,1260,1357,1306,1304,1305,1252,1260,1306,1300,1259,1326,1294,1271,1329,1302,1351,1337,1358,1315,428,429,431,432,434,469,531,593,656,703,711,700,688,677,666,654,643,631,620,654,597,586,575,563,601,588,529,556,507,495,484,473,461,450,439,434,436,437,445,432,435,433,441,445,434,441,441,447,441,434,442,442,440,447,446,442,437,447,439,453,442,442,440,448,452,317,318,319,320,321,323,365,399,449,490,579,493,485,477,470,534,454,446,456,448,488,388,426,418,384,401,393,361,359,351,343,403,343,320,327,322,323,324,311,324,310,319,320,316,318,322,312,311,315,317,315,311,314,315,315,316,315,315,314,317,309,319,314,316,310,978,953,984,987,1039,1177,1354,1511,1538,1624,1580,1589,1549,1582,1515,1446,1446,1393,1335,1373,1349,1317,1280,1240,1216,1191,1167,1153,1128,1073,1079,1036,1014,1008,984,981,984,997,983,1028,992,1003,1006,993,998,1009,1013,1006,1023,998,1004,1009,1009,1014,1021,1032,1022,1021,1031,1012,1032,1062,1078,1050,1049,529,530,532,581,540,589,667,746,823,869,874,860,845,832,818,803,790,777,839,800,733,721,768,693,679,665,651,637,623,609,595,582,568,554,541,537,538,540,534,541,533,546,545,554,541,557,544,546,539,539,540,550,548,545,547,548,545,541,555,556,542,548,541,549,542,322,331,324,325,326,346,392,438,484,527,538,530,533,512,504,495,487,478,469,461,452,443,435,426,418,409,400,392,383,374,366,357,349,340,339,327,328,329,311,309,317,327,316,320,309,319,319,310,315,315,314,317,317,326,322,322,314,324,317,324,325,323,324,330,327,886,879,946,947,953,1115,1161,1284,1377,1472,1469,1444,1596,1416,1365,1410,1325,1337,1246,1223,1260,1221,1196,1235,1121,1164,1086,1076,1150,981,1004,1023,971,903,931,890,953,904,928,932,919,986,957,931,934,958,939,955,986,951,959,940,931,936,952,952,932,938,928,938,925,937,946,942,914,722,724,727,729,724,808,885,1052,1124,1155,1155,1146,1086,1109,1090,1062,1014,1034,1033,1014,1006,898,925,941,897,870,852,810,829,810,814,811,777,709,737,706,779,737,720,720,730,758,724,745,724,733,725,726,741,725,718,733,730,747,736,740,732,735,741,737,737,745,723,751,735,696,698,700,702,722,756,888,930,1038,1006,1024,998,1050,983,1012,956,1002,929,972,958,946,932,864,847,889,862,853,819,778,797,779,761,771,724,710,706,742,761,705,715,723,739,725,733,717,737,717,735,722,716,723,731,738,746,737,735,730,724,740,738,732,735,723,732,725,563,565,566,594,576,627,708,789,869,915,921,906,892,877,863,848,834,820,805,841,776,762,747,733,719,704,718,675,688,646,659,644,603,589,576,571,573,574,569,569,572,577,571,579,575,595,578,579,580,572,578,575,577,578,573,590,575,575,575,572,573,578,593,580,571,1121,1110,1137,1167,1203,1387,1547,1820,1747,1784,1771,1753,1717,1812,1665,1656,1611,1677,1547,1531,1493,1482,1504,1423,1446,1403,1382,1281,1253,1280,1275,1219,1189,1152,1150,1147,1156,1175,1189,1195,1204,1235,1207,1202,1208,1212,1214,1216,1294,1252,1258,1326,1427,1322,1305,1243,1220,1243,1250,1215,1207,1243,1228,1218,1197,566,583,570,572,591,666,708,819,898,940,943,928,858,843,885,870,826,862,827,859,798,783,768,754,694,680,667,659,640,667,652,599,585,656,579,590,587,578,570,569,563,572,577,605,572,579,593,587,576,582,571,579,580,567,580,584,583,582,577,578,591,600,593,600,590,527,528,530,579,538,587,665,744,821,867,872,858,843,830,816,801,788,775,837,798,731,719,766,691,677,663,649,635,621,607,593,580,566,552,539,535,536,538,530,530,526,540,527,536,532,540,536,539,536,534,539,537,539,539,539,537,546,540,539,530,541,546,544,546,546,1313,1199,1205,1299,1410,1504,1695,1872,1903,1930,1918,1928,1999,1827,1854,1766,1978,1705,1675,1644,1807,1583,1553,1523,1492,1506,1590,1401,1449,1503,1342,1279,1400,1289,1215,1213,1318,1302,1313,1299,1298,1315,1447,1407,1351,1384,1348,1449,1421,1427,1411,1358,1379,1402,1428,1359,1427,1407,1389,1428,1391,1453,1442,1473,1398,117,118,118,118,119,121,137,152,167,183,194,191,188,185,182,179,176,173,170,167,164,161,158,155,152,149,146,143,140,137,134,131,128,125,122,119,119,120,104,104,104,105,115,106,106,105,106,105,108,112,110,106,109,105,113,108,108,109,116,106,105,105,108,110,106,438,439,441,442,443,481,545,610,674,721,729,717,706,694,682,671,659,647,636,622,612,601,589,577,592,580,542,569,519,507,496,484,472,460,449,445,446,447,426,427,427,430,434,439,433,433,434,435,435,437,438,439,439,440,441,442,442,444,445,446,447,449,450,449,450,226,226,227,227,228,238,266,294,323,351,363,358,352,347,341,336,330,325,320,314,309,303,298,292,287,281,276,270,265,260,254,249,243,238,232,229,229,230,217,218,217,219,225,227,223,213,220,224,218,239,310,219,217,217,216,215,213,216,224,230,239,217,215,219,213,486,487,489,513,524,562,634,670,741,782,785,811,802,750,741,729,751,743,696,678,665,693,641,662,617,605,598,580,568,559,547,565,520,537,522,496,496,529,500,500,499,503,513,500,509,502,503,501,500,504,506,511,504,513,554,547,511,514,507,502,506,506,523,510,506,1271,1290,1292,1337,1386,1615,1715,1945,1915,2020,1951,1894,1921,1926,1801,1774,1743,1737,1775,1653,1700,1727,1698,1532,1575,1583,1519,1435,1523,1351,1320,1290,1261,1307,1228,1226,1229,1309,1288,1322,1284,1287,1342,1296,1300,1306,1305,1321,1335,1322,1321,1311,1321,1320,1353,1337,1323,1329,1365,1320,1332,1332,1351,1332,1325,759,735,720,722,766,898,928,1125,1119,1185,1184,1138,1147,1187,1149,1066,1048,1054,1097,994,976,1033,962,922,904,953,868,850,832,814,796,778,760,788,729,726,728,730,728,728,729,736,752,729,739,733,733,731,736,738,735,745,743,753,840,806,752,749,739,733,738,740,761,741,736,917,965,922,967,1029,1206,1337,1429,1452,1548,1528,1511,1472,1456,1443,1414,1388,1416,1347,1329,1286,1287,1262,1230,1210,1208,1214,1165,1162,1079,1059,997,999,1003,980,957,974,989,977,994,989,1011,1032,1013,1028,1046,1017,1028,1035,1039,1058,1022,1037,1073,1115,1069,1050,1040,1023,1024,1042,1022,1031,1031,1017,1250,1173,1195,1219,1309,1527,1622,1854,1825,2008,1920,1809,1838,1844,1720,1694,1665,1660,1699,1578,1550,1656,1628,1463,1508,1527,1496,1371,1357,1328,1261,1232,1204,1299,1206,1168,1171,1251,1227,1256,1214,1212,1249,1210,1226,1236,1230,1237,1276,1245,1241,1312,1257,1254,1300,1274,1257,1260,1283,1237,1257,1260,1290,1249,1249,1129,1185,1189,1227,1250,1377,1540,1673,1795,1785,1784,1751,1852,1698,1672,1646,1623,1590,1567,1540,1528,1488,1461,1429,1409,1383,1360,1330,1302,1281,1254,1283,1188,1160,1153,1203,1164,1162,1228,1197,1202,1221,1192,1233,1206,1233,1245,1248,1239,1223,1225,1229,1239,1257,1252,1222,1231,1227,1231,1227,1225,1235,1222,1243,1222,599,600,585,604,616,675,764,852,855,956,911,942,864,893,878,923,889,834,799,784,827,794,760,761,716,696,734,718,654,687,671,656,611,579,621,590,581,605,588,583,576,586,590,618,585,593,606,600,588,593,583,592,592,578,593,596,594,593,588,590,601,607,601,607,596,395,349,406,387,351,403,452,486,553,563,551,567,583,575,567,559,527,524,535,494,464,456,469,490,465,457,460,443,439,431,423,415,426,395,379,375,389,368,364,366,365,376,477,425,395,427,395,484,415,422,427,377,388,415,400,380,445,392,378,426,410,468,430,420,402,613,631,617,618,651,748,786,913,954,1027,1028,984,1038,947,938,927,894,912,870,864,840,829,836,797,778,767,740,731,720,737,685,674,656,663,647,621,623,628,623,623,619,625,630,644,628,631,646,636,628,632,630,634,632,630,640,640,637,636,633,639,644,667,668,671,662,0,0,0,0,0,0,0,0,0,0,0,0,0,0,0,0,0,0,0,0,0,0,0,0,0,0,0,0,0,0,0,0,0,0,0,0,0,0,0,0,0,0,0,0,0,0,0,0,0,0,0,0,0,0,0,0,0,0,0,0,0,0,0,0,0,318,319,303,321,322,340,384,428,461,490,496,488,485,500,491,483,475,467,459,430,442,434,426,398,395,382,393,385,377,368,360,352,344,318,330,306,324,307,311,307,308,310,312,308,312,309,311,312,312,309,314,312,310,309,310,315,312,316,308,310,318,314,311,308,309,565,568,568,567,578,634,714,792,873,915,914,904,881,872,860,846,824,818,809,789,771,761,744,728,718,704,699,675,661,649,634,620,601,589,579,575,577,578,564,577,575,587,582,588,577,595,578,585,578,575,582,590,590,592,591,588,585,582,599,593,584,596,594,605,595,472,472,474,473,479,545,614,651,720,778,767,755,738,731,723,711,691,684,675,660,647,638,624,608,601,589,589,566,553,543,531,519,505,494,484,481,482,516,476,471,470,475,502,500,504,506,493,510,500,487,500,480,481,495,488,483,500,483,476,494,494,508,499,501,491,411,412,396,415,416,448,506,602,606,624,629,618,634,646,635,624,614,603,592,561,581,560,545,529,523,482,503,492,485,475,464,439,439,401,421,400,418,402,401,393,407,424,412,409,404,411,411,419,416,411,422,455,472,454,448,419,404,430,414,408,402,427,416,433,408,1523,1493,1526,1595,1745,1977,2194,2283,2343,2359,2437,2296,2382,2277,2190,2230,2110,2173,2077,2025,1958,1946,1973,1864,1893,1876,1872,1749,1766,1703,1604,1595,1562,1538,1546,1537,1562,1523,1673,1665,1667,1704,1731,1721,1694,1690,1715,1757,1729,1756,1761,1787,1751,1739,1761,1746,1733,1723,1757,1802,1740,1750,1762,1742,1725,215,216,217,217,218,226,253,280,306,333,345,340,335,329,324,319,314,309,304,299,294,288,283,278,273,268,263,258,253,247,242,237,232,227,222,218,219,219,208,204,205,204,215,215,207,215,207,212,211,213,212,212,217,224,220,222,210,216,215,219,223,220,224,230,222,730,706,691,693,733,860,886,1157,1072,1139,1138,1093,1103,1143,1038,1024,1006,1014,1124,955,937,995,925,886,868,918,834,872,799,782,765,747,730,759,700,697,698,700,701,699,697,713,758,752,744,736,720,767,748,737,740,714,716,751,743,720,747,722,710,743,732,758,745,766,728,434,435,446,438,449,474,546,593,687,721,723,714,705,674,663,652,641,630,619,626,597,574,563,580,573,557,532,521,510,499,488,477,466,466,444,437,442,453,435,438,439,449,502,484,461,492,469,507,485,480,477,450,457,480,464,450,490,462,450,477,470,500,476,475,461,127,128,128,128,129,131,145,159,173,187,197,194,191,188,186,183,180,178,175,172,169,167,174,161,158,156,153,150,148,145,142,139,137,134,131,129,129,130,126,113,113,113,119,118,119,116,116,119,129,121,126,125,126,127,120,119,121,129,133,131,121,121,135,121,121,387,388,389,390,391,420,473,525,578,647,708,620,632,600,591,581,571,646,563,542,532,523,561,503,493,484,474,464,455,445,435,425,416,406,396,392,393,394,383,383,387,397,393,389,392,395,389,393,394,395,414,419,429,411,396,391,397,403,403,392,396,403,392,399,393,1091,1098,1110,1165,1218,1460,1571,1718,1725,1809,1802,1773,1737,1695,1689,1666,1651,1567,1585,1511,1520,1512,1427,1417,1403,1344,1364,1357,1292,1232,1243,1189,1166,1170,1146,1134,1142,1148,1156,1175,1179,1195,1203,1183,1183,1220,1181,1185,1198,1173,1195,1191,1205,1208,1360,1307,1216,1195,1196,1187,1175,1173,1188,1216,1169,1139,1114,1107,1153,1199,1443,1488,1723,1697,1806,1740,1686,1717,1725,1641,1578,1588,1585,1605,1505,1442,1564,1484,1394,1334,1372,1359,1307,1264,1199,1200,1172,1145,1163,1083,1081,1084,1115,1129,1130,1124,1166,1142,1143,1141,1157,1143,1161,1158,1153,1146,1142,1131,1133,1147,1153,1139,1144,1128,1133,1135,1149,1147,1151,1128,459,488,492,463,511,504,581,610,737,772,732,769,706,738,679,732,657,706,655,715,672,628,633,651,580,578,561,583,563,552,569,546,554,482,470,466,525,513,502,480,483,483,490,492,487,496,487,487,492,495,493,495,499,504,502,502,496,500,496,495,503,506,509,508,508,1157,1102,1101,1150,1214,1414,1501,1757,1711,1765,1770,1719,1750,1704,1631,1575,1580,1562,1619,1484,1457,1430,1425,1392,1364,1396,1295,1305,1255,1214,1174,1148,1133,1111,1099,1097,1115,1092,1103,1100,1115,1127,1107,1143,1119,1139,1114,1153,1135,1118,1129,1123,1137,1160,1142,1135,1146,1121,1131,1141,1139,1149,1129,1157,1133,608,611,612,614,626,687,778,869,966,999,1002,986,1087,954,938,922,906,890,874,858,857,826,810,794,778,763,747,731,715,699,683,667,651,635,621,618,619,621,624,617,631,618,624,634,622,625,633,631,639,632,636,639,639,646,641,638,626,644,632,642,641,646,644,655,672,1135,1095,1073,1145,1201,1426,1492,1725,1761,1841,1807,1728,1761,1679,1667,1657,1594,1548,1545,1479,1521,1420,1415,1409,1334,1354,1339,1253,1289,1263,1189,1172,1157,1133,1154,1082,1085,1152,1169,1159,1152,1239,1211,1207,1193,1176,1197,1233,1205,1239,1238,1237,1176,1185,1210,1216,1216,1195,1238,1289,1229,1216,1246,1204,1205,125,126,126,126,127,129,143,157,171,185,195,192,189,186,184,181,178,176,173,170,167,165,172,159,156,154,151,148,146,143,140,137,135,132,129,127,127,128,113,115,113,116,115,121,117,126,123,116,125,118,119,117,117,120,116,116,118,120,116,116,116,118,117,119,115,1105,1136,1262,1141,1336,1373,1618,1841,1808,1816,1761,1798,1702,1715,1642,1676,1632,1627,1551,1591,1544,1474,1462,1506,1378,1358,1325,1418,1292,1265,1264,1280,1248,1136,1124,1207,1185,1173,1208,1216,1226,1256,1233,1243,1229,1253,1234,1234,1228,1225,1220,1234,1244,1251,1254,1252,1231,1252,1259,1243,1243,1231,1244,1253,1233,521,540,524,525,550,564,652,733,797,950,872,831,845,805,792,779,748,778,714,711,714,700,697,659,661,687,635,622,598,596,583,547,557,532,532,528,530,531,525,521,537,615,542,518,540,568,545,530,536,534,537,534,542,537,541,527,534,530,544,555,531,546,530,534,544,226,226,227,227,228,238,266,294,323,351,363,358,352,347,341,336,330,325,320,314,309,303,298,292,287,281,276,270,265,260,254,249,243,238,232,229,229,230,217,218,217,219,225,227,223,213,220,224,218,239,310,219,217,217,216,215,213,216,224,230,239,217,215,219,213,629,619,621,612,636,694,748,873,934,973,960,978,953,932,920,923,908,888,873,832,847,801,786,770,740,766,719,708,726,709,695,680,655,641,622,632,624,626,626,619,628,671,647,655,647,619,629,644,628,633,624,626,662,702,626,624,636,621,625,626,630,626,622,638,619,890,902,905,904,968,1068,1136,1301,1360,1391,1410,1399,1386,1399,1351,1302,1343,1318,1264,1224,1197,1142,1140,1135,1124,1122,1084,1055,1049,997,979,977,958,955,927,920,940,942,919,947,944,937,963,940,953,977,946,943,971,931,957,952,966,968,1129,1080,988,955,958,951,938,935,952,1001,930,1615,1638,1662,1953,2109,2300,2369,2570,2506,2517,2492,2488,2552,2379,2434,2455,2304,2306,2225,2135,2189,2098,2016,2014,1971,2025,1958,1837,1882,1837,1748,1694,1739,1671,1692,1632,1711,1649,1830,1816,1849,1901,1884,1926,1871,1865,1878,1897,1917,1884,1881,1923,1947,1950,1899,1879,1871,1885,1865,1871,1869,1899,1872,1905,1876,1120,1137,1115,1181,1286,1396,1504,1680,1732,1757,1744,1722,1762,1667,1642,1694,1629,1597,1546,1494,1518,1438,1411,1422,1390,1421,1408,1292,1335,1276,1239,1194,1271,1137,1126,1130,1201,1145,1202,1212,1200,1287,1246,1245,1237,1229,1237,1269,1241,1253,1245,1245,1212,1229,1225,1246,1250,1221,1241,1264,1237,1227,1245,1220,1215,1356,1416,1405,1502,1614,1740,1853,2067,2120,2148,2152,2165,2071,2060,2033,1990,1944,1957,1947,1892,1804,1790,1697,1689,1648,1661,1599,1598,1503,1502,1496,1447,1422,1395,1419,1337,1425,1390,1486,1488,1459,1478,1482,1525,1486,1505,1519,1586,1502,1545,1529,1541,1511,1568,1544,1502,1502,1495,1516,1549,1537,1564,1542,1550,1509,1558,1630,1594,1872,2075,2207,2218,2469,2419,2432,2407,2405,2433,2299,2355,2378,2228,2279,2215,2063,2118,2029,1948,1947,1947,2027,1907,1776,1849,1737,1727,1636,1596,1614,1634,1574,1653,1591,1726,1742,1747,1746,1765,1735,1756,1790,1757,1762,1805,1748,1770,1764,1778,1801,1834,1847,1797,1777,1767,1770,1754,1743,1766,1834,1743,1074,1077,1204,1097,1171,1290,1443,1525,1591,1641,1702,1601,1579,1557,1535,1513,1491,1469,1481,1464,1403,1468,1380,1336,1314,1365,1340,1314,1289,1215,1177,1159,1187,1196,1091,1088,1091,1108,1130,1133,1128,1181,1120,1175,1135,1166,1154,1162,1181,1145,1161,1145,1158,1176,1190,1156,1156,1165,1164,1157,1157,1159,1161,1197,1172,279,280,280,281,294,296,336,375,414,453,466,458,451,444,436,429,421,414,406,399,392,384,377,369,362,354,347,340,332,325,317,310,302,295,288,283,284,285,266,265,265,268,269,271,269,270,270,271,271,271,271,272,272,271,273,274,274,276,274,274,276,277,277,278,277,242,242,243,244,245,256,290,324,359,368,381,399,370,386,358,373,367,360,354,347,341,334,328,321,315,308,302,295,289,282,268,269,263,256,250,245,246,247,228,227,228,230,230,230,231,231,230,233,233,233,233,234,233,233,234,235,236,238,236,235,238,238,238,238,239,1048,1034,1042,1067,1156,1267,1337,1520,1599,1638,1592,1611,1552,1518,1505,1493,1486,1487,1409,1364,1386,1313,1283,1263,1304,1233,1191,1168,1164,1154,1138,1133,1050,1042,1050,1026,1037,1043,1059,1054,1055,1084,1082,1080,1083,1084,1075,1088,1087,1091,1091,1119,1137,1131,1118,1085,1081,1093,1077,1074,1062,1092,1077,1097,1057,515,529,539,539,527,557,654,675,733,772,781,770,759,749,778,727,717,706,695,685,673,664,653,642,632,621,615,604,614,582,571,579,547,556,546,521,531,545,527,530,531,527,538,536,545,532,538,534,539,537,539,540,546,547,541,557,548,562,550,536,557,533,548,545,533,0,0,0,0,0,0,0,0,0,0,0,0,0,0,0,0,0,0,0,0,0,0,0,0,0,0,0,0,0,0,0,0,0,0,0,0,0,0,0,0,0,0,0,0,0,0,0,0,0,0,0,0,0,0,0,0,0,0,0,0,0,0,0,0,0,967,978,990,988,1071,1147,1264,1434,1492,1522,1536,1538,1475,1475,1457,1419,1419,1398,1373,1295,1300,1246,1248,1201,1185,1176,1143,1118,1107,1085,1064,1039,1026,1005,1000,977,990,993,989,988,1006,1028,999,1028,999,1019,999,1019,1026,999,1001,1011,1016,1042,1028,1014,1008,1007,1020,1022,1014,1014,1000,1038,1011,875,887,897,889,957,1050,1117,1281,1340,1372,1390,1382,1333,1355,1332,1284,1284,1274,1245,1169,1180,1124,1125,1083,1073,1094,1035,1039,1002,982,964,941,943,912,908,882,908,910,905,888,893,907,875,934,894,905,907,908,927,917,919,896,917,938,975,898,899,937,900,925,906,892,922,929,905,82,82,82,83,83,84,95,106,118,129,138,136,134,131,129,127,125,123,120,118,116,114,112,109,107,105,103,101,98,96,94,92,90,87,85,83,83,84,64,64,64,77,67,63,63,64,64,65,65,64,66,65,63,63,64,65,64,64,63,63,64,63,66,64,63,1883,1988,2065,2390,2444,2657,2692,2885,2934,2936,2985,2962,2840,2820,2776,2737,2656,2755,2584,2567,2505,2382,2399,2329,2290,2251,2180,2130,2093,2044,2077,2023,1958,1933,1991,1872,2014,1926,2356,2346,2313,2335,2339,2391,2410,2431,2400,2502,2392,2407,2385,2447,2435,2489,2454,2443,2442,2440,2431,2447,2424,2436,2400,2410,2366,618,616,610,626,652,680,732,856,915,955,955,945,935,916,903,907,892,873,858,817,833,787,772,757,756,753,706,696,714,697,683,669,644,630,619,621,614,615,613,617,641,651,666,661,663,613,641,656,631,618,633,618,617,618,622,626,621,617,618,621,628,619,621,655,613,1091,1108,1086,1148,1248,1425,1453,1633,1686,1712,1699,1751,1719,1624,1600,1653,1589,1558,1507,1456,1481,1402,1375,1387,1356,1387,1375,1259,1303,1245,1209,1165,1126,1108,1145,1101,1172,1115,1147,1123,1138,1138,1138,1156,1145,1146,1147,1158,1190,1165,1168,1173,1173,1183,1168,1172,1160,1185,1189,1183,1179,1172,1190,1202,1199,336,337,352,351,340,360,423,472,521,565,576,567,558,549,520,531,522,494,503,494,485,476,467,458,449,440,431,422,413,404,395,372,376,367,358,354,354,355,340,340,342,345,341,347,343,362,345,346,341,343,345,342,345,347,340,351,343,341,343,342,343,345,347,347,342,530,535,522,528,537,571,609,716,766,808,811,804,796,779,769,774,762,745,733,694,712,669,656,643,624,644,609,592,612,598,594,574,552,540,529,532,524,525,523,515,523,549,524,534,521,526,531,525,547,527,530,527,517,537,532,531,521,525,524,527,531,524,530,553,527,790,815,784,854,830,905,984,1153,1256,1236,1288,1271,1203,1201,1183,1161,1142,1156,1099,1054,1064,1015,1005,975,950,963,921,967,910,918,925,852,823,804,793,796,789,791,798,801,797,814,806,805,804,822,802,802,810,805,805,806,802,806,806,810,807,814,808,810,804,817,805,812,802,1531,1640,1566,1730,1873,2035,2152,2347,2389,2419,2406,2418,2268,2313,2271,2177,2178,2182,2090,2129,2017,2054,1911,1877,1846,1806,1789,1717,1701,1687,1632,1593,1586,1564,1554,1509,1536,1558,1618,1669,1628,1650,1670,1664,1647,1662,1658,1657,1672,1646,1651,1675,1670,1678,1689,1696,1690,1686,1709,1693,1701,1733,1724,1717,1706,1472,1490,1495,1659,1793,2099,2131,2328,2335,2349,2285,2325,2315,2182,2186,2266,2153,2122,2044,1991,2014,1926,1879,1848,1839,1902,1814,1713,1743,1701,1603,1577,1536,1527,1547,1487,1566,1504,1633,1612,1611,1628,1627,1660,1629,1625,1657,1725,1639,1647,1657,1659,1663,1649,1671,1672,1656,1667,1640,1654,1670,1660,1654,1665,1650,714,764,710,700,787,793,874,956,1028,1059,1125,1110,1032,1012,1003,989,974,960,945,920,900,891,921,861,847,907,830,816,800,843,834,753,730,716,706,703,772,706,728,707,713,718,753,747,738,761,737,764,749,747,737,722,725,745,735,722,749,729,723,737,732,755,735,739,732,1515,1493,1526,1654,1808,1996,2121,2313,2307,2341,2315,2269,2345,2179,2163,2194,2148,2091,2031,1985,2014,1898,1847,1945,1809,1777,1767,1712,1818,1677,1633,1566,1527,1495,1533,1491,1596,1519,1662,1643,1663,1673,1667,1656,1736,1744,1665,1701,1689,1665,1660,1723,1733,1765,1724,1715,1721,1741,1747,1743,1698,1698,1657,1669,1679,565,566,568,570,575,627,708,789,869,920,925,911,896,882,867,852,838,823,809,794,780,765,751,736,722,707,693,678,663,649,634,620,605,591,577,573,574,576,570,562,573,587,579,576,571,572,583,590,588,578,585,615,634,615,609,592,573,587,577,579,568,588,580,596,573,1515,1549,1576,1628,1798,2077,2114,2258,2361,2348,2345,2314,2227,2264,2243,2134,2115,2138,2017,1982,2024,1936,1891,1832,1849,1811,1762,1715,1698,1685,1659,1569,1568,1538,1532,1545,1544,1568,1679,1671,1647,1666,1664,1708,1675,1690,1712,1774,1689,1741,1732,1744,1701,1751,1739,1696,1683,1694,1717,1750,1742,1762,1736,1738,1704,528,533,520,526,535,569,607,714,764,806,809,802,794,777,767,772,760,743,731,692,710,667,654,641,622,642,607,590,610,596,592,572,550,538,527,530,522,523,538,510,516,517,514,525,523,532,527,523,530,519,523,523,521,526,525,524,526,526,522,518,523,526,526,531,529,1389,1413,1374,1426,1634,1740,1914,2087,2077,2089,2135,2104,2013,2048,1951,2004,1889,1858,1872,1822,1795,1765,1781,1662,1631,1671,1625,1551,1562,1587,1517,1422,1387,1369,1406,1405,1507,1366,1463,1463,1465,1467,1504,1487,1501,1506,1470,1516,1496,1534,1520,1512,1494,1542,1510,1539,1513,1502,1497,1534,1533,1520,1519,1520,1547,925,924,919,961,1034,1112,1188,1360,1400,1449,1441,1423,1405,1378,1358,1353,1355,1328,1281,1220,1248,1172,1175,1142,1155,1123,1076,1071,1060,1065,1021,980,960,923,929,932,943,946,942,928,930,934,961,960,973,968,952,984,959,946,960,942,942,953,958,948,963,942,939,958,954,970,962,967,962,629,619,621,612,636,694,748,873,934,973,960,978,953,932,920,923,908,888,873,832,847,801,786,770,740,766,719,708,726,709,695,680,655,641,622,632,624,626,626,619,628,671,647,655,647,619,629,644,628,633,624,626,662,702,626,624,636,621,625,626,630,626,622,638,619,421,421,424,425,429,462,523,586,646,694,702,691,677,666,659,646,634,623,612,606,589,578,567,556,545,534,521,510,500,489,477,466,455,446,433,430,433,429,412,416,420,430,416,417,416,417,425,416,417,415,418,419,415,418,420,422,419,420,419,423,423,431,427,433,427,147,147,148,148,149,152,172,191,210,229,242,238,235,231,227,223,220,216,212,208,205,201,197,193,190,186,182,178,175,171,167,163,160,156,152,149,149,150,156,131,131,132,133,134,133,135,131,132,133,133,132,133,133,134,136,136,134,134,134,134,134,134,134,134,135,722,711,713,715,737,816,923,1029,1134,1219,1226,1138,1120,1107,1089,1065,1066,1029,1011,1012,974,956,989,919,905,883,864,846,828,824,791,773,755,737,764,719,721,726,737,753,743,814,781,764,754,752,752,775,760,770,776,760,739,741,756,767,745,747,764,756,754,743,768,745,738,348,349,350,351,352,374,423,471,590,564,646,566,557,547,538,529,520,511,502,493,484,475,466,457,448,493,441,473,412,403,394,385,376,367,358,353,354,355,347,348,353,350,351,350,351,357,351,356,348,354,351,365,357,357,354,361,355,355,354,360,355,356,348,354,351,389,390,391,392,394,424,480,536,587,634,651,635,625,620,610,594,584,574,564,573,543,533,523,512,507,492,482,471,461,451,441,430,420,410,400,395,396,400,388,391,395,409,400,396,397,412,394,407,406,417,444,439,448,432,400,399,407,412,407,400,407,412,401,402,400,776,729,745,748,799,837,947,1057,1226,1207,1244,1190,1171,1157,1112,1114,1095,1075,1056,1018,1018,981,980,943,1027,922,903,884,865,870,812,793,788,769,756,752,754,742,766,752,753,756,754,756,821,815,759,786,771,759,759,806,810,822,818,823,812,823,827,802,786,783,766,762,762,1454,1471,1495,1668,1811,2058,2311,2555,2498,2519,2501,2479,2475,2429,2327,2280,2291,2172,2131,2087,2041,2072,1955,2000,1857,1871,1797,1752,1743,1634,1651,1561,1572,1504,1497,1485,1494,1550,1648,1647,1647,1681,1705,1702,1673,1674,1690,1733,1698,1719,1725,1747,1726,1727,1721,1716,1709,1688,1716,1757,1706,1724,1724,1710,1689,1126,1149,1180,1204,1312,1437,1571,1734,1915,1861,1843,1848,1792,1770,1771,1742,1651,1599,1651,1616,1569,1527,1488,1446,1454,1403,1391,1346,1308,1288,1225,1250,1183,1210,1195,1169,1209,1149,1219,1223,1181,1177,1234,1212,1213,1218,1216,1220,1280,1231,1248,1261,1261,1244,1242,1252,1260,1277,1311,1252,1244,1258,1313,1260,1231,878,927,887,931,899,1009,1153,1267,1372,1435,1370,1381,1345,1366,1349,1259,1303,1304,1223,1238,1227,1206,1121,1146,1104,1120,1093,1076,1093,1033,1011,950,967,974,900,932,939,869,935,922,929,928,955,1000,943,965,973,990,990,1009,1003,1008,967,989,980,968,978,971,982,1045,1009,1023,1005,1005,1016,524,498,502,504,506,552,647,717,759,809,815,802,789,776,764,768,739,726,709,735,684,699,651,650,633,678,611,598,614,564,561,548,535,522,510,507,508,522,495,502,506,534,507,515,500,504,498,499,507,506,502,515,514,519,508,517,515,515,519,511,510,524,498,509,504,606,608,637,612,672,710,814,882,961,1005,1007,1014,1004,982,964,947,932,922,904,890,874,821,840,791,774,777,768,758,742,725,679,661,646,631,653,613,645,618,616,617,625,656,647,629,630,642,634,644,657,666,813,846,951,728,651,636,642,654,645,630,634,651,639,654,639,913,893,895,942,961,1063,1205,1375,1461,1447,1469,1436,1430,1393,1361,1345,1313,1293,1270,1266,1237,1198,1186,1157,1137,1129,1087,1065,1078,1008,1013,959,947,925,938,926,923,917,911,925,932,950,932,937,929,946,930,945,928,925,925,940,945,955,948,950,936,928,947,950,944,946,931,939,930,0,0,0,0,0,0,0,0,0,0,0,0,0,0,0,0,0,0,0,0,0,0,0,0,0,0,0,0,0,0,0,0,0,0,0,0,0,0,0,0,0,0,0,0,0,0,0,0,0,0,0,0,0,0,0,0,0,0,0,0,0,0,0,0,0,178,178,179,179,180,186,210,235,259,284,298,293,288,283,279,274,269,264,260,255,250,245,241,236,231,227,222,217,212,208,203,198,193,189,184,180,181,181,171,165,169,204,175,171,163,169,171,198,225,174,182,175,175,173,195,177,166,174,166,172,167,164,175,173,164,993,986,989,1046,1082,1207,1360,1536,1592,1597,1616,1581,1552,1570,1535,1517,1446,1405,1394,1391,1355,1328,1313,1269,1250,1237,1192,1168,1167,1096,1112,1056,1067,1006,1019,1020,1004,999,1052,1015,1005,1014,990,1040,1008,1024,1024,1070,1038,1036,1037,1016,1062,1050,1101,1015,1023,1061,1026,1047,1035,1022,1043,1053,1024,931,966,979,993,977,1124,1233,1367,1569,1607,1557,1453,1468,1412,1388,1360,1355,1353,1290,1371,1243,1219,1247,1251,1153,1126,1102,1079,1056,1047,1009,985,962,1029,968,924,980,997,962,961,1006,1272,1014,947,996,1090,1030,968,1066,1040,988,996,1073,1050,1046,954,989,980,1028,1028,971,1007,976,980,996,411,413,414,415,418,449,509,570,628,675,684,673,662,651,642,629,618,607,596,591,575,564,553,542,531,521,510,499,488,477,466,455,444,433,422,421,423,420,418,420,417,422,424,420,422,426,416,422,419,419,419,425,425,424,423,423,423,422,429,435,423,430,419,423,424,319,320,321,322,323,341,386,430,471,517,524,520,511,503,495,486,478,470,461,453,445,436,428,420,411,401,406,384,378,370,362,353,345,337,328,324,325,326,311,312,311,315,320,315,323,316,315,317,314,317,317,323,317,317,341,342,325,332,322,312,330,316,327,318,314,1018,1060,1039,1069,1139,1258,1435,1616,1642,1689,1687,1650,1641,1600,1557,1544,1515,1487,1445,1427,1442,1396,1364,1332,1305,1265,1262,1241,1206,1163,1136,1126,1092,1070,1066,1044,1028,1048,1055,1054,1073,1077,1075,1113,1068,1082,1092,1085,1108,1083,1090,1095,1087,1092,1081,1084,1077,1092,1074,1085,1090,1105,1096,1105,1107,547,549,550,553,560,612,692,775,854,899,902,889,875,860,846,831,815,803,788,775,760,780,731,717,702,688,672,659,674,630,615,650,587,573,560,555,557,558,559,561,562,564,567,561,568,569,561,564,563,568,568,571,572,572,568,564,575,571,579,579,572,580,567,568,572,635,621,625,630,639,705,826,887,978,1019,1036,994,982,966,946,938,918,912,890,877,858,835,878,810,791,772,765,740,730,756,698,682,666,650,634,633,630,673,630,636,637,649,647,651,640,660,642,646,644,639,646,654,651,654,656,655,656,653,662,659,652,674,669,676,671,579,570,566,568,577,656,703,844,866,976,956,917,928,910,917,857,842,827,863,815,833,808,753,754,742,722,713,669,663,648,633,651,603,602,575,608,590,595,587,592,584,609,602,598,602,617,596,617,621,615,607,595,592,601,605,605,595,598,586,591,586,593,595,595,576,577,627,581,582,632,653,740,865,904,986,994,1017,924,915,899,950,901,848,833,837,802,815,772,794,771,726,710,695,680,719,649,672,619,603,590,586,587,593,590,592,601,615,616,621,600,626,601,636,615,626,613,607,618,625,617,611,626,615,615,618,617,631,606,611,606,927,955,947,971,1013,1093,1236,1306,1391,1442,1411,1390,1385,1407,1365,1308,1287,1308,1302,1252,1279,1249,1240,1197,1177,1125,1160,1128,1041,1015,1062,993,986,953,958,955,968,928,948,936,946,951,946,965,948,954,957,966,983,974,970,976,975,988,971,977,971,981,982,993,983,978,981,999,998,645,674,675,677,756,759,949,954,1130,1050,1087,1137,1139,1151,1024,1004,954,937,952,935,888,901,884,838,850,833,818,800,783,766,722,732,689,673,684,737,657,684,672,679,679,693,691,684,684,689,682,695,691,694,700,700,716,724,698,693,697,689,693,689,698,700,687,697,687,1197,1225,1198,1250,1347,1514,1782,1830,2013,1911,1940,1872,1902,1871,1785,1770,1770,1746,1688,1684,1613,1584,1594,1537,1493,1482,1432,1400,1373,1372,1311,1278,1249,1227,1239,1222,1220,1221,1284,1276,1273,1279,1273,1296,1345,1346,1283,1312,1298,1282,1285,1323,1334,1348,1346,1322,1333,1343,1352,1330,1306,1317,1291,1296,1289,1003,952,996,1020,1027,1200,1364,1461,1549,1604,1539,1537,1491,1533,1442,1502,1456,1423,1340,1372,1340,1326,1237,1274,1256,1241,1208,1189,1141,1085,1115,1068,1043,1016,1007,1005,983,1010,1003,1007,1014,1027,997,1027,1013,1023,1023,1036,1051,1028,1035,1027,1030,1039,1034,1034,1023,1034,1059,1032,1040,1034,1031,1061,1057,545,547,548,551,558,610,690,773,852,897,900,887,873,858,844,829,813,801,786,773,758,778,729,715,700,686,670,657,672,628,613,648,585,571,558,553,555,556,556,554,560,573,561,563,562,570,565,563,568,560,570,580,590,583,578,569,559,578,568,560,560,584,568,579,563,1512,1586,1613,1627,1820,2047,2213,2306,2375,2391,2430,2507,2290,2252,2341,2181,2185,2190,2134,2035,2057,1951,2035,1928,2012,1798,1773,1848,1740,1707,1653,1634,1555,1579,1676,1522,1521,1525,1656,1675,1632,1627,1674,1644,1662,1670,1665,1667,1717,1675,1680,1710,1696,1705,1686,1705,1713,1710,1736,1689,1696,1704,1747,1685,1686,375,376,416,378,379,404,478,505,555,599,609,599,590,581,571,562,553,543,534,524,515,530,496,487,478,493,459,450,440,431,422,412,403,394,384,380,381,382,371,374,373,379,432,410,395,414,399,430,401,400,406,385,388,412,395,380,417,386,383,407,402,426,406,399,394,421,421,424,425,429,462,523,586,646,694,702,691,677,666,659,646,634,623,612,606,589,578,567,556,545,534,521,510,500,489,477,466,455,446,433,430,433,429,412,416,420,430,416,417,416,417,425,416,417,415,418,419,415,418,420,422,419,420,419,423,423,431,427,433,427,318,319,321,324,325,345,391,433,479,523,534,526,515,507,503,492,483,474,466,460,447,444,430,426,415,404,396,389,380,375,364,355,346,340,328,324,325,328,307,307,307,308,308,309,310,312,312,311,314,316,316,314,314,317,315,315,316,316,318,322,319,320,319,320,320,44,44,44,44,44,45,50,55,59,64,69,68,67,66,65,64,63,62,61,60,59,58,57,56,55,54,53,52,51,50,49,48,47,46,45,45,45,45,16,16,16,16,16,16,16,16,16,16,16,14,16,16,16,16,16,16,16,16,16,16,16,16,16,16,14,798,842,804,840,882,931,1052,1164,1265,1300,1298,1280,1265,1237,1278,1256,1177,1202,1137,1113,1095,1051,1052,1031,1017,996,1019,955,929,908,881,867,847,827,814,810,812,814,798,794,800,807,808,808,810,807,810,821,814,815,821,843,856,841,846,832,824,840,828,823,836,831,832,838,828,300,301,302,302,303,319,360,402,497,484,495,487,465,472,463,441,448,440,436,473,417,396,401,394,374,367,359,352,395,347,340,332,324,316,309,304,305,306,296,296,299,296,303,302,309,327,305,311,304,305,303,305,303,315,315,305,307,300,299,305,305,309,302,310,304,479,480,482,481,487,527,597,663,736,786,793,780,764,755,742,730,717,701,689,679,667,654,642,629,616,608,591,578,563,553,544,528,519,517,491,484,451,489,460,461,463,461,464,464,464,465,467,468,470,471,470,472,475,479,476,478,480,478,479,481,481,481,481,529,509,741,743,780,748,857,874,967,1070,1173,1210,1209,1190,1178,1152,1132,1172,1144,1075,1059,1037,1075,977,979,960,947,928,909,890,865,846,819,808,825,769,790,752,754,756,762,756,775,853,778,754,778,806,783,767,774,772,776,774,784,777,776,764,772,768,783,795,769,786,768,771,784,1429,1440,1460,1566,1766,2046,2332,2434,2485,2497,2469,2425,2417,2332,2287,2253,2209,2159,2294,2070,2162,1985,1931,1873,1854,1799,1766,1715,1665,1648,1578,1560,1492,1469,1472,1480,1477,1479,1586,1587,1588,1623,1643,1637,1610,1610,1627,1664,1635,1646,1650,1674,1663,1655,1654,1652,1644,1624,1642,1672,1626,1639,1642,1635,1616,1110,1101,1033,1083,1160,1317,1500,1564,1643,1751,1736,1588,1647,1627,1554,1532,1570,1553,1452,1478,1399,1399,1305,1361,1369,1299,1291,1175,1151,1144,1162,1106,1103,1057,1012,1042,1045,1047,1036,1049,1058,1077,1088,1061,1058,1085,1053,1066,1054,1053,1052,1070,1080,1090,1250,1184,1091,1077,1076,1065,1054,1053,1073,1067,1052,807,818,779,744,816,902,1014,1102,1198,1237,1280,1180,1183,1189,1129,1113,1198,1133,1081,1084,1081,1060,1040,1023,996,928,971,889,959,922,823,874,822,807,745,827,794,857,791,791,799,830,795,817,795,801,797,790,818,801,829,845,837,821,804,815,809,814,817,807,810,822,794,823,808,431,451,458,435,437,461,531,649,676,724,731,719,708,696,684,673,661,649,638,626,614,624,605,624,568,546,529,518,507,514,485,471,463,476,466,460,452,437,438,440,437,446,445,448,457,457,447,444,446,449,448,440,441,454,447,445,445,449,439,447,441,447,446,449,442,500,504,538,512,541,589,630,715,807,856,863,850,807,804,803,792,782,772,723,747,697,708,670,657,647,667,617,607,623,609,596,582,568,527,562,538,539,541,533,532,530,523,525,542,536,538,537,549,545,546,548,539,565,552,567,541,545,557,540,552,541,531,555,546,538,808,795,787,792,825,912,1044,1209,1260,1268,1291,1281,1258,1232,1201,1200,1183,1143,1173,1140,1087,1070,1050,1048,1005,1003,990,933,973,959,872,882,830,840,796,956,842,825,832,831,844,843,855,893,848,864,866,864,892,868,867,870,866,877,854,856,855,864,851,862,863,873,860,870,874,92,93,93,93,93,95,107,120,132,144,154,152,149,147,144,142,139,137,135,132,130,127,125,123,120,118,115,113,110,108,106,103,101,98,96,94,94,94,74,78,75,77,79,77,77,77,77,77,77,78,75,77,75,77,77,75,77,75,75,77,75,77,75,77,75,0,0,0,0,0,0,0,0,0,0,0,0,0,0,0,0,0,0,0,0,0,0,0,0,0,0,0,0,0,0,0,0,0,0,0,0,0,0,0,0,0,0,0,0,0,0,0,0,0,0,0,0,0,0,0,0,0,0,0,0,0,0,0,0,0,888,888,878,898,937,1022,1169,1360,1414,1398,1419,1427,1381,1384,1340,1336,1294,1275,1302,1249,1211,1192,1169,1165,1120,1115,1099,1041,1074,1069,972,980,926,936,891,907,959,917,927,925,919,934,923,922,917,943,938,929,924,988,961,963,942,996,961,976,945,936,958,980,977,960,969,954,966,1061,1052,1071,1059,1158,1214,1374,1561,1653,1625,1658,1593,1602,1606,1575,1623,1464,1571,1496,1472,1362,1388,1320,1285,1362,1325,1255,1254,1154,1131,1109,1145,1106,1054,1083,1088,1022,1109,1074,1067,1085,1108,1100,1106,1096,1101,1108,1111,1118,1101,1129,1134,1154,1144,1126,1107,1098,1108,1104,1098,1093,1114,1092,1123,1088,309,310,311,314,315,333,378,418,461,505,516,508,498,490,486,475,467,458,450,445,432,429,416,412,401,391,383,376,368,363,354,343,335,329,317,314,315,318,305,301,310,309,305,297,299,302,301,335,356,304,312,316,316,305,304,316,302,303,304,300,307,304,302,310,308,271,272,273,273,274,284,324,362,399,436,448,441,419,427,419,398,405,398,395,381,377,357,363,356,338,331,324,317,319,315,307,300,293,286,279,275,276,276,263,265,264,271,328,303,284,311,288,330,297,307,302,276,280,301,286,273,314,286,274,302,294,324,304,292,288,925,936,936,969,1011,1150,1291,1396,1465,1520,1515,1488,1470,1425,1414,1394,1359,1343,1362,1291,1273,1249,1226,1188,1165,1155,1152,1125,1102,1025,1027,1021,987,1000,936,940,946,971,958,952,953,960,945,959,957,958,976,1038,966,982,990,988,980,996,1006,980,970,977,985,996,981,986,993,1001,988,444,445,446,448,451,487,552,616,681,728,736,724,712,700,689,677,665,653,642,630,618,607,595,583,571,560,548,537,525,513,502,489,478,467,455,450,452,453,441,453,448,454,462,454,460,455,447,457,447,452,453,462,460,468,488,485,457,457,458,452,452,453,464,462,449,556,566,583,561,564,616,719,804,852,931,907,920,879,870,861,842,828,808,776,779,765,754,755,729,714,710,689,665,645,650,636,609,605,575,567,564,566,576,568,575,571,591,606,596,590,600,583,584,601,613,591,629,613,599,599,610,610,595,572,625,590,596,577,609,583,670,655,649,668,724,734,869,967,1031,1062,1077,1078,1065,1025,1028,980,973,945,952,945,904,887,975,853,835,836,792,804,764,749,736,707,701,694,659,676,620,684,671,666,670,679,684,679,691,670,672,679,676,667,677,677,672,672,703,690,669,670,667,671,672,682,683,677,672,655,657,671,662,693,802,848,938,1040,1080,1081,1064,1054,1029,1011,1001,994,959,945,925,924,869,873,855,845,827,810,792,769,766,727,718,716,710,704,665,667,669,677,670,677,679,676,674,686,691,679,679,678,680,684,686,690,689,692,690,684,692,701,692,687,695,686,683,686,821,836,837,840,885,993,1074,1183,1205,1262,1282,1228,1210,1283,1234,1234,1198,1177,1158,1111,1092,1121,1086,1065,1016,1027,1027,959,946,952,933,902,876,861,841,844,815,848,848,848,844,906,885,861,868,878,862,886,915,879,886,875,866,873,875,871,863,862,858,856,860,859,868,860,839,685,688,726,691,708,795,876,966,1033,1108,1109,1092,1082,1119,1039,997,1005,989,975,923,936,897,901,886,873,856,840,821,798,781,758,747,703,711,698,695,696,704,697,701,699,697,705,714,758,743,705,725,717,702,703,738,751,770,756,770,751,755,755,737,725,714,715,720,705,1091,1115,1125,1133,1201,1358,1529,1676,1717,1747,1831,1776,1680,1677,1635,1608,1633,1576,1530,1547,1478,1490,1461,1432,1381,1341,1314,1288,1290,1220,1193,1176,1175,1148,1104,1099,1124,1117,1150,1141,1147,1164,1151,1165,1158,1165,1158,1170,1204,1189,1253,1254,1279,1205,1161,1180,1196,1190,1180,1179,1185,1154,1210,1168,1146,920,905,889,978,1005,1090,1248,1408,1490,1521,1519,1491,1482,1388,1422,1341,1333,1294,1272,1300,1237,1251,1234,1166,1179,1154,1069,1063,1082,1029,1018,953,934,936,937,931,927,899,911,924,935,948,932,940,931,951,931,951,932,927,929,942,947,959,952,952,940,931,950,951,945,950,930,940,931,442,443,444,446,449,485,550,614,679,726,734,722,710,698,687,675,663,651,640,628,616,605,593,581,569,558,546,535,523,511,500,487,476,465,453,448,450,451,442,435,442,446,438,455,446,452,452,446,464,445,445,446,444,457,448,449,445,447,447,447,450,450,448,470,456,1469,1431,1452,1629,1821,1991,2069,2242,2245,2283,2330,2228,2299,2162,2227,2091,2056,2014,1962,2010,2067,1920,1830,1897,1770,1883,1693,1702,1616,1584,1664,1515,1477,1459,1508,1501,1520,1558,1606,1608,1598,1624,1655,1651,1634,1633,1644,1680,1644,1682,1696,1672,1627,1657,1650,1664,1671,1640,1696,1751,1720,1724,1731,1672,1670,307,307,308,309,310,326,367,427,471,513,524,516,507,499,491,483,474,466,458,449,441,433,424,429,408,400,376,368,360,353,345,338,330,347,315,311,312,313,325,304,299,302,324,328,316,318,324,343,331,361,356,361,327,337,345,328,341,335,363,406,361,366,371,353,355,318,319,321,324,325,345,391,433,479,523,534,526,515,507,503,492,483,474,466,460,447,444,430,426,415,404,396,389,380,375,364,355,346,340,328,324,325,328,307,307,307,308,308,309,310,312,312,311,314,316,316,314,314,317,315,315,316,316,318,322,319,320,319,320,320,589,608,593,601,613,682,755,844,906,943,947,953,919,910,892,895,874,839,844,823,808,798,779,747,732,717,731,686,696,654,640,626,628,633,610,630,608,602,603,609,603,609,614,613,613,618,609,608,610,608,606,615,616,618,615,611,616,609,618,626,610,622,607,615,615,871,870,901,884,939,1024,1187,1312,1336,1442,1360,1343,1410,1371,1310,1316,1290,1240,1212,1208,1155,1172,1144,1135,1071,1064,1076,992,1048,943,958,927,920,899,924,892,903,889,882,901,897,913,935,925,919,945,907,957,922,951,917,916,934,959,938,931,938,928,927,939,935,957,922,927,912,1659,1600,1734,1739,1991,2178,2334,2439,2477,2637,2560,2464,2392,2436,2316,2294,2249,2202,2171,2135,2087,2116,2144,1955,1965,1876,1864,1833,1873,1740,1763,1717,1720,1628,1686,1740,1700,1658,1825,1848,1828,1856,1864,1833,1855,1877,1850,1864,1863,1880,1865,1871,1878,1896,1923,1911,1896,1880,1888,1869,1887,1893,1893,1886,1905,1164,1101,1173,1120,1225,1381,1526,1650,1705,1848,1719,1697,1667,1645,1615,1605,1572,1536,1517,1494,1458,1457,1491,1360,1333,1306,1307,1287,1304,1195,1233,1160,1201,1129,1150,1183,1108,1154,1183,1187,1176,1264,1254,1231,1208,1205,1214,1253,1219,1236,1237,1221,1190,1207,1211,1226,1234,1199,1223,1258,1222,1222,1237,1212,1205,1363,1340,1384,1489,1567,1685,2034,2051,2155,2200,2085,2062,2068,2053,1993,1979,1929,1912,1847,1867,1780,1687,1741,1659,1681,1595,1614,1533,1530,1490,1450,1400,1394,1402,1377,1407,1389,1377,1437,1436,1447,1466,1499,1488,1453,1488,1443,1453,1466,1471,1463,1486,1498,1517,1600,1563,1473,1488,1490,1482,1494,1490,1507,1516,1488,1602,1540,1665,1662,1902,2085,2243,2351,2390,2606,2476,2382,2310,2356,2237,2216,2172,2126,2097,2062,2016,2047,2164,1887,1899,1812,1801,1771,1813,1680,1705,1659,1662,1607,1628,1634,1642,1600,1753,1759,1797,2070,1822,1757,1811,1914,1831,1789,1879,1861,1797,1802,1877,1865,1853,1763,1795,1787,1832,1832,1770,1817,1778,1780,1784,1074,1077,1166,1096,1154,1370,1380,1495,1612,1596,1594,1572,1565,1581,1508,1486,1505,1443,1421,1400,1378,1369,1335,1313,1418,1270,1248,1227,1268,1184,1162,1140,1119,1149,1090,1087,1089,1091,1095,1099,1108,1126,1123,1139,1116,1138,1112,1159,1133,1114,1128,1121,1137,1160,1141,1133,1143,1119,1131,1138,1137,1147,1127,1156,1130,260,261,262,263,263,276,312,349,386,422,435,428,421,414,407,400,394,387,380,373,366,375,352,345,338,331,324,317,310,303,296,289,283,276,269,264,265,266,250,250,250,251,253,256,254,254,257,256,254,254,254,255,255,254,257,257,257,255,256,257,258,263,262,265,263,223,224,225,225,226,236,256,299,330,362,350,345,340,335,330,324,339,333,327,321,315,309,303,297,291,273,279,262,257,261,255,249,243,237,231,227,227,228,216,213,215,216,220,222,215,220,218,215,218,219,219,220,222,227,225,225,218,224,222,227,227,230,231,236,232,1074,998,1026,1013,1085,1243,1386,1490,1554,1567,1573,1552,1520,1506,1468,1466,1420,1406,1371,1359,1326,1326,1398,1235,1217,1181,1193,1188,1181,1116,1085,1061,1067,1039,1034,1042,1003,1062,1023,1030,1037,1065,1040,1053,1037,1039,1037,1030,1058,1035,1058,1074,1067,1050,1045,1060,1053,1058,1058,1045,1050,1065,1037,1049,1044,498,519,520,502,516,538,593,648,752,742,803,740,774,761,710,700,689,679,669,659,649,646,629,618,607,604,615,582,593,561,547,582,547,515,508,523,525,514,509,513,523,521,534,540,538,522,523,532,516,519,526,519,517,521,518,523,524,521,523,524,530,525,526,533,524,48,48,48,48,49,49,55,61,68,74,79,78,77,76,75,73,72,71,70,68,67,66,65,63,62,61,60,59,57,56,55,54,52,51,50,49,49,49,18,18,18,18,17,17,18,18,18,18,18,17,17,18,18,18,18,18,18,17,17,18,18,18,18,18,18,956,949,958,967,1044,1137,1313,1400,1469,1524,1484,1465,1472,1447,1426,1392,1362,1353,1319,1319,1262,1237,1243,1197,1169,1123,1156,1083,1105,1030,1030,986,1002,977,973,972,955,969,967,965,1011,1280,1019,951,1001,1098,1035,973,1069,1046,996,1001,1080,1057,1049,959,992,989,1034,1034,977,1016,985,984,1001,864,865,870,868,923,1007,1166,1245,1317,1377,1341,1324,1348,1310,1290,1257,1232,1221,1194,1197,1139,1151,1126,1099,1054,1042,1060,976,1000,929,945,888,907,884,881,877,860,874,879,870,881,878,885,889,888,889,883,890,897,896,899,894,894,907,896,897,884,900,883,896,891,886,886,894,909,0,0,0,0,0,0,0,0,0,0,0,0,0,0,0,0,0,0,0,0,0,0,0,0,0,0,0,0,0,0,0,0,0,0,0,0,0,0,0,0,0,0,0,0,0,0,0,0,0,0,0,0,0,0,0,0,0,0,0,0,0,0,0,0,0,1890,1944,2023,2196,2391,2596,2882,2951,2982,3100,2904,2837,2818,2847,2765,2746,2641,2630,2591,2532,2481,2378,2384,2276,2324,2187,2192,2183,2241,2065,1981,1991,1923,2015,1975,1980,1931,1992,2286,2301,2318,2335,2363,2384,2356,2387,2374,2391,2415,2412,2444,2474,2435,2460,2461,2497,2509,2516,2539,2506,2528,2569,2569,2568,2547,602,597,607,590,601,668,775,827,888,925,929,920,902,893,875,879,858,858,828,840,794,783,796,733,718,704,718,674,712,642,628,615,625,622,600,619,598,599,582,585,590,601,586,598,590,603,606,588,602,591,595,593,588,598,593,594,593,599,591,594,594,605,600,609,599,1135,1072,1143,1088,1187,1338,1479,1603,1656,1804,1675,1653,1624,1602,1573,1564,1532,1497,1479,1456,1420,1421,1455,1325,1298,1272,1273,1255,1273,1215,1202,1131,1172,1100,1121,1154,1079,1124,1128,1133,1126,1233,1134,1170,1131,1162,1157,1161,1177,1146,1167,1146,1149,1167,1175,1158,1153,1158,1167,1154,1158,1157,1164,1193,1166,406,414,415,390,391,418,473,581,582,644,630,641,631,622,612,600,578,568,558,548,538,511,518,508,531,488,477,467,497,471,437,413,417,407,397,380,381,394,384,381,386,389,385,384,386,388,387,386,386,385,389,395,400,393,389,387,387,392,391,389,386,395,388,391,389,536,509,540,501,506,559,627,688,738,778,785,778,763,756,740,747,728,707,703,694,673,675,658,619,607,594,611,570,635,543,531,520,532,532,511,552,508,509,498,500,509,524,513,521,501,522,503,506,508,504,504,515,515,519,516,518,509,514,521,522,515,516,514,522,515,787,778,802,764,796,913,1004,1152,1205,1236,1207,1250,1171,1210,1134,1134,1108,1093,1085,1054,1050,1071,1015,952,933,914,945,916,923,835,854,835,804,796,774,816,773,775,807,763,767,774,766,798,769,783,777,787,806,792,787,784,791,812,836,792,781,802,785,800,798,789,802,823,793,1538,1515,1534,1633,1745,1978,2306,2333,2473,2455,2352,2282,2342,2322,2237,2151,2103,2163,2079,2024,2003,1920,1983,1869,1808,1796,1766,1725,1712,1629,1629,1546,1567,1564,1548,1531,1559,1517,1626,1682,1631,1654,1669,1654,1659,1680,1659,1671,1672,1658,1685,1672,1681,1685,1692,1687,1681,1686,1733,1678,1703,1708,1728,1702,1685,1516,1453,1565,1553,1776,1952,2112,2266,2264,2429,2354,2261,2192,2240,2196,2103,2098,2053,2024,1956,1946,1924,1998,1788,1802,1747,1737,1708,1722,1591,1618,1573,1585,1484,1541,1547,1515,1540,1617,1627,1623,1627,1633,1623,1636,1650,1627,1631,1636,1642,1708,1718,1670,1646,1657,1679,1689,1750,1754,1659,1686,1767,1766,1741,1681,744,678,675,740,772,769,848,915,998,1029,1031,1081,1034,989,975,950,947,933,919,894,880,885,852,838,824,805,809,794,767,812,814,733,738,697,687,684,685,687,694,687,690,695,692,694,703,707,709,700,695,698,697,701,705,706,714,709,701,707,710,713,715,712,707,707,703,1519,1483,1526,1568,1721,1945,2147,2237,2401,2426,2276,2294,2205,2175,2136,2118,2075,2046,2004,1971,1927,1997,1920,1803,1782,1731,1736,1707,1770,1585,1577,1558,1526,1543,1478,1518,1482,1541,1610,1580,1597,1609,1614,1623,1636,1639,1616,1634,1643,1649,1662,1660,1627,1628,1650,1667,1652,1682,1695,1662,1664,1698,1702,1674,1662,622,631,633,608,616,674,762,905,934,995,999,983,1083,952,936,920,894,878,863,847,832,816,801,785,803,754,738,722,747,729,676,661,645,630,616,612,613,615,614,614,616,617,631,630,647,629,622,649,637,632,632,628,619,632,626,628,631,619,615,630,626,633,626,633,625,1529,1454,1512,1561,1736,1964,2179,2379,2345,2278,2326,2301,2197,2192,2204,2170,2051,2075,2116,1957,1958,1900,2049,1806,1802,1784,1712,1667,1693,1652,1611,1574,1561,1498,1583,1573,1503,1578,1648,1631,1629,1646,1666,1678,1674,1683,1662,1675,1717,1700,1777,1769,1782,1733,1739,1681,1693,1709,1701,1708,1697,1683,1715,1759,1701,534,507,538,499,504,557,625,686,736,776,783,776,761,754,738,745,726,705,701,692,671,673,656,617,605,592,609,568,633,541,529,518,530,530,509,550,506,507,501,500,499,510,501,501,499,503,498,502,501,500,504,509,507,504,508,506,506,503,507,509,502,506,507,507,507,1391,1437,1386,1477,1616,1710,1885,1982,2048,2061,2046,2076,2015,1955,2053,1883,1863,1833,1803,1806,1731,1781,1715,1640,1657,1574,1561,1530,1532,1557,1539,1404,1394,1396,1341,1391,1344,1347,1426,1425,1430,1430,1430,1424,1440,1448,1434,1434,1443,1447,1514,1519,1472,1445,1458,1481,1493,1556,1551,1448,1491,1567,1572,1541,1483,956,893,933,905,962,1098,1192,1310,1373,1389,1494,1398,1373,1328,1330,1326,1297,1266,1236,1234,1202,1207,1239,1119,1097,1074,1080,1038,1064,982,979,958,947,932,910,948,909,964,923,945,931,940,943,952,936,955,950,996,980,996,1015,988,968,974,993,963,962,976,1069,1045,1005,1001,1017,1024,999,589,608,593,601,613,682,755,844,906,943,947,953,919,910,892,895,874,839,844,823,808,798,779,747,732,717,731,686,696,654,640,626,628,633,610,630,608,602,603,609,603,609,614,613,613,618,609,608,610,608,606,615,616,618,615,611,616,609,618,626,610,622,607,615,615,1307,1330,1322,1471,1563,1714,1847,1975,2084,2136,2111,2026,1992,2027,1964,1938,1883,1860,1845,1801,1785,1739,1707,1633,1674,1607,1586,1529,1495,1464,1489,1375,1337,1376,1336,1328,1396,1337,1391,1381,1379,1391,1386,1421,1388,1391,1415,1483,1397,1412,1411,1418,1422,1419,1440,1430,1417,1421,1413,1424,1430,1426,1421,1436,1426,1028,1031,1035,1126,1208,1315,1423,1560,1639,1723,1666,1639,1613,1619,1560,1533,1507,1480,1498,1528,1415,1374,1347,1321,1343,1268,1241,1251,1188,1162,1202,1145,1082,1086,1047,1044,1144,1049,1104,1113,1090,1098,1091,1115,1106,1121,1123,1197,1116,1158,1153,1158,1127,1208,1160,1114,1114,1110,1144,1174,1158,1188,1172,1172,1145,480,481,482,484,487,525,593,661,729,778,787,775,762,750,738,725,713,701,688,676,664,651,639,627,614,602,590,577,565,553,540,528,515,503,491,487,488,489,483,475,486,507,494,492,483,492,493,501,495,494,510,547,575,545,527,501,483,516,493,484,484,508,495,515,485,933,967,939,943,986,1084,1215,1341,1425,1463,1516,1440,1418,1396,1464,1352,1330,1309,1287,1265,1300,1275,1199,1177,1155,1191,1111,1141,1080,1045,1023,1001,986,959,981,947,944,952,957,969,963,971,992,988,966,974,973,1011,1023,1012,1049,1013,1027,983,1042,999,998,1038,1128,1050,1020,1012,1060,1082,1017,722,724,726,729,783,834,946,1081,1144,1251,1225,1167,1148,1129,1144,1091,1072,1053,1034,1072,1029,1007,1012,986,972,902,883,864,845,826,807,832,807,775,737,733,735,737,725,735,738,760,748,736,739,746,740,741,736,738,741,744,739,743,752,751,754,748,745,748,748,779,778,779,777,499,468,470,471,474,510,577,643,709,758,820,756,743,731,719,707,695,683,717,659,647,635,623,611,619,639,645,563,550,538,526,514,536,490,505,474,518,476,479,480,484,498,490,487,488,513,490,496,495,508,533,532,541,533,491,486,496,502,495,494,496,502,493,493,491,1824,1593,1608,1750,2057,2488,2789,2968,3036,3013,2983,2908,2847,2819,2725,2696,2602,2538,2493,2419,2376,2338,2253,2174,2113,2049,1986,1925,1869,1808,1766,1687,1637,1604,1612,1605,1638,1648,1772,1762,1779,1790,1782,1774,1785,1796,1787,1796,1800,1800,1863,1877,1846,1839,1848,1840,1838,1893,1902,1800,1832,1908,1917,1893,1832,1954,2009,2151,2266,2545,2884,3024,3180,3175,3199,3130,3143,3015,3026,2965,2962,2895,2796,2772,2773,2723,2591,2518,2470,2458,2434,2317,2332,2221,2192,2140,2093,2038,2002,1997,1994,1976,2056,2359,2363,2379,2408,2436,2455,2422,2458,2450,2477,2504,2506,2522,2563,2528,2548,2548,2591,2604,2613,2636,2604,2624,2669,2672,2777,2714,1773,1788,1846,1959,2194,2468,2620,2743,2755,2794,2730,2770,2684,2625,2553,2511,2541,2492,2546,2345,2394,2245,2214,2157,2195,2195,2047,2099,2045,1938,1914,1795,1859,1830,1819,1818,1886,1836,2123,2102,2084,2140,2192,2169,2130,2167,2218,2187,2251,2214,2248,2302,2269,2299,2271,2272,2308,2290,2349,2297,2312,2359,2344,2336,2301,1201,1196,1218,1260,1355,1528,1702,1843,1976,1957,1937,1935,1866,1884,1816,1779,1755,1728,1707,1658,1625,1599,1572,1548,1522,1495,1464,1404,1398,1344,1316,1287,1279,1238,1260,1219,1295,1226,1290,1282,1298,1356,1327,1330,1318,1296,1304,1326,1319,1314,1305,1346,1403,1425,1338,1314,1317,1314,1310,1306,1302,1323,1303,1330,1295,1504,1459,1508,1757,1820,2051,2206,2260,2338,2434,2339,2277,2262,2282,2215,2173,2211,2069,2033,2066,2019,1916,1879,1831,1907,1808,1737,1722,1643,1626,1668,1530,1554,1507,1491,1484,1521,1536,1635,1621,1602,1621,1617,1662,1625,1637,1669,1717,1641,1658,1659,1660,1655,1670,1671,1655,1647,1646,1644,1667,1654,1662,1654,1650,1626,1797,1809,1830,2109,2333,2497,2670,2723,2804,2873,2761,2721,2676,2655,2580,2546,2503,2479,2449,2422,2425,2293,2250,2193,2234,2132,2056,2019,1972,2025,1987,1844,1878,1839,1805,1794,1837,1784,2119,2131,2146,2231,2164,2145,2154,2269,2221,2220,2238,2248,2178,2198,2255,2295,2254,2126,2156,2145,2211,2228,2170,2229,2184,2195,2179,935,938,941,1052,1106,1123,1268,1409,1491,1566,1650,1537,1474,1483,1426,1401,1377,1353,1362,1304,1295,1255,1263,1308,1182,1158,1134,1106,1085,1061,1118,1012,988,1002,964,961,1033,954,999,970,969,984,993,1012,983,1019,1007,1057,1016,982,1003,983,1012,1003,1004,984,1009,994,985,996,1005,1024,1001,1027,1000,1059,1063,1066,1163,1251,1365,1478,1615,1693,1775,1717,1690,1662,1667,1607,1580,1553,1525,1542,1571,1458,1415,1388,1360,1381,1305,1278,1287,1223,1196,1235,1177,1113,1168,1078,1075,1176,1081,1141,1129,1133,1139,1133,1138,1187,1161,1150,1176,1159,1138,1147,1176,1180,1183,1185,1185,1188,1189,1189,1181,1183,1165,1146,1151,1138,1879,1926,1948,2255,2468,2644,2798,2830,2927,2993,2899,2856,2809,2796,2743,2703,2622,2584,2564,2523,2539,2406,2365,2335,2336,2232,2182,2123,2066,2105,2068,1945,1972,1921,1886,1876,1933,1876,2205,2218,2267,2290,2279,2291,2316,2337,2330,2346,2376,2372,2407,2394,2401,2429,2461,2476,2456,2497,2516,2524,2521,2550,2543,2576,2601,0,0,0,0,0,0,0,0,0,0,0,0,0,0,0,0,0,0,0,0,0,0,0,0,0,0,0,0,0,0,0,0,0,0,0,0,0,0,0,0,0,0,0,0,0,0,0,0,0,0,0,0,0,0,0,0,0,0,0,0,0,0,0,0,0,1335,1320,1312,1457,1547,1696,1828,1957,2105,2141,2094,2012,1976,2011,1980,1924,1868,1848,1831,1787,1771,1726,1710,1620,1662,1595,1574,1517,1484,1453,1570,1363,1328,1366,1325,1303,1385,1326,1373,1369,1379,1381,1383,1372,1390,1404,1382,1387,1392,1396,1475,1470,1415,1397,1417,1443,1437,1503,1499,1401,1441,1519,1524,1489,1429,952,938,941,964,1010,1111,1246,1405,1487,1493,1546,1495,1471,1425,1423,1398,1374,1350,1313,1302,1262,1238,1223,1200,1178,1157,1133,1108,1101,1066,1043,1021,1005,992,952,966,963,971,960,974,977,976,997,966,982,997,986,981,1017,982,1045,1026,1039,1024,1040,1046,1031,1008,986,977,991,973,985,1037,963,1928,1996,1988,2373,2540,2722,2837,2914,2978,3110,2960,2922,2874,2833,2773,2744,2732,2662,2634,2599,2565,2431,2407,2354,2395,2284,2249,2143,2121,2086,2109,1996,2006,1957,1910,1937,1956,1928,2314,2297,2317,2378,2333,2356,2341,2321,2347,2437,2348,2345,2359,2391,2408,2416,2409,2382,2349,2370,2354,2358,2353,2381,2366,2402,2361,1417,1402,1410,1643,1715,1921,2062,2139,2233,2401,2217,2211,2143,2163,2095,2060,2097,2019,2000,1958,1944,1828,1809,1789,1802,1748,1666,1628,1603,1617,1620,1500,1462,1504,1424,1440,1499,1467,1520,1548,1534,1559,1577,1545,1558,1600,1551,1564,1564,1542,1575,1566,1582,1583,1747,1688,1606,1574,1577,1556,1554,1558,1579,1606,1564,1381,1393,1404,1527,1683,1917,2101,2146,2264,2258,2258,2198,2153,2149,2087,2086,2016,2018,1950,1933,1946,1847,1817,1791,1788,1734,1696,1672,1584,1571,1559,1493,1515,1421,1418,1417,1431,1443,1503,1506,1512,1519,1532,1552,1580,1581,1516,1568,1544,1517,1524,1559,1572,1598,1580,1597,1578,1579,1578,1556,1543,1532,1540,1565,1524,622,624,626,628,679,706,801,918,981,1023,1028,1011,995,978,996,946,929,913,896,880,863,877,830,814,798,781,765,748,732,715,699,682,666,682,636,632,634,635,649,653,640,649,646,657,652,668,660,654,652,691,679,682,664,739,678,648,653,642,670,694,677,701,682,690,669,535,536,538,540,546,595,675,754,832,879,887,873,858,844,830,816,802,787,773,759,745,731,716,702,688,674,660,645,631,617,603,589,574,560,547,543,544,546,545,555,546,557,560,557,553,567,546,555,552,550,548,561,561,559,555,556,557,554,568,569,550,560,548,556,553,1521,1597,1561,1707,2007,2356,2494,2553,2767,2744,2615,2555,2614,2547,2586,2492,2477,2411,2400,2325,2294,2231,2206,2116,2056,1997,1937,1878,1819,1759,1700,1736,1848,1561,1550,1558,1768,1665,1786,1779,1810,1847,1841,1882,1832,1825,1840,1859,1888,1841,1870,1880,1895,1887,1863,1847,1830,1846,1826,1838,1832,1857,1832,1882,1833,680,682,684,686,703,768,872,973,1071,1106,1110,1093,1075,1058,1040,1023,1012,988,970,953,942,918,906,883,885,848,858,813,796,778,761,743,726,705,721,690,729,694,695,686,689,698,746,725,723,725,713,741,723,707,723,695,701,720,712,701,724,701,694,717,717,738,725,725,714,1758,1856,1908,2059,2431,2855,3045,3125,3251,3354,3162,3102,3154,3037,2988,2907,2885,2814,2750,2683,2645,2589,2498,2414,2358,2276,2207,2222,2077,2010,1953,1883,1947,1802,1810,1804,1838,1838,2141,2210,2160,2178,2213,2171,2192,2229,2193,2195,2223,2179,2224,2201,2224,2230,2261,2271,2247,2222,2262,2207,2224,2231,2268,2267,2203,1110,1113,1115,1144,1285,1489,1718,1866,1994,1983,1914,1951,1903,1847,1792,1785,1750,1736,1692,1701,1662,1577,1580,1540,1500,1474,1420,1379,1381,1299,1259,1219,1179,1145,1128,1131,1140,1148,1167,1210,1162,1173,1192,1181,1184,1208,1189,1190,1219,1184,1189,1206,1205,1211,1196,1218,1214,1204,1237,1183,1202,1212,1234,1198,1193,1415,1400,1408,1641,1713,1919,2060,2137,2231,2399,2215,2209,2141,2161,2093,2058,2095,2017,1998,1956,1942,1826,1807,1787,1800,1746,1664,1626,1601,1615,1618,1498,1460,1502,1422,1438,1497,1465,1518,1575,1524,1550,1555,1544,1558,1575,1548,1563,1567,1541,1567,1562,1567,1566,1601,1586,1568,1564,1608,1547,1563,1580,1598,1582,1567,2060,2197,2204,2444,2664,3073,3271,3505,3548,3563,3502,3452,3377,3275,3271,3131,3130,3143,2947,3000,2825,2764,2702,2685,2580,2548,2464,2450,2335,2281,2211,2159,2176,2108,2078,2089,2097,2109,2401,2414,2448,2463,2630,2467,2484,2513,2507,2529,2635,2650,2569,2562,2569,2578,2780,2659,2607,2601,2682,2620,2637,2654,2649,2654,2670,1082,1104,1089,1189,1317,1417,1568,1644,1778,1770,1779,1722,1694,1699,1638,1611,1583,1599,1527,1602,1556,1443,1415,1410,1423,1369,1341,1326,1248,1240,1259,1173,1181,1140,1134,1167,1209,1104,1162,1157,1161,1203,1161,1202,1169,1173,1169,1165,1200,1177,1187,1187,1188,1202,1214,1190,1173,1188,1187,1184,1175,1179,1174,1205,1176,1307,1330,1322,1471,1563,1714,1847,1975,2084,2136,2111,2026,1992,2027,1964,1938,1883,1860,1845,1801,1785,1739,1707,1633,1674,1607,1586,1529,1495,1464,1489,1375,1337,1376,1336,1328,1396,1337,1391,1381,1379,1391,1386,1421,1388,1391,1415,1483,1397,1412,1411,1418,1422,1419,1440,1430,1417,1421,1413,1424,1430,1426,1421,1436,1426,12,12,12,12,12,12,14,15,17,19,20,20,20,19,19,19,18,18,18,17,17,17,16,16,16,15,15,15,14,14,14,13,13,13,12,12,12,12,0,0,0,0,0,0,0,0,0,0,0,0,0,0,0,0,0,0,0,0,0,0,0,0,0,0,0,398,371,372,394,398,400,451,524,560,567,619,565,557,548,540,532,564,548,546,530,492,519,473,504,493,532,502,483,438,428,450,439,398,389,380,375,376,377,374,379,373,377,395,387,389,411,384,395,389,393,386,380,383,395,399,381,392,381,379,388,384,396,387,393,383,1121,1160,1191,1209,1354,1444,1665,1796,1810,1936,1807,1855,1762,1686,1720,1697,1651,1614,1598,1550,1537,1514,1480,1447,1449,1411,1342,1313,1329,1296,1271,1270,1193,1153,1173,1171,1158,1161,1213,1199,1189,1219,1261,1303,1223,1228,1241,1271,1242,1262,1275,1258,1231,1258,1246,1249,1262,1236,1262,1342,1317,1337,1342,1273,1269,628,659,632,661,648,746,800,893,999,993,1034,1018,1003,948,933,917,903,917,876,887,878,849,846,814,852,781,765,749,758,769,703,734,690,655,668,638,635,637,669,646,666,656,652,649,680,659,649,644,663,656,653,655,654,651,645,656,655,659,657,653,648,657,655,652,651,861,837,836,804,886,982,1146,1275,1305,1416,1321,1304,1358,1264,1236,1223,1202,1175,1164,1134,1136,1116,1080,1052,1087,1050,1041,1083,974,954,932,927,919,903,870,846,852,853,859,843,846,845,859,855,859,856,859,864,878,871,878,878,878,879,881,879,883,894,902,898,889,886,913,900,907,1064,1103,1132,1232,1357,1359,1621,1646,1720,1848,1720,1769,1678,1603,1639,1617,1525,1537,1522,1475,1464,1442,1410,1401,1382,1345,1277,1249,1318,1235,1171,1211,1136,1095,1152,1136,1100,1140,1145,1122,1134,1151,1137,1152,1142,1139,1141,1154,1183,1162,1162,1152,1159,1180,1166,1161,1158,1175,1166,1181,1176,1167,1183,1192,1193,1267,1310,1276,1376,1513,1694,1869,1997,2099,2122,2112,2080,2049,2025,1985,1954,2017,1890,1859,1827,1852,1764,1769,1741,1687,1671,1604,1672,1519,1480,1428,1397,1499,1299,1329,1320,1302,1335,1381,1390,1414,1438,1453,1458,1453,1422,1418,1448,1405,1395,1410,1417,1414,1415,1441,1430,1403,1402,1415,1413,1410,1425,1430,1455,1415,799,826,857,841,877,991,1141,1156,1249,1312,1309,1288,1267,1247,1226,1221,1214,1218,1177,1144,1156,1111,1058,1058,1095,1034,1054,962,969,913,892,895,874,853,847,844,814,841,840,847,846,862,868,866,874,869,846,867,856,846,856,864,861,854,886,874,850,850,859,852,845,856,862,864,848,501,576,547,605,552,604,735,754,794,934,845,891,821,839,866,761,775,793,726,718,774,730,764,718,743,665,696,647,688,621,607,585,640,606,621,591,551,584,559,561,571,580,576,584,565,582,564,595,575,573,576,579,592,607,588,582,590,578,587,590,586,593,572,579,575,553,526,525,527,539,615,658,737,859,852,864,900,874,827,854,799,786,757,757,738,732,717,703,685,680,692,651,626,624,602,615,588,586,549,540,555,556,557,530,529,531,531,538,537,537,540,542,545,545,550,552,548,547,548,556,554,555,555,559,564,561,561,569,573,575,385,364,387,385,395,387,424,442,482,477,508,482,489,475,471,468,464,468,457,454,450,447,443,439,436,432,444,434,425,417,406,425,415,405,392,391,387,393,378,378,379,378,379,378,385,383,378,385,379,381,385,383,385,384,391,386,384,385,385,381,387,387,383,384,384,549,572,574,575,561,641,725,766,852,900,873,868,858,850,842,834,847,819,810,777,796,740,750,739,732,717,736,654,681,630,616,626,611,596,583,579,580,582,585,575,571,582,580,575,579,588,578,582,576,575,583,582,590,584,593,584,595,586,586,577,585,592,590,592,594,446,450,448,451,456,491,555,644,655,697,702,691,681,670,660,649,639,621,621,600,600,589,576,606,595,580,571,578,531,517,504,492,482,471,457,452,454,457,448,460,481,572,472,442,465,513,483,453,576,545,461,492,578,559,559,444,468,475,506,483,445,476,475,454,449,355,358,356,358,359,384,449,505,506,546,553,545,537,528,520,512,504,489,488,473,475,464,455,489,476,480,460,467,424,412,403,393,384,374,365,360,361,362,347,354,348,362,348,357,350,357,356,358,355,354,360,356,361,361,361,361,363,361,363,358,364,371,369,373,372,642,665,667,656,660,759,854,909,1044,1054,1025,1017,1004,994,1001,973,984,948,942,906,922,860,855,854,849,831,831,748,787,734,704,726,705,691,673,670,675,663,667,664,682,763,683,663,678,706,687,675,716,703,678,679,725,725,706,670,685,682,697,697,676,685,672,679,676,1410,1437,1414,1457,1652,1889,1999,2123,2202,2401,2127,2177,2183,2123,2152,2084,1931,1949,1868,1825,1822,1813,1748,1692,1835,1725,1713,1676,1557,1517,1481,1497,1488,1393,1400,1376,1453,1387,1480,1486,1502,1522,1540,1520,1514,1519,1509,1517,1503,1493,1507,1516,1518,1525,1539,1527,1505,1501,1514,1512,1510,1534,1539,1552,1524,0,0,0,0,0,0,0,0,0,0,0,0,0,0,0,0,0,0,0,0,0,0,0,0,0,0,0,0,0,0,0,0,0,0,0,0,0,0,0,0,0,0,0,0,0,0,0,0,0,0,0,0,0,0,0,0,0,0,0,0,0,0,0,0,0,599,630,603,632,616,710,760,848,952,947,988,973,1033,904,890,874,861,877,835,848,840,811,809,777,814,746,730,715,726,715,672,655,660,626,636,608,606,608,611,602,603,607,641,636,646,641,628,655,632,622,636,609,613,629,624,616,636,611,607,629,629,645,634,636,630,713,716,718,706,744,833,935,1022,1083,1090,1097,1098,1063,1076,1051,1040,1011,1018,984,982,944,931,926,918,900,875,877,851,847,820,797,792,759,750,737,724,726,728,732,728,716,722,772,814,744,747,752,760,746,758,751,755,746,755,749,756,776,747,752,795,768,782,785,761,760,299,300,301,302,303,320,362,404,446,490,497,492,487,481,466,458,466,442,434,427,419,411,403,395,387,379,371,363,355,347,340,332,324,316,308,304,304,305,300,297,296,296,299,294,297,295,297,295,296,296,301,297,299,300,300,299,296,297,296,299,301,301,299,296,300,411,412,422,424,416,449,509,569,628,676,684,688,662,651,640,630,619,608,597,586,575,564,553,552,531,520,509,498,487,476,465,454,453,432,421,417,418,419,401,408,409,429,414,414,410,417,409,411,414,411,408,404,406,409,408,409,412,409,406,410,407,419,409,412,408,998,1006,1009,1025,1103,1255,1363,1516,1611,1738,1553,1530,1629,1588,1482,1493,1476,1455,1421,1386,1367,1288,1317,1309,1274,1250,1221,1275,1182,1145,1118,1106,1103,1040,999,1015,1042,1044,1061,1052,1054,1046,1051,1058,1061,1068,1052,1061,1074,1084,1096,1078,1104,1110,1146,1119,1077,1108,1118,1103,1101,1123,1105,1113,1098,1005,1017,1012,1044,1182,1238,1487,1515,1616,1719,1621,1599,1556,1522,1552,1538,1409,1440,1411,1365,1356,1337,1305,1298,1314,1267,1211,1185,1185,1144,1081,1124,1050,1009,1029,1049,1045,1016,1030,1029,1044,1057,1054,1069,1046,1067,1040,1088,1061,1043,1055,1050,1065,1087,1068,1060,1070,1046,1058,1066,1065,1074,1052,1081,1057,705,690,709,702,732,807,871,938,1080,1056,1106,1015,1001,1048,1024,1031,1016,989,940,959,944,896,942,899,884,853,853,838,823,776,793,778,732,742,735,698,725,701,710,702,717,730,735,738,732,714,722,751,724,717,728,710,722,717,724,723,721,739,723,731,730,722,722,732,718,982,1045,1000,1050,1093,1262,1410,1493,1550,1593,1623,1574,1551,1512,1472,1447,1442,1455,1379,1403,1355,1336,1278,1286,1246,1220,1195,1170,1207,1123,1097,1073,1079,1034,1048,1009,1042,1020,1072,1072,1046,1055,1058,1077,1063,1082,1083,1156,1078,1120,1113,1118,1088,1160,1127,1075,1078,1068,1103,1135,1107,1138,1124,1131,1099,877,880,883,889,920,1019,1153,1282,1372,1394,1396,1361,1343,1362,1306,1288,1294,1271,1234,1203,1184,1165,1158,1136,1113,1090,1114,1045,1023,1001,978,955,932,910,894,890,933,895,909,906,908,914,907,909,925,921,916,922,927,916,917,924,930,942,940,942,921,935,946,921,929,945,920,925,917,1058,1027,980,1035,1208,1247,1342,1541,1575,1761,1586,1664,1621,1590,1577,1478,1439,1398,1386,1469,1338,1396,1318,1313,1288,1222,1187,1192,1241,1173,1168,1104,1091,1048,1038,1057,1056,1116,1084,1075,1082,1077,1106,1143,1087,1110,1114,1126,1122,1131,1121,1131,1115,1137,1112,1110,1116,1118,1107,1154,1131,1146,1128,1136,1153,297,298,299,300,301,318,360,402,444,488,495,490,485,479,464,456,464,440,432,425,417,409,401,393,385,377,369,361,353,345,338,330,322,314,306,302,302,303,293,287,293,303,302,299,297,294,297,309,303,301,311,337,348,331,334,309,296,312,297,293,300,300,297,309,292,1362,1339,1300,1466,1466,1698,1992,2037,2091,2086,2162,2013,2056,1957,2054,1892,1983,1827,1892,1761,1729,1741,1664,1631,1646,1566,1533,1501,1468,1435,1403,1370,1543,1318,1352,1304,1308,1312,1366,1410,1372,1375,1404,1378,1392,1398,1397,1398,1409,1397,1407,1399,1404,1407,1417,1414,1418,1417,1442,1395,1418,1422,1443,1420,1414,430,431,432,434,436,470,532,576,639,704,697,670,671,665,666,639,634,624,617,584,570,587,576,564,553,527,517,519,508,483,485,455,463,452,429,419,437,439,430,425,426,427,444,432,433,439,427,448,433,429,439,437,434,439,445,441,441,440,438,446,437,439,440,444,444,12,12,12,12,12,12,14,15,17,19,20,20,20,19,19,19,18,18,18,17,17,17,16,16,16,15,15,15,14,14,14,13,13,13,12,12,12,12,0,0,0,0,0,0,0,0,0,0,0,0,0,0,0,0,0,0,0,0,0,0,0,0,0,0,0,660,654,669,692,714,756,872,977,1046,1102,1088,1075,1070,1052,1035,967,988,976,981,938,923,931,912,832,845,835,840,807,777,760,731,732,712,693,677,683,665,679,691,671,684,682,677,678,728,702,669,670,691,692,685,674,676,684,676,685,680,683,676,675,668,680,685,689,664,386,431,389,434,436,419,474,576,583,642,640,629,619,609,648,589,579,569,559,548,538,528,518,508,498,488,478,506,457,447,473,427,417,407,397,425,426,394,395,396,393,404,395,395,395,401,394,399,397,395,400,399,401,401,400,401,402,400,403,396,401,403,402,403,404,527,529,531,532,538,584,660,736,811,858,865,851,837,824,810,797,783,769,756,742,729,715,702,688,674,661,647,634,620,606,593,579,566,552,539,535,537,538,533,542,541,552,554,553,555,557,538,556,545,541,549,556,555,557,579,559,544,540,554,550,538,548,544,550,540,151,151,152,152,152,156,175,195,214,234,247,244,240,236,232,228,225,221,217,213,209,205,202,198,194,190,186,183,179,175,171,167,164,160,156,153,153,154,144,141,142,143,149,142,144,143,144,146,144,151,157,148,146,150,150,143,142,146,159,163,165,169,169,152,150,393,456,457,458,461,426,482,538,594,642,652,641,631,621,692,600,590,579,648,633,548,538,527,517,575,496,486,476,465,455,445,492,483,414,457,399,400,457,417,411,419,429,414,418,418,419,424,420,420,417,418,420,418,420,422,424,424,423,422,423,425,447,446,450,448,471,472,509,475,478,516,583,650,717,766,774,762,749,737,725,713,701,689,676,664,652,640,628,616,603,591,579,567,555,543,530,518,506,494,482,478,479,517,471,477,479,490,481,491,479,494,481,485,483,477,481,488,486,486,487,487,487,485,496,493,484,494,490,496,492,1606,1616,1748,1809,2118,2440,2636,2720,2797,2925,2751,2686,2718,2626,2581,2571,2467,2417,2427,2331,2287,2262,2216,2119,2082,2025,2011,1940,1877,1809,1903,1702,1665,1656,1682,1673,1685,1687,1849,1856,1826,1847,1845,1893,1853,1884,1899,1975,1879,1914,1886,1902,1884,1930,1907,1878,1892,1874,1882,1916,1900,1925,1904,1918,1881,1383,1357,1396,1481,1607,1786,1987,2138,2212,2214,2238,2198,2092,2144,2078,2007,1984,2040,1921,1837,1852,1879,1785,1702,1665,1678,1606,1620,1592,1582,1483,1461,1490,1424,1431,1369,1401,1394,1481,1472,1480,1490,1482,1504,1488,1506,1499,1505,1525,1524,1574,1581,1604,1550,1497,1517,1534,1529,1512,1510,1519,1488,1520,1577,1525,1185,1134,1142,1124,1239,1315,1548,1718,1715,1734,1764,1715,1663,1673,1610,1573,1595,1561,1555,1564,1551,1494,1443,1386,1414,1422,1323,1313,1284,1334,1230,1167,1218,1175,1122,1132,1154,1200,1177,1173,1189,1218,1211,1212,1204,1191,1198,1221,1211,1202,1204,1241,1265,1252,1233,1214,1204,1212,1206,1204,1196,1221,1208,1231,1197,574,576,571,579,582,665,726,817,900,981,937,933,952,903,931,905,889,870,817,791,827,812,767,739,732,721,706,708,665,661,655,651,605,600,610,605,584,586,584,595,592,599,615,596,605,606,593,599,594,598,595,609,607,617,701,663,609,605,606,594,591,592,613,605,592,835,843,849,825,903,959,1106,1310,1302,1390,1345,1407,1304,1315,1276,1237,1220,1214,1161,1195,1123,1135,1093,1035,1067,1088,1011,977,1019,1005,943,892,897,873,839,848,858,830,855,854,866,900,882,859,877,894,870,873,871,878,876,873,882,882,877,867,879,873,886,891,874,893,871,874,879,1156,1099,1107,1137,1232,1381,1566,1729,1761,1827,1788,1837,1766,1710,1673,1649,1652,1678,1583,1545,1530,1504,1470,1396,1394,1382,1332,1310,1293,1283,1252,1163,1209,1132,1146,1144,1120,1147,1169,1162,1152,1167,1279,1265,1208,1248,1214,1318,1256,1274,1268,1216,1215,1269,1256,1206,1285,1237,1221,1306,1257,1322,1290,1322,1261,291,292,293,293,294,310,351,392,433,473,485,477,470,462,454,446,439,431,423,416,408,400,392,385,377,369,362,354,346,338,331,323,315,307,300,295,296,297,280,289,288,293,294,295,288,294,284,304,287,287,292,293,305,317,303,295,295,286,300,297,296,299,287,295,287,417,462,420,490,468,456,516,625,637,698,694,683,672,661,698,638,627,616,605,594,583,572,561,550,539,528,517,544,494,483,508,461,450,439,428,456,457,426,423,433,433,438,440,444,434,448,432,448,434,432,438,445,450,457,449,446,442,437,452,450,445,446,437,444,437,1236,1195,1203,1243,1359,1506,1742,1882,1890,1974,1933,1979,1926,1848,1845,1763,1782,1802,1692,1664,1660,1623,1587,1510,1506,1517,1439,1400,1423,1410,1349,1245,1290,1226,1237,1239,1215,1229,1281,1266,1261,1267,1281,1318,1303,1317,1296,1309,1327,1318,1325,1326,1320,1350,1351,1304,1318,1332,1334,1360,1330,1336,1357,1405,1337,870,843,845,850,891,1004,1117,1245,1331,1388,1386,1345,1342,1302,1298,1258,1237,1257,1193,1172,1166,1128,1123,1089,1101,1057,1035,1042,977,989,945,944,903,882,882,898,886,857,876,882,905,916,938,935,945,896,905,930,890,884,894,896,892,890,919,907,882,882,885,886,888,894,904,920,886,651,678,680,681,702,744,878,959,1069,1084,1111,1058,1076,1070,1041,951,972,961,965,923,909,916,899,819,863,822,828,794,765,749,721,721,702,703,666,672,655,690,663,686,677,691,680,666,677,691,684,701,670,669,679,677,735,682,700,675,695,691,690,670,694,701,683,697,691,0,0,0,0,0,0,0,0,0,0,0,0,0,0,0,0,0,0,0,0,0,0,0,0,0,0,0,0,0,0,0,0,0,0,0,0,0,0,0,0,0,0,0,0,0,0,0,0,0,0,0,0,0,0,0,0,0,0,0,0,0,0,0,0,0,1282,1245,1271,1307,1424,1594,1829,2018,2029,2067,2002,2002,1950,1915,1875,1809,1809,1873,1720,1752,1728,1672,1612,1598,1563,1563,1534,1468,1452,1435,1401,1309,1327,1277,1288,1290,1252,1295,1325,1332,1333,1367,1321,1369,1338,1361,1349,1364,1371,1350,1349,1343,1371,1372,1366,1376,1382,1365,1379,1366,1359,1365,1381,1384,1364,787,759,762,764,796,882,999,1204,1203,1254,1241,1272,1201,1193,1161,1118,1134,1162,1078,1080,1090,1023,1003,963,964,966,924,945,919,905,872,808,836,786,791,787,771,820,789,798,792,793,812,825,820,816,800,820,808,815,804,806,801,813,808,808,805,800,801,802,802,805,802,797,787,758,760,809,768,789,945,1047,1123,1263,1257,1255,1212,1249,1188,1205,1168,1132,1113,1132,1050,1072,1054,1042,971,964,936,955,930,877,901,855,817,798,779,798,789,766,774,774,779,764,787,778,779,787,801,781,772,781,793,787,776,777,785,785,786,783,789,777,785,775,793,785,785,771,566,630,632,620,633,650,721,824,907,951,937,922,907,892,950,862,847,857,885,896,810,795,757,742,794,712,697,778,681,652,637,674,658,624,633,606,594,627,619,621,609,667,652,624,626,639,629,652,677,641,647,629,621,626,639,637,624,622,613,622,617,619,633,626,602,412,387,388,389,390,450,510,570,630,633,687,676,665,654,643,632,621,610,599,588,577,566,555,544,533,522,511,500,489,478,467,456,445,434,423,419,420,421,416,415,416,417,417,418,418,423,418,418,416,417,416,426,424,423,418,423,422,423,426,424,422,425,415,419,419,1109,1111,1128,1101,1235,1304,1466,1577,1623,1763,1630,1687,1636,1558,1625,1566,1543,1628,1466,1484,1513,1410,1414,1405,1364,1329,1360,1282,1232,1227,1170,1200,1162,1157,1115,1125,1125,1125,1164,1129,1139,1141,1131,1162,1150,1157,1156,1157,1180,1156,1154,1156,1152,1176,1184,1159,1158,1168,1156,1159,1165,1162,1168,1197,1173,415,416,417,418,420,447,503,526,615,662,671,661,652,609,635,620,609,599,589,579,572,560,548,540,530,517,479,498,487,476,466,457,419,435,424,420,422,397,402,402,406,414,401,407,404,406,408,403,406,399,401,401,402,404,402,404,403,403,403,407,401,410,400,406,403,1456,1546,1427,1501,1656,1853,2032,2177,2200,2361,2199,2185,2152,2097,2088,2072,2006,2047,1959,1886,1882,1821,1900,1759,1716,1700,1683,1612,1664,1540,1581,1467,1526,1434,1432,1420,1461,1441,1507,1562,1513,1544,1562,1548,1547,1564,1535,1562,1554,1527,1551,1556,1565,1565,1589,1574,1555,1544,1573,1554,1560,1580,1587,1586,1567,857,873,876,868,921,1034,1161,1294,1368,1426,1412,1405,1357,1359,1336,1299,1277,1264,1241,1218,1196,1173,1141,1118,1096,1073,1043,1028,1005,983,1011,938,910,893,880,877,872,881,881,881,874,894,886,894,892,907,891,889,888,899,891,886,884,882,890,892,892,896,881,884,889,904,898,899,884,785,757,760,762,794,880,997,1202,1201,1252,1239,1270,1199,1191,1159,1116,1132,1160,1076,1078,1088,1021,1001,961,962,964,922,943,917,903,870,806,834,784,789,785,769,818,790,783,789,787,789,783,789,795,792,793,785,792,794,806,800,801,798,804,798,798,797,813,802,807,793,798,800,1780,1637,1757,1936,1977,2291,2493,2628,2644,2603,2635,2527,2540,2559,2454,2431,2512,2428,2286,2197,2195,2219,2335,2187,2005,2039,1951,1906,1834,1824,1768,1713,1684,1663,1854,1743,1709,1724,1908,1946,1915,1931,1922,1940,1931,1947,1941,1952,1980,1940,1934,1937,1958,1965,1964,1985,1983,1964,1978,1946,1968,1975,2010,1976,1955,440,441,475,444,446,525,589,608,726,733,728,717,756,693,744,698,686,674,690,620,657,644,632,578,594,555,582,570,520,508,517,485,474,462,483,446,448,449,448,446,450,455,456,457,457,452,455,461,463,457,456,465,464,458,468,462,457,456,456,467,454,458,457,464,454,660,654,669,692,714,756,872,977,1046,1102,1088,1075,1070,1052,1035,967,988,976,981,938,923,931,912,832,845,835,840,807,777,760,731,732,712,693,677,683,665,679,691,671,684,682,677,678,728,702,669,670,691,692,685,674,676,684,676,685,680,683,676,675,668,680,685,689,664,678,680,682,684,729,814,836,930,1013,1052,1053,1037,1021,1004,988,1048,955,939,923,932,890,909,909,876,825,808,815,822,759,743,726,745,694,677,665,688,690,691,669,676,674,685,672,672,679,682,680,682,676,678,676,680,683,684,686,694,683,680,684,683,690,692,685,685,684,965,945,945,956,1041,1206,1270,1430,1438,1468,1508,1444,1466,1396,1376,1468,1373,1304,1282,1284,1235,1287,1241,1244,1147,1152,1122,1122,1056,1031,1034,1022,962,941,961,953,983,982,969,963,975,999,984,986,982,984,991,993,994,983,1020,1016,1038,1020,1011,998,974,998,985,981,977,1005,985,1009,975,1745,1759,1736,1904,2194,2338,2505,2656,2579,2616,2543,2653,2617,2442,2430,2363,2371,2281,2346,2253,2163,2124,2081,2144,2042,1962,1916,1874,1841,1876,1820,1721,1692,1784,1662,1790,1768,1786,1937,1943,1896,1907,1938,1928,1935,1948,1942,1953,2000,1949,1962,1975,1976,1980,1956,1988,2000,2000,2033,1986,1983,1991,2041,1975,1979,1249,1174,1177,1217,1418,1476,1608,1863,1808,1860,1797,1770,1836,1732,1733,1677,1651,1622,1617,1570,1536,1509,1478,1571,1423,1394,1360,1330,1309,1299,1306,1222,1194,1220,1162,1267,1235,1211,1262,1242,1289,1537,1292,1229,1282,1374,1309,1254,1353,1322,1269,1275,1353,1334,1325,1241,1259,1260,1304,1309,1239,1295,1261,1264,1273,1416,1389,1433,1521,1747,1971,1992,2242,2181,2222,2201,2185,2186,2082,2052,2151,2046,1972,1862,1906,1901,1863,1873,1791,1747,1700,1672,1650,1590,1575,1493,1522,1446,1439,1475,1447,1440,1458,1517,1519,1521,1526,1536,1543,1562,1551,1545,1549,1571,1559,1633,1636,1660,1618,1548,1568,1564,1575,1571,1558,1570,1549,1556,1604,1545,1736,1639,1667,1875,2310,2245,2377,2568,2493,2605,2532,2422,2536,2362,2351,2286,2295,2207,2319,2243,2154,2054,2013,2078,1977,1898,1853,1852,1780,1854,1761,1664,1635,1767,1641,1732,1680,1764,1842,1832,1864,1879,1882,1923,1871,1904,1894,1905,1927,1893,1902,1938,1955,1948,1914,1905,1886,1908,1887,1888,1888,1919,1896,1924,1901,845,840,842,852,890,954,1076,1186,1276,1308,1314,1295,1276,1288,1239,1220,1201,1182,1156,1144,1125,1106,1087,1059,1050,1042,1012,993,974,955,924,917,899,873,853,849,851,853,844,856,861,879,882,869,866,878,855,863,860,859,859,878,874,884,967,931,876,871,877,866,856,859,877,871,858,477,478,480,480,484,525,594,664,734,781,792,779,767,754,739,726,714,703,691,678,665,653,638,627,613,600,587,575,564,551,537,524,513,499,488,483,485,487,475,478,487,502,491,492,484,498,483,508,490,486,516,516,539,531,507,495,498,502,500,491,502,511,491,501,487,541,522,543,546,576,615,687,761,844,825,904,894,881,823,810,796,801,782,765,723,752,693,730,716,703,683,675,658,641,624,620,606,609,544,572,553,529,565,555,549,552,552,554,548,553,552,554,552,552,553,557,560,557,560,561,557,560,561,561,570,563,567,560,557,565,1072,1071,1100,1130,1213,1335,1551,1606,1652,1700,1641,1615,1630,1620,1587,1534,1510,1522,1485,1523,1404,1370,1355,1369,1306,1308,1247,1224,1201,1193,1173,1116,1093,1072,1051,1075,1108,1108,1082,1106,1107,1110,1133,1108,1115,1146,1108,1118,1130,1105,1116,1118,1136,1142,1295,1241,1152,1123,1126,1118,1105,1104,1115,1153,1096,502,484,486,487,511,533,562,652,686,744,738,726,715,732,692,681,670,658,647,636,625,614,613,615,580,591,579,546,534,544,512,519,489,478,467,490,491,492,470,471,477,494,481,478,483,501,477,486,491,502,529,525,531,514,480,481,490,502,494,484,492,499,488,487,486,434,435,436,438,440,476,516,589,628,700,682,672,661,674,641,651,620,610,599,589,579,567,572,548,538,528,517,507,514,503,491,470,467,448,446,440,441,443,433,430,438,458,446,435,437,445,444,446,456,457,476,493,484,472,452,442,439,455,445,433,435,449,442,453,441,1016,1022,1023,1042,1140,1280,1352,1527,1566,1598,1591,1566,1585,1516,1492,1540,1444,1413,1389,1392,1342,1354,1339,1299,1245,1211,1215,1211,1145,1118,1086,1101,1043,1021,1041,1033,1033,1063,1070,1028,1028,1031,1017,1075,1040,1053,1053,1053,1075,1065,1066,1044,1063,1088,1123,1046,1049,1087,1047,1072,1055,1044,1076,1083,1058,922,930,931,941,1024,1148,1205,1406,1418,1449,1445,1428,1448,1392,1425,1409,1315,1287,1264,1267,1219,1233,1224,1185,1130,1102,1107,1105,1041,1015,989,1004,948,927,946,940,943,981,978,953,965,962,967,962,1013,1009,969,1005,993,962,967,1022,1026,1028,1015,1028,1016,1035,1020,1013,1003,982,960,960,959,386,387,388,389,391,420,474,519,586,620,643,633,623,600,602,580,581,571,561,551,542,530,510,509,499,489,479,469,459,449,438,427,417,407,397,392,393,394,385,387,385,388,409,403,422,414,392,411,402,403,406,389,393,410,403,395,407,394,389,401,395,412,403,408,395,1968,2017,2083,2381,2543,2896,2924,3054,3058,3126,3010,2945,2989,2924,2776,2788,2744,2701,2688,2611,2550,2500,2468,2476,2399,2317,2313,2224,2158,2111,2031,2050,2010,2016,1982,2014,1975,1994,2309,2329,2369,2393,2381,2400,2420,2447,2443,2444,2485,2477,2519,2498,2514,2537,2592,2589,2578,2603,2637,2629,2646,2665,2658,2683,2711,668,670,672,674,717,800,820,912,995,1033,1036,1020,1004,988,972,1032,939,923,907,917,875,895,895,862,811,795,803,810,747,731,715,733,683,667,654,677,679,681,680,669,668,671,677,678,684,679,679,687,687,679,685,690,693,687,686,698,689,698,685,677,692,693,677,676,668,1220,1145,1148,1183,1375,1432,1560,1894,1762,1815,1753,1727,1794,1690,1691,1636,1610,1580,1578,1532,1499,1472,1442,1470,1388,1360,1327,1298,1277,1268,1275,1192,1165,1191,1133,1237,1206,1181,1200,1250,1205,1229,1244,1236,1222,1244,1227,1245,1241,1215,1234,1237,1251,1251,1248,1251,1246,1236,1260,1243,1254,1267,1271,1267,1257,0,0,0,0,0,0,0,0,0,0,0,0,0,0,0,0,0,0,0,0,0,0,0,0,0,0,0,0,0,0,0,0,0,0,0,0,0,0,0,0,0,0,0,0,0,0,0,0,0,0,0,0,0,0,0,0,0,0,0,0,0,0,0,0,0,580,589,583,585,618,687,694,771,846,887,892,879,865,863,837,883,810,796,782,795,755,777,780,749,701,687,682,706,646,632,618,639,591,577,565,588,589,591,579,582,569,595,592,587,595,607,586,585,592,602,593,583,583,592,588,587,590,587,578,582,578,585,587,585,568,790,793,811,819,858,904,974,1083,1192,1230,1232,1215,1175,1146,1126,1108,1090,1072,1096,1036,1052,1000,978,959,946,921,944,906,906,867,872,849,829,791,778,822,824,822,822,794,806,806,790,813,804,809,807,820,836,816,817,815,812,821,818,817,805,817,839,820,822,812,812,837,832,1583,1573,1605,1746,2013,2282,2329,2522,2456,2447,2466,2471,2414,2351,2296,2342,2304,2165,2175,2132,2144,2094,2050,1999,1875,1913,1867,1841,1777,1814,1689,1690,1697,1633,1647,1573,1618,1653,1794,1755,1770,1797,1764,1777,1781,1782,1803,1864,1802,1795,1864,1840,1847,1891,1847,1817,1786,1816,1845,1897,1907,1965,1950,1853,1825,1601,1578,1566,1710,2026,2113,2247,2441,2367,2408,2378,2302,2444,2246,2274,2173,2208,2133,2121,2075,2022,1985,1944,1979,1871,1833,1789,1720,1719,1729,1675,1605,1576,1658,1545,1645,1593,1640,1704,1729,1736,1706,1748,1729,1739,1765,1753,1750,1761,1762,1764,1789,1792,1824,1758,1769,1774,1766,1769,1784,1774,1779,1767,1819,1771,660,662,723,665,747,756,793,887,1037,1001,1005,990,976,961,1008,1011,977,980,888,862,848,833,819,804,789,775,774,758,731,726,743,736,739,657,645,726,675,672,690,674,677,684,737,721,703,731,706,749,721,716,713,686,692,712,702,689,726,695,686,713,703,738,713,714,703,1624,1553,1597,1678,1983,2085,2219,2364,2501,2422,2352,2330,2486,2260,2234,2205,2135,2168,2113,2060,2015,2044,1942,1906,1855,1832,1788,1750,1719,1723,1628,1603,1564,1544,1534,1656,1581,1585,1673,1731,1682,1713,1744,1718,1712,1733,1708,1726,1721,1701,1715,1731,1740,1749,1831,1800,1741,1728,1749,1721,1732,1744,1770,1757,1736,329,330,331,332,333,348,392,436,481,523,540,532,524,515,507,498,490,482,473,465,456,448,440,431,423,415,406,398,389,381,373,364,356,348,339,334,335,336,322,326,322,332,328,335,326,337,328,332,326,325,326,331,330,327,330,331,328,326,333,326,327,327,326,332,325,1527,1529,1569,1731,1921,2069,2259,2381,2436,2583,2338,2300,2376,2302,2237,2173,2159,2215,2090,2080,2041,1944,1916,1888,1905,1878,1782,1729,1734,1714,1636,1635,1615,1613,1547,1537,1581,1572,1711,1663,1675,1771,1683,1694,1697,1725,1733,1763,1705,1720,1788,1712,1727,1786,1732,1708,1705,1710,1782,1857,1868,1908,1891,1761,1759,578,587,581,583,616,685,692,769,844,885,890,877,863,861,835,881,808,794,780,793,753,775,778,747,699,685,680,704,644,630,616,637,589,575,563,586,587,589,575,572,573,577,575,577,585,586,579,583,585,582,579,587,592,595,594,594,586,593,607,586,591,598,584,584,583,1216,1174,1178,1268,1307,1486,1586,1693,1827,1738,1798,1728,1748,1718,1654,1786,1605,1580,1600,1569,1552,1481,1510,1432,1407,1383,1347,1324,1309,1364,1259,1312,1295,1242,1186,1185,1191,1239,1271,1274,1266,1321,1320,1319,1302,1299,1307,1340,1306,1336,1338,1330,1289,1309,1303,1322,1326,1294,1330,1368,1333,1330,1338,1307,1307,954,966,980,994,1059,1187,1287,1447,1495,1553,1494,1473,1470,1445,1433,1384,1377,1353,1354,1311,1282,1259,1233,1216,1162,1152,1123,1109,1093,1078,1043,1020,997,976,964,967,1009,1011,976,974,990,1012,990,1012,983,991,982,983,1001,990,989,1001,997,1013,1004,1006,994,1007,1008,1012,1004,1012,988,1013,1012,678,680,682,684,729,814,836,930,1013,1052,1053,1037,1021,1004,988,1048,955,939,923,932,890,909,909,876,825,808,815,822,759,743,726,745,694,677,665,688,690,691,669,676,674,685,672,672,679,682,680,682,676,678,676,680,683,684,686,694,683,680,684,683,690,692,685,685,684,231,231,232,233,234,244,277,309,342,374,387,381,375,369,363,356,350,344,338,332,325,319,313,307,301,294,288,282,276,269,263,257,251,245,238,234,235,236,231,219,220,219,225,225,226,223,224,227,234,227,233,232,231,231,231,228,230,238,241,241,233,228,247,240,243,446,448,449,459,453,490,566,618,697,730,738,726,833,703,691,679,667,656,656,695,621,609,656,586,574,562,551,539,527,516,504,543,481,513,458,453,454,456,449,449,452,457,458,457,463,456,456,462,462,458,478,476,476,461,471,464,464,465,462,458,469,463,462,465,462,1083,1087,1090,1276,1195,1336,1512,1719,1775,1756,1746,1719,1691,1663,1636,1608,1610,1550,1702,1497,1469,1442,1414,1386,1359,1331,1428,1276,1248,1220,1229,1165,1137,1115,1123,1135,1102,1103,1139,1143,1143,1144,1167,1212,1157,1188,1183,1193,1207,1192,1180,1188,1177,1204,1165,1168,1183,1175,1162,1195,1182,1200,1177,1189,1189,591,593,594,596,607,665,752,840,974,967,971,955,940,925,909,894,879,863,848,832,817,802,786,771,755,740,725,709,694,679,663,648,632,617,604,600,601,603,594,606,594,609,606,615,600,605,613,602,599,603,599,602,601,599,605,609,605,601,602,606,608,622,615,622,609,854,893,896,913,954,1098,1222,1337,1442,1453,1503,1462,1405,1382,1359,1313,1306,1325,1225,1260,1172,1197,1171,1148,1080,1102,1085,1082,1051,1009,989,998,942,949,907,916,904,932,912,922,916,927,922,924,929,939,925,936,928,934,930,923,916,924,930,934,921,925,917,922,917,932,932,934,916,1026,1030,1033,1051,1122,1253,1418,1627,1685,1667,1659,1633,1606,1580,1554,1527,1531,1472,1529,1422,1396,1369,1343,1317,1290,1264,1363,1252,1185,1223,1169,1106,1080,1094,1066,1113,1045,1045,1114,1087,1095,1097,1128,1168,1116,1137,1146,1170,1162,1203,1236,1200,1142,1199,1162,1142,1149,1151,1207,1312,1277,1298,1273,1218,1226,1146,1121,1123,1185,1301,1639,1774,1939,2042,2042,2022,1994,1970,1934,1891,1854,1816,1778,1740,1747,1641,1627,1565,1551,1514,1476,1438,1412,1336,1325,1298,1249,1184,1181,1165,1167,1185,1181,1213,1218,1269,1526,1268,1207,1257,1355,1291,1229,1335,1298,1248,1252,1330,1314,1298,1215,1235,1241,1280,1284,1216,1272,1238,1243,1249,720,716,742,742,753,869,981,1084,1162,1236,1231,1168,1132,1131,1147,1105,1135,1077,1078,1056,1071,985,966,944,908,990,940,920,853,854,841,811,796,776,762,742,769,735,782,760,758,762,769,771,833,823,774,806,791,770,776,823,828,833,824,844,831,848,827,808,807,791,776,771,763,541,531,503,502,465,589,608,639,722,801,750,739,784,775,733,746,780,675,664,679,699,686,659,694,633,656,578,596,557,591,597,595,533,533,541,537,548,506,514,515,523,548,521,529,513,524,517,511,519,519,513,521,523,532,525,533,522,530,526,533,531,542,526,539,531,491,486,484,495,526,546,623,689,754,819,807,807,785,775,758,752,722,742,710,697,726,686,693,632,628,615,602,594,581,567,556,569,541,554,502,498,527,499,503,495,507,515,516,525,502,518,510,502,514,515,509,511,521,541,527,531,504,522,516,525,534,525,532,546,530,212,185,213,213,214,222,219,292,277,318,314,326,321,317,334,290,286,281,276,271,266,281,277,272,268,243,268,256,221,245,240,234,229,224,218,187,188,231,195,196,194,203,193,197,194,200,195,197,196,195,198,196,200,198,197,198,200,198,201,195,197,200,200,201,201,467,476,487,488,474,515,617,681,763,773,778,788,758,739,765,726,726,735,743,707,709,648,636,620,608,647,604,589,563,540,548,540,502,490,478,499,483,477,484,481,481,488,481,486,486,491,485,483,485,478,486,481,486,487,484,486,484,490,488,484,484,499,486,491,486,503,504,506,516,512,558,644,706,795,826,832,819,806,792,779,766,753,739,738,725,699,686,673,660,646,633,620,607,593,580,567,553,540,527,514,510,512,536,501,502,501,504,527,549,514,508,509,511,510,508,510,513,513,513,511,515,515,514,513,518,525,531,538,519,519,476,479,479,481,486,528,601,668,738,784,792,778,769,748,736,728,711,702,693,677,665,653,641,626,615,604,601,577,566,551,540,528,512,500,489,486,485,487,477,480,481,493,499,496,499,525,500,503,507,521,525,496,508,537,499,495,506,517,499,502,507,513,504,503,502,560,569,577,582,570,637,747,827,914,927,930,932,905,863,887,846,844,865,870,831,832,769,754,740,725,762,700,713,655,645,647,640,600,572,594,594,578,571,568,571,582,592,590,595,577,599,575,610,587,595,586,587,602,618,598,590,600,590,595,599,595,603,580,587,583,1406,1402,1440,1495,1691,1832,2078,2182,2273,2330,2292,2287,2201,2122,2122,2051,2077,2018,1970,1909,1896,1857,1803,1782,1738,1713,1783,1639,1610,1568,1570,1522,1470,1444,1472,1453,1435,1436,1539,1541,1494,1506,1545,1527,1529,1535,1527,1533,1603,1536,1560,1571,1585,1564,1550,1566,1572,1598,1624,1548,1554,1567,1626,1562,1534,221,221,222,223,223,233,263,294,325,356,369,363,357,351,346,340,334,328,322,316,310,304,299,293,287,281,275,269,263,257,251,246,240,234,228,224,225,225,212,213,211,216,217,216,215,218,212,213,216,225,211,217,218,218,215,217,219,220,219,223,217,223,213,217,217,562,564,566,567,575,629,712,795,926,920,925,910,896,881,866,852,837,819,808,793,778,764,749,734,720,705,690,676,661,646,632,617,602,588,623,571,572,571,578,575,579,579,588,592,586,593,586,593,590,583,591,586,585,600,593,588,583,595,583,596,585,586,583,591,595,600,606,604,615,628,684,807,857,970,1000,980,977,971,957,975,936,926,897,915,892,890,815,816,785,784,787,771,726,728,686,672,664,652,635,632,626,612,632,616,602,608,618,600,633,610,616,619,621,644,622,623,614,621,639,644,617,610,631,614,624,621,611,624,645,621,0,0,0,0,0,0,0,0,0,0,0,0,0,0,0,0,0,0,0,0,0,0,0,0,0,0,0,0,0,0,0,0,0,0,0,0,0,0,0,0,0,0,0,0,0,0,0,0,0,0,0,0,0,0,0,0,0,0,0,0,0,0,0,0,0,263,263,264,265,266,289,316,353,391,427,440,433,426,419,412,405,398,391,384,377,370,363,356,349,341,334,327,320,313,306,299,292,285,278,271,267,267,268,284,249,245,245,263,263,262,254,253,261,291,264,271,280,282,281,251,262,276,288,300,286,257,259,291,251,248,1021,1068,1064,1097,1198,1381,1540,1628,1745,1759,1715,1778,1660,1644,1633,1555,1605,1568,1458,1494,1393,1445,1386,1365,1303,1329,1289,1280,1245,1194,1166,1196,1111,1212,1076,1095,1082,1110,1143,1124,1141,1139,1133,1128,1206,1208,1137,1173,1160,1135,1137,1195,1202,1220,1202,1212,1195,1221,1223,1199,1174,1167,1141,1141,1147,968,944,974,988,1051,1174,1331,1495,1599,1539,1575,1509,1484,1500,1474,1449,1454,1358,1418,1348,1288,1263,1239,1214,1222,1197,1267,1116,1091,1096,1079,1046,993,998,979,990,958,958,1009,993,1004,997,999,990,1022,1001,990,983,1001,998,993,997,998,997,991,1001,997,998,1001,1007,992,1006,998,998,996,572,537,539,540,562,616,684,682,816,775,781,771,761,751,741,792,721,770,725,748,737,760,714,703,676,632,670,658,647,636,625,614,603,592,582,578,566,532,546,548,549,564,552,563,549,553,567,554,550,552,549,554,550,548,555,557,555,554,552,555,561,570,564,572,563,957,960,962,987,1047,1150,1299,1437,1551,1611,1547,1538,1498,1489,1463,1424,1448,1376,1352,1342,1303,1264,1254,1244,1218,1195,1156,1146,1122,1083,1072,1022,1022,1000,983,971,973,987,980,994,992,1006,1009,1013,1003,1020,1004,1009,998,997,1004,1016,1014,1016,1021,1019,1016,1015,1026,1015,1016,1034,1034,1047,1034,763,776,770,773,804,891,1021,1135,1235,1259,1257,1237,1217,1197,1178,1170,1149,1130,1120,1102,1083,1052,1032,1000,980,970,941,913,903,873,853,833,811,794,790,785,787,817,792,785,814,806,805,841,795,805,813,829,853,829,831,839,832,825,809,814,799,827,798,812,814,817,805,815,847,1010,986,1003,1000,1078,1142,1402,1454,1504,1631,1532,1519,1486,1464,1435,1581,1444,1385,1341,1365,1347,1328,1273,1225,1254,1233,1207,1122,1155,1086,1058,1059,1030,1024,998,983,1002,998,999,1006,1019,1029,1054,1027,1032,1024,1021,1026,1015,1008,1019,1022,1026,1029,1045,1032,1008,1007,1015,1014,1013,1020,1028,1035,1012,119,119,119,120,120,123,139,155,171,188,199,196,193,190,186,183,180,177,174,171,167,164,161,158,155,152,148,145,142,139,136,133,130,126,123,121,121,121,106,104,108,112,109,108,109,111,109,109,109,109,112,116,118,115,115,110,108,115,110,108,108,115,112,115,110,1186,1185,1143,1177,1261,1515,1595,1739,1999,1836,1826,1781,1768,1799,1710,1681,1787,1667,1639,1565,1536,1623,1479,1450,1469,1468,1428,1334,1305,1384,1415,1218,1190,1236,1155,1198,1197,1159,1226,1223,1269,1536,1276,1208,1259,1353,1294,1230,1327,1304,1252,1261,1340,1317,1305,1216,1252,1244,1292,1297,1235,1275,1241,1241,1261,396,397,399,400,401,431,488,544,571,648,637,646,636,625,615,616,594,584,573,563,527,542,532,521,511,500,490,480,469,459,448,438,427,405,407,402,403,404,397,397,394,395,396,395,397,396,397,395,396,397,400,397,401,401,402,403,399,400,400,403,402,409,401,403,403,231,231,232,233,234,244,277,309,342,374,387,381,375,369,363,356,350,344,338,332,325,319,313,307,301,294,288,282,276,269,263,257,251,245,238,234,235,236,231,219,220,219,225,225,226,223,224,227,234,227,233,232,231,231,231,228,230,238,241,241,233,228,247,240,243,473,474,476,477,481,522,592,662,732,779,786,773,761,748,735,721,710,698,684,672,660,647,635,621,610,597,584,572,559,547,534,522,509,496,484,480,481,483,471,473,473,477,475,481,478,479,481,481,479,475,475,476,477,480,479,481,479,477,481,483,478,492,480,488,484,557,567,633,562,570,623,705,787,867,912,917,902,888,873,923,844,829,815,800,786,783,757,742,737,713,698,728,669,655,640,626,619,597,582,613,565,567,577,573,577,573,583,583,582,580,595,571,583,577,575,578,590,588,586,585,585,582,580,596,592,576,582,578,584,579,1350,1198,1239,1245,1428,1601,1692,1829,1899,1926,1917,1884,1941,1826,1796,1765,1735,1704,1674,1643,1613,1583,1591,1547,1491,1461,1470,1459,1370,1339,1345,1336,1281,1227,1311,1247,1215,1218,1267,1266,1290,1304,1282,1305,1277,1298,1279,1310,1311,1295,1297,1309,1315,1333,1313,1312,1299,1306,1319,1317,1313,1311,1296,1327,1321,701,703,705,708,730,805,993,1017,1178,1147,1148,1188,1199,1093,1075,1057,1039,1020,1002,984,966,948,969,911,893,875,857,875,820,802,784,826,786,729,753,712,714,715,722,715,729,745,736,732,728,730,737,745,745,735,743,774,794,775,766,748,735,747,741,736,726,751,737,754,731,1029,1027,1028,1063,1096,1219,1378,1521,1600,1632,1630,1636,1573,1552,1518,1495,1506,1443,1418,1392,1377,1340,1311,1322,1259,1260,1224,1184,1168,1132,1104,1086,1038,1052,982,1016,1017,1028,1037,1030,1036,1049,1039,1040,1054,1049,1045,1058,1062,1047,1052,1075,1083,1088,1095,1080,1049,1068,1073,1050,1052,1077,1051,1062,1044,1115,1141,1122,1192,1292,1382,1599,1701,1810,1838,1831,1802,1741,1815,1714,1685,1656,1627,1598,1541,1540,1511,1455,1471,1424,1370,1428,1354,1307,1278,1285,1276,1224,1147,1135,1158,1157,1160,1170,1213,1185,1206,1198,1184,1190,1197,1202,1196,1212,1193,1200,1199,1202,1205,1214,1223,1218,1218,1244,1203,1225,1253,1268,1246,1239,946,938,940,949,1004,1171,1387,1577,1714,1757,1723,1690,1658,1625,1592,1560,1527,1494,1462,1429,1396,1364,1331,1312,1263,1233,1200,1168,1135,1102,1070,1010,977,973,952,950,930,938,950,969,969,973,973,971,971,986,965,991,970,989,976,976,998,1007,994,990,981,976,986,984,983,991,966,978,966,929,906,907,918,1005,1171,1265,1370,1499,1462,1569,1499,1499,1379,1469,1447,1404,1332,1358,1267,1302,1296,1225,1198,1144,1119,1114,1090,1078,1008,961,1006,993,978,904,903,920,912,929,934,937,953,944,953,940,943,939,935,946,938,948,960,954,955,958,961,953,950,965,955,951,975,966,980,970,684,751,646,658,796,797,855,1073,1202,1128,1204,1126,1127,1169,1075,1082,1088,1060,1045,1006,1021,1048,961,971,921,862,841,812,805,778,728,749,755,768,717,694,733,726,718,700,702,705,732,731,722,733,723,748,730,713,730,707,713,724,726,715,730,709,708,725,722,741,731,744,731,439,436,438,429,441,477,540,610,691,715,723,711,700,694,677,665,659,648,630,614,607,589,589,573,566,550,543,527,520,503,492,480,469,457,446,446,443,448,438,439,442,448,440,446,441,445,444,445,444,438,439,438,442,447,441,442,442,441,442,442,440,449,437,444,439,340,341,342,343,344,367,415,502,619,557,637,629,662,632,622,556,548,539,522,522,513,504,459,487,441,431,422,413,404,395,386,377,368,359,350,345,346,347,335,337,337,342,342,340,341,341,338,338,338,342,337,340,341,345,339,340,343,341,343,351,342,350,338,342,342,648,651,652,654,673,788,875,944,1036,1051,1124,1125,1069,1016,1052,1037,1001,974,969,922,928,929,864,879,797,811,815,797,760,743,702,710,704,694,647,660,662,653,663,655,663,663,668,666,674,668,668,669,672,668,676,684,687,682,686,689,666,675,676,667,666,677,675,678,664,613,623,625,619,632,694,787,879,964,1007,1010,994,978,962,946,930,947,898,881,865,861,833,817,839,785,769,763,736,720,704,688,679,679,663,626,622,624,634,618,631,630,641,648,642,640,649,629,639,630,630,633,649,642,649,687,678,640,641,649,639,629,632,647,645,631,587,598,590,593,604,663,751,839,922,966,970,955,939,924,907,893,877,862,846,831,827,800,784,778,753,738,714,707,691,676,660,652,629,614,600,596,649,609,586,592,596,624,596,602,591,600,594,591,596,600,590,599,600,605,601,611,606,607,607,610,608,634,615,625,617,741,731,746,735,764,921,1010,1077,1203,1215,1273,1267,1214,1159,1191,1175,1117,1102,1099,1050,1036,1051,980,993,897,933,921,906,851,847,804,809,800,788,741,754,756,748,741,744,753,766,752,761,752,771,746,760,754,745,749,755,760,762,763,759,749,749,762,755,749,748,745,767,754,1544,1514,1590,1697,1865,2045,2263,2353,2446,2430,2424,2380,2415,2298,2242,2204,2186,2128,2090,2073,2029,1996,1993,1939,1897,1823,1817,1801,1722,1684,1655,1653,1619,1556,1538,1582,1538,1539,1701,1687,1663,1682,1685,1726,1694,1708,1729,1793,1713,1761,1753,1766,1724,1771,1759,1715,1703,1718,1742,1772,1761,1780,1761,1757,1720,463,464,465,467,470,510,577,645,713,760,768,755,743,731,719,705,694,682,668,657,645,633,621,607,596,584,572,559,547,535,523,510,498,486,474,470,471,472,465,461,478,472,469,493,473,494,493,486,517,490,488,488,486,499,480,478,481,490,476,478,481,486,473,492,493,672,674,676,678,697,768,866,971,1056,1097,1102,1082,1155,1050,1032,1015,997,980,962,945,927,910,933,875,857,840,822,842,787,770,752,795,715,700,724,682,684,686,694,691,707,789,717,690,715,741,716,701,708,709,707,707,717,713,712,700,709,702,718,728,705,723,700,709,715,794,804,769,802,822,931,1040,1178,1265,1276,1341,1321,1283,1228,1207,1198,1214,1158,1126,1113,1098,1113,1045,1046,972,984,950,945,921,901,840,861,823,811,798,805,807,772,791,791,813,817,808,827,815,837,828,818,859,830,863,859,862,854,814,815,824,835,825,808,823,829,810,830,835,396,397,399,400,401,431,508,545,601,648,632,624,616,607,599,604,595,584,558,564,553,543,549,520,530,520,511,501,469,459,448,438,427,417,407,402,403,404,395,401,402,412,408,403,402,407,400,414,409,414,416,415,431,442,411,404,411,403,408,403,407,412,402,410,403,0,0,0,0,0,0,0,0,0,0,0,0,0,0,0,0,0,0,0,0,0,0,0,0,0,0,0,0,0,0,0,0,0,0,0,0,0,0,0,0,0,0,0,0,0,0,0,0,0,0,0,0,0,0,0,0,0,0,0,0,0,0,0,0,0,1204,1194,1222,1259,1328,1471,1661,1797,1871,1909,1921,1904,1882,1862,1765,1762,1768,1685,1655,1647,1605,1554,1545,1530,1470,1473,1426,1400,1353,1427,1300,1265,1282,1229,1151,1186,1186,1224,1257,1249,1242,1241,1302,1352,1273,1273,1285,1327,1280,1307,1312,1304,1274,1303,1290,1298,1309,1281,1311,1387,1363,1386,1383,1320,1318,1113,1082,1085,1112,1294,1296,1465,1606,1724,1753,1747,1716,1736,1624,1596,1608,1580,1514,1487,1496,1433,1405,1451,1441,1323,1296,1309,1301,1214,1216,1188,1219,1138,1083,1142,1102,1098,1073,1133,1134,1091,1085,1139,1114,1121,1122,1115,1118,1192,1129,1146,1161,1172,1154,1138,1151,1156,1184,1213,1142,1138,1151,1215,1150,1122,451,428,429,430,432,464,516,548,579,614,635,627,620,612,640,589,641,633,625,589,553,606,595,563,551,540,529,517,506,494,483,471,460,472,437,432,434,436,430,427,431,442,433,432,431,444,437,452,440,437,448,430,449,438,446,441,434,449,441,447,444,441,437,444,439,896,899,901,946,957,1063,1202,1335,1420,1457,1452,1462,1406,1443,1537,1338,1367,1292,1351,1246,1223,1350,1177,1199,1263,1108,1085,1104,1039,1016,1036,1049,948,926,912,935,990,914,922,952,921,942,938,944,946,965,1077,989,1087,959,998,1017,1032,996,970,999,947,969,961,954,947,948,999,983,958,858,860,884,867,907,1054,1220,1376,1453,1429,1434,1412,1390,1368,1414,1280,1294,1236,1304,1291,1169,1234,1132,1167,1139,1138,1087,1060,1029,994,991,957,921,895,886,871,877,880,905,884,893,900,900,907,915,902,902,915,917,922,902,920,921,905,916,907,900,911,909,921,905,908,914,907,907,799,865,846,844,845,1024,1096,1189,1275,1313,1336,1289,1324,1280,1227,1206,1236,1164,1163,1122,1177,1120,1079,1068,1084,996,1030,996,939,912,924,892,850,828,830,812,814,816,843,810,812,810,825,825,829,828,828,832,848,860,906,850,861,888,875,856,846,873,915,927,931,951,948,909,899,394,395,397,398,399,429,506,543,599,646,630,622,614,605,597,602,593,582,556,562,551,541,547,518,528,518,509,499,467,457,446,436,425,415,405,400,401,402,396,397,400,400,401,403,399,406,401,403,397,402,397,418,406,408,404,414,409,409,409,412,408,410,395,403,401,949,928,931,940,995,1103,1248,1431,1517,1519,1514,1581,1468,1426,1403,1397,1373,1332,1326,1329,1261,1309,1234,1190,1324,1142,1261,1095,1071,1048,1024,1144,1021,978,942,984,941,944,969,977,973,985,983,988,988,998,981,997,989,996,991,984,978,986,991,997,984,988,982,984,984,1006,1012,1008,992,506,508,509,521,508,562,636,691,752,830,836,823,817,796,765,800,757,726,713,717,703,674,653,649,650,637,624,590,597,584,576,576,531,536,507,503,515,517,504,506,499,506,513,539,507,515,526,524,508,514,506,511,514,503,515,517,513,513,508,513,521,527,522,530,518,473,474,476,477,481,522,592,662,732,779,786,773,761,748,735,721,710,698,684,672,660,647,635,621,610,597,584,572,559,547,534,522,509,496,484,480,481,483,471,473,473,477,475,481,478,479,481,481,479,475,475,476,477,480,479,481,479,477,481,483,478,492,480,488,484,979,983,973,955,1012,1129,1282,1412,1530,1529,1536,1503,1541,1462,1426,1463,1401,1353,1337,1304,1280,1259,1236,1205,1190,1158,1133,1113,1102,1075,1048,1019,995,966,984,951,951,954,968,951,950,957,992,1014,986,981,982,1005,1016,994,1015,996,1005,1011,1030,990,1012,1020,1008,1035,1007,1020,1042,1085,1019,725,704,695,665,682,750,849,948,1066,1079,1082,1064,1102,1084,1013,1055,979,961,944,927,910,893,875,858,841,824,807,789,871,768,750,759,751,686,703,669,670,672,682,684,685,684,686,691,713,706,702,694,698,697,695,702,706,726,702,710,702,701,708,708,702,710,702,753,707,430,432,433,434,436,468,547,589,650,698,706,695,684,673,662,651,640,629,618,607,596,585,574,563,552,541,529,518,507,496,485,474,463,466,441,437,438,439,425,437,435,441,442,445,435,446,431,455,437,438,441,445,457,470,456,447,447,439,454,452,448,452,440,449,440,756,765,756,770,788,918,971,1055,1200,1200,1202,1192,1166,1156,1210,1160,1086,1077,1051,1059,964,947,944,945,922,881,875,870,851,832,813,782,775,756,729,774,765,778,758,759,753,768,771,760,769,779,768,770,776,785,858,861,864,810,792,787,782,787,770,770,785,763,776,770,764,180,181,182,182,183,189,214,239,264,289,302,298,293,288,283,278,274,269,264,259,254,249,245,240,235,230,225,221,216,211,206,201,197,192,187,183,184,184,172,167,170,172,172,171,171,173,169,175,174,173,171,173,171,169,171,174,175,177,172,170,174,173,172,172,171,520,554,556,525,565,577,670,793,802,848,854,841,827,864,800,787,773,760,747,733,720,750,735,679,666,652,639,643,612,599,585,572,558,558,532,528,529,564,539,539,537,552,550,540,547,548,545,549,561,564,649,644,653,577,557,552,559,556,546,549,559,547,547,552,546,1806,1857,1983,2086,2331,2700,2880,3138,2999,3024,2940,2889,2907,2759,2795,2756,2656,2623,2581,2541,2445,2339,2342,2279,2207,2202,2131,2098,2062,1994,1966,1909,1873,1883,1867,1850,1813,1864,2195,2203,2202,2222,2226,2215,2228,2261,2218,2247,2244,2260,2246,2255,2253,2283,2275,2307,2282,2264,2274,2270,2284,2264,2279,2272,2282,1658,1631,1729,1847,1988,2296,2351,2530,2485,2561,2644,2552,2476,2523,2375,2396,2374,2262,2315,2208,2143,2102,2060,2024,1979,1984,1965,1850,1906,1869,1736,1721,1684,1679,1702,1710,1630,1693,1842,1863,1820,1827,1868,1863,1858,1861,1854,1854,1895,1858,1880,1879,1893,1900,1882,1904,1900,1905,1950,1871,1878,1892,1949,1897,1858,1446,1431,1474,1495,1579,1758,1985,2104,2114,2151,2186,2200,2094,2178,2029,2041,1985,1990,1964,1865,1849,1816,1757,1748,1711,1688,1644,1598,1628,1551,1500,1479,1456,1418,1423,1414,1417,1420,1476,1463,1470,1470,1656,1531,1512,1516,1505,1560,1604,1601,1541,1513,1520,1550,1681,1549,1559,1528,1557,1563,1548,1571,1581,1603,1572,968,936,942,919,1008,1174,1344,1500,1498,1621,1599,1561,1580,1446,1497,1432,1396,1415,1357,1297,1343,1318,1292,1229,1218,1225,1161,1155,1136,1133,1085,1059,1007,990,966,942,945,982,988,952,962,967,957,983,973,980,977,971,999,974,973,976,971,993,989,978,978,983,976,977,985,984,985,1015,992,1192,1176,1164,1161,1329,1407,1603,1745,1862,1831,1808,1841,1844,1763,1727,1734,1670,1641,1583,1580,1561,1523,1461,1431,1431,1417,1401,1347,1334,1273,1272,1228,1207,1247,1166,1141,1277,1156,1239,1238,1219,1230,1222,1252,1231,1241,1268,1315,1248,1267,1267,1266,1258,1288,1282,1257,1257,1246,1262,1287,1256,1269,1279,1268,1254,1467,1439,1512,1505,1668,1883,2087,2198,2286,2275,2254,2248,2241,2158,2090,2159,2069,2033,1970,1926,1895,1844,1809,1804,1772,1697,1690,1631,1632,1578,1548,1524,1464,1436,1498,1423,1470,1460,1518,1547,1519,1551,1554,1543,1536,1563,1535,1556,1541,1564,1545,1570,1558,1572,1578,1581,1577,1565,1581,1572,1579,1604,1591,1596,1612,574,564,566,536,542,590,669,747,856,872,878,864,850,836,822,868,794,780,766,752,738,724,710,696,682,668,654,640,708,612,598,584,570,556,575,539,540,542,548,531,544,555,550,538,537,564,549,564,573,553,538,542,570,563,678,617,586,561,550,559,549,548,575,549,538,765,735,726,696,718,791,897,1002,1122,1133,1135,1117,1153,1136,1062,1103,1026,1008,990,972,953,935,917,899,881,863,845,826,860,803,784,792,773,718,734,700,702,704,703,714,714,736,725,717,729,729,716,721,718,721,721,717,716,725,726,722,729,721,718,728,725,753,747,755,741,1561,1521,1620,1629,1805,2018,2240,2348,2432,2414,2376,2406,2377,2274,2223,2271,2196,2141,2076,2047,2014,1977,1919,1945,1881,1805,1894,1748,1732,1662,1746,1615,1545,1530,1579,1504,1552,1555,1617,1604,1627,1641,1656,1660,1670,1685,1656,1671,1692,1679,1702,1706,1677,1700,1728,1726,1697,1721,1735,1734,1729,1740,1734,1736,1753,578,580,581,583,600,695,810,871,898,1028,947,931,927,951,887,867,935,853,827,812,797,782,768,753,738,723,708,689,678,663,645,633,626,603,590,593,588,589,583,580,575,584,587,615,583,591,601,600,584,588,579,587,588,575,587,591,588,587,583,584,592,598,592,598,588,970,973,962,944,1000,1111,1264,1394,1512,1511,1519,1488,1527,1443,1410,1447,1385,1338,1322,1290,1266,1245,1222,1260,1177,1146,1121,1101,1090,1064,1037,1010,985,956,972,940,941,943,967,948,959,957,981,1023,973,991,990,996,1030,999,999,1004,999,1015,976,983,994,1001,990,1006,990,1003,1000,992,997,727,736,727,789,755,879,1000,1009,1153,1231,1232,1222,1207,1185,1168,1118,1113,1104,1077,1020,989,930,907,909,886,873,840,836,818,800,782,751,745,727,714,745,736,749,724,712,712,713,753,751,728,730,733,738,758,759,784,771,783,747,784,751,764,791,807,789,764,778,810,845,781,1612,1603,1674,1693,1891,2121,2302,2434,2748,2484,2467,2451,2451,2362,2302,2342,2288,2170,2154,2107,2091,2016,2024,1951,1957,1885,1825,1806,1756,1741,1694,1666,1657,1603,1616,1626,1623,1607,1748,1772,1715,1738,1785,1765,1762,1779,1756,1771,1817,1767,1792,1815,1813,1799,1838,1839,1808,1825,1868,1790,1779,1796,1868,1816,1773,1142,1084,1104,1092,1294,1308,1479,1617,1741,1726,1718,1761,1729,1643,1608,1638,1554,1526,1505,1470,1444,1416,1389,1361,1334,1307,1279,1335,1240,1209,1181,1170,1119,1239,1108,1076,1222,1083,1145,1158,1156,1184,1197,1193,1185,1214,1177,1214,1188,1214,1176,1173,1193,1212,1203,1191,1199,1213,1199,1193,1191,1203,1191,1193,1170,1155,1123,1127,1123,1247,1433,1606,1746,1769,1891,1825,1783,1850,1810,1717,1685,1644,1642,1604,1549,1525,1528,1471,1478,1422,1385,1365,1344,1289,1275,1265,1215,1184,1186,1159,1139,1150,1142,1206,1213,1198,1216,1252,1253,1228,1228,1239,1272,1236,1267,1262,1256,1216,1236,1236,1253,1259,1221,1259,1305,1261,1260,1266,1243,1238,0,0,0,0,0,0,0,0,0,0,0,0,0,0,0,0,0,0,0,0,0,0,0,0,0,0,0,0,0,0,0,0,0,0,0,0,0,0,0,0,0,0,0,0,0,0,0,0,0,0,0,0,0,0,0,0,0,0,0,0,0,0,0,0,0,364,365,366,367,368,403,457,498,564,610,620,611,601,591,581,571,560,550,541,520,521,511,501,491,481,471,461,452,442,432,422,412,402,392,382,369,370,371,364,376,369,380,377,385,372,393,372,378,372,368,374,383,381,380,380,379,376,373,392,388,372,378,372,381,377,1470,1450,1471,1573,1626,1912,2079,2131,2364,2271,2211,2217,2221,2178,2134,2103,2059,2009,1981,1929,1948,1895,1856,1830,1763,1753,1711,1693,1680,1621,1587,1556,1507,1461,1496,1454,1476,1477,1591,1547,1550,1580,1578,1597,1581,1611,1598,1613,1593,1577,1604,1573,1606,1596,1594,1581,1616,1580,1565,1586,1601,1608,1598,1598,1585,545,546,548,550,556,615,695,762,853,898,904,890,876,861,847,833,818,804,790,765,762,748,734,720,706,691,677,663,649,635,621,606,592,578,565,553,554,556,553,560,561,564,562,561,567,567,565,565,559,563,561,568,569,571,580,580,569,562,572,567,577,567,569,572,563,1758,1756,1850,1940,2163,2337,2547,2684,2749,2704,2718,2698,2704,2611,2565,2543,2435,2395,2397,2309,2269,2215,2216,2150,2097,2053,2001,1998,1932,1895,1853,1870,1801,1770,1766,1751,1767,1761,2085,2007,2002,2024,2016,2048,2100,2088,2069,2150,2064,2063,2154,2108,2119,2202,2116,2122,2104,2133,2195,2248,2279,2298,2277,2104,2086,1055,1053,1056,1079,1155,1305,1479,1604,1695,1724,1724,1688,1661,1633,1606,1578,1551,1530,1496,1458,1441,1414,1386,1359,1331,1304,1276,1260,1222,1194,1167,1139,1112,1089,1086,1066,1068,1071,1111,1081,1080,1095,1111,1128,1118,1139,1122,1174,1131,1098,1119,1096,1121,1116,1115,1096,1126,1107,1095,1111,1121,1142,1116,1134,1113,1140,1082,1102,1090,1292,1306,1477,1615,1739,1724,1716,1759,1727,1641,1606,1636,1552,1524,1503,1468,1442,1414,1387,1359,1332,1305,1277,1333,1238,1207,1179,1168,1117,1237,1106,1074,1220,1081,1166,1129,1133,1138,1131,1143,1137,1137,1146,1191,1142,1152,1161,1164,1166,1174,1192,1176,1164,1164,1164,1174,1168,1166,1168,1180,1179,2043,2061,2291,2453,2851,3023,3054,3145,3117,3505,3125,3063,3092,3015,2923,2931,2965,2831,2739,2737,2665,2639,2525,2585,2434,2525,2328,2391,2264,2185,2290,2257,2218,2073,2212,2031,2125,2135,2397,2413,2458,2478,2642,2489,2508,2536,2531,2552,2660,2688,2606,2593,2614,2623,2844,2714,2668,2683,2757,2701,2719,2739,2742,2741,2773,843,813,816,787,858,979,1121,1249,1266,1402,1399,1358,1432,1257,1283,1232,1220,1217,1196,1131,1184,1127,1147,1083,1065,1061,1097,1020,966,984,934,928,882,866,842,823,817,850,839,838,851,890,869,871,867,847,861,876,889,861,911,907,934,894,883,876,855,864,853,856,852,864,860,894,846,979,983,973,955,1012,1129,1282,1412,1530,1529,1536,1503,1541,1462,1426,1463,1401,1353,1337,1304,1280,1259,1236,1205,1190,1158,1133,1113,1102,1075,1048,1019,995,966,984,951,951,954,968,951,950,957,992,1014,986,981,982,1005,1016,994,1015,996,1005,1011,1030,990,1012,1020,1008,1035,1007,1020,1042,1085,1019,774,769,779,774,808,900,1020,1147,1221,1270,1264,1258,1242,1164,1182,1173,1155,1150,1097,1081,1071,1068,1047,1010,981,965,942,956,894,887,861,829,820,826,789,781,783,795,791,784,787,787,787,784,792,789,793,789,789,790,797,799,800,798,795,797,798,799,799,808,802,808,797,794,801,491,492,494,495,500,542,614,685,756,803,810,797,836,772,759,746,733,720,707,695,682,669,656,643,630,618,605,630,579,566,553,594,528,567,503,498,500,501,500,511,500,533,499,523,502,526,510,518,514,506,519,511,524,522,519,518,523,519,530,515,519,526,521,531,531,415,416,417,418,420,465,525,584,644,692,681,690,679,668,657,646,635,625,614,603,592,581,570,559,548,537,526,515,504,493,482,457,446,436,425,421,422,423,417,419,415,425,422,426,419,435,417,423,424,419,420,426,426,424,424,429,425,426,433,427,422,429,423,429,424,427,394,395,419,420,417,460,503,546,584,704,587,579,571,562,554,546,538,530,522,514,506,498,490,482,474,466,458,504,442,433,425,417,409,401,397,398,435,387,383,391,402,385,391,387,392,396,389,393,389,391,394,391,395,394,395,396,397,394,396,400,420,419,424,419,356,357,359,360,361,384,434,485,536,581,592,583,573,564,554,545,536,526,517,507,498,489,479,470,460,451,442,432,423,413,404,395,385,376,366,362,363,364,355,353,354,356,396,372,372,370,362,386,368,363,371,356,360,371,364,358,376,360,360,372,368,385,372,377,365,358,359,360,361,362,399,450,502,553,658,589,600,591,637,572,562,552,543,533,524,514,505,495,486,476,467,457,448,438,428,419,396,386,377,368,363,364,365,357,356,361,372,366,362,368,372,364,364,364,366,370,376,381,378,371,366,364,377,370,363,366,379,368,374,365,1760,1765,1889,2057,2387,2653,2769,2908,2970,2926,2946,3075,2875,2921,2736,2679,2603,2515,2528,2426,2375,2391,2273,2258,2209,2119,2068,2050,2000,1956,1826,1835,1771,1786,1796,1770,1784,1764,2019,2060,2063,2094,2088,2119,2057,2084,2085,2088,2113,2110,2132,2169,2126,2152,2129,2157,2169,2185,2207,2167,2190,2230,2222,2211,2206,1538,1490,1507,1660,1763,2018,2143,2336,2375,2412,2402,2410,2261,2305,2203,2127,2165,2123,2052,2033,2024,1986,1875,1929,1806,1792,1735,1750,1685,1638,1611,1545,1533,1512,1476,1558,1498,1545,1582,1589,1611,1620,1610,1627,1613,1619,1605,1624,1634,1618,1618,1633,1641,1657,1641,1655,1621,1642,1648,1633,1634,1620,1632,1662,1641,1287,1269,1244,1335,1364,1471,1674,1847,1892,1912,1910,1901,1873,1782,1810,1823,1741,1749,1714,1619,1649,1656,1563,1553,1523,1493,1504,1446,1352,1348,1381,1342,1272,1305,1252,1226,1239,1221,1289,1266,1283,1273,1407,1292,1290,1281,1287,1305,1397,1401,1321,1329,1332,1328,1443,1351,1318,1330,1368,1332,1327,1317,1344,1340,1359,661,681,689,708,702,783,856,986,1102,1115,1105,1133,1103,1058,1045,1027,1010,992,969,956,938,911,880,903,897,827,831,830,802,815,760,763,724,715,689,709,713,693,686,689,695,728,699,713,686,698,691,682,699,699,724,740,738,718,703,714,705,715,715,709,710,720,697,710,705,984,951,949,944,993,1139,1292,1418,1516,1536,1539,1565,1476,1469,1463,1412,1383,1386,1382,1282,1262,1269,1215,1191,1185,1185,1121,1146,1058,1030,1041,988,992,1002,960,971,922,971,950,948,948,962,953,974,969,977,967,989,978,958,970,954,962,974,969,967,976,959,963,961,968,977,973,999,983,1275,1207,1226,1299,1393,1553,1725,1932,1985,1998,1971,1990,1908,1898,1874,1790,1801,1743,1757,1705,1665,1608,1580,1589,1513,1495,1492,1544,1380,1345,1349,1350,1322,1262,1311,1256,1239,1269,1330,1325,1305,1321,1313,1359,1319,1335,1359,1413,1336,1359,1352,1355,1345,1368,1369,1343,1344,1334,1345,1373,1348,1359,1360,1361,1344,398,399,401,402,403,433,490,547,605,652,698,669,641,630,620,609,598,604,577,567,556,546,568,525,514,504,493,482,495,461,451,452,456,419,434,401,405,406,406,406,411,412,415,414,412,418,411,416,414,418,415,438,423,423,415,425,423,416,410,427,416,417,407,420,412,522,523,525,527,533,581,658,736,812,858,864,850,887,823,809,795,781,767,754,740,726,712,698,685,671,657,643,668,616,602,588,628,560,599,534,530,531,533,539,534,546,559,559,544,542,544,552,556,563,556,552,560,570,565,569,555,552,557,548,549,539,562,560,563,541,1368,1297,1326,1410,1526,1704,1859,2062,2133,2144,2148,2131,2042,2076,2008,1922,1931,1879,1882,1823,1785,1710,1696,1686,1620,1599,1611,1644,1482,1441,1445,1445,1416,1343,1330,1337,1321,1351,1397,1382,1382,1405,1388,1394,1451,1452,1411,1433,1413,1398,1396,1434,1476,1511,1475,1468,1464,1474,1466,1453,1452,1433,1411,1419,1411,730,729,731,734,772,853,1003,1077,1179,1226,1192,1188,1176,1201,1139,1112,1110,1073,1065,1035,1033,997,978,959,940,921,916,883,878,844,839,793,787,781,754,738,752,768,758,751,754,754,753,751,759,755,759,752,754,755,760,763,763,764,760,759,762,762,764,774,764,771,760,758,768,764,759,769,763,795,886,1035,1128,1202,1280,1312,1240,1225,1147,1162,1157,1141,1135,1082,1095,1056,1054,1033,996,975,952,929,944,883,875,849,818,809,833,779,771,772,785,828,783,783,797,771,779,786,785,804,820,787,801,858,804,821,864,821,797,797,797,850,900,920,944,940,831,829,398,387,413,390,391,439,485,545,601,648,658,647,637,626,616,606,595,566,575,564,554,532,523,514,506,497,491,464,471,463,454,446,437,417,420,392,417,406,403,404,404,414,406,404,414,415,409,408,425,417,404,416,425,430,432,418,416,422,438,412,414,422,410,407,406,1419,1365,1337,1442,1552,1735,1937,2166,2210,2172,2183,2162,2088,2114,2154,1987,1992,1949,1943,1888,1842,1788,1740,1729,1651,1669,1619,1663,1535,1497,1497,1422,1440,1407,1340,1374,1399,1384,1427,1427,1444,1471,1456,1451,1437,1456,1447,1481,1465,1464,1521,1543,1586,1549,1505,1478,1472,1491,1476,1471,1475,1503,1476,1501,1470,900,865,851,906,904,1024,1160,1318,1424,1410,1439,1437,1362,1368,1362,1294,1283,1249,1268,1205,1235,1160,1137,1148,1075,1089,1091,1081,1017,965,1006,958,931,915,862,883,916,973,913,944,907,913,945,931,917,923,921,947,938,913,927,930,940,942,938,943,931,931,945,948,950,955,958,953,944,850,862,881,903,947,1015,1150,1298,1375,1386,1398,1459,1414,1349,1309,1293,1260,1241,1195,1195,1177,1148,1129,1150,1103,1062,1040,1033,1012,993,950,950,903,891,892,884,868,873,881,893,884,905,901,914,890,919,899,901,897,898,914,934,923,916,905,917,913,904,899,913,906,916,891,914,901,496,497,498,500,504,547,614,681,747,791,796,784,772,760,748,736,724,712,699,687,675,662,651,637,625,614,602,590,578,566,554,542,530,516,506,503,504,504,500,501,499,499,503,501,506,506,504,504,502,502,509,508,510,509,510,511,506,507,509,511,510,513,509,509,508,0,0,0,0,0,0,0,0,0,0,0,0,0,0,0,0,0,0,0,0,0,0,0,0,0,0,0,0,0,0,0,0,0,0,0,0,0,0,0,0,0,0,0,0,0,0,0,0,0,0,0,0,0,0,0,0,0,0,0,0,0,0,0,0,0,1215,1239,1178,1226,1319,1526,1584,1796,1792,1822,1898,1854,1815,1713,1806,1680,1633,1683,1656,1573,1546,1573,1546,1518,1474,1463,1436,1463,1335,1338,1347,1238,1268,1267,1246,1205,1200,1250,1295,1268,1267,1272,1284,1311,1329,1329,1302,1334,1310,1288,1280,1343,1344,1329,1338,1355,1345,1369,1334,1321,1329,1315,1290,1291,1275,316,317,318,319,320,364,408,453,497,539,585,548,534,525,522,509,500,497,452,479,467,459,453,442,436,426,419,409,401,393,384,349,341,359,325,321,321,322,314,319,318,319,317,314,323,319,323,320,316,319,315,320,318,322,324,330,317,316,318,323,327,326,319,317,317,1552,1508,1607,1624,1754,2121,2240,2484,2363,2410,2492,2372,2310,2243,2292,2175,2133,2101,2077,2026,2002,1951,1911,1897,1843,1802,1765,1804,1675,1638,1630,1581,1561,1565,1522,1512,1497,1548,1610,1608,1617,1620,1623,1609,1627,1642,1620,1624,1632,1634,1712,1709,1657,1636,1654,1682,1678,1743,1741,1640,1679,1761,1761,1727,1669,800,802,842,805,841,925,1049,1171,1260,1298,1296,1291,1254,1234,1213,1192,1171,1151,1140,1109,1116,1068,1047,1026,1006,997,964,943,923,902,881,860,840,826,805,807,804,855,808,824,805,821,823,830,831,845,824,820,820,827,820,816,818,820,828,825,825,818,820,823,822,841,831,847,824,898,863,849,904,902,1022,1158,1316,1422,1408,1437,1435,1360,1366,1360,1292,1281,1247,1266,1203,1233,1158,1135,1146,1073,1087,1089,1079,1015,963,1004,956,929,913,860,881,914,971,911,913,915,921,928,934,929,927,924,927,937,943,1014,1015,1028,963,923,947,945,952,938,930,947,916,929,934,919,1990,1927,1895,2096,2426,2381,2568,2685,2748,2723,2719,2793,2684,2612,2829,2514,2541,2548,2351,2333,2294,2245,2294,2293,2180,2191,2110,2002,1960,1920,1858,1920,1890,1773,1779,1806,1806,1905,2126,2141,2085,2109,2129,2114,2134,2154,2137,2152,2188,2134,2141,2154,2165,2167,2147,2183,2177,2188,2226,2170,2168,2177,2218,2148,2148,544,546,566,582,577,608,688,768,884,893,898,935,920,883,841,827,812,798,784,770,755,741,727,754,721,684,670,671,662,647,612,618,584,577,575,571,554,556,573,557,556,561,556,562,560,563,561,559,561,555,560,559,560,561,561,562,561,562,563,569,560,573,561,565,564,774,769,779,774,808,900,1020,1147,1221,1270,1264,1258,1242,1164,1182,1173,1155,1150,1097,1081,1071,1068,1047,1010,981,965,942,956,894,887,861,829,820,826,789,781,783,795,791,784,787,787,787,784,792,789,793,789,789,790,797,799,800,798,795,797,798,799,799,808,802,808,797,794,801,590,592,594,595,629,664,750,835,916,957,978,1009,932,917,902,887,872,892,841,861,846,796,807,766,751,736,721,706,754,676,695,645,630,615,602,599,600,602,599,602,606,602,608,619,616,608,613,608,614,608,611,609,616,626,621,629,616,616,618,616,616,614,617,619,609,855,858,858,886,899,1006,1090,1192,1259,1294,1275,1257,1240,1222,1204,1243,1189,1151,1168,1115,1107,1080,1141,1044,1026,1008,991,973,955,937,980,902,884,881,858,857,872,860,855,855,859,870,890,856,864,884,873,875,886,874,923,917,932,914,922,923,907,902,877,866,881,863,878,897,859,1561,1490,1630,1714,1758,1961,2226,2298,2277,2294,2259,2226,2189,2159,2122,2206,2078,2053,2070,1958,1924,1967,1857,1874,1790,1756,1762,1736,1656,1622,1610,1637,1529,1512,1639,1566,1530,1512,1659,1669,1621,1633,1669,1648,1657,1662,1655,1659,1724,1662,1678,1695,1709,1692,1679,1698,1694,1717,1750,1675,1681,1696,1751,1687,1657,991,994,996,1076,1076,1188,1317,1432,1494,1525,1503,1481,1460,1439,1481,1514,1395,1353,1366,1310,1289,1267,1246,1277,1203,1181,1160,1139,1117,1096,1074,1092,1031,1013,1072,1004,1006,1008,1029,1030,1024,1029,1052,1047,1031,1036,1037,1066,1080,1077,1130,1069,1090,1063,1112,1062,1062,1105,1207,1147,1124,1119,1166,1146,1091,1262,1312,1383,1412,1509,1654,1825,1950,2029,1998,2006,1966,1947,1890,1855,1881,1817,1768,1800,1710,1690,1652,1725,1594,1562,1533,1465,1482,1409,1423,1472,1361,1334,1314,1309,1309,1316,1315,1348,1381,1383,1382,1427,1395,1405,1429,1388,1418,1425,1427,1406,1391,1422,1447,1421,1420,1448,1414,1401,1404,1394,1407,1407,1426,1374,1515,1432,1590,1652,1727,1927,2134,2208,2189,2207,2174,2142,2107,2078,2042,2157,2001,1977,1995,1885,1898,1897,1788,1806,1724,1691,1746,1674,1595,1563,1589,1580,1471,1454,1582,1508,1472,1454,1551,1560,1571,1578,1580,1589,1580,1602,1572,1609,1585,1568,1585,1580,1595,1606,1601,1597,1590,1570,1589,1594,1588,1600,1577,1612,1581,1059,1073,1047,1085,1136,1253,1406,1564,1634,1669,1650,1733,1644,1598,1563,1538,1513,1488,1472,1438,1413,1388,1372,1338,1313,1288,1263,1238,1272,1180,1165,1130,1123,1093,1085,1088,1083,1112,1096,1150,1101,1120,1120,1116,1116,1141,1123,1130,1142,1110,1126,1126,1135,1137,1141,1146,1142,1133,1156,1119,1141,1153,1166,1142,1141,924,870,887,896,992,1050,1224,1382,1390,1516,1479,1419,1418,1353,1372,1288,1291,1279,1315,1271,1253,1175,1166,1180,1145,1086,1097,1044,996,971,1006,953,965,950,900,922,897,948,928,896,902,901,911,920,912,912,909,925,951,936,936,943,944,952,938,944,931,954,961,957,953,944,966,970,966,742,747,731,758,760,841,977,1118,1138,1224,1192,1211,1139,1121,1065,1052,1026,1063,1024,991,995,941,936,937,910,901,853,837,816,816,812,790,772,752,738,738,735,762,723,733,738,754,810,784,749,794,748,841,779,813,783,754,783,817,782,761,810,778,764,793,787,829,781,776,763,784,798,841,842,840,930,1049,1179,1253,1270,1264,1253,1229,1217,1179,1193,1158,1159,1123,1111,1087,1078,1052,1046,1005,973,964,949,910,908,914,863,847,823,814,807,813,800,799,792,805,805,798,815,804,807,809,817,833,823,820,824,825,836,827,829,815,830,829,830,837,829,828,853,851,413,415,416,417,419,450,506,563,620,665,691,728,654,644,633,623,612,602,591,581,591,560,549,539,528,518,507,497,501,476,501,455,444,434,424,419,421,422,419,414,415,415,416,411,417,415,418,415,415,416,419,420,419,422,424,419,420,420,423,427,424,427,422,422,425,643,630,632,635,647,709,799,914,971,1061,1031,978,984,968,950,937,923,921,909,888,861,842,840,811,798,779,764,751,706,705,709,685,667,653,643,637,639,661,633,633,640,654,646,654,654,670,656,652,667,656,675,674,674,676,647,645,657,659,657,645,654,660,646,659,649,912,912,936,947,968,1066,1180,1289,1354,1388,1403,1348,1363,1309,1290,1327,1272,1232,1247,1193,1183,1154,1243,1116,1096,1077,1058,1038,1019,1000,1065,961,942,924,915,914,916,918,916,920,922,929,924,938,934,934,929,929,935,928,934,929,939,948,943,953,943,940,946,938,939,940,943,947,936,868,844,844,847,917,988,1116,1241,1339,1360,1328,1309,1290,1272,1253,1248,1226,1197,1189,1159,1150,1120,1124,1084,1056,1047,1028,1009,991,949,959,904,916,867,852,846,848,854,889,851,853,850,883,911,873,873,871,891,928,896,901,913,909,913,869,883,894,911,914,916,885,896,919,879,884,736,723,725,726,738,813,931,1046,1127,1214,1176,1105,1179,1091,1108,1075,1039,1054,1039,1035,969,966,961,925,914,893,859,855,815,809,811,784,766,770,734,718,733,756,730,733,737,739,739,752,748,745,743,741,747,740,745,741,751,760,755,763,752,752,756,752,752,751,753,758,747,1861,1866,2015,2134,2265,2479,2666,2772,2763,2771,2729,2706,2644,2623,2587,2632,2501,2462,2477,2359,2355,2306,2251,2261,2153,2160,2049,2076,2002,1948,1954,1966,1859,1830,1840,1849,1850,1850,2122,2132,2140,2170,2205,2224,2193,2221,2221,2243,2270,2277,2298,2340,2306,2330,2325,2353,2378,2399,2425,2394,2423,2463,2475,2475,2463,580,581,583,585,617,651,734,818,897,939,960,992,915,900,885,870,856,876,826,846,832,782,793,752,738,723,708,693,742,664,684,634,619,605,592,588,590,591,593,598,590,592,607,605,625,639,602,616,608,615,615,610,607,628,619,607,611,602,596,614,603,614,607,616,599,962,965,967,1044,1040,1147,1271,1384,1448,1480,1458,1437,1413,1396,1372,1473,1354,1379,1327,1271,1251,1230,1209,1241,1168,1147,1126,1106,1085,1064,1044,1062,1002,984,1041,974,976,979,998,989,993,1005,997,1000,1001,1000,1011,997,1007,993,1011,1001,1005,1003,1000,1011,999,1011,996,1003,1006,1017,1000,1006,997,753,755,748,751,779,860,965,1072,1174,1199,1213,1154,1175,1143,1121,1107,1084,1065,1047,1035,995,992,973,955,927,918,900,884,836,818,836,808,799,771,775,755,757,773,752,751,760,769,764,772,778,784,776,775,781,771,777,774,776,779,766,767,775,774,778,761,771,784,770,783,777,492,493,494,496,509,542,611,679,748,792,816,850,775,763,750,738,726,748,701,724,711,663,677,639,626,614,601,589,640,564,587,539,527,514,503,499,500,501,486,493,488,504,487,498,493,500,498,502,499,496,503,498,504,504,504,504,509,506,510,503,508,513,510,515,517,459,456,461,461,464,502,526,564,602,666,637,630,623,616,608,601,594,587,580,573,565,558,551,544,537,529,522,515,508,501,493,486,479,484,465,475,464,464,444,447,462,476,460,468,448,463,447,476,455,449,455,458,469,480,465,460,467,454,463,467,461,468,446,454,448,1437,1473,1585,1588,1756,1946,2114,2233,2324,2263,2274,2272,2195,2145,2106,2126,2059,2006,2032,1939,1931,1872,1939,1805,1788,1735,1670,1715,1590,1620,1652,1537,1522,1491,1486,1479,1494,1511,1597,1570,1585,1594,1600,1612,1624,1617,1603,1619,1634,1640,1649,1658,1628,1617,1633,1644,1649,1671,1682,1654,1652,1682,1692,1669,1654,1370,1373,1493,1529,1554,1779,2003,2123,2062,2082,2092,2061,2027,1960,1965,2014,1926,1866,1877,1777,1781,1716,1686,1706,1625,1595,1603,1611,1503,1473,1464,1494,1385,1367,1547,1421,1412,1366,1504,1493,1493,1539,1560,1544,1524,1525,1541,1581,1563,1598,1623,1634,1567,1564,1564,1560,1562,1555,1590,1623,1568,1570,1590,1562,1550,0,0,0,0,0,0,0,0,0,0,0,0,0,0,0,0,0,0,0,0,0,0,0,0,0,0,0,0,0,0,0,0,0,0,0,0,0,0,0,0,0,0,0,0,0,0,0,0,0,0,0,0,0,0,0,0,0,0,0,0,0,0,0,0,0,1295,1262,1341,1369,1427,1598,1790,1929,2056,2113,2079,1947,2020,1889,1956,1848,1803,1896,1745,1717,1717,1666,1629,1612,1560,1529,1498,1466,1435,1404,1398,1378,1352,1290,1330,1302,1280,1283,1334,1328,1325,1334,1329,1366,1333,1335,1363,1425,1341,1357,1357,1363,1368,1368,1387,1376,1361,1365,1361,1373,1375,1373,1369,1386,1376,658,660,662,695,677,726,823,884,957,998,1007,993,979,993,951,936,922,908,894,1127,866,852,837,823,816,795,781,767,776,739,724,710,696,714,671,666,668,669,656,653,657,674,660,668,657,662,669,662,660,660,657,663,659,655,661,667,664,664,661,661,667,676,671,678,670,1161,1175,1249,1299,1302,1458,1685,1785,1928,1902,1837,1835,1783,1828,1780,1734,1677,1663,1622,1596,1595,1549,1532,1499,1474,1419,1390,1385,1331,1317,1353,1249,1236,1192,1187,1179,1192,1185,1242,1238,1242,1244,1275,1321,1260,1288,1284,1295,1309,1304,1289,1302,1285,1313,1277,1276,1294,1280,1277,1321,1296,1320,1287,1304,1304,490,491,492,494,507,540,609,677,746,790,814,848,773,761,748,736,724,746,699,722,709,661,675,637,624,612,599,587,638,562,585,537,525,512,501,497,498,499,494,507,501,514,540,532,521,547,508,549,529,563,523,517,531,546,530,519,537,533,525,533,523,545,522,527,515,685,688,690,692,713,785,890,1046,1082,1125,1205,1108,1090,1118,1055,1037,1019,1001,1028,965,947,929,911,893,875,857,839,821,803,785,767,749,731,713,700,696,698,700,701,703,698,743,736,718,725,726,715,732,754,731,729,729,712,729,721,722,717,707,708,714,713,709,715,709,692,793,787,789,781,839,918,1014,1091,1157,1214,1196,1180,1163,1130,1130,1170,1118,1066,1099,1047,1006,998,998,981,965,948,931,915,875,882,865,837,832,816,795,806,807,809,792,806,795,812,820,817,815,823,807,813,801,805,806,821,815,816,861,853,813,813,820,805,804,804,823,821,804,590,592,594,595,629,664,750,835,916,957,978,1009,932,917,902,887,872,892,841,861,846,796,807,766,751,736,721,706,754,676,695,645,630,615,602,599,600,602,599,602,606,602,608,619,616,608,613,608,614,608,611,609,616,626,621,629,616,616,618,616,616,614,617,619,609,1064,1036,1006,1059,1112,1293,1389,1601,1605,1674,1687,1645,1632,1577,1568,1547,1524,1512,1455,1443,1394,1339,1349,1349,1307,1275,1226,1219,1192,1158,1156,1111,1094,1062,1059,1065,1050,1052,1055,1075,1074,1090,1088,1077,1085,1106,1090,1097,1091,1107,1119,1098,1120,1156,1101,1097,1098,1090,1096,1098,1104,1107,1092,1100,1091,803,772,750,759,810,872,987,1102,1190,1219,1233,1211,1192,1292,1143,1182,1115,1122,1076,1055,1026,1007,996,978,957,993,977,891,878,852,859,820,801,782,767,763,759,767,760,755,768,794,770,769,763,772,774,774,782,766,779,808,828,810,804,784,763,793,772,769,763,794,778,794,770,409,410,411,413,414,442,499,556,613,660,672,661,651,640,630,619,609,598,588,577,567,556,546,535,525,514,504,493,483,472,462,451,455,444,433,429,430,431,410,416,415,417,418,418,418,419,417,424,417,417,419,423,429,429,432,427,427,420,429,427,430,432,424,430,424,463,464,466,467,470,507,573,640,706,844,763,751,739,727,715,703,691,724,667,655,643,631,619,607,595,582,570,558,546,534,522,510,498,486,474,470,471,472,465,463,467,470,468,470,479,475,467,471,478,484,479,475,476,483,476,480,472,476,469,470,472,472,473,476,479,597,599,601,602,614,672,762,934,1038,980,986,970,954,939,978,907,891,876,860,844,828,864,797,781,765,750,734,718,781,763,731,655,639,624,610,606,608,609,621,623,622,642,649,638,640,660,638,655,660,666,740,740,745,679,652,636,659,648,637,633,651,647,641,640,639,236,237,238,238,239,247,278,309,341,372,388,382,376,370,364,358,352,346,340,334,328,322,316,310,304,298,292,286,280,274,268,262,256,250,244,240,240,241,220,223,226,228,226,228,224,225,224,238,227,226,230,228,236,245,235,232,235,228,232,234,236,240,230,232,231,1726,1725,1800,2008,2414,2778,2948,3028,3101,3106,3065,3002,2960,2878,2841,2804,2716,2715,2625,2578,2498,2530,2439,2335,2283,2254,2194,2168,2073,2019,1980,1920,1828,1796,1794,1780,1783,1802,2099,2147,2111,2126,2148,2149,2142,2153,2149,2152,2169,2138,2150,2154,2169,2180,2185,2195,2187,2180,2198,2179,2194,2208,2222,2209,2198,1779,1793,1790,1969,2227,2445,2578,2656,2734,2758,2713,2761,2670,2653,2517,2465,2519,2488,2438,2350,2299,2205,2255,2196,2115,2082,2024,2002,1996,1894,1821,1874,1815,1804,1767,1785,1762,1803,1989,2008,2049,2070,2064,2077,2102,2122,2114,2132,2156,2154,2194,2178,2183,2209,2246,2259,2237,2270,2299,2301,2301,2329,2330,2346,2371,1557,1462,1467,1578,1762,1940,2128,2201,2282,2395,2260,2277,2293,2206,2154,2158,2138,2117,2091,2014,1994,1919,1938,1824,1927,1818,1744,1761,1703,1625,1653,1575,1613,1492,1547,1509,1507,1543,1682,1628,1623,1643,1632,1667,1704,1695,1679,1753,1667,1664,1717,1711,1718,1770,1721,1726,1706,1726,1746,1787,1808,1817,1799,1686,1669,752,732,756,759,753,872,951,1068,1193,1183,1234,1214,1194,1142,1123,1135,1084,1136,1076,1056,1005,1014,997,947,931,903,918,899,879,859,816,797,778,756,767,763,765,767,760,761,760,767,775,777,794,810,777,783,775,782,777,772,771,792,786,778,778,775,763,781,772,783,771,786,770,1172,1222,1169,1235,1363,1505,1710,1843,1873,1926,1889,1861,1849,1846,1789,1749,1754,1751,1671,1666,1634,1542,1529,1541,1502,1451,1395,1365,1394,1373,1275,1301,1217,1200,1254,1208,1208,1185,1245,1241,1239,1249,1233,1250,1246,1246,1266,1328,1254,1266,1276,1273,1266,1284,1292,1268,1258,1264,1273,1287,1265,1277,1276,1288,1274,1484,1473,1500,1639,1746,2005,2139,2277,2327,2394,2355,2322,2357,2237,2165,2166,2148,2144,2105,2014,1984,1907,1932,1863,1821,1831,1723,1708,1712,1630,1577,1558,1605,1520,1556,1517,1505,1501,1594,1611,1626,1659,1672,1671,1679,1658,1636,1678,1624,1611,1636,1637,1635,1635,1669,1652,1633,1627,1636,1620,1626,1643,1665,1673,1637,727,694,661,663,708,745,895,939,1114,1070,1082,1065,1048,1030,1013,996,995,974,932,927,909,892,875,858,840,878,850,813,771,754,778,719,697,706,666,662,669,671,679,676,680,680,679,678,692,693,682,686,682,685,689,686,694,693,697,693,685,690,700,689,687,695,687,685,686,834,804,781,791,847,915,1037,1158,1245,1273,1285,1263,1242,1341,1192,1230,1162,1168,1121,1099,1070,1049,1037,1018,996,1032,1015,927,914,887,893,853,833,813,798,795,841,799,800,807,802,813,879,862,848,870,824,904,860,886,850,825,833,863,841,832,877,848,831,858,844,886,855,868,836,1578,1566,1606,1767,1886,2203,2292,2437,2473,2537,2476,2461,2492,2366,2297,2277,2275,2269,2260,2130,2102,2021,2030,2000,1930,1963,1858,1810,1811,1724,1659,1639,1625,1614,1651,1609,1587,1603,1720,1723,1723,1762,1732,1754,1713,1744,1759,1862,1725,1746,1754,1786,1836,1773,1800,1766,1766,1758,1738,1746,1762,1767,1750,1773,1732,702,704,706,709,730,818,908,1013,1073,1144,1147,1129,1111,1093,1075,1057,1039,1082,1002,984,966,948,930,912,894,891,857,839,850,803,798,767,749,731,717,713,715,732,706,702,724,739,717,737,710,730,713,728,728,715,716,722,729,745,731,728,723,722,728,730,729,729,715,736,726,1054,1043,995,1074,1099,1276,1370,1583,1587,1657,1670,1628,1616,1586,1552,1532,1524,1497,1492,1428,1380,1325,1336,1336,1309,1263,1215,1233,1180,1146,1162,1102,1098,1058,1048,1055,1039,1044,1083,1092,1067,1076,1070,1098,1084,1099,1106,1170,1091,1134,1128,1133,1101,1181,1136,1090,1088,1082,1116,1146,1131,1161,1144,1144,1115,481,483,484,486,489,530,599,668,738,875,794,782,769,757,744,732,719,751,694,681,669,656,644,631,618,606,593,581,568,556,543,530,630,505,493,489,490,491,495,491,492,494,495,490,495,493,495,494,493,494,499,500,500,501,508,501,499,500,500,504,501,504,501,502,503,1605,1616,1667,1795,1974,2190,2415,2516,2640,2593,2578,2528,2498,2467,2345,2359,2353,2322,2233,2157,2171,2068,2099,2018,1985,1945,1872,1863,1865,1779,1723,1711,1675,1651,1623,1674,1615,1620,1762,1741,1753,1767,1764,1781,1767,1772,1771,1790,1817,1792,1800,1785,1792,1820,1812,1802,1803,1816,1809,1832,1825,1818,1835,1850,1855,1136,1125,1133,1168,1247,1398,1596,1715,1815,1898,1796,1833,1799,1705,1670,1701,1638,1643,1602,1536,1517,1471,1468,1435,1406,1419,1347,1416,1331,1310,1249,1212,1180,1141,1164,1183,1123,1159,1207,1202,1207,1218,1215,1237,1216,1219,1218,1226,1243,1245,1309,1310,1329,1261,1216,1242,1249,1260,1231,1228,1242,1208,1231,1227,1210,958,961,964,1089,1150,1158,1474,1535,1531,1561,1573,1535,1510,1542,1460,1435,1544,1425,1371,1336,1357,1393,1271,1309,1328,1186,1161,1136,1218,1086,1100,1133,1011,986,976,972,975,978,991,998,997,1012,992,997,1004,1015,1007,1091,1005,994,1008,1009,1030,1006,1013,1009,1000,1023,1007,1000,1009,1028,1006,1021,1011,568,571,572,574,584,638,723,807,1021,935,1020,927,912,897,882,866,851,835,820,806,791,775,761,745,731,716,701,686,761,744,726,625,609,595,582,576,579,581,586,586,583,587,592,599,591,595,599,629,588,591,590,592,591,586,598,599,595,596,588,592,593,596,599,595,595,386,387,388,389,390,417,473,529,646,632,644,633,623,613,602,592,582,700,614,603,541,581,569,558,499,489,479,468,502,490,479,427,417,407,396,391,393,394,389,394,386,395,396,395,411,410,392,394,395,404,400,391,392,400,396,394,396,396,389,395,388,396,396,397,385,1334,1338,1351,1517,1626,1622,1991,2009,2102,2025,2061,2001,1972,2057,1943,1929,2032,1921,1852,1822,1769,1754,1674,1759,1713,1626,1612,1558,1574,1512,1444,1470,1389,1366,1356,1354,1358,1363,1422,1411,1432,1498,1448,1463,1443,1434,1447,1450,1452,1434,1438,1473,1528,1552,1466,1449,1437,1457,1434,1433,1430,1461,1437,1468,1427,0,0,0,0,0,0,0,0,0,0,0,0,0,0,0,0,0,0,0,0,0,0,0,0,0,0,0,0,0,0,0,0,0,0,0,0,0,0,0,0,0,0,0,0,0,0,0,0,0,0,0,0,0,0,0,0,0,0,0,0,0,0,0,0,0,1772,1758,1866,2051,2150,2430,2643,2746,2787,2763,2740,2699,2728,2600,2681,2650,2566,2570,2403,2372,2371,2342,2327,2223,2182,2152,2085,2004,1982,1944,1908,1834,1823,1816,1800,1809,1808,1772,2102,2083,2079,2096,2091,2130,2106,2100,2130,2203,2121,2121,2126,2139,2147,2148,2161,2164,2131,2152,2130,2130,2152,2156,2126,2146,2122,703,705,707,710,732,809,916,1024,1115,1155,1157,1139,1120,1153,1083,1065,1046,1028,1009,991,972,967,935,917,898,880,873,842,824,816,787,768,750,731,778,714,716,718,710,707,728,745,718,739,716,732,717,732,736,716,717,724,726,744,730,728,725,722,729,730,726,729,714,739,724,1134,1123,1131,1166,1245,1396,1594,1713,1813,1896,1794,1831,1797,1703,1668,1699,1636,1641,1600,1534,1515,1469,1466,1433,1404,1417,1345,1414,1329,1308,1247,1210,1178,1139,1162,1181,1121,1157,1208,1196,1204,1213,1208,1223,1279,1289,1228,1244,1250,1218,1218,1267,1272,1296,1274,1276,1276,1289,1290,1262,1246,1251,1218,1227,1219,1836,1921,2179,2195,2414,2592,2839,2897,2894,3059,2876,2831,2908,2973,2783,2775,2852,2695,2562,2510,2562,2443,2490,2330,2331,2226,2372,2232,2102,2056,1959,2006,1895,1934,1973,1964,1869,1916,2244,2254,2264,2289,2326,2345,2313,2340,2341,2364,2393,2400,2416,2462,2427,2451,2447,2478,2506,2520,2547,2516,2544,2584,2593,2681,2631,703,706,738,710,767,848,915,1022,1164,1152,1203,1184,1118,1145,1081,1124,1088,1070,1007,1002,971,952,934,915,897,879,896,842,834,805,787,778,781,742,748,714,716,718,716,722,712,723,716,743,716,729,736,817,721,721,715,722,740,707,725,725,722,730,715,716,732,731,716,729,718,1064,1036,1006,1059,1112,1293,1389,1601,1605,1674,1687,1645,1632,1577,1568,1547,1524,1512,1455,1443,1394,1339,1349,1349,1307,1275,1226,1219,1192,1158,1156,1111,1094,1062,1059,1065,1050,1052,1055,1075,1074,1090,1088,1077,1085,1106,1090,1097,1091,1107,1119,1098,1120,1156,1101,1097,1098,1090,1096,1098,1104,1107,1092,1100,1091,802,805,807,811,850,984,1086,1192,1277,1314,1334,1294,1273,1252,1231,1210,1188,1167,1216,1125,1104,1083,1062,1041,1020,999,1000,988,936,915,909,873,871,831,830,814,864,837,835,837,838,844,851,856,852,846,847,847,862,864,942,936,954,885,847,866,867,875,862,848,869,840,855,856,844,1064,1070,1073,1126,1174,1390,1504,1683,1748,1727,1783,1725,1711,1638,1614,1591,1613,1568,1603,1476,1452,1464,1392,1371,1374,1309,1338,1319,1252,1202,1187,1147,1166,1095,1095,1081,1102,1135,1118,1119,1131,1138,1138,1177,1131,1152,1151,1147,1174,1147,1152,1159,1154,1160,1146,1151,1143,1160,1145,1157,1153,1170,1154,1166,1169,1846,1815,1917,2129,2345,2482,2768,2942,2873,2855,2810,2894,2703,2808,2616,2677,2542,2497,2568,2407,2363,2396,2294,2320,2204,2139,2146,2115,2005,1982,1930,1998,1848,1896,1838,1910,1853,1826,2155,2213,2187,2226,2255,2251,2252,2223,2224,2256,2225,2188,2215,2222,2230,2226,2266,2252,2231,2222,2249,2231,2238,2264,2285,2291,2253,1294,1298,1329,1390,1481,1671,1977,2082,2116,2074,2074,2164,1990,2055,2088,2162,1875,1842,1902,1776,1743,1732,1699,1665,1632,1578,1540,1542,1479,1446,1428,1438,1350,1375,1316,1372,1349,1321,1403,1384,1380,1399,1392,1426,1396,1396,1429,1484,1407,1420,1432,1429,1422,1415,1436,1422,1411,1425,1407,1420,1425,1422,1422,1428,1403,1557,1607,1578,1673,1861,2190,2316,2448,2471,2436,2532,2435,2355,2313,2349,2292,2237,2224,2251,2131,2046,2048,2013,1946,1889,1823,1794,1836,1758,1714,1672,1626,1617,1567,1594,1589,1613,1572,1695,1712,1716,1710,1734,1704,1726,1759,1727,1732,1778,1716,1741,1732,1748,1770,1907,1864,1765,1747,1736,1739,1723,1712,1736,1809,1712,1840,1751,1860,1995,2251,2391,2713,2926,2787,2824,2727,2813,2674,2684,2538,2601,2466,2423,2542,2336,2293,2335,2269,2238,2139,2076,2109,2054,1945,1924,1873,1900,1829,1838,1780,1793,1795,1768,2060,2109,2063,2076,2115,2078,2100,2139,2098,2093,2159,2084,2113,2122,2139,2144,2282,2256,2169,2130,2162,2093,2102,2109,2160,2152,2083,627,628,630,631,639,685,758,831,901,968,959,945,931,918,904,890,877,863,849,835,830,816,802,781,767,753,739,737,715,702,689,676,663,649,638,634,635,637,626,638,632,644,652,644,648,655,633,645,637,638,639,654,647,651,692,685,646,648,653,639,634,634,654,651,637,553,555,556,558,597,619,702,784,895,1029,943,929,886,871,857,842,827,813,798,812,769,754,740,725,710,724,709,666,652,637,623,608,593,579,594,590,592,594,586,580,569,572,593,605,588,602,598,617,594,626,619,618,598,628,607,601,619,596,618,667,634,649,633,629,628,721,743,717,767,755,830,941,1108,1166,1263,1240,1221,1227,1165,1139,1128,1078,1074,1102,1017,1016,997,1007,958,939,923,904,882,845,826,827,781,796,769,791,780,734,755,776,740,743,745,754,746,752,762,747,752,749,751,754,758,764,762,771,762,769,764,761,756,766,769,770,771,772,1085,1084,1087,1114,1215,1371,1611,1784,1853,1869,1850,1834,1798,1738,1715,1687,1654,1638,1596,1567,1509,1491,1453,1426,1381,1370,1327,1295,1281,1238,1194,1173,1144,1109,1092,1088,1105,1114,1134,1106,1120,1119,1160,1152,1129,1129,1133,1144,1196,1174,1175,1175,1187,1168,1198,1168,1157,1192,1205,1181,1167,1166,1197,1220,1189,625,609,629,612,626,686,777,869,954,1027,1003,987,971,955,939,922,933,902,966,858,842,837,810,794,801,762,787,783,714,698,682,685,650,634,639,635,618,619,619,621,621,617,631,640,659,656,630,652,644,636,633,630,631,652,646,634,645,628,629,636,634,642,638,663,636,614,615,617,647,642,690,782,917,999,1033,1056,1039,1011,1006,989,972,952,939,925,857,880,872,867,839,818,802,785,772,722,706,690,702,657,642,629,657,625,626,630,631,630,640,653,636,644,639,638,638,651,651,716,715,722,663,725,691,664,662,648,630,652,636,645,637,634,1141,1147,1149,1184,1280,1479,1636,1750,1874,1849,1872,1850,1787,1754,1731,1706,1708,1639,1716,1583,1553,1527,1487,1469,1433,1404,1395,1377,1315,1287,1271,1229,1251,1173,1173,1160,1180,1187,1242,1203,1219,1211,1221,1254,1262,1239,1226,1235,1274,1257,1262,1257,1253,1266,1276,1249,1253,1273,1274,1287,1260,1269,1297,1340,1268,1049,1055,1060,1075,1155,1334,1484,1617,1728,1706,1720,1711,1650,1620,1595,1573,1595,1511,1593,1459,1432,1411,1371,1354,1350,1293,1290,1271,1212,1186,1172,1132,1156,1081,1080,1067,1086,1092,1105,1091,1092,1099,1144,1154,1137,1157,1129,1172,1164,1144,1152,1124,1130,1169,1170,1128,1161,1150,1142,1172,1156,1173,1180,1207,1168,566,568,569,605,580,631,715,853,934,1029,980,965,938,935,920,904,889,874,859,792,874,813,805,783,817,753,738,713,668,653,638,658,608,594,580,608,576,578,565,565,568,568,573,567,571,572,573,577,579,579,580,592,582,583,593,584,586,587,587,586,590,590,594,594,595,1746,1764,1872,2151,2612,2914,3138,3290,3298,3299,3255,3188,3095,3050,2975,2911,2852,2784,2721,2647,2583,2516,2455,2391,2311,2240,2179,2122,2047,2025,1914,1853,1814,1789,1784,1897,1815,1832,2077,2092,2117,2147,2124,2134,2147,2186,2183,2190,2221,2194,2245,2239,2218,2247,2299,2286,2271,2282,2328,2289,2309,2323,2404,2340,2329,792,794,797,800,837,964,1069,1173,1259,1296,1316,1277,1256,1235,1214,1194,1173,1152,1233,1111,1090,1069,1048,1028,1007,986,987,975,924,903,898,862,860,821,820,804,820,827,820,825,818,850,839,832,841,854,831,851,856,850,843,836,832,841,839,840,835,838,830,828,825,837,832,835,814,1313,1269,1297,1354,1441,1625,1930,2036,2067,2030,2030,2192,1948,2013,1885,1950,1836,1804,1864,1739,1707,1696,1663,1631,1598,1545,1507,1510,1448,1466,1398,1409,1321,1345,1287,1343,1320,1292,1386,1349,1353,1379,1350,1366,1348,1390,1391,1380,1369,1363,1384,1367,1403,1374,1376,1372,1396,1383,1365,1373,1386,1379,1379,1379,1376,340,341,343,344,345,361,409,399,436,473,487,480,473,466,459,452,444,437,430,484,416,409,402,395,387,380,373,366,404,395,387,378,369,360,351,346,347,347,339,331,337,338,350,356,334,350,340,334,345,349,343,346,355,374,361,364,339,355,349,360,369,360,366,379,363,703,706,708,710,743,845,917,1024,1124,1152,1156,1137,1119,1100,1093,1063,1045,1027,1107,990,971,953,934,916,897,879,883,873,824,805,802,777,769,732,718,714,730,737,718,716,731,756,743,738,723,740,731,762,744,743,799,820,861,817,776,747,744,759,746,737,743,761,738,761,731,947,935,947,948,985,1073,1211,1370,1470,1464,1501,1436,1451,1453,1368,1345,1322,1298,1434,1272,1231,1241,1186,1193,1177,1118,1110,1116,1122,1017,1014,1018,999,944,931,928,911,926,931,938,925,1032,959,940,945,960,953,943,944,958,960,944,931,940,948,954,946,944,935,943,944,957,968,961,937,1720,1706,1808,1881,2109,2507,2598,2636,2742,2720,2710,2692,2573,2550,2612,2441,2462,2439,2477,2270,2280,2263,2144,2152,2100,2020,2000,2024,1889,1866,1849,1779,1793,1744,1730,1767,1736,1744,1972,2007,1975,1994,1989,1998,1999,2014,2003,2015,2050,2007,2010,2000,2024,2033,2029,2041,2047,2031,2064,2019,2034,2038,2099,2034,2010,1702,1659,1739,1940,2061,2259,2551,2747,2705,2649,2607,2695,2506,2569,2424,2490,2356,2315,2425,2231,2223,2227,2127,2170,2074,1981,1964,1955,1856,1836,1814,1791,1704,1751,1693,1785,1707,1680,1941,1928,1895,1920,1918,1965,1985,1996,1964,2058,1956,1981,1976,2022,2001,2075,2027,2002,1985,2002,2006,2019,2009,2024,1986,1987,1943,784,806,809,791,835,919,1048,1122,1239,1234,1239,1265,1251,1221,1190,1153,1159,1132,1130,1083,1114,1005,1028,1005,986,966,960,923,928,889,882,823,831,812,799,803,806,799,798,802,805,813,806,822,815,815,812,812,816,808,814,809,820,828,823,832,822,821,825,818,820,820,821,825,815,1620,1550,1589,1685,1869,2241,2358,2514,2626,2669,2635,2601,2522,2462,2453,2430,2283,2250,2419,2192,2109,2066,2058,1979,2073,1953,1902,1902,1807,1769,1709,1678,1606,1625,1560,1569,1602,1664,1710,1697,1719,1736,1750,1753,1762,1779,1750,1765,1788,1778,1819,1822,1797,1802,1823,1819,1793,1817,1830,1827,1824,1835,1831,1832,1848,0,0,0,0,0,0,0,0,0,0,0,0,0,0,0,0,0,0,0,0,0,0,0,0,0,0,0,0,0,0,0,0,0,0,0,0,0,0,0,0,0,0,0,0,0,0,0,0,0,0,0,0,0,0,0,0,0,0,0,0,0,0,0,0,0,1471,1461,1497,1563,1732,1995,2272,2422,2462,2557,2407,2388,2337,2313,2242,2200,2158,2149,2097,2044,1993,1951,1901,1887,1859,1805,1790,1794,1770,1661,1577,1572,1539,1508,1487,1472,1488,1491,1612,1585,1587,1631,1578,1606,1679,1703,1694,1618,1605,1586,1601,1605,1642,1651,1706,1637,1642,1649,1639,1643,1655,1620,1591,1610,1589,701,704,706,708,741,843,915,1022,1122,1150,1154,1135,1117,1098,1091,1061,1043,1025,1105,988,969,951,932,914,895,877,881,871,822,803,800,775,767,730,716,712,728,735,717,720,717,731,723,728,761,730,723,729,729,733,729,741,726,736,730,732,732,729,729,731,731,729,731,731,726,1132,1135,1139,1210,1258,1383,1588,1722,1809,1827,1805,1798,1770,1778,1680,1818,1634,1616,1587,1573,1519,1545,1454,1434,1542,1386,1358,1320,1300,1327,1264,1214,1234,1155,1143,1197,1193,1154,1225,1216,1211,1228,1333,1317,1265,1304,1264,1367,1315,1328,1312,1266,1274,1321,1309,1264,1338,1304,1279,1344,1306,1367,1340,1367,1307,1099,1090,1123,1156,1200,1368,1544,1678,1740,1771,1775,1774,1701,1727,1631,1604,1605,1587,1643,1520,1478,1473,1442,1429,1388,1351,1317,1311,1266,1237,1224,1199,1153,1148,1118,1121,1150,1110,1137,1168,1173,1166,1185,1167,1176,1203,1168,1168,1190,1154,1175,1174,1195,1206,1351,1302,1219,1176,1182,1174,1161,1159,1173,1218,1149,802,805,807,811,850,984,1086,1192,1277,1314,1334,1294,1273,1252,1231,1210,1188,1167,1216,1125,1104,1083,1062,1041,1020,999,1000,988,936,915,909,873,871,831,830,814,864,837,835,837,838,844,851,856,852,846,847,847,862,864,942,936,954,885,847,866,867,875,862,848,869,840,855,856,844,1038,1024,1024,1070,1133,1247,1414,1553,1629,1660,1660,1631,1630,1576,1549,1521,1514,1468,1444,1419,1392,1362,1340,1311,1285,1273,1230,1204,1220,1163,1119,1097,1083,1049,1056,1035,1039,1040,1044,1055,1059,1085,1077,1070,1066,1090,1068,1078,1065,1070,1065,1083,1068,1081,1091,1089,1088,1077,1069,1084,1080,1123,1098,1111,1101,862,865,867,863,920,1022,1157,1288,1371,1407,1405,1382,1360,1334,1315,1289,1270,1243,1226,1203,1181,1168,1147,1114,1092,1069,1047,1025,1010,991,957,935,913,891,878,875,877,880,884,888,888,898,902,892,898,909,899,904,909,913,921,935,927,931,904,899,909,907,899,907,911,902,901,905,904,933,936,998,941,990,1116,1263,1399,1482,1517,1512,1489,1497,1473,1417,1393,1369,1345,1321,1297,1273,1249,1225,1201,1177,1181,1120,1105,1108,1057,1033,1009,986,963,950,939,950,952,946,962,962,971,993,969,970,1004,967,978,977,963,970,980,998,1000,1149,1092,1003,985,985,976,965,963,978,996,960,709,711,713,777,738,814,921,1028,1117,1160,1161,1143,1124,1106,1087,1069,1051,1032,988,995,977,958,940,922,903,885,866,848,829,811,793,860,812,737,723,720,722,724,751,754,738,748,735,754,741,751,771,805,754,772,776,770,771,799,791,759,762,748,768,790,760,774,774,771,759,973,976,979,993,1055,1177,1333,1471,1552,1586,1580,1555,1530,1500,1475,1454,1466,1404,1379,1353,1324,1303,1278,1253,1227,1202,1177,1152,1127,1101,1076,1051,1026,1003,990,987,990,992,991,986,1004,1016,1015,1027,1006,1024,1000,1049,1023,1003,1015,1009,1027,1045,1026,1019,1028,1005,1014,1023,1022,1032,1009,1036,1012,760,762,764,759,784,880,995,1111,1200,1239,1240,1220,1316,1295,1161,1141,1122,1102,1083,1063,1043,1024,1004,985,965,945,917,906,886,867,847,828,808,788,775,763,773,775,775,778,776,791,790,784,793,802,772,794,790,779,789,799,795,789,816,798,782,782,791,782,772,784,784,792,778,1548,1553,1592,1729,1992,2406,2567,2695,2746,2749,2717,2697,2643,2565,2525,2463,2427,2361,2311,2378,2259,2158,2107,2057,2006,1955,1904,1862,1776,1725,1674,1721,1620,1557,1578,1591,1592,1682,1772,1771,1755,1859,1788,1772,1792,1800,1790,1785,1794,1795,1804,1789,1792,1807,1801,1819,1785,1803,1788,1786,1790,1817,1793,1793,1761,1732,1765,1819,1936,2176,2295,2622,2694,2715,2724,2723,2677,2668,2662,2529,2511,2480,2380,2362,2296,2298,2252,2169,2124,2117,2102,2049,1979,1910,1877,1890,1844,1835,1771,1803,1723,1755,1765,1986,2034,1998,2012,2035,2022,2027,2033,2037,2035,2054,2023,2037,2040,2055,2065,2070,2080,2072,2064,2079,2060,2080,2094,2109,2095,2085,1448,1460,1538,1620,1688,1934,2083,2318,2309,2326,2311,2253,2215,2205,2129,2083,2091,2088,2038,1974,1977,1941,1870,1889,1865,1762,1712,1653,1746,1669,1662,1591,1617,1512,1554,1539,1460,1490,1600,1626,1632,1602,1643,1624,1633,1667,1647,1646,1655,1655,1658,1685,1678,1702,1654,1664,1663,1662,1662,1674,1665,1670,1675,1711,1663,628,630,632,634,649,713,808,903,989,1033,1037,1020,1038,963,970,930,937,939,922,888,831,815,838,821,805,788,772,755,738,722,705,689,672,656,642,638,640,641,637,628,639,652,653,663,631,663,634,637,646,652,641,654,666,684,668,675,642,657,663,667,676,667,675,691,669,1168,1156,1135,1170,1300,1419,1678,1802,1922,1921,1925,1869,1843,1779,1780,1748,1741,1725,1682,1648,1537,1497,1526,1513,1526,1415,1438,1328,1326,1269,1266,1236,1207,1213,1234,1138,1171,1222,1238,1237,1218,1229,1221,1251,1230,1239,1267,1314,1246,1266,1266,1265,1257,1287,1281,1256,1256,1245,1261,1285,1254,1268,1277,1267,1253,1479,1453,1464,1534,1738,1897,2169,2270,2344,2337,2344,2325,2246,2236,2174,2175,2173,2098,2075,1988,1930,1906,1879,1874,1840,1788,1751,1672,1655,1592,1586,1551,1502,1528,1519,1452,1469,1508,1590,1588,1560,1582,1603,1596,1606,1624,1595,1613,1651,1600,1621,1637,1635,1628,1643,1629,1632,1634,1642,1623,1610,1631,1660,1625,1606,904,907,909,918,970,1080,1223,1358,1466,1478,1474,1450,1427,1403,1380,1356,1370,1309,1289,1262,1235,1215,1191,1161,1183,1121,1097,1074,1050,1027,1003,980,956,962,921,917,920,960,950,922,936,961,948,948,947,963,952,959,971,961,1035,1073,1141,1015,962,946,948,960,953,936,939,959,943,966,948,893,896,898,896,959,1064,1206,1343,1426,1457,1453,1433,1410,1383,1360,1337,1317,1288,1270,1247,1224,1210,1174,1154,1128,1107,1084,1058,1046,1026,991,968,944,923,910,957,909,911,921,921,938,1022,951,935,952,993,960,939,960,948,948,944,954,959,948,932,947,944,955,962,939,962,935,947,946,1580,1572,1557,1658,1862,2054,2315,2459,2484,2476,2479,2444,2383,2406,2306,2304,2300,2223,2180,2124,2048,2049,1977,1989,1933,1879,1856,1760,1778,1686,1681,1642,1618,1609,1614,1546,1561,1600,1713,1706,1785,2022,1789,1757,1765,1865,1803,1773,1882,1841,1787,1807,1878,1854,1815,1732,1751,1774,1796,1809,1747,1794,1747,1758,1790,1243,1214,1271,1293,1389,1573,1770,1887,1928,1987,1975,1939,1976,1936,1845,1813,1782,1751,1754,1712,1657,1645,1594,1542,1532,1501,1461,1419,1410,1431,1347,1313,1283,1303,1246,1221,1249,1250,1333,1329,1315,1342,1373,1369,1348,1341,1360,1394,1367,1402,1399,1397,1343,1349,1371,1381,1383,1360,1407,1442,1392,1387,1407,1372,1371,1028,1031,1034,1059,1147,1233,1429,1535,1643,1675,1642,1641,1614,1559,1533,1507,1499,1455,1429,1427,1401,1374,1347,1298,1272,1289,1241,1214,1208,1152,1108,1088,1072,1059,1046,1043,1029,1030,1052,1050,1065,1133,1072,1090,1053,1077,1065,1087,1090,1070,1081,1073,1073,1099,1110,1076,1067,1073,1082,1085,1075,1067,1072,1093,1060,728,730,732,748,759,839,949,1060,1206,1191,1192,1173,1154,1135,1116,1097,1126,1059,1015,1039,1002,983,1007,946,927,908,889,908,851,832,849,829,810,756,776,739,741,743,749,736,745,743,741,754,744,747,746,759,771,767,762,768,768,774,767,768,759,769,771,772,776,770,769,787,787,1596,1598,1631,1719,1952,2116,2394,2490,2555,2562,2611,2508,2470,2431,2370,2330,2365,2321,2255,2187,2106,2047,2054,2009,2062,1926,1880,1828,1794,1741,1735,1685,1644,1674,1624,1600,1605,1624,1748,1750,1741,1773,1750,1770,1749,1777,1782,1871,1749,1765,1778,1766,1812,1753,1781,1781,1796,1784,1761,1770,1799,1787,1784,1784,1771,1109,1113,1116,1175,1254,1410,1564,1852,1774,1802,1818,1764,1736,1734,1678,1650,1647,1630,1570,1535,1507,1478,1449,1480,1424,1385,1335,1306,1298,1288,1252,1200,1208,1141,1155,1126,1148,1147,1180,1168,1167,1169,1175,1213,1204,1215,1198,1207,1220,1208,1210,1211,1206,1235,1237,1208,1215,1218,1216,1241,1221,1221,1234,1283,1231,950,953,931,941,999,1135,1260,1437,1518,1552,1547,1523,1461,1499,1448,1449,1399,1392,1367,1325,1272,1237,1293,1235,1201,1176,1151,1098,1102,1050,1052,1027,1003,1008,967,932,935,969,950,974,966,978,970,955,969,983,977,994,965,965,976,975,1032,980,999,974,996,992,991,973,998,1005,989,1001,997,1105,1109,1101,1144,1199,1375,1627,1688,1762,1793,1772,1755,1725,1699,1670,1642,1612,1584,1557,1527,1500,1470,1504,1414,1387,1358,1329,1302,1273,1290,1216,1188,1160,1137,1184,1123,1126,1129,1174,1161,1150,1159,1215,1266,1188,1190,1200,1214,1191,1222,1233,1218,1195,1222,1212,1210,1230,1203,1230,1311,1284,1307,1310,1241,1242,817,819,915,826,865,959,1085,1209,1294,1332,1385,1309,1288,1267,1246,1225,1204,1183,1162,1141,1119,1098,1077,1056,1035,1014,993,972,951,929,908,887,866,846,832,829,831,833,836,828,841,871,854,838,841,839,841,882,922,868,875,868,859,861,855,873,844,853,850,851,855,846,855,868,868,1116,1119,1122,1208,1258,1551,1636,1786,1861,1887,1948,1844,1824,1780,1760,1716,1684,1717,1620,1588,1556,1585,1552,1460,1516,1396,1449,1342,1300,1268,1236,1204,1173,1147,1136,1144,1140,1145,1184,1179,1168,1183,1175,1207,1180,1191,1211,1265,1189,1221,1222,1223,1206,1230,1231,1196,1188,1198,1214,1229,1223,1239,1231,1236,1211,531,532,534,535,541,588,664,740,815,861,868,854,841,827,814,800,786,773,759,746,732,719,705,691,678,664,651,637,623,610,596,583,569,555,543,539,540,541,539,537,536,544,590,578,578,570,554,599,580,570,573,548,552,585,568,556,579,556,545,572,564,592,575,588,562,1463,1474,1504,1712,1826,2129,2358,2497,2555,2560,2523,2506,2454,2427,2361,2304,2257,2212,2166,2240,2075,2029,1989,1937,1909,1855,1796,1764,1707,1672,1610,1669,1531,1505,1500,1511,1518,1622,1654,1656,1669,1772,1681,1701,1673,1698,1686,1694,1698,1678,1680,1681,1681,1702,1721,1700,1674,1700,1708,1692,1687,1667,1690,1713,1669,0,0,0,0,0,0,0,0,0,0,0,0,0,0,0,0,0,0,0,0,0,0,0,0,0,0,0,0,0,0,0,0,0,0,0,0,0,0,0,0,0,0,0,0,0,0,0,0,0,0,0,0,0,0,0,0,0,0,0,0,0,0,0,0,0,1107,1111,1114,1173,1252,1408,1562,1850,1772,1800,1816,1762,1734,1732,1676,1648,1645,1628,1568,1533,1505,1476,1447,1478,1422,1383,1333,1304,1296,1286,1250,1198,1206,1139,1153,1124,1146,1145,1189,1156,1154,1164,1220,1229,1200,1191,1195,1214,1242,1223,1271,1219,1238,1244,1266,1206,1231,1254,1275,1294,1269,1294,1321,1340,1250,1617,1671,1731,1785,2046,2314,2425,2535,2651,2670,2665,2625,2574,2544,2502,2458,2428,2329,2328,2254,2216,2165,2138,2055,2066,1968,1925,1953,1918,1914,1751,1710,1677,1653,1643,1740,1752,1701,1912,1903,1870,1891,1892,1942,1958,1976,1947,2032,1935,1949,1932,1987,1973,2026,1993,1978,1977,1973,1966,1981,1961,1971,1938,1946,1901,692,694,696,726,720,794,899,1004,1093,1134,1135,1117,1099,1081,1063,1045,1027,1009,991,973,952,934,918,900,882,864,846,828,810,803,774,756,738,720,706,702,704,706,693,710,707,716,712,716,714,730,713,723,708,707,709,721,724,730,729,730,715,709,731,729,721,723,714,722,714,1038,1024,1024,1070,1133,1247,1414,1553,1629,1660,1660,1631,1630,1576,1549,1521,1514,1468,1444,1419,1392,1362,1340,1311,1285,1273,1230,1204,1220,1163,1119,1097,1083,1049,1056,1035,1039,1040,1044,1055,1059,1085,1077,1070,1066,1090,1068,1078,1065,1070,1065,1083,1068,1081,1091,1089,1088,1077,1069,1084,1080,1123,1098,1111,1101,231,231,232,233,234,244,277,309,342,374,387,381,375,369,363,356,350,344,338,332,325,319,313,307,301,294,288,282,276,269,263,257,251,245,238,234,235,236,220,224,222,228,291,263,242,266,243,293,258,269,265,233,238,254,245,231,278,245,231,264,253,287,266,251,247,446,448,449,459,453,490,566,618,697,730,738,726,833,703,691,679,667,656,656,695,621,609,656,586,574,562,551,539,527,516,504,543,481,513,458,453,454,456,455,446,452,454,447,465,456,472,468,457,477,454,460,456,455,467,461,460,455,460,455,454,460,461,460,479,464,1083,1087,1090,1276,1195,1336,1512,1719,1775,1756,1746,1719,1691,1663,1636,1608,1610,1550,1702,1497,1469,1442,1414,1386,1359,1331,1428,1276,1248,1220,1229,1165,1137,1115,1123,1135,1102,1103,1151,1145,1141,1153,1142,1164,1211,1213,1147,1177,1164,1151,1150,1191,1203,1215,1211,1191,1200,1212,1221,1198,1176,1187,1157,1160,1154,591,593,594,596,607,665,752,840,974,967,971,955,940,925,909,894,879,863,848,832,817,802,786,771,755,740,725,709,694,679,663,648,632,617,604,600,601,603,611,600,605,608,608,617,616,622,616,614,621,610,606,608,607,616,613,609,613,609,610,608,607,615,605,617,611,854,893,896,913,954,1098,1222,1337,1442,1453,1503,1462,1405,1382,1359,1313,1306,1325,1225,1260,1172,1197,1171,1148,1080,1102,1085,1082,1051,1009,989,998,942,949,907,916,904,932,940,912,938,942,929,921,951,938,925,923,948,944,1003,1013,1034,966,932,934,930,944,932,922,921,936,932,938,925,1026,1030,1033,1051,1122,1253,1418,1627,1685,1667,1659,1633,1606,1580,1554,1527,1531,1472,1529,1422,1396,1369,1343,1317,1290,1264,1363,1252,1185,1223,1169,1106,1080,1094,1066,1113,1045,1045,1082,1121,1083,1096,1120,1107,1099,1108,1104,1116,1118,1096,1107,1111,1120,1122,1119,1123,1122,1114,1126,1114,1133,1142,1145,1137,1130,1146,1121,1123,1185,1301,1639,1774,1939,2042,2042,2022,1994,1970,1934,1891,1854,1816,1778,1740,1747,1641,1627,1565,1551,1514,1476,1438,1412,1336,1325,1298,1249,1184,1181,1165,1167,1185,1181,1211,1219,1242,1268,1285,1294,1284,1252,1248,1277,1239,1229,1242,1250,1252,1258,1282,1269,1234,1237,1249,1251,1248,1261,1272,1302,1254,720,716,742,742,753,869,981,1084,1162,1236,1231,1168,1132,1131,1147,1105,1135,1077,1078,1056,1071,985,966,944,908,990,940,920,853,854,841,811,796,776,762,742,769,735,759,748,752,759,809,792,787,794,782,807,791,770,789,760,764,785,775,766,787,767,758,781,781,802,789,792,779,541,531,503,502,465,589,608,639,722,801,750,739,784,775,733,746,780,675,664,679,699,686,659,694,633,656,578,596,557,591,597,595,533,533,541,537,548,506,530,531,532,529,538,530,538,538,526,540,538,531,536,532,534,533,536,530,539,534,531,530,539,540,540,537,539,491,486,484,495,526,546,623,689,754,819,807,807,785,775,758,752,722,742,710,697,726,686,693,632,628,615,602,594,581,567,556,569,541,554,502,498,527,499,507,511,508,515,515,515,514,529,507,517,511,510,514,523,522,518,519,518,516,515,530,527,511,516,515,518,516,212,185,213,213,214,222,219,292,277,318,314,326,321,317,334,290,286,281,276,271,266,281,277,272,268,243,268,256,221,245,240,234,229,224,218,187,188,231,195,196,197,193,194,198,196,196,196,205,200,197,196,198,197,198,200,200,200,197,197,197,197,195,198,201,198,467,476,487,488,474,515,617,681,763,773,778,788,758,739,765,726,726,735,743,707,709,648,636,620,608,647,604,589,563,540,548,540,502,490,478,499,483,477,476,477,483,501,491,481,492,502,485,486,498,506,545,534,545,510,481,485,494,501,496,481,493,501,491,493,492,503,504,506,516,512,558,644,706,795,826,832,819,806,792,779,766,753,739,738,725,699,686,673,660,646,633,620,607,593,580,567,553,540,527,514,510,512,536,511,513,510,516,618,563,546,553,536,609,548,538,562,519,526,553,538,522,577,525,521,563,548,600,563,561,539,476,479,479,481,486,528,601,668,738,784,792,778,769,748,736,728,711,702,693,677,665,653,641,626,615,604,601,577,566,551,540,528,512,500,489,486,485,487,465,464,467,468,469,469,471,472,471,475,476,476,477,478,479,479,480,483,484,485,485,485,487,488,490,490,491,560,569,577,582,570,637,747,827,914,927,930,932,905,863,887,846,844,865,870,831,832,769,754,740,725,762,700,713,655,645,647,640,600,572,594,594,578,571,568,571,582,592,590,595,577,599,575,610,587,595,586,587,602,618,598,590,600,590,595,599,595,603,580,587,583,1406,1402,1440,1495,1691,1832,2078,2182,2273,2330,2292,2287,2201,2122,2122,2051,2077,2018,1970,1909,1896,1857,1803,1782,1738,1713,1783,1639,1610,1568,1570,1522,1470,1444,1472,1453,1435,1436,1507,1557,1513,1529,1535,1521,1536,1545,1543,1544,1550,1534,1549,1541,1548,1552,1559,1570,1560,1557,1586,1540,1572,1578,1588,1563,1556,221,221,222,223,223,233,263,294,325,356,369,363,357,351,346,340,334,328,322,316,310,304,299,293,287,281,275,269,263,257,251,246,240,234,228,224,225,225,211,212,211,217,226,223,218,233,216,228,226,255,219,217,220,224,219,219,226,233,220,223,220,230,222,219,219,562,564,566,567,575,629,712,795,926,920,925,910,896,881,866,852,837,819,808,793,778,764,749,734,720,705,690,676,661,646,632,617,602,588,623,571,572,571,578,577,575,576,584,591,601,596,585,582,587,592,590,582,585,601,591,586,582,593,579,590,583,585,585,592,590,600,606,604,615,628,684,807,857,970,1000,980,977,971,957,975,936,926,897,915,892,890,815,816,785,784,787,771,726,728,686,672,664,652,635,632,626,612,632,615,616,613,621,624,617,621,623,622,628,631,641,714,714,723,655,619,632,640,646,630,630,651,621,622,626,623,121,121,121,122,122,125,141,157,173,190,201,198,195,192,188,185,182,179,176,173,169,166,163,160,157,154,150,147,144,141,138,135,132,128,125,123,123,123,109,110,109,110,123,117,119,116,113,124,115,112,117,112,111,115,112,111,119,111,111,117,115,121,117,115,113,263,263,264,265,266,289,316,353,391,427,440,433,426,419,412,405,398,391,384,377,370,363,356,349,341,334,327,320,313,306,299,292,285,278,271,267,267,268,284,249,245,245,263,263,262,254,253,261,291,264,271,280,282,281,251,262,276,288,300,286,257,259,291,251,248,1021,1068,1064,1097,1198,1381,1540,1628,1745,1759,1715,1778,1660,1644,1633,1555,1605,1568,1458,1494,1393,1445,1386,1365,1303,1329,1289,1280,1245,1194,1166,1196,1111,1212,1076,1095,1082,1110,1118,1115,1113,1121,1126,1139,1121,1123,1139,1131,1120,1126,1124,1133,1128,1123,1137,1136,1130,1131,1127,1145,1139,1162,1166,1165,1154,968,944,974,988,1051,1174,1331,1495,1599,1539,1575,1509,1484,1500,1474,1449,1454,1358,1418,1348,1288,1263,1239,1214,1222,1197,1267,1116,1091,1096,1079,1046,993,998,979,990,958,958,990,989,990,1017,1004,999,1007,1015,1013,1004,1020,1026,1108,1116,1126,1038,1005,1012,1016,1029,1019,993,1016,994,1005,1000,996,572,537,539,540,562,616,684,682,816,775,781,771,761,751,741,792,721,770,725,748,737,760,714,703,676,632,670,658,647,636,625,614,603,592,582,578,566,532,546,548,549,564,552,563,549,553,567,554,550,552,549,554,550,548,555,557,555,554,552,555,561,570,564,572,563,957,960,962,987,1047,1150,1299,1437,1551,1611,1547,1538,1498,1489,1463,1424,1448,1376,1352,1342,1303,1264,1254,1244,1218,1195,1156,1146,1122,1083,1072,1022,1022,1000,983,971,973,987,980,994,992,1006,1009,1013,1003,1020,1004,1009,998,997,1004,1016,1014,1016,1021,1019,1016,1015,1026,1015,1016,1034,1034,1047,1034,763,776,770,773,804,891,1021,1135,1235,1259,1257,1237,1217,1197,1178,1170,1149,1130,1120,1102,1083,1052,1032,1000,980,970,941,913,903,873,853,833,811,794,790,785,787,817,794,786,793,815,802,806,805,806,815,815,806,807,808,837,861,839,835,820,806,841,820,800,822,799,809,813,790,1010,986,1003,1000,1078,1142,1402,1454,1504,1631,1532,1519,1486,1464,1435,1581,1444,1385,1341,1365,1347,1328,1273,1225,1254,1233,1207,1122,1155,1086,1058,1059,1030,1024,998,983,1002,998,1031,1005,1009,1008,1017,1019,1066,1061,1020,1060,1046,1020,1020,1077,1078,1075,1073,1087,1080,1105,1073,1059,1058,1038,1019,1015,1007,0,0,0,0,0,0,0,0,0,0,0,0,0,0,0,0,0,0,0,0,0,0,0,0,0,0,0,0,0,0,0,0,0,0,0,0,0,0,0,0,0,0,0,0,0,0,0,0,0,0,0,0,0,0,0,0,0,0,0,0,0,0,0,0,0,1186,1185,1143,1177,1261,1515,1595,1739,1999,1836,1826,1781,1768,1799,1710,1681,1787,1667,1639,1565,1536,1623,1479,1450,1469,1468,1428,1334,1305,1384,1415,1218,1190,1236,1155,1198,1197,1159,1226,1223,1269,1536,1276,1208,1259,1353,1294,1230,1327,1304,1252,1261,1340,1317,1305,1216,1252,1244,1292,1297,1235,1275,1241,1241,1261,396,397,399,400,401,431,488,544,571,648,637,646,636,625,615,616,594,584,573,563,527,542,532,521,511,500,490,480,469,459,448,438,427,405,407,402,403,404,389,385,387,386,388,387,392,393,391,392,393,393,395,396,394,397,396,394,400,397,395,393,399,400,402,401,401,231,231,232,233,234,244,277,309,342,374,387,381,375,369,363,356,350,344,338,332,325,319,313,307,301,294,288,282,276,269,263,257,251,245,238,234,235,236,220,224,222,228,291,263,242,266,243,293,258,269,265,233,238,254,245,231,278,245,231,264,253,287,266,251,247,1267,1314,1282,1336,1446,1619,1889,1993,2075,2018,2105,2050,1998,1929,1901,1909,1873,1836,1837,1831,1783,1673,1718,1634,1619,1566,1658,1511,1491,1450,1476,1369,1366,1323,1356,1286,1307,1293,1368,1360,1367,1365,1403,1424,1379,1403,1394,1425,1407,1415,1415,1415,1401,1428,1404,1411,1399,1401,1391,1437,1412,1427,1405,1409,1422,1561,1545,1569,1711,1784,1977,2203,2321,2501,2419,2450,2358,2263,2247,2208,2200,2174,2088,2174,2061,2076,1949,1957,1880,1888,1840,1889,1823,1749,1672,1712,1633,1659,1614,1593,1552,1603,1552,1717,1720,1673,1683,1715,1704,1711,1720,1716,1725,1772,1719,1734,1744,1744,1747,1723,1755,1765,1766,1795,1748,1746,1751,1801,1733,1736,2201,2233,2381,2593,2873,3028,3285,3252,3400,3502,3501,3276,3221,3171,3129,3059,2990,2989,2957,2886,2831,2720,2836,2621,2655,2552,2541,2464,2406,2287,2318,2223,2216,2218,2210,2213,2198,2229,2446,2461,2499,2507,2676,2514,2534,2560,2555,2576,2681,2696,2616,2608,2608,2613,2826,2707,2657,2650,2730,2668,2684,2703,2698,2704,2719,1729,1652,1716,1833,2105,2233,2436,2492,2605,2624,2665,2570,2527,2439,2398,2399,2341,2280,2284,2273,2186,2128,2120,2051,2032,1924,2008,1942,1895,1784,1795,1703,1716,1682,1668,1709,1693,1770,1918,1907,1873,1896,1895,1958,1963,1979,1939,2034,1933,1960,1952,2000,1977,2052,2003,1977,1963,1976,1986,1999,1985,1999,1962,1962,1919,2067,2048,2190,2439,2511,2742,2922,3018,3181,3125,3104,3089,2896,2873,2826,2807,2770,2695,2746,2625,2628,2493,2495,2402,2354,2322,2373,2297,2216,2153,2147,2086,2083,2058,2044,2075,2057,2030,2375,2391,2407,2424,2452,2474,2445,2477,2465,2479,2507,2501,2534,2563,2527,2552,2555,2586,2603,2607,2632,2598,2622,2661,2661,2662,2642,2009,2062,2299,2559,2590,2856,3077,3099,3148,3250,3299,3196,3076,3052,3053,2985,2834,2776,2740,2817,2680,2668,2636,2557,2509,2362,2497,2405,2245,2230,2140,2141,2101,2045,2032,2153,2150,2050,2378,2393,2440,2458,2454,2466,2491,2511,2504,2520,2551,2547,2588,2573,2576,2606,2642,2657,2637,2685,2697,2701,2701,2729,2730,2747,2776,1072,1074,1073,1090,1316,1323,1506,1657,1734,1766,1756,1728,1714,1671,1642,1613,1585,1556,1527,1499,1470,1454,1413,1384,1356,1327,1298,1288,1241,1213,1184,1155,1127,1102,1090,1089,1093,1097,1112,1111,1115,1157,1164,1158,1127,1156,1124,1123,1147,1160,1135,1174,1169,1175,1166,1180,1154,1150,1122,1189,1161,1169,1151,1193,1150,1554,1539,1572,1648,1838,2040,2296,2453,2449,2456,2483,2467,2436,2345,2312,2284,2235,2194,2154,2124,2075,1988,2004,1946,1917,1857,1838,1798,1810,1680,1682,1636,1688,1620,1533,1606,1590,1540,1708,1700,1704,1856,1765,1753,1746,1735,1731,1749,1748,1751,1743,1767,1816,1848,1763,1742,1740,1734,1723,1723,1716,1741,1732,1751,1695,1381,1381,1441,1517,1654,1809,2045,2169,2289,2198,2256,2200,2171,2088,2093,2068,1991,1951,2012,1997,1908,1842,1872,1813,1753,1680,1793,1679,1622,1534,1617,1523,1520,1432,1447,1447,1428,1435,1528,1535,1487,1496,1526,1518,1521,1534,1528,1536,1585,1532,1545,1556,1558,1562,1535,1564,1578,1577,1610,1562,1555,1563,1614,1548,1552,1318,1320,1340,1409,1520,1680,1935,2036,2105,2175,2216,2139,2109,1958,2035,1961,1923,1880,1894,1828,1788,1795,1728,1684,1679,1593,1602,1564,1525,1470,1448,1397,1374,1354,1343,1344,1350,1351,1415,1420,1371,1382,1414,1402,1405,1417,1409,1419,1470,1415,1427,1438,1441,1442,1417,1444,1457,1457,1490,1438,1432,1441,1490,1420,1422,1090,1101,1096,1124,1204,1344,1595,1706,1793,1740,1797,1871,1699,1670,1646,1658,1627,1559,1575,1584,1540,1448,1483,1393,1408,1355,1422,1313,1297,1226,1292,1188,1187,1144,1126,1106,1126,1112,1161,1134,1131,1135,1172,1168,1158,1161,1170,1179,1190,1219,1261,1199,1219,1222,1264,1185,1193,1235,1269,1299,1284,1292,1320,1267,1236,1281,1282,1324,1381,1494,1644,1904,2008,2131,2042,2124,2088,2024,1979,1950,1963,1888,1816,1859,1842,1793,1715,1750,1669,1636,1565,1662,1570,1514,1455,1515,1422,1402,1336,1346,1346,1327,1333,1403,1406,1361,1359,1402,1386,1394,1401,1398,1418,1457,1405,1417,1430,1432,1433,1410,1441,1447,1452,1487,1449,1432,1438,1491,1425,1430,1588,1605,1637,1780,1874,2074,2298,2413,2591,2544,2536,2443,2347,2330,2289,2280,2252,2165,2249,2135,2148,2020,2027,1948,1954,1905,1952,1884,1809,1754,1792,1713,1692,1663,1651,1633,1655,1610,1780,1799,1807,1803,1832,1826,1838,1850,1817,1842,1847,1839,1841,1858,1853,1884,1838,1839,1853,1828,1824,1849,1843,1850,1835,1868,1835,1537,1596,1561,1654,1809,2032,2256,2386,2461,2401,2480,2417,2310,2315,2251,2245,2240,2131,2129,2102,2098,1989,1995,1918,1914,1852,1936,1783,1758,1712,1734,1628,1615,1570,1607,1538,1559,1578,1670,1720,1678,1696,1708,1686,1702,1710,1709,1712,1712,1702,1710,1705,1712,1715,1727,1733,1724,1719,1749,1701,1729,1735,1746,1724,1717,1375,1372,1413,1483,1630,1799,2053,2159,2279,2188,2277,2223,2157,2125,2084,2089,2017,1925,1983,1964,1912,1816,1864,1778,1754,1669,1752,1673,1612,1554,1611,1517,1483,1444,1427,1441,1426,1429,1521,1533,1480,1496,1522,1517,1516,1536,1521,1534,1578,1522,1540,1551,1555,1558,1532,1559,1570,1567,1611,1558,1545,1556,1606,1543,1545,2121,2230,2489,2889,3372,3545,3722,3723,3837,3899,3838,3717,3661,3634,3521,3443,3386,3285,3278,3127,3048,2969,2890,2840,2732,2653,2568,2495,2416,2337,2260,2215,2180,2164,2168,2176,2252,2216,2440,2450,2456,2486,2520,2538,2506,2534,2531,2552,2578,2585,2604,2645,2612,2638,2628,2654,2678,2698,2723,2691,2719,2759,2768,2758,2749,1257,1304,1270,1323,1430,1602,1871,1975,2057,2001,2088,2034,1982,1914,1885,1893,1858,1821,1822,1817,1769,1659,1705,1621,1607,1554,1646,1499,1480,1439,1466,1358,1355,1313,1345,1275,1296,1282,1336,1329,1338,1381,1359,1372,1371,1348,1353,1372,1356,1360,1355,1360,1367,1374,1371,1369,1378,1373,1371,1363,1386,1373,1367,1384,1367,1662,1621,1681,1793,2058,2186,2467,2447,2561,2580,2622,2528,2485,2398,2358,2360,2302,2242,2247,2236,2150,2092,2085,2017,1999,1891,1976,1911,1865,1754,1765,1674,1687,1653,1639,1679,1663,1700,1811,1805,1836,1873,1868,1909,1858,1850,1866,1887,1914,1866,1894,1908,1924,1914,1892,1877,1859,1877,1855,1863,1862,1886,1862,1912,1864,1254,1311,1330,1292,1389,1533,1743,1916,1960,1957,1956,1928,1900,1828,1844,1816,1784,1716,1732,1749,1720,1604,1636,1565,1579,1505,1600,1491,1452,1392,1456,1382,1489,1299,1322,1270,1275,1277,1355,1357,1356,1367,1383,1361,1394,1389,1382,1381,1406,1401,1467,1478,1497,1458,1438,1436,1406,1410,1402,1392,1401,1387,1397,1435,1383,1168,1215,1177,1215,1307,1461,1723,1831,1916,1862,1951,1899,1850,1783,1757,1768,1735,1700,1704,1701,1655,1547,1596,1513,1501,1450,1545,1400,1383,1345,1374,1268,1266,1223,1256,1185,1206,1192,1274,1287,1259,1271,1265,1298,1276,1299,1314,1371,1291,1323,1306,1315,1296,1352,1322,1289,1299,1279,1296,1329,1304,1332,1319,1326,1294,1134,1165,1146,1182,1225,1336,1585,1667,1805,1709,1770,1745,1677,1652,1631,1641,1619,1553,1568,1563,1524,1455,1474,1415,1420,1356,1392,1364,1326,1271,1292,1258,1299,1170,1157,1155,1210,1160,1228,1192,1199,1208,1193,1230,1211,1221,1220,1221,1246,1222,1225,1218,1221,1243,1264,1219,1220,1237,1215,1222,1226,1221,1235,1257,1231,2190,2286,2504,2643,2811,3083,3215,3304,3475,3376,3357,3337,3218,3108,3054,3055,2989,2917,2980,2858,2840,2722,2709,2646,2550,2514,2569,2468,2461,2396,2341,2259,2273,2236,2223,2181,2254,2209,2448,2466,2509,2530,2696,2542,2561,2589,2585,2605,2714,2742,2660,2647,2669,2677,2899,2769,2722,2738,2812,2757,2774,2795,2797,2796,2829,2085,2091,2221,2367,2654,2810,3114,3043,3195,3182,3182,3119,3066,2981,2942,2911,2809,2812,2769,2714,2662,2554,2598,2460,2463,2443,2418,2316,2289,2143,2174,2079,2071,2073,2025,2067,2080,2121,2374,2389,2430,2442,2613,2454,2477,2494,2484,2515,2613,2643,2559,2547,2557,2567,2773,2655,2598,2618,2684,2630,2641,2665,2673,2668,2698,679,681,684,686,706,778,932,1035,1119,1092,1161,1143,1082,1062,1049,1072,1051,991,1019,1001,983,920,948,885,912,849,947,859,841,778,857,743,770,707,693,690,692,693,691,706,699,713,706,701,714,721,700,700,703,709,705,701,702,707,708,707,709,706,705,708,705,723,720,730,714,1782,1804,1939,2208,2221,2498,2729,2758,2813,2923,3034,2928,2765,2684,2882,2711,2543,2490,2459,2508,2410,2404,2375,2339,2213,2118,2260,2065,2016,1988,1919,1876,1879,1822,1809,1851,1925,1825,2161,2149,2172,2201,2183,2164,2190,2207,2180,2192,2200,2194,2279,2292,2260,2225,2267,2256,2236,2309,2302,2206,2233,2328,2330,2299,2233,1104,1175,1174,1122,1201,1324,1521,1695,1742,1744,1744,1719,1694,1624,1644,1618,1590,1524,1543,1563,1537,1423,1458,1387,1407,1335,1431,1328,1291,1235,1302,1230,1249,1149,1169,1119,1123,1124,1174,1191,1172,1183,1200,1174,1189,1210,1184,1203,1193,1219,1203,1213,1203,1214,1216,1216,1222,1211,1212,1208,1222,1225,1226,1215,1244,1646,1664,1725,1740,1907,2211,2283,2332,2385,2538,2493,2463,2347,2420,2335,2195,2147,2124,2104,2116,2089,2050,1970,1971,1923,1894,1907,1908,1830,1736,1708,1739,1630,1609,1571,1608,1682,1605,1790,1777,1763,1795,1774,1800,1833,1850,1810,1924,1789,1787,1796,1838,1882,1832,1847,1869,1863,1864,1825,1817,1838,1810,1789,1784,1763,1166,1213,1175,1213,1305,1459,1721,1829,1914,1860,1949,1897,1848,1781,1755,1766,1733,1698,1702,1699,1653,1545,1594,1511,1499,1448,1543,1398,1381,1343,1372,1266,1264,1221,1254,1183,1204,1190,1258,1252,1258,1313,1299,1271,1274,1292,1281,1312,1350,1296,1302,1322,1334,1322,1312,1300,1277,1285,1274,1272,1262,1290,1283,1298,1251,0,0,0,0,0,0,0,0,0,0,0,0,0,0,0,0,0,0,0,0,0,0,0,0,0,0,0,0,0,0,0,0,0,0,0,0,0,0,0,0,0,0,0,0,0,0,0,0,0,0,0,0,0,0,0,0,0,0,0,0,0,0,0,0,0,1400,1414,1425,1501,1624,1825,2072,2136,2223,2328,2321,2266,2173,2084,2111,2114,2033,1982,1978,1941,1884,1887,1855,1793,1795,1695,1719,1661,1621,1560,1526,1489,1451,1419,1433,1434,1453,1430,1505,1497,1513,1525,1510,1514,1518,1539,1516,1527,1528,1514,1525,1557,1579,1558,1549,1536,1512,1532,1519,1510,1510,1531,1539,1540,1516,1267,1314,1282,1336,1446,1619,1889,1993,2075,2018,2105,2050,1998,1929,1901,1909,1873,1836,1837,1831,1783,1673,1718,1634,1619,1566,1658,1511,1491,1450,1476,1369,1366,1323,1356,1286,1307,1293,1368,1360,1367,1365,1403,1424,1379,1403,1394,1425,1407,1415,1415,1415,1401,1428,1404,1411,1399,1401,1391,1437,1412,1427,1405,1409,1422,392,393,394,395,397,426,483,540,595,644,653,643,630,622,609,601,590,580,567,557,548,538,526,566,507,496,486,474,463,454,444,433,423,411,402,396,399,398,396,389,406,394,392,408,394,410,417,406,427,407,410,412,408,416,402,402,400,417,400,407,407,406,396,412,424,296,297,298,299,300,316,368,398,439,479,505,497,489,481,473,465,457,449,441,433,413,417,398,388,385,378,370,371,363,354,346,338,330,322,304,301,301,302,300,288,289,288,292,294,295,293,294,297,303,296,303,302,301,302,300,300,302,310,312,312,304,301,318,311,315,828,788,790,793,826,914,1034,1153,1241,1279,1279,1312,1238,1218,1198,1178,1157,1137,1117,1097,1076,1056,1036,1042,996,975,955,935,915,895,874,854,834,814,800,797,799,801,807,805,807,806,795,816,822,817,808,825,837,810,802,801,816,813,815,821,829,822,848,823,810,810,809,818,793,294,295,296,297,297,312,353,393,434,473,486,478,470,463,455,448,440,432,425,417,410,402,394,387,379,371,364,356,349,341,333,326,318,310,303,298,299,300,279,286,286,301,285,286,285,287,284,282,286,282,282,281,281,282,282,284,284,282,281,282,280,286,282,285,282,680,674,684,678,706,820,835,933,1024,1067,1159,1053,1069,1063,1042,984,998,992,974,957,939,921,903,875,831,850,832,805,785,779,750,712,748,707,694,690,692,694,694,686,699,686,698,701,692,700,699,755,712,701,709,710,706,712,707,705,694,712,694,714,703,701,694,708,723,771,731,733,735,760,839,949,1059,1148,1189,1246,1225,1152,1133,1114,1095,1076,1058,1106,1020,1001,982,964,971,926,907,888,870,851,832,813,832,775,757,743,739,741,743,747,745,755,747,749,760,766,766,756,758,779,756,755,759,771,784,778,786,770,769,776,774,762,760,767,769,749,1243,1246,1252,1300,1450,1673,1929,2075,2172,2234,2292,2226,2103,2041,2085,2011,1943,1903,1863,1823,1803,1744,1727,1664,1624,1584,1544,1504,1476,1424,1384,1344,1306,1276,1264,1266,1265,1298,1304,1299,1314,1344,1346,1313,1310,1336,1311,1361,1351,1358,1387,1503,1409,1394,1470,1349,1356,1359,1361,1351,1364,1373,1359,1364,1363,1069,1105,1107,1122,1266,1344,1587,1696,1760,1843,1821,1852,1764,1767,1707,1686,1656,1583,1641,1526,1539,1470,1481,1407,1361,1369,1364,1310,1273,1276,1184,1229,1165,1146,1125,1108,1150,1133,1169,1152,1165,1167,1189,1228,1183,1200,1196,1199,1237,1205,1205,1213,1210,1226,1182,1190,1204,1211,1203,1212,1199,1216,1206,1203,1205,833,875,852,809,925,959,1114,1267,1351,1318,1326,1317,1273,1363,1341,1242,1221,1239,1156,1241,1160,1129,1129,1108,1060,1047,1062,1003,981,985,953,924,920,836,924,861,877,878,871,871,878,896,893,884,886,888,886,897,899,892,893,928,948,934,921,899,891,900,894,891,879,906,888,907,882,157,157,158,158,159,163,185,206,228,250,263,259,254,250,246,242,238,234,229,225,221,217,213,208,204,200,196,192,188,183,179,175,171,167,162,159,160,160,150,149,147,148,155,154,159,158,151,155,155,156,156,150,151,156,154,152,155,152,149,152,151,156,155,155,150,538,539,541,592,550,663,682,821,877,941,923,986,927,895,892,866,833,819,835,790,786,789,782,767,691,677,663,648,634,620,652,591,577,563,594,590,592,549,548,548,554,568,552,568,554,561,572,557,562,554,555,557,554,556,559,561,559,559,556,557,563,573,568,578,568,829,850,849,858,900,999,1124,1268,1371,1399,1402,1390,1338,1337,1323,1273,1249,1250,1239,1186,1196,1161,1127,1092,1052,1050,1028,989,990,967,929,901,879,850,874,850,877,846,844,846,843,851,847,843,850,861,859,875,858,866,866,858,870,875,860,861,862,862,868,882,869,873,867,869,870,352,353,354,356,357,380,442,481,531,576,611,601,591,581,572,565,552,545,534,523,493,504,474,463,476,449,440,447,435,426,416,406,390,387,361,358,359,360,356,361,360,360,363,360,364,365,358,362,357,360,363,368,368,365,369,363,363,362,370,373,362,366,363,364,365,335,328,329,330,331,351,409,445,491,560,560,551,542,533,524,515,506,497,488,479,458,461,441,452,427,418,409,409,400,390,381,372,363,354,335,332,333,334,325,325,327,328,328,330,330,325,328,332,342,328,332,337,338,334,345,340,332,332,331,333,330,335,335,335,332,929,930,945,955,1015,1167,1251,1436,1559,1528,1544,1515,1519,1457,1455,1409,1401,1381,1367,1307,1320,1277,1229,1205,1167,1162,1137,1081,1095,1055,1029,984,974,941,968,941,998,938,940,957,960,961,962,965,960,977,957,975,957,954,963,968,982,985,980,976,967,958,977,977,968,976,952,967,955,1184,1147,1136,1147,1274,1396,1536,1722,1750,1803,1771,1814,1715,1687,1680,1630,1638,1616,1546,1538,1490,1462,1434,1446,1377,1364,1356,1307,1268,1269,1241,1181,1183,1130,1118,1146,1133,1121,1150,1152,1166,1196,1170,1190,1172,1183,1162,1175,1185,1164,1165,1181,1173,1196,1216,1204,1168,1177,1180,1175,1168,1166,1177,1204,1169,381,383,384,385,386,414,469,524,579,626,635,625,615,605,594,584,574,564,554,589,534,523,584,553,493,483,473,463,452,442,432,422,412,402,392,387,388,389,383,388,380,396,393,399,386,391,385,381,396,396,438,448,446,404,389,400,402,406,408,394,396,406,383,393,389,265,266,267,268,268,281,317,353,389,426,439,432,425,418,411,404,397,391,384,377,370,363,356,349,342,335,329,322,315,308,301,294,287,280,274,269,270,271,254,261,255,273,254,268,256,270,261,265,263,257,265,262,266,264,264,264,268,265,272,264,263,269,264,269,271,972,994,968,1018,1042,1198,1350,1498,1602,1621,1635,1563,1550,1545,1482,1510,1465,1445,1416,1374,1345,1308,1301,1268,1225,1218,1191,1151,1128,1095,1081,1059,1022,995,992,996,995,992,1014,1004,1016,1023,1021,1049,1021,1017,1026,1038,1039,1035,1031,1051,1066,1059,1051,1052,1040,1072,1040,1027,1039,1019,1039,1039,1009,495,515,498,500,505,556,630,704,777,843,819,816,803,790,777,763,767,728,740,727,697,676,671,658,644,646,632,605,592,571,558,552,532,526,507,503,504,553,507,510,511,508,510,517,541,531,526,521,521,519,517,523,523,549,523,531,523,518,529,526,518,527,518,582,524,375,376,378,379,380,407,462,516,571,617,628,618,608,598,587,577,567,557,547,537,527,517,507,497,487,477,467,491,447,437,427,417,407,397,386,381,382,383,377,373,377,380,389,387,378,387,379,391,383,379,385,384,384,394,392,389,383,388,384,395,388,388,388,394,389,852,840,859,856,910,1057,1098,1245,1448,1352,1426,1328,1365,1347,1380,1242,1240,1240,1217,1195,1173,1130,1128,1095,1085,1059,1039,998,976,972,933,896,936,867,870,878,881,871,878,877,876,876,894,897,916,919,886,901,896,896,899,888,890,912,904,894,892,899,886,902,890,897,891,908,898,713,645,647,649,695,767,870,928,1061,1058,1104,1098,1027,1051,1033,1016,959,980,925,908,927,910,857,901,823,839,821,772,755,768,721,733,687,698,684,680,654,656,667,670,660,692,663,691,663,694,672,679,678,675,684,677,695,700,693,694,689,690,700,687,698,701,700,714,708,739,741,754,739,784,870,899,972,1127,1136,1175,1085,1070,1128,1052,1037,1081,1066,1049,977,992,1001,986,977,930,929,917,847,878,834,838,804,819,779,753,748,750,766,754,768,768,768,777,790,779,774,767,779,770,769,771,777,789,800,789,797,779,785,790,775,777,769,782,786,766,659,674,675,677,694,759,828,922,1043,1073,1075,1074,1055,1024,1021,1006,974,957,955,938,906,889,887,855,854,821,818,802,757,768,750,720,691,686,672,669,658,660,660,660,672,695,682,677,668,682,671,698,685,685,758,756,791,744,701,685,689,694,686,678,691,707,680,695,677,1101,1104,1172,1149,1221,1409,1548,1700,1798,1818,1789,1765,1737,1694,1666,1637,1609,1580,1576,1524,1496,1467,1439,1490,1402,1353,1345,1401,1268,1240,1212,1184,1155,1211,1131,1117,1131,1124,1160,1152,1147,1162,1151,1187,1156,1164,1189,1243,1167,1187,1185,1189,1182,1185,1206,1182,1173,1180,1181,1191,1185,1189,1190,1202,1181,644,646,612,614,733,734,831,931,1018,1003,1005,1088,973,1012,1035,925,961,893,943,924,893,876,812,796,825,764,791,791,757,740,752,716,689,672,621,664,656,658,660,657,656,664,648,659,655,657,675,713,661,678,687,683,683,693,702,672,666,670,680,687,675,680,684,692,678,493,513,496,498,503,554,628,702,775,841,817,814,801,788,775,761,765,726,738,725,695,674,669,656,642,644,630,603,590,569,556,550,530,524,505,501,502,551,496,494,500,496,565,502,503,503,503,503,553,565,513,518,526,513,582,546,523,509,555,509,515,515,526,509,519,1250,1432,1262,1435,1550,1588,1784,1959,2068,2014,2139,1970,1938,1906,1875,1969,1811,1824,1748,1769,1684,1715,1695,1589,1557,1525,1594,1458,1528,1503,1411,1412,1353,1315,1271,1285,1412,1378,1375,1367,1364,1386,1438,1437,1417,1447,1410,1458,1470,1453,1495,1453,1457,1473,1455,1412,1457,1437,1428,1453,1443,1458,1465,1494,1457,0,0,0,0,0,0,0,0,0,0,0,0,0,0,0,0,0,0,0,0,0,0,0,0,0,0,0,0,0,0,0,0,0,0,0,0,0,0,0,0,0,0,0,0,0,0,0,0,0,0,0,0,0,0,0,0,0,0,0,0,0,0,0,0,0,392,393,394,395,397,426,483,540,595,644,653,643,630,622,609,601,590,580,567,557,548,538,526,566,507,496,486,474,463,454,444,433,423,411,402,396,399,398,396,389,406,394,392,408,394,410,417,406,427,407,410,412,408,416,402,402,400,417,400,407,407,406,396,412,424,0,0,0,0,0,0,0,0,0,0,0,0,0,0,0,0,0,0,0,0,0,0,0,0,0,0,0,0,0,0,0,0,0,0,0,0,0,0,0,0,0,0,0,0,0,0,0,0,0,0,0,0,0,0,0,0,0,0,0,0,0,0,0,0,0,358,387,361,361,362,386,436,527,582,581,592,585,572,564,590,545,536,526,517,549,501,527,478,500,461,480,470,466,450,414,405,396,386,377,367,363,364,365,357,363,358,364,370,364,371,369,361,364,364,369,362,365,366,370,364,363,369,364,366,366,364,369,361,365,361,1143,1147,1115,1184,1278,1374,1614,1744,1793,1794,1892,1848,1779,1750,1702,1644,1645,1669,1559,1530,1529,1474,1478,1478,1410,1402,1332,1322,1333,1293,1251,1224,1203,1140,1163,1125,1162,1134,1175,1172,1189,1197,1195,1202,1189,1218,1199,1213,1203,1195,1207,1208,1208,1204,1214,1227,1204,1215,1206,1200,1205,1221,1208,1223,1192,616,618,620,648,653,696,830,880,993,1007,1068,995,978,963,947,931,915,899,883,867,851,835,852,803,809,806,755,758,745,707,716,739,700,643,640,625,682,660,664,666,653,713,697,670,672,690,676,695,726,691,693,675,667,675,685,683,670,668,657,666,661,663,678,672,644,822,866,866,831,825,967,1078,1221,1312,1426,1398,1353,1247,1279,1277,1263,1270,1193,1186,1153,1183,1128,1091,1085,1107,1025,997,1013,978,979,912,893,918,855,841,837,836,807,846,859,851,869,869,869,861,883,863,869,868,870,881,897,888,884,879,881,877,870,866,878,869,896,867,883,874,1126,1055,1058,1110,1203,1290,1580,1598,1703,1762,1858,1762,1695,1617,1673,1563,1566,1592,1483,1456,1503,1447,1407,1374,1342,1336,1308,1259,1274,1232,1191,1166,1145,1119,1105,1067,1167,1126,1152,1143,1142,1156,1152,1176,1154,1164,1162,1170,1190,1181,1174,1183,1182,1197,1179,1188,1181,1189,1192,1205,1191,1197,1188,1210,1206,1351,1354,1334,1399,1494,1659,1848,1974,2070,2106,2117,2062,2030,1999,1968,1936,1905,1873,1834,1997,1771,1748,1717,1685,1651,1623,1591,1622,1529,1548,1494,1421,1445,1355,1500,1421,1369,1391,1441,1501,1447,1465,1474,1467,1471,1496,1472,1482,1494,1463,1476,1487,1495,1495,1495,1505,1497,1494,1521,1472,1496,1502,1521,1501,1491,799,817,792,824,870,936,1044,1183,1319,1337,1334,1312,1217,1260,1183,1227,1148,1157,1115,1111,1121,1114,1105,1057,1075,961,999,983,955,883,936,912,836,844,855,864,854,803,852,831,822,830,891,937,856,852,869,883,868,894,892,894,864,868,886,877,896,877,897,962,911,921,938,891,894,529,591,532,534,574,583,680,735,817,816,824,790,800,766,794,743,757,813,708,733,685,674,732,686,639,645,682,633,651,606,591,619,566,604,582,537,580,523,550,555,552,553,556,561,569,569,553,571,564,570,562,556,554,563,563,567,554,557,550,552,548,553,556,553,545,554,556,560,586,562,655,708,811,895,915,920,906,890,863,861,874,828,813,803,806,773,759,742,761,728,700,685,686,680,649,619,612,618,574,569,590,591,593,565,562,564,563,573,569,570,571,572,576,583,584,586,582,584,585,591,586,587,591,596,594,593,593,606,605,607,379,379,385,380,381,393,409,426,442,457,465,462,458,455,452,449,446,442,439,436,433,430,430,423,420,417,433,429,407,404,401,398,394,387,383,381,387,382,357,350,358,370,364,363,362,370,361,370,364,362,365,354,358,363,363,361,363,356,354,361,363,369,364,370,364,537,563,540,542,572,626,671,747,833,843,846,848,845,830,823,805,800,799,781,750,775,768,740,719,709,667,686,642,689,613,631,613,575,587,570,545,568,570,559,557,561,573,561,564,565,572,567,563,567,560,571,573,579,575,572,568,561,578,569,561,563,584,570,579,567,434,436,439,439,440,476,543,602,668,735,725,721,700,686,698,691,655,643,631,619,610,595,585,574,562,551,536,525,517,503,488,479,467,457,445,443,442,449,446,444,444,441,448,458,498,481,447,467,461,446,446,479,487,503,488,508,494,503,493,471,467,449,457,454,442,343,344,345,346,347,370,421,468,517,577,586,575,571,544,535,526,517,510,498,492,485,474,462,453,444,435,425,416,407,400,389,380,371,362,353,348,349,350,340,340,341,342,342,341,343,343,342,340,342,341,341,346,346,345,341,342,346,343,347,347,343,348,340,343,345,630,643,634,636,690,727,804,874,989,976,997,997,991,993,997,944,947,932,912,861,897,892,864,838,826,783,798,751,781,703,729,713,698,682,661,639,663,665,652,659,656,668,655,655,662,664,663,664,659,661,659,663,666,667,669,677,666,663,667,666,672,675,668,668,667,1378,1403,1427,1443,1583,1746,2147,2071,2145,2197,2201,2144,2088,2045,2080,2004,2031,1954,1978,1843,1932,1824,1784,1723,1685,1639,1599,1720,1553,1497,1463,1472,1531,1383,1370,1396,1422,1381,1461,1424,1433,1430,1447,1461,1445,1455,1449,1464,1490,1482,1480,1489,1495,1512,1494,1504,1481,1511,1516,1518,1522,1507,1536,1550,1541,162,163,163,164,164,169,173,206,228,249,263,258,254,250,246,242,237,233,229,225,221,217,212,208,204,200,196,179,176,189,185,181,176,172,168,165,165,165,165,158,154,154,155,158,217,209,155,187,173,155,151,201,204,218,208,217,210,218,211,192,179,167,157,155,152,587,589,591,619,621,661,789,835,945,961,1022,950,934,919,904,889,873,858,843,828,812,797,815,766,773,771,720,724,712,674,683,669,670,613,611,596,652,629,617,624,654,799,653,609,637,700,666,619,737,707,633,654,739,721,724,615,644,640,678,660,623,651,636,628,631,701,704,692,694,731,806,911,993,1073,1070,1063,1068,1055,1031,1032,1030,1015,1011,977,941,928,914,931,898,884,864,851,846,828,799,783,765,757,743,715,712,714,716,701,712,710,732,723,715,725,725,713,718,715,718,718,714,714,722,724,718,725,717,716,725,723,751,745,752,739,362,355,356,364,357,370,395,421,458,470,477,472,467,462,457,452,447,442,437,433,428,423,418,460,408,403,398,393,389,384,379,374,369,364,359,357,358,358,348,348,348,350,353,347,350,355,345,351,349,347,349,353,350,350,350,350,348,348,353,351,349,349,348,349,349,466,467,469,470,473,514,583,651,720,767,774,762,761,737,724,712,711,687,675,662,650,638,625,613,600,588,576,563,551,539,526,514,501,489,477,482,474,483,472,470,477,478,477,473,475,477,478,483,478,485,502,517,511,494,480,487,478,481,477,480,470,485,476,483,479,1014,974,1036,1061,1070,1214,1358,1492,1599,1706,1621,1603,1504,1556,1515,1478,1462,1403,1426,1404,1365,1338,1314,1302,1314,1234,1193,1212,1202,1097,1092,1087,1074,1028,986,1004,1002,977,1028,1027,1027,1055,1040,1061,1026,1037,1039,1034,1066,1050,1083,1084,1073,1063,1068,1055,1044,1059,1059,1053,1051,1051,1045,1069,1038,993,996,972,1015,1132,1211,1387,1511,1574,1578,1677,1685,1537,1537,1542,1485,1489,1479,1408,1382,1348,1296,1303,1271,1242,1237,1170,1163,1175,1141,1101,1078,1059,1024,1018,981,1029,1000,1074,1022,1035,1054,1036,1069,1046,1080,1061,1051,1083,1054,1080,1082,1089,1080,1053,1045,1063,1067,1061,1044,1058,1068,1045,1067,1054,786,781,783,785,772,876,908,1040,1152,1114,1131,1105,1162,1072,1056,1112,1084,1075,1018,985,967,952,985,920,952,939,919,855,891,870,853,809,820,773,760,771,758,778,794,770,768,776,782,787,844,836,786,821,802,782,784,833,837,839,832,853,840,858,833,813,815,799,782,777,768,982,1020,988,1044,1064,1170,1341,1459,1608,1574,1672,1544,1549,1544,1499,1474,1479,1426,1400,1376,1347,1324,1333,1271,1272,1209,1185,1188,1158,1124,1128,1060,1088,1012,1048,996,1035,1068,1045,1043,1059,1128,1066,1085,1045,1070,1059,1084,1084,1063,1074,1066,1068,1098,1104,1070,1063,1067,1075,1081,1072,1063,1063,1087,1054,865,868,870,876,906,1002,1133,1261,1360,1388,1352,1342,1324,1325,1289,1280,1276,1235,1217,1209,1187,1165,1143,1113,1098,1076,1053,1031,1009,986,964,942,920,898,882,878,880,924,904,879,892,885,912,909,898,889,894,913,952,931,934,937,943,929,940,925,919,947,954,940,925,921,947,957,951,1043,1068,1067,1103,1174,1256,1426,1584,1699,1706,1640,1747,1656,1603,1557,1574,1530,1510,1535,1422,1378,1398,1325,1345,1287,1247,1220,1247,1202,1160,1146,1089,1083,1083,1091,1040,1075,1067,1076,1068,1078,1092,1070,1100,1082,1089,1087,1097,1108,1095,1082,1082,1101,1104,1099,1113,1114,1101,1104,1099,1097,1096,1115,1112,1090,360,353,354,362,355,368,393,419,456,468,475,470,465,460,455,450,445,440,435,431,426,421,416,458,406,401,396,391,387,382,377,372,367,362,357,355,356,356,338,340,348,361,348,350,346,356,343,360,347,343,357,355,369,374,357,351,353,358,356,350,357,371,351,355,348,1373,1345,1411,1423,1597,1787,1998,2238,2133,2142,2141,2105,2071,2259,2047,1969,1935,1901,1867,1893,1799,1765,1732,1698,1732,1630,1596,1606,1528,1600,1460,1458,1475,1374,1562,1394,1467,1414,1488,1476,1474,1496,1582,1563,1529,1559,1526,1572,1602,1587,1627,1582,1595,1587,1605,1536,1581,1571,1568,1579,1560,1583,1601,1642,1577,432,433,435,460,438,473,535,598,683,706,715,704,691,681,670,658,647,636,624,613,601,590,577,567,580,545,533,522,535,499,483,477,507,454,443,438,440,441,424,429,434,460,429,433,424,431,429,423,430,427,423,429,429,431,430,435,431,434,433,434,432,442,429,435,433,0,0,0,0,0,0,0,0,0,0,0,0,0,0,0,0,0,0,0,0,0,0,0,0,0,0,0,0,0,0,0,0,0,0,0,0,0,0,0,0,0,0,0,0,0,0,0,0,0,0,0,0,0,0,0,0,0,0,0,0,0,0,0,0,0 ]);
