n = 10;
D = [224,161,127,248,164,173,233,283,259,178 ];
q = 0;
prec = array2d(1..0,1..2,[]);
steps = 64;
l = 360;
r = 0;
which = [];
interval = array2d(1..0,1..2,[]);
T = array3d(1..11,1..11,0..64,[0,0,0,0,0,0,0,0,0,0,0,0,0,0,0,0,0,0,0,0,0,0,0,0,0,0,0,0,0,0,0,0,0,0,0,0,0,0,0,0,0,0,0,0,0,0,0,0,0,0,0,0,0,0,0,0,0,0,0,0,0,0,0,0,0,154,155,155,156,157,198,224,249,276,302,316,312,306,302,297,291,287,281,277,271,267,261,256,251,246,242,236,232,226,221,216,211,206,201,161,157,158,158,147,147,147,148,168,156,154,168,154,169,156,153,157,148,150,156,156,149,167,149,149,156,155,170,159,159,155,558,556,557,559,565,624,820,919,1030,1097,1106,1090,1072,1056,1036,1018,1002,984,974,950,933,915,897,887,879,852,828,817,793,634,619,621,591,591,590,561,563,564,513,510,511,513,520,516,520,525,516,518,522,516,520,524,524,525,528,528,547,523,524,524,521,528,539,527,527,198,198,192,192,245,255,289,322,355,388,405,397,390,383,378,371,365,358,352,346,339,333,326,321,314,308,301,294,289,282,266,269,264,257,250,246,247,247,178,178,187,199,178,180,180,180,180,178,180,180,178,180,180,180,180,181,180,180,180,180,180,181,180,180,180,650,653,655,634,658,703,975,1106,1210,1294,1312,1290,1269,1246,1222,1201,1182,1166,1144,1115,1097,1073,1060,1038,1017,944,973,951,910,887,826,753,704,677,666,660,631,654,598,594,596,598,602,600,602,604,602,613,611,610,610,612,612,615,616,614,611,612,610,613,610,616,612,610,610,252,252,257,306,255,326,370,416,458,503,519,508,499,491,482,474,466,457,449,441,432,425,416,407,399,391,383,375,366,358,353,342,334,325,317,257,313,313,236,234,239,241,234,242,242,246,243,242,246,237,238,236,236,238,237,237,237,237,237,235,235,238,236,241,238,327,328,316,318,319,340,471,496,591,611,627,622,613,615,610,605,595,586,577,550,562,530,519,490,482,449,474,482,437,447,437,426,341,421,324,333,321,322,295,298,297,307,307,306,305,315,298,312,307,305,306,312,310,312,307,309,315,315,317,307,308,314,303,303,302,362,417,364,419,405,394,590,619,710,767,784,729,753,743,699,720,673,662,638,677,628,654,643,631,569,572,596,584,559,559,421,536,488,410,401,421,369,408,389,394,389,403,417,417,403,416,401,418,420,414,420,420,420,422,407,408,413,424,415,414,414,417,409,409,407,736,726,736,737,746,805,1117,1257,1412,1461,1467,1428,1421,1381,1363,1353,1317,1291,1265,1257,1226,1197,1186,1165,1125,1104,1094,1059,1028,1008,852,813,793,774,744,740,743,750,699,697,702,706,703,710,714,707,704,713,718,708,710,710,718,713,721,722,712,712,706,712,710,714,712,708,708,755,739,737,747,783,873,1119,1287,1422,1464,1469,1437,1423,1400,1367,1355,1328,1298,1281,1259,1229,1211,1182,1168,1157,1119,1089,1074,1049,1029,911,847,806,787,746,743,745,760,713,707,710,715,714,715,716,720,713,722,723,715,721,724,725,720,723,726,724,718,718,720,713,725,722,719,719,0,0,0,0,0,0,0,0,0,0,0,0,0,0,0,0,0,0,0,0,0,0,0,0,0,0,0,0,0,0,0,0,0,0,0,0,0,0,0,0,0,0,0,0,0,0,0,0,0,0,0,0,0,0,0,0,0,0,0,0,0,0,0,0,0,158,158,160,160,165,200,227,251,277,303,322,316,312,306,301,296,290,286,280,276,271,266,261,255,251,245,240,235,230,225,221,215,209,204,199,165,197,197,110,110,110,110,110,110,110,110,110,110,110,110,110,110,110,110,110,110,110,110,110,110,110,110,110,110,110,0,0,0,0,0,0,0,0,0,0,0,0,0,0,0,0,0,0,0,0,0,0,0,0,0,0,0,0,0,0,0,0,0,0,0,0,0,0,0,0,0,0,0,0,0,0,0,0,0,0,0,0,0,0,0,0,0,0,0,0,0,0,0,0,0,563,565,567,568,575,707,841,980,1085,1124,1125,1108,1090,1073,1056,1032,1027,1010,984,966,956,937,914,902,876,874,842,825,806,788,770,616,602,653,575,585,630,550,536,531,532,535,542,539,544,563,545,541,546,541,541,542,541,549,546,543,569,544,541,540,542,547,573,550,565,117,117,117,118,118,121,168,187,205,225,237,234,231,226,223,220,215,212,207,204,201,196,193,190,185,182,178,174,171,167,163,160,156,152,121,119,119,119,110,111,108,113,132,120,114,132,114,132,119,132,116,113,114,118,117,115,132,120,115,120,117,132,118,118,116,661,662,664,644,669,817,996,1155,1236,1333,1332,1309,1283,1267,1242,1224,1199,1183,1158,1138,1117,1097,1075,1050,1032,1010,988,966,947,923,844,796,704,698,680,639,639,670,619,618,617,622,628,626,633,629,629,639,638,636,636,634,627,639,635,633,636,632,631,637,634,641,637,642,636,171,171,172,172,173,180,247,276,306,334,351,346,341,335,330,322,317,312,306,300,295,288,284,277,272,266,260,255,250,243,238,232,227,221,177,173,174,174,152,154,150,153,159,156,155,157,154,156,155,155,155,153,153,155,154,153,155,153,152,154,153,155,154,155,153,333,327,328,322,323,390,473,529,625,655,674,665,662,633,621,611,601,590,579,568,558,535,536,514,515,504,495,473,474,463,452,441,431,343,334,331,332,333,293,293,293,293,293,293,293,293,293,293,293,293,293,293,293,293,293,293,293,293,293,293,293,293,293,293,293,310,331,427,320,325,431,474,535,587,661,651,662,652,623,610,600,591,605,571,550,578,530,559,547,508,503,518,470,460,484,439,466,455,446,425,327,340,316,308,308,308,308,308,308,308,308,308,308,308,308,308,308,308,308,308,308,308,308,308,308,308,308,308,308,308,746,735,750,748,758,831,1138,1344,1449,1481,1478,1447,1431,1400,1383,1375,1344,1306,1282,1266,1249,1215,1201,1177,1140,1120,1101,1069,1053,1026,910,825,784,762,759,757,753,746,720,721,723,730,729,736,738,732,731,738,742,734,736,732,733,737,739,739,737,732,727,736,734,739,736,740,736,765,744,759,750,787,899,1140,1362,1451,1483,1480,1470,1433,1419,1386,1377,1346,1324,1292,1268,1252,1227,1203,1180,1150,1148,1103,1080,1056,1032,915,806,816,796,756,760,756,748,734,728,731,739,736,738,740,749,738,740,744,740,742,742,743,744,741,741,746,739,739,738,734,744,737,743,737,158,158,160,160,165,200,227,251,277,303,322,316,312,306,301,296,290,286,280,276,271,266,261,255,251,245,240,235,230,225,221,215,209,204,199,165,197,197,110,110,110,110,110,110,110,110,110,110,110,110,110,110,110,110,110,110,110,110,110,110,110,110,110,110,110,589,592,594,598,599,708,887,1009,1119,1184,1173,1154,1151,1130,1096,1094,1073,1055,1037,1017,987,978,960,940,923,901,885,851,797,816,778,650,636,630,611,599,600,533,486,477,483,496,510,527,496,524,517,514,525,503,509,497,498,516,499,500,514,496,494,516,517,519,513,519,504,602,604,607,608,611,740,904,1053,1157,1214,1217,1198,1178,1158,1139,1119,1100,1080,1060,1041,1020,1001,981,961,943,934,906,894,867,848,834,804,646,630,618,613,626,602,555,545,553,559,570,592,566,590,579,581,590,568,583,571,567,584,571,565,584,572,562,578,580,581,579,584,569,0,0,0,0,0,0,0,0,0,0,0,0,0,0,0,0,0,0,0,0,0,0,0,0,0,0,0,0,0,0,0,0,0,0,0,0,0,0,0,0,0,0,0,0,0,0,0,0,0,0,0,0,0,0,0,0,0,0,0,0,0,0,0,0,0,646,649,650,652,656,805,974,1134,1245,1299,1300,1281,1259,1237,1217,1196,1175,1153,1133,1112,1091,1070,1049,1028,1007,998,969,956,927,907,888,841,691,674,662,657,670,644,598,587,592,605,617,636,610,639,622,628,635,613,623,613,612,626,612,609,626,610,605,621,626,625,623,626,611,579,598,583,616,639,805,911,1018,1115,1162,1167,1148,1162,1111,1092,1074,1056,1089,1018,999,981,962,971,972,952,887,894,856,829,810,793,774,719,604,623,605,607,592,587,582,597,602,590,612,591,603,593,599,603,590,590,597,594,604,599,599,595,596,600,601,596,597,589,623,599,700,703,704,705,714,899,1067,1260,1359,1408,1409,1388,1363,1341,1318,1295,1273,1250,1226,1204,1181,1156,1135,1113,1089,1016,990,1001,945,934,917,885,775,729,715,712,720,702,654,636,641,666,682,697,669,698,685,690,699,677,692,677,674,691,674,673,694,681,673,690,686,695,689,695,680,638,635,637,639,650,775,1019,1124,1233,1272,1291,1260,1243,1226,1209,1189,1181,1144,1112,1093,1072,1061,1030,1023,994,969,931,911,891,874,795,776,718,673,661,643,666,631,611,600,603,605,607,626,611,636,618,614,629,612,615,618,617,619,610,612,622,616,613,614,613,614,615,627,618,877,860,862,868,899,1143,1383,1539,1642,1676,1673,1647,1625,1598,1569,1546,1521,1494,1465,1486,1412,1387,1365,1375,1312,1286,1261,1235,1210,1121,1053,927,906,886,874,872,873,805,801,796,807,809,808,821,813,818,825,815,838,844,840,843,827,843,821,817,825,826,819,819,821,827,817,828,817,471,495,496,476,481,640,762,810,939,944,952,938,922,949,892,917,862,887,872,854,838,785,771,755,740,724,743,727,679,664,649,662,649,494,482,502,503,504,495,493,494,496,497,495,495,496,497,495,499,496,496,497,500,496,499,504,498,501,497,499,504,503,501,499,497,473,498,500,477,483,643,767,812,957,947,954,939,925,953,894,921,863,889,874,858,842,788,773,757,742,728,746,731,682,666,652,664,652,495,485,504,505,507,496,486,491,498,487,497,491,497,499,500,502,501,501,497,497,498,501,499,492,507,495,501,503,494,503,501,499,589,592,594,598,599,708,887,1009,1119,1184,1173,1154,1151,1130,1096,1094,1073,1055,1037,1017,987,978,960,940,923,901,885,851,797,816,778,650,636,630,611,599,600,533,486,477,483,496,510,527,496,524,517,514,525,503,509,497,498,516,499,500,514,496,494,516,517,519,513,519,504,225,226,226,227,228,291,328,365,403,443,457,451,443,436,429,422,414,407,400,392,386,378,371,364,357,349,342,335,327,321,313,306,299,292,233,229,229,230,192,193,193,193,194,196,192,196,193,194,192,194,193,198,196,197,196,198,198,197,198,201,198,202,195,195,195,114,115,115,116,116,118,163,182,202,221,234,231,226,223,220,215,212,209,204,201,196,193,190,185,182,179,174,171,167,163,160,127,125,122,118,116,117,117,106,107,106,108,133,134,117,135,117,135,125,125,133,111,114,125,119,111,134,114,110,135,124,134,132,126,119,677,680,682,683,689,832,1044,1162,1287,1345,1359,1326,1305,1293,1262,1247,1218,1199,1178,1155,1134,1113,1091,1071,1049,1027,1007,985,964,942,930,743,716,718,689,686,687,666,642,638,638,643,655,655,655,663,655,658,657,653,660,653,655,660,665,654,674,658,651,654,664,681,683,664,664,0,0,0,0,0,0,0,0,0,0,0,0,0,0,0,0,0,0,0,0,0,0,0,0,0,0,0,0,0,0,0,0,0,0,0,0,0,0,0,0,0,0,0,0,0,0,0,0,0,0,0,0,0,0,0,0,0,0,0,0,0,0,0,0,0,751,776,757,762,785,952,1181,1352,1438,1516,1547,1522,1500,1471,1449,1424,1399,1373,1331,1292,1304,1280,1235,1230,1206,1180,1156,1129,1108,1032,934,818,824,808,789,748,765,748,724,723,724,735,739,746,742,740,745,742,754,749,751,740,748,759,746,747,751,746,743,756,749,748,752,746,743,140,140,141,141,143,147,200,223,247,270,288,283,279,275,270,264,259,255,250,245,242,236,232,227,222,218,212,209,205,199,195,191,185,181,147,143,144,144,135,115,115,116,124,122,122,116,116,120,135,121,127,131,133,129,120,120,125,135,133,133,119,119,134,117,115,391,373,374,368,377,452,551,628,680,732,774,762,753,720,708,696,684,698,660,647,665,623,611,599,588,574,590,577,539,530,504,502,494,391,381,370,378,379,354,359,360,363,363,362,361,363,357,366,360,360,362,366,366,364,364,367,365,362,365,368,362,366,358,366,360,324,426,409,326,338,437,486,535,584,629,641,629,622,602,601,591,586,576,567,558,548,540,519,509,500,503,520,508,497,467,476,448,441,340,364,339,340,330,325,314,319,319,316,325,321,330,326,323,328,321,322,322,321,327,323,326,322,323,321,322,323,325,322,329,329,848,855,864,864,878,1079,1367,1529,1651,1702,1690,1671,1642,1602,1602,1556,1523,1507,1479,1467,1437,1398,1381,1344,1316,1292,1262,1234,1208,1039,1039,947,909,884,868,867,866,849,827,829,832,836,849,854,845,842,845,849,852,849,849,846,846,858,854,848,851,842,842,854,847,848,850,846,843,878,859,873,866,903,1147,1381,1545,1653,1704,1713,1694,1644,1631,1604,1583,1552,1509,1481,1469,1443,1401,1387,1360,1320,1324,1266,1250,1211,1099,1072,933,900,918,871,876,873,863,836,838,841,843,853,853,854,855,858,857,855,855,860,854,855,860,861,852,860,853,845,854,858,858,860,857,855,225,226,226,227,228,291,328,365,403,443,457,451,443,436,429,422,414,407,400,392,386,378,371,364,357,349,342,335,327,321,313,306,299,292,233,229,229,230,192,193,193,193,194,196,192,196,193,194,192,194,193,198,196,197,196,198,198,197,198,201,198,202,195,195,195,775,776,775,778,792,860,1228,1380,1499,1536,1546,1508,1483,1462,1441,1410,1389,1372,1343,1320,1287,1265,1249,1227,1204,1167,1142,1102,1018,893,872,846,820,798,791,783,749,659,625,625,625,646,641,636,635,632,647,643,641,641,637,642,644,642,640,650,648,644,648,651,655,647,641,640,640,783,785,784,787,802,981,1243,1401,1517,1558,1568,1531,1506,1484,1462,1429,1411,1391,1361,1338,1310,1286,1268,1243,1224,1185,1160,1134,1029,1008,950,877,830,810,800,793,793,728,695,694,700,706,707,705,708,696,709,709,706,706,711,716,715,710,712,714,720,720,713,717,718,712,707,706,706,630,632,635,637,711,883,972,1111,1211,1256,1260,1239,1219,1200,1180,1160,1140,1120,1101,1081,1054,1035,1020,1001,975,961,936,916,902,882,862,797,783,656,644,640,642,620,615,613,608,615,623,624,617,624,626,644,619,618,615,621,620,610,620,625,620,623,614,619,620,623,617,623,615,827,830,828,837,849,1054,1319,1489,1602,1642,1651,1611,1585,1562,1539,1505,1484,1464,1432,1409,1379,1354,1335,1311,1288,1248,1222,1195,1027,1011,987,923,875,854,844,838,838,770,738,736,739,752,754,749,752,745,752,756,751,751,751,758,760,752,753,758,762,758,756,760,764,756,751,750,750,0,0,0,0,0,0,0,0,0,0,0,0,0,0,0,0,0,0,0,0,0,0,0,0,0,0,0,0,0,0,0,0,0,0,0,0,0,0,0,0,0,0,0,0,0,0,0,0,0,0,0,0,0,0,0,0,0,0,0,0,0,0,0,0,0,766,764,783,776,802,997,1231,1423,1496,1567,1560,1578,1516,1486,1459,1451,1388,1384,1375,1304,1296,1264,1260,1240,1186,1178,1157,1115,1075,961,935,903,818,786,792,777,795,765,740,736,736,742,750,744,750,742,754,746,746,753,750,760,761,760,753,754,756,757,759,760,755,754,752,746,746,822,825,842,833,869,1010,1323,1529,1646,1681,1681,1655,1634,1603,1575,1524,1516,1461,1461,1436,1407,1354,1359,1326,1294,1273,1219,1193,1121,1084,1020,936,895,849,857,851,856,785,753,753,753,761,761,761,757,757,762,765,764,763,764,768,766,764,766,769,774,770,769,773,771,769,762,761,761,1071,1075,1071,1076,1207,1415,1806,1988,2090,2106,2112,2063,2034,2004,1982,1934,1909,1876,1840,1809,1768,1743,1718,1680,1648,1600,1543,1523,1383,1209,1211,1137,1137,1101,1089,1074,1066,1022,987,984,989,1005,1001,998,992,995,1000,1003,1002,1001,1002,1006,1004,1002,1004,1007,1012,1008,1007,1011,1009,1007,1000,999,999,396,397,398,399,401,426,578,646,700,761,773,762,750,739,702,716,704,667,656,677,666,654,644,632,620,600,588,577,565,554,542,518,424,415,405,402,408,404,365,367,366,367,368,372,371,371,371,374,374,376,377,376,379,379,388,380,381,384,381,383,383,383,385,383,383,338,339,340,341,342,444,499,554,608,664,678,667,657,646,635,625,614,605,594,583,573,562,552,541,530,520,509,499,488,477,467,456,446,435,424,420,421,420,320,322,322,323,324,324,326,326,326,329,329,330,331,331,333,333,334,335,336,336,336,337,338,339,339,338,338,775,776,775,778,792,860,1228,1380,1499,1536,1546,1508,1483,1462,1441,1410,1389,1372,1343,1320,1287,1265,1249,1227,1204,1167,1142,1102,1018,893,872,846,820,798,791,783,749,659,625,625,625,646,641,636,635,632,647,643,641,641,637,642,644,642,640,650,648,644,648,651,655,647,641,640,640,323,324,325,327,328,364,466,520,574,627,655,647,636,627,613,604,595,583,573,564,552,542,530,522,510,501,490,479,409,401,390,385,373,364,333,329,329,331,256,257,258,262,264,265,263,262,259,260,262,262,261,271,264,266,264,266,267,266,269,267,265,265,261,262,259,169,169,170,170,193,216,244,272,301,330,345,339,334,328,323,317,338,306,301,295,290,284,279,273,268,262,257,251,246,240,235,229,224,218,213,210,210,211,146,149,148,149,150,151,150,149,147,148,148,148,147,156,150,151,151,152,152,153,163,152,152,151,149,149,148,617,618,620,621,624,768,974,1079,1192,1247,1232,1212,1193,1173,1153,1134,1114,1107,1075,1056,1048,1027,1000,988,963,943,920,900,881,861,841,687,657,641,629,626,627,605,581,584,583,595,595,595,599,594,591,591,592,593,589,597,591,599,626,622,594,598,592,587,593,592,612,597,589,131,131,131,154,154,166,187,209,229,251,265,261,257,253,248,245,240,236,232,227,224,220,215,211,207,203,199,194,190,187,182,178,173,170,166,155,156,156,109,106,110,126,116,107,103,108,108,127,125,110,116,114,111,108,115,116,106,107,106,107,107,103,110,110,102,640,642,644,646,648,868,981,1118,1239,1303,1288,1266,1249,1225,1208,1179,1166,1156,1126,1047,1092,1071,1037,1027,1004,983,958,935,916,894,828,768,658,642,655,650,618,624,615,614,613,619,620,624,623,627,625,629,629,633,626,628,624,635,631,628,629,629,628,631,631,633,628,633,629,0,0,0,0,0,0,0,0,0,0,0,0,0,0,0,0,0,0,0,0,0,0,0,0,0,0,0,0,0,0,0,0,0,0,0,0,0,0,0,0,0,0,0,0,0,0,0,0,0,0,0,0,0,0,0,0,0,0,0,0,0,0,0,0,0,469,464,473,489,472,552,719,801,889,946,979,957,942,887,891,862,851,828,830,815,799,786,771,754,739,712,732,696,677,662,634,632,529,486,480,469,470,473,439,445,444,446,448,449,448,448,443,449,445,447,447,454,454,455,456,454,457,451,455,452,456,458,452,455,450,422,498,436,436,428,541,631,710,778,828,838,819,812,800,815,774,790,751,739,727,715,705,689,674,665,649,640,628,624,622,591,590,566,441,451,428,440,446,413,409,414,416,411,421,414,424,417,414,419,416,410,416,419,425,420,423,421,418,420,420,422,425,417,425,419,722,715,729,731,736,991,1182,1311,1421,1469,1430,1434,1405,1386,1357,1334,1316,1310,1270,1246,1211,1206,1175,1180,1130,1129,1064,1057,1029,1013,879,837,836,768,766,736,738,739,716,717,719,727,721,734,735,730,727,729,736,731,726,726,730,733,738,736,730,729,724,730,731,731,728,731,729,752,744,755,750,789,979,1212,1349,1467,1518,1498,1460,1448,1417,1389,1378,1338,1316,1305,1284,1247,1244,1211,1183,1156,1131,1104,1089,1066,1002,938,895,795,792,757,756,756,749,730,730,734,736,738,743,740,748,742,747,744,742,737,741,740,750,751,744,744,738,736,742,744,748,738,749,741,323,324,325,327,328,364,466,520,574,627,655,647,636,627,613,604,595,583,573,564,552,542,530,522,510,501,490,479,409,401,390,385,373,364,333,329,329,331,256,257,258,262,264,265,263,262,259,260,262,262,261,271,264,266,264,266,267,266,269,267,265,265,261,262,259,219,220,222,222,272,280,321,347,376,405,401,412,397,401,396,389,384,378,373,368,362,357,351,346,341,335,330,324,319,314,309,303,296,291,275,272,272,273,175,177,175,182,177,177,178,182,176,175,176,180,178,175,176,177,177,176,176,178,174,177,174,176,177,175,173,368,370,372,372,374,440,538,592,648,705,706,711,691,693,682,671,661,650,640,629,620,609,598,588,578,566,557,547,535,528,518,471,461,452,384,377,379,379,319,320,320,329,323,322,326,328,321,322,326,325,326,323,325,324,333,325,321,324,318,322,319,324,324,322,318,654,656,674,683,683,889,1004,1110,1204,1250,1244,1235,1211,1192,1175,1166,1140,1123,1105,1087,1070,1051,1042,1024,999,989,963,933,916,898,881,752,693,678,666,663,665,642,625,615,618,621,621,624,625,629,622,627,628,621,620,630,630,630,629,630,628,629,632,635,629,633,629,629,626,378,378,390,380,382,465,573,637,682,732,735,724,740,704,693,683,672,662,651,640,630,619,609,598,606,577,566,556,545,534,524,513,476,485,386,383,411,385,353,355,362,378,355,357,358,362,356,353,356,360,356,355,356,357,357,357,356,358,354,357,354,357,357,355,353,779,784,761,785,802,957,1223,1372,1485,1535,1516,1498,1475,1455,1378,1409,1382,1362,1338,1319,1296,1269,1252,1223,1207,1182,1160,1133,1101,1075,966,934,872,814,792,758,792,749,737,736,742,757,749,757,744,754,754,752,758,755,754,754,764,790,760,764,758,759,763,764,772,780,759,764,757,441,442,454,445,457,479,686,751,820,865,890,853,867,852,814,802,789,775,763,773,737,746,712,700,707,673,680,649,635,623,602,571,479,468,450,449,475,438,407,409,412,423,411,419,420,414,416,417,411,417,416,409,412,411,411,411,408,412,408,412,409,411,413,416,404,0,0,0,0,0,0,0,0,0,0,0,0,0,0,0,0,0,0,0,0,0,0,0,0,0,0,0,0,0,0,0,0,0,0,0,0,0,0,0,0,0,0,0,0,0,0,0,0,0,0,0,0,0,0,0,0,0,0,0,0,0,0,0,0,0,295,295,319,319,346,344,383,430,460,491,510,504,498,491,487,480,475,469,462,457,450,445,439,432,427,422,415,408,381,324,391,386,378,373,300,362,298,299,249,248,249,249,249,249,250,255,255,249,249,249,249,250,250,255,250,249,249,250,249,249,248,248,248,248,248,831,833,857,868,884,1160,1330,1476,1568,1608,1596,1581,1554,1525,1502,1478,1464,1445,1417,1394,1370,1357,1323,1300,1286,1252,1238,1184,1180,1001,982,892,893,888,879,843,866,837,817,813,814,815,817,818,822,824,816,821,822,816,815,820,824,824,824,824,824,821,820,829,824,828,824,824,821,834,836,854,865,897,1177,1332,1477,1570,1610,1597,1583,1556,1527,1504,1480,1457,1447,1419,1396,1373,1359,1326,1302,1288,1255,1241,1186,1183,1003,959,895,912,897,854,845,847,839,822,815,816,817,819,820,824,826,818,823,824,818,817,822,826,826,826,826,826,823,822,831,826,830,826,826,823,219,220,222,222,272,280,321,347,376,405,401,412,397,401,396,389,384,378,373,368,362,357,351,346,341,335,330,324,319,314,309,303,296,291,275,272,272,273,175,177,175,182,177,177,178,182,176,175,176,180,178,175,176,177,177,176,176,178,174,177,174,176,177,175,173,342,343,371,345,346,467,513,563,616,640,644,630,621,642,610,617,594,589,592,580,572,561,551,532,530,520,509,499,488,475,475,456,447,449,374,367,348,372,321,323,322,322,335,330,348,351,330,349,333,333,333,330,329,351,351,330,336,327,326,334,330,340,330,339,330,381,382,440,384,426,503,574,606,704,699,701,691,682,673,663,654,650,641,648,616,607,618,588,598,568,559,550,541,531,521,529,502,493,396,490,386,387,387,375,369,373,376,369,384,379,389,383,378,387,377,379,380,377,387,379,380,377,380,376,375,379,380,378,384,373,848,852,854,856,876,1178,1319,1554,1633,1650,1636,1608,1581,1557,1540,1531,1491,1471,1458,1429,1405,1380,1354,1320,1305,1276,1249,1223,1122,1094,942,1024,907,885,883,871,841,855,814,805,812,825,816,830,821,828,821,824,840,830,841,845,844,837,872,835,823,830,828,834,837,834,832,831,829,343,344,483,345,359,448,512,535,628,620,622,614,607,598,590,581,578,572,580,550,541,553,525,537,509,500,492,485,476,468,476,452,444,356,443,347,348,349,330,324,328,330,324,338,332,343,338,332,344,331,334,331,331,340,333,334,331,334,330,329,334,334,333,349,337,976,979,959,983,1013,1386,1551,1776,1893,1897,1884,1788,1820,1784,1768,1751,1711,1631,1673,1642,1577,1582,1551,1510,1468,1463,1412,1388,1335,1204,1149,1077,1050,1026,1022,965,998,964,915,918,920,924,935,932,944,936,943,946,948,942,944,941,946,957,958,944,948,939,937,945,944,950,944,947,938,407,408,537,424,424,560,614,651,757,754,753,769,733,723,736,702,739,686,692,660,649,660,628,638,608,597,588,596,567,557,562,552,525,422,521,412,413,402,392,389,391,396,390,400,396,397,396,396,397,393,394,394,395,396,397,397,396,396,396,396,395,403,395,399,397,348,349,350,358,373,432,507,578,606,653,643,645,644,627,623,622,600,592,584,589,583,573,562,547,544,519,522,525,501,474,477,472,364,456,368,362,346,367,341,343,345,347,349,347,351,349,344,352,349,347,351,357,357,352,355,353,350,347,350,347,350,350,346,351,346,0,0,0,0,0,0,0,0,0,0,0,0,0,0,0,0,0,0,0,0,0,0,0,0,0,0,0,0,0,0,0,0,0,0,0,0,0,0,0,0,0,0,0,0,0,0,0,0,0,0,0,0,0,0,0,0,0,0,0,0,0,0,0,0,0,1026,1027,1032,1058,1079,1473,1655,1917,1991,2007,1989,1947,1916,1884,1861,1845,1813,1775,1756,1721,1692,1659,1626,1594,1578,1533,1506,1473,1356,1296,1200,1159,1089,1063,1071,1050,1035,1049,1010,1014,1014,1025,1026,1032,1024,1028,1026,1023,1033,1028,1041,1044,1043,1030,1052,1030,1028,1024,1025,1026,1025,1032,1030,1031,1030,1027,1029,1035,1038,1081,1475,1657,1919,1997,2009,1984,1949,1918,1886,1863,1848,1802,1790,1758,1724,1695,1662,1630,1596,1572,1536,1508,1475,1399,1228,1132,1208,1075,1066,1073,1053,1037,1051,1012,1016,1016,1030,1028,1034,1026,1030,1028,1025,1035,1030,1043,1046,1045,1032,1054,1032,1030,1026,1027,1028,1027,1034,1032,1033,1032,342,343,371,345,346,467,513,563,616,640,644,630,621,642,610,617,594,589,592,580,572,561,551,532,530,520,509,499,488,475,475,456,447,449,374,367,348,372,321,323,322,322,335,330,348,351,330,349,333,333,333,330,329,351,351,330,336,327,326,334,330,340,330,339,330,687,671,692,695,710,902,1087,1188,1327,1394,1370,1343,1321,1308,1287,1256,1208,1221,1200,1178,1154,1104,1089,1089,1068,1044,1013,971,902,865,844,755,731,714,702,698,700,606,551,548,550,564,565,566,566,574,575,564,584,568,564,563,568,571,560,572,569,575,573,570,577,570,566,567,567,695,695,701,704,743,914,1108,1219,1355,1416,1392,1375,1351,1333,1312,1279,1257,1244,1220,1197,1174,1152,1129,1107,1085,1061,1033,1010,996,955,900,835,752,734,711,708,709,675,621,617,625,624,631,635,639,638,637,630,649,633,638,637,639,639,632,636,641,651,638,636,640,635,632,633,633,490,492,493,495,501,664,751,835,921,976,983,966,951,936,920,905,889,874,859,853,866,812,797,782,766,751,734,719,704,688,673,657,642,526,501,497,499,476,441,441,443,449,449,452,445,448,447,467,450,449,450,452,458,496,456,456,466,453,456,457,460,480,453,455,455,739,740,745,755,768,979,1184,1302,1440,1499,1475,1456,1430,1412,1389,1355,1332,1317,1293,1269,1244,1220,1196,1173,1149,1125,1094,1072,1026,969,948,887,797,778,755,760,754,717,664,659,664,670,678,679,683,687,680,677,694,678,678,679,684,681,673,680,683,689,681,679,686,679,676,677,677,266,267,268,269,287,296,388,431,474,515,530,522,513,506,498,489,481,473,465,457,448,441,433,424,416,408,400,392,383,376,368,359,305,299,292,287,288,289,236,239,239,243,255,261,256,263,254,255,261,253,257,247,250,263,255,245,254,250,245,254,252,254,252,257,257,730,746,751,735,768,1008,1147,1281,1377,1454,1474,1453,1435,1406,1391,1354,1320,1323,1292,1266,1264,1203,1191,1174,1144,1127,1094,1075,1054,987,823,807,795,764,754,758,738,727,664,662,662,663,666,679,674,684,685,671,689,673,682,681,683,689,678,676,677,687,676,683,679,676,676,674,674,733,732,735,738,778,907,1177,1278,1436,1489,1468,1444,1421,1411,1388,1349,1311,1303,1284,1256,1241,1189,1192,1171,1156,1124,1094,1053,954,935,922,821,806,759,749,744,751,732,679,676,678,679,685,691,688,699,690,686,702,690,691,689,690,693,686,691,695,701,694,692,693,692,687,688,688,990,966,972,995,1073,1337,1632,1754,1896,1936,1904,1892,1854,1828,1820,1737,1736,1707,1683,1670,1643,1575,1554,1528,1520,1486,1418,1377,1323,1229,1150,1051,1037,994,984,981,981,951,913,907,914,922,925,928,923,934,928,924,938,928,929,927,928,931,924,929,933,936,929,930,931,930,925,926,926,0,0,0,0,0,0,0,0,0,0,0,0,0,0,0,0,0,0,0,0,0,0,0,0,0,0,0,0,0,0,0,0,0,0,0,0,0,0,0,0,0,0,0,0,0,0,0,0,0,0,0,0,0,0,0,0,0,0,0,0,0,0,0,0,0,45,45,45,45,56,56,62,68,74,81,86,85,84,83,82,81,79,78,77,75,74,73,72,70,69,68,67,66,64,63,61,60,59,58,57,56,56,56,18,17,18,18,18,18,18,18,18,18,18,18,18,18,18,18,17,18,18,18,18,18,18,18,17,18,18,687,671,692,695,710,902,1087,1188,1327,1394,1370,1343,1321,1308,1287,1256,1208,1221,1200,1178,1154,1104,1089,1089,1068,1044,1013,971,902,865,844,755,731,714,702,698,700,606,551,548,550,564,565,566,566,574,575,564,584,568,564,563,568,571,560,572,569,575,573,570,577,570,566,567,567,644,650,653,656,683,828,1015,1139,1245,1313,1284,1264,1257,1236,1217,1196,1166,1153,1134,1114,1092,1069,1017,1028,1032,988,971,950,881,828,859,695,672,656,663,658,662,568,533,531,532,546,547,548,548,567,557,546,566,550,546,545,550,553,543,554,551,557,555,552,559,552,549,551,546,657,661,662,665,687,908,1033,1163,1274,1338,1312,1304,1282,1288,1240,1218,1196,1175,1154,1132,1111,1089,1061,1042,1082,1006,986,965,942,920,875,775,705,733,672,670,671,637,603,600,607,606,613,617,621,631,619,612,631,615,620,619,621,621,615,618,623,633,620,618,622,617,615,617,612,451,453,454,456,459,608,693,763,847,898,906,892,877,863,849,834,820,807,793,778,809,750,735,721,750,693,678,664,650,635,621,607,592,473,462,459,459,437,423,424,425,431,431,434,427,430,429,449,432,431,432,434,440,497,439,438,448,435,438,439,442,462,436,439,436,701,704,706,711,738,973,1107,1246,1361,1423,1395,1385,1362,1368,1317,1294,1272,1248,1227,1204,1181,1157,1129,1109,1146,1070,1047,1027,1001,916,895,848,749,728,716,715,716,679,646,642,646,652,660,661,665,680,662,659,676,660,660,661,666,663,656,662,665,671,663,661,668,661,659,661,656,228,229,229,230,231,240,328,365,401,436,452,445,438,432,424,418,411,404,397,390,383,377,370,363,356,349,343,335,328,322,315,308,246,241,235,231,232,233,218,222,221,225,237,243,238,246,236,237,245,235,239,229,232,245,238,227,236,232,227,236,234,236,235,241,232,685,708,710,698,743,952,1088,1217,1307,1376,1395,1368,1381,1331,1309,1273,1288,1264,1226,1217,1198,1141,1129,1135,1084,1071,1036,1018,1001,935,907,787,736,729,736,702,723,719,646,645,644,645,648,661,656,678,667,653,673,655,664,663,665,671,661,658,659,669,658,665,661,658,659,658,652,694,701,704,704,722,855,1119,1231,1361,1408,1382,1384,1366,1354,1317,1295,1276,1237,1222,1206,1179,1161,1134,1101,1119,1064,1047,1019,954,881,861,791,747,708,735,723,707,694,661,659,660,661,667,673,670,692,672,668,684,672,673,671,672,675,669,673,677,683,676,674,675,674,670,672,667,952,938,941,954,1017,1285,1574,1707,1830,1882,1818,1820,1807,1794,1751,1719,1670,1642,1632,1605,1581,1543,1482,1458,1483,1430,1393,1343,1302,1194,1147,998,978,949,970,946,943,908,895,890,896,904,907,910,905,916,910,906,920,910,911,909,910,913,907,911,915,918,911,912,913,912,908,910,905,79,79,79,79,79,80,84,90,95,100,105,104,103,102,101,100,99,97,96,95,94,93,92,92,91,90,89,88,86,85,84,83,82,81,80,79,80,80,45,45,44,44,44,48,45,45,45,45,45,46,46,45,46,46,54,45,45,48,45,46,45,44,46,45,44,0,0,0,0,0,0,0,0,0,0,0,0,0,0,0,0,0,0,0,0,0,0,0,0,0,0,0,0,0,0,0,0,0,0,0,0,0,0,0,0,0,0,0,0,0,0,0,0,0,0,0,0,0,0,0,0,0,0,0,0,0,0,0,0,0,644,650,653,656,683,828,1015,1139,1245,1313,1284,1264,1257,1236,1217,1196,1166,1153,1134,1114,1092,1069,1017,1028,1032,988,971,950,881,828,859,695,672,656,663,658,662,568,533,531,532,546,547,548,548,567,557,546,566,550,546,545,550,553,543,554,551,557,555,552,559,552,549,551,546,0,0,0,0,0,0,0,0,0,0,0,0,0,0,0,0,0,0,0,0,0,0,0,0,0,0,0,0,0,0,0,0,0,0,0,0,0,0,0,0,0,0,0,0,0,0,0,0,0,0,0,0,0,0,0,0,0,0,0,0,0,0,0,0,0,154,155,155,156,157,198,224,249,276,302,316,312,306,302,297,291,287,281,277,271,267,261,256,251,246,242,236,232,226,221,216,211,206,201,161,157,158,158,147,147,147,148,168,156,154,168,154,169,156,153,157,148,150,156,156,149,167,149,149,156,155,170,159,159,155,558,556,557,559,565,624,820,919,1030,1097,1106,1090,1072,1056,1036,1018,1002,984,974,950,933,915,897,887,879,852,828,817,793,634,619,621,591,591,590,561,563,564,513,510,511,513,520,516,520,525,516,518,522,516,520,524,524,525,528,528,547,523,524,524,521,528,539,527,527,198,198,192,192,245,255,289,322,355,388,405,397,390,383,378,371,365,358,352,346,339,333,326,321,314,308,301,294,289,282,266,269,264,257,250,246,247,247,178,178,187,199,178,180,180,180,180,178,180,180,178,180,180,180,180,181,180,180,180,180,180,181,180,180,180,650,653,655,634,658,703,975,1106,1210,1294,1312,1290,1269,1246,1222,1201,1182,1166,1144,1115,1097,1073,1060,1038,1017,944,973,951,910,887,826,753,704,677,666,660,631,654,598,594,596,598,602,600,602,604,602,613,611,610,610,612,612,615,616,614,611,612,610,613,610,616,612,610,610,252,252,257,306,255,326,370,416,458,503,519,508,499,491,482,474,466,457,449,441,432,425,416,407,399,391,383,375,366,358,353,342,334,325,317,257,313,313,236,234,239,241,234,242,242,246,243,242,246,237,238,236,236,238,237,237,237,237,237,235,235,238,236,241,238,327,328,316,318,319,340,471,496,591,611,627,622,613,615,610,605,595,586,577,550,562,530,519,490,482,449,474,482,437,447,437,426,341,421,324,333,321,322,295,298,297,307,307,306,305,315,298,312,307,305,306,312,310,312,307,309,315,315,317,307,308,314,303,303,302,362,417,364,419,405,394,590,619,710,767,784,729,753,743,699,720,673,662,638,677,628,654,643,631,569,572,596,584,559,559,421,536,488,410,401,421,369,408,389,394,389,403,417,417,403,416,401,418,420,414,420,420,420,422,407,408,413,424,415,414,414,417,409,409,407,736,726,736,737,746,805,1117,1257,1412,1461,1467,1428,1421,1381,1363,1353,1317,1291,1265,1257,1226,1197,1186,1165,1125,1104,1094,1059,1028,1008,852,813,793,774,744,740,743,750,699,697,702,706,703,710,714,707,704,713,718,708,710,710,718,713,721,722,712,712,706,712,710,714,712,708,708,755,739,737,747,783,873,1119,1287,1422,1464,1469,1437,1423,1400,1367,1355,1328,1298,1281,1259,1229,1211,1182,1168,1157,1119,1089,1074,1049,1029,911,847,806,787,746,743,745,760,713,707,710,715,714,715,716,720,713,722,723,715,721,724,725,720,723,726,724,718,718,720,713,725,722,719,719,0,0,0,0,0,0,0,0,0,0,0,0,0,0,0,0,0,0,0,0,0,0,0,0,0,0,0,0,0,0,0,0,0,0,0,0,0,0,0,0,0,0,0,0,0,0,0,0,0,0,0,0,0,0,0,0,0,0,0,0,0,0,0,0,0 ]);
