n = 10;
D = [103,208,188,81,181,143,75,139,79,124 ];
q = 0;
prec = array2d(1..0,1..2,[]);
steps = 64;
l = 360;
r = 0;
which = [];
interval = array2d(1..0,1..2,[]);
T = array3d(1..11,1..11,0..64,[0,0,0,0,0,0,0,0,0,0,0,0,0,0,0,0,0,0,0,0,0,0,0,0,0,0,0,0,0,0,0,0,0,0,0,0,0,0,0,0,0,0,0,0,0,0,0,0,0,0,0,0,0,0,0,0,0,0,0,0,0,0,0,0,0,301,332,303,304,304,513,555,643,686,766,752,740,751,716,704,692,680,690,676,644,632,620,627,615,584,572,560,566,536,524,512,500,459,447,435,364,306,307,297,298,301,304,297,303,298,302,304,297,303,296,298,298,299,303,299,301,300,302,300,304,299,306,298,303,300,612,643,642,647,653,808,1231,1402,1523,1568,1566,1539,1516,1492,1467,1414,1355,1394,1322,1346,1261,1294,1211,1188,1166,1191,1167,1108,1075,856,833,781,770,728,654,649,652,654,610,609,612,625,636,625,623,635,622,641,631,636,634,638,639,655,638,630,633,640,634,638,632,661,638,640,634,682,684,685,690,724,1126,1361,1517,1691,1664,1660,1634,1607,1598,1556,1528,1564,1476,1450,1425,1398,1372,1346,1334,1328,1300,1241,1157,1133,1106,1005,740,722,705,695,692,694,689,691,694,693,696,699,701,700,699,701,696,701,700,703,700,705,705,707,709,700,704,702,712,710,732,711,707,705,176,178,177,178,179,263,313,370,346,434,449,442,436,444,424,416,410,403,396,347,341,381,375,369,363,348,330,324,318,309,302,295,288,269,264,194,195,261,128,133,129,132,140,136,133,133,133,133,133,133,133,133,133,133,133,133,133,133,133,133,133,133,133,133,133,412,412,414,417,416,558,775,865,953,1020,1026,1011,993,977,951,940,964,916,902,882,894,850,828,816,793,787,766,744,617,619,604,546,514,505,420,422,416,437,407,403,407,412,422,419,418,425,412,424,420,418,429,432,431,436,428,419,424,422,425,420,418,431,420,427,418,648,649,652,654,684,1140,1291,1444,1603,1594,1586,1561,1536,1510,1485,1460,1446,1405,1396,1358,1333,1308,1282,1257,1232,1207,1191,1156,1131,942,883,855,687,670,684,657,659,652,645,650,645,657,654,669,650,654,660,651,649,652,649,651,650,649,654,657,654,650,651,654,656,661,665,669,657,278,285,280,280,282,377,508,580,627,688,702,682,687,670,661,649,639,616,606,595,583,572,561,550,540,539,528,506,507,484,475,475,443,376,360,284,284,284,271,275,272,273,275,277,275,279,272,279,273,273,274,279,279,279,279,279,279,276,279,279,277,279,275,275,275,290,300,271,300,334,289,490,573,604,682,707,660,649,676,668,618,648,637,628,612,605,554,543,572,561,511,539,528,480,469,424,415,361,353,277,273,274,337,231,231,228,229,234,233,235,235,235,235,235,235,235,235,235,235,235,235,235,235,235,235,235,235,235,235,235,597,598,601,603,620,1054,1276,1452,1571,1632,1612,1591,1561,1531,1501,1474,1441,1411,1383,1380,1347,1291,1250,1232,1201,1171,1132,1110,1081,1042,1020,912,787,714,603,606,609,609,608,600,607,613,606,626,610,635,613,624,620,606,613,614,624,627,621,617,615,612,626,616,615,615,609,635,614,0,0,0,0,0,0,0,0,0,0,0,0,0,0,0,0,0,0,0,0,0,0,0,0,0,0,0,0,0,0,0,0,0,0,0,0,0,0,0,0,0,0,0,0,0,0,0,0,0,0,0,0,0,0,0,0,0,0,0,0,0,0,0,0,0,250,251,252,252,253,394,445,510,562,613,625,615,606,596,585,575,566,556,546,536,526,515,506,496,487,476,466,457,446,438,427,417,406,397,386,289,289,290,229,237,235,243,241,243,237,245,235,237,242,239,233,244,248,248,249,238,237,237,252,252,232,237,235,238,233,0,0,0,0,0,0,0,0,0,0,0,0,0,0,0,0,0,0,0,0,0,0,0,0,0,0,0,0,0,0,0,0,0,0,0,0,0,0,0,0,0,0,0,0,0,0,0,0,0,0,0,0,0,0,0,0,0,0,0,0,0,0,0,0,0,648,651,657,654,676,876,1242,1425,1511,1604,1626,1603,1577,1551,1524,1499,1473,1448,1426,1362,1370,1343,1304,1249,1274,1247,1221,1194,1033,999,889,804,760,697,680,648,680,659,620,624,623,632,635,631,637,633,632,636,638,634,634,636,632,641,638,637,637,633,635,640,638,643,639,643,637,784,787,788,794,806,1153,1550,1724,1855,1907,1900,1882,1840,1810,1780,1750,1718,1690,1658,1643,1599,1580,1539,1508,1478,1449,1358,1335,1239,1176,1013,853,825,820,797,807,796,793,769,773,771,781,778,782,781,798,787,780,787,780,777,787,782,792,788,792,791,789,789,788,788,795,793,797,789,295,296,297,297,302,465,527,611,673,728,739,721,716,703,691,679,668,652,644,632,620,607,596,584,576,561,549,538,529,514,492,485,476,468,350,303,304,301,281,289,286,290,292,297,290,295,285,291,286,285,287,298,295,296,295,292,290,290,301,306,288,290,286,292,287,384,386,388,388,392,467,704,787,874,948,958,950,928,920,895,889,874,852,843,820,805,790,775,759,744,728,714,698,682,667,651,516,476,465,393,391,392,397,363,368,367,372,379,380,378,391,378,390,372,380,377,379,382,386,379,376,379,380,378,390,382,383,372,382,374,768,752,753,758,811,1094,1486,1664,1778,1831,1826,1797,1774,1758,1710,1681,1668,1622,1609,1578,1534,1516,1491,1462,1432,1423,1373,1344,1146,913,912,810,809,790,771,779,762,755,732,729,736,735,736,736,742,743,741,739,741,740,738,744,740,743,741,739,743,737,734,738,735,740,736,739,733,522,523,524,527,530,737,966,1081,1200,1285,1294,1279,1262,1231,1203,1195,1171,1143,1122,1101,1091,1071,1050,1027,998,989,957,947,927,839,812,570,574,543,532,529,530,526,497,507,504,508,511,516,509,518,505,509,503,504,506,513,513,513,512,510,506,506,519,521,504,505,503,509,504,517,515,521,521,545,720,948,1105,1225,1287,1262,1256,1236,1202,1182,1175,1195,1135,1101,1093,1062,1056,1021,1002,995,972,952,933,748,817,740,697,622,597,523,520,527,522,458,466,460,467,469,474,467,476,462,467,463,463,464,471,471,471,470,468,464,464,482,479,462,463,461,467,462,745,749,749,758,798,1314,1490,1653,1753,1813,1822,1794,1772,1736,1707,1689,1648,1620,1591,1562,1533,1507,1478,1446,1425,1388,1359,1329,1300,1146,1082,921,790,772,760,756,758,760,762,750,755,754,772,773,763,768,768,779,777,773,793,795,794,776,787,785,766,784,780,771,771,787,774,788,767,250,251,252,252,253,394,445,510,562,613,625,615,606,596,585,575,566,556,546,536,526,515,506,496,487,476,466,457,446,438,427,417,406,397,386,289,289,290,229,237,235,243,241,243,237,245,235,237,242,239,233,244,248,248,249,238,237,237,252,252,232,237,235,238,233,727,728,732,734,741,968,1406,1572,1741,1779,1758,1730,1701,1674,1666,1631,1594,1561,1533,1510,1477,1478,1420,1396,1365,1354,1277,1170,1144,1094,954,864,760,758,732,729,739,706,655,662,657,653,673,669,668,673,667,670,675,677,668,674,676,679,680,684,677,680,677,678,678,676,665,673,669,739,741,744,751,760,1022,1492,1650,1775,1814,1810,1779,1762,1725,1696,1667,1665,1608,1586,1550,1520,1504,1460,1430,1402,1376,1349,1316,1165,1125,995,852,792,770,764,756,757,703,653,652,654,653,670,662,664,674,657,667,665,668,660,666,673,671,672,674,675,672,670,671,670,665,659,667,663,0,0,0,0,0,0,0,0,0,0,0,0,0,0,0,0,0,0,0,0,0,0,0,0,0,0,0,0,0,0,0,0,0,0,0,0,0,0,0,0,0,0,0,0,0,0,0,0,0,0,0,0,0,0,0,0,0,0,0,0,0,0,0,0,0,508,510,520,513,589,742,950,1057,1187,1239,1245,1226,1226,1186,1191,1148,1145,1108,1089,1068,1049,1030,1010,1006,987,966,932,912,892,887,824,790,545,539,519,516,590,585,510,504,509,512,509,518,515,516,518,521,516,517,516,521,516,520,516,521,520,520,516,530,519,521,516,531,518,806,804,814,812,825,1094,1602,1775,1927,1971,1950,1909,1903,1844,1843,1773,1730,1735,1716,1679,1626,1631,1564,1553,1512,1509,1467,1383,1086,1035,971,879,844,836,814,808,795,755,713,703,711,717,724,724,724,723,717,720,725,727,718,724,725,729,730,734,727,730,727,728,728,726,715,723,719,429,433,435,435,437,658,810,901,1000,1067,1075,1058,1039,1023,999,988,992,953,937,918,904,890,870,853,838,811,802,777,759,743,725,707,643,453,448,444,436,440,384,378,383,386,390,392,384,393,389,389,392,394,388,394,393,396,402,402,392,394,391,397,394,394,384,395,387,273,274,275,367,371,438,493,549,603,656,673,662,652,642,631,620,610,600,589,579,568,558,547,537,526,516,506,495,484,474,452,442,432,421,274,388,391,376,259,259,260,262,262,264,261,262,261,269,265,264,266,266,270,271,270,269,272,270,270,271,273,274,271,272,272,819,829,800,828,837,1134,1649,1826,1964,1999,2001,1963,1960,1902,1868,1806,1800,1772,1751,1666,1677,1666,1629,1594,1503,1530,1492,1241,1163,1002,988,936,841,862,834,833,828,831,815,810,817,817,833,829,827,840,829,825,835,833,829,840,831,842,843,845,840,839,832,840,837,841,832,840,835,839,844,820,848,860,1144,1682,1862,1991,2030,2022,2004,1957,1928,1896,1842,1829,1799,1777,1694,1711,1683,1647,1610,1532,1556,1521,1388,1254,1048,974,967,861,866,859,853,825,825,810,802,811,809,822,823,823,820,814,817,822,824,815,821,823,826,827,831,824,827,824,825,825,823,812,820,816,1139,1127,1131,1164,1561,1900,2584,2734,2828,2848,2843,2756,2725,2674,2623,2583,2523,2474,2460,2336,2320,2294,2260,2188,2088,2035,1983,1745,1502,1460,1404,1224,1164,1170,1137,1144,1151,1156,1149,1146,1144,1161,1163,1165,1170,1161,1155,1151,1162,1162,1153,1167,1165,1169,1167,1173,1162,1163,1166,1167,1166,1178,1157,1165,1161,727,728,732,734,741,968,1406,1572,1741,1779,1758,1730,1701,1674,1666,1631,1594,1561,1533,1510,1477,1478,1420,1396,1365,1354,1277,1170,1144,1094,954,864,760,758,732,729,739,706,655,662,657,653,673,669,668,673,667,670,675,677,668,674,676,679,680,684,677,680,677,678,678,676,665,673,669,791,792,794,793,832,1278,1632,1796,1863,1938,1932,1881,1875,1837,1780,1776,1743,1714,1659,1651,1621,1588,1568,1531,1497,1403,1277,1172,1146,1134,864,971,864,818,804,802,800,775,768,772,775,771,771,771,771,771,771,771,771,771,771,771,771,771,771,771,771,771,771,771,771,771,771,771,771,823,830,827,837,891,1294,1721,1849,1964,2012,2002,1974,1937,1915,1844,1856,1803,1788,1762,1729,1681,1664,1630,1599,1566,1534,1500,1437,1321,1211,1055,938,880,857,844,833,833,772,766,774,772,772,772,772,772,772,772,772,772,772,772,772,772,772,772,772,772,772,772,772,772,772,772,772,772,476,478,480,481,488,718,950,1044,1108,1219,1170,1197,1178,1114,1148,1077,1059,1101,1095,1004,1041,1022,1003,990,962,894,910,858,871,820,802,775,728,498,487,484,485,486,478,475,484,478,485,485,484,484,485,485,485,485,485,485,485,485,485,485,485,485,485,485,485,485,485,485,485,0,0,0,0,0,0,0,0,0,0,0,0,0,0,0,0,0,0,0,0,0,0,0,0,0,0,0,0,0,0,0,0,0,0,0,0,0,0,0,0,0,0,0,0,0,0,0,0,0,0,0,0,0,0,0,0,0,0,0,0,0,0,0,0,0,867,869,847,878,923,1424,1754,1954,2017,2085,2049,2016,2037,1951,1917,1883,1852,1840,1805,1753,1719,1691,1676,1622,1588,1555,1539,1404,1284,1028,928,995,885,867,857,855,800,800,794,794,794,794,794,794,794,794,794,794,794,794,794,794,794,794,794,794,794,794,794,794,794,794,794,794,794,542,544,546,548,589,694,1044,1147,1279,1341,1345,1322,1301,1268,1258,1236,1214,1192,1171,1148,1131,1108,1086,1069,1049,1021,1003,978,960,940,691,675,581,567,570,557,571,500,497,502,504,504,504,504,504,504,504,504,504,504,504,504,504,504,504,504,504,504,504,504,504,504,504,504,504,303,304,304,305,306,490,554,619,682,790,752,740,728,716,704,692,680,668,657,645,633,621,609,597,585,573,561,549,537,526,514,502,486,475,319,315,316,316,292,296,298,300,296,297,296,298,296,294,297,295,294,292,294,296,296,296,295,295,292,295,294,297,295,297,296,724,755,723,729,771,1305,1466,1645,1772,1807,1776,1738,1709,1671,1644,1616,1600,1591,1600,1503,1488,1458,1442,1392,1374,1335,1333,1326,1251,1224,985,947,815,742,750,771,731,727,733,732,736,736,736,734,734,734,734,734,734,734,734,734,734,734,734,734,734,734,734,734,734,734,734,734,734,732,734,742,751,796,1350,1498,1688,1816,1829,1798,1769,1742,1712,1684,1645,1616,1617,1579,1544,1502,1484,1479,1427,1400,1369,1359,1385,1284,1179,819,809,780,763,784,743,752,724,727,727,727,727,727,727,727,727,727,727,727,727,727,727,727,727,727,727,727,727,727,727,727,727,727,727,727,1022,1020,1027,1034,1319,1918,2277,2556,2593,2647,2587,2553,2506,2459,2414,2367,2321,2269,2248,2181,2126,2091,2067,1998,1952,1905,1874,1785,1557,1379,1144,1104,1075,1054,1036,1039,1046,1040,1011,1011,1011,1011,1011,1011,1011,1011,1011,1011,1011,1011,1011,1011,1011,1011,1011,1011,1011,1011,1011,1011,1011,1011,1011,1011,1011,791,792,794,793,832,1278,1632,1796,1863,1938,1932,1881,1875,1837,1780,1776,1743,1714,1659,1651,1621,1588,1568,1531,1497,1403,1277,1172,1146,1134,864,971,864,818,804,802,800,775,768,772,775,771,771,771,771,771,771,771,771,771,771,771,771,771,771,771,771,771,771,771,771,771,771,771,771,114,115,115,116,116,178,201,225,248,272,286,297,292,273,268,264,260,255,250,246,241,237,232,228,223,219,214,210,205,201,196,192,187,182,178,143,143,175,96,92,92,92,97,96,97,94,94,97,95,97,98,98,98,98,97,96,97,97,99,100,97,97,97,97,96,295,295,296,297,312,334,517,568,625,682,698,687,678,667,666,647,637,626,616,606,596,590,579,566,554,546,534,525,514,481,471,349,342,324,326,300,300,301,235,235,235,235,235,235,235,235,235,235,235,235,235,235,235,235,234,234,235,235,235,235,235,235,235,235,234,689,707,688,694,712,930,1382,1534,1618,1716,1714,1687,1666,1582,1605,1573,1534,1521,1502,1469,1440,1413,1386,1363,1331,1304,1271,1178,1152,1034,840,732,712,724,717,684,716,686,661,660,664,669,669,666,668,668,666,671,672,667,671,670,674,676,674,677,675,673,677,677,679,679,678,679,675,794,797,798,804,838,1112,1560,1740,1867,1934,1939,1913,1884,1834,1804,1774,1755,1725,1680,1650,1635,1607,1560,1529,1518,1501,1378,1345,1258,999,956,889,837,819,826,807,803,804,772,770,777,783,781,790,788,792,790,790,792,787,790,792,792,792,791,787,792,792,792,789,784,788,792,792,785,0,0,0,0,0,0,0,0,0,0,0,0,0,0,0,0,0,0,0,0,0,0,0,0,0,0,0,0,0,0,0,0,0,0,0,0,0,0,0,0,0,0,0,0,0,0,0,0,0,0,0,0,0,0,0,0,0,0,0,0,0,0,0,0,0,421,422,423,425,428,470,793,884,989,1047,1051,1035,1032,1007,984,964,943,935,921,904,877,860,841,833,810,796,776,759,495,734,472,460,447,468,459,426,427,455,401,404,407,409,412,411,417,420,405,420,412,410,414,412,412,416,414,411,413,409,414,415,420,420,414,419,414,760,762,765,768,798,1138,1490,1673,1790,1860,1852,1822,1807,1781,1734,1705,1687,1654,1624,1600,1571,1527,1498,1468,1452,1424,1380,1342,1302,1080,895,851,802,784,783,772,773,767,741,742,737,749,750,749,747,748,750,748,744,749,747,749,748,747,751,750,751,747,750,749,745,745,745,745,744,280,281,282,283,285,433,509,575,625,689,701,690,680,661,656,646,627,624,612,594,584,579,568,551,545,534,517,511,501,489,478,468,456,425,361,304,305,357,256,257,256,261,262,261,259,284,255,262,261,257,258,276,261,261,261,262,261,261,269,262,260,260,259,261,259,240,241,241,297,243,385,435,486,536,584,598,589,579,570,560,550,541,532,523,513,504,494,516,475,465,486,447,465,428,418,409,399,390,361,248,244,244,315,227,226,225,226,229,227,227,230,226,229,227,229,230,236,232,242,233,231,231,232,228,238,231,232,232,233,230,595,597,600,599,601,952,1244,1408,1549,1613,1584,1578,1569,1510,1497,1453,1424,1394,1365,1344,1297,1283,1250,1221,1192,1162,1134,1105,1076,1038,1009,660,640,644,608,604,607,604,599,593,598,599,596,603,604,602,602,606,645,602,604,640,638,612,639,609,607,606,607,614,608,615,607,647,646,114,115,115,116,116,178,201,225,248,272,286,297,292,273,268,264,260,255,250,246,241,237,232,228,223,219,214,210,205,201,196,192,187,182,178,143,143,175,96,92,92,92,97,96,97,94,94,97,95,97,98,98,98,98,97,96,97,97,99,100,97,97,97,97,96,414,415,457,418,462,488,783,874,966,1020,1027,1010,994,978,961,945,928,913,896,879,864,847,830,814,798,781,765,748,733,703,687,559,546,433,424,420,421,422,394,388,402,395,391,400,394,400,399,401,401,400,401,401,400,400,400,401,402,402,402,403,403,403,401,400,400,376,376,378,379,380,546,681,757,836,914,937,919,904,892,877,861,846,834,814,800,784,770,757,742,728,711,699,680,669,651,550,620,524,431,385,380,384,384,353,356,360,381,361,357,352,361,357,359,364,360,360,361,362,364,362,364,357,355,360,363,360,358,360,366,356,413,415,417,418,420,573,736,812,954,1009,1018,1002,986,970,954,939,922,905,890,873,859,842,832,816,803,786,771,754,737,691,572,550,536,528,431,423,429,430,405,398,404,403,405,406,399,406,408,407,408,407,407,408,409,409,415,414,406,409,407,411,412,410,413,417,410,594,596,597,607,619,725,1158,1295,1403,1451,1450,1427,1404,1398,1358,1336,1313,1290,1268,1245,1222,1199,1176,1154,1131,1107,1084,1002,920,965,883,816,717,619,605,602,604,600,598,589,595,601,592,603,598,609,607,604,608,601,601,604,609,607,608,601,607,609,604,601,604,610,597,613,603,489,498,500,501,505,581,929,1070,1150,1207,1210,1201,1189,1169,1158,1136,1125,1052,1037,1063,1032,1026,1008,988,977,933,901,884,862,670,655,639,627,511,512,499,505,476,443,447,443,449,455,451,449,456,449,451,451,450,451,451,449,449,450,451,452,452,452,453,453,453,451,450,450,0,0,0,0,0,0,0,0,0,0,0,0,0,0,0,0,0,0,0,0,0,0,0,0,0,0,0,0,0,0,0,0,0,0,0,0,0,0,0,0,0,0,0,0,0,0,0,0,0,0,0,0,0,0,0,0,0,0,0,0,0,0,0,0,0,520,513,522,524,518,596,989,1078,1189,1273,1274,1235,1229,1217,1185,1163,1144,1135,1119,1103,1078,1059,1035,1016,994,1006,931,934,903,878,785,728,656,580,561,513,521,530,512,514,513,522,514,517,513,519,514,521,519,516,521,518,520,518,520,528,524,526,520,517,529,534,521,520,513,572,574,588,579,608,740,1106,1264,1368,1423,1424,1386,1377,1344,1330,1298,1274,1263,1228,1208,1195,1161,1152,1129,1106,1071,1050,1027,945,803,783,698,699,595,596,581,611,580,555,548,550,555,555,561,554,559,566,565,556,560,557,562,566,555,563,564,563,565,561,564,570,570,568,567,565,585,594,567,608,612,774,1124,1278,1379,1429,1386,1364,1384,1366,1343,1320,1298,1231,1209,1232,1165,1143,1120,1144,1116,1101,1033,1010,988,865,835,730,700,608,596,601,596,577,544,543,542,549,547,549,548,555,546,548,548,547,548,548,547,547,547,548,549,549,549,550,550,550,548,547,547,892,894,897,916,1017,1434,1934,2226,2278,2318,2304,2259,2216,2175,2134,2098,2050,2017,1976,1954,1884,1854,1860,1780,1731,1690,1640,1609,1393,1293,1191,964,936,917,908,907,912,912,876,885,886,883,901,890,898,902,887,902,886,887,886,886,893,889,890,888,891,887,885,892,892,891,903,892,892,414,415,457,418,462,488,783,874,966,1020,1027,1010,994,978,961,945,928,913,896,879,864,847,830,814,798,781,765,748,733,703,687,559,546,433,424,420,421,422,394,388,402,395,391,400,394,400,399,401,401,400,401,401,400,400,400,401,402,402,402,403,403,403,401,400,400,632,634,640,639,637,831,1252,1378,1515,1569,1526,1528,1509,1495,1454,1429,1408,1380,1354,1346,1315,1294,1264,1228,1242,1182,1098,917,877,857,801,802,660,644,660,646,644,635,599,611,604,601,617,615,617,637,621,617,628,621,620,618,620,622,617,620,623,626,621,622,620,623,618,619,614,664,670,668,680,685,1028,1329,1473,1599,1659,1624,1597,1587,1561,1535,1507,1471,1453,1428,1408,1381,1354,1290,1299,1298,1247,1224,1199,1085,1029,812,769,692,675,686,684,686,636,597,601,605,599,614,608,613,639,611,614,625,612,612,610,617,614,609,610,621,618,614,615,612,612,612,613,608,210,211,211,212,260,296,367,407,450,490,518,510,502,496,487,478,470,463,454,446,439,430,422,416,407,398,391,382,375,367,358,351,343,300,294,288,289,289,192,194,193,195,195,201,198,214,201,196,216,197,200,197,196,199,200,197,197,200,195,194,196,197,196,199,193,400,399,402,402,402,593,672,733,803,864,875,869,849,836,822,816,796,789,771,763,744,731,724,706,693,680,673,660,640,633,615,401,401,384,407,403,405,400,349,354,345,348,358,358,359,357,352,356,357,368,358,352,356,360,362,355,359,358,354,357,352,355,357,359,349,713,720,703,719,743,1018,1439,1585,1718,1755,1710,1709,1681,1670,1628,1600,1546,1520,1517,1489,1488,1435,1415,1340,1393,1325,1296,1226,1079,993,888,841,743,728,733,730,723,667,657,652,658,665,668,670,673,675,671,667,677,671,670,668,669,671,667,670,673,676,670,672,670,673,668,669,664,382,384,385,387,405,594,688,770,894,948,957,941,925,910,896,880,864,849,833,818,802,786,771,760,749,734,718,702,687,671,656,582,432,422,412,418,422,411,328,327,330,334,334,338,333,359,343,336,354,338,340,338,337,339,339,338,338,341,336,339,337,339,337,341,332,0,0,0,0,0,0,0,0,0,0,0,0,0,0,0,0,0,0,0,0,0,0,0,0,0,0,0,0,0,0,0,0,0,0,0,0,0,0,0,0,0,0,0,0,0,0,0,0,0,0,0,0,0,0,0,0,0,0,0,0,0,0,0,0,0,726,698,702,707,734,1154,1408,1571,1680,1825,1732,1760,1658,1686,1645,1566,1543,1574,1542,1502,1425,1447,1422,1335,1411,1294,1266,1184,1045,786,898,857,768,734,755,706,728,730,720,719,724,727,732,706,730,739,730,728,738,737,741,746,748,753,748,714,734,739,740,742,722,748,734,729,728,709,718,721,728,758,1164,1442,1612,1716,1811,1766,1758,1690,1720,1623,1609,1583,1595,1568,1538,1464,1482,1458,1370,1444,1328,1300,1312,1192,854,866,903,816,754,761,735,730,727,714,714,727,737,736,701,728,743,726,723,733,733,735,741,738,745,742,707,728,729,735,735,714,743,727,724,723,995,1016,1021,1043,1360,1817,2303,2510,2526,2638,2595,2573,2482,2501,2403,2323,2262,2313,2240,2145,2127,2108,2080,1978,2007,1878,1851,1753,1490,1130,1124,1132,1072,1058,1038,1032,1040,1043,1028,1032,1032,1052,1054,1046,1049,1048,1054,1068,1050,1053,1053,1068,1069,1074,1073,1066,1061,1060,1065,1063,1057,1056,1069,1061,1059,632,634,640,639,637,831,1252,1378,1515,1569,1526,1528,1509,1495,1454,1429,1408,1380,1354,1346,1315,1294,1264,1228,1242,1182,1098,917,877,857,801,802,660,644,660,646,644,635,599,611,604,601,617,615,617,637,621,617,628,621,620,618,620,622,617,620,623,626,621,622,620,623,618,619,614,338,339,340,341,343,412,576,694,727,780,802,791,780,772,761,751,740,730,719,711,700,690,692,680,649,645,595,574,565,555,529,473,421,355,392,343,344,344,250,250,249,255,265,259,255,274,255,268,260,271,259,258,262,262,262,256,261,264,254,260,257,275,259,259,259,535,545,539,540,551,606,987,1152,1243,1292,1303,1286,1268,1252,1232,1225,1204,1183,1163,1142,1123,1105,1079,1058,1014,1002,950,938,903,777,760,623,609,556,556,552,544,547,444,443,443,447,451,446,446,448,446,453,449,453,462,462,462,454,451,446,449,450,445,446,448,450,446,446,446,769,772,772,776,783,1229,1523,1686,1820,1850,1857,1828,1812,1767,1699,1660,1677,1664,1605,1594,1582,1518,1475,1446,1452,1428,1351,1323,1165,1060,820,863,819,794,785,781,783,767,700,701,700,704,710,704,705,708,705,711,706,710,709,705,708,712,711,709,711,710,711,713,713,716,713,713,713,727,736,731,740,758,1061,1401,1592,1694,1753,1764,1746,1709,1701,1654,1626,1607,1572,1544,1517,1489,1483,1434,1406,1380,1352,1308,1194,1149,1000,1009,850,787,788,797,748,753,748,711,709,710,719,723,720,712,719,716,714,723,723,719,723,724,727,724,726,723,726,723,735,717,729,726,722,721,317,320,321,322,323,357,571,643,722,779,800,786,773,762,748,735,726,712,698,688,675,661,651,637,605,602,590,577,564,551,533,369,360,352,376,324,324,325,217,216,217,221,225,220,220,222,220,227,223,227,243,241,242,227,224,220,223,224,219,220,222,224,220,220,220,554,559,561,562,565,827,1060,1178,1308,1363,1380,1357,1336,1315,1298,1270,1247,1227,1209,1192,1167,1140,1126,1098,1060,1044,1022,1000,979,866,889,787,695,628,569,562,564,567,495,495,494,495,500,497,496,498,496,501,497,500,497,495,496,497,497,496,498,497,495,497,497,500,497,497,497,781,779,781,789,834,1313,1544,1730,1842,1891,1899,1872,1841,1812,1780,1751,1722,1693,1662,1638,1602,1573,1542,1526,1456,1453,1405,1271,1075,1016,919,837,835,800,790,788,796,783,741,741,740,741,746,743,742,744,742,747,743,746,743,741,742,743,743,742,744,743,741,743,743,746,743,743,743,0,0,0,0,0,0,0,0,0,0,0,0,0,0,0,0,0,0,0,0,0,0,0,0,0,0,0,0,0,0,0,0,0,0,0,0,0,0,0,0,0,0,0,0,0,0,0,0,0,0,0,0,0,0,0,0,0,0,0,0,0,0,0,0,0,86,86,115,130,130,133,150,166,183,200,213,210,206,204,200,196,193,190,187,183,180,177,174,170,166,164,160,157,153,151,147,144,141,138,134,132,132,132,49,49,48,49,54,51,50,52,50,55,51,54,51,49,50,51,51,50,52,51,49,51,51,54,51,51,51,410,411,426,413,431,672,794,916,1038,1138,1162,1132,1110,1088,1066,1045,1023,1000,987,957,936,939,891,876,848,826,804,782,760,729,713,694,660,434,420,440,420,422,404,401,403,405,401,411,408,408,408,410,431,407,405,411,407,414,408,410,409,409,409,410,411,409,409,438,412,338,339,340,341,343,412,576,694,727,780,802,791,780,772,761,751,740,730,719,711,700,690,692,680,649,645,595,574,565,555,529,473,421,355,392,343,344,344,250,250,249,255,265,259,255,274,255,268,260,271,259,258,262,262,262,256,261,264,254,260,257,275,259,259,259,272,272,273,274,275,373,425,540,578,618,635,627,619,611,603,595,588,580,572,563,556,548,549,538,537,527,438,431,424,416,408,402,411,322,279,276,276,277,201,200,199,206,212,208,206,225,205,214,210,223,213,215,214,232,211,203,207,213,210,213,213,213,213,213,213,468,470,472,473,482,603,792,979,1083,1132,1140,1123,1106,1093,1075,1069,1050,1027,1012,994,979,957,938,920,902,883,800,786,788,754,648,634,624,529,480,476,477,478,395,393,393,398,398,395,397,399,396,399,399,405,416,419,414,424,400,393,395,399,401,399,399,399,399,399,399,703,705,704,709,715,807,1373,1549,1660,1711,1644,1618,1660,1631,1560,1567,1492,1513,1492,1411,1438,1418,1336,1306,1337,1300,1234,1195,1216,947,928,761,745,733,705,700,703,688,651,649,659,663,675,678,666,679,678,681,674,674,678,672,675,691,677,670,678,684,673,675,675,675,675,675,675,744,754,748,756,800,1138,1508,1652,1761,1814,1825,1782,1750,1721,1692,1662,1639,1610,1578,1550,1521,1493,1468,1439,1406,1378,1350,1268,1226,1044,1000,804,786,768,757,755,768,753,734,733,735,740,741,742,739,738,737,743,739,740,742,744,747,742,746,746,746,746,739,742,742,742,742,742,742,253,254,256,256,258,348,447,499,551,602,636,626,615,606,595,585,575,567,556,545,536,525,512,500,490,481,465,458,448,439,430,385,410,269,260,266,260,269,168,166,167,172,172,169,171,173,170,173,173,179,196,198,196,197,173,167,169,173,175,173,173,173,173,173,173,488,492,493,495,497,656,933,1041,1144,1208,1218,1198,1181,1159,1140,1120,1100,1081,1062,1036,1022,1000,981,966,946,925,906,886,863,847,746,654,562,531,502,495,507,499,455,443,454,460,463,475,457,470,465,467,469,471,475,471,471,488,465,463,470,477,466,461,461,461,461,461,461,709,712,714,720,760,1196,1413,1575,1680,1733,1729,1704,1677,1650,1622,1598,1567,1546,1512,1491,1459,1429,1414,1377,1349,1318,1291,1263,1194,1033,787,789,768,733,723,720,722,715,692,688,693,698,700,688,697,712,697,700,694,697,695,713,706,706,702,705,705,701,712,716,716,716,713,716,715,155,156,156,156,156,161,263,328,349,380,392,390,387,383,380,365,360,357,352,348,344,339,335,331,326,285,279,274,269,264,260,255,166,163,160,157,157,158,124,123,124,124,124,124,126,142,128,125,125,126,123,126,126,131,126,124,126,125,124,124,124,124,124,124,124,0,0,0,0,0,0,0,0,0,0,0,0,0,0,0,0,0,0,0,0,0,0,0,0,0,0,0,0,0,0,0,0,0,0,0,0,0,0,0,0,0,0,0,0,0,0,0,0,0,0,0,0,0,0,0,0,0,0,0,0,0,0,0,0,0,527,529,532,531,548,833,1082,1237,1375,1435,1438,1410,1373,1348,1328,1302,1278,1251,1225,1197,1163,1144,1118,1091,1058,1030,1004,984,951,921,844,802,582,572,539,537,540,544,501,498,502,506,506,515,511,512,509,510,521,511,507,514,510,518,512,512,514,511,512,512,512,512,512,512,512,272,272,273,274,275,373,425,540,578,618,635,627,619,611,603,595,588,580,572,563,556,548,549,538,537,527,438,431,424,416,408,402,411,322,279,276,276,277,201,200,199,206,212,208,206,225,205,214,210,223,213,215,214,232,211,203,207,213,210,213,213,213,213,213,213,735,729,740,742,773,1164,1582,1756,1876,1920,1910,1889,1849,1815,1787,1767,1714,1664,1649,1612,1579,1578,1512,1477,1443,1409,1376,1341,1113,1089,965,946,879,762,748,747,751,753,749,756,750,752,746,750,766,761,771,759,759,748,754,770,786,761,762,757,759,775,763,761,762,783,749,751,748,790,792,801,812,853,1297,1540,1718,1870,1940,1946,1916,1886,1853,1822,1792,1760,1729,1699,1669,1636,1604,1574,1542,1511,1480,1450,1418,1387,1234,1070,1037,842,823,811,808,840,813,789,791,797,801,814,800,804,811,801,803,800,804,811,812,805,815,821,815,813,813,807,803,810,807,807,807,807,1165,1155,1160,1171,1459,2289,2606,2816,2871,2904,2823,2823,2714,2680,2719,2642,2594,2538,2491,2383,2333,2338,2322,2239,1945,1909,1840,1663,1618,1465,1290,1236,1205,1187,1173,1173,1148,1138,1134,1132,1132,1143,1143,1138,1137,1162,1132,1140,1137,1136,1138,1159,1146,1140,1167,1144,1146,1145,1161,1165,1140,1142,1141,1142,1136,945,938,941,1029,1045,1781,2068,2262,2384,2414,2407,2364,2313,2271,2236,2194,2212,2195,2062,2042,1995,1953,1970,1854,1813,1712,1642,1535,1500,1315,1056,1013,1014,979,951,950,954,959,962,960,966,969,972,965,975,976,972,976,971,977,979,992,986,988,983,1005,987,979,983,988,988,992,976,977,975,690,688,694,700,746,1106,1344,1502,1631,1710,1703,1676,1650,1620,1602,1567,1539,1519,1486,1458,1431,1403,1377,1349,1322,1296,1273,1240,1219,1186,931,901,773,722,707,696,708,691,679,675,679,676,680,685,685,683,685,699,692,692,685,691,707,693,689,704,698,710,691,688,689,705,703,694,691,966,944,946,953,1196,1807,2095,2346,2386,2428,2409,2383,2324,2290,2299,2204,2161,2119,2075,2034,1990,1946,1953,1863,1825,1783,1776,1685,1512,1335,1105,1020,992,968,954,956,948,942,934,931,941,954,950,955,944,953,955,963,962,957,963,974,968,959,999,976,978,977,969,984,972,970,969,974,968,1103,1089,1094,1134,1471,2137,2494,2617,2736,2789,2767,2720,2672,2620,2544,2499,2469,2393,2379,2323,2277,2195,2156,2129,2072,1970,1803,1750,1600,1361,1346,1197,1169,1135,1115,1099,1097,1079,1075,1073,1073,1084,1084,1079,1078,1103,1073,1081,1078,1077,1079,1100,1087,1081,1108,1085,1087,1086,1102,1106,1081,1083,1082,1083,1077,489,490,505,492,503,717,1005,1153,1282,1342,1342,1317,1292,1268,1243,1218,1194,1168,1143,1118,1094,1069,1044,1020,994,969,944,943,895,870,714,547,530,513,499,497,500,503,499,507,521,533,517,495,509,550,529,499,526,525,508,523,531,529,586,496,520,521,554,525,504,524,516,505,504,561,564,564,565,580,867,1129,1279,1409,1464,1463,1440,1413,1388,1363,1338,1312,1288,1262,1236,1213,1185,1159,1134,1109,1082,1057,1032,974,953,858,688,668,586,572,570,572,552,548,555,544,541,553,545,556,556,558,550,555,556,554,556,575,550,559,548,557,570,555,553,558,575,559,556,555,0,0,0,0,0,0,0,0,0,0,0,0,0,0,0,0,0,0,0,0,0,0,0,0,0,0,0,0,0,0,0,0,0,0,0,0,0,0,0,0,0,0,0,0,0,0,0,0,0,0,0,0,0,0,0,0,0,0,0,0,0,0,0,0,0,735,729,740,742,773,1164,1582,1756,1876,1920,1910,1889,1849,1815,1787,1767,1714,1664,1649,1612,1579,1578,1512,1477,1443,1409,1376,1341,1113,1089,965,946,879,762,748,747,751,753,749,756,750,752,746,750,766,761,771,759,759,748,754,770,786,761,762,757,759,775,763,761,762,783,749,751,748,0,0,0,0,0,0,0,0,0,0,0,0,0,0,0,0,0,0,0,0,0,0,0,0,0,0,0,0,0,0,0,0,0,0,0,0,0,0,0,0,0,0,0,0,0,0,0,0,0,0,0,0,0,0,0,0,0,0,0,0,0,0,0,0,0,301,332,303,304,304,513,555,643,686,766,752,740,751,716,704,692,680,690,676,644,632,620,627,615,584,572,560,566,536,524,512,500,459,447,435,364,306,307,297,298,301,304,297,303,298,302,304,297,303,296,298,298,299,303,299,301,300,302,300,304,299,306,298,303,300,612,643,642,647,653,808,1231,1402,1523,1568,1566,1539,1516,1492,1467,1414,1355,1394,1322,1346,1261,1294,1211,1188,1166,1191,1167,1108,1075,856,833,781,770,728,654,649,652,654,610,609,612,625,636,625,623,635,622,641,631,636,634,638,639,655,638,630,633,640,634,638,632,661,638,640,634,682,684,685,690,724,1126,1361,1517,1691,1664,1660,1634,1607,1598,1556,1528,1564,1476,1450,1425,1398,1372,1346,1334,1328,1300,1241,1157,1133,1106,1005,740,722,705,695,692,694,689,691,694,693,696,699,701,700,699,701,696,701,700,703,700,705,705,707,709,700,704,702,712,710,732,711,707,705,176,178,177,178,179,263,313,370,346,434,449,442,436,444,424,416,410,403,396,347,341,381,375,369,363,348,330,324,318,309,302,295,288,269,264,194,195,261,128,133,129,132,140,136,133,133,133,133,133,133,133,133,133,133,133,133,133,133,133,133,133,133,133,133,133,412,412,414,417,416,558,775,865,953,1020,1026,1011,993,977,951,940,964,916,902,882,894,850,828,816,793,787,766,744,617,619,604,546,514,505,420,422,416,437,407,403,407,412,422,419,418,425,412,424,420,418,429,432,431,436,428,419,424,422,425,420,418,431,420,427,418,648,649,652,654,684,1140,1291,1444,1603,1594,1586,1561,1536,1510,1485,1460,1446,1405,1396,1358,1333,1308,1282,1257,1232,1207,1191,1156,1131,942,883,855,687,670,684,657,659,652,645,650,645,657,654,669,650,654,660,651,649,652,649,651,650,649,654,657,654,650,651,654,656,661,665,669,657,278,285,280,280,282,377,508,580,627,688,702,682,687,670,661,649,639,616,606,595,583,572,561,550,540,539,528,506,507,484,475,475,443,376,360,284,284,284,271,275,272,273,275,277,275,279,272,279,273,273,274,279,279,279,279,279,279,276,279,279,277,279,275,275,275,290,300,271,300,334,289,490,573,604,682,707,660,649,676,668,618,648,637,628,612,605,554,543,572,561,511,539,528,480,469,424,415,361,353,277,273,274,337,231,231,228,229,234,233,235,235,235,235,235,235,235,235,235,235,235,235,235,235,235,235,235,235,235,235,235,597,598,601,603,620,1054,1276,1452,1571,1632,1612,1591,1561,1531,1501,1474,1441,1411,1383,1380,1347,1291,1250,1232,1201,1171,1132,1110,1081,1042,1020,912,787,714,603,606,609,609,608,600,607,613,606,626,610,635,613,624,620,606,613,614,624,627,621,617,615,612,626,616,615,615,609,635,614,0,0,0,0,0,0,0,0,0,0,0,0,0,0,0,0,0,0,0,0,0,0,0,0,0,0,0,0,0,0,0,0,0,0,0,0,0,0,0,0,0,0,0,0,0,0,0,0,0,0,0,0,0,0,0,0,0,0,0,0,0,0,0,0,0 ]);
