week_length = 7;
nb_workers = 19;
min_daysoff = 1;
max_daysoff = 2;
min_work = 4;
max_work = 7;
nb_shifts = 3;
temp_req = [| 5, 5, 5, 5, 5, 5, 5
            | 3, 3, 3, 3, 3, 3, 3
            | 5, 5, 5, 5, 5, 5, 5 |];
shift_name = ["D", "A", "N"];
shift_start = [360, 840, 1320];
shift_length = [480, 480, 480];
shift_block_min = [2, 2, 3];
shift_block_max = [6, 4, 5];
nb_forbidden = 7;
forbidden_before = [3, 3, 2, 3, 2, 3, 3];
forbidden_after = [1, 2, 1, 3, 1, 2, 1];
forbidden_daysoff = [false, false, false, true, true, true, true];
