week_length = 7;
nb_workers = 163;
min_daysoff = 1;
max_daysoff = 4;
min_work = 3;
max_work = 6;
nb_shifts = 3;
temp_req = [| 72, 79, 80, 78, 82, 76, 74
            | 39, 40, 44, 43, 43, 38, 40
            | 5, 6, 5, 6, 6, 6, 5 |];
shift_name = ["D", "A", "N"];
shift_start = [360, 840, 1320];
shift_length = [480, 480, 480];
shift_block_min = [2, 2, 2];
shift_block_max = [6, 6, 5];
nb_forbidden = 7;
forbidden_before = [3, 3, 2, 2, 3, 3, 3];
forbidden_after = [1, 2, 1, 1, 2, 1, 3];
forbidden_daysoff = [false, false, false, true, true, true, true];
