numResources = 4;
numTasks = 30;
Duration = [10, 4, 1, 3, 5, 10, 1, 4, 6, 8, 7, 7, 4, 3, 10, 3, 4, 3, 7, 5, 1, 10, 8, 1, 6, 4, 7, 6, 9, 4];
ResourceCapability = [13, 13, 12, 15];
ResourceRequirement = [|5, 10, 5, 0, 3, 0, 0, 5, 1, 2, 0, 10, 0, 9, 3, 10, 0, 6, 0, 0, 2, 0, 1, 1, 0, 0, 0, 0, 0, 9
                       |0, 0, 0, 0, 0, 0, 4, 0, 4, 0, 10, 0, 6, 0, 5, 4, 1, 6, 6, 0, 8, 0, 0, 0, 3, 0, 9, 7, 0, 0
                       |0, 5, 1, 10, 0, 5, 0, 0, 4, 0, 7, 0, 0, 3, 0, 3, 0, 0, 0, 5, 2, 0, 8, 0, 0, 4, 0, 0, 4, 1
                       |8, 0, 0, 5, 0, 0, 0, 7, 8, 1, 6, 5, 0, 10, 0, 10, 1, 1, 0, 0, 1, 1, 2, 8, 8, 0, 0, 0, 4, 7|];
Successor = [{11, 22, 25, 26, 28},
             {4, 6, 7, 8, 9, 10, 12, 13, 14, 16, 17, 19, 21, 23, 24, 25, 26, 27, 28, 29, 30},
             {5, 15, 18, 19, 20, 21, 22, 23, 24, 26, 27, 28, 29, 30},
             {6, 8, 9, 12, 13, 19, 21, 23, 24, 25, 26, 27, 28, 29, 30},
             {15, 20, 21, 22, 24, 26, 27, 28, 29, 30},
             {8, 23, 26, 28},
             {10, 14, 23, 24, 26, 28, 30},
             {23, 26, 28},
             {12, 13, 19, 21, 24, 27, 28, 29, 30},
             {14, 23, 24, 26, 28, 30},
             {25, 28},
             {13, 19, 27, 28, 30},
             {19, 27, 28, 30},
             {23, 26, 28},
             {20, 22, 26, 28},
             {17, 26, 28},
             {26, 28},
             {19, 20, 22, 26, 28, 29},
             {28},
             {22, 26, 28},
             {24, 29, 30},
             {26, 28},
             {26, 28},
             {30},
             {28},
             {28},
             {30},
             {},
             {},
             {}];
InitialSolution = [2, 4, 3, 5, 9, 7, 10, 18, 1, 12, 6, 13, 15, 8, 14, 16, 20, 21, 11, 17, 22, 23, 19, 24, 25, 26, 27, 28, 29, 30];