numResources = 4;
numTasks = 60;
Duration = [4, 7, 9, 2, 6, 5, 2, 7, 4, 3, 4, 10, 4, 5, 8, 2, 7, 10, 8, 8, 8, 1, 5, 5, 7, 2, 1, 8, 10, 1, 1, 4, 10, 9, 3, 3, 7, 10, 6, 6, 9, 9, 1, 10, 2, 10, 6, 8, 9, 2, 6, 2, 8, 3, 4, 3, 9, 3, 3, 7];
ResourceCapability = [18, 22, 20, 14];
ResourceRequirement = [|1, 0, 0, 5, 0, 4, 9, 0, 0, 0, 0, 0, 0, 9, 0, 0, 1, 3, 8, 6, 3, 0, 0, 0, 0, 0, 0, 0, 0, 0, 0, 0, 0, 2, 0, 0, 5, 0, 0, 3, 0, 0, 0, 0, 0, 0, 0, 0, 6, 0, 0, 0, 5, 0, 0, 9, 0, 1, 6, 0
                       |0, 0, 3, 0, 1, 0, 0, 3, 2, 0, 0, 3, 10, 0, 0, 8, 0, 0, 0, 0, 0, 3, 0, 3, 6, 0, 0, 0, 0, 0, 0, 0, 4, 0, 7, 0, 0, 3, 2, 0, 0, 4, 0, 0, 0, 0, 0, 9, 0, 0, 9, 4, 0, 0, 0, 0, 6, 0, 0, 0
                       |0, 0, 0, 0, 0, 0, 0, 0, 0, 4, 6, 0, 0, 0, 0, 0, 0, 0, 0, 0, 0, 0, 0, 0, 0, 2, 0, 0, 4, 1, 0, 8, 0, 0, 0, 0, 0, 0, 0, 0, 9, 0, 0, 9, 5, 0, 0, 0, 0, 1, 0, 0, 0, 0, 7, 0, 0, 0, 0, 9
                       |0, 2, 0, 0, 0, 0, 0, 0, 0, 0, 0, 0, 0, 0, 1, 0, 0, 0, 0, 0, 0, 0, 6, 0, 0, 0, 2, 4, 0, 0, 9, 0, 0, 0, 0, 4, 0, 0, 0, 0, 0, 0, 7, 0, 0, 2, 3, 0, 0, 0, 0, 0, 0, 5, 0, 0, 0, 0, 0, 0|];
Successor = [{4, 7, 8, 10, 11, 12, 13, 18, 20, 21, 22, 23, 24, 26, 28, 29, 30, 31, 33, 34, 38, 39, 42, 43, 45, 47, 48, 49, 51, 53, 54, 55, 56, 57, 58, 59, 60},
             {5, 6, 9, 14, 15, 16, 17, 19, 25, 27, 32, 33, 36, 37, 38, 39, 40, 41, 44, 46, 47, 49, 50, 51, 52, 53, 54, 55, 56, 57, 58, 59, 60},
             {35, 50, 56, 59},
             {7, 8, 10, 11, 20, 23, 26, 30, 31, 33, 34, 38, 39, 42, 45, 47, 48, 54, 55, 56, 57, 58, 59, 60},
             {14, 17, 27, 32, 33, 36, 38, 41, 47, 49, 50, 51, 52, 53, 54, 56, 57, 58, 59, 60},
             {9, 15, 16, 40, 44, 46, 52, 53, 55, 56, 59, 60},
             {8, 10, 20, 23, 31, 34, 38, 39, 42, 45, 47, 48, 54, 55, 56, 57, 58, 59, 60},
             {34, 57, 59},
             {44, 46, 52, 60},
             {20, 23, 31, 38, 39, 42, 45, 47, 48, 54, 55, 56, 58, 59, 60},
             {26, 58},
             {13, 18, 21, 22, 29, 31, 38, 43, 45, 47, 48, 51, 53, 55, 56, 57, 58, 59, 60},
             {18, 22, 38, 47, 48, 55, 58, 60},
             {32, 49, 50, 54, 56, 59},
             {40, 46, 52, 53, 55, 56, 59, 60},
             {46, 52, 60},
             {27, 33, 36, 38, 41, 47, 51, 53, 54, 56, 57, 58, 59},
             {38, 47, 58},
             {25, 37, 39, 47, 58, 60},
             {23, 38, 39, 47, 54, 58, 59},
             {31, 45, 48, 55, 60},
             {48, 55, 60},
             {38, 39, 47, 54, 58, 59},
             {28, 49, 54, 59},
             {37, 39, 47, 58},
             {58},
             {33, 36, 38, 47, 51, 53, 54, 56, 57, 58, 59},
             {49, 54, 59},
             {43, 51, 53, 56, 57, 58, 59},
             {33, 47, 54, 58, 59},
             {45, 48, 55, 60},
             {50, 56, 59},
             {54, 59},
             {57, 59},
             {50, 56, 59},
             {38, 47, 57, 58, 59},
             {39, 47, 58},
             {47, 58},
             {47, 58},
             {53, 56, 59},
             {51, 53, 56, 59},
             {56, 59},
             {51, 53, 56, 58, 59},
             {46, 52, 60},
             {55, 60},
             {52, 60},
             {58},
             {55, 60},
             {54, 59},
             {56, 59},
             {53, 56, 59},
             {60},
             {56, 59},
             {59},
             {60},
             {59},
             {59},
             {},
             {},
             {}];
InitialSolution = [1, 2, 4, 5, 7, 12, 10, 17, 6, 27, 13, 15, 20, 29, 14, 19, 23, 21, 30, 36, 43, 3, 9, 24, 25, 31, 41, 8, 16, 18, 22, 28, 32, 35, 37, 40, 44, 51, 11, 33, 34, 38, 39, 42, 45, 46, 48, 49, 50, 53, 26, 47, 52, 54, 55, 56, 57, 58, 59, 60];