numResources = 4;
numTasks = 60;
Duration = [9, 3, 5, 6, 1, 2, 8, 10, 6, 1, 8, 6, 6, 9, 10, 2, 10, 1, 8, 9, 5, 9, 3, 9, 3, 6, 5, 7, 5, 7, 5, 9, 10, 6, 4, 3, 2, 4, 3, 5, 7, 4, 10, 3, 3, 3, 8, 9, 9, 4, 1, 3, 1, 10, 6, 4, 3, 1, 1, 9];
ResourceCapability = [78, 79, 67, 36];
ResourceRequirement = [|0, 6, 7, 0, 2, 5, 0, 8, 6, 8, 0, 5, 7, 0, 1, 0, 8, 0, 0, 2, 0, 0, 5, 9, 0, 4, 9, 8, 6, 3, 5, 2, 3, 3, 8, 0, 10, 0, 0, 7, 3, 10, 9, 3, 10, 6, 8, 6, 0, 2, 0, 7, 4, 0, 3, 4, 10, 0, 9, 2
                       |7, 5, 10, 8, 2, 0, 0, 9, 0, 0, 10, 9, 6, 0, 7, 0, 10, 7, 8, 6, 8, 3, 9, 0, 7, 3, 6, 10, 10, 6, 3, 0, 2, 0, 5, 9, 10, 0, 9, 0, 8, 0, 9, 7, 7, 9, 0, 10, 0, 8, 8, 9, 4, 2, 4, 7, 8, 8, 8, 3
                       |5, 1, 0, 0, 0, 2, 10, 5, 10, 5, 3, 7, 8, 6, 8, 4, 4, 5, 3, 3, 9, 0, 4, 0, 7, 0, 8, 0, 7, 0, 6, 0, 0, 3, 8, 0, 0, 7, 10, 7, 2, 6, 5, 5, 5, 0, 7, 0, 7, 5, 10, 10, 4, 1, 3, 9, 9, 6, 9, 0
                       |0, 4, 9, 0, 2, 1, 9, 4, 10, 4, 4, 0, 0, 8, 0, 2, 3, 3, 3, 2, 10, 0, 1, 7, 6, 2, 2, 1, 5, 2, 2, 3, 2, 4, 4, 0, 1, 3, 10, 1, 0, 4, 1, 1, 7, 6, 0, 4, 0, 1, 8, 1, 0, 0, 3, 2, 9, 4, 8, 4|];
Successor = [{4, 6, 7, 9, 10, 11, 12, 15, 18, 19, 20, 21, 24, 25, 26, 28, 30, 32, 33, 34, 35, 37, 39, 41, 42, 43, 44, 45, 46, 47, 48, 49, 50, 51, 52, 53, 54, 55, 56, 57, 58, 59, 60},
             {8, 36, 48, 56, 60},
             {5, 13, 14, 16, 17, 22, 23, 27, 28, 29, 31, 32, 34, 38, 40, 41, 43, 44, 45, 46, 48, 49, 51, 52, 53, 55, 56, 57, 58, 59, 60},
             {7, 10, 11, 12, 19, 20, 21, 24, 25, 28, 30, 32, 39, 41, 43, 44, 45, 46, 47, 49, 51, 52, 53, 54, 55, 56, 57, 58, 59, 60},
             {28, 32, 45, 58},
             {33, 34, 48, 56, 59, 60},
             {11, 39, 41, 44, 46, 49, 51, 52, 54, 55, 57, 58, 59, 60},
             {36, 48, 56, 60},
             {15, 18, 26, 35, 37, 41, 42, 44, 49, 50, 51, 52, 54, 55, 57, 58, 59},
             {12, 28, 30, 32, 43, 45, 47, 51, 52, 56, 57, 58, 59, 60},
             {39, 41, 46, 49, 52, 54, 55, 57, 58, 59},
             {30, 43, 47, 51, 52, 56, 57, 59, 60},
             {16, 17, 29, 31, 41, 44, 49, 51, 52, 55, 58, 59},
             {22, 23, 27, 34, 38, 40, 43, 46, 48, 51, 52, 53, 56, 57, 59, 60},
             {50, 54, 55, 57, 58, 59},
             {17, 31, 41, 49, 52, 55, 58, 59},
             {41, 49, 52, 55, 58, 59},
             {26, 35, 37, 41, 49, 51, 52, 55, 58, 59},
             {20, 21, 24, 25, 32, 45, 46, 47, 53, 56, 57, 58, 59, 60},
             {24, 45, 58},
             {46, 47, 53, 56, 57, 59, 60},
             {53, 60},
             {27, 38, 40, 43, 46, 48, 51, 52, 56, 57, 59, 60},
             {45, 58},
             {32, 45, 58},
             {41, 49, 52, 55, 58, 59},
             {38, 46, 57, 59},
             {32, 45, 58},
             {44, 51, 52, 59},
             {43, 47, 51, 52, 56, 57, 59, 60},
             {52, 59},
             {45, 58},
             {34, 48, 56, 60},
             {48, 56, 60},
             {51, 52, 59},
             {48, 56, 60},
             {58},
             {46, 57, 59},
             {41, 46, 49, 52, 55, 57, 58, 59},
             {43, 48, 51, 52, 56, 59, 60},
             {49, 52, 55, 58, 59},
             {44, 51, 52, 59},
             {51, 52, 59},
             {51, 52, 59},
             {58},
             {57, 59},
             {56, 60},
             {56, 60},
             {52, 59},
             {54, 55, 57, 58, 59},
             {52, 59},
             {59},
             {60},
             {55, 57, 58, 59},
             {58},
             {60},
             {59},
             {},
             {},
             {}];
InitialSolution = [1, 3, 4, 9, 14, 7, 10, 19, 13, 23, 11, 18, 12, 16, 30, 39, 21, 40, 6, 15, 17, 26, 2, 41, 50, 5, 8, 27, 29, 33, 42, 54, 20, 25, 28, 34, 35, 36, 38, 43, 44, 22, 24, 31, 32, 46, 47, 48, 49, 51, 37, 45, 52, 53, 55, 56, 57, 58, 59, 60];