numResources = 4;
numTasks = 120;
Duration = [7, 9, 3, 3, 8, 6, 10, 5, 7, 1, 8, 2, 10, 6, 8, 4, 10, 5, 8, 1, 7, 5, 10, 8, 4, 1, 4, 4, 3, 3, 6, 8, 8, 1, 7, 5, 1, 8, 1, 3, 8, 8, 5, 1, 4, 5, 7, 3, 2, 3, 9, 4, 3, 9, 7, 9, 10, 9, 4, 2, 8, 10, 10, 9, 5, 10, 2, 10, 5, 5, 10, 8, 2, 8, 8, 6, 2, 6, 3, 7, 1, 3, 6, 2, 1, 3, 5, 7, 8, 3, 4, 1, 3, 10, 2, 7, 3, 9, 10, 6, 3, 10, 1, 8, 9, 3, 2, 8, 3, 10, 7, 3, 2, 7, 9, 5, 9, 4, 2, 10];
ResourceCapability = [42, 50, 42, 50];
ResourceRequirement = [|6, 6, 9, 8, 9, 3, 6, 1, 6, 10, 7, 8, 6, 10, 3, 1, 7, 8, 9, 5, 4, 6, 9, 4, 8, 3, 2, 7, 6, 8, 2, 9, 10, 4, 9, 2, 7, 5, 10, 3, 2, 9, 3, 2, 2, 4, 10, 10, 7, 3, 4, 1, 1, 7, 6, 2, 9, 7, 3, 10, 10, 3, 7, 9, 3, 1, 5, 10, 10, 3, 10, 6, 3, 3, 5, 2, 10, 3, 4, 7, 9, 10, 6, 7, 4, 2, 9, 1, 4, 3, 4, 9, 9, 8, 3, 2, 1, 2, 3, 9, 5, 1, 1, 3, 7, 4, 8, 5, 9, 2, 1, 10, 4, 6, 10, 8, 7, 8, 9, 2
                       |5, 10, 2, 10, 6, 4, 4, 6, 3, 1, 10, 9, 6, 3, 7, 9, 1, 7, 5, 8, 10, 7, 1, 1, 1, 7, 10, 8, 5, 1, 5, 10, 8, 2, 7, 5, 2, 3, 8, 8, 3, 3, 5, 2, 3, 10, 8, 4, 1, 2, 6, 3, 8, 7, 10, 3, 10, 2, 7, 1, 2, 2, 2, 10, 3, 2, 5, 1, 2, 4, 10, 5, 3, 3, 6, 1, 4, 9, 9, 2, 9, 4, 9, 7, 7, 2, 1, 4, 4, 5, 7, 8, 1, 5, 7, 4, 9, 4, 8, 10, 6, 10, 5, 7, 5, 7, 5, 4, 5, 7, 9, 6, 4, 1, 10, 6, 3, 3, 3, 1
                       |4, 7, 5, 5, 8, 6, 1, 7, 5, 10, 7, 3, 3, 2, 10, 7, 9, 6, 10, 1, 3, 2, 5, 8, 5, 3, 4, 7, 4, 5, 5, 8, 5, 5, 10, 2, 1, 5, 2, 3, 8, 4, 4, 3, 1, 7, 6, 9, 9, 2, 5, 6, 2, 5, 5, 10, 9, 9, 7, 2, 3, 8, 3, 5, 5, 10, 4, 8, 10, 8, 8, 10, 7, 4, 9, 5, 7, 2, 6, 5, 5, 9, 6, 7, 1, 2, 5, 6, 3, 10, 6, 1, 8, 6, 3, 1, 8, 6, 7, 6, 10, 7, 3, 2, 4, 10, 2, 3, 6, 9, 9, 4, 1, 2, 2, 1, 7, 6, 2, 3
                       |10, 9, 2, 5, 5, 10, 7, 5, 3, 9, 5, 7, 2, 1, 3, 7, 6, 7, 5, 4, 10, 2, 10, 8, 8, 3, 4, 9, 5, 1, 7, 1, 5, 6, 9, 2, 9, 3, 7, 1, 8, 9, 9, 8, 4, 2, 7, 3, 2, 4, 4, 4, 3, 5, 10, 2, 6, 10, 5, 10, 4, 4, 3, 9, 8, 4, 4, 1, 9, 5, 10, 1, 7, 5, 6, 7, 10, 10, 2, 2, 9, 2, 7, 3, 9, 1, 9, 8, 2, 8, 6, 8, 4, 10, 3, 4, 6, 7, 5, 8, 9, 3, 1, 9, 2, 6, 3, 5, 10, 10, 4, 4, 5, 8, 5, 4, 10, 2, 5, 4|];
Successor = [{28, 31, 36, 41, 42, 67, 73, 85, 87, 90, 102, 106, 110, 112, 117, 118, 120},
             {4, 5, 6, 7, 8, 9, 10, 11, 13, 14, 15, 16, 17, 18, 19, 20, 21, 23, 24, 25, 26, 29, 30, 32, 33, 34, 35, 38, 39, 40, 42, 43, 46, 47, 48, 49, 50, 51, 52, 53, 55, 56, 57, 60, 62, 63, 65, 67, 68, 69, 70, 71, 72, 74, 75, 76, 78, 79, 81, 82, 83, 84, 85, 86, 87, 88, 89, 90, 91, 92, 94, 95, 96, 97, 98, 99, 100, 101, 102, 103, 104, 105, 106, 107, 108, 110, 111, 112, 113, 114, 115, 116, 117, 118, 119, 120},
             {12, 22, 27, 36, 37, 42, 44, 45, 54, 58, 59, 61, 64, 66, 68, 77, 80, 82, 89, 90, 93, 99, 100, 101, 102, 103, 104, 105, 107, 108, 109, 110, 111, 112, 113, 114, 115, 116, 117, 118, 119, 120},
             {5, 6, 8, 11, 13, 14, 15, 16, 17, 18, 19, 20, 21, 23, 25, 26, 30, 32, 35, 39, 40, 43, 46, 47, 48, 49, 50, 51, 52, 53, 55, 56, 57, 60, 62, 63, 65, 67, 68, 70, 71, 72, 74, 75, 76, 78, 79, 81, 82, 83, 84, 85, 86, 87, 89, 90, 91, 92, 94, 95, 96, 97, 98, 99, 101, 102, 103, 104, 105, 106, 107, 108, 110, 111, 112, 113, 114, 115, 116, 117, 118, 119, 120},
             {6, 8, 11, 13, 14, 15, 16, 17, 18, 19, 20, 21, 23, 26, 30, 32, 35, 39, 40, 43, 46, 47, 48, 49, 51, 52, 53, 55, 56, 57, 60, 62, 63, 65, 67, 68, 70, 71, 72, 74, 75, 78, 79, 81, 82, 83, 84, 85, 86, 87, 89, 90, 91, 92, 94, 95, 96, 97, 98, 99, 101, 102, 103, 105, 106, 107, 108, 110, 111, 112, 113, 114, 115, 116, 117, 118, 119, 120},
             {8, 11, 13, 14, 15, 16, 17, 18, 19, 20, 21, 23, 26, 30, 32, 35, 39, 40, 43, 46, 47, 48, 49, 51, 52, 53, 55, 56, 57, 60, 62, 63, 65, 67, 68, 70, 71, 72, 74, 75, 78, 79, 81, 82, 83, 84, 85, 86, 87, 89, 90, 91, 92, 94, 95, 96, 97, 98, 99, 101, 102, 103, 105, 106, 107, 108, 110, 111, 112, 113, 114, 115, 116, 117, 118, 119, 120},
             {9, 10, 24, 26, 29, 34, 35, 57, 65, 67, 69, 72, 74, 75, 83, 85, 87, 89, 90, 96, 102, 105, 106, 110, 111, 112, 114, 115, 116, 117, 118, 120},
             {11, 13, 14, 16, 17, 20, 21, 23, 32, 40, 43, 48, 49, 51, 52, 53, 56, 60, 62, 68, 71, 75, 78, 79, 82, 84, 85, 86, 87, 89, 91, 92, 94, 97, 98, 101, 102, 103, 105, 106, 107, 108, 110, 111, 112, 113, 114, 115, 116, 117, 118, 119, 120},
             {29, 34, 35, 57, 65, 69, 72, 74, 75, 83, 85, 87, 89, 96, 102, 106, 110, 111, 112, 114, 117, 118, 120},
             {105, 115, 116, 120},
             {16, 17, 32, 40, 52, 53, 60, 68, 78, 79, 82, 84, 86, 92, 94, 102, 103, 105, 107, 108, 110, 111, 112, 113, 114, 115, 116, 117, 118, 120},
             {64, 80, 93, 109, 119},
             {21, 23, 43, 48, 49, 51, 52, 56, 62, 68, 71, 75, 87, 89, 97, 98, 101, 103, 105, 106, 107, 108, 111, 113, 114, 115, 116, 117, 118, 119, 120},
             {20, 85, 91, 92, 94, 112, 120},
             {19, 30, 46, 55, 62, 63, 70, 87, 92, 94, 95, 99, 101, 106, 111, 112, 113, 114, 115, 116, 117, 118, 119, 120},
             {17, 40, 52, 68, 86, 102, 107, 108, 110, 111, 112, 113, 114, 117, 118, 120},
             {40, 52, 68, 86, 102, 107, 108, 110, 111, 112, 113, 114, 118, 120},
             {26, 35, 39, 47, 57, 65, 67, 72, 74, 75, 81, 83, 85, 89, 90, 95, 96, 102, 106, 110, 111, 112, 114, 116, 117, 118, 120},
             {55, 62, 63, 70, 87, 92, 94, 95, 99, 101, 106, 111, 112, 113, 114, 116, 117, 118, 119, 120},
             {85, 112, 120},
             {23, 43, 48, 49, 51, 52, 56, 62, 68, 71, 75, 87, 89, 98, 101, 103, 105, 106, 107, 108, 111, 113, 114, 115, 116, 117, 118, 119, 120},
             {27, 36, 37, 42, 44, 45, 54, 58, 59, 61, 68, 77, 82, 89, 90, 99, 100, 101, 102, 103, 104, 105, 107, 108, 110, 111, 112, 113, 114, 115, 116, 117, 118, 119, 120},
             {48, 51, 52, 56, 68, 71, 75, 89, 101, 105, 107, 108, 111, 113, 114, 115, 116, 118, 120},
             {26, 35, 57, 65, 67, 72, 85, 90, 96, 102, 110, 112, 120},
             {76, 104, 108, 113, 114, 117, 118},
             {35, 57, 65, 67, 72, 85, 90, 96, 102, 110, 112, 120},
             {36, 42, 44, 45, 54, 59, 61, 82, 89, 90, 100, 102, 103, 104, 105, 110, 112, 113, 114, 115, 116, 117, 118, 120},
             {41, 67, 73, 87, 90, 102, 106, 110, 112, 117, 118, 120},
             {87, 106, 117, 118},
             {46, 101, 111, 113, 114, 116, 118, 120},
             {85, 112, 120},
             {60, 78, 79, 82, 84, 92, 94, 103, 105, 112, 115, 116, 120},
             {38, 42, 88, 90, 100, 102, 104, 110, 112, 117, 118, 120},
             {35, 57, 65, 72, 85, 96, 102, 110, 112, 120},
             {57, 65, 72, 85, 96, 102, 110, 112, 120},
             {42, 90, 102, 110, 112, 120},
             {58, 77, 89, 99, 101, 110, 111, 112, 113, 114, 116, 118, 119, 120},
             {42, 88, 90, 100, 102, 104, 110, 112, 117, 118, 120},
             {47, 74, 75, 81, 83, 89, 95, 106, 111, 114, 116, 117, 118, 120},
             {86, 114, 118},
             {67, 90, 102, 110, 112, 120},
             {90, 102, 110, 112, 120},
             {68, 98, 103, 105, 107, 108, 111, 113, 114, 115, 116, 118, 119, 120},
             {45, 59, 89, 100, 104, 114, 117, 118},
             {100, 104, 117, 118},
             {101, 111, 113, 114, 116, 118, 120},
             {81, 95, 116, 118, 120},
             {51, 52, 68, 107, 108, 111, 113, 114, 118, 120},
             {62, 87, 106, 117, 118},
             {53, 94, 112, 120},
             {52, 68, 107, 108, 111, 113, 114, 118, 120},
             {68, 107, 108, 111, 113, 114, 118, 120},
             {94, 112, 120},
             {61, 82, 103, 105, 113, 114, 115, 116, 118, 120},
             {70, 92, 94, 95, 112, 118, 120},
             {101, 111, 113, 114, 116, 118, 120},
             {85, 112, 120},
             {77, 89, 99, 101, 111, 113, 114, 116, 118, 119, 120},
             {89, 114, 118},
             {78, 79, 82, 84, 92, 94, 103, 105, 112, 115, 116, 120},
             {82, 103, 105, 115, 116, 120},
             {87, 106, 117, 118},
             {99, 101, 111, 113, 114, 116, 118, 119, 120},
             {80, 93, 109, 119},
             {72, 96, 102, 110, 112, 120},
             {104, 117, 118},
             {90, 102, 110, 112, 120},
             {107, 108, 111, 113, 114, 118, 120},
             {74, 75, 83, 89, 106, 111, 114, 117, 118, 120},
             {95, 118},
             {75, 89, 105, 114, 115, 116, 118, 120},
             {96, 102, 110, 112, 120},
             {87, 106, 117, 118},
             {75, 83, 89, 106, 111, 114, 117, 118, 120},
             {89, 114, 118},
             {104, 117, 118},
             {89, 114, 118},
             {79, 94, 112, 115, 116, 120},
             {115, 116, 120},
             {93, 109, 119},
             {95, 116, 118, 120},
             {103, 105, 115, 116, 120},
             {106, 117, 118},
             {92, 94, 112, 120},
             {112, 120},
             {114, 118},
             {106, 117, 118},
             {100, 104, 117, 118},
             {114, 118},
             {102, 110, 112, 120},
             {92, 94, 112, 120},
             {94, 112, 120},
             {109, 119},
             {112, 120},
             {118},
             {102, 110, 112, 120},
             {98, 103, 105, 115, 116, 120},
             {103, 105, 115, 116, 120},
             {101, 111, 113, 114, 116, 118, 119, 120},
             {104, 117, 118},
             {111, 113, 114, 116, 118, 120},
             {110, 112, 120},
             {105, 115, 116, 120},
             {117, 118},
             {115, 116, 120},
             {117, 118},
             {108, 111, 113, 114, 118, 120},
             {113, 114, 118},
             {119},
             {112, 120},
             {120},
             {120},
             {114, 118},
             {118},
             {116, 120},
             {120},
             {118},
             {},
             {},
             {}];
InitialSolution = [2, 4, 5, 6, 8, 3, 22, 7, 13, 11, 21, 18, 15, 27, 9, 19, 23, 1, 16, 17, 37, 39, 43, 24, 32, 26, 28, 33, 60, 38, 58, 34, 48, 54, 69, 35, 51, 63, 74, 30, 44, 52, 71, 99, 14, 25, 46, 55, 56, 68, 36, 41, 61, 65, 78, 97, 101, 107, 12, 42, 47, 49, 67, 72, 82, 98, 10, 29, 45, 50, 62, 64, 73, 81, 84, 88, 90, 91, 96, 103, 20, 31, 40, 53, 57, 59, 66, 75, 76, 77, 79, 80, 83, 87, 92, 100, 102, 105, 108, 70, 85, 86, 89, 93, 94, 104, 106, 110, 113, 115, 95, 109, 111, 112, 114, 116, 117, 118, 119, 120];