numResources = 4;
numTasks = 30;
Duration = [6, 6, 9, 6, 5, 1, 9, 7, 3, 9, 3, 3, 3, 7, 3, 6, 1, 4, 9, 8, 7, 3, 1, 1, 7, 3, 2, 8, 10, 7];
ResourceCapability = [15, 17, 17, 14];
ResourceRequirement = [|1, 1, 8, 1, 3, 10, 5, 5, 10, 2, 10, 5, 2, 5, 6, 8, 9, 2, 9, 5, 8, 3, 5, 2, 2, 8, 9, 6, 2, 10
                       |8, 1, 8, 7, 8, 5, 1, 1, 5, 7, 8, 8, 3, 5, 2, 7, 9, 8, 2, 9, 7, 8, 10, 3, 10, 2, 10, 4, 8, 4
                       |10, 5, 8, 7, 5, 2, 9, 9, 1, 7, 4, 7, 9, 6, 1, 4, 6, 6, 6, 10, 1, 4, 6, 6, 7, 3, 2, 1, 5, 2
                       |9, 4, 3, 7, 2, 10, 9, 4, 2, 6, 3, 1, 9, 7, 3, 2, 10, 6, 5, 6, 3, 10, 1, 7, 6, 9, 1, 8, 2, 7|];
Successor = [{4, 6, 7, 8, 12, 13, 15, 16, 17, 18, 19, 21, 22, 23, 24, 25, 26, 27, 28, 29, 30},
             {5, 9, 10, 11, 12, 13, 14, 16, 17, 18, 20, 21, 22, 23, 24, 25, 26, 27, 28, 29, 30},
             {17, 23, 27, 28, 29, 30},
             {6, 17, 18, 21, 27, 28, 29, 30},
             {9, 11, 12, 13, 14, 16, 20, 21, 22, 23, 24, 25, 26, 27, 28, 29, 30},
             {18, 21, 27, 29},
             {12, 16, 19, 21, 22, 23, 24, 26, 27, 28, 29, 30},
             {12, 13, 15, 16, 18, 21, 23, 24, 25, 26, 27, 28, 29, 30},
             {11, 12, 13, 14, 16, 20, 21, 22, 23, 24, 25, 26, 27, 28, 29, 30},
             {17, 23, 24, 27, 28, 29},
             {12, 13, 14, 16, 20, 21, 23, 24, 25, 26, 27, 28, 29, 30},
             {16, 21, 23, 24, 26, 27, 29, 30},
             {29},
             {20, 24, 25, 26, 27, 28, 29, 30},
             {18, 21, 25, 27, 28, 29},
             {21, 23, 26, 27, 29, 30},
             {28},
             {21, 27, 29},
             {21, 22, 26, 27, 29, 30},
             {24, 27, 29},
             {27, 29},
             {26, 30},
             {27, 29},
             {27, 29},
             {28, 29},
             {30},
             {29},
             {},
             {},
             {}];
InitialSolution = [1, 2, 5, 9, 8, 11, 7, 4, 12, 14, 3, 10, 15, 16, 19, 6, 18, 20, 21, 22, 23, 24, 25, 13, 17, 26, 27, 28, 29, 30];