numResources = 3;
numTasks = 20;
Duration = [4, 3, 3, 1, 2, 5, 5, 4, 4, 4, 1, 5, 5, 1, 1, 5, 4, 5, 4, 4];
ResourceCapability = [3, 4, 4];
ResourceRequirement = [|1, 0, 0, 1, 0, 1, 0, 0, 1, 1, 1, 0, 1, 0, 1, 0, 0, 0, 1, 0
                       |2, 0, 0, 1, 0, 1, 1, 0, 0, 0, 2, 0, 0, 2, 1, 0, 0, 0, 1, 1
                       |0, 0, 2, 0, 1, 0, 0, 1, 1, 2, 2, 2, 1, 2, 0, 0, 1, 2, 2, 0|];
Successor = [{7, 11, 12, 13, 17, 20},
             {10, 13},
             {17},
             {},
             {17, 19},
             {},
             {11, 12, 17, 20},
             {14},
             {18, 19},
             {},
             {},
             {},
             {},
             {},
             {},
             {},
             {},
             {19},
             {},
             {}];
InitialSolution = [1, 7, 2, 5, 9, 3, 8, 18, 4, 6, 10, 11, 12, 13, 14, 15, 16, 17, 19, 20];