numResources = 3;
numTasks = 20;
Duration = [1, 3, 3, 4, 2, 5, 1, 2, 2, 4, 5, 5, 5, 2, 2, 2, 3, 1, 4, 1];
ResourceCapability = [5, 3, 5];
ResourceRequirement = [|2, 1, 1, 0, 2, 1, 2, 2, 2, 1, 1, 1, 2, 0, 2, 2, 1, 0, 0, 0
                       |0, 0, 0, 1, 0, 1, 0, 1, 0, 0, 0, 0, 1, 1, 1, 0, 0, 0, 1, 1
                       |1, 0, 1, 2, 2, 0, 0, 2, 2, 0, 1, 0, 2, 2, 2, 2, 1, 1, 2, 1|];
Successor = [{4, 11, 13, 16, 19},
             {8, 15, 20},
             {4, 13},
             {13},
             {8, 15, 20},
             {8, 15, 18, 20},
             {14, 15},
             {15, 20},
             {17},
             {},
             {16},
             {},
             {},
             {},
             {},
             {},
             {},
             {},
             {},
             {}];
InitialSolution = [1, 6, 2, 5, 3, 7, 8, 4, 9, 11, 10, 12, 13, 14, 15, 16, 17, 18, 19, 20];