numResources = 3;
numTasks = 20;
Duration = [1, 1, 3, 1, 3, 4, 5, 5, 3, 4, 5, 2, 3, 1, 2, 1, 2, 2, 3, 2];
ResourceCapability = [3, 4, 6];
ResourceRequirement = [|0, 1, 0, 0, 0, 1, 1, 1, 1, 0, 1, 1, 0, 0, 1, 0, 0, 0, 1, 1
                       |1, 2, 1, 2, 2, 2, 1, 1, 2, 0, 1, 1, 1, 1, 1, 0, 1, 1, 0, 0
                       |0, 2, 2, 3, 2, 1, 0, 0, 1, 2, 1, 3, 3, 1, 3, 1, 3, 1, 3, 3|];
Successor = [{},
             {8, 12, 15, 18},
             {},
             {14},
             {13, 16, 19},
             {11, 12, 20},
             {},
             {12},
             {19},
             {11},
             {},
             {},
             {16, 19},
             {},
             {18},
             {19},
             {},
             {},
             {},
             {}];
InitialSolution = [2, 5, 6, 13, 4, 8, 9, 10, 15, 16, 1, 3, 7, 11, 12, 14, 17, 18, 19, 20];