numResources = 3;
numTasks = 20;
Duration = [4, 3, 2, 2, 1, 5, 1, 2, 4, 5, 3, 1, 5, 4, 4, 5, 2, 1, 3, 1];
ResourceCapability = [5, 6, 4];
ResourceRequirement = [|2, 2, 0, 1, 1, 1, 1, 0, 0, 2, 1, 1, 2, 0, 0, 2, 2, 2, 2, 0
                       |1, 2, 3, 2, 0, 2, 2, 2, 1, 1, 3, 1, 3, 2, 2, 1, 3, 1, 1, 2
                       |0, 0, 2, 1, 0, 1, 1, 2, 1, 0, 2, 0, 2, 2, 0, 2, 1, 2, 0, 2|];
Successor = [{13, 14, 19, 20},
             {7, 10, 12, 19},
             {5, 10},
             {16, 20},
             {},
             {},
             {10, 12},
             {16, 20},
             {},
             {},
             {},
             {},
             {},
             {},
             {16, 20},
             {20},
             {},
             {},
             {},
             {}];
InitialSolution = [1, 2, 3, 4, 7, 8, 15, 16, 5, 6, 9, 10, 11, 12, 13, 14, 17, 18, 19, 20];