numResources = 3;
numTasks = 20;
Duration = [3, 3, 2, 3, 4, 1, 4, 5, 5, 3, 5, 5, 5, 4, 1, 2, 5, 2, 4, 3];
ResourceCapability = [3, 3, 5];
ResourceRequirement = [|1, 1, 0, 0, 0, 1, 1, 0, 0, 0, 0, 0, 1, 1, 0, 1, 0, 0, 0, 0
                       |0, 0, 1, 0, 1, 1, 1, 1, 0, 1, 1, 1, 1, 0, 1, 0, 0, 1, 1, 0
                       |2, 1, 1, 2, 2, 2, 2, 0, 2, 2, 2, 1, 1, 2, 1, 0, 2, 2, 0, 1|];
Successor = [{},
             {20},
             {4, 14, 17, 18, 20},
             {14, 18, 20},
             {10, 13, 19},
             {13, 19},
             {13, 19},
             {12, 14, 16, 18},
             {13, 19},
             {},
             {},
             {14, 18},
             {19},
             {18},
             {},
             {},
             {},
             {},
             {},
             {}];
InitialSolution = [3, 8, 4, 5, 6, 7, 9, 12, 2, 13, 14, 1, 10, 11, 15, 16, 17, 18, 19, 20];