numResources = 3;
numTasks = 20;
Duration = [5, 2, 2, 1, 4, 3, 5, 3, 2, 5, 1, 4, 4, 3, 1, 4, 1, 1, 1, 1];
ResourceCapability = [5, 4, 3];
ResourceRequirement = [|0, 1, 0, 1, 0, 0, 2, 1, 0, 1, 0, 0, 2, 1, 0, 0, 0, 2, 2, 0
                       |2, 2, 2, 0, 1, 0, 2, 0, 1, 2, 2, 0, 0, 1, 1, 0, 1, 0, 1, 1
                       |1, 0, 0, 0, 1, 1, 1, 1, 0, 0, 1, 1, 0, 0, 1, 1, 1, 0, 0, 1|];
Successor = [{10, 11, 18, 19},
             {3, 12},
             {12},
             {},
             {},
             {16},
             {},
             {11, 18},
             {11, 18, 20},
             {},
             {18},
             {},
             {17},
             {15, 18, 19},
             {18, 19},
             {},
             {},
             {},
             {},
             {}];
InitialSolution = [1, 9, 14, 2, 8, 15, 3, 6, 11, 13, 4, 5, 7, 10, 12, 16, 17, 18, 19, 20];