numResources = 3;
numTasks = 25;
Duration = [5, 5, 2, 2, 3, 2, 4, 4, 3, 3, 1, 4, 2, 3, 3, 2, 5, 1, 3, 4, 5, 4, 5, 5, 5];
ResourceCapability = [5, 5, 4];
ResourceRequirement = [|2, 1, 2, 2, 0, 0, 2, 0, 2, 1, 2, 2, 1, 2, 2, 2, 2, 1, 2, 1, 1, 0, 2, 2, 1
                       |2, 1, 0, 2, 0, 2, 2, 2, 2, 1, 0, 2, 0, 1, 1, 2, 1, 2, 1, 2, 1, 2, 2, 2, 1
                       |2, 2, 0, 0, 1, 1, 0, 2, 2, 1, 2, 1, 0, 1, 1, 2, 0, 2, 1, 0, 1, 0, 0, 0, 1|];
Successor = [{3, 6, 10, 11, 13, 14, 15, 16, 17, 18, 19, 20, 21, 23, 25},
             {10, 12, 15, 16, 19, 21, 23, 25},
             {6, 10, 11, 13, 14, 15, 16, 17, 18, 19, 20, 21, 23, 25},
             {6, 10, 11, 13, 14, 15, 16, 17, 18, 19, 20, 21, 22, 23, 24, 25},
             {11, 14, 16, 18, 20, 21, 23, 24},
             {10, 13, 15, 16, 17, 18, 19, 20, 21, 23, 25},
             {19, 21},
             {12, 14, 16, 21, 23, 25},
             {10, 15, 23, 25},
             {15, 23, 25},
             {14, 16, 21, 23},
             {16, 21, 23},
             {17, 18, 20},
             {16, 21, 23},
             {23},
             {21, 23},
             {},
             {20},
             {21},
             {},
             {},
             {24},
             {},
             {},
             {}];
InitialSolution = [4, 1, 3, 6, 2, 5, 8, 9, 11, 10, 12, 13, 14, 7, 16, 15, 18, 19, 22, 17, 20, 21, 23, 24, 25];