numResources = 3;
numTasks = 25;
Duration = [5, 2, 5, 1, 1, 1, 5, 3, 3, 5, 1, 2, 5, 5, 3, 1, 2, 4, 2, 4, 5, 2, 2, 5, 3];
ResourceCapability = [3, 6, 6];
ResourceRequirement = [|0, 0, 1, 0, 1, 1, 0, 0, 1, 1, 1, 1, 0, 0, 1, 1, 1, 1, 0, 0, 1, 0, 0, 0, 1
                       |1, 0, 0, 0, 1, 1, 2, 3, 2, 0, 2, 3, 3, 1, 0, 0, 2, 0, 0, 0, 2, 3, 3, 0, 3
                       |1, 0, 1, 0, 1, 2, 0, 2, 3, 0, 2, 2, 2, 3, 3, 1, 2, 0, 1, 0, 3, 0, 1, 2, 3|];
Successor = [{16, 17, 18, 20, 24, 25},
             {17, 18, 24, 25},
             {10, 11, 16, 18, 19, 20, 23, 24, 25},
             {7, 14, 16, 17, 18, 20, 21, 22, 24, 25},
             {9, 17, 18, 22, 23, 24, 25},
             {9, 21, 22, 23, 24, 25},
             {14, 16, 18, 20, 22, 25},
             {9, 11, 19, 20, 22, 23, 24, 25},
             {22, 23, 24, 25},
             {16, 20, 25},
             {19, 20, 23, 24, 25},
             {18, 19, 21, 24, 25},
             {21},
             {22, 25},
             {19, 23, 24, 25},
             {20, 25},
             {18, 24, 25},
             {},
             {24, 25},
             {},
             {},
             {25},
             {},
             {25},
             {}];
InitialSolution = [4, 3, 8, 5, 1, 6, 7, 11, 12, 2, 9, 15, 10, 17, 14, 16, 19, 13, 22, 24, 18, 20, 21, 23, 25];