numResources = 3;
numTasks = 25;
Duration = [2, 2, 3, 5, 2, 3, 3, 2, 3, 2, 3, 4, 2, 3, 2, 4, 4, 1, 5, 5, 2, 3, 1, 3, 5];
ResourceCapability = [3, 6, 4];
ResourceRequirement = [|0, 0, 0, 0, 0, 1, 1, 0, 1, 1, 1, 1, 1, 1, 1, 1, 1, 1, 0, 0, 1, 0, 1, 1, 1
                       |3, 3, 1, 1, 0, 3, 1, 3, 0, 0, 0, 0, 3, 0, 3, 0, 3, 0, 3, 3, 2, 0, 3, 2, 0
                       |0, 2, 0, 2, 1, 0, 1, 0, 0, 2, 2, 2, 1, 1, 2, 1, 1, 0, 1, 2, 2, 2, 0, 2, 1|];
Successor = [{11, 16, 19, 21, 22, 25},
             {3, 6, 11, 14, 15, 17, 19, 20, 21, 22, 25},
             {6, 11, 15, 17, 19, 21, 22, 25},
             {7, 12, 15, 16, 18, 19, 22, 25},
             {7, 8, 9, 11, 12, 15, 16, 17, 18, 19, 21, 22, 24, 25},
             {11, 15, 17, 19, 21, 22, 25},
             {12, 16, 18, 19, 22, 25},
             {9, 15, 17, 22, 24},
             {17, 22, 24},
             {19, 21, 23, 25},
             {19, 21, 22, 25},
             {},
             {23},
             {20, 25},
             {},
             {},
             {22},
             {19, 22, 25},
             {25},
             {},
             {},
             {},
             {},
             {},
             {}];
InitialSolution = [5, 2, 3, 4, 6, 1, 7, 8, 10, 11, 9, 18, 14, 13, 17, 19, 12, 15, 16, 20, 21, 22, 23, 24, 25];