numResources = 3;
numTasks = 25;
Duration = [3, 3, 5, 4, 4, 4, 4, 5, 3, 1, 3, 4, 3, 5, 4, 4, 4, 1, 1, 3, 5, 4, 2, 1, 2];
ResourceCapability = [6, 5, 3];
ResourceRequirement = [|1, 1, 0, 3, 3, 0, 0, 2, 3, 0, 1, 1, 3, 2, 3, 0, 0, 0, 1, 3, 3, 3, 2, 2, 3
                       |1, 0, 2, 0, 0, 2, 1, 1, 0, 0, 0, 1, 0, 0, 2, 2, 0, 2, 2, 1, 1, 2, 1, 1, 2
                       |1, 1, 1, 1, 1, 1, 0, 1, 1, 1, 0, 1, 0, 0, 1, 0, 1, 0, 1, 1, 1, 1, 0, 1, 0|];
Successor = [{3, 4, 6, 7, 8, 9, 12, 13, 14, 15, 16, 17, 19, 20, 21, 22, 23, 24, 25},
             {17, 21},
             {6, 7, 8, 9, 12, 13, 14, 15, 16, 17, 19, 20, 21, 22, 23, 24, 25},
             {8, 15, 24},
             {20, 21},
             {7, 8, 9, 12, 13, 14, 15, 17, 19, 20, 21, 22, 23, 24, 25},
             {8, 14, 19, 20, 21, 22, 23, 24, 25},
             {24},
             {12, 13, 15, 17, 20, 21, 23, 24, 25},
             {18, 22, 24},
             {},
             {13, 15, 17, 20, 21, 23, 24, 25},
             {},
             {19, 20, 21, 22, 24, 25},
             {},
             {24},
             {},
             {},
             {24, 25},
             {21},
             {},
             {},
             {25},
             {},
             {}];
InitialSolution = [1, 3, 6, 7, 9, 12, 14, 4, 10, 2, 5, 19, 8, 16, 20, 23, 11, 13, 15, 17, 18, 21, 22, 24, 25];