numResources = 3;
numTasks = 25;
Duration = [4, 2, 3, 2, 3, 1, 5, 4, 5, 3, 4, 1, 1, 1, 2, 5, 5, 1, 3, 3, 4, 1, 5, 3, 1];
ResourceCapability = [3, 6, 4];
ResourceRequirement = [|1, 1, 0, 0, 0, 1, 1, 1, 1, 1, 0, 0, 1, 0, 0, 0, 1, 1, 1, 0, 0, 0, 0, 0, 0
                       |3, 1, 0, 2, 1, 1, 2, 0, 2, 3, 2, 0, 3, 1, 0, 3, 3, 2, 1, 1, 0, 0, 3, 2, 2
                       |1, 2, 1, 0, 1, 1, 0, 2, 1, 1, 2, 2, 1, 0, 2, 1, 1, 2, 2, 0, 1, 1, 0, 1, 1|];
Successor = [{4, 6, 7, 14, 17, 18, 19, 20, 21, 22, 23, 24, 25},
             {12, 13, 14, 15, 17, 21, 22, 23},
             {17, 21},
             {6, 7, 14, 17, 18, 19, 20, 21, 22, 23, 24, 25},
             {8, 13, 14, 15, 16, 17, 18, 20, 21, 22, 23, 24},
             {14, 17, 21},
             {18, 20, 22, 23},
             {13, 14, 15, 16, 17, 18, 21, 22, 23, 24},
             {25},
             {15},
             {},
             {13, 14, 15, 17, 21, 22},
             {14, 15, 17, 21},
             {17, 21},
             {},
             {},
             {21},
             {22, 23},
             {24},
             {},
             {},
             {},
             {},
             {},
             {}];
InitialSolution = [1, 4, 5, 8, 2, 12, 7, 13, 6, 3, 14, 18, 9, 10, 17, 19, 11, 15, 16, 20, 21, 22, 23, 24, 25];