numResources = 4;
numTasks = 15;
Duration = [8, 6, 4, 4, 250, 75, 25, 125, 50, 75, 175, 3, 4, 5, 1];
ResourceCapability = [37, 43, 44, 33];
ResourceRequirement = [|8, 5, 8, 5, 1, 3, 1, 4, 8, 6, 2, 6, 2, 8, 6
                       |7, 3, 4, 5, 3, 10, 7, 8, 8, 2, 8, 3, 10, 7, 5
                       |5, 9, 8, 3, 2, 6, 10, 2, 2, 5, 5, 10, 9, 4, 5
                       |2, 6, 8, 4, 6, 8, 5, 10, 4, 9, 2, 5, 4, 7, 4|];
Successor = [{12},
             {5, 6, 7, 8, 9, 10, 11, 13, 14, 15},
             {4, 15},
             {15},
             {6, 9},
             {9},
             {10, 11, 13, 15},
             {14},
             {},
             {11, 13, 15},
             {},
             {},
             {},
             {},
             {}];
InitialSolution = [2, 7, 10, 3, 5, 1, 4, 6, 8, 9, 11, 12, 13, 14, 15];