numResources = 4;
numTasks = 15;
Duration = [3, 1, 7, 5, 175, 250, 225, 225, 225, 225, 75, 7, 6, 5, 9];
ResourceCapability = [15, 17, 16, 16];
ResourceRequirement = [|1, 8, 1, 2, 1, 1, 3, 8, 7, 5, 3, 6, 9, 1, 4
                       |6, 2, 3, 9, 4, 4, 9, 6, 7, 9, 4, 3, 6, 7, 1
                       |8, 6, 2, 4, 1, 3, 2, 6, 9, 8, 4, 2, 4, 10, 8
                       |7, 9, 9, 2, 3, 5, 4, 6, 3, 10, 8, 1, 2, 7, 1|];
Successor = [{4, 5, 6, 7, 8, 9, 11, 12, 13, 14, 15},
             {7, 11, 12, 14},
             {10},
             {6, 13},
             {7, 8, 9, 11, 12, 14, 15},
             {13},
             {11, 12, 14},
             {15},
             {12, 14},
             {},
             {12, 14},
             {14},
             {},
             {},
             {}];
InitialSolution = [1, 5, 2, 7, 4, 9, 11, 3, 6, 8, 12, 10, 13, 14, 15];