numResources = 4;
numTasks = 15;
Duration = [2, 5, 8, 3, 100, 25, 175, 50, 75, 75, 250, 7, 2, 8, 10];
ResourceCapability = [27, 17, 22, 21];
ResourceRequirement = [|8, 1, 0, 6, 2, 9, 6, 5, 6, 7, 6, 10, 3, 0, 0
                       |9, 4, 1, 1, 3, 0, 0, 7, 0, 7, 6, 2, 5, 4, 4
                       |10, 8, 6, 0, 5, 10, 2, 5, 9, 3, 9, 3, 0, 7, 0
                       |2, 9, 3, 8, 1, 3, 5, 0, 9, 0, 0, 0, 6, 9, 8|];
Successor = [{4, 5, 8},
             {6, 10, 11, 15},
             {7, 9, 12, 13, 14},
             {5, 8},
             {},
             {15},
             {9, 12, 14},
             {},
             {},
             {11},
             {},
             {14},
             {},
             {},
             {}];
InitialSolution = [3, 2, 1, 7, 4, 6, 10, 12, 5, 8, 9, 11, 13, 14, 15];