numResources = 4;
numTasks = 15;
Duration = [7, 10, 7, 9, 50, 75, 200, 50, 75, 150, 200, 9, 2, 3, 8];
ResourceCapability = [19, 17, 20, 19];
ResourceRequirement = [|3, 9, 9, 3, 4, 7, 7, 2, 7, 3, 10, 2, 7, 4, 1
                       |8, 9, 4, 1, 9, 4, 1, 6, 10, 9, 6, 10, 5, 8, 6
                       |4, 9, 4, 8, 9, 9, 5, 2, 8, 7, 9, 9, 5, 6, 2
                       |4, 8, 2, 1, 6, 6, 9, 5, 7, 1, 10, 8, 4, 2, 8|];
Successor = [{4, 8, 11, 14, 15},
             {7, 9, 10},
             {5, 6, 12, 13, 14},
             {15},
             {},
             {12, 13, 14},
             {10},
             {11},
             {},
             {},
             {},
             {},
             {14},
             {},
             {}];
InitialSolution = [1, 3, 2, 6, 4, 7, 8, 13, 5, 9, 10, 11, 12, 14, 15];