numResources = 4;
numTasks = 15;
Duration = [3, 8, 5, 5, 25, 100, 50, 50, 50, 200, 175, 2, 6, 1, 2];
ResourceCapability = [15, 12, 12, 12];
ResourceRequirement = [|0, 0, 0, 0, 0, 2, 0, 0, 0, 10, 0, 7, 0, 0, 0
                       |10, 0, 4, 0, 7, 0, 0, 0, 0, 0, 1, 0, 0, 0, 0
                       |0, 0, 0, 9, 0, 0, 4, 0, 0, 0, 0, 0, 7, 10, 1
                       |0, 7, 0, 0, 0, 0, 0, 1, 10, 0, 0, 0, 0, 0, 0|];
Successor = [{4, 6, 9, 11, 12, 13, 14, 15},
             {4, 5, 6, 7, 8, 9, 10, 11, 12, 13, 14, 15},
             {9, 12, 13, 14, 15},
             {9, 12, 13, 14, 15},
             {7, 8, 10, 12, 13, 14, 15},
             {11},
             {8, 10, 12, 13, 14, 15},
             {10, 13, 14, 15},
             {12, 13, 14, 15},
             {},
             {},
             {13, 14},
             {14},
             {},
             {}];
InitialSolution = [2, 1, 5, 7, 3, 4, 8, 9, 12, 6, 13, 10, 11, 14, 15];