numResources = 4;
numTasks = 15;
Duration = [6, 4, 4, 10, 25, 100, 225, 75, 25, 200, 200, 5, 3, 9, 6];
ResourceCapability = [25, 26, 18, 23];
ResourceRequirement = [|0, 6, 0, 10, 7, 3, 0, 1, 6, 5, 0, 9, 0, 5, 5
                       |7, 3, 1, 7, 1, 7, 7, 10, 10, 2, 0, 4, 2, 5, 5
                       |0, 0, 7, 6, 7, 0, 0, 2, 1, 10, 7, 5, 0, 0, 9
                       |10, 7, 1, 0, 7, 3, 10, 9, 0, 10, 3, 5, 9, 10, 6|];
Successor = [{4, 5, 6, 7, 8, 10, 12, 13, 14, 15},
             {9, 11, 14, 15},
             {5, 7, 8, 10, 13, 14, 15},
             {6},
             {7, 8, 10, 13, 14, 15},
             {},
             {8, 10, 13, 14, 15},
             {15},
             {14, 15},
             {15},
             {},
             {},
             {14, 15},
             {15},
             {}];
InitialSolution = [1, 3, 5, 7, 2, 9, 13, 4, 8, 10, 14, 6, 11, 12, 15];