numResources = 4;
numTasks = 15;
Duration = [6, 4, 2, 1, 125, 25, 75, 125, 150, 150, 100, 1, 6, 5, 3];
ResourceCapability = [11, 11, 9, 11];
ResourceRequirement = [|0, 0, 0, 0, 2, 0, 0, 0, 8, 0, 7, 8, 0, 0, 0
                       |0, 0, 0, 0, 0, 0, 9, 8, 0, 0, 0, 0, 1, 0, 0
                       |7, 1, 0, 6, 0, 0, 0, 0, 0, 7, 0, 0, 0, 0, 5
                       |0, 0, 2, 0, 0, 6, 0, 0, 0, 0, 0, 0, 0, 2, 0|];
Successor = [{10, 11, 14},
             {4, 5, 6, 7, 8, 9, 11, 12, 13, 15},
             {},
             {5, 6, 8, 11, 12, 13},
             {6, 8, 12},
             {8, 12},
             {9},
             {12},
             {},
             {},
             {},
             {},
             {},
             {},
             {}];
InitialSolution = [2, 4, 1, 5, 6, 7, 8, 3, 9, 10, 11, 12, 13, 14, 15];