numResources = 4;
numTasks = 15;
Duration = [10, 9, 5, 1, 25, 225, 125, 225, 100, 200, 175, 2, 3, 1, 8];
ResourceCapability = [26, 23, 19, 26];
ResourceRequirement = [|8, 4, 2, 4, 4, 9, 6, 4, 9, 10, 9, 8, 4, 8, 9
                       |1, 6, 4, 1, 1, 7, 5, 3, 2, 10, 6, 2, 9, 7, 10
                       |10, 2, 10, 5, 3, 2, 1, 5, 9, 2, 10, 4, 6, 2, 1
                       |6, 9, 10, 3, 9, 4, 8, 5, 5, 9, 3, 4, 6, 2, 5|];
Successor = [{},
             {8, 9, 12},
             {4, 5, 6, 7, 10, 11, 13, 14, 15},
             {5, 13, 14},
             {13},
             {10, 11, 13, 15},
             {},
             {},
             {12},
             {13},
             {13, 15},
             {},
             {},
             {},
             {}];
InitialSolution = [3, 6, 2, 4, 11, 5, 9, 10, 1, 7, 8, 12, 13, 14, 15];