numResources = 4;
numTasks = 15;
Duration = [10, 1, 9, 3, 25, 175, 25, 100, 250, 150, 50, 3, 1, 3, 1];
ResourceCapability = [12, 10, 10, 12];
ResourceRequirement = [|0, 0, 4, 6, 3, 0, 0, 10, 0, 0, 0, 0, 0, 0, 0
                       |0, 0, 0, 0, 0, 4, 0, 0, 0, 0, 0, 7, 0, 0, 0
                       |0, 0, 0, 0, 0, 0, 0, 0, 0, 10, 0, 0, 3, 0, 10
                       |4, 10, 0, 0, 0, 0, 2, 0, 2, 0, 6, 0, 0, 6, 0|];
Successor = [{4, 6, 7, 8, 12, 13, 14, 15},
             {10, 13, 15},
             {5, 9, 11, 12, 15},
             {14, 15},
             {9, 11, 12},
             {8, 13},
             {12},
             {},
             {},
             {13, 15},
             {12},
             {},
             {},
             {15},
             {}];
InitialSolution = [1, 3, 2, 5, 4, 6, 10, 7, 11, 14, 8, 9, 12, 13, 15];