numResources = 4;
numTasks = 15;
Duration = [8, 2, 1, 8, 250, 125, 100, 100, 125, 25, 225, 10, 4, 3, 1];
ResourceCapability = [12, 12, 9, 9];
ResourceRequirement = [|4, 0, 0, 0, 0, 0, 2, 0, 3, 0, 4, 3, 3, 0, 0
                       |0, 9, 0, 9, 10, 0, 0, 0, 0, 0, 0, 0, 0, 0, 0
                       |0, 0, 0, 0, 0, 0, 0, 0, 0, 0, 0, 0, 0, 0, 0
                       |0, 0, 5, 0, 0, 6, 0, 9, 0, 2, 0, 0, 0, 8, 2|];
Successor = [{4, 5, 8, 9, 13, 14, 15},
             {6, 7, 9, 10, 11, 12, 13, 15},
             {7, 9, 10, 11, 12, 13, 15},
             {8, 9, 13, 15},
             {},
             {7, 9, 10, 11, 12, 13, 15},
             {9, 10, 11, 13, 15},
             {15},
             {},
             {11, 13},
             {13},
             {},
             {},
             {},
             {}];
InitialSolution = [2, 1, 3, 6, 7, 4, 10, 8, 11, 5, 9, 12, 13, 14, 15];