numResources = 4;
numTasks = 15;
Duration = [2, 3, 4, 4, 75, 125, 175, 175, 200, 50, 175, 2, 4, 10, 5];
ResourceCapability = [15, 9, 15, 18];
ResourceRequirement = [|0, 0, 10, 0, 0, 0, 0, 0, 5, 1, 8, 1, 0, 0, 0
                       |0, 0, 0, 0, 0, 9, 0, 0, 0, 0, 0, 0, 0, 0, 0
                       |0, 0, 0, 9, 0, 0, 0, 1, 0, 0, 0, 0, 0, 0, 0
                       |7, 8, 0, 0, 7, 0, 9, 0, 0, 0, 0, 0, 5, 9, 8|];
Successor = [{4, 5, 7, 8, 10, 12, 13, 14},
             {11, 14},
             {6, 7, 8, 9, 10, 11, 13, 15},
             {7},
             {8, 10, 13},
             {8, 9, 10, 11, 13, 15},
             {},
             {10, 13},
             {11},
             {13},
             {},
             {14},
             {},
             {},
             {}];
InitialSolution = [1, 3, 6, 5, 2, 8, 4, 9, 10, 12, 7, 11, 13, 14, 15];