numResources = 4;
numTasks = 15;
Duration = [8, 6, 6, 5, 225, 125, 175, 75, 25, 150, 150, 8, 2, 2, 2];
ResourceCapability = [23, 27, 25, 32];
ResourceRequirement = [|1, 6, 4, 4, 7, 4, 8, 3, 7, 5, 5, 1, 4, 7, 7
                       |3, 9, 7, 1, 10, 8, 4, 2, 6, 5, 6, 5, 4, 10, 8
                       |1, 2, 9, 1, 9, 2, 9, 4, 1, 5, 8, 2, 6, 9, 10
                       |10, 1, 7, 10, 3, 9, 5, 4, 7, 8, 9, 7, 1, 4, 9|];
Successor = [{13},
             {15},
             {4, 5, 6, 7, 8, 9, 10, 11, 12, 13, 14},
             {6, 9, 10, 11, 12, 13, 14},
             {},
             {9, 11, 13, 14},
             {8},
             {},
             {14},
             {},
             {13},
             {},
             {},
             {},
             {}];
InitialSolution = [3, 4, 6, 1, 2, 7, 9, 11, 5, 8, 10, 12, 13, 14, 15];