numResources = 4;
numTasks = 15;
Duration = [7, 4, 5, 1, 25, 50, 175, 100, 100, 225, 250, 7, 2, 4, 2];
ResourceCapability = [42, 48, 37, 37];
ResourceRequirement = [|9, 6, 2, 8, 2, 8, 3, 3, 10, 9, 4, 8, 9, 4, 8
                       |8, 5, 9, 6, 7, 3, 7, 10, 5, 3, 6, 9, 8, 5, 5
                       |5, 6, 4, 8, 5, 8, 2, 2, 5, 5, 10, 4, 9, 3, 9
                       |9, 7, 5, 6, 9, 8, 2, 3, 3, 7, 2, 2, 3, 3, 1|];
Successor = [{10, 11, 15},
             {9, 11, 13, 15},
             {4, 5, 6, 7, 8, 12, 14},
             {5, 12},
             {},
             {14},
             {8, 14},
             {14},
             {11, 13, 15},
             {11, 15},
             {15},
             {},
             {},
             {},
             {}];
InitialSolution = [3, 2, 1, 9, 4, 7, 10, 6, 8, 11, 5, 12, 13, 14, 15];