numResources = 4;
numTasks = 15;
Duration = [5, 5, 1, 4, 150, 75, 100, 100, 75, 200, 75, 3, 4, 9, 8];
ResourceCapability = [57, 48, 47, 47];
ResourceRequirement = [|10, 2, 6, 5, 7, 5, 1, 7, 2, 7, 3, 1, 2, 10, 10
                       |4, 4, 4, 4, 1, 10, 3, 5, 4, 7, 8, 7, 3, 3, 10
                       |6, 4, 7, 9, 9, 5, 7, 6, 2, 10, 5, 5, 5, 3, 2
                       |3, 10, 4, 8, 10, 9, 2, 9, 2, 8, 6, 4, 2, 2, 10|];
Successor = [{13, 14},
             {},
             {4, 5, 6, 7, 8, 9, 10, 11, 12, 14, 15},
             {5, 6, 7, 8, 9, 10, 11, 12, 15},
             {8},
             {7, 9, 11, 12, 15},
             {},
             {},
             {},
             {},
             {12, 15},
             {},
             {14},
             {},
             {}];
InitialSolution = [3, 4, 6, 1, 11, 5, 13, 2, 7, 8, 9, 10, 12, 14, 15];