numResources = 4;
numTasks = 15;
Duration = [6, 8, 5, 9, 175, 200, 250, 150, 25, 250, 150, 3, 6, 8, 2];
ResourceCapability = [24, 30, 25, 25];
ResourceRequirement = [|5, 6, 7, 9, 9, 7, 4, 7, 9, 7, 4, 6, 2, 2, 4
                       |7, 9, 10, 9, 8, 9, 9, 9, 2, 1, 7, 6, 5, 4, 4
                       |7, 5, 5, 10, 4, 2, 2, 10, 2, 8, 9, 1, 6, 1, 1
                       |2, 6, 9, 9, 5, 5, 9, 1, 6, 3, 6, 5, 3, 10, 8|];
Successor = [{4, 6, 7, 9, 13, 14, 15},
             {5, 8, 10, 11, 12, 15},
             {},
             {6, 9, 14},
             {8, 10, 12, 15},
             {9},
             {},
             {10, 12, 15},
             {},
             {12, 15},
             {},
             {15},
             {15},
             {},
             {}];
InitialSolution = [1, 2, 5, 4, 8, 10, 6, 12, 13, 3, 7, 9, 11, 14, 15];