numResources = 4;
numTasks = 15;
Duration = [9, 7, 1, 10, 200, 200, 50, 175, 75, 150, 25, 10, 9, 7, 7];
ResourceCapability = [10, 11, 9, 12];
ResourceRequirement = [|0, 0, 0, 0, 0, 0, 0, 10, 0, 0, 0, 0, 1, 0, 0
                       |0, 6, 5, 5, 0, 0, 6, 0, 8, 0, 7, 0, 0, 6, 0
                       |6, 0, 0, 0, 1, 1, 0, 0, 0, 0, 0, 0, 0, 0, 7
                       |0, 0, 0, 0, 0, 0, 0, 0, 0, 10, 0, 10, 0, 0, 0|];
Successor = [{4, 6, 13, 14},
             {12},
             {5, 6, 7, 8, 9, 10, 11, 12, 13, 14, 15},
             {14},
             {7, 8, 9, 10, 11, 12, 13, 14},
             {},
             {9, 10, 11, 14},
             {12, 13},
             {10, 14},
             {},
             {},
             {},
             {},
             {},
             {}];
InitialSolution = [3, 5, 1, 7, 8, 9, 2, 4, 6, 10, 11, 12, 13, 14, 15];