numResources = 4;
numTasks = 15;
Duration = [9, 8, 1, 6, 150, 125, 150, 200, 25, 150, 200, 2, 5, 5, 5];
ResourceCapability = [19, 30, 26, 24];
ResourceRequirement = [|3, 8, 2, 5, 7, 1, 3, 1, 4, 9, 2, 0, 0, 6, 0
                       |0, 7, 2, 0, 2, 0, 6, 0, 5, 7, 10, 7, 10, 8, 4
                       |1, 0, 5, 0, 1, 9, 1, 0, 2, 0, 5, 9, 8, 7, 7
                       |0, 0, 2, 10, 5, 3, 0, 9, 1, 1, 4, 2, 8, 7, 0|];
Successor = [{4, 6, 7, 10, 15},
             {5, 11, 13, 14},
             {8, 9, 12, 13, 14},
             {6, 10},
             {},
             {10},
             {},
             {12},
             {13, 14},
             {},
             {},
             {},
             {14},
             {},
             {}];
InitialSolution = [1, 3, 2, 4, 9, 6, 8, 13, 5, 7, 10, 11, 12, 14, 15];