numResources = 4;
numTasks = 15;
Duration = [9, 5, 9, 10, 200, 25, 250, 150, 75, 225, 250, 4, 2, 4, 10];
ResourceCapability = [20, 19, 23, 23];
ResourceRequirement = [|3, 0, 7, 4, 8, 9, 3, 4, 0, 4, 2, 6, 4, 0, 3
                       |7, 2, 5, 6, 4, 7, 0, 0, 7, 0, 0, 0, 10, 0, 6
                       |0, 10, 7, 10, 7, 1, 2, 3, 4, 4, 5, 5, 9, 4, 4
                       |10, 6, 0, 8, 8, 3, 4, 8, 0, 8, 2, 3, 5, 7, 0|];
Successor = [{4, 9, 10, 13, 14},
             {6, 12, 15},
             {5, 7, 8, 11, 13, 15},
             {14},
             {7, 11, 13},
             {},
             {13},
             {},
             {13},
             {},
             {},
             {15},
             {},
             {},
             {}];
InitialSolution = [3, 1, 2, 5, 4, 7, 9, 12, 6, 8, 10, 11, 13, 14, 15];