numResources = 4;
numTasks = 15;
Duration = [1, 1, 1, 7, 150, 100, 125, 200, 175, 200, 25, 2, 3, 10, 10];
ResourceCapability = [10, 8, 13, 12];
ResourceRequirement = [|0, 0, 8, 0, 0, 1, 0, 0, 0, 9, 7, 0, 0, 0, 3
                       |0, 3, 0, 0, 0, 0, 0, 0, 0, 0, 0, 3, 0, 7, 0
                       |0, 0, 0, 2, 0, 0, 10, 3, 0, 0, 0, 0, 0, 0, 0
                       |5, 0, 0, 0, 3, 0, 0, 0, 1, 0, 0, 0, 6, 0, 0|];
Successor = [{},
             {4, 5, 9, 15},
             {6, 7, 8, 10, 11, 12, 13, 14, 15},
             {9, 15},
             {},
             {7, 8, 10, 11, 12, 13, 14, 15},
             {13},
             {10, 15},
             {15},
             {},
             {12, 14, 15},
             {},
             {},
             {},
             {}];
InitialSolution = [3, 6, 2, 11, 4, 8, 7, 9, 1, 5, 10, 12, 13, 14, 15];