numResources = 4;
numTasks = 15;
Duration = [8, 3, 7, 2, 75, 150, 175, 225, 225, 75, 25, 2, 5, 2, 5];
ResourceCapability = [30, 27, 17, 21];
ResourceRequirement = [|7, 8, 9, 10, 1, 1, 9, 2, 7, 0, 0, 0, 2, 7, 7
                       |10, 6, 10, 0, 3, 10, 0, 3, 10, 5, 4, 1, 7, 3, 3
                       |3, 1, 0, 0, 2, 3, 3, 0, 5, 3, 7, 4, 0, 6, 6
                       |0, 2, 9, 8, 0, 9, 0, 0, 10, 6, 3, 8, 10, 8, 0|];
Successor = [{6, 9, 10, 12, 13, 14},
             {4, 5, 7, 8, 11, 13, 15},
             {},
             {},
             {7, 8, 11, 13, 15},
             {9, 10, 12, 14},
             {8, 11, 13, 15},
             {11, 13},
             {10, 12, 14},
             {12, 14},
             {13},
             {},
             {},
             {},
             {}];
InitialSolution = [2, 1, 5, 6, 7, 9, 8, 10, 11, 3, 4, 12, 13, 14, 15];