numResources = 4;
numTasks = 15;
Duration = [6, 5, 7, 7, 100, 225, 225, 125, 100, 50, 250, 7, 7, 1, 3];
ResourceCapability = [23, 23, 23, 20];
ResourceRequirement = [|1, 0, 0, 9, 0, 5, 6, 6, 5, 1, 0, 7, 5, 4, 5
                       |7, 0, 6, 8, 5, 0, 5, 0, 0, 10, 2, 0, 10, 1, 5
                       |6, 0, 9, 6, 7, 3, 0, 0, 9, 0, 7, 6, 0, 3, 1
                       |0, 4, 5, 0, 0, 5, 8, 1, 0, 5, 10, 8, 8, 3, 10|];
Successor = [{8, 10, 15},
             {4, 7, 9, 11, 14},
             {5, 6, 8, 9, 10, 12, 13, 14, 15},
             {},
             {6, 8, 10, 12, 13, 15},
             {8, 15},
             {11},
             {15},
             {14},
             {},
             {},
             {13},
             {},
             {},
             {}];
InitialSolution = [3, 5, 2, 1, 6, 7, 8, 9, 12, 4, 10, 11, 13, 14, 15];