numResources = 4;
numTasks = 15;
Duration = [10, 4, 3, 1, 125, 100, 150, 100, 100, 175, 50, 3, 5, 6, 10];
ResourceCapability = [13, 11, 11, 9];
ResourceRequirement = [|0, 0, 0, 6, 0, 0, 0, 5, 0, 10, 0, 3, 0, 0, 0
                       |0, 9, 0, 0, 0, 10, 0, 0, 0, 0, 0, 0, 0, 0, 9
                       |5, 0, 1, 0, 4, 0, 0, 0, 0, 0, 9, 0, 0, 8, 0
                       |0, 0, 0, 0, 0, 0, 7, 0, 8, 0, 0, 0, 3, 0, 0|];
Successor = [{6},
             {5},
             {4, 5, 7, 8, 9, 10, 11, 12, 13, 14, 15},
             {7, 9, 10, 11, 12, 14, 15},
             {},
             {},
             {9, 10, 11, 12, 14, 15},
             {13},
             {10, 11, 12, 15},
             {11, 12, 15},
             {15},
             {},
             {},
             {},
             {}];
InitialSolution = [3, 4, 7, 9, 10, 1, 2, 8, 11, 5, 6, 12, 13, 14, 15];