numResources = 4;
numTasks = 15;
Duration = [3, 8, 6, 3, 125, 200, 225, 25, 125, 225, 250, 3, 2, 10, 8];
ResourceCapability = [55, 63, 38, 63];
ResourceRequirement = [|2, 0, 4, 0, 6, 1, 10, 0, 7, 4, 8, 8, 2, 8, 10
                       |2, 2, 0, 0, 8, 6, 3, 9, 6, 3, 9, 10, 4, 7, 0
                       |0, 7, 0, 6, 0, 3, 6, 2, 0, 7, 6, 3, 2, 0, 3
                       |0, 1, 10, 7, 8, 7, 10, 4, 5, 0, 6, 6, 3, 5, 4|];
Successor = [{4, 5, 6, 8, 9, 10, 14, 15},
             {12},
             {7, 11, 13},
             {10, 14, 15},
             {8, 9},
             {},
             {},
             {},
             {},
             {15},
             {13},
             {},
             {},
             {},
             {}];
InitialSolution = [1, 3, 4, 5, 2, 10, 11, 6, 7, 8, 9, 12, 13, 14, 15];