numResources = 4;
numTasks = 15;
Duration = [7, 10, 3, 10, 125, 50, 250, 225, 225, 200, 50, 4, 8, 1, 1];
ResourceCapability = [10, 12, 5, 11];
ResourceRequirement = [|7, 0, 0, 0, 0, 0, 0, 0, 0, 0, 0, 0, 0, 0, 0
                       |0, 3, 0, 9, 0, 3, 0, 0, 0, 0, 1, 9, 1, 2, 0
                       |0, 0, 0, 0, 0, 0, 0, 0, 3, 2, 0, 0, 0, 0, 0
                       |0, 0, 10, 0, 4, 0, 7, 3, 0, 0, 0, 0, 0, 0, 8|];
Successor = [{4, 5, 6, 7, 8, 9, 10, 11, 12, 13, 14, 15},
             {},
             {},
             {5, 6, 7, 8, 9, 10, 11, 14, 15},
             {6, 8, 10, 14, 15},
             {},
             {9},
             {15},
             {},
             {14, 15},
             {14},
             {13},
             {},
             {},
             {}];
InitialSolution = [1, 4, 5, 10, 7, 8, 11, 12, 2, 3, 6, 9, 13, 14, 15];