numResources = 4;
numTasks = 15;
Duration = [5, 3, 7, 3, 100, 150, 175, 50, 250, 150, 125, 5, 8, 7, 7];
ResourceCapability = [12, 11, 11, 13];
ResourceRequirement = [|0, 0, 4, 0, 0, 8, 5, 7, 0, 0, 0, 2, 0, 4, 7
                       |0, 7, 0, 0, 9, 0, 0, 0, 3, 0, 0, 0, 6, 0, 0
                       |0, 0, 0, 6, 0, 0, 0, 0, 0, 5, 10, 0, 0, 0, 0
                       |8, 0, 0, 0, 0, 0, 0, 0, 0, 0, 0, 0, 0, 0, 0|];
Successor = [{5, 6, 9, 10, 11, 12, 13, 14},
             {},
             {4, 7, 8, 13, 15},
             {7, 8, 13, 15},
             {12, 13},
             {11},
             {8, 13, 15},
             {},
             {10, 14},
             {},
             {},
             {13},
             {},
             {},
             {}];
InitialSolution = [1, 3, 4, 7, 5, 9, 6, 12, 2, 8, 10, 11, 13, 14, 15];