numResources = 4;
numTasks = 15;
Duration = [1, 5, 7, 6, 50, 225, 100, 225, 175, 75, 250, 6, 9, 4, 5];
ResourceCapability = [15, 18, 11, 14];
ResourceRequirement = [|0, 0, 0, 0, 0, 0, 0, 9, 0, 0, 0, 0, 0, 0, 0
                       |0, 0, 0, 0, 0, 2, 2, 0, 0, 0, 0, 0, 0, 0, 0
                       |10, 0, 0, 9, 0, 0, 0, 0, 0, 0, 0, 8, 0, 3, 8
                       |0, 5, 3, 0, 7, 0, 0, 0, 2, 8, 1, 0, 2, 0, 0|];
Successor = [{4, 8, 12, 13, 14},
             {10, 13, 14, 15},
             {5, 6, 7, 8, 9, 11, 12, 14},
             {8, 12, 13, 14},
             {8, 11, 12, 14},
             {8, 12, 14},
             {9, 11, 14},
             {12, 14},
             {11},
             {14, 15},
             {},
             {14},
             {},
             {},
             {}];
InitialSolution = [3, 1, 2, 4, 5, 6, 7, 8, 10, 9, 12, 11, 13, 14, 15];