numResources = 4;
numTasks = 15;
Duration = [4, 1, 8, 8, 150, 50, 250, 25, 25, 125, 200, 6, 6, 4, 7];
ResourceCapability = [42, 39, 37, 46];
ResourceRequirement = [|4, 3, 5, 10, 5, 9, 1, 9, 4, 2, 5, 3, 9, 2, 3
                       |5, 4, 6, 2, 8, 9, 2, 2, 5, 2, 1, 1, 6, 5, 6
                       |6, 7, 4, 2, 5, 1, 1, 3, 8, 4, 3, 4, 2, 2, 3
                       |2, 6, 5, 2, 6, 8, 3, 5, 1, 10, 3, 6, 10, 6, 8|];
Successor = [{4, 6, 7, 8, 9, 13},
             {4, 5, 10, 11, 14, 15},
             {12, 15},
             {},
             {10, 14, 15},
             {7, 8, 9, 13},
             {},
             {13},
             {},
             {15},
             {},
             {15},
             {},
             {},
             {}];
InitialSolution = [1, 2, 6, 5, 3, 8, 10, 12, 4, 7, 9, 11, 13, 14, 15];