numResources = 4;
numTasks = 15;
Duration = [5, 1, 6, 8, 125, 25, 100, 250, 175, 75, 25, 10, 4, 4, 4];
ResourceCapability = [15, 20, 19, 16];
ResourceRequirement = [|0, 7, 9, 0, 0, 8, 0, 0, 0, 6, 0, 0, 0, 0, 0
                       |3, 0, 0, 0, 0, 0, 0, 0, 9, 0, 0, 0, 0, 7, 5
                       |0, 0, 0, 1, 0, 0, 1, 9, 0, 0, 5, 8, 2, 0, 0
                       |0, 0, 0, 0, 3, 0, 0, 0, 0, 0, 0, 0, 0, 0, 0|];
Successor = [{4, 6, 8, 10, 12, 15},
             {10},
             {5, 7, 9, 10, 11, 13, 14},
             {10, 15},
             {10},
             {8, 15},
             {9, 11, 14},
             {},
             {},
             {},
             {14},
             {},
             {},
             {},
             {}];
InitialSolution = [3, 1, 7, 4, 6, 2, 5, 11, 8, 9, 10, 12, 13, 14, 15];