numResources = 4;
numTasks = 15;
Duration = [1, 1, 8, 7, 50, 225, 225, 100, 250, 25, 75, 10, 3, 3, 10];
ResourceCapability = [23, 25, 28, 30];
ResourceRequirement = [|9, 9, 10, 9, 4, 9, 2, 4, 1, 10, 2, 2, 7, 7, 7
                       |2, 6, 9, 1, 5, 2, 1, 3, 9, 1, 9, 3, 8, 2, 6
                       |9, 3, 5, 7, 3, 6, 9, 6, 5, 2, 3, 9, 10, 2, 9
                       |3, 9, 7, 4, 5, 2, 9, 9, 9, 8, 9, 5, 6, 2, 2|];
Successor = [{},
             {4, 7, 8, 9, 11, 12, 13, 14, 15},
             {5, 6, 9, 10},
             {11, 15},
             {6, 9},
             {},
             {8, 9, 12, 14},
             {9, 12, 14},
             {},
             {},
             {15},
             {},
             {},
             {},
             {}];
InitialSolution = [2, 3, 7, 8, 4, 5, 11, 1, 6, 9, 10, 12, 13, 14, 15];