numResources = 4;
numTasks = 15;
Duration = [10, 9, 3, 5, 250, 100, 225, 75, 150, 50, 75, 2, 6, 8, 2];
ResourceCapability = [22, 23, 24, 30];
ResourceRequirement = [|2, 10, 3, 1, 10, 8, 1, 2, 8, 8, 7, 3, 4, 8, 9
                       |10, 10, 7, 1, 5, 6, 9, 9, 10, 9, 3, 2, 1, 7, 5
                       |7, 8, 5, 6, 6, 7, 5, 3, 3, 2, 8, 2, 6, 3, 7
                       |2, 8, 7, 5, 7, 10, 8, 6, 9, 7, 9, 10, 9, 8, 2|];
Successor = [{4, 5, 6, 8, 10, 12, 14, 15},
             {9, 11},
             {6, 7, 13, 14, 15},
             {5, 8, 10, 12, 15},
             {8, 10, 12, 15},
             {14, 15},
             {},
             {10, 15},
             {},
             {15},
             {},
             {},
             {},
             {},
             {}];
InitialSolution = [1, 3, 4, 5, 2, 6, 8, 10, 7, 9, 11, 12, 13, 14, 15];