numResources = 4;
numTasks = 15;
Duration = [9, 3, 1, 7, 100, 75, 150, 150, 75, 200, 150, 1, 9, 6, 3];
ResourceCapability = [10, 10, 15, 14];
ResourceRequirement = [|0, 9, 0, 0, 0, 0, 0, 0, 0, 3, 0, 0, 0, 10, 5
                       |4, 0, 4, 6, 0, 0, 0, 0, 0, 0, 0, 0, 0, 0, 0
                       |0, 0, 0, 0, 8, 1, 5, 9, 10, 0, 0, 0, 2, 0, 0
                       |0, 0, 0, 0, 0, 0, 0, 0, 0, 0, 2, 8, 0, 0, 0|];
Successor = [{7},
             {4, 8, 9, 10, 11, 12, 13, 14, 15},
             {5, 6, 14},
             {},
             {14},
             {},
             {},
             {9, 10, 11, 12, 13, 15},
             {10, 12, 13, 15},
             {12},
             {},
             {},
             {15},
             {},
             {}];
InitialSolution = [2, 8, 9, 3, 1, 5, 10, 13, 4, 6, 7, 11, 12, 14, 15];