numResources = 4;
numTasks = 15;
Duration = [2, 9, 3, 7, 50, 225, 200, 250, 125, 175, 100, 2, 2, 8, 10];
ResourceCapability = [33, 52, 35, 59];
ResourceRequirement = [|8, 1, 4, 10, 10, 5, 4, 3, 3, 4, 4, 4, 4, 2, 7
                       |1, 9, 7, 8, 10, 4, 9, 1, 7, 2, 6, 10, 5, 6, 1
                       |2, 1, 1, 7, 9, 5, 4, 2, 8, 2, 4, 10, 1, 4, 2
                       |4, 3, 9, 10, 2, 5, 3, 10, 9, 4, 7, 7, 8, 8, 6|];
Successor = [{4, 6, 7, 9, 11, 12, 15},
             {},
             {5, 8, 10, 13, 14},
             {6, 11},
             {13},
             {},
             {9, 12, 15},
             {10},
             {12, 15},
             {},
             {},
             {},
             {},
             {},
             {}];
InitialSolution = [1, 3, 7, 4, 9, 5, 8, 2, 6, 10, 11, 12, 13, 14, 15];