numResources = 4;
numTasks = 15;
Duration = [8, 6, 3, 7, 25, 100, 150, 75, 100, 100, 225, 10, 7, 9, 7];
ResourceCapability = [28, 25, 34, 42];
ResourceRequirement = [|0, 10, 0, 2, 0, 0, 3, 10, 1, 0, 0, 0, 1, 2, 3
                       |9, 2, 0, 0, 5, 7, 7, 1, 4, 0, 0, 0, 8, 0, 0
                       |7, 8, 10, 9, 10, 4, 0, 7, 0, 8, 9, 3, 0, 9, 6
                       |7, 5, 6, 8, 9, 6, 0, 3, 9, 0, 6, 1, 0, 3, 9|];
Successor = [{4, 5, 6, 8, 9, 10, 11, 13, 15},
             {7, 12, 15},
             {14},
             {5, 9, 10},
             {9},
             {8, 11, 13, 15},
             {},
             {},
             {},
             {},
             {13},
             {15},
             {},
             {},
             {}];
InitialSolution = [1, 6, 2, 4, 3, 5, 11, 12, 7, 8, 9, 10, 13, 14, 15];