numResources = 4;
numTasks = 15;
Duration = [10, 2, 5, 7, 50, 175, 225, 150, 75, 225, 225, 4, 10, 5, 6];
ResourceCapability = [25, 29, 37, 39];
ResourceRequirement = [|0, 6, 0, 2, 10, 0, 3, 7, 0, 0, 4, 7, 0, 1, 0
                       |6, 0, 8, 0, 5, 0, 5, 3, 9, 10, 0, 0, 0, 4, 4
                       |4, 6, 9, 7, 5, 3, 4, 8, 10, 1, 1, 6, 7, 0, 2
                       |0, 0, 5, 3, 10, 3, 8, 0, 1, 10, 7, 1, 5, 2, 6|];
Successor = [{4, 10},
             {5, 6, 7, 8, 9, 11, 12, 13, 14, 15},
             {14},
             {10},
             {7, 8, 11, 14},
             {12, 13, 15},
             {8},
             {},
             {},
             {},
             {14},
             {15},
             {},
             {},
             {}];
InitialSolution = [2, 5, 6, 1, 3, 4, 7, 11, 12, 8, 9, 10, 13, 14, 15];