numResources = 4;
numTasks = 15;
Duration = [2, 3, 6, 8, 75, 50, 50, 25, 200, 100, 75, 2, 7, 6, 8];
ResourceCapability = [8, 13, 11, 10];
ResourceRequirement = [|0, 0, 0, 8, 0, 0, 0, 0, 0, 0, 0, 0, 4, 0, 0
                       |10, 3, 0, 0, 6, 8, 9, 5, 10, 5, 0, 1, 0, 0, 0
                       |0, 0, 9, 0, 0, 0, 0, 0, 0, 0, 0, 0, 0, 5, 8
                       |0, 0, 0, 0, 0, 0, 0, 0, 0, 0, 5, 0, 0, 0, 0|];
Successor = [{4, 6, 7, 8, 9, 11, 12, 13, 14, 15},
             {5, 10, 12, 13},
             {},
             {7, 8, 9, 11, 14, 15},
             {10, 12, 13},
             {13},
             {},
             {14},
             {11, 15},
             {13},
             {15},
             {},
             {},
             {},
             {}];
InitialSolution = [1, 4, 2, 5, 9, 6, 8, 10, 11, 3, 7, 12, 13, 14, 15];