numResources = 4;
numTasks = 15;
Duration = [2, 1, 4, 10, 250, 25, 25, 100, 250, 75, 25, 2, 3, 10, 3];
ResourceCapability = [54, 45, 48, 38];
ResourceRequirement = [|9, 9, 4, 6, 10, 3, 6, 6, 1, 1, 10, 5, 10, 6, 5
                       |9, 9, 8, 10, 8, 2, 1, 2, 3, 4, 10, 4, 1, 2, 3
                       |4, 10, 6, 7, 9, 10, 7, 4, 6, 9, 9, 1, 2, 2, 1
                       |1, 5, 3, 2, 2, 6, 2, 9, 9, 2, 2, 3, 3, 4, 5|];
Successor = [{6, 11, 12, 14},
             {4, 5, 7, 8, 9, 10, 13, 15},
             {},
             {9},
             {10, 15},
             {14},
             {8, 13},
             {},
             {},
             {},
             {},
             {14},
             {},
             {},
             {}];
InitialSolution = [2, 1, 5, 7, 4, 6, 12, 3, 8, 9, 10, 11, 13, 14, 15];