numResources = 4;
numTasks = 15;
Duration = [10, 5, 7, 5, 100, 150, 50, 50, 125, 225, 25, 8, 6, 10, 9];
ResourceCapability = [17, 14, 16, 17];
ResourceRequirement = [|7, 0, 8, 1, 9, 4, 10, 0, 9, 0, 10, 9, 5, 7, 2
                       |9, 1, 5, 8, 10, 0, 3, 0, 1, 0, 8, 0, 5, 0, 10
                       |0, 8, 7, 0, 9, 2, 9, 1, 4, 8, 8, 6, 9, 3, 4
                       |10, 0, 1, 0, 6, 2, 5, 3, 0, 7, 0, 8, 0, 8, 2|];
Successor = [{5, 8, 10, 12},
             {4, 6, 7, 11, 13, 14, 15},
             {9, 10, 15},
             {6, 11, 14, 15},
             {},
             {11, 15},
             {11, 13, 15},
             {10},
             {10},
             {},
             {15},
             {},
             {15},
             {},
             {}];
InitialSolution = [2, 1, 4, 3, 7, 6, 8, 9, 11, 13, 5, 10, 12, 14, 15];