numResources = 4;
numTasks = 15;
Duration = [2, 10, 7, 9, 175, 50, 100, 50, 50, 250, 200, 8, 2, 6, 3];
ResourceCapability = [16, 27, 28, 16];
ResourceRequirement = [|0, 0, 3, 6, 0, 0, 1, 1, 0, 0, 10, 0, 0, 0, 3
                       |3, 8, 4, 4, 8, 5, 4, 2, 0, 6, 8, 0, 0, 0, 1
                       |0, 10, 10, 10, 1, 10, 0, 0, 2, 1, 4, 7, 0, 0, 0
                       |0, 3, 8, 0, 0, 3, 0, 0, 10, 1, 0, 1, 7, 3, 9|];
Successor = [{8, 10, 11, 13},
             {5, 12, 14, 15},
             {4, 6, 7, 9, 12, 15},
             {15},
             {12, 15},
             {12, 15},
             {9, 15},
             {10, 11, 13},
             {15},
             {},
             {},
             {15},
             {},
             {},
             {}];
InitialSolution = [3, 1, 2, 8, 5, 6, 7, 4, 9, 12, 10, 11, 13, 14, 15];