numResources = 4;
numTasks = 15;
Duration = [9, 5, 3, 3, 100, 125, 100, 225, 225, 200, 100, 5, 4, 6, 3];
ResourceCapability = [25, 21, 26, 21];
ResourceRequirement = [|0, 7, 0, 8, 3, 7, 6, 0, 6, 0, 1, 7, 9, 7, 7
                       |8, 0, 0, 3, 5, 3, 8, 6, 9, 4, 0, 9, 1, 9, 6
                       |5, 8, 7, 0, 2, 5, 2, 10, 8, 0, 10, 9, 2, 2, 3
                       |4, 7, 2, 4, 1, 10, 0, 9, 7, 7, 7, 3, 2, 8, 0|];
Successor = [{4, 6, 8, 9, 10, 11, 14},
             {4, 8},
             {5, 7, 9, 10, 11, 12, 13, 14, 15},
             {8},
             {7, 9, 10, 11, 12, 13, 14},
             {11},
             {10, 13, 14},
             {},
             {10, 11, 14},
             {},
             {},
             {},
             {},
             {},
             {}];
InitialSolution = [3, 1, 5, 7, 9, 2, 4, 6, 8, 10, 11, 12, 13, 14, 15];