numResources = 4;
numTasks = 15;
Duration = [7, 8, 9, 2, 225, 150, 150, 150, 125, 75, 175, 9, 9, 10, 1];
ResourceCapability = [14, 16, 15, 16];
ResourceRequirement = [|0, 4, 9, 1, 0, 0, 2, 0, 8, 0, 0, 3, 3, 0, 5
                       |9, 0, 6, 6, 3, 0, 3, 0, 0, 10, 5, 7, 6, 0, 0
                       |7, 8, 6, 3, 3, 3, 7, 7, 8, 2, 0, 0, 1, 8, 7
                       |3, 0, 8, 0, 10, 3, 3, 9, 7, 7, 3, 4, 6, 8, 9|];
Successor = [{4, 5, 6, 7, 12, 13, 14, 15},
             {8, 10, 11},
             {9, 15},
             {7, 12, 13, 14, 15},
             {12, 13, 14, 15},
             {14, 15},
             {},
             {},
             {15},
             {},
             {},
             {13, 14, 15},
             {15},
             {},
             {}];
InitialSolution = [1, 4, 5, 2, 12, 3, 6, 9, 13, 7, 8, 10, 11, 14, 15];