numResources = 4;
numTasks = 15;
Duration = [3, 8, 5, 7, 25, 200, 250, 50, 200, 250, 125, 1, 4, 1, 7];
ResourceCapability = [13, 8, 11, 19];
ResourceRequirement = [|0, 2, 0, 4, 0, 0, 0, 0, 1, 0, 0, 2, 0, 0, 0
                       |0, 0, 0, 0, 0, 0, 0, 1, 0, 0, 1, 0, 5, 0, 2
                       |7, 0, 0, 0, 8, 9, 0, 0, 0, 0, 0, 0, 0, 0, 0
                       |0, 0, 9, 0, 0, 0, 7, 0, 0, 7, 0, 0, 0, 1, 0|];
Successor = [{6, 7, 9, 10, 12, 13},
             {15},
             {4, 5, 8, 10, 11, 14},
             {5, 10, 11},
             {10},
             {9, 13},
             {10, 12},
             {14},
             {},
             {},
             {},
             {},
             {},
             {},
             {}];
InitialSolution = [1, 3, 4, 6, 7, 2, 5, 8, 9, 10, 11, 12, 13, 14, 15];