numResources = 4;
numTasks = 15;
Duration = [3, 3, 4, 1, 150, 100, 25, 50, 150, 200, 100, 3, 6, 2, 3];
ResourceCapability = [29, 29, 32, 30];
ResourceRequirement = [|1, 0, 5, 0, 0, 10, 1, 8, 3, 0, 5, 0, 4, 5, 9
                       |4, 0, 8, 0, 4, 7, 9, 2, 0, 6, 7, 2, 0, 8, 10
                       |5, 0, 5, 10, 3, 10, 0, 7, 0, 4, 3, 3, 4, 0, 10
                       |2, 9, 0, 10, 10, 7, 5, 0, 0, 0, 5, 4, 1, 4, 9|];
Successor = [{7, 8, 9, 11, 12, 13, 14},
             {5, 10, 15},
             {4, 6, 12, 14},
             {6},
             {10},
             {},
             {8, 9, 12, 13, 14},
             {9, 12, 14},
             {12, 14},
             {},
             {},
             {},
             {},
             {},
             {}];
InitialSolution = [1, 7, 3, 2, 8, 9, 4, 5, 6, 10, 11, 12, 13, 14, 15];