numResources = 4;
numTasks = 15;
Duration = [10, 2, 4, 7, 50, 225, 25, 50, 200, 75, 150, 4, 6, 6, 6];
ResourceCapability = [13, 12, 10, 14];
ResourceRequirement = [|1, 9, 0, 0, 8, 5, 0, 0, 0, 0, 0, 5, 0, 0, 8
                       |0, 0, 0, 0, 0, 0, 9, 0, 0, 4, 10, 0, 0, 0, 0
                       |0, 0, 0, 10, 0, 0, 0, 4, 0, 0, 0, 0, 10, 0, 0
                       |0, 0, 7, 0, 0, 0, 0, 0, 7, 0, 0, 0, 0, 7, 0|];
Successor = [{},
             {8, 9, 10, 15},
             {4, 5, 6, 7, 9, 11, 12, 13, 14, 15},
             {5, 7, 9, 11, 12, 14},
             {11, 12, 14},
             {13, 15},
             {},
             {},
             {},
             {15},
             {},
             {14},
             {},
             {},
             {}];
InitialSolution = [3, 4, 2, 5, 6, 10, 12, 1, 7, 8, 9, 11, 13, 14, 15];