numResources = 4;
numTasks = 15;
Duration = [4, 10, 1, 5, 100, 75, 225, 200, 25, 225, 100, 8, 8, 10, 5];
ResourceCapability = [22, 32, 14, 30];
ResourceRequirement = [|0, 0, 0, 1, 0, 6, 4, 4, 4, 0, 4, 3, 0, 7, 0
                       |5, 6, 0, 3, 9, 2, 1, 6, 0, 8, 1, 3, 0, 0, 10
                       |3, 0, 10, 0, 9, 0, 0, 0, 0, 0, 0, 1, 5, 0, 0
                       |0, 10, 8, 0, 0, 6, 0, 0, 3, 2, 10, 0, 8, 10, 0|];
Successor = [{8, 13, 14, 15},
             {4, 7, 9, 10, 12, 13},
             {5, 6, 8, 9, 11, 12, 13},
             {7, 9, 10, 12, 13},
             {6, 8, 9, 13},
             {8, 13},
             {9, 10, 12},
             {13},
             {},
             {},
             {12},
             {},
             {},
             {15},
             {}];
InitialSolution = [3, 2, 4, 1, 5, 7, 6, 8, 11, 14, 9, 10, 12, 13, 15];