numResources = 4;
numTasks = 15;
Duration = [3, 1, 3, 1, 150, 50, 225, 125, 200, 250, 50, 3, 5, 1, 7];
ResourceCapability = [18, 20, 18, 21];
ResourceRequirement = [|0, 0, 10, 2, 5, 1, 0, 0, 7, 0, 0, 8, 0, 0, 0
                       |0, 2, 5, 0, 3, 9, 6, 0, 4, 3, 6, 0, 6, 4, 0
                       |0, 0, 0, 2, 1, 3, 10, 6, 0, 0, 0, 9, 5, 0, 2
                       |9, 0, 9, 3, 0, 7, 0, 0, 1, 7, 7, 0, 0, 0, 7|];
Successor = [{9, 10, 14},
             {10, 12},
             {4, 5, 6, 7, 8, 9, 10, 11, 13, 15},
             {15},
             {7, 8, 11, 13, 15},
             {9, 10},
             {15},
             {13},
             {10},
             {},
             {15},
             {},
             {},
             {},
             {}];
InitialSolution = [3, 5, 1, 2, 6, 4, 7, 8, 9, 11, 10, 12, 13, 14, 15];