numResources = 4;
numTasks = 15;
Duration = [9, 5, 6, 1, 225, 225, 75, 250, 125, 125, 25, 2, 7, 1, 6];
ResourceCapability = [14, 12, 13, 13];
ResourceRequirement = [|4, 6, 5, 8, 2, 3, 5, 0, 6, 6, 0, 0, 0, 9, 9
                       |0, 0, 0, 0, 0, 0, 0, 9, 5, 7, 8, 5, 0, 7, 5
                       |0, 2, 10, 0, 0, 0, 2, 9, 0, 0, 9, 8, 0, 8, 2
                       |0, 0, 1, 3, 8, 6, 3, 0, 0, 2, 0, 0, 7, 0, 0|];
Successor = [{4, 5, 6, 10, 11, 12, 13, 14, 15},
             {7, 8, 9, 10, 13, 14},
             {14},
             {5, 10, 11, 12, 13, 14, 15},
             {10, 14, 15},
             {10, 12, 14},
             {13},
             {},
             {10, 14},
             {14},
             {13, 14},
             {},
             {},
             {},
             {}];
InitialSolution = [1, 4, 2, 5, 6, 9, 11, 3, 7, 10, 8, 12, 13, 14, 15];