numResources = 4;
numTasks = 15;
Duration = [10, 3, 7, 5, 125, 250, 125, 225, 100, 175, 250, 7, 8, 10, 5];
ResourceCapability = [14, 28, 20, 16];
ResourceRequirement = [|0, 0, 0, 0, 0, 2, 3, 0, 0, 9, 2, 0, 0, 0, 0
                       |8, 0, 0, 0, 0, 0, 0, 0, 0, 0, 0, 10, 7, 5, 9
                       |0, 0, 0, 0, 0, 0, 0, 6, 0, 0, 0, 0, 0, 0, 0
                       |0, 3, 5, 7, 7, 0, 0, 0, 2, 0, 0, 0, 0, 0, 0|];
Successor = [{8, 12, 13, 14, 15},
             {5, 7, 10, 11, 12, 14},
             {4, 6, 9},
             {},
             {7, 11, 12, 14},
             {},
             {11, 12},
             {12, 14, 15},
             {},
             {},
             {},
             {},
             {},
             {},
             {}];
InitialSolution = [2, 1, 5, 3, 8, 7, 4, 6, 9, 10, 11, 12, 13, 14, 15];