numResources = 4;
numTasks = 15;
Duration = [9, 7, 8, 6, 100, 50, 50, 100, 200, 150, 125, 2, 6, 1, 2];
ResourceCapability = [41, 39, 27, 30];
ResourceRequirement = [|10, 8, 8, 1, 7, 9, 9, 9, 0, 0, 1, 10, 6, 0, 5
                       |7, 0, 0, 9, 0, 0, 2, 3, 10, 1, 3, 10, 0, 5, 5
                       |0, 1, 5, 0, 10, 10, 10, 10, 6, 0, 0, 1, 7, 5, 0
                       |7, 7, 4, 5, 6, 5, 8, 2, 5, 5, 4, 9, 0, 8, 4|];
Successor = [{5, 6, 7, 8, 9, 10, 12, 13, 14, 15},
             {11, 14},
             {4, 5, 9, 12, 13, 14, 15},
             {},
             {9, 12, 13, 14, 15},
             {7, 8, 10, 13},
             {8, 10, 13},
             {13},
             {14, 15},
             {13},
             {},
             {13},
             {},
             {},
             {}];
InitialSolution = [1, 3, 5, 6, 7, 2, 9, 8, 10, 12, 4, 11, 13, 14, 15];