numResources = 4;
numTasks = 15;
Duration = [10, 3, 9, 2, 250, 100, 150, 75, 200, 150, 150, 2, 8, 3, 9];
ResourceCapability = [18, 16, 15, 18];
ResourceRequirement = [|0, 5, 6, 3, 2, 6, 1, 10, 7, 0, 9, 8, 9, 9, 2
                       |0, 7, 7, 5, 0, 8, 1, 0, 4, 8, 0, 3, 4, 10, 10
                       |2, 10, 4, 0, 5, 1, 5, 7, 0, 5, 0, 9, 1, 0, 0
                       |2, 7, 0, 1, 4, 9, 1, 8, 9, 0, 0, 6, 2, 7, 4|];
Successor = [{6, 7, 9, 10, 11, 12, 13, 14, 15},
             {8, 13, 15},
             {4, 5, 6, 9, 10, 11, 12, 13, 15},
             {6, 9, 10, 11, 12, 13, 15},
             {},
             {9, 10, 11, 12, 13, 15},
             {12},
             {13},
             {15},
             {11, 12},
             {12},
             {},
             {},
             {},
             {}];
InitialSolution = [1, 3, 4, 6, 2, 10, 7, 8, 9, 11, 5, 12, 13, 14, 15];