numResources = 4;
numTasks = 15;
Duration = [1, 7, 6, 7, 100, 250, 100, 150, 225, 150, 225, 4, 8, 7, 3];
ResourceCapability = [14, 12, 14, 13];
ResourceRequirement = [|6, 2, 0, 9, 0, 0, 7, 1, 0, 5, 0, 3, 4, 5, 5
                       |1, 2, 0, 4, 0, 1, 2, 1, 8, 1, 10, 0, 1, 2, 4
                       |0, 8, 4, 3, 1, 2, 4, 5, 1, 1, 1, 5, 7, 0, 10
                       |9, 7, 10, 4, 8, 2, 5, 3, 5, 4, 9, 2, 1, 3, 8|];
Successor = [{8, 10, 12, 13},
             {5, 6, 11},
             {4, 7, 9, 10, 11, 12, 13, 14, 15},
             {7, 9, 10, 12, 13, 14, 15},
             {6, 11},
             {11},
             {14},
             {10, 12, 13},
             {12, 13, 15},
             {13},
             {},
             {13},
             {},
             {},
             {}];
InitialSolution = [3, 4, 1, 2, 8, 9, 5, 6, 7, 10, 12, 11, 13, 14, 15];