numResources = 4;
numTasks = 15;
Duration = [6, 6, 10, 1, 175, 250, 125, 150, 100, 200, 200, 10, 3, 6, 3];
ResourceCapability = [16, 22, 21, 16];
ResourceRequirement = [|5, 0, 0, 10, 4, 0, 3, 0, 7, 0, 9, 6, 6, 0, 3
                       |0, 0, 8, 7, 0, 0, 7, 10, 0, 1, 0, 10, 0, 10, 9
                       |0, 0, 4, 0, 0, 6, 10, 8, 3, 0, 0, 0, 4, 10, 0
                       |8, 9, 0, 0, 7, 6, 0, 0, 0, 5, 9, 0, 6, 7, 0|];
Successor = [{12, 15},
             {10},
             {4, 5, 6, 7, 8, 9, 11, 12, 13, 14, 15},
             {5, 6, 7, 8, 9, 11, 12, 14, 15},
             {6, 7, 8, 14, 15},
             {14, 15},
             {},
             {14, 15},
             {11, 12, 15},
             {},
             {},
             {},
             {},
             {15},
             {}];
InitialSolution = [3, 4, 5, 9, 1, 6, 8, 2, 14, 7, 10, 11, 12, 13, 15];