numResources = 4;
numTasks = 15;
Duration = [3, 2, 9, 3, 250, 50, 50, 250, 125, 50, 125, 3, 4, 8, 3];
ResourceCapability = [14, 12, 18, 10];
ResourceRequirement = [|3, 3, 8, 0, 0, 2, 10, 0, 0, 0, 0, 7, 5, 0, 8
                       |0, 0, 0, 0, 0, 0, 0, 0, 0, 0, 9, 0, 0, 0, 0
                       |0, 0, 0, 3, 0, 0, 0, 4, 3, 4, 0, 0, 0, 6, 0
                       |0, 0, 0, 0, 6, 0, 0, 0, 0, 0, 0, 0, 0, 0, 0|];
Successor = [{5, 6, 10, 11, 13, 15},
             {4, 7, 8, 9, 12, 13, 14},
             {},
             {7, 8, 9, 12, 14},
             {6, 10, 11, 13, 15},
             {},
             {8, 9, 12, 14},
             {9},
             {},
             {11, 15},
             {},
             {},
             {},
             {},
             {}];
InitialSolution = [2, 1, 4, 5, 7, 10, 8, 3, 6, 9, 11, 12, 13, 14, 15];