numResources = 4;
numTasks = 15;
Duration = [6, 6, 9, 6, 125, 25, 225, 200, 75, 225, 75, 3, 3, 7, 3];
ResourceCapability = [15, 17, 17, 14];
ResourceRequirement = [|1, 1, 8, 1, 3, 10, 5, 5, 10, 2, 10, 5, 2, 5, 6
                       |8, 1, 8, 7, 8, 5, 1, 1, 6, 7, 8, 8, 3, 5, 2
                       |10, 5, 8, 7, 5, 2, 9, 9, 1, 7, 4, 7, 9, 6, 1
                       |9, 4, 3, 7, 2, 10, 9, 4, 2, 6, 3, 1, 10, 7, 3|];
Successor = [{4, 6, 7, 8, 12, 13, 15},
             {5, 9, 10, 11, 12, 13, 14},
             {},
             {6},
             {9, 11, 12, 13, 14},
             {},
             {12},
             {12, 13, 15},
             {11, 12, 13, 14},
             {},
             {12, 13, 14},
             {},
             {},
             {},
             {}];
InitialSolution = [1, 2, 5, 9, 8, 11, 4, 7, 3, 6, 10, 12, 13, 14, 15];