numResources = 4;
numTasks = 15;
Duration = [6, 8, 7, 4, 100, 200, 250, 250, 100, 225, 75, 9, 8, 7, 1];
ResourceCapability = [20, 34, 29, 31];
ResourceRequirement = [|2, 2, 2, 1, 0, 7, 5, 5, 9, 0, 1, 7, 3, 0, 0
                       |0, 10, 0, 3, 0, 0, 10, 0, 9, 10, 7, 1, 0, 10, 1
                       |8, 3, 4, 2, 7, 3, 8, 0, 10, 8, 9, 9, 4, 0, 9
                       |5, 0, 2, 9, 0, 3, 8, 4, 8, 2, 2, 9, 0, 10, 4|];
Successor = [{4, 7, 9, 11, 14},
             {5, 7, 8, 10, 11, 12, 13, 15},
             {6, 7, 8, 11, 12, 13},
             {7, 9, 11},
             {7},
             {7, 8, 11, 12, 13},
             {},
             {11, 12, 13},
             {11},
             {15},
             {},
             {},
             {},
             {},
             {}];
InitialSolution = [2, 3, 1, 6, 4, 8, 5, 9, 10, 7, 11, 12, 13, 14, 15];