numResources = 4;
numTasks = 15;
Duration = [2, 2, 8, 1, 150, 250, 125, 25, 75, 100, 250, 8, 1, 8, 6];
ResourceCapability = [24, 25, 28, 23];
ResourceRequirement = [|10, 1, 3, 9, 3, 0, 0, 8, 5, 9, 10, 0, 2, 3, 6
                       |6, 2, 6, 8, 0, 2, 0, 8, 0, 1, 4, 3, 1, 9, 5
                       |4, 7, 2, 5, 0, 0, 4, 0, 0, 10, 4, 1, 1, 0, 9
                       |0, 0, 1, 5, 7, 1, 2, 6, 0, 8, 6, 2, 0, 2, 3|];
Successor = [{8, 10, 11},
             {6, 7, 8, 9, 12, 13, 14, 15},
             {4, 5, 9, 12, 14, 15},
             {5},
             {},
             {7, 8, 13},
             {8, 13},
             {},
             {12, 14, 15},
             {},
             {},
             {14},
             {},
             {},
             {}];
InitialSolution = [2, 3, 1, 6, 9, 7, 4, 12, 5, 8, 10, 11, 13, 14, 15];