numResources = 4;
numTasks = 15;
Duration = [1, 6, 5, 6, 150, 150, 175, 25, 100, 25, 100, 3, 2, 7, 7];
ResourceCapability = [33, 33, 22, 28];
ResourceRequirement = [|4, 4, 4, 9, 8, 6, 9, 7, 6, 0, 0, 2, 4, 6, 3
                       |0, 3, 6, 3, 7, 8, 9, 7, 7, 7, 2, 8, 10, 0, 3
                       |7, 2, 1, 4, 0, 3, 0, 9, 10, 7, 8, 9, 1, 2, 3
                       |0, 0, 2, 10, 10, 7, 4, 4, 0, 2, 8, 10, 2, 0, 7|];
Successor = [{4, 5, 6, 7, 8, 9, 11, 12, 14},
             {6, 9, 11, 12, 15},
             {8, 10, 11, 13},
             {6, 8, 9, 11, 12, 14},
             {8, 11},
             {9, 12},
             {},
             {11},
             {12},
             {13},
             {},
             {},
             {},
             {},
             {}];
InitialSolution = [1, 4, 2, 3, 5, 6, 8, 9, 10, 7, 11, 12, 13, 14, 15];