numResources = 4;
numTasks = 15;
Duration = [7, 6, 5, 10, 225, 175, 250, 50, 225, 250, 75, 2, 8, 5, 8];
ResourceCapability = [14, 12, 11, 12];
ResourceRequirement = [|0, 10, 0, 5, 0, 8, 0, 0, 0, 0, 8, 0, 7, 5, 2
                       |0, 0, 0, 0, 9, 0, 9, 0, 2, 0, 0, 9, 0, 9, 1
                       |0, 3, 8, 0, 0, 1, 0, 0, 2, 3, 1, 1, 10, 0, 3
                       |7, 0, 5, 0, 5, 0, 2, 9, 0, 4, 9, 0, 0, 2, 0|];
Successor = [{4, 5, 6, 10, 13, 14, 15},
             {7, 8, 9, 10, 11, 12},
             {7, 8, 9, 10, 11, 12},
             {5, 6, 10, 14, 15},
             {10},
             {14, 15},
             {8, 9, 10, 12},
             {9, 12},
             {12},
             {},
             {},
             {},
             {},
             {},
             {}];
InitialSolution = [1, 2, 3, 4, 7, 6, 8, 5, 9, 10, 11, 12, 13, 14, 15];