numResources = 4;
numTasks = 15;
Duration = [10, 9, 3, 5, 125, 25, 25, 125, 125, 150, 100, 10, 4, 10, 1];
ResourceCapability = [9, 25, 17, 15];
ResourceRequirement = [|0, 2, 0, 3, 0, 0, 0, 0, 0, 0, 6, 0, 0, 0, 0
                       |9, 0, 6, 0, 0, 0, 7, 0, 5, 0, 0, 0, 4, 0, 0
                       |0, 0, 0, 0, 4, 4, 0, 10, 0, 3, 0, 0, 0, 0, 5
                       |0, 0, 0, 0, 0, 0, 0, 0, 0, 0, 0, 7, 0, 7, 0|];
Successor = [{14, 15},
             {4, 6, 7, 8, 9, 10, 11, 12, 14, 15},
             {5, 8, 9, 10, 13, 15},
             {9, 15},
             {8, 9, 10, 13, 15},
             {12},
             {8, 10, 11, 12, 14},
             {10},
             {15},
             {},
             {12, 14},
             {},
             {},
             {},
             {}];
InitialSolution = [2, 3, 5, 7, 1, 4, 11, 6, 8, 9, 10, 12, 13, 14, 15];