numResources = 4;
numTasks = 15;
Duration = [2, 9, 8, 7, 175, 150, 75, 100, 50, 75, 150, 7, 3, 2, 1];
ResourceCapability = [20, 7, 16, 13];
ResourceRequirement = [|8, 7, 5, 0, 2, 1, 0, 10, 0, 0, 2, 0, 10, 3, 0
                       |0, 0, 0, 0, 0, 0, 0, 0, 0, 0, 0, 0, 0, 0, 7
                       |0, 0, 0, 2, 0, 0, 0, 0, 6, 0, 0, 0, 0, 0, 0
                       |0, 0, 0, 0, 0, 0, 6, 0, 0, 8, 0, 6, 0, 0, 0|];
Successor = [{4, 7, 12, 15},
             {5, 6, 7, 9, 10, 14},
             {8, 11, 13, 14},
             {7, 15},
             {6, 7, 9},
             {9},
             {},
             {},
             {},
             {14},
             {14},
             {},
             {},
             {},
             {}];
InitialSolution = [2, 1, 3, 5, 4, 6, 10, 11, 7, 8, 9, 12, 13, 14, 15];