numResources = 4;
numTasks = 15;
Duration = [4, 4, 4, 7, 150, 25, 175, 100, 75, 75, 125, 7, 6, 7, 6];
ResourceCapability = [14, 12, 12, 13];
ResourceRequirement = [|0, 5, 0, 0, 9, 5, 0, 0, 6, 4, 7, 0, 9, 4, 0
                       |9, 9, 2, 5, 4, 8, 4, 6, 8, 0, 0, 0, 4, 1, 6
                       |4, 3, 0, 0, 2, 0, 2, 5, 2, 7, 10, 0, 2, 0, 10
                       |2, 8, 9, 3, 4, 2, 4, 1, 0, 8, 2, 3, 5, 0, 8|];
Successor = [{4, 6, 7, 8, 9, 11, 12, 13, 14, 15},
             {7, 12, 15},
             {5, 8, 9, 10, 11, 12, 14, 15},
             {6, 7, 8, 9, 11, 12, 14, 15},
             {9, 12, 14},
             {8, 9, 11, 14},
             {12, 15},
             {11, 14},
             {14},
             {15},
             {14},
             {},
             {15},
             {},
             {}];
InitialSolution = [1, 3, 4, 6, 2, 5, 7, 8, 9, 10, 11, 13, 12, 14, 15];