numResources = 4;
numTasks = 15;
Duration = [4, 3, 10, 4, 225, 50, 200, 150, 200, 125, 25, 3, 3, 1, 5];
ResourceCapability = [24, 17, 28, 29];
ResourceRequirement = [|5, 0, 7, 10, 3, 0, 0, 3, 10, 9, 0, 3, 0, 8, 10
                       |0, 0, 0, 0, 2, 0, 8, 0, 0, 3, 2, 0, 1, 0, 0
                       |0, 0, 0, 0, 7, 3, 1, 0, 9, 5, 9, 0, 0, 0, 7
                       |0, 3, 1, 10, 4, 0, 0, 0, 7, 4, 0, 10, 2, 0, 0|];
Successor = [{8},
             {6, 10, 12, 14},
             {4, 5, 7, 9, 11, 13, 14, 15},
             {7, 9, 11, 13, 14, 15},
             {15},
             {},
             {15},
             {},
             {13},
             {14},
             {14},
             {},
             {},
             {},
             {}];
InitialSolution = [3, 4, 2, 1, 5, 7, 9, 10, 11, 6, 8, 12, 13, 14, 15];