numResources = 4;
numTasks = 15;
Duration = [10, 8, 6, 6, 75, 200, 25, 150, 50, 200, 50, 10, 3, 2, 7];
ResourceCapability = [11, 13, 15, 14];
ResourceRequirement = [|0, 0, 0, 0, 9, 0, 0, 0, 0, 0, 0, 0, 5, 8, 3
                       |10, 0, 5, 10, 0, 0, 1, 0, 0, 0, 0, 0, 0, 0, 8
                       |2, 0, 6, 0, 2, 0, 0, 4, 7, 9, 4, 8, 0, 2, 9
                       |10, 1, 9, 0, 1, 8, 4, 0, 5, 10, 0, 0, 7, 0, 0|];
Successor = [{4, 5, 8, 9, 10, 11, 12, 13, 15},
             {6, 7, 14, 15},
             {},
             {5, 9, 10, 12, 15},
             {},
             {},
             {14},
             {11, 12, 13, 15},
             {12, 15},
             {},
             {12, 15},
             {15},
             {},
             {},
             {}];
InitialSolution = [1, 4, 2, 8, 9, 11, 7, 12, 3, 5, 6, 10, 13, 14, 15];