numResources = 4;
numTasks = 15;
Duration = [1, 5, 7, 10, 25, 125, 25, 125, 225, 75, 175, 4, 2, 7, 6];
ResourceCapability = [12, 24, 19, 19];
ResourceRequirement = [|2, 2, 6, 0, 0, 0, 6, 0, 0, 1, 2, 0, 7, 4, 0
                       |0, 8, 7, 0, 8, 5, 0, 3, 0, 9, 10, 0, 10, 7, 7
                       |9, 3, 0, 1, 0, 0, 0, 1, 0, 7, 0, 3, 0, 3, 9
                       |0, 0, 0, 0, 0, 0, 6, 0, 10, 0, 8, 0, 0, 1, 0|];
Successor = [{10, 13},
             {4, 6, 11, 12, 14, 15},
             {5, 7, 8, 9, 10, 12, 13},
             {},
             {9, 12},
             {11, 12, 15},
             {12},
             {10, 13},
             {},
             {13},
             {12},
             {},
             {},
             {15},
             {}];
InitialSolution = [3, 2, 6, 1, 5, 8, 7, 10, 11, 14, 4, 9, 12, 13, 15];