numResources = 4;
numTasks = 15;
Duration = [6, 4, 6, 6, 50, 75, 225, 225, 225, 50, 50, 3, 8, 9, 10];
ResourceCapability = [21, 18, 23, 21];
ResourceRequirement = [|1, 0, 8, 2, 3, 0, 8, 1, 4, 2, 8, 2, 3, 7, 5
                       |6, 6, 10, 1, 0, 0, 0, 4, 8, 9, 6, 6, 7, 5, 0
                       |5, 3, 10, 2, 0, 4, 5, 2, 0, 0, 1, 10, 0, 7, 0
                       |3, 6, 2, 1, 3, 0, 8, 0, 6, 9, 8, 8, 6, 0, 6|];
Successor = [{4},
             {6, 7, 8, 9, 10, 11, 12, 13, 14, 15},
             {5, 11},
             {},
             {},
             {7, 8, 9, 10, 13, 14, 15},
             {15},
             {10},
             {13, 14},
             {},
             {},
             {14},
             {14},
             {},
             {}];
InitialSolution = [2, 6, 3, 9, 1, 7, 8, 12, 13, 4, 5, 10, 11, 14, 15];