numResources = 4;
numTasks = 15;
Duration = [9, 8, 3, 9, 25, 125, 125, 100, 225, 250, 50, 1, 1, 8, 8];
ResourceCapability = [16, 28, 25, 16];
ResourceRequirement = [|0, 0, 10, 0, 4, 6, 0, 0, 0, 1, 8, 6, 0, 0, 6
                       |0, 1, 0, 0, 3, 0, 0, 0, 5, 0, 0, 2, 9, 10, 0
                       |1, 0, 1, 1, 6, 0, 2, 0, 10, 10, 0, 0, 0, 3, 7
                       |7, 0, 0, 6, 0, 0, 0, 4, 10, 2, 0, 0, 0, 0, 0|];
Successor = [{5, 8, 13, 14, 15},
             {6, 7, 9, 10, 11, 12, 14},
             {4, 9, 11, 14},
             {9, 11, 14},
             {15},
             {10, 12},
             {12, 14},
             {},
             {11, 14},
             {12},
             {14},
             {},
             {14},
             {},
             {}];
InitialSolution = [2, 1, 3, 4, 6, 7, 9, 5, 10, 11, 13, 8, 12, 14, 15];