numResources = 4;
numTasks = 15;
Duration = [10, 10, 10, 5, 150, 125, 250, 25, 50, 25, 125, 7, 10, 1, 9];
ResourceCapability = [16, 14, 15, 13];
ResourceRequirement = [|9, 3, 6, 5, 1, 2, 9, 4, 2, 6, 9, 9, 6, 1, 3
                       |9, 9, 5, 1, 7, 7, 9, 6, 7, 5, 3, 3, 2, 7, 8
                       |8, 5, 5, 6, 6, 7, 3, 1, 9, 9, 10, 7, 7, 5, 4
                       |4, 10, 9, 7, 6, 3, 2, 9, 3, 2, 4, 8, 3, 8, 10|];
Successor = [{6, 12, 15},
             {13, 15},
             {4, 5, 6, 7, 8, 9, 10, 11, 13, 14, 15},
             {5, 6, 8, 13, 15},
             {6, 13, 15},
             {15},
             {9, 10, 11, 13, 14, 15},
             {},
             {10, 11, 14},
             {11, 14},
             {},
             {15},
             {15},
             {},
             {}];
InitialSolution = [3, 7, 4, 1, 5, 9, 2, 10, 6, 12, 13, 8, 11, 14, 15];