numResources = 4;
numTasks = 15;
Duration = [1, 9, 5, 6, 100, 225, 175, 100, 200, 250, 100, 10, 2, 8, 9];
ResourceCapability = [13, 14, 13, 13];
ResourceRequirement = [|0, 0, 0, 0, 2, 5, 0, 0, 0, 2, 2, 0, 9, 0, 0
                       |5, 8, 10, 6, 0, 0, 0, 0, 1, 0, 0, 7, 0, 7, 5
                       |7, 5, 0, 10, 0, 4, 7, 10, 0, 0, 0, 5, 0, 0, 0
                       |7, 4, 8, 2, 10, 0, 0, 0, 0, 8, 0, 0, 0, 1, 0|];
Successor = [{9, 10, 11, 14, 15},
             {4, 5, 6, 7, 8, 10, 11, 12, 13, 15},
             {},
             {5, 6, 8, 10, 12, 13, 15},
             {13},
             {12, 15},
             {},
             {10},
             {11},
             {},
             {},
             {},
             {},
             {15},
             {}];
InitialSolution = [2, 4, 1, 6, 5, 8, 9, 14, 3, 7, 10, 11, 12, 13, 15];