numResources = 4;
numTasks = 15;
Duration = [2, 2, 7, 5, 225, 225, 75, 250, 250, 150, 75, 7, 5, 8, 1];
ResourceCapability = [28, 37, 35, 24];
ResourceRequirement = [|5, 0, 10, 8, 3, 0, 3, 0, 6, 8, 5, 10, 0, 4, 3
                       |8, 10, 10, 6, 0, 8, 10, 3, 5, 0, 8, 6, 5, 8, 2
                       |10, 6, 5, 5, 8, 5, 6, 0, 0, 5, 2, 0, 6, 8, 0
                       |6, 7, 0, 0, 6, 0, 7, 4, 0, 2, 4, 7, 7, 0, 4|];
Successor = [{5, 6, 8, 9, 10, 11, 12, 13, 14},
             {7, 9, 10, 12, 13, 14},
             {4, 13, 15},
             {13},
             {6, 8, 9, 10, 12, 13, 14},
             {},
             {12, 13},
             {9, 10, 14},
             {},
             {14},
             {},
             {13},
             {},
             {},
             {}];
InitialSolution = [1, 5, 2, 3, 8, 7, 4, 10, 12, 6, 9, 11, 13, 14, 15];