numResources = 4;
numTasks = 15;
Duration = [7, 4, 1, 5, 175, 225, 200, 125, 150, 250, 50, 10, 4, 7, 5];
ResourceCapability = [14, 15, 15, 15];
ResourceRequirement = [|1, 9, 3, 5, 2, 1, 8, 2, 9, 5, 7, 4, 1, 10, 1
                       |6, 1, 4, 7, 9, 5, 6, 9, 5, 9, 5, 1, 1, 8, 7
                       |4, 3, 8, 4, 1, 6, 8, 2, 10, 3, 5, 8, 9, 6, 6
                       |9, 9, 5, 8, 7, 7, 3, 10, 7, 1, 8, 3, 7, 5, 10|];
Successor = [{9, 10},
             {4, 5, 6, 7, 8, 9, 11, 13, 14, 15},
             {10, 11, 12, 13},
             {6, 11, 13},
             {9},
             {11, 13},
             {8, 9, 13, 14, 15},
             {9, 15},
             {},
             {},
             {13},
             {13},
             {},
             {},
             {}];
InitialSolution = [2, 7, 3, 4, 1, 6, 8, 5, 11, 12, 9, 10, 13, 14, 15];