numResources = 4;
numTasks = 15;
Duration = [4, 4, 1, 2, 100, 25, 175, 225, 150, 50, 75, 9, 3, 4, 5];
ResourceCapability = [16, 9, 10, 21];
ResourceRequirement = [|0, 0, 0, 9, 0, 0, 0, 9, 8, 0, 4, 0, 0, 0, 0
                       |0, 0, 0, 0, 0, 0, 0, 0, 0, 7, 0, 0, 1, 0, 6
                       |0, 4, 0, 0, 0, 0, 0, 0, 0, 0, 0, 0, 0, 0, 0
                       |5, 0, 4, 0, 7, 2, 4, 0, 0, 0, 0, 9, 0, 7, 0|];
Successor = [{5, 9, 12, 15},
             {4, 6, 7, 10, 11, 14},
             {8, 13},
             {7, 14},
             {9},
             {10, 14},
             {},
             {13},
             {},
             {14},
             {},
             {15},
             {},
             {},
             {}];
InitialSolution = [2, 1, 3, 4, 6, 5, 8, 10, 12, 7, 9, 11, 13, 14, 15];