numResources = 4;
numTasks = 15;
Duration = [10, 9, 8, 6, 25, 250, 250, 250, 200, 100, 250, 4, 8, 9, 1];
ResourceCapability = [30, 25, 36, 32];
ResourceRequirement = [|2, 10, 5, 4, 2, 2, 5, 4, 9, 4, 1, 6, 3, 3, 1
                       |3, 4, 9, 6, 5, 10, 3, 3, 5, 4, 7, 5, 2, 5, 5
                       |9, 1, 2, 3, 8, 8, 4, 2, 4, 7, 7, 2, 5, 7, 8
                       |6, 6, 6, 6, 7, 5, 6, 7, 3, 7, 5, 6, 10, 5, 7|];
Successor = [{5, 7, 8, 9, 15},
             {4, 5, 6, 8, 9, 10, 11, 12, 13, 14, 15},
             {15},
             {10, 11, 12, 13, 14},
             {8, 9},
             {11, 12, 14, 15},
             {8, 9, 15},
             {9},
             {},
             {13, 14},
             {12, 14},
             {},
             {14},
             {},
             {}];
InitialSolution = [2, 1, 4, 6, 7, 5, 10, 11, 3, 8, 13, 9, 12, 14, 15];