numResources = 4;
numTasks = 15;
Duration = [7, 4, 1, 5, 225, 175, 125, 175, 250, 200, 50, 6, 2, 6, 5];
ResourceCapability = [14, 16, 14, 15];
ResourceRequirement = [|0, 0, 0, 0, 0, 0, 0, 0, 0, 0, 0, 0, 0, 0, 0
                       |2, 0, 0, 0, 0, 0, 0, 0, 0, 0, 10, 8, 0, 4, 0
                       |0, 4, 7, 0, 6, 5, 0, 2, 0, 0, 0, 0, 5, 0, 0
                       |0, 0, 0, 4, 0, 0, 7, 0, 2, 9, 0, 0, 0, 0, 8|];
Successor = [{6, 7, 8, 11, 12, 13, 14, 15},
             {4, 10, 12, 13, 14, 15},
             {5, 7, 8, 9, 12, 13, 14},
             {12, 14},
             {9, 14},
             {7, 8, 13, 14, 15},
             {8, 13, 14},
             {},
             {},
             {13, 14},
             {12},
             {},
             {14},
             {},
             {}];
InitialSolution = [1, 3, 2, 6, 7, 4, 5, 10, 11, 13, 8, 9, 12, 14, 15];