numResources = 4;
numTasks = 15;
Duration = [8, 3, 5, 7, 100, 200, 200, 100, 150, 200, 200, 2, 10, 9, 8];
ResourceCapability = [20, 19, 20, 15];
ResourceRequirement = [|0, 0, 0, 9, 9, 0, 1, 1, 8, 7, 5, 10, 0, 0, 0
                       |9, 4, 4, 0, 3, 0, 4, 4, 0, 7, 5, 0, 0, 5, 4
                       |0, 0, 0, 8, 0, 0, 0, 0, 0, 0, 1, 5, 1, 8, 10
                       |0, 8, 0, 0, 3, 1, 5, 0, 8, 0, 1, 1, 10, 0, 0|];
Successor = [{5, 9, 11, 13, 14},
             {4, 5, 6, 8, 10, 11, 12, 13, 14, 15},
             {5, 7, 8, 9, 11, 12, 13, 14},
             {5, 8, 11, 12, 13, 14},
             {11, 13},
             {10},
             {9, 14},
             {11, 12, 13},
             {14},
             {},
             {},
             {13},
             {},
             {},
             {}];
InitialSolution = [2, 3, 4, 1, 8, 5, 7, 6, 9, 12, 10, 11, 13, 14, 15];