numResources = 4;
numTasks = 15;
Duration = [8, 2, 6, 10, 25, 200, 150, 200, 200, 25, 25, 4, 3, 4, 5];
ResourceCapability = [30, 25, 27, 24];
ResourceRequirement = [|9, 7, 8, 10, 5, 5, 3, 9, 7, 7, 6, 1, 5, 7, 2
                       |1, 10, 6, 7, 3, 7, 5, 1, 6, 4, 4, 5, 4, 5, 8
                       |8, 5, 10, 1, 8, 7, 8, 1, 7, 6, 8, 8, 6, 3, 6
                       |9, 2, 10, 4, 7, 3, 7, 9, 10, 2, 10, 2, 3, 8, 4|];
Successor = [{15},
             {5, 8, 9, 10, 11, 12, 14},
             {4, 6, 7, 11, 13, 14, 15},
             {7, 11, 15},
             {8, 9, 10, 11},
             {13, 14},
             {15},
             {9, 10},
             {},
             {},
             {},
             {},
             {14},
             {},
             {}];
InitialSolution = [2, 3, 5, 4, 6, 8, 1, 7, 13, 9, 10, 11, 12, 14, 15];