numResources = 4;
numTasks = 15;
Duration = [6, 9, 5, 7, 125, 225, 225, 225, 25, 25, 150, 5, 3, 3, 2];
ResourceCapability = [12, 15, 18, 17];
ResourceRequirement = [|0, 9, 0, 0, 0, 0, 0, 0, 4, 0, 0, 0, 0, 0, 0
                       |0, 0, 0, 0, 3, 6, 0, 0, 0, 0, 3, 9, 8, 0, 7
                       |2, 0, 2, 0, 0, 0, 0, 0, 0, 0, 0, 0, 0, 0, 0
                       |0, 0, 0, 6, 0, 0, 9, 6, 0, 6, 0, 0, 0, 2, 0|];
Successor = [{5, 7, 8, 10, 11, 12, 13, 15},
             {},
             {4, 6, 9, 14},
             {6, 14},
             {7, 8, 10, 12, 13, 15},
             {14},
             {10, 15},
             {12, 15},
             {},
             {15},
             {},
             {15},
             {},
             {},
             {}];
InitialSolution = [1, 5, 3, 4, 7, 8, 6, 10, 12, 2, 9, 11, 13, 14, 15];