numResources = 4;
numTasks = 15;
Duration = [1, 7, 1, 7, 175, 25, 175, 100, 100, 50, 25, 1, 6, 1, 7];
ResourceCapability = [38, 40, 30, 24];
ResourceRequirement = [|9, 3, 7, 10, 1, 2, 10, 4, 4, 4, 8, 7, 9, 2, 1
                       |5, 7, 4, 6, 7, 10, 9, 10, 4, 9, 2, 2, 2, 10, 10
                       |1, 10, 10, 3, 3, 9, 10, 7, 9, 5, 4, 6, 10, 6, 2
                       |9, 8, 4, 4, 3, 1, 8, 7, 9, 7, 9, 6, 3, 8, 3|];
Successor = [{4, 9, 12, 13, 15},
             {5, 7, 8, 10, 11, 14},
             {6, 10, 11},
             {},
             {7, 14},
             {},
             {},
             {},
             {12, 13, 15},
             {11},
             {},
             {13, 15},
             {15},
             {},
             {}];
InitialSolution = [2, 1, 3, 9, 5, 12, 10, 13, 4, 6, 7, 8, 11, 14, 15];