numResources = 4;
numTasks = 15;
Duration = [2, 5, 8, 6, 200, 25, 100, 25, 200, 125, 50, 4, 9, 5, 9];
ResourceCapability = [25, 31, 30, 29];
ResourceRequirement = [|1, 7, 9, 6, 1, 10, 10, 6, 5, 3, 1, 3, 9, 1, 4
                       |7, 3, 7, 5, 7, 1, 9, 3, 7, 3, 8, 5, 1, 10, 8
                       |2, 3, 3, 1, 1, 1, 6, 8, 4, 7, 1, 9, 10, 6, 5
                       |2, 6, 8, 1, 1, 3, 2, 3, 8, 9, 4, 2, 7, 1, 4|];
Successor = [{6, 9, 14},
             {},
             {4, 5, 6, 7, 8, 10, 11, 12, 13, 15},
             {11, 12, 15},
             {6, 8, 13, 15},
             {},
             {10},
             {15},
             {14},
             {},
             {12, 15},
             {15},
             {},
             {},
             {}];
InitialSolution = [3, 5, 1, 4, 11, 7, 8, 9, 12, 2, 6, 10, 13, 14, 15];