numResources = 4;
numTasks = 15;
Duration = [7, 7, 6, 7, 175, 175, 75, 100, 150, 50, 25, 1, 5, 3, 4];
ResourceCapability = [24, 25, 27, 25];
ResourceRequirement = [|1, 6, 6, 5, 10, 7, 3, 1, 9, 6, 8, 6, 6, 4, 5
                       |9, 10, 5, 9, 2, 2, 5, 9, 2, 8, 8, 2, 9, 7, 6
                       |7, 2, 2, 9, 7, 5, 7, 5, 3, 1, 2, 9, 7, 8, 1
                       |2, 1, 4, 2, 7, 2, 8, 1, 8, 10, 8, 7, 4, 5, 7|];
Successor = [{4, 7, 9, 11, 12, 13, 15},
             {5, 8, 10, 11, 12, 13, 14, 15},
             {6, 15},
             {7, 9, 11, 12, 13, 15},
             {10, 11, 12, 13, 15},
             {15},
             {9},
             {},
             {},
             {11, 12, 13, 15},
             {12, 13, 15},
             {},
             {},
             {15},
             {}];
InitialSolution = [2, 1, 4, 5, 10, 11, 3, 6, 7, 14, 8, 9, 12, 13, 15];