numResources = 4;
numTasks = 15;
Duration = [5, 7, 4, 5, 100, 100, 100, 225, 250, 100, 125, 2, 1, 10, 6];
ResourceCapability = [17, 9, 14, 17];
ResourceRequirement = [|0, 4, 0, 0, 0, 0, 0, 0, 0, 6, 0, 8, 0, 8, 0
                       |0, 0, 3, 0, 0, 0, 0, 0, 0, 0, 1, 0, 0, 0, 0
                       |9, 0, 0, 1, 0, 0, 0, 0, 2, 0, 0, 0, 7, 0, 2
                       |0, 0, 0, 0, 5, 4, 6, 3, 0, 0, 0, 0, 0, 0, 0|];
Successor = [{5, 12, 13, 14, 15},
             {4, 6, 7, 8, 9, 10, 15},
             {11},
             {6, 9, 15},
             {},
             {9, 15},
             {8},
             {},
             {15},
             {},
             {},
             {13, 15},
             {},
             {},
             {}];
InitialSolution = [2, 1, 4, 6, 12, 3, 7, 9, 5, 8, 10, 11, 13, 14, 15];