numResources = 4;
numTasks = 15;
Duration = [2, 10, 10, 6, 250, 150, 25, 125, 50, 175, 125, 7, 6, 8, 5];
ResourceCapability = [17, 3, 17, 22];
ResourceRequirement = [|0, 0, 0, 0, 0, 0, 0, 0, 0, 2, 0, 0, 0, 0, 5
                       |0, 3, 0, 2, 0, 0, 0, 0, 0, 0, 0, 0, 0, 0, 0
                       |0, 0, 6, 0, 0, 0, 8, 8, 0, 0, 4, 5, 9, 0, 0
                       |8, 0, 0, 0, 9, 10, 0, 0, 10, 0, 0, 0, 0, 10, 0|];
Successor = [{4, 7, 9, 10, 11, 12, 13, 15},
             {5, 6, 8, 10, 12, 13, 14, 15},
             {4, 9, 11, 12, 13, 15},
             {9, 11, 12, 13, 15},
             {6, 8, 10, 13, 14},
             {13},
             {},
             {10, 13, 14},
             {15},
             {},
             {15},
             {13, 15},
             {},
             {},
             {}];
InitialSolution = [1, 2, 3, 4, 5, 8, 12, 6, 9, 11, 7, 10, 13, 14, 15];