numResources = 4;
numTasks = 15;
Duration = [3, 8, 4, 4, 150, 125, 175, 50, 125, 25, 225, 9, 5, 10, 8];
ResourceCapability = [10, 7, 12, 10];
ResourceRequirement = [|0, 0, 0, 0, 0, 0, 10, 0, 0, 1, 0, 0, 9, 0, 0
                       |0, 0, 7, 3, 0, 0, 0, 0, 0, 0, 0, 0, 0, 0, 0
                       |0, 0, 0, 0, 9, 3, 0, 7, 7, 0, 5, 0, 0, 0, 8
                       |9, 7, 0, 0, 0, 0, 0, 0, 0, 0, 0, 5, 0, 3, 0|];
Successor = [{11, 12, 13, 15},
             {7, 8, 9, 10, 12, 13, 14},
             {4, 5, 6, 7, 8, 9, 10, 11, 12, 13, 14},
             {13},
             {6, 7, 8, 9, 10, 12, 13, 14},
             {12, 13},
             {8, 9, 10, 13, 14},
             {10, 13, 14},
             {14},
             {},
             {12, 13},
             {13},
             {},
             {},
             {}];
InitialSolution = [3, 5, 2, 7, 1, 8, 6, 11, 4, 9, 12, 10, 13, 14, 15];