numResources = 4;
numTasks = 15;
Duration = [1, 7, 1, 4, 50, 150, 200, 125, 100, 25, 175, 5, 4, 9, 9];
ResourceCapability = [39, 37, 35, 32];
ResourceRequirement = [|5, 5, 10, 10, 1, 6, 10, 8, 10, 7, 9, 10, 8, 4, 8
                       |7, 4, 3, 3, 9, 6, 6, 6, 10, 10, 10, 10, 4, 10, 1
                       |10, 10, 2, 6, 9, 8, 8, 8, 1, 8, 10, 6, 1, 10, 4
                       |5, 7, 7, 8, 2, 3, 7, 5, 9, 5, 5, 7, 8, 9, 6|];
Successor = [{12},
             {4, 6, 8, 10, 11, 13, 15},
             {5, 7, 9, 10, 14},
             {6, 10, 15},
             {},
             {10, 15},
             {9, 10},
             {10},
             {},
             {},
             {13},
             {},
             {},
             {},
             {}];
InitialSolution = [2, 3, 4, 6, 7, 1, 8, 11, 5, 9, 10, 12, 13, 14, 15];