numResources = 4;
numTasks = 15;
Duration = [4, 3, 10, 10, 50, 175, 175, 25, 250, 225, 225, 4, 6, 10, 2];
ResourceCapability = [10, 11, 8, 10];
ResourceRequirement = [|6, 4, 2, 5, 0, 5, 0, 6, 0, 0, 0, 3, 8, 0, 0
                       |0, 0, 0, 0, 4, 0, 0, 0, 2, 6, 0, 0, 0, 10, 4
                       |0, 0, 0, 0, 0, 0, 8, 0, 0, 0, 0, 0, 0, 0, 0
                       |0, 0, 0, 0, 0, 0, 0, 0, 0, 0, 9, 0, 0, 0, 0|];
Successor = [{6, 10, 13, 14, 15},
             {4, 6, 7, 8, 10, 15},
             {5, 8, 9, 10, 11, 12, 13, 14, 15},
             {10},
             {14, 15},
             {},
             {8, 15},
             {15},
             {10, 11, 12, 13, 14, 15},
             {},
             {12},
             {},
             {14, 15},
             {15},
             {}];
InitialSolution = [3, 2, 9, 1, 5, 7, 13, 4, 8, 11, 14, 6, 10, 12, 15];