numResources = 4;
numTasks = 15;
Duration = [8, 3, 5, 4, 175, 250, 50, 75, 25, 100, 200, 3, 7, 6, 7];
ResourceCapability = [25, 25, 29, 27];
ResourceRequirement = [|10, 2, 10, 5, 8, 8, 10, 3, 8, 10, 6, 10, 10, 2, 6
                       |3, 8, 9, 10, 10, 8, 7, 6, 6, 8, 2, 6, 6, 2, 6
                       |4, 9, 7, 9, 5, 10, 9, 2, 8, 7, 8, 7, 9, 6, 6
                       |9, 1, 3, 3, 9, 7, 7, 2, 1, 2, 10, 2, 9, 6, 10|];
Successor = [{7, 10, 15},
             {6, 12, 14},
             {4, 5, 8, 9, 10, 11, 12, 13, 14},
             {5, 8, 9, 10, 12, 13, 14},
             {8, 9, 10, 12, 13},
             {},
             {10, 15},
             {9, 10, 12, 13},
             {10, 13},
             {},
             {14},
             {},
             {},
             {},
             {}];
InitialSolution = [3, 4, 5, 8, 1, 2, 7, 9, 11, 6, 10, 12, 13, 14, 15];