numResources = 4;
numTasks = 15;
Duration = [4, 10, 7, 6, 125, 100, 125, 25, 225, 100, 175, 6, 8, 5, 1];
ResourceCapability = [14, 18, 16, 19];
ResourceRequirement = [|0, 0, 0, 0, 3, 0, 0, 0, 2, 1, 9, 0, 0, 0, 7
                       |1, 0, 7, 0, 0, 0, 0, 0, 0, 0, 0, 6, 0, 2, 0
                       |0, 0, 0, 0, 0, 0, 6, 5, 0, 0, 0, 0, 0, 0, 0
                       |0, 3, 0, 8, 0, 6, 0, 0, 0, 0, 0, 0, 6, 0, 0|];
Successor = [{10, 11, 12, 13, 14},
             {6, 7, 8, 11, 13, 14},
             {4, 5, 7, 8, 9, 12, 13, 14, 15},
             {5, 9, 12, 13, 14, 15},
             {12, 14},
             {7, 8, 11, 14},
             {8, 14},
             {},
             {12, 13},
             {13},
             {14},
             {},
             {},
             {},
             {}];
InitialSolution = [3, 2, 4, 1, 6, 5, 7, 9, 10, 11, 8, 12, 13, 14, 15];