numResources = 4;
numTasks = 15;
Duration = [10, 8, 6, 3, 100, 250, 125, 250, 250, 175, 150, 5, 10, 4, 9];
ResourceCapability = [24, 22, 22, 22];
ResourceRequirement = [|8, 1, 8, 2, 6, 10, 7, 9, 3, 9, 7, 8, 9, 5, 8
                       |10, 5, 5, 2, 7, 4, 7, 9, 6, 1, 9, 5, 8, 10, 3
                       |7, 2, 1, 10, 4, 6, 1, 9, 6, 4, 3, 3, 6, 5, 10
                       |4, 7, 10, 4, 7, 8, 8, 10, 8, 1, 4, 3, 5, 6, 9|];
Successor = [{5, 6, 7, 8, 9, 11, 12, 13, 14, 15},
             {10, 12},
             {4, 7, 9, 10, 11, 12, 15},
             {7, 9, 11, 15},
             {6, 8, 12, 13, 14, 15},
             {8, 12, 14, 15},
             {9, 11, 15},
             {12},
             {11, 15},
             {12},
             {15},
             {},
             {},
             {},
             {}];
InitialSolution = [1, 3, 5, 4, 6, 7, 2, 9, 8, 10, 11, 12, 13, 14, 15];