numResources = 4;
numTasks = 15;
Duration = [6, 5, 8, 8, 250, 250, 150, 50, 25, 175, 25, 2, 4, 2, 10];
ResourceCapability = [14, 13, 12, 13];
ResourceRequirement = [|0, 1, 0, 8, 10, 0, 10, 0, 0, 0, 8, 3, 2, 0, 9
                       |7, 10, 6, 9, 10, 9, 6, 0, 0, 0, 0, 0, 0, 4, 0
                       |10, 0, 0, 0, 0, 0, 0, 0, 6, 7, 5, 7, 3, 3, 0
                       |0, 4, 5, 0, 4, 0, 0, 3, 2, 0, 10, 0, 0, 0, 10|];
Successor = [{4, 5, 7, 8, 9, 10, 11, 12, 13, 14},
             {8, 12, 15},
             {6, 14, 15},
             {5, 8, 9, 11, 12, 13, 14},
             {8, 9, 11, 12, 13, 14},
             {14, 15},
             {13, 14},
             {12},
             {13, 14},
             {11, 14},
             {14},
             {},
             {14},
             {},
             {}];
InitialSolution = [1, 4, 5, 2, 3, 6, 7, 9, 10, 8, 11, 13, 12, 14, 15];