numResources = 4;
numTasks = 15;
Duration = [9, 1, 9, 5, 50, 25, 25, 225, 225, 125, 150, 1, 6, 6, 5];
ResourceCapability = [10, 9, 14, 14];
ResourceRequirement = [|4, 7, 0, 0, 0, 0, 0, 0, 0, 0, 0, 0, 6, 0, 0
                       |0, 0, 0, 0, 0, 0, 5, 0, 0, 6, 4, 0, 0, 0, 0
                       |0, 0, 0, 0, 10, 0, 0, 1, 0, 0, 0, 1, 0, 5, 10
                       |0, 0, 5, 3, 0, 7, 0, 0, 7, 0, 0, 0, 0, 0, 0|];
Successor = [{11, 13},
             {4, 6, 7, 9, 10, 11, 12, 13, 14, 15},
             {5, 8, 9, 15},
             {6, 7, 11, 12, 13, 14, 15},
             {9, 15},
             {11, 13, 14, 15},
             {13},
             {},
             {},
             {11, 12, 14, 15},
             {},
             {},
             {},
             {15},
             {}];
InitialSolution = [2, 4, 3, 6, 10, 1, 5, 7, 14, 8, 9, 11, 12, 13, 15];