numResources = 4;
numTasks = 15;
Duration = [10, 2, 8, 6, 50, 150, 250, 100, 25, 125, 25, 6, 8, 1, 6];
ResourceCapability = [14, 24, 14, 20];
ResourceRequirement = [|0, 0, 0, 2, 0, 0, 10, 0, 5, 3, 0, 0, 0, 2, 0
                       |8, 2, 0, 8, 1, 4, 9, 3, 8, 5, 0, 2, 0, 0, 0
                       |0, 8, 8, 0, 0, 0, 1, 0, 7, 2, 0, 0, 7, 0, 0
                       |0, 0, 3, 0, 0, 7, 2, 8, 0, 0, 1, 0, 8, 8, 4|];
Successor = [{6, 12, 14},
             {4, 5, 8, 9, 10, 11, 12, 13, 15},
             {7, 11, 12, 13, 15},
             {8, 10},
             {8, 10, 13, 15},
             {12},
             {13, 15},
             {10},
             {11, 12, 13},
             {},
             {12},
             {},
             {},
             {},
             {}];
InitialSolution = [2, 3, 5, 1, 9, 4, 7, 6, 8, 11, 10, 12, 13, 14, 15];