numResources = 4;
numTasks = 15;
Duration = [8, 7, 1, 10, 150, 125, 25, 25, 175, 225, 200, 10, 10, 10, 9];
ResourceCapability = [27, 23, 27, 23];
ResourceRequirement = [|4, 2, 9, 2, 7, 5, 7, 6, 6, 5, 9, 8, 4, 2, 1
                       |5, 3, 7, 10, 3, 4, 10, 2, 8, 2, 8, 6, 3, 1, 4
                       |7, 4, 3, 6, 8, 6, 10, 4, 8, 1, 1, 5, 3, 7, 8
                       |5, 3, 10, 8, 1, 3, 4, 2, 10, 7, 4, 1, 9, 3, 1|];
Successor = [{},
             {4, 5, 7, 8, 9, 10, 11, 12, 13, 14, 15},
             {6, 12, 13},
             {5, 7, 9, 13},
             {7, 13},
             {},
             {},
             {10, 11, 12, 13, 15},
             {},
             {12, 13},
             {},
             {13},
             {},
             {},
             {}];
InitialSolution = [2, 8, 4, 3, 5, 10, 12, 1, 6, 7, 9, 11, 13, 14, 15];