numResources = 4;
numTasks = 15;
Duration = [9, 9, 2, 2, 25, 50, 250, 125, 75, 100, 75, 6, 6, 2, 6];
ResourceCapability = [23, 16, 16, 16];
ResourceRequirement = [|2, 0, 0, 6, 0, 0, 5, 1, 0, 5, 0, 1, 0, 10, 0
                       |0, 10, 5, 3, 0, 0, 0, 0, 3, 7, 0, 0, 2, 0, 2
                       |0, 4, 0, 9, 7, 6, 0, 0, 9, 0, 2, 0, 0, 0, 0
                       |0, 0, 0, 0, 0, 2, 4, 6, 0, 9, 0, 0, 0, 4, 1|];
Successor = [{12, 13, 14, 15},
             {4, 5, 7, 9, 11, 14},
             {6, 8, 10, 11, 12, 13, 15},
             {14},
             {14},
             {13, 15},
             {9, 11},
             {12, 13, 15},
             {11},
             {11, 15},
             {},
             {13, 15},
             {},
             {},
             {}];
InitialSolution = [3, 2, 1, 8, 6, 7, 10, 12, 4, 5, 9, 11, 13, 14, 15];