numResources = 4;
numTasks = 15;
Duration = [6, 6, 4, 1, 225, 125, 175, 200, 250, 75, 250, 4, 4, 9, 8];
ResourceCapability = [21, 11, 12, 9];
ResourceRequirement = [|6, 8, 7, 1, 7, 0, 0, 0, 1, 5, 5, 0, 0, 0, 1
                       |0, 0, 0, 0, 0, 7, 0, 0, 0, 0, 0, 0, 0, 0, 0
                       |0, 0, 0, 0, 0, 0, 4, 0, 0, 0, 0, 1, 5, 6, 0
                       |0, 0, 0, 0, 0, 0, 0, 7, 0, 0, 0, 0, 0, 0, 0|];
Successor = [{4, 6, 9, 10, 11, 13, 15},
             {5, 6, 8, 9, 10, 11, 13},
             {7, 10, 11, 12, 13, 14},
             {6, 10, 11, 13, 15},
             {13},
             {10, 11, 13},
             {10, 11, 13, 14},
             {9, 11, 13},
             {11, 13},
             {11, 13},
             {13},
             {13, 14},
             {},
             {},
             {}];
InitialSolution = [1, 2, 3, 4, 7, 6, 8, 9, 10, 12, 5, 11, 13, 14, 15];