numResources = 4;
numTasks = 15;
Duration = [6, 2, 8, 1, 225, 125, 75, 75, 25, 225, 200, 3, 3, 9, 9];
ResourceCapability = [23, 17, 16, 18];
ResourceRequirement = [|0, 9, 8, 0, 0, 0, 0, 0, 9, 7, 0, 2, 9, 3, 0
                       |3, 9, 0, 9, 0, 9, 5, 0, 5, 8, 0, 0, 0, 6, 4
                       |0, 9, 4, 4, 8, 0, 0, 9, 2, 0, 0, 10, 3, 0, 0
                       |0, 0, 0, 0, 0, 3, 9, 0, 0, 6, 8, 0, 5, 8, 0|];
Successor = [{9},
             {4, 5, 11, 12, 13, 15},
             {4, 5, 6, 7, 8, 9, 10, 12, 13, 14, 15},
             {13, 15},
             {12, 15},
             {7, 8, 9, 10, 12, 13, 14, 15},
             {8, 9, 10, 12, 14, 15},
             {10, 12, 15},
             {},
             {15},
             {},
             {15},
             {},
             {},
             {}];
InitialSolution = [3, 6, 2, 7, 8, 4, 5, 1, 10, 12, 9, 11, 13, 14, 15];