numResources = 4;
numTasks = 15;
Duration = [7, 8, 9, 3, 150, 100, 150, 200, 50, 125, 200, 4, 10, 4, 4];
ResourceCapability = [18, 25, 11, 17];
ResourceRequirement = [|0, 0, 8, 0, 0, 0, 0, 0, 6, 0, 0, 0, 0, 0, 0
                       |0, 8, 0, 3, 0, 0, 0, 0, 0, 0, 8, 7, 7, 10, 0
                       |10, 0, 0, 0, 10, 1, 0, 1, 0, 10, 0, 0, 0, 0, 0
                       |0, 0, 0, 0, 0, 0, 3, 0, 0, 0, 0, 0, 0, 0, 6|];
Successor = [{9, 10, 14, 15},
             {5, 6, 7, 8, 10, 12, 13, 14, 15},
             {4, 11, 13},
             {13},
             {14},
             {7, 8, 10, 12, 14, 15},
             {8, 10},
             {},
             {10, 14, 15},
             {},
             {13},
             {15},
             {},
             {},
             {}];
InitialSolution = [2, 6, 1, 3, 9, 7, 4, 5, 11, 12, 8, 10, 13, 14, 15];