numResources = 4;
numTasks = 15;
Duration = [3, 4, 10, 7, 50, 150, 225, 200, 200, 175, 50, 7, 6, 3, 6];
ResourceCapability = [8, 20, 17, 10];
ResourceRequirement = [|0, 0, 0, 7, 4, 0, 0, 0, 0, 0, 8, 0, 0, 0, 0
                       |1, 0, 0, 0, 0, 6, 10, 9, 10, 0, 0, 0, 0, 0, 0
                       |0, 9, 8, 0, 0, 0, 0, 0, 0, 0, 0, 0, 0, 7, 8
                       |0, 0, 0, 0, 0, 0, 0, 0, 0, 3, 0, 2, 8, 0, 0|];
Successor = [{6, 9, 10, 11, 12, 13, 15},
             {5, 9, 12, 15},
             {4, 7, 8, 9, 11, 12, 13, 14, 15},
             {11, 12},
             {9, 15},
             {13},
             {},
             {9, 13, 14, 15},
             {},
             {11, 12, 15},
             {12},
             {},
             {},
             {15},
             {}];
InitialSolution = [3, 1, 2, 8, 10, 4, 5, 6, 11, 14, 7, 9, 12, 13, 15];