numResources = 4;
numTasks = 15;
Duration = [4, 2, 6, 1, 75, 50, 175, 150, 75, 50, 175, 5, 9, 10, 2];
ResourceCapability = [23, 23, 25, 23];
ResourceRequirement = [|3, 3, 1, 2, 8, 6, 6, 8, 10, 4, 10, 7, 1, 2, 6
                       |3, 6, 1, 4, 6, 2, 5, 8, 8, 1, 8, 2, 1, 8, 5
                       |5, 5, 10, 1, 1, 1, 3, 10, 4, 9, 1, 1, 3, 9, 1
                       |9, 2, 6, 2, 2, 8, 1, 2, 9, 7, 10, 1, 3, 8, 8|];
Successor = [{4, 10, 13, 14, 15},
             {8},
             {5, 6, 7, 9, 10, 11, 12, 13, 14, 15},
             {10, 13, 14, 15},
             {9, 11, 12, 15},
             {11, 12, 13, 15},
             {10, 13, 14},
             {},
             {15},
             {13, 14},
             {12, 15},
             {15},
             {},
             {},
             {}];
InitialSolution = [3, 1, 4, 5, 6, 7, 10, 11, 2, 9, 12, 8, 13, 14, 15];