numResources = 4;
numTasks = 15;
Duration = [7, 3, 10, 2, 150, 200, 175, 25, 150, 225, 75, 4, 1, 7, 8];
ResourceCapability = [9, 8, 10, 10];
ResourceRequirement = [|7, 0, 0, 0, 0, 0, 0, 3, 0, 0, 0, 0, 0, 9, 0
                       |0, 8, 0, 5, 0, 0, 0, 0, 5, 2, 3, 0, 0, 0, 0
                       |0, 0, 0, 0, 0, 1, 0, 0, 0, 0, 0, 10, 3, 0, 0
                       |0, 0, 2, 0, 4, 0, 1, 0, 0, 0, 0, 0, 0, 0, 5|];
Successor = [{8, 11, 13},
             {4, 6, 8, 9, 10, 11, 12, 13, 14, 15},
             {5, 6, 7, 9, 11, 13, 14, 15},
             {6, 8, 11, 13, 14, 15},
             {6, 7, 9, 11, 14, 15},
             {11, 14, 15},
             {9, 11, 14, 15},
             {13},
             {14, 15},
             {12, 13, 15},
             {},
             {13, 15},
             {},
             {},
             {}];
InitialSolution = [2, 3, 4, 5, 7, 1, 6, 10, 9, 12, 8, 11, 13, 14, 15];