numResources = 4;
numTasks = 15;
Duration = [9, 6, 10, 3, 25, 225, 150, 125, 50, 150, 25, 3, 9, 1, 2];
ResourceCapability = [31, 38, 39, 44];
ResourceRequirement = [|10, 8, 1, 3, 7, 6, 2, 1, 4, 2, 10, 10, 5, 3, 8
                       |6, 8, 1, 9, 3, 2, 8, 9, 6, 2, 3, 10, 10, 9, 6
                       |9, 2, 3, 8, 9, 8, 8, 7, 6, 6, 2, 8, 9, 9, 4
                       |4, 5, 4, 8, 9, 6, 8, 10, 8, 1, 10, 6, 6, 3, 10|];
Successor = [{4, 7, 9, 10, 11, 12, 14},
             {},
             {5, 6, 8, 9, 12, 13, 14, 15},
             {7, 9},
             {},
             {8, 9, 13, 15},
             {},
             {},
             {},
             {11, 12, 14},
             {},
             {14},
             {15},
             {},
             {}];
InitialSolution = [3, 1, 6, 10, 4, 12, 13, 2, 5, 7, 8, 9, 11, 14, 15];