numResources = 4;
numTasks = 15;
Duration = [6, 10, 8, 7, 50, 25, 125, 225, 175, 150, 225, 10, 3, 4, 7];
ResourceCapability = [15, 13, 10, 8];
ResourceRequirement = [|0, 0, 0, 7, 0, 0, 0, 1, 0, 6, 0, 0, 5, 0, 5
                       |0, 0, 0, 0, 0, 0, 0, 0, 4, 0, 0, 8, 0, 0, 0
                       |6, 1, 0, 0, 8, 0, 0, 0, 0, 0, 2, 0, 0, 9, 0
                       |0, 0, 5, 0, 0, 1, 7, 0, 0, 0, 0, 0, 0, 0, 0|];
Successor = [{4, 6, 7, 8, 9, 10, 11, 12, 13, 14, 15},
             {5, 10, 15},
             {9, 10, 11, 15},
             {6, 7, 8, 10, 11, 12, 13, 14, 15},
             {15},
             {8, 10, 11},
             {8, 10, 13, 14, 15},
             {10},
             {11, 15},
             {},
             {},
             {14, 15},
             {14, 15},
             {15},
             {}];
InitialSolution = [1, 4, 7, 3, 2, 6, 9, 12, 13, 5, 8, 14, 10, 11, 15];