numResources = 4;
numTasks = 15;
Duration = [9, 2, 4, 5, 225, 175, 225, 75, 250, 75, 200, 1, 8, 6, 5];
ResourceCapability = [9, 11, 15, 14];
ResourceRequirement = [|0, 0, 0, 0, 0, 0, 1, 4, 0, 0, 0, 2, 0, 0, 0
                       |0, 0, 0, 0, 0, 0, 0, 0, 0, 1, 4, 0, 0, 0, 3
                       |2, 0, 1, 0, 1, 9, 0, 0, 0, 0, 0, 0, 0, 10, 0
                       |0, 1, 0, 3, 0, 0, 0, 0, 9, 0, 0, 0, 6, 0, 0|];
Successor = [{8, 9, 11, 13},
             {4, 5, 7, 8, 9, 10, 11, 12, 13, 14, 15},
             {6, 7, 8, 11, 12, 13, 14},
             {10, 11, 12, 13, 14, 15},
             {8, 9, 11, 13},
             {11, 12, 14},
             {},
             {11, 13},
             {},
             {11, 14, 15},
             {},
             {},
             {},
             {},
             {}];
InitialSolution = [2, 3, 4, 1, 5, 6, 10, 8, 7, 9, 11, 12, 13, 14, 15];