numResources = 4;
numTasks = 15;
Duration = [4, 5, 3, 2, 200, 25, 250, 250, 225, 225, 175, 10, 8, 10, 2];
ResourceCapability = [30, 41, 38, 35];
ResourceRequirement = [|1, 5, 6, 5, 5, 3, 4, 2, 8, 2, 7, 10, 2, 2, 10
                       |2, 9, 8, 8, 7, 2, 10, 1, 4, 6, 6, 9, 2, 2, 8
                       |5, 2, 1, 3, 4, 8, 1, 9, 8, 10, 8, 8, 2, 10, 4
                       |9, 9, 9, 9, 6, 6, 6, 2, 9, 2, 2, 4, 10, 6, 3|];
Successor = [{7},
             {5, 6, 8, 9, 10, 13, 14, 15},
             {4, 9, 11, 12, 14},
             {9, 11, 12, 14},
             {6, 8, 9, 13, 14, 15},
             {9, 14},
             {},
             {},
             {14},
             {},
             {14},
             {},
             {15},
             {},
             {}];
InitialSolution = [2, 5, 3, 4, 6, 1, 9, 11, 13, 7, 8, 10, 12, 14, 15];