numResources = 4;
numTasks = 15;
Duration = [10, 2, 6, 8, 200, 50, 50, 150, 150, 175, 25, 1, 10, 10, 6];
ResourceCapability = [11, 13, 7, 12];
ResourceRequirement = [|0, 0, 0, 7, 0, 10, 8, 0, 0, 6, 0, 0, 0, 0, 0
                       |10, 0, 0, 0, 6, 0, 0, 0, 8, 0, 0, 9, 0, 0, 0
                       |0, 0, 0, 0, 0, 0, 0, 2, 0, 0, 0, 0, 0, 3, 5
                       |0, 8, 1, 0, 0, 0, 0, 0, 0, 0, 6, 0, 2, 0, 0|];
Successor = [{4, 7, 12, 13, 14, 15},
             {5, 6, 8, 10, 11, 12, 13, 14},
             {9, 12, 13, 14, 15},
             {7, 12, 13, 14, 15},
             {11, 12},
             {10, 11, 13, 14},
             {13, 14},
             {11},
             {13, 15},
             {13, 14},
             {},
             {},
             {},
             {},
             {}];
InitialSolution = [2, 1, 3, 4, 6, 5, 7, 9, 10, 8, 11, 12, 13, 14, 15];