numResources = 4;
numTasks = 15;
Duration = [3, 2, 9, 6, 25, 250, 225, 225, 250, 100, 200, 10, 3, 9, 10];
ResourceCapability = [12, 12, 12, 12];
ResourceRequirement = [|0, 0, 3, 0, 0, 5, 6, 0, 10, 0, 4, 0, 1, 0, 0
                       |0, 9, 1, 5, 0, 0, 0, 9, 6, 0, 3, 8, 0, 9, 0
                       |3, 9, 0, 1, 0, 1, 0, 2, 0, 4, 0, 7, 10, 1, 6
                       |0, 4, 0, 9, 9, 4, 9, 0, 8, 0, 6, 0, 0, 8, 5|];
Successor = [{4, 5, 8, 9, 11, 13, 14, 15},
             {9, 11, 12, 13, 14},
             {6, 7, 8, 10, 11, 12, 13, 14},
             {8, 9, 11, 13, 14},
             {9, 11, 14, 15},
             {10, 11, 12, 13, 14},
             {13, 14},
             {},
             {11, 14},
             {12, 13, 14},
             {14},
             {13},
             {},
             {},
             {}];
InitialSolution = [1, 3, 2, 4, 6, 5, 10, 7, 9, 11, 12, 8, 13, 14, 15];