numResources = 4;
numTasks = 15;
Duration = [1, 2, 2, 2, 25, 50, 250, 200, 125, 100, 25, 3, 10, 1, 6];
ResourceCapability = [15, 11, 12, 18];
ResourceRequirement = [|0, 0, 0, 0, 0, 0, 0, 0, 0, 0, 3, 0, 7, 10, 0
                       |0, 1, 0, 2, 8, 1, 0, 0, 0, 0, 0, 2, 0, 0, 0
                       |3, 0, 10, 0, 0, 0, 6, 1, 0, 3, 0, 0, 0, 0, 10
                       |0, 0, 0, 0, 0, 0, 0, 0, 3, 0, 0, 0, 0, 0, 0|];
Successor = [{4, 5, 6, 7, 15},
             {},
             {8, 9, 10, 11, 12, 13, 14},
             {},
             {},
             {7, 15},
             {15},
             {10, 11, 12, 13, 14},
             {},
             {11, 13, 14},
             {14},
             {},
             {},
             {},
             {}];
InitialSolution = [3, 1, 8, 10, 6, 7, 11, 2, 4, 5, 9, 12, 13, 14, 15];