numResources = 4;
numTasks = 15;
Duration = [1, 6, 1, 5, 75, 25, 175, 175, 100, 125, 75, 7, 3, 2, 1];
ResourceCapability = [15, 21, 11, 13];
ResourceRequirement = [|0, 0, 0, 0, 0, 7, 1, 0, 0, 0, 0, 0, 9, 0, 0
                       |1, 7, 0, 7, 7, 0, 0, 0, 0, 0, 0, 0, 0, 0, 0
                       |0, 0, 6, 0, 0, 0, 0, 0, 0, 0, 4, 4, 0, 0, 6
                       |0, 0, 0, 0, 0, 0, 0, 3, 4, 2, 0, 0, 0, 10, 0|];
Successor = [{8, 13},
             {4, 5, 7, 9, 12, 14, 15},
             {6, 10, 11, 15},
             {5, 7, 9, 15},
             {7, 15},
             {10, 11, 15},
             {15},
             {},
             {},
             {},
             {15},
             {14},
             {},
             {},
             {}];
InitialSolution = [2, 3, 4, 6, 1, 5, 7, 11, 12, 8, 9, 10, 13, 14, 15];