numResources = 4;
numTasks = 15;
Duration = [8, 6, 2, 6, 100, 100, 175, 75, 200, 125, 250, 6, 10, 7, 4];
ResourceCapability = [17, 22, 12, 10];
ResourceRequirement = [|6, 0, 0, 0, 0, 0, 0, 9, 0, 0, 0, 10, 1, 5, 6
                       |0, 8, 0, 0, 8, 2, 5, 0, 1, 0, 0, 0, 0, 0, 0
                       |0, 0, 7, 1, 0, 0, 0, 0, 0, 0, 3, 0, 0, 0, 0
                       |0, 0, 0, 0, 0, 0, 0, 0, 0, 7, 0, 0, 0, 0, 0|];
Successor = [{4, 5, 8, 10, 11, 12, 13, 15},
             {4, 5, 6, 8, 13, 14},
             {7, 9, 12, 13, 14, 15},
             {5, 8, 13},
             {13},
             {14},
             {12, 13, 14},
             {},
             {14},
             {15},
             {12},
             {},
             {},
             {},
             {}];
InitialSolution = [1, 2, 3, 4, 7, 5, 6, 9, 10, 11, 8, 12, 13, 14, 15];