numResources = 4;
numTasks = 15;
Duration = [10, 3, 4, 4, 100, 225, 250, 150, 25, 150, 100, 4, 2, 1, 6];
ResourceCapability = [19, 19, 19, 18];
ResourceRequirement = [|6, 10, 0, 0, 1, 9, 0, 0, 0, 0, 2, 7, 6, 1, 0
                       |0, 6, 9, 0, 0, 0, 10, 0, 6, 0, 7, 0, 0, 7, 8
                       |0, 0, 10, 1, 9, 0, 0, 6, 0, 6, 4, 0, 4, 10, 0
                       |8, 0, 10, 0, 4, 0, 0, 7, 0, 0, 0, 0, 0, 9, 4|];
Successor = [{7},
             {4, 5, 6, 7, 8, 9, 10, 11, 12, 13, 14, 15},
             {7, 10},
             {5, 6, 7, 8, 9, 10, 11, 12, 13, 14, 15},
             {6, 7, 8, 9, 12, 13, 14, 15},
             {7, 8, 12, 14},
             {},
             {12, 14},
             {12, 14},
             {},
             {13, 15},
             {14},
             {15},
             {},
             {}];
InitialSolution = [2, 4, 5, 6, 3, 8, 9, 11, 1, 12, 13, 7, 10, 14, 15];