numResources = 4;
numTasks = 15;
Duration = [5, 2, 5, 6, 175, 200, 25, 175, 125, 150, 225, 5, 10, 8, 5];
ResourceCapability = [16, 10, 10, 14];
ResourceRequirement = [|3, 0, 0, 0, 0, 0, 0, 0, 0, 0, 0, 0, 0, 10, 2
                       |0, 9, 1, 7, 0, 0, 0, 1, 0, 0, 0, 0, 0, 0, 0
                       |0, 0, 0, 0, 1, 0, 0, 0, 0, 5, 0, 0, 0, 0, 0
                       |0, 0, 0, 0, 0, 2, 9, 0, 2, 0, 3, 10, 2, 0, 0|];
Successor = [{6, 9, 11, 12, 15},
             {4, 9, 11, 15},
             {4, 5, 7, 8, 9, 10, 11, 12, 13, 14, 15},
             {9},
             {10, 12, 13, 14, 15},
             {11, 12},
             {8, 11, 12},
             {11},
             {},
             {13, 15},
             {},
             {},
             {},
             {},
             {}];
InitialSolution = [3, 1, 5, 2, 7, 6, 10, 4, 8, 9, 11, 12, 13, 14, 15];