numResources = 4;
numTasks = 15;
Duration = [5, 6, 1, 10, 175, 200, 150, 250, 200, 175, 100, 1, 9, 5, 3];
ResourceCapability = [16, 19, 21, 17];
ResourceRequirement = [|2, 0, 0, 0, 0, 0, 6, 0, 1, 10, 2, 9, 8, 4, 3
                       |4, 1, 4, 10, 4, 2, 0, 5, 0, 0, 2, 0, 5, 6, 0
                       |0, 3, 0, 8, 7, 0, 0, 8, 10, 0, 0, 0, 0, 0, 2
                       |1, 0, 0, 3, 0, 6, 0, 1, 0, 0, 2, 10, 0, 0, 0|];
Successor = [{4, 5, 6, 7, 9, 10, 11, 13, 14, 15},
             {10, 12, 13, 14},
             {8, 13},
             {5, 11, 14, 15},
             {11, 14},
             {9, 11, 14},
             {10, 13, 15},
             {},
             {},
             {13},
             {},
             {13, 14},
             {},
             {},
             {}];
InitialSolution = [1, 2, 4, 6, 7, 3, 5, 12, 10, 8, 9, 11, 13, 14, 15];