numResources = 4;
numTasks = 15;
Duration = [8, 6, 6, 8, 75, 225, 175, 250, 225, 225, 50, 3, 2, 2, 1];
ResourceCapability = [27, 27, 26, 25];
ResourceRequirement = [|6, 8, 7, 4, 9, 10, 8, 6, 4, 10, 3, 4, 10, 2, 1
                       |3, 10, 10, 8, 6, 9, 8, 5, 10, 10, 1, 4, 4, 5, 6
                       |8, 7, 3, 6, 7, 6, 4, 5, 6, 4, 2, 3, 10, 1, 8
                       |5, 4, 2, 6, 5, 4, 2, 10, 7, 6, 10, 1, 6, 9, 6|];
Successor = [{4, 5, 7, 10, 11, 13, 15},
             {12},
             {5, 6, 8, 9, 13, 14, 15},
             {7, 10, 11},
             {15},
             {8, 9, 13, 14},
             {11},
             {9, 13},
             {13},
             {},
             {},
             {},
             {},
             {},
             {}];
InitialSolution = [1, 3, 6, 4, 8, 2, 5, 7, 9, 10, 11, 12, 13, 14, 15];