numResources = 4;
numTasks = 15;
Duration = [5, 1, 1, 10, 100, 50, 150, 175, 75, 250, 250, 2, 6, 1, 4];
ResourceCapability = [13, 7, 18, 15];
ResourceRequirement = [|1, 0, 0, 0, 0, 3, 0, 0, 6, 0, 1, 0, 0, 0, 0
                       |0, 0, 1, 0, 0, 0, 0, 0, 0, 7, 0, 0, 0, 0, 0
                       |0, 9, 0, 9, 2, 0, 0, 5, 0, 0, 0, 3, 0, 0, 0
                       |0, 0, 0, 0, 0, 0, 10, 0, 0, 0, 0, 0, 2, 5, 4|];
Successor = [{4, 5, 6, 8, 9, 11, 12, 13, 14, 15},
             {8, 9, 10, 14, 15},
             {7, 9, 11, 12},
             {12, 13},
             {6, 8, 9, 12, 14, 15},
             {8, 9, 12, 14, 15},
             {11, 12},
             {14, 15},
             {},
             {14},
             {12},
             {},
             {},
             {},
             {}];
InitialSolution = [1, 5, 2, 6, 3, 4, 7, 8, 10, 11, 9, 12, 13, 14, 15];