numResources = 4;
numTasks = 15;
Duration = [5, 5, 9, 9, 50, 150, 100, 25, 50, 150, 250, 2, 10, 9, 2];
ResourceCapability = [19, 32, 29, 24];
ResourceRequirement = [|9, 1, 10, 3, 1, 5, 9, 1, 6, 3, 3, 5, 1, 3, 9
                       |5, 3, 1, 8, 10, 1, 8, 1, 1, 10, 9, 5, 1, 9, 7
                       |5, 10, 7, 3, 2, 2, 2, 10, 9, 4, 8, 5, 2, 7, 3
                       |4, 4, 5, 2, 5, 3, 5, 6, 6, 9, 7, 4, 7, 2, 9|];
Successor = [{8},
             {5, 6, 9, 10, 11, 12, 13, 14},
             {4, 7, 12, 14, 15},
             {7, 12, 15},
             {12},
             {10, 11, 12, 13},
             {},
             {},
             {14},
             {},
             {12, 13},
             {},
             {},
             {},
             {}];
InitialSolution = [2, 3, 6, 4, 11, 1, 5, 9, 7, 8, 10, 12, 13, 14, 15];