numResources = 4;
numTasks = 15;
Duration = [10, 9, 6, 5, 25, 225, 150, 75, 50, 75, 200, 2, 7, 6, 2];
ResourceCapability = [14, 15, 15, 13];
ResourceRequirement = [|7, 6, 5, 1, 10, 1, 5, 2, 4, 2, 2, 9, 2, 6, 3
                       |8, 7, 7, 6, 7, 8, 6, 9, 5, 10, 4, 8, 9, 5, 6
                       |3, 2, 6, 7, 4, 7, 9, 9, 4, 9, 10, 10, 9, 3, 8
                       |10, 4, 4, 4, 2, 8, 6, 3, 5, 10, 2, 1, 10, 4, 4|];
Successor = [{5, 9, 10, 12, 13, 14, 15},
             {4, 5, 6, 7, 8, 9, 10, 11, 12, 13, 14, 15},
             {6, 7, 8, 10, 11, 12, 13, 14, 15},
             {6, 7, 10, 11, 12, 13, 14, 15},
             {9, 10, 12, 14},
             {7, 11, 12, 13, 14},
             {12},
             {10, 14, 15},
             {12, 14},
             {},
             {12, 13, 14},
             {},
             {14},
             {},
             {}];
InitialSolution = [2, 3, 4, 1, 6, 5, 8, 11, 9, 7, 13, 10, 12, 14, 15];