numResources = 4;
numTasks = 15;
Duration = [9, 10, 7, 2, 225, 125, 200, 200, 200, 175, 200, 2, 1, 5, 9];
ResourceCapability = [13, 15, 15, 14];
ResourceRequirement = [|0, 8, 0, 4, 6, 9, 5, 3, 0, 5, 7, 0, 2, 0, 4
                       |10, 1, 1, 3, 9, 6, 5, 9, 8, 0, 0, 8, 5, 0, 7
                       |5, 0, 9, 5, 7, 9, 7, 0, 3, 7, 7, 0, 0, 6, 0
                       |3, 3, 8, 0, 7, 0, 3, 3, 2, 0, 8, 8, 10, 4, 4|];
Successor = [{4, 7, 8, 9, 10, 12, 13, 14, 15},
             {6, 7, 8, 10, 14, 15},
             {5, 8, 10, 11, 14, 15},
             {7, 8, 10, 12, 15},
             {8},
             {8},
             {10, 15},
             {},
             {12, 13, 14, 15},
             {15},
             {14},
             {15},
             {14, 15},
             {},
             {}];
InitialSolution = [1, 2, 3, 4, 9, 7, 13, 5, 6, 10, 11, 12, 8, 14, 15];