numResources = 4;
numTasks = 15;
Duration = [7, 10, 2, 6, 200, 25, 200, 25, 175, 100, 150, 4, 9, 10, 1];
ResourceCapability = [43, 40, 44, 35];
ResourceRequirement = [|3, 5, 4, 7, 4, 2, 3, 10, 10, 4, 2, 7, 7, 8, 4
                       |10, 8, 4, 5, 7, 6, 7, 4, 10, 1, 6, 7, 9, 1, 6
                       |4, 9, 3, 9, 3, 9, 9, 8, 3, 4, 6, 8, 8, 3, 2
                       |4, 8, 9, 10, 4, 7, 8, 3, 1, 5, 2, 10, 8, 9, 7|];
Successor = [{4, 5, 7, 8, 9, 10, 11, 12, 13, 14, 15},
             {6, 7, 12, 13, 14, 15},
             {10, 13},
             {5, 7, 8, 9, 10, 11, 12, 13, 15},
             {7, 12, 15},
             {12, 14, 15},
             {15},
             {10, 15},
             {11, 12, 13, 15},
             {},
             {12, 13, 15},
             {15},
             {},
             {},
             {}];
InitialSolution = [1, 4, 2, 9, 5, 6, 11, 3, 8, 7, 12, 10, 13, 14, 15];