numResources = 4;
numTasks = 15;
Duration = [10, 1, 8, 7, 250, 100, 50, 225, 225, 25, 100, 8, 7, 1, 2];
ResourceCapability = [23, 35, 22, 24];
ResourceRequirement = [|2, 0, 6, 0, 0, 0, 3, 4, 10, 5, 6, 3, 7, 9, 0
                       |9, 0, 7, 9, 2, 5, 6, 10, 0, 6, 5, 9, 0, 5, 0
                       |0, 8, 4, 2, 6, 7, 0, 0, 2, 8, 0, 5, 0, 1, 9
                       |0, 6, 6, 10, 0, 1, 0, 1, 1, 10, 0, 1, 8, 0, 0|];
Successor = [{9, 14},
             {5, 6, 7, 9, 10, 11, 12, 13, 14, 15},
             {4, 8, 9, 11, 12, 15},
             {15},
             {7, 9, 13, 14, 15},
             {10, 11, 12, 13, 14, 15},
             {9, 14, 15},
             {9},
             {},
             {11, 12, 13, 14, 15},
             {12, 15},
             {15},
             {},
             {},
             {}];
InitialSolution = [2, 3, 6, 5, 10, 7, 1, 11, 4, 8, 12, 9, 13, 14, 15];