numResources = 4;
numTasks = 15;
Duration = [7, 6, 1, 6, 125, 225, 225, 150, 75, 75, 25, 5, 2, 9, 2];
ResourceCapability = [17, 17, 17, 13];
ResourceRequirement = [|6, 4, 1, 5, 2, 10, 6, 4, 6, 2, 4, 4, 4, 10, 8
                       |7, 3, 5, 6, 6, 3, 10, 10, 2, 3, 5, 1, 6, 10, 6
                       |8, 8, 2, 3, 1, 4, 10, 5, 7, 2, 6, 4, 9, 6, 4
                       |2, 1, 9, 7, 4, 5, 5, 6, 6, 4, 2, 10, 6, 8, 7|];
Successor = [{5, 7, 8, 10, 11, 13, 14, 15},
             {4, 6, 8, 10, 11, 14, 15},
             {8, 9, 12, 13, 14, 15},
             {6, 11, 14, 15},
             {10, 11, 15},
             {14},
             {8, 13, 14},
             {},
             {15},
             {},
             {15},
             {13, 14, 15},
             {14},
             {},
             {}];
InitialSolution = [1, 2, 3, 4, 5, 7, 12, 6, 9, 11, 13, 8, 10, 14, 15];