numResources = 4;
numTasks = 15;
Duration = [9, 3, 1, 2, 225, 100, 25, 125, 125, 150, 50, 6, 6, 10, 6];
ResourceCapability = [18, 21, 21, 23];
ResourceRequirement = [|7, 7, 4, 1, 10, 2, 8, 9, 1, 2, 5, 4, 0, 2, 1
                       |6, 2, 0, 8, 8, 10, 9, 9, 8, 9, 1, 1, 2, 10, 3
                       |3, 7, 0, 2, 8, 6, 0, 0, 0, 4, 9, 4, 0, 9, 3
                       |0, 5, 8, 0, 0, 10, 8, 7, 7, 4, 1, 7, 7, 0, 0|];
Successor = [{4, 7, 11, 13, 14, 15},
             {5, 6, 8, 9, 10, 11, 12, 14, 15},
             {7, 9, 10, 11, 12, 14, 15},
             {7, 15},
             {6, 8, 10, 14, 15},
             {14, 15},
             {},
             {},
             {10, 11, 12, 14, 15},
             {15},
             {14, 15},
             {14, 15},
             {},
             {15},
             {}];
InitialSolution = [2, 3, 1, 5, 9, 4, 6, 11, 12, 10, 14, 7, 8, 13, 15];