numResources = 4;
numTasks = 15;
Duration = [6, 9, 1, 9, 25, 125, 175, 25, 250, 150, 200, 5, 9, 5, 9];
ResourceCapability = [19, 21, 22, 25];
ResourceRequirement = [|0, 1, 0, 0, 8, 7, 6, 0, 0, 1, 0, 0, 7, 9, 0
                       |2, 0, 2, 10, 5, 0, 0, 10, 3, 2, 0, 2, 10, 0, 7
                       |0, 5, 10, 7, 0, 9, 6, 3, 7, 7, 7, 4, 8, 1, 2
                       |9, 4, 8, 7, 1, 7, 0, 2, 10, 1, 5, 7, 0, 7, 0|];
Successor = [{5, 7, 9, 10, 11, 13, 14},
             {4, 7, 9, 11, 13, 14, 15},
             {5, 6, 7, 8, 9, 10, 11, 12, 13, 14, 15},
             {7, 9, 11, 13, 15},
             {7, 9, 10, 11, 13},
             {8, 9, 11, 12, 14},
             {9, 11},
             {9, 12, 14},
             {},
             {},
             {},
             {14},
             {},
             {},
             {}];
InitialSolution = [3, 1, 2, 4, 5, 6, 8, 7, 12, 9, 10, 11, 13, 14, 15];