numResources = 4;
numTasks = 15;
Duration = [2, 3, 9, 2, 50, 100, 200, 75, 225, 175, 250, 8, 7, 8, 6];
ResourceCapability = [18, 12, 16, 10];
ResourceRequirement = [|0, 3, 0, 0, 0, 2, 0, 0, 0, 8, 0, 1, 0, 10, 0
                       |0, 0, 0, 0, 0, 0, 0, 2, 3, 0, 0, 0, 7, 0, 6
                       |9, 0, 7, 0, 0, 0, 7, 0, 0, 0, 5, 0, 0, 0, 0
                       |0, 0, 0, 10, 1, 0, 0, 0, 0, 0, 0, 0, 0, 0, 0|];
Successor = [{6, 8, 9, 10, 11, 14},
             {5, 7, 8, 14},
             {4, 12, 13, 14, 15},
             {12, 13, 14},
             {},
             {8, 9, 10, 11, 14},
             {8, 14},
             {14},
             {10, 11, 14},
             {11, 14},
             {14},
             {13, 14},
             {14},
             {},
             {}];
InitialSolution = [1, 3, 6, 2, 4, 9, 7, 10, 12, 8, 11, 13, 5, 14, 15];