numResources = 4;
numTasks = 15;
Duration = [3, 5, 8, 5, 75, 125, 75, 250, 150, 175, 200, 7, 1, 8, 4];
ResourceCapability = [13, 12, 15, 13];
ResourceRequirement = [|3, 8, 10, 0, 0, 7, 9, 0, 0, 6, 3, 5, 5, 0, 0
                       |6, 6, 0, 6, 1, 7, 3, 1, 7, 1, 3, 7, 2, 0, 9
                       |0, 0, 10, 6, 4, 7, 9, 7, 5, 2, 4, 5, 0, 1, 0
                       |7, 2, 3, 0, 1, 10, 3, 2, 2, 6, 0, 7, 2, 8, 2|];
Successor = [{4, 5, 6, 7, 8, 10, 11, 12, 13, 14, 15},
             {12, 15},
             {7, 9, 10, 11, 12, 13, 14, 15},
             {8, 10, 11, 12, 13, 14, 15},
             {7, 10, 12, 13, 14},
             {8, 13, 14},
             {10, 12, 13, 14},
             {},
             {11, 14, 15},
             {12, 13, 14},
             {15},
             {},
             {},
             {},
             {}];
InitialSolution = [1, 3, 4, 5, 7, 6, 9, 10, 2, 11, 8, 12, 13, 14, 15];