numResources = 4;
numTasks = 15;
Duration = [2, 10, 4, 5, 200, 225, 50, 25, 75, 25, 125, 8, 5, 6, 8];
ResourceCapability = [20, 25, 20, 18];
ResourceRequirement = [|5, 6, 3, 3, 9, 8, 10, 9, 10, 8, 6, 5, 4, 3, 6
                       |6, 9, 8, 8, 8, 1, 3, 5, 4, 9, 10, 10, 8, 1, 10
                       |8, 1, 2, 6, 1, 10, 7, 7, 6, 10, 5, 10, 3, 10, 6
                       |9, 7, 8, 9, 1, 5, 6, 4, 1, 1, 6, 8, 5, 4, 2|];
Successor = [{7},
             {10, 11, 13, 14, 15},
             {4, 5, 6, 8, 9, 10, 11, 12, 13, 14, 15},
             {5, 8, 10, 11, 12, 13, 14, 15},
             {8, 10, 11, 12, 13, 14, 15},
             {13, 15},
             {},
             {10, 11, 13, 15},
             {10, 11, 12, 13, 14, 15},
             {11, 13, 15},
             {15},
             {15},
             {},
             {},
             {}];
InitialSolution = [3, 4, 5, 9, 2, 8, 10, 6, 1, 11, 12, 7, 13, 14, 15];