numResources = 4;
numTasks = 15;
Duration = [5, 6, 2, 10, 200, 150, 75, 125, 50, 225, 250, 1, 2, 1, 6];
ResourceCapability = [21, 20, 21, 20];
ResourceRequirement = [|5, 7, 10, 1, 3, 6, 5, 3, 2, 6, 1, 1, 3, 8, 10
                       |9, 8, 10, 4, 8, 7, 8, 5, 7, 1, 8, 9, 9, 7, 7
                       |3, 1, 7, 3, 3, 1, 9, 5, 1, 7, 6, 6, 5, 9, 1
                       |4, 8, 5, 1, 7, 7, 1, 8, 8, 10, 9, 9, 4, 7, 3|];
Successor = [{4, 9, 10, 15},
             {5, 6, 7, 8, 10, 11, 12, 13, 14, 15},
             {7, 9, 10, 12, 13, 14, 15},
             {9, 10, 15},
             {10, 12, 13, 14, 15},
             {8, 11, 14, 15},
             {},
             {15},
             {10, 15},
             {15},
             {},
             {13, 14, 15},
             {14},
             {},
             {}];
InitialSolution = [2, 3, 5, 1, 6, 4, 12, 9, 8, 10, 13, 7, 11, 14, 15];