numResources = 4;
numTasks = 15;
Duration = [3, 5, 6, 1, 125, 25, 225, 75, 75, 225, 50, 4, 6, 8, 5];
ResourceCapability = [14, 14, 14, 13];
ResourceRequirement = [|5, 6, 1, 1, 6, 10, 9, 8, 8, 4, 10, 8, 1, 2, 4
                       |5, 8, 3, 10, 10, 4, 4, 1, 5, 3, 9, 7, 4, 6, 10
                       |2, 7, 4, 6, 6, 3, 3, 7, 9, 2, 1, 2, 7, 7, 6
                       |10, 5, 3, 10, 7, 3, 9, 3, 5, 1, 9, 1, 5, 7, 7|];
Successor = [{4, 6, 9, 10, 11, 12, 13, 14, 15},
             {5, 6, 7, 8, 10, 11, 12, 13, 14, 15},
             {4, 6, 9, 10, 11, 12, 13, 14},
             {6, 10, 11, 12, 13, 14},
             {7, 10, 11, 13, 14, 15},
             {10, 11, 13, 14},
             {11, 13, 14},
             {12},
             {13, 14},
             {11},
             {},
             {},
             {14},
             {},
             {}];
InitialSolution = [2, 1, 3, 4, 5, 6, 7, 9, 8, 10, 13, 11, 12, 14, 15];