numResources = 4;
numTasks = 15;
Duration = [5, 4, 1, 9, 100, 150, 75, 225, 25, 25, 250, 3, 9, 10, 8];
ResourceCapability = [23, 32, 31, 26];
ResourceRequirement = [|8, 8, 10, 8, 10, 4, 8, 7, 4, 3, 3, 3, 6, 4, 8
                       |3, 7, 6, 1, 3, 4, 5, 7, 10, 2, 10, 8, 3, 10, 1
                       |5, 3, 9, 7, 2, 1, 10, 4, 1, 8, 1, 10, 6, 1, 7
                       |6, 6, 1, 3, 3, 7, 10, 6, 1, 7, 3, 7, 3, 4, 7|];
Successor = [{6, 7, 9, 10, 14, 15},
             {4, 5, 7, 8, 10, 11, 12, 13, 14, 15},
             {},
             {10, 13, 14, 15},
             {7, 8, 10, 12, 14},
             {7, 10, 14},
             {10, 14},
             {},
             {10, 14},
             {14},
             {},
             {14},
             {15},
             {},
             {}];
InitialSolution = [2, 1, 5, 4, 6, 7, 9, 10, 12, 13, 3, 8, 11, 14, 15];