numResources = 4;
numTasks = 15;
Duration = [3, 7, 10, 9, 150, 150, 200, 25, 175, 150, 250, 8, 5, 3, 3];
ResourceCapability = [16, 20, 17, 17];
ResourceRequirement = [|6, 5, 0, 2, 0, 9, 0, 5, 0, 1, 4, 0, 2, 1, 9
                       |0, 8, 2, 8, 0, 0, 3, 1, 8, 9, 5, 7, 6, 7, 1
                       |4, 2, 0, 0, 9, 10, 8, 5, 8, 0, 9, 0, 3, 4, 0
                       |9, 0, 9, 0, 9, 9, 2, 5, 8, 2, 2, 2, 2, 0, 5|];
Successor = [{11},
             {7, 8, 9, 10, 11, 12, 13, 14, 15},
             {4, 5, 6, 12, 13, 14, 15},
             {13, 14},
             {6, 12, 13, 14, 15},
             {14},
             {8, 9, 10, 11, 13, 14},
             {10},
             {10, 11, 14},
             {},
             {},
             {13},
             {},
             {},
             {}];
InitialSolution = [2, 3, 7, 5, 9, 4, 1, 6, 8, 12, 10, 11, 13, 14, 15];