numResources = 4;
numTasks = 15;
Duration = [2, 5, 9, 7, 150, 175, 225, 50, 125, 50, 250, 8, 5, 8, 6];
ResourceCapability = [20, 24, 21, 25];
ResourceRequirement = [|5, 10, 4, 3, 0, 1, 9, 5, 3, 6, 7, 0, 6, 0, 0
                       |0, 7, 9, 0, 10, 7, 0, 0, 0, 10, 0, 1, 0, 3, 9
                       |3, 5, 8, 6, 1, 2, 8, 0, 8, 9, 1, 5, 9, 6, 4
                       |0, 5, 0, 2, 0, 7, 7, 0, 8, 0, 0, 7, 4, 6, 9|];
Successor = [{11, 12, 15},
             {6, 7, 9, 10, 11, 12, 13, 14, 15},
             {4, 5, 8, 11, 12, 13, 15},
             {5, 8, 11, 12, 13, 15},
             {},
             {11, 12, 13, 15},
             {10, 12, 14, 15},
             {13, 15},
             {12, 13, 15},
             {12, 14},
             {12, 15},
             {},
             {15},
             {},
             {}];
InitialSolution = [2, 3, 4, 6, 7, 1, 9, 8, 10, 11, 13, 5, 12, 14, 15];