numResources = 4;
numTasks = 15;
Duration = [5, 4, 9, 10, 125, 200, 100, 125, 200, 175, 250, 6, 9, 6, 4];
ResourceCapability = [14, 14, 13, 14];
ResourceRequirement = [|0, 0, 10, 0, 6, 2, 9, 0, 9, 8, 1, 5, 0, 0, 0
                       |0, 0, 6, 10, 5, 1, 0, 0, 4, 0, 9, 10, 2, 2, 2
                       |6, 2, 9, 0, 3, 0, 4, 8, 5, 5, 3, 4, 0, 3, 7
                       |3, 8, 10, 5, 10, 2, 10, 1, 10, 3, 0, 3, 3, 0, 9|];
Successor = [{7, 11, 15},
             {4, 5, 6, 7, 8, 9, 10, 11, 12, 13, 14, 15},
             {5, 8, 9, 10, 12, 13, 14},
             {6, 7, 8, 9, 11, 14, 15},
             {8, 9, 10, 14},
             {8, 9, 11},
             {15},
             {9},
             {},
             {},
             {},
             {13},
             {},
             {},
             {}];
InitialSolution = [2, 3, 4, 5, 1, 6, 7, 8, 12, 9, 10, 11, 13, 14, 15];