numResources = 4;
numTasks = 15;
Duration = [8, 7, 9, 7, 125, 250, 125, 175, 200, 250, 175, 5, 8, 7, 8];
ResourceCapability = [24, 23, 22, 23];
ResourceRequirement = [|9, 9, 1, 5, 7, 3, 8, 6, 1, 7, 10, 7, 7, 10, 3
                       |10, 3, 7, 4, 5, 5, 8, 10, 10, 6, 7, 8, 1, 5, 4
                       |7, 4, 2, 5, 10, 10, 9, 10, 5, 5, 3, 4, 8, 3, 2
                       |4, 6, 5, 2, 5, 2, 9, 3, 10, 2, 5, 8, 10, 2, 5|];
Successor = [{8, 9, 12, 14, 15},
             {7, 12, 13, 15},
             {4, 5, 6, 7, 8, 10, 11, 12, 13, 14, 15},
             {11, 14},
             {6, 7, 8, 12, 13, 15},
             {8, 12, 13},
             {12, 15},
             {12},
             {12, 15},
             {15},
             {},
             {},
             {},
             {},
             {}];
InitialSolution = [3, 5, 1, 2, 6, 4, 7, 9, 8, 10, 11, 12, 13, 14, 15];