numResources = 4;
numTasks = 15;
Duration = [10, 10, 2, 8, 250, 25, 175, 200, 225, 200, 200, 2, 1, 4, 9];
ResourceCapability = [14, 14, 13, 15];
ResourceRequirement = [|2, 6, 2, 6, 6, 1, 6, 2, 8, 8, 9, 8, 3, 9, 8
                       |4, 8, 10, 10, 1, 6, 7, 1, 1, 1, 3, 8, 1, 8, 7
                       |3, 3, 1, 4, 7, 9, 10, 3, 3, 8, 7, 10, 5, 4, 3
                       |3, 1, 1, 3, 3, 10, 2, 6, 9, 9, 5, 1, 8, 4, 5|];
Successor = [{4, 5, 6, 7, 8, 9, 10, 11, 12, 13, 14, 15},
             {6, 7, 8, 12, 13, 15},
             {8, 9, 10, 11, 12, 13, 15},
             {5, 8, 10, 11, 12, 13, 14, 15},
             {8, 10, 11, 12, 13, 14, 15},
             {7, 8, 12, 13},
             {13},
             {12, 13},
             {},
             {11, 12, 13, 15},
             {12, 13, 15},
             {13},
             {},
             {},
             {}];
InitialSolution = [1, 4, 3, 5, 2, 6, 10, 11, 8, 7, 12, 9, 13, 14, 15];