numResources = 4;
numTasks = 15;
Duration = [2, 6, 9, 9, 250, 175, 250, 175, 125, 200, 250, 2, 8, 6, 1];
ResourceCapability = [32, 37, 42, 42];
ResourceRequirement = [|0, 0, 9, 0, 1, 2, 8, 0, 4, 3, 10, 8, 2, 0, 5
                       |6, 0, 2, 7, 4, 9, 8, 1, 8, 3, 0, 6, 2, 8, 4
                       |7, 8, 6, 0, 9, 6, 0, 3, 0, 9, 0, 4, 1, 0, 10
                       |6, 1, 3, 0, 10, 0, 0, 8, 0, 8, 7, 0, 9, 3, 0|];
Successor = [{6, 7, 8, 9, 10, 11, 12, 13, 14, 15},
             {4, 12, 13, 14, 15},
             {4, 5, 9, 10, 13, 14, 15},
             {14, 15},
             {15},
             {9, 10, 11, 13, 14, 15},
             {12, 13, 15},
             {12, 13, 14, 15},
             {10, 13, 14, 15},
             {13, 15},
             {},
             {13, 15},
             {15},
             {15},
             {}];
InitialSolution = [1, 3, 6, 2, 8, 9, 7, 4, 10, 12, 5, 13, 14, 11, 15];