numResources = 4;
numTasks = 15;
Duration = [4, 5, 3, 6, 150, 25, 25, 250, 125, 150, 125, 3, 9, 9, 7];
ResourceCapability = [32, 33, 31, 34];
ResourceRequirement = [|5, 8, 6, 8, 5, 7, 4, 8, 4, 2, 3, 6, 1, 6, 6
                       |6, 7, 9, 2, 6, 5, 9, 4, 6, 10, 1, 10, 6, 9, 1
                       |7, 6, 4, 10, 4, 10, 8, 1, 6, 1, 9, 3, 8, 3, 10
                       |7, 10, 6, 4, 10, 6, 9, 7, 5, 9, 4, 7, 7, 6, 8|];
Successor = [{9, 11, 12, 13, 14, 15},
             {5, 6, 7, 9, 10, 12, 13, 14, 15},
             {4, 5, 6, 7, 8, 9, 10, 11, 12, 13, 14, 15},
             {8, 11, 12, 13, 15},
             {6, 7, 9, 10, 12, 13, 14},
             {7, 14},
             {14},
             {15},
             {12, 13, 14},
             {12, 13},
             {12, 13, 15},
             {13},
             {},
             {},
             {}];
InitialSolution = [3, 2, 5, 1, 4, 9, 11, 6, 10, 7, 8, 12, 13, 14, 15];