numResources = 4;
numTasks = 15;
Duration = [6, 3, 5, 5, 75, 150, 250, 50, 250, 150, 225, 2, 5, 1, 9];
ResourceCapability = [20, 20, 21, 25];
ResourceRequirement = [|6, 5, 10, 1, 4, 0, 8, 0, 0, 5, 0, 5, 6, 0, 3
                       |7, 6, 3, 2, 5, 0, 8, 5, 10, 3, 10, 4, 5, 9, 8
                       |2, 0, 3, 0, 5, 10, 0, 0, 6, 0, 6, 0, 5, 1, 0
                       |0, 3, 9, 9, 5, 3, 10, 3, 6, 10, 1, 4, 3, 5, 0|];
Successor = [{4, 6, 8, 9, 10, 11, 12, 13, 14, 15},
             {5, 7, 8, 9, 11, 12, 13, 14, 15},
             {5, 8, 9, 10, 11, 13, 14, 15},
             {10, 13, 14},
             {8, 9, 11, 13, 14, 15},
             {8, 9, 11, 13, 15},
             {15},
             {9, 11, 13, 15},
             {11, 13, 15},
             {14},
             {13, 15},
             {14, 15},
             {},
             {},
             {}];
InitialSolution = [1, 2, 3, 5, 6, 8, 4, 9, 11, 12, 7, 10, 13, 14, 15];