numResources = 4;
numTasks = 15;
Duration = [5, 10, 5, 2, 75, 75, 75, 125, 200, 50, 75, 9, 9, 6, 3];
ResourceCapability = [22, 24, 22, 23];
ResourceRequirement = [|2, 4, 10, 1, 9, 7, 5, 1, 8, 9, 8, 1, 1, 10, 3
                       |2, 6, 4, 6, 4, 3, 10, 10, 9, 10, 5, 3, 1, 9, 6
                       |3, 1, 1, 6, 9, 3, 8, 8, 5, 2, 1, 2, 9, 10, 7
                       |4, 9, 3, 1, 1, 4, 10, 5, 8, 1, 3, 8, 3, 6, 2|];
Successor = [{6, 7, 8, 12, 13, 14},
             {9, 13},
             {4, 5, 8, 9, 10, 11, 12, 13, 14, 15},
             {9},
             {8, 12, 13, 14},
             {7, 13, 14},
             {},
             {},
             {},
             {11, 14, 15},
             {15},
             {13, 14},
             {},
             {},
             {}];
InitialSolution = [3, 1, 5, 6, 10, 2, 12, 4, 11, 7, 8, 9, 13, 14, 15];