numResources = 4;
numTasks = 15;
Duration = [3, 4, 2, 10, 225, 125, 75, 225, 125, 175, 150, 1, 9, 4, 8];
ResourceCapability = [14, 12, 12, 11];
ResourceRequirement = [|0, 4, 4, 6, 0, 4, 5, 4, 10, 8, 2, 0, 5, 1, 2
                       |0, 9, 0, 2, 9, 0, 3, 0, 4, 0, 9, 0, 4, 0, 0
                       |0, 1, 2, 10, 10, 0, 5, 6, 0, 9, 0, 4, 0, 0, 0
                       |4, 4, 0, 0, 0, 0, 2, 0, 0, 0, 2, 0, 6, 0, 9|];
Successor = [{4, 5, 6, 7, 8, 9, 10, 11, 12, 14},
             {15},
             {13},
             {5, 6, 7, 8, 9, 10, 11, 12, 14},
             {6, 8, 10, 11, 12, 14},
             {10, 12},
             {},
             {10, 12, 14},
             {11, 14},
             {12},
             {14},
             {},
             {},
             {},
             {}];
InitialSolution = [1, 4, 5, 8, 6, 9, 2, 3, 10, 11, 7, 12, 13, 14, 15];