numResources = 4;
numTasks = 15;
Duration = [10, 6, 10, 8, 150, 100, 125, 125, 225, 225, 250, 9, 9, 5, 9];
ResourceCapability = [15, 12, 13, 14];
ResourceRequirement = [|0, 10, 9, 4, 2, 2, 0, 0, 9, 8, 0, 0, 0, 8, 6
                       |7, 0, 2, 0, 0, 6, 0, 10, 0, 0, 3, 9, 0, 0, 0
                       |0, 4, 2, 5, 3, 8, 3, 0, 0, 6, 0, 0, 0, 6, 5
                       |0, 0, 0, 0, 4, 0, 0, 3, 8, 0, 0, 0, 5, 9, 10|];
Successor = [{6, 9, 12},
             {8, 11, 13, 15},
             {4, 5, 7, 10, 14},
             {},
             {7, 14},
             {9, 12},
             {14},
             {13, 15},
             {},
             {},
             {},
             {},
             {15},
             {},
             {}];
InitialSolution = [3, 2, 1, 5, 6, 8, 7, 13, 4, 9, 10, 11, 12, 14, 15];