numResources = 4;
numTasks = 15;
Duration = [10, 4, 6, 8, 175, 250, 200, 75, 175, 125, 125, 9, 1, 9, 5];
ResourceCapability = [12, 13, 13, 14];
ResourceRequirement = [|2, 6, 0, 6, 0, 9, 3, 2, 0, 4, 0, 1, 7, 1, 0
                       |0, 0, 1, 0, 0, 0, 6, 0, 10, 0, 8, 0, 9, 0, 0
                       |6, 8, 0, 0, 3, 5, 0, 3, 3, 0, 0, 7, 0, 4, 1
                       |9, 0, 10, 0, 0, 0, 2, 0, 6, 0, 9, 6, 0, 8, 3|];
Successor = [{9, 11, 12, 13, 15},
             {5, 7},
             {4, 6, 8, 10, 14},
             {10, 14},
             {7},
             {8},
             {},
             {},
             {12, 13},
             {},
             {13},
             {},
             {},
             {},
             {}];
InitialSolution = [1, 3, 2, 4, 9, 5, 6, 11, 7, 8, 10, 12, 13, 14, 15];