numResources = 4;
numTasks = 15;
Duration = [2, 3, 7, 1, 200, 75, 75, 50, 225, 250, 200, 6, 3, 1, 9];
ResourceCapability = [20, 20, 13, 18];
ResourceRequirement = [|0, 2, 0, 6, 4, 0, 0, 0, 10, 7, 0, 4, 0, 0, 0
                       |0, 0, 10, 9, 0, 10, 0, 5, 4, 0, 8, 0, 1, 0, 8
                       |4, 1, 10, 4, 8, 0, 2, 0, 0, 0, 0, 0, 0, 0, 1
                       |0, 1, 0, 0, 0, 0, 8, 6, 7, 4, 1, 0, 10, 8, 0|];
Successor = [{},
             {11},
             {4, 5, 6, 7, 8, 9, 10, 11, 12, 13, 14, 15},
             {7, 8, 9, 11, 12, 13, 14, 15},
             {6},
             {},
             {8, 9, 11, 12, 15},
             {15},
             {12},
             {},
             {},
             {},
             {14},
             {},
             {}];
InitialSolution = [3, 4, 7, 2, 5, 8, 9, 13, 1, 6, 10, 11, 12, 14, 15];