numResources = 4;
numTasks = 15;
Duration = [4, 10, 4, 5, 200, 50, 50, 250, 50, 150, 175, 2, 10, 4, 9];
ResourceCapability = [17, 23, 20, 25];
ResourceRequirement = [|0, 10, 8, 0, 6, 0, 0, 9, 0, 1, 0, 0, 0, 0, 0
                       |10, 3, 0, 2, 0, 0, 10, 0, 0, 0, 1, 0, 7, 0, 0
                       |10, 4, 0, 1, 7, 4, 3, 0, 0, 0, 0, 3, 0, 0, 7
                       |0, 0, 0, 3, 0, 6, 0, 10, 1, 6, 0, 0, 2, 8, 0|];
Successor = [{12, 13, 15},
             {10, 12, 13, 15},
             {4, 5, 6, 7, 8, 9, 11, 14},
             {7, 8, 9, 11, 14},
             {},
             {},
             {8, 9, 11, 14},
             {},
             {11, 14},
             {13},
             {},
             {15},
             {},
             {},
             {}];
InitialSolution = [3, 4, 2, 7, 1, 9, 10, 12, 5, 6, 8, 11, 13, 14, 15];