numResources = 4;
numTasks = 15;
Duration = [9, 9, 2, 1, 50, 250, 125, 225, 100, 25, 100, 6, 8, 7, 3];
ResourceCapability = [14, 19, 24, 19];
ResourceRequirement = [|0, 0, 2, 7, 0, 0, 0, 4, 0, 0, 0, 2, 0, 0, 7
                       |6, 0, 4, 5, 0, 0, 0, 0, 0, 6, 0, 10, 9, 8, 8
                       |0, 1, 0, 6, 0, 8, 6, 6, 9, 4, 9, 0, 0, 0, 0
                       |0, 3, 0, 4, 8, 1, 3, 2, 1, 5, 4, 5, 7, 0, 0|];
Successor = [{15},
             {4, 5, 7, 9, 11, 12, 13, 14, 15},
             {6, 8, 10},
             {11, 13},
             {14},
             {8, 10},
             {9, 12, 13, 15},
             {},
             {12, 13, 15},
             {},
             {13},
             {13, 15},
             {},
             {},
             {}];
InitialSolution = [2, 7, 3, 9, 4, 6, 12, 1, 5, 11, 8, 10, 13, 14, 15];