numResources = 4;
numTasks = 15;
Duration = [8, 7, 3, 7, 75, 225, 75, 225, 100, 75, 225, 4, 10, 7, 2];
ResourceCapability = [28, 28, 14, 27];
ResourceRequirement = [|6, 10, 8, 0, 0, 0, 0, 0, 0, 7, 0, 6, 5, 1, 0
                       |0, 0, 0, 10, 9, 0, 0, 6, 10, 0, 10, 0, 9, 2, 5
                       |0, 4, 0, 5, 0, 0, 0, 0, 8, 0, 9, 0, 0, 0, 0
                       |0, 6, 8, 3, 10, 4, 3, 0, 10, 8, 0, 0, 5, 7, 7|];
Successor = [{6},
             {4, 5, 7, 8, 11, 12, 14},
             {9, 10, 13, 15},
             {5, 7, 11},
             {},
             {},
             {11},
             {12, 14},
             {10, 13, 15},
             {},
             {},
             {14},
             {},
             {},
             {}];
InitialSolution = [2, 3, 4, 9, 8, 1, 7, 12, 5, 6, 10, 11, 13, 14, 15];