numResources = 4;
numTasks = 15;
Duration = [7, 3, 5, 1, 250, 125, 225, 25, 125, 50, 25, 7, 4, 5, 7];
ResourceCapability = [25, 22, 18, 24];
ResourceRequirement = [|6, 0, 2, 0, 4, 9, 0, 0, 0, 0, 0, 3, 0, 3, 0
                       |7, 0, 0, 0, 0, 6, 0, 0, 8, 9, 6, 4, 10, 9, 0
                       |0, 1, 2, 7, 5, 3, 6, 2, 0, 4, 0, 4, 8, 0, 8
                       |0, 6, 0, 0, 0, 10, 7, 3, 0, 10, 0, 0, 7, 4, 0|];
Successor = [{},
             {4, 5, 6, 7, 8, 9, 10, 11, 12, 13, 14, 15},
             {},
             {6, 8, 13},
             {7, 9, 11, 12, 14, 15},
             {8, 13},
             {},
             {},
             {11, 12, 15},
             {},
             {},
             {15},
             {},
             {},
             {}];
InitialSolution = [2, 5, 4, 9, 6, 12, 1, 3, 7, 8, 10, 11, 13, 14, 15];