numResources = 4;
numTasks = 15;
Duration = [3, 1, 6, 6, 100, 250, 200, 225, 125, 200, 125, 2, 2, 5, 4];
ResourceCapability = [18, 33, 33, 22];
ResourceRequirement = [|8, 9, 0, 0, 5, 0, 0, 0, 0, 5, 5, 0, 0, 4, 4
                       |0, 8, 0, 9, 10, 3, 7, 0, 9, 4, 9, 0, 1, 9, 3
                       |6, 0, 4, 5, 3, 10, 6, 2, 0, 8, 0, 4, 0, 7, 0
                       |8, 0, 0, 0, 0, 0, 0, 9, 2, 2, 1, 0, 0, 0, 0|];
Successor = [{4, 8, 12, 14},
             {5, 6, 7, 9, 10, 13, 15},
             {11, 15},
             {8, 14},
             {6, 9, 10, 13, 15},
             {9},
             {15},
             {},
             {},
             {15},
             {15},
             {},
             {},
             {},
             {}];
InitialSolution = [2, 5, 1, 3, 4, 6, 7, 10, 11, 8, 9, 12, 13, 14, 15];