numResources = 4;
numTasks = 15;
Duration = [6, 4, 1, 8, 175, 100, 150, 200, 200, 100, 200, 5, 2, 8, 6];
ResourceCapability = [25, 20, 31, 29];
ResourceRequirement = [|9, 0, 9, 8, 3, 9, 3, 0, 0, 0, 0, 0, 3, 4, 2
                       |1, 4, 0, 2, 5, 3, 3, 7, 0, 0, 0, 2, 0, 0, 3
                       |4, 0, 5, 1, 0, 0, 0, 3, 4, 0, 0, 5, 3, 1, 0
                       |0, 0, 0, 0, 0, 0, 0, 9, 0, 7, 1, 0, 0, 0, 0|];
Successor = [{4, 8, 13, 14, 15},
             {5, 7, 9, 10},
             {6, 11, 12},
             {8},
             {9, 10},
             {12},
             {9},
             {},
             {},
             {},
             {},
             {},
             {},
             {15},
             {}];
InitialSolution = [1, 2, 3, 5, 4, 6, 7, 14, 8, 9, 10, 11, 12, 13, 15];