numResources = 4;
numTasks = 15;
Duration = [7, 4, 4, 5, 50, 25, 175, 75, 175, 150, 200, 3, 1, 8, 5];
ResourceCapability = [36, 29, 45, 31];
ResourceRequirement = [|9, 0, 2, 10, 0, 8, 0, 3, 7, 5, 0, 10, 7, 4, 1
                       |4, 0, 0, 9, 0, 0, 10, 10, 0, 0, 0, 0, 10, 2, 0
                       |8, 3, 0, 5, 0, 0, 8, 0, 0, 9, 1, 0, 6, 10, 0
                       |9, 0, 0, 3, 10, 0, 0, 5, 0, 7, 6, 0, 0, 0, 0|];
Successor = [{4, 6, 13},
             {5, 7, 14},
             {8, 9, 10, 11, 12, 15},
             {6, 13},
             {14},
             {13},
             {},
             {9},
             {},
             {11, 12, 15},
             {12, 15},
             {15},
             {},
             {},
             {}];
InitialSolution = [3, 1, 2, 10, 4, 11, 5, 6, 8, 12, 7, 9, 13, 14, 15];