numResources = 4;
numTasks = 15;
Duration = [9, 2, 7, 4, 175, 150, 75, 150, 175, 175, 75, 9, 6, 5, 7];
ResourceCapability = [27, 24, 18, 23];
ResourceRequirement = [|0, 1, 0, 0, 4, 7, 4, 2, 0, 0, 3, 1, 10, 7, 10
                       |0, 6, 5, 2, 8, 0, 0, 2, 4, 0, 3, 0, 0, 0, 0
                       |4, 1, 0, 0, 0, 3, 9, 5, 1, 0, 0, 3, 0, 5, 0
                       |0, 0, 5, 0, 7, 4, 6, 0, 9, 1, 0, 0, 3, 0, 0|];
Successor = [{5, 6, 8, 9, 10, 11, 12, 13, 14, 15},
             {4},
             {7, 15},
             {},
             {8, 9, 10, 11, 12, 13, 15},
             {15},
             {15},
             {9, 10, 11, 15},
             {10, 11, 15},
             {11},
             {},
             {},
             {},
             {},
             {}];
InitialSolution = [1, 5, 8, 9, 3, 2, 6, 7, 10, 4, 11, 12, 13, 14, 15];