numResources = 4;
numTasks = 15;
Duration = [6, 7, 7, 4, 250, 25, 25, 150, 50, 225, 100, 4, 6, 6, 8];
ResourceCapability = [14, 13, 14, 12];
ResourceRequirement = [|0, 7, 10, 6, 0, 9, 2, 7, 2, 2, 4, 4, 0, 0, 7
                       |0, 0, 3, 1, 7, 0, 0, 6, 0, 9, 2, 1, 9, 10, 10
                       |0, 1, 1, 3, 5, 2, 0, 6, 0, 9, 7, 0, 2, 2, 0
                       |9, 9, 8, 0, 0, 9, 3, 0, 0, 0, 7, 0, 8, 8, 9|];
Successor = [{},
             {7, 10},
             {4, 5, 6, 8, 9, 11, 12, 13, 14, 15},
             {6, 11, 12, 13, 14, 15},
             {8, 9},
             {11, 12, 13, 14, 15},
             {},
             {9},
             {},
             {},
             {12, 13, 14, 15},
             {13, 14},
             {14},
             {},
             {}];
InitialSolution = [3, 4, 6, 11, 2, 5, 12, 8, 13, 1, 7, 9, 10, 14, 15];