numResources = 4;
numTasks = 15;
Duration = [6, 6, 8, 5, 200, 50, 125, 125, 150, 75, 150, 4, 5, 6, 6];
ResourceCapability = [16, 16, 14, 15];
ResourceRequirement = [|3, 10, 0, 9, 10, 0, 5, 0, 7, 3, 8, 6, 9, 0, 0
                       |5, 2, 2, 3, 9, 6, 5, 8, 9, 6, 1, 0, 4, 8, 10
                       |9, 7, 6, 5, 5, 7, 0, 0, 5, 4, 5, 6, 3, 0, 4
                       |3, 0, 10, 9, 0, 0, 2, 7, 9, 0, 0, 3, 8, 8, 0|];
Successor = [{4, 5},
             {10},
             {6, 7, 8, 9, 11, 12, 13, 14, 15},
             {5},
             {},
             {8, 9, 11, 12, 13, 14},
             {},
             {9, 11, 12, 13, 14},
             {12, 14},
             {},
             {},
             {},
             {},
             {},
             {}];
InitialSolution = [3, 6, 8, 1, 9, 2, 4, 5, 7, 10, 11, 12, 13, 14, 15];