numResources = 5;
numTasks = 100;
Duration = [72, 87, 95, 66, 60, 5, 35, 48, 39, 54, 46, 20, 21, 97, 55, 59, 19, 46, 34, 37, 23, 73, 25, 24, 28, 28, 45, 5, 78, 83, 53, 71, 37, 29, 12, 12, 87, 33, 55, 38, 49, 83, 40, 48, 7, 65, 17, 90, 27, 23, 72, 87, 95, 66, 60, 5, 35, 48, 39, 54, 46, 20, 21, 97, 55, 59, 19, 46, 34, 37, 23, 73, 25, 24, 28, 28, 45, 5, 78, 83, 53, 71, 37, 29, 12, 12, 87, 33, 55, 38, 49, 83, 40, 48, 7, 65, 17, 90, 27, 23];
ResourceCapability = [2, 2, 2, 2, 2];
ResourceRequirement = [|0, 1, 0, 0, 0, 0, 0, 1, 0, 0, 0, 0, 0, 1, 0, 1, 0, 0, 0, 0, 0, 0, 0, 0, 1, 0, 1, 0, 0, 0, 1, 0, 0, 0, 0, 0, 0, 0, 0, 1, 0, 0, 0, 1, 0, 0, 0, 1, 0, 0, 0, 1, 0, 0, 0, 0, 0, 1, 0, 0, 0, 0, 0, 1, 0, 1, 0, 0, 0, 0, 0, 0, 0, 0, 1, 0, 1, 0, 0, 0, 1, 0, 0, 0, 0, 0, 0, 0, 0, 1, 0, 0, 0, 1, 0, 0, 0, 1, 0, 0
                       |1, 0, 0, 0, 0, 0, 0, 0, 0, 1, 1, 0, 0, 0, 0, 0, 0, 0, 1, 0, 0, 0, 0, 1, 0, 0, 0, 0, 1, 0, 0, 0, 1, 0, 0, 0, 0, 0, 1, 0, 0, 0, 1, 0, 0, 0, 0, 0, 0, 1, 1, 0, 0, 0, 0, 0, 0, 0, 0, 1, 1, 0, 0, 0, 0, 0, 0, 0, 1, 0, 0, 0, 0, 1, 0, 0, 0, 0, 1, 0, 0, 0, 1, 0, 0, 0, 0, 0, 1, 0, 0, 0, 1, 0, 0, 0, 0, 0, 0, 1
                       |0, 0, 0, 1, 0, 0, 0, 0, 1, 0, 0, 0, 1, 0, 0, 0, 0, 0, 0, 1, 0, 1, 0, 0, 0, 0, 0, 0, 0, 1, 0, 0, 0, 0, 1, 0, 1, 0, 0, 0, 1, 0, 0, 0, 0, 1, 0, 0, 0, 0, 0, 0, 0, 1, 0, 0, 0, 0, 1, 0, 0, 0, 1, 0, 0, 0, 0, 0, 0, 1, 0, 1, 0, 0, 0, 0, 0, 0, 0, 1, 0, 0, 0, 0, 1, 0, 1, 0, 0, 0, 1, 0, 0, 0, 0, 1, 0, 0, 0, 0
                       |0, 0, 0, 0, 1, 0, 1, 0, 0, 0, 0, 1, 0, 0, 0, 0, 1, 0, 0, 0, 0, 0, 1, 0, 0, 1, 0, 0, 0, 0, 0, 1, 0, 0, 0, 0, 0, 1, 0, 0, 0, 1, 0, 0, 0, 0, 1, 0, 0, 0, 0, 0, 0, 0, 1, 0, 1, 0, 0, 0, 0, 1, 0, 0, 0, 0, 1, 0, 0, 0, 0, 0, 1, 0, 0, 1, 0, 0, 0, 0, 0, 1, 0, 0, 0, 0, 0, 1, 0, 0, 0, 1, 0, 0, 0, 0, 1, 0, 0, 0
                       |0, 0, 1, 0, 0, 1, 0, 0, 0, 0, 0, 0, 0, 0, 1, 0, 0, 1, 0, 0, 1, 0, 0, 0, 0, 0, 0, 1, 0, 0, 0, 0, 0, 1, 0, 1, 0, 0, 0, 0, 0, 0, 0, 0, 1, 0, 0, 0, 1, 0, 0, 0, 1, 0, 0, 1, 0, 0, 0, 0, 0, 0, 0, 0, 1, 0, 0, 1, 0, 0, 1, 0, 0, 0, 0, 0, 0, 1, 0, 0, 0, 0, 0, 1, 0, 1, 0, 0, 0, 0, 0, 0, 0, 0, 1, 0, 0, 0, 1, 0|];
Successor = [{2, 3, 4, 5},
             {3, 4, 5},
             {4, 5},
             {5},
             {},
             {7, 8, 9, 10},
             {8, 9, 10},
             {9, 10},
             {10},
             {},
             {12, 13, 14, 15},
             {13, 14, 15},
             {14, 15},
             {15},
             {},
             {17, 18, 19, 20},
             {18, 19, 20},
             {19, 20},
             {20},
             {},
             {22, 23, 24, 25},
             {23, 24, 25},
             {24, 25},
             {25},
             {},
             {27, 28, 29, 30},
             {28, 29, 30},
             {29, 30},
             {30},
             {},
             {32, 33, 34, 35},
             {33, 34, 35},
             {34, 35},
             {35},
             {},
             {37, 38, 39, 40},
             {38, 39, 40},
             {39, 40},
             {40},
             {},
             {42, 43, 44, 45},
             {43, 44, 45},
             {44, 45},
             {45},
             {},
             {47, 48, 49, 50},
             {48, 49, 50},
             {49, 50},
             {50},
             {},
             {52, 53, 54, 55},
             {53, 54, 55},
             {54, 55},
             {55},
             {},
             {57, 58, 59, 60},
             {58, 59, 60},
             {59, 60},
             {60},
             {},
             {62, 63, 64, 65},
             {63, 64, 65},
             {64, 65},
             {65},
             {},
             {67, 68, 69, 70},
             {68, 69, 70},
             {69, 70},
             {70},
             {},
             {72, 73, 74, 75},
             {73, 74, 75},
             {74, 75},
             {75},
             {},
             {77, 78, 79, 80},
             {78, 79, 80},
             {79, 80},
             {80},
             {},
             {82, 83, 84, 85},
             {83, 84, 85},
             {84, 85},
             {85},
             {},
             {87, 88, 89, 90},
             {88, 89, 90},
             {89, 90},
             {90},
             {},
             {92, 93, 94, 95},
             {93, 94, 95},
             {94, 95},
             {95},
             {},
             {97, 98, 99, 100},
             {98, 99, 100},
             {99, 100},
             {100},
             {}];
InitialSolution = [1, 6, 11, 16, 21, 26, 31, 36, 41, 46, 51, 56, 61, 66, 71, 76, 81, 86, 91, 96, 2, 7, 12, 17, 22, 27, 32, 37, 42, 47, 52, 57, 62, 67, 72, 77, 82, 87, 92, 97, 3, 8, 13, 18, 23, 28, 33, 38, 43, 48, 53, 58, 63, 68, 73, 78, 83, 88, 93, 98, 4, 9, 14, 19, 24, 29, 34, 39, 44, 49, 54, 59, 64, 69, 74, 79, 84, 89, 94, 99, 5, 10, 15, 20, 25, 30, 35, 40, 45, 50, 55, 60, 65, 70, 75, 80, 85, 90, 95, 100];