numResources = 10;
numTasks = 200;
Duration = [9, 81, 55, 40, 32, 37, 6, 19, 81, 40, 21, 70, 65, 64, 46, 65, 25, 77, 55, 15, 85, 37, 40, 24, 44, 83, 89, 31, 84, 29, 80, 77, 56, 8, 30, 59, 38, 80, 41, 97, 91, 40, 88, 17, 71, 50, 59, 80, 56, 7, 8, 9, 58, 77, 29, 96, 45, 10, 54, 36, 70, 92, 98, 87, 99, 27, 86, 96, 28, 73, 95, 92, 85, 52, 81, 32, 39, 59, 41, 56, 60, 45, 88, 12, 7, 22, 93, 49, 69, 27, 21, 61, 68, 26, 82, 71, 44, 99, 33, 84, 9, 81, 55, 40, 32, 37, 6, 19, 81, 40, 21, 70, 65, 64, 46, 65, 25, 77, 55, 15, 85, 37, 40, 24, 44, 83, 89, 31, 84, 29, 80, 77, 56, 8, 30, 59, 38, 80, 41, 97, 91, 40, 88, 17, 71, 50, 59, 80, 56, 7, 8, 9, 58, 77, 29, 96, 45, 10, 54, 36, 70, 92, 98, 87, 99, 27, 86, 96, 28, 73, 95, 92, 85, 52, 81, 32, 39, 59, 41, 56, 60, 45, 88, 12, 7, 22, 93, 49, 69, 27, 21, 61, 68, 26, 82, 71, 44, 99, 33, 84];
ResourceCapability = [2, 2, 2, 2, 2, 2, 2, 2, 2, 2];
ResourceRequirement = [|0, 0, 0, 0, 0, 0, 1, 0, 0, 0, 0, 0, 0, 0, 0, 0, 0, 1, 0, 0, 0, 0, 1, 0, 0, 0, 0, 0, 0, 0, 0, 0, 0, 1, 0, 0, 0, 0, 0, 0, 1, 0, 0, 0, 0, 0, 0, 0, 0, 0, 0, 0, 0, 0, 0, 0, 1, 0, 0, 0, 0, 0, 0, 0, 0, 0, 0, 0, 1, 0, 0, 0, 0, 0, 0, 0, 0, 1, 0, 0, 0, 0, 1, 0, 0, 0, 0, 0, 0, 0, 1, 0, 0, 0, 0, 0, 0, 0, 0, 0, 0, 0, 0, 0, 0, 0, 1, 0, 0, 0, 0, 0, 0, 0, 0, 0, 0, 1, 0, 0, 0, 0, 1, 0, 0, 0, 0, 0, 0, 0, 0, 0, 0, 1, 0, 0, 0, 0, 0, 0, 1, 0, 0, 0, 0, 0, 0, 0, 0, 0, 0, 0, 0, 0, 0, 0, 1, 0, 0, 0, 0, 0, 0, 0, 0, 0, 0, 0, 1, 0, 0, 0, 0, 0, 0, 0, 0, 1, 0, 0, 0, 0, 1, 0, 0, 0, 0, 0, 0, 0, 1, 0, 0, 0, 0, 0, 0, 0, 0, 0
                       |0, 1, 0, 0, 0, 0, 0, 0, 0, 0, 0, 0, 0, 0, 1, 0, 0, 0, 0, 0, 0, 0, 0, 0, 1, 0, 0, 0, 0, 0, 0, 0, 0, 0, 0, 0, 0, 1, 0, 0, 0, 0, 0, 1, 0, 0, 0, 0, 0, 0, 0, 0, 0, 0, 1, 0, 0, 0, 0, 0, 0, 0, 1, 0, 0, 0, 0, 0, 0, 0, 1, 0, 0, 0, 0, 0, 0, 0, 0, 0, 0, 0, 0, 0, 1, 0, 0, 0, 0, 0, 0, 0, 0, 0, 0, 0, 0, 0, 0, 1, 0, 1, 0, 0, 0, 0, 0, 0, 0, 0, 0, 0, 0, 0, 1, 0, 0, 0, 0, 0, 0, 0, 0, 0, 1, 0, 0, 0, 0, 0, 0, 0, 0, 0, 0, 0, 0, 1, 0, 0, 0, 0, 0, 1, 0, 0, 0, 0, 0, 0, 0, 0, 0, 0, 1, 0, 0, 0, 0, 0, 0, 0, 1, 0, 0, 0, 0, 0, 0, 0, 1, 0, 0, 0, 0, 0, 0, 0, 0, 0, 0, 0, 0, 0, 1, 0, 0, 0, 0, 0, 0, 0, 0, 0, 0, 0, 0, 0, 0, 1
                       |0, 0, 0, 1, 0, 0, 0, 0, 0, 0, 0, 1, 0, 0, 0, 0, 0, 0, 0, 0, 1, 0, 0, 0, 0, 0, 0, 0, 0, 0, 0, 0, 0, 0, 1, 0, 0, 0, 0, 0, 0, 0, 0, 0, 1, 0, 0, 0, 0, 0, 1, 0, 0, 0, 0, 0, 0, 0, 0, 0, 0, 0, 0, 0, 0, 0, 0, 0, 0, 1, 0, 0, 0, 0, 0, 0, 0, 0, 1, 0, 0, 0, 0, 1, 0, 0, 0, 0, 0, 0, 0, 1, 0, 0, 0, 0, 0, 0, 0, 0, 0, 0, 0, 1, 0, 0, 0, 0, 0, 0, 0, 1, 0, 0, 0, 0, 0, 0, 0, 0, 1, 0, 0, 0, 0, 0, 0, 0, 0, 0, 0, 0, 0, 0, 1, 0, 0, 0, 0, 0, 0, 0, 0, 0, 1, 0, 0, 0, 0, 0, 1, 0, 0, 0, 0, 0, 0, 0, 0, 0, 0, 0, 0, 0, 0, 0, 0, 0, 0, 1, 0, 0, 0, 0, 0, 0, 0, 0, 1, 0, 0, 0, 0, 1, 0, 0, 0, 0, 0, 0, 0, 1, 0, 0, 0, 0, 0, 0, 0, 0
                       |0, 0, 0, 0, 0, 1, 0, 0, 0, 0, 0, 0, 0, 0, 0, 0, 0, 0, 1, 0, 0, 0, 0, 1, 0, 0, 0, 0, 0, 0, 0, 0, 0, 0, 0, 0, 1, 0, 0, 0, 0, 0, 0, 0, 0, 1, 0, 0, 0, 0, 0, 0, 1, 0, 0, 0, 0, 0, 0, 0, 0, 1, 0, 0, 0, 0, 0, 0, 0, 0, 0, 0, 1, 0, 0, 0, 0, 0, 0, 0, 1, 0, 0, 0, 0, 0, 0, 0, 0, 0, 0, 0, 1, 0, 0, 0, 0, 0, 0, 0, 0, 0, 0, 0, 0, 1, 0, 0, 0, 0, 0, 0, 0, 0, 0, 0, 0, 0, 1, 0, 0, 0, 0, 1, 0, 0, 0, 0, 0, 0, 0, 0, 0, 0, 0, 0, 1, 0, 0, 0, 0, 0, 0, 0, 0, 1, 0, 0, 0, 0, 0, 0, 1, 0, 0, 0, 0, 0, 0, 0, 0, 1, 0, 0, 0, 0, 0, 0, 0, 0, 0, 0, 1, 0, 0, 0, 0, 0, 0, 0, 1, 0, 0, 0, 0, 0, 0, 0, 0, 0, 0, 0, 1, 0, 0, 0, 0, 0, 0, 0
                       |0, 0, 1, 0, 0, 0, 0, 0, 0, 0, 0, 0, 0, 1, 0, 0, 0, 0, 0, 0, 0, 0, 0, 0, 0, 0, 1, 0, 0, 0, 1, 0, 0, 0, 0, 0, 0, 0, 0, 0, 0, 0, 1, 0, 0, 0, 0, 0, 0, 0, 0, 0, 0, 0, 0, 0, 0, 0, 1, 0, 1, 0, 0, 0, 0, 0, 0, 0, 0, 0, 0, 0, 0, 1, 0, 0, 0, 0, 0, 0, 0, 0, 0, 0, 0, 0, 1, 0, 0, 0, 0, 0, 0, 0, 0, 0, 0, 1, 0, 0, 0, 0, 1, 0, 0, 0, 0, 0, 0, 0, 0, 0, 0, 1, 0, 0, 0, 0, 0, 0, 0, 0, 0, 0, 0, 0, 1, 0, 0, 0, 1, 0, 0, 0, 0, 0, 0, 0, 0, 0, 0, 0, 1, 0, 0, 0, 0, 0, 0, 0, 0, 0, 0, 0, 0, 0, 0, 0, 1, 0, 1, 0, 0, 0, 0, 0, 0, 0, 0, 0, 0, 0, 0, 1, 0, 0, 0, 0, 0, 0, 0, 0, 0, 0, 0, 0, 1, 0, 0, 0, 0, 0, 0, 0, 0, 0, 0, 1, 0, 0
                       |0, 0, 0, 0, 0, 0, 0, 1, 0, 0, 0, 0, 0, 0, 0, 1, 0, 0, 0, 0, 0, 1, 0, 0, 0, 0, 0, 0, 0, 0, 0, 0, 0, 0, 0, 1, 0, 0, 0, 0, 0, 0, 0, 0, 0, 0, 0, 0, 1, 0, 0, 0, 0, 1, 0, 0, 0, 0, 0, 0, 0, 0, 0, 1, 0, 0, 0, 0, 0, 0, 0, 0, 0, 0, 0, 0, 0, 0, 0, 1, 0, 0, 0, 0, 0, 1, 0, 0, 0, 0, 0, 0, 0, 1, 0, 0, 0, 0, 0, 0, 0, 0, 0, 0, 0, 0, 0, 1, 0, 0, 0, 0, 0, 0, 0, 1, 0, 0, 0, 0, 0, 1, 0, 0, 0, 0, 0, 0, 0, 0, 0, 0, 0, 0, 0, 1, 0, 0, 0, 0, 0, 0, 0, 0, 0, 0, 0, 0, 1, 0, 0, 0, 0, 1, 0, 0, 0, 0, 0, 0, 0, 0, 0, 1, 0, 0, 0, 0, 0, 0, 0, 0, 0, 0, 0, 0, 0, 0, 0, 1, 0, 0, 0, 0, 0, 1, 0, 0, 0, 0, 0, 0, 0, 1, 0, 0, 0, 0, 0, 0
                       |1, 0, 0, 0, 0, 0, 0, 0, 0, 0, 0, 0, 0, 0, 0, 0, 0, 0, 0, 1, 0, 0, 0, 0, 0, 1, 0, 0, 0, 0, 0, 1, 0, 0, 0, 0, 0, 0, 0, 0, 0, 1, 0, 0, 0, 0, 0, 0, 0, 0, 0, 1, 0, 0, 0, 0, 0, 0, 0, 0, 0, 0, 0, 0, 1, 0, 0, 0, 0, 0, 0, 0, 0, 0, 1, 0, 0, 0, 0, 0, 0, 0, 0, 0, 0, 0, 0, 0, 0, 1, 0, 0, 0, 0, 1, 0, 0, 0, 0, 0, 1, 0, 0, 0, 0, 0, 0, 0, 0, 0, 0, 0, 0, 0, 0, 0, 0, 0, 0, 1, 0, 0, 0, 0, 0, 1, 0, 0, 0, 0, 0, 1, 0, 0, 0, 0, 0, 0, 0, 0, 0, 1, 0, 0, 0, 0, 0, 0, 0, 0, 0, 1, 0, 0, 0, 0, 0, 0, 0, 0, 0, 0, 0, 0, 1, 0, 0, 0, 0, 0, 0, 0, 0, 0, 1, 0, 0, 0, 0, 0, 0, 0, 0, 0, 0, 0, 0, 0, 0, 1, 0, 0, 0, 0, 1, 0, 0, 0, 0, 0
                       |0, 0, 0, 0, 0, 0, 0, 0, 0, 1, 1, 0, 0, 0, 0, 0, 0, 0, 0, 0, 0, 0, 0, 0, 0, 0, 0, 0, 1, 0, 0, 0, 1, 0, 0, 0, 0, 0, 0, 0, 0, 0, 0, 0, 0, 0, 0, 0, 0, 1, 0, 0, 0, 0, 0, 0, 0, 0, 0, 1, 0, 0, 0, 0, 0, 1, 0, 0, 0, 0, 0, 1, 0, 0, 0, 0, 0, 0, 0, 0, 0, 0, 0, 0, 0, 0, 0, 0, 1, 0, 0, 0, 0, 0, 0, 0, 0, 0, 1, 0, 0, 0, 0, 0, 0, 0, 0, 0, 0, 1, 1, 0, 0, 0, 0, 0, 0, 0, 0, 0, 0, 0, 0, 0, 0, 0, 0, 0, 1, 0, 0, 0, 1, 0, 0, 0, 0, 0, 0, 0, 0, 0, 0, 0, 0, 0, 0, 0, 0, 1, 0, 0, 0, 0, 0, 0, 0, 0, 0, 1, 0, 0, 0, 0, 0, 1, 0, 0, 0, 0, 0, 1, 0, 0, 0, 0, 0, 0, 0, 0, 0, 0, 0, 0, 0, 0, 0, 0, 1, 0, 0, 0, 0, 0, 0, 0, 0, 0, 1, 0
                       |0, 0, 0, 0, 1, 0, 0, 0, 0, 0, 0, 0, 0, 0, 0, 0, 1, 0, 0, 0, 0, 0, 0, 0, 0, 0, 0, 1, 0, 0, 0, 0, 0, 0, 0, 0, 0, 0, 0, 1, 0, 0, 0, 0, 0, 0, 0, 1, 0, 0, 0, 0, 0, 0, 0, 1, 0, 0, 0, 0, 0, 0, 0, 0, 0, 0, 1, 0, 0, 0, 0, 0, 0, 0, 0, 0, 1, 0, 0, 0, 0, 1, 0, 0, 0, 0, 0, 0, 0, 0, 0, 0, 0, 0, 0, 0, 1, 0, 0, 0, 0, 0, 0, 0, 1, 0, 0, 0, 0, 0, 0, 0, 0, 0, 0, 0, 1, 0, 0, 0, 0, 0, 0, 0, 0, 0, 0, 1, 0, 0, 0, 0, 0, 0, 0, 0, 0, 0, 0, 1, 0, 0, 0, 0, 0, 0, 0, 1, 0, 0, 0, 0, 0, 0, 0, 1, 0, 0, 0, 0, 0, 0, 0, 0, 0, 0, 1, 0, 0, 0, 0, 0, 0, 0, 0, 0, 1, 0, 0, 0, 0, 1, 0, 0, 0, 0, 0, 0, 0, 0, 0, 0, 0, 0, 0, 0, 1, 0, 0, 0
                       |0, 0, 0, 0, 0, 0, 0, 0, 1, 0, 0, 0, 1, 0, 0, 0, 0, 0, 0, 0, 0, 0, 0, 0, 0, 0, 0, 0, 0, 1, 0, 0, 0, 0, 0, 0, 0, 0, 1, 0, 0, 0, 0, 0, 0, 0, 1, 0, 0, 0, 0, 0, 0, 0, 0, 0, 0, 1, 0, 0, 0, 0, 0, 0, 0, 0, 0, 1, 0, 0, 0, 0, 0, 0, 0, 1, 0, 0, 0, 0, 0, 0, 0, 0, 0, 0, 0, 1, 0, 0, 0, 0, 0, 0, 0, 1, 0, 0, 0, 0, 0, 0, 0, 0, 0, 0, 0, 0, 1, 0, 0, 0, 1, 0, 0, 0, 0, 0, 0, 0, 0, 0, 0, 0, 0, 0, 0, 0, 0, 1, 0, 0, 0, 0, 0, 0, 0, 0, 1, 0, 0, 0, 0, 0, 0, 0, 1, 0, 0, 0, 0, 0, 0, 0, 0, 0, 0, 1, 0, 0, 0, 0, 0, 0, 0, 0, 0, 1, 0, 0, 0, 0, 0, 0, 0, 1, 0, 0, 0, 0, 0, 0, 0, 0, 0, 0, 0, 1, 0, 0, 0, 0, 0, 0, 0, 1, 0, 0, 0, 0|];
Successor = [{2, 3, 4, 5, 6, 7, 8, 9, 10},
             {3, 4, 5, 6, 7, 8, 9, 10},
             {4, 5, 6, 7, 8, 9, 10},
             {5, 6, 7, 8, 9, 10},
             {6, 7, 8, 9, 10},
             {7, 8, 9, 10},
             {8, 9, 10},
             {9, 10},
             {10},
             {},
             {12, 13, 14, 15, 16, 17, 18, 19, 20},
             {13, 14, 15, 16, 17, 18, 19, 20},
             {14, 15, 16, 17, 18, 19, 20},
             {15, 16, 17, 18, 19, 20},
             {16, 17, 18, 19, 20},
             {17, 18, 19, 20},
             {18, 19, 20},
             {19, 20},
             {20},
             {},
             {22, 23, 24, 25, 26, 27, 28, 29, 30},
             {23, 24, 25, 26, 27, 28, 29, 30},
             {24, 25, 26, 27, 28, 29, 30},
             {25, 26, 27, 28, 29, 30},
             {26, 27, 28, 29, 30},
             {27, 28, 29, 30},
             {28, 29, 30},
             {29, 30},
             {30},
             {},
             {32, 33, 34, 35, 36, 37, 38, 39, 40},
             {33, 34, 35, 36, 37, 38, 39, 40},
             {34, 35, 36, 37, 38, 39, 40},
             {35, 36, 37, 38, 39, 40},
             {36, 37, 38, 39, 40},
             {37, 38, 39, 40},
             {38, 39, 40},
             {39, 40},
             {40},
             {},
             {42, 43, 44, 45, 46, 47, 48, 49, 50},
             {43, 44, 45, 46, 47, 48, 49, 50},
             {44, 45, 46, 47, 48, 49, 50},
             {45, 46, 47, 48, 49, 50},
             {46, 47, 48, 49, 50},
             {47, 48, 49, 50},
             {48, 49, 50},
             {49, 50},
             {50},
             {},
             {52, 53, 54, 55, 56, 57, 58, 59, 60},
             {53, 54, 55, 56, 57, 58, 59, 60},
             {54, 55, 56, 57, 58, 59, 60},
             {55, 56, 57, 58, 59, 60},
             {56, 57, 58, 59, 60},
             {57, 58, 59, 60},
             {58, 59, 60},
             {59, 60},
             {60},
             {},
             {62, 63, 64, 65, 66, 67, 68, 69, 70},
             {63, 64, 65, 66, 67, 68, 69, 70},
             {64, 65, 66, 67, 68, 69, 70},
             {65, 66, 67, 68, 69, 70},
             {66, 67, 68, 69, 70},
             {67, 68, 69, 70},
             {68, 69, 70},
             {69, 70},
             {70},
             {},
             {72, 73, 74, 75, 76, 77, 78, 79, 80},
             {73, 74, 75, 76, 77, 78, 79, 80},
             {74, 75, 76, 77, 78, 79, 80},
             {75, 76, 77, 78, 79, 80},
             {76, 77, 78, 79, 80},
             {77, 78, 79, 80},
             {78, 79, 80},
             {79, 80},
             {80},
             {},
             {82, 83, 84, 85, 86, 87, 88, 89, 90},
             {83, 84, 85, 86, 87, 88, 89, 90},
             {84, 85, 86, 87, 88, 89, 90},
             {85, 86, 87, 88, 89, 90},
             {86, 87, 88, 89, 90},
             {87, 88, 89, 90},
             {88, 89, 90},
             {89, 90},
             {90},
             {},
             {92, 93, 94, 95, 96, 97, 98, 99, 100},
             {93, 94, 95, 96, 97, 98, 99, 100},
             {94, 95, 96, 97, 98, 99, 100},
             {95, 96, 97, 98, 99, 100},
             {96, 97, 98, 99, 100},
             {97, 98, 99, 100},
             {98, 99, 100},
             {99, 100},
             {100},
             {},
             {102, 103, 104, 105, 106, 107, 108, 109, 110},
             {103, 104, 105, 106, 107, 108, 109, 110},
             {104, 105, 106, 107, 108, 109, 110},
             {105, 106, 107, 108, 109, 110},
             {106, 107, 108, 109, 110},
             {107, 108, 109, 110},
             {108, 109, 110},
             {109, 110},
             {110},
             {},
             {112, 113, 114, 115, 116, 117, 118, 119, 120},
             {113, 114, 115, 116, 117, 118, 119, 120},
             {114, 115, 116, 117, 118, 119, 120},
             {115, 116, 117, 118, 119, 120},
             {116, 117, 118, 119, 120},
             {117, 118, 119, 120},
             {118, 119, 120},
             {119, 120},
             {120},
             {},
             {122, 123, 124, 125, 126, 127, 128, 129, 130},
             {123, 124, 125, 126, 127, 128, 129, 130},
             {124, 125, 126, 127, 128, 129, 130},
             {125, 126, 127, 128, 129, 130},
             {126, 127, 128, 129, 130},
             {127, 128, 129, 130},
             {128, 129, 130},
             {129, 130},
             {130},
             {},
             {132, 133, 134, 135, 136, 137, 138, 139, 140},
             {133, 134, 135, 136, 137, 138, 139, 140},
             {134, 135, 136, 137, 138, 139, 140},
             {135, 136, 137, 138, 139, 140},
             {136, 137, 138, 139, 140},
             {137, 138, 139, 140},
             {138, 139, 140},
             {139, 140},
             {140},
             {},
             {142, 143, 144, 145, 146, 147, 148, 149, 150},
             {143, 144, 145, 146, 147, 148, 149, 150},
             {144, 145, 146, 147, 148, 149, 150},
             {145, 146, 147, 148, 149, 150},
             {146, 147, 148, 149, 150},
             {147, 148, 149, 150},
             {148, 149, 150},
             {149, 150},
             {150},
             {},
             {152, 153, 154, 155, 156, 157, 158, 159, 160},
             {153, 154, 155, 156, 157, 158, 159, 160},
             {154, 155, 156, 157, 158, 159, 160},
             {155, 156, 157, 158, 159, 160},
             {156, 157, 158, 159, 160},
             {157, 158, 159, 160},
             {158, 159, 160},
             {159, 160},
             {160},
             {},
             {162, 163, 164, 165, 166, 167, 168, 169, 170},
             {163, 164, 165, 166, 167, 168, 169, 170},
             {164, 165, 166, 167, 168, 169, 170},
             {165, 166, 167, 168, 169, 170},
             {166, 167, 168, 169, 170},
             {167, 168, 169, 170},
             {168, 169, 170},
             {169, 170},
             {170},
             {},
             {172, 173, 174, 175, 176, 177, 178, 179, 180},
             {173, 174, 175, 176, 177, 178, 179, 180},
             {174, 175, 176, 177, 178, 179, 180},
             {175, 176, 177, 178, 179, 180},
             {176, 177, 178, 179, 180},
             {177, 178, 179, 180},
             {178, 179, 180},
             {179, 180},
             {180},
             {},
             {182, 183, 184, 185, 186, 187, 188, 189, 190},
             {183, 184, 185, 186, 187, 188, 189, 190},
             {184, 185, 186, 187, 188, 189, 190},
             {185, 186, 187, 188, 189, 190},
             {186, 187, 188, 189, 190},
             {187, 188, 189, 190},
             {188, 189, 190},
             {189, 190},
             {190},
             {},
             {192, 193, 194, 195, 196, 197, 198, 199, 200},
             {193, 194, 195, 196, 197, 198, 199, 200},
             {194, 195, 196, 197, 198, 199, 200},
             {195, 196, 197, 198, 199, 200},
             {196, 197, 198, 199, 200},
             {197, 198, 199, 200},
             {198, 199, 200},
             {199, 200},
             {200},
             {}];
InitialSolution = [1, 11, 21, 31, 41, 51, 61, 71, 81, 91, 101, 111, 121, 131, 141, 151, 161, 171, 181, 191, 2, 12, 22, 32, 42, 52, 62, 72, 82, 92, 102, 112, 122, 132, 142, 152, 162, 172, 182, 192, 3, 13, 23, 33, 43, 53, 63, 73, 83, 93, 103, 113, 123, 133, 143, 153, 163, 173, 183, 193, 4, 14, 24, 34, 44, 54, 64, 74, 84, 94, 104, 114, 124, 134, 144, 154, 164, 174, 184, 194, 5, 15, 25, 35, 45, 55, 65, 75, 85, 95, 105, 115, 125, 135, 145, 155, 165, 175, 185, 195, 6, 16, 26, 36, 46, 56, 66, 76, 86, 96, 106, 116, 126, 136, 146, 156, 166, 176, 186, 196, 7, 17, 27, 37, 47, 57, 67, 77, 87, 97, 107, 117, 127, 137, 147, 157, 167, 177, 187, 197, 8, 18, 28, 38, 48, 58, 68, 78, 88, 98, 108, 118, 128, 138, 148, 158, 168, 178, 188, 198, 9, 19, 29, 39, 49, 59, 69, 79, 89, 99, 109, 119, 129, 139, 149, 159, 169, 179, 189, 199, 10, 20, 30, 40, 50, 60, 70, 80, 90, 100, 110, 120, 130, 140, 150, 160, 170, 180, 190, 200];