numResources = 10;
numTasks = 900;
Duration = [89, 58, 97, 44, 77, 5, 9, 58, 96, 84, 31, 81, 73, 15, 87, 39, 57, 77, 85, 21, 48, 71, 40, 70, 49, 22, 10, 34, 80, 82, 11, 72, 62, 55, 17, 75, 7, 91, 35, 47, 64, 71, 12, 90, 94, 75, 20, 15, 50, 67, 29, 93, 68, 93, 57, 77, 52, 7, 58, 70, 26, 27, 63, 6, 87, 56, 48, 36, 95, 82, 8, 76, 76, 30, 84, 78, 41, 36, 36, 15, 13, 29, 75, 81, 78, 88, 54, 40, 13, 82, 52, 6, 6, 82, 64, 88, 54, 54, 32, 26, 62, 35, 72, 69, 62, 32, 5, 61, 67, 93, 78, 11, 82, 7, 72, 64, 90, 85, 88, 63, 50, 28, 35, 66, 27, 49, 11, 88, 31, 44, 62, 39, 76, 14, 56, 97, 7, 69, 66, 47, 47, 41, 64, 58, 57, 93, 69, 53, 18, 79, 76, 81, 76, 61, 77, 26, 74, 22, 58, 78, 30, 72, 43, 65, 16, 92, 95, 29, 99, 64, 35, 74, 16, 85, 7, 81, 86, 61, 35, 34, 97, 43, 72, 88, 17, 43, 94, 64, 22, 42, 99, 84, 99, 98, 20, 31, 74, 92, 23, 89, 32, 6, 55, 19, 81, 81, 40, 9, 37, 40, 15, 70, 25, 46, 65, 64, 21, 77, 65, 55, 31, 84, 37, 24, 85, 89, 29, 44, 40, 83, 80, 8, 41, 59, 56, 38, 30, 97, 77, 80, 59, 91, 50, 80, 17, 40, 71, 56, 88, 7, 36, 58, 54, 77, 8, 9, 45, 10, 29, 96, 28, 92, 73, 27, 86, 87, 96, 98, 99, 70, 32, 95, 85, 81, 41, 39, 92, 59, 56, 52, 93, 12, 22, 27, 45, 69, 60, 7, 88, 49, 61, 26, 71, 44, 21, 82, 68, 33, 84, 99, 89, 58, 97, 44, 77, 5, 9, 58, 96, 84, 31, 81, 73, 15, 87, 39, 57, 77, 85, 21, 48, 71, 40, 70, 49, 22, 10, 34, 80, 82, 11, 72, 62, 55, 17, 75, 7, 91, 35, 47, 64, 71, 12, 90, 94, 75, 20, 15, 50, 67, 29, 93, 68, 93, 57, 77, 52, 7, 58, 70, 26, 27, 63, 6, 87, 56, 48, 36, 95, 82, 8, 76, 76, 30, 84, 78, 41, 36, 36, 15, 13, 29, 75, 81, 78, 88, 54, 40, 13, 82, 52, 6, 6, 82, 64, 88, 54, 54, 32, 26, 62, 35, 72, 69, 62, 32, 5, 61, 67, 93, 78, 11, 82, 7, 72, 64, 90, 85, 88, 63, 50, 28, 35, 66, 27, 49, 11, 88, 31, 44, 62, 39, 76, 14, 56, 97, 7, 69, 66, 47, 47, 41, 64, 58, 57, 93, 69, 53, 18, 79, 76, 81, 76, 61, 77, 26, 74, 22, 58, 78, 30, 72, 43, 65, 16, 92, 95, 29, 99, 64, 35, 74, 16, 85, 7, 81, 86, 61, 35, 34, 97, 43, 72, 88, 17, 43, 94, 64, 22, 42, 99, 84, 99, 98, 20, 31, 74, 92, 23, 89, 32, 6, 55, 19, 81, 81, 40, 9, 37, 40, 15, 70, 25, 46, 65, 64, 21, 77, 65, 55, 31, 84, 37, 24, 85, 89, 29, 44, 40, 83, 80, 8, 41, 59, 56, 38, 30, 97, 77, 80, 59, 91, 50, 80, 17, 40, 71, 56, 88, 7, 36, 58, 54, 77, 8, 9, 45, 10, 29, 96, 28, 92, 73, 27, 86, 87, 96, 98, 99, 70, 32, 95, 85, 81, 41, 39, 92, 59, 56, 52, 93, 12, 22, 27, 45, 69, 60, 7, 88, 49, 61, 26, 71, 44, 21, 82, 68, 33, 84, 99, 89, 58, 97, 44, 77, 5, 9, 58, 96, 84, 31, 81, 73, 15, 87, 39, 57, 77, 85, 21, 48, 71, 40, 70, 49, 22, 10, 34, 80, 82, 11, 72, 62, 55, 17, 75, 7, 91, 35, 47, 64, 71, 12, 90, 94, 75, 20, 15, 50, 67, 29, 93, 68, 93, 57, 77, 52, 7, 58, 70, 26, 27, 63, 6, 87, 56, 48, 36, 95, 82, 8, 76, 76, 30, 84, 78, 41, 36, 36, 15, 13, 29, 75, 81, 78, 88, 54, 40, 13, 82, 52, 6, 6, 82, 64, 88, 54, 54, 32, 26, 62, 35, 72, 69, 62, 32, 5, 61, 67, 93, 78, 11, 82, 7, 72, 64, 90, 85, 88, 63, 50, 28, 35, 66, 27, 49, 11, 88, 31, 44, 62, 39, 76, 14, 56, 97, 7, 69, 66, 47, 47, 41, 64, 58, 57, 93, 69, 53, 18, 79, 76, 81, 76, 61, 77, 26, 74, 22, 58, 78, 30, 72, 43, 65, 16, 92, 95, 29, 99, 64, 35, 74, 16, 85, 7, 81, 86, 61, 35, 34, 97, 43, 72, 88, 17, 43, 94, 64, 22, 42, 99, 84, 99, 98, 20, 31, 74, 92, 23, 89, 32, 6, 55, 19, 81, 81, 40, 9, 37, 40, 15, 70, 25, 46, 65, 64, 21, 77, 65, 55, 31, 84, 37, 24, 85, 89, 29, 44, 40, 83, 80, 8, 41, 59, 56, 38, 30, 97, 77, 80, 59, 91, 50, 80, 17, 40, 71, 56, 88, 7, 36, 58, 54, 77, 8, 9, 45, 10, 29, 96, 28, 92, 73, 27, 86, 87, 96, 98, 99, 70, 32, 95, 85, 81, 41, 39, 92, 59, 56, 52, 93, 12, 22, 27, 45, 69, 60, 7, 88, 49, 61, 26, 71, 44, 21, 82, 68, 33, 84, 99];
ResourceCapability = [3, 3, 3, 3, 3, 3, 3, 3, 3, 3];
ResourceRequirement = [|0, 0, 0, 0, 0, 0, 1, 0, 0, 0, 0, 0, 0, 0, 0, 0, 0, 1, 0, 0, 0, 0, 1, 0, 0, 0, 0, 0, 0, 0, 0, 0, 0, 1, 0, 0, 0, 0, 0, 0, 1, 0, 0, 0, 0, 0, 0, 0, 0, 0, 0, 0, 0, 0, 0, 0, 1, 0, 0, 0, 0, 0, 0, 0, 0, 0, 0, 0, 1, 0, 0, 0, 0, 0, 0, 0, 0, 1, 0, 0, 0, 0, 1, 0, 0, 0, 0, 0, 0, 0, 1, 0, 0, 0, 0, 0, 0, 0, 0, 0, 0, 0, 0, 0, 1, 0, 0, 0, 0, 0, 0, 0, 0, 0, 0, 0, 0, 1, 0, 0, 0, 0, 0, 0, 0, 0, 0, 0, 0, 1, 0, 0, 1, 0, 0, 0, 0, 0, 0, 0, 0, 0, 1, 0, 0, 0, 0, 0, 0, 0, 0, 0, 1, 0, 0, 0, 0, 0, 0, 0, 0, 0, 0, 1, 0, 0, 0, 0, 0, 0, 0, 0, 0, 0, 1, 0, 0, 0, 0, 0, 0, 0, 0, 0, 0, 1, 0, 0, 0, 0, 0, 0, 0, 0, 0, 0, 0, 1, 0, 0, 0, 1, 0, 0, 0, 0, 0, 0, 0, 0, 0, 0, 0, 0, 0, 0, 0, 1, 0, 0, 0, 0, 0, 0, 0, 0, 0, 0, 1, 0, 0, 1, 0, 0, 0, 0, 0, 0, 0, 0, 0, 1, 0, 0, 0, 0, 0, 0, 0, 0, 0, 0, 0, 0, 0, 0, 1, 0, 0, 0, 1, 0, 0, 0, 0, 0, 0, 0, 0, 0, 0, 0, 0, 0, 0, 0, 0, 1, 0, 0, 0, 0, 0, 0, 0, 0, 0, 0, 1, 0, 0, 0, 0, 0, 1, 0, 0, 0, 0, 0, 0, 0, 0, 0, 0, 0, 1, 0, 0, 0, 0, 0, 0, 0, 0, 0, 0, 1, 0, 0, 0, 0, 1, 0, 0, 0, 0, 0, 0, 0, 0, 0, 0, 1, 0, 0, 0, 0, 0, 0, 1, 0, 0, 0, 0, 0, 0, 0, 0, 0, 0, 0, 0, 0, 0, 0, 1, 0, 0, 0, 0, 0, 0, 0, 0, 0, 0, 0, 1, 0, 0, 0, 0, 0, 0, 0, 0, 1, 0, 0, 0, 0, 1, 0, 0, 0, 0, 0, 0, 0, 1, 0, 0, 0, 0, 0, 0, 0, 0, 0, 0, 0, 0, 0, 1, 0, 0, 0, 0, 0, 0, 0, 0, 0, 0, 0, 0, 1, 0, 0, 0, 0, 0, 0, 0, 0, 0, 0, 0, 1, 0, 0, 1, 0, 0, 0, 0, 0, 0, 0, 0, 0, 1, 0, 0, 0, 0, 0, 0, 0, 0, 0, 1, 0, 0, 0, 0, 0, 0, 0, 0, 0, 0, 1, 0, 0, 0, 0, 0, 0, 0, 0, 0, 0, 1, 0, 0, 0, 0, 0, 0, 0, 0, 0, 0, 1, 0, 0, 0, 0, 0, 0, 0, 0, 0, 0, 0, 1, 0, 0, 0, 1, 0, 0, 0, 0, 0, 0, 0, 0, 0, 0, 0, 0, 0, 0, 0, 1, 0, 0, 0, 0, 0, 0, 0, 0, 0, 0, 1, 0, 0, 1, 0, 0, 0, 0, 0, 0, 0, 0, 0, 1, 0, 0, 0, 0, 0, 0, 0, 0, 0, 0, 0, 0, 0, 0, 1, 0, 0, 0, 1, 0, 0, 0, 0, 0, 0, 0, 0, 0, 0, 0, 0, 0, 0, 0, 0, 1, 0, 0, 0, 0, 0, 0, 0, 0, 0, 0, 1, 0, 0, 0, 0, 0, 1, 0, 0, 0, 0, 0, 0, 0, 0, 0, 0, 0, 1, 0, 0, 0, 0, 0, 0, 0, 0, 0, 0, 1, 0, 0, 0, 0, 1, 0, 0, 0, 0, 0, 0, 0, 0, 0, 0, 1, 0, 0, 0, 0, 0, 0, 1, 0, 0, 0, 0, 0, 0, 0, 0, 0, 0, 0, 0, 0, 0, 0, 1, 0, 0, 0, 0, 0, 0, 0, 0, 0, 0, 0, 1, 0, 0, 0, 0, 0, 0, 0, 0, 1, 0, 0, 0, 0, 1, 0, 0, 0, 0, 0, 0, 0, 1, 0, 0, 0, 0, 0, 0, 0, 0, 0, 0, 0, 0, 0, 1, 0, 0, 0, 0, 0, 0, 0, 0, 0, 0, 0, 0, 1, 0, 0, 0, 0, 0, 0, 0, 0, 0, 0, 0, 1, 0, 0, 1, 0, 0, 0, 0, 0, 0, 0, 0, 0, 1, 0, 0, 0, 0, 0, 0, 0, 0, 0, 1, 0, 0, 0, 0, 0, 0, 0, 0, 0, 0, 1, 0, 0, 0, 0, 0, 0, 0, 0, 0, 0, 1, 0, 0, 0, 0, 0, 0, 0, 0, 0, 0, 1, 0, 0, 0, 0, 0, 0, 0, 0, 0, 0, 0, 1, 0, 0, 0, 1, 0, 0, 0, 0, 0, 0, 0, 0, 0, 0, 0, 0, 0, 0, 0, 1, 0, 0, 0, 0, 0, 0, 0, 0, 0, 0, 1, 0, 0, 1, 0, 0, 0, 0, 0, 0, 0, 0, 0, 1, 0, 0, 0, 0, 0, 0, 0, 0, 0, 0, 0, 0, 0, 0, 1, 0, 0, 0, 1, 0, 0, 0, 0, 0, 0, 0, 0, 0, 0, 0, 0, 0, 0, 0, 0, 1, 0, 0, 0, 0, 0, 0, 0, 0, 0, 0, 1, 0, 0, 0, 0, 0, 1, 0, 0, 0, 0, 0
                       |0, 1, 0, 0, 0, 0, 0, 0, 0, 0, 0, 0, 0, 0, 1, 0, 0, 0, 0, 0, 0, 0, 0, 0, 1, 0, 0, 0, 0, 0, 0, 0, 0, 0, 0, 0, 0, 1, 0, 0, 0, 0, 0, 1, 0, 0, 0, 0, 0, 0, 0, 0, 0, 0, 1, 0, 0, 0, 0, 0, 0, 0, 1, 0, 0, 0, 0, 0, 0, 0, 1, 0, 0, 0, 0, 0, 0, 0, 0, 0, 0, 0, 0, 0, 1, 0, 0, 0, 0, 0, 0, 0, 0, 0, 0, 0, 0, 0, 0, 1, 0, 1, 0, 0, 0, 0, 0, 0, 0, 0, 0, 0, 0, 0, 1, 0, 0, 0, 0, 0, 0, 0, 0, 1, 0, 0, 0, 0, 0, 0, 0, 0, 0, 0, 0, 0, 1, 0, 0, 0, 0, 0, 0, 0, 0, 0, 0, 0, 1, 0, 0, 0, 0, 0, 0, 0, 0, 0, 1, 0, 0, 0, 0, 0, 1, 0, 0, 0, 0, 0, 1, 0, 0, 0, 0, 0, 0, 0, 0, 0, 1, 0, 0, 0, 0, 0, 0, 0, 0, 0, 0, 0, 0, 0, 1, 0, 0, 0, 0, 0, 0, 0, 0, 0, 0, 1, 0, 0, 0, 0, 0, 0, 0, 1, 0, 0, 0, 0, 0, 0, 0, 0, 0, 0, 0, 0, 0, 1, 0, 0, 0, 0, 0, 0, 0, 0, 0, 0, 0, 1, 0, 0, 0, 0, 1, 0, 0, 0, 0, 0, 0, 0, 0, 0, 0, 0, 0, 0, 1, 0, 0, 0, 0, 0, 0, 0, 0, 1, 0, 0, 0, 1, 0, 0, 0, 0, 0, 0, 0, 0, 0, 0, 0, 0, 0, 0, 0, 1, 0, 0, 0, 0, 0, 0, 0, 0, 0, 0, 1, 0, 0, 1, 0, 0, 0, 0, 0, 0, 0, 0, 0, 0, 0, 0, 1, 0, 0, 0, 0, 0, 0, 0, 0, 0, 1, 0, 0, 0, 0, 0, 0, 0, 0, 0, 0, 0, 0, 1, 0, 0, 0, 0, 0, 1, 0, 0, 0, 0, 0, 0, 0, 0, 0, 0, 1, 0, 0, 0, 0, 0, 0, 0, 1, 0, 0, 0, 0, 0, 0, 0, 1, 0, 0, 0, 0, 0, 0, 0, 0, 0, 0, 0, 0, 0, 1, 0, 0, 0, 0, 0, 0, 0, 0, 0, 0, 0, 0, 0, 0, 1, 0, 1, 0, 0, 0, 0, 0, 0, 0, 0, 0, 0, 0, 0, 1, 0, 0, 0, 0, 0, 0, 0, 0, 1, 0, 0, 0, 0, 0, 0, 0, 0, 0, 0, 0, 0, 1, 0, 0, 0, 0, 0, 0, 0, 0, 0, 0, 0, 1, 0, 0, 0, 0, 0, 0, 0, 0, 0, 1, 0, 0, 0, 0, 0, 1, 0, 0, 0, 0, 0, 1, 0, 0, 0, 0, 0, 0, 0, 0, 0, 1, 0, 0, 0, 0, 0, 0, 0, 0, 0, 0, 0, 0, 0, 1, 0, 0, 0, 0, 0, 0, 0, 0, 0, 0, 1, 0, 0, 0, 0, 0, 0, 0, 1, 0, 0, 0, 0, 0, 0, 0, 0, 0, 0, 0, 0, 0, 1, 0, 0, 0, 0, 0, 0, 0, 0, 0, 0, 0, 1, 0, 0, 0, 0, 1, 0, 0, 0, 0, 0, 0, 0, 0, 0, 0, 0, 0, 0, 1, 0, 0, 0, 0, 0, 0, 0, 0, 1, 0, 0, 0, 1, 0, 0, 0, 0, 0, 0, 0, 0, 0, 0, 0, 0, 0, 0, 0, 1, 0, 0, 0, 0, 0, 0, 0, 0, 0, 0, 1, 0, 0, 1, 0, 0, 0, 0, 0, 0, 0, 0, 0, 0, 0, 0, 1, 0, 0, 0, 0, 0, 0, 0, 0, 0, 1, 0, 0, 0, 0, 0, 0, 0, 0, 0, 0, 0, 0, 1, 0, 0, 0, 0, 0, 1, 0, 0, 0, 0, 0, 0, 0, 0, 0, 0, 1, 0, 0, 0, 0, 0, 0, 0, 1, 0, 0, 0, 0, 0, 0, 0, 1, 0, 0, 0, 0, 0, 0, 0, 0, 0, 0, 0, 0, 0, 1, 0, 0, 0, 0, 0, 0, 0, 0, 0, 0, 0, 0, 0, 0, 1, 0, 1, 0, 0, 0, 0, 0, 0, 0, 0, 0, 0, 0, 0, 1, 0, 0, 0, 0, 0, 0, 0, 0, 1, 0, 0, 0, 0, 0, 0, 0, 0, 0, 0, 0, 0, 1, 0, 0, 0, 0, 0, 0, 0, 0, 0, 0, 0, 1, 0, 0, 0, 0, 0, 0, 0, 0, 0, 1, 0, 0, 0, 0, 0, 1, 0, 0, 0, 0, 0, 1, 0, 0, 0, 0, 0, 0, 0, 0, 0, 1, 0, 0, 0, 0, 0, 0, 0, 0, 0, 0, 0, 0, 0, 1, 0, 0, 0, 0, 0, 0, 0, 0, 0, 0, 1, 0, 0, 0, 0, 0, 0, 0, 1, 0, 0, 0, 0, 0, 0, 0, 0, 0, 0, 0, 0, 0, 1, 0, 0, 0, 0, 0, 0, 0, 0, 0, 0, 0, 1, 0, 0, 0, 0, 1, 0, 0, 0, 0, 0, 0, 0, 0, 0, 0, 0, 0, 0, 1, 0, 0, 0, 0, 0, 0, 0, 0, 1, 0, 0, 0, 1, 0, 0, 0, 0, 0, 0, 0, 0, 0, 0, 0, 0, 0, 0, 0, 1, 0, 0, 0, 0, 0, 0, 0, 0, 0, 0, 1, 0
                       |0, 0, 0, 1, 0, 0, 0, 0, 0, 0, 0, 1, 0, 0, 0, 0, 0, 0, 0, 0, 1, 0, 0, 0, 0, 0, 0, 0, 0, 0, 0, 0, 0, 0, 1, 0, 0, 0, 0, 0, 0, 0, 0, 0, 1, 0, 0, 0, 0, 0, 1, 0, 0, 0, 0, 0, 0, 0, 0, 0, 0, 0, 0, 0, 0, 0, 0, 0, 0, 1, 0, 0, 0, 0, 0, 0, 0, 0, 1, 0, 0, 0, 0, 1, 0, 0, 0, 0, 0, 0, 0, 1, 0, 0, 0, 0, 0, 0, 0, 0, 0, 0, 0, 0, 0, 0, 0, 0, 1, 0, 1, 0, 0, 0, 0, 0, 0, 0, 0, 0, 0, 0, 0, 0, 1, 0, 0, 0, 0, 0, 0, 0, 0, 1, 0, 0, 0, 0, 0, 0, 0, 1, 0, 0, 0, 0, 0, 0, 0, 0, 0, 0, 0, 0, 0, 0, 1, 0, 0, 0, 0, 0, 0, 0, 0, 0, 0, 0, 1, 0, 0, 0, 0, 0, 0, 1, 0, 0, 0, 0, 0, 0, 0, 0, 0, 0, 0, 0, 0, 1, 0, 1, 0, 0, 0, 0, 0, 0, 0, 0, 0, 0, 0, 0, 0, 0, 0, 0, 0, 1, 0, 1, 0, 0, 0, 0, 0, 0, 0, 0, 0, 0, 0, 0, 1, 0, 0, 0, 0, 0, 0, 0, 0, 0, 0, 0, 1, 0, 0, 0, 0, 0, 0, 0, 0, 0, 1, 0, 0, 0, 0, 0, 0, 0, 1, 0, 0, 0, 0, 0, 0, 0, 1, 0, 0, 0, 0, 0, 0, 0, 0, 0, 0, 0, 1, 0, 0, 0, 0, 0, 0, 1, 0, 0, 0, 0, 0, 0, 0, 0, 1, 0, 0, 0, 0, 0, 0, 0, 0, 0, 0, 0, 0, 1, 0, 0, 0, 0, 0, 0, 0, 1, 0, 0, 0, 0, 0, 0, 0, 0, 1, 0, 0, 0, 0, 0, 0, 0, 0, 0, 0, 0, 0, 0, 1, 0, 0, 0, 0, 0, 0, 0, 0, 0, 1, 0, 0, 0, 0, 0, 1, 0, 0, 0, 0, 0, 0, 0, 0, 0, 0, 0, 0, 0, 0, 0, 0, 0, 0, 1, 0, 0, 0, 0, 0, 0, 0, 0, 1, 0, 0, 0, 0, 1, 0, 0, 0, 0, 0, 0, 0, 1, 0, 0, 0, 0, 0, 0, 0, 0, 0, 0, 0, 0, 0, 0, 0, 0, 1, 0, 1, 0, 0, 0, 0, 0, 0, 0, 0, 0, 0, 0, 0, 0, 1, 0, 0, 0, 0, 0, 0, 0, 0, 1, 0, 0, 0, 0, 0, 0, 0, 1, 0, 0, 0, 0, 0, 0, 0, 0, 0, 0, 0, 0, 0, 0, 1, 0, 0, 0, 0, 0, 0, 0, 0, 0, 0, 0, 1, 0, 0, 0, 0, 0, 0, 1, 0, 0, 0, 0, 0, 0, 0, 0, 0, 0, 0, 0, 0, 1, 0, 1, 0, 0, 0, 0, 0, 0, 0, 0, 0, 0, 0, 0, 0, 0, 0, 0, 0, 1, 0, 1, 0, 0, 0, 0, 0, 0, 0, 0, 0, 0, 0, 0, 1, 0, 0, 0, 0, 0, 0, 0, 0, 0, 0, 0, 1, 0, 0, 0, 0, 0, 0, 0, 0, 0, 1, 0, 0, 0, 0, 0, 0, 0, 1, 0, 0, 0, 0, 0, 0, 0, 1, 0, 0, 0, 0, 0, 0, 0, 0, 0, 0, 0, 1, 0, 0, 0, 0, 0, 0, 1, 0, 0, 0, 0, 0, 0, 0, 0, 1, 0, 0, 0, 0, 0, 0, 0, 0, 0, 0, 0, 0, 1, 0, 0, 0, 0, 0, 0, 0, 1, 0, 0, 0, 0, 0, 0, 0, 0, 1, 0, 0, 0, 0, 0, 0, 0, 0, 0, 0, 0, 0, 0, 1, 0, 0, 0, 0, 0, 0, 0, 0, 0, 1, 0, 0, 0, 0, 0, 1, 0, 0, 0, 0, 0, 0, 0, 0, 0, 0, 0, 0, 0, 0, 0, 0, 0, 0, 1, 0, 0, 0, 0, 0, 0, 0, 0, 1, 0, 0, 0, 0, 1, 0, 0, 0, 0, 0, 0, 0, 1, 0, 0, 0, 0, 0, 0, 0, 0, 0, 0, 0, 0, 0, 0, 0, 0, 1, 0, 1, 0, 0, 0, 0, 0, 0, 0, 0, 0, 0, 0, 0, 0, 1, 0, 0, 0, 0, 0, 0, 0, 0, 1, 0, 0, 0, 0, 0, 0, 0, 1, 0, 0, 0, 0, 0, 0, 0, 0, 0, 0, 0, 0, 0, 0, 1, 0, 0, 0, 0, 0, 0, 0, 0, 0, 0, 0, 1, 0, 0, 0, 0, 0, 0, 1, 0, 0, 0, 0, 0, 0, 0, 0, 0, 0, 0, 0, 0, 1, 0, 1, 0, 0, 0, 0, 0, 0, 0, 0, 0, 0, 0, 0, 0, 0, 0, 0, 0, 1, 0, 1, 0, 0, 0, 0, 0, 0, 0, 0, 0, 0, 0, 0, 1, 0, 0, 0, 0, 0, 0, 0, 0, 0, 0, 0, 1, 0, 0, 0, 0, 0, 0, 0, 0, 0, 1, 0, 0, 0, 0, 0, 0, 0, 1, 0, 0, 0, 0, 0, 0, 0, 1, 0, 0, 0, 0, 0, 0, 0, 0, 0, 0, 0, 1, 0, 0, 0, 0, 0, 0, 1, 0, 0, 0, 0, 0, 0, 0, 0, 1, 0, 0, 0, 0, 0, 0, 0, 0, 0
                       |0, 0, 0, 0, 0, 1, 0, 0, 0, 0, 0, 0, 0, 0, 0, 0, 0, 0, 1, 0, 0, 0, 0, 1, 0, 0, 0, 0, 0, 0, 0, 0, 0, 0, 0, 0, 1, 0, 0, 0, 0, 0, 0, 0, 0, 1, 0, 0, 0, 0, 0, 0, 1, 0, 0, 0, 0, 0, 0, 0, 0, 1, 0, 0, 0, 0, 0, 0, 0, 0, 0, 0, 1, 0, 0, 0, 0, 0, 0, 0, 1, 0, 0, 0, 0, 0, 0, 0, 0, 0, 0, 0, 1, 0, 0, 0, 0, 0, 0, 0, 0, 0, 0, 0, 0, 0, 0, 1, 0, 0, 0, 1, 0, 0, 0, 0, 0, 0, 0, 0, 0, 0, 1, 0, 0, 0, 0, 0, 0, 0, 0, 0, 0, 0, 0, 1, 0, 0, 0, 0, 0, 0, 0, 0, 0, 0, 1, 0, 0, 0, 0, 0, 0, 0, 0, 0, 0, 0, 0, 1, 0, 0, 1, 0, 0, 0, 0, 0, 0, 0, 0, 1, 0, 0, 0, 0, 0, 0, 0, 0, 0, 0, 0, 0, 0, 0, 0, 1, 0, 0, 0, 0, 0, 0, 0, 0, 1, 0, 0, 0, 0, 0, 0, 0, 0, 0, 0, 0, 1, 0, 0, 0, 0, 0, 0, 0, 0, 0, 0, 1, 0, 0, 0, 1, 0, 0, 0, 0, 0, 0, 0, 0, 0, 0, 0, 1, 0, 0, 0, 0, 0, 0, 1, 0, 0, 0, 0, 0, 0, 0, 0, 1, 0, 0, 0, 0, 0, 0, 0, 0, 0, 1, 0, 0, 0, 0, 0, 0, 0, 0, 0, 0, 1, 0, 0, 0, 0, 0, 0, 0, 0, 0, 0, 0, 0, 0, 1, 0, 0, 0, 0, 0, 0, 0, 0, 0, 1, 0, 0, 0, 0, 0, 0, 0, 0, 1, 0, 0, 0, 0, 0, 0, 0, 0, 0, 0, 0, 0, 1, 0, 0, 0, 0, 1, 0, 0, 0, 0, 0, 0, 0, 0, 0, 0, 0, 0, 1, 0, 0, 0, 0, 0, 0, 0, 0, 1, 0, 0, 0, 0, 0, 0, 1, 0, 0, 0, 0, 0, 0, 0, 0, 1, 0, 0, 0, 0, 0, 0, 0, 0, 0, 0, 1, 0, 0, 0, 0, 0, 0, 0, 1, 0, 0, 0, 0, 0, 0, 0, 0, 0, 0, 0, 1, 0, 0, 0, 0, 0, 0, 0, 0, 0, 0, 0, 0, 0, 0, 1, 0, 0, 0, 1, 0, 0, 0, 0, 0, 0, 0, 0, 0, 0, 1, 0, 0, 0, 0, 0, 0, 0, 0, 0, 0, 0, 0, 1, 0, 0, 0, 0, 0, 0, 0, 0, 0, 0, 1, 0, 0, 0, 0, 0, 0, 0, 0, 0, 0, 0, 0, 1, 0, 0, 1, 0, 0, 0, 0, 0, 0, 0, 0, 1, 0, 0, 0, 0, 0, 0, 0, 0, 0, 0, 0, 0, 0, 0, 0, 1, 0, 0, 0, 0, 0, 0, 0, 0, 1, 0, 0, 0, 0, 0, 0, 0, 0, 0, 0, 0, 1, 0, 0, 0, 0, 0, 0, 0, 0, 0, 0, 1, 0, 0, 0, 1, 0, 0, 0, 0, 0, 0, 0, 0, 0, 0, 0, 1, 0, 0, 0, 0, 0, 0, 1, 0, 0, 0, 0, 0, 0, 0, 0, 1, 0, 0, 0, 0, 0, 0, 0, 0, 0, 1, 0, 0, 0, 0, 0, 0, 0, 0, 0, 0, 1, 0, 0, 0, 0, 0, 0, 0, 0, 0, 0, 0, 0, 0, 1, 0, 0, 0, 0, 0, 0, 0, 0, 0, 1, 0, 0, 0, 0, 0, 0, 0, 0, 1, 0, 0, 0, 0, 0, 0, 0, 0, 0, 0, 0, 0, 1, 0, 0, 0, 0, 1, 0, 0, 0, 0, 0, 0, 0, 0, 0, 0, 0, 0, 1, 0, 0, 0, 0, 0, 0, 0, 0, 1, 0, 0, 0, 0, 0, 0, 1, 0, 0, 0, 0, 0, 0, 0, 0, 1, 0, 0, 0, 0, 0, 0, 0, 0, 0, 0, 1, 0, 0, 0, 0, 0, 0, 0, 1, 0, 0, 0, 0, 0, 0, 0, 0, 0, 0, 0, 1, 0, 0, 0, 0, 0, 0, 0, 0, 0, 0, 0, 0, 0, 0, 1, 0, 0, 0, 1, 0, 0, 0, 0, 0, 0, 0, 0, 0, 0, 1, 0, 0, 0, 0, 0, 0, 0, 0, 0, 0, 0, 0, 1, 0, 0, 0, 0, 0, 0, 0, 0, 0, 0, 1, 0, 0, 0, 0, 0, 0, 0, 0, 0, 0, 0, 0, 1, 0, 0, 1, 0, 0, 0, 0, 0, 0, 0, 0, 1, 0, 0, 0, 0, 0, 0, 0, 0, 0, 0, 0, 0, 0, 0, 0, 1, 0, 0, 0, 0, 0, 0, 0, 0, 1, 0, 0, 0, 0, 0, 0, 0, 0, 0, 0, 0, 1, 0, 0, 0, 0, 0, 0, 0, 0, 0, 0, 1, 0, 0, 0, 1, 0, 0, 0, 0, 0, 0, 0, 0, 0, 0, 0, 1, 0, 0, 0, 0, 0, 0, 1, 0, 0, 0, 0, 0, 0, 0, 0, 1, 0, 0, 0, 0, 0, 0, 0, 0, 0, 1, 0, 0, 0, 0, 0, 0, 0, 0, 0, 0, 1, 0, 0, 0, 0, 0, 0, 0, 0, 0, 0, 0, 0, 0, 1, 0, 0, 0, 0, 0, 0, 0, 0, 0, 1, 0, 0, 0
                       |0, 0, 1, 0, 0, 0, 0, 0, 0, 0, 0, 0, 0, 1, 0, 0, 0, 0, 0, 0, 0, 0, 0, 0, 0, 0, 1, 0, 0, 0, 1, 0, 0, 0, 0, 0, 0, 0, 0, 0, 0, 0, 1, 0, 0, 0, 0, 0, 0, 0, 0, 0, 0, 0, 0, 0, 0, 0, 1, 0, 1, 0, 0, 0, 0, 0, 0, 0, 0, 0, 0, 0, 0, 1, 0, 0, 0, 0, 0, 0, 0, 0, 0, 0, 0, 0, 1, 0, 0, 0, 0, 0, 0, 0, 0, 0, 0, 1, 0, 0, 0, 0, 1, 0, 0, 0, 0, 0, 0, 0, 0, 0, 0, 1, 0, 0, 0, 0, 0, 0, 0, 1, 0, 0, 0, 0, 0, 0, 0, 0, 1, 0, 0, 0, 0, 0, 0, 0, 0, 0, 0, 0, 0, 0, 0, 0, 0, 0, 0, 1, 0, 0, 0, 0, 1, 0, 0, 0, 0, 0, 0, 0, 0, 0, 0, 1, 0, 0, 0, 0, 0, 0, 0, 1, 0, 0, 0, 0, 0, 0, 0, 0, 1, 0, 0, 0, 0, 0, 0, 0, 0, 0, 0, 0, 0, 0, 0, 0, 0, 1, 0, 0, 1, 0, 0, 0, 0, 0, 0, 0, 0, 0, 0, 0, 0, 1, 0, 0, 0, 0, 0, 0, 0, 0, 0, 1, 0, 0, 0, 0, 1, 0, 0, 0, 0, 0, 0, 0, 0, 0, 0, 0, 0, 0, 0, 0, 0, 0, 1, 0, 0, 0, 1, 0, 0, 0, 0, 0, 0, 0, 0, 0, 0, 0, 0, 0, 0, 0, 0, 1, 0, 0, 0, 0, 0, 0, 0, 0, 0, 1, 1, 0, 0, 0, 0, 0, 0, 0, 0, 0, 0, 0, 0, 0, 0, 0, 0, 0, 0, 1, 0, 0, 1, 0, 0, 0, 0, 0, 0, 0, 0, 0, 0, 1, 0, 0, 0, 0, 0, 0, 0, 0, 0, 0, 0, 0, 1, 0, 0, 0, 1, 0, 0, 0, 0, 0, 0, 0, 0, 0, 0, 0, 1, 0, 0, 0, 0, 0, 0, 0, 0, 0, 0, 0, 0, 0, 0, 0, 1, 0, 1, 0, 0, 0, 0, 0, 0, 0, 0, 0, 0, 0, 0, 1, 0, 0, 0, 0, 0, 0, 0, 0, 0, 0, 0, 0, 1, 0, 0, 0, 0, 0, 0, 0, 0, 0, 0, 1, 0, 0, 0, 0, 1, 0, 0, 0, 0, 0, 0, 0, 0, 0, 0, 1, 0, 0, 0, 0, 0, 0, 0, 1, 0, 0, 0, 0, 0, 0, 0, 0, 1, 0, 0, 0, 0, 0, 0, 0, 0, 0, 0, 0, 0, 0, 0, 0, 0, 0, 0, 1, 0, 0, 0, 0, 1, 0, 0, 0, 0, 0, 0, 0, 0, 0, 0, 1, 0, 0, 0, 0, 0, 0, 0, 1, 0, 0, 0, 0, 0, 0, 0, 0, 1, 0, 0, 0, 0, 0, 0, 0, 0, 0, 0, 0, 0, 0, 0, 0, 0, 1, 0, 0, 1, 0, 0, 0, 0, 0, 0, 0, 0, 0, 0, 0, 0, 1, 0, 0, 0, 0, 0, 0, 0, 0, 0, 1, 0, 0, 0, 0, 1, 0, 0, 0, 0, 0, 0, 0, 0, 0, 0, 0, 0, 0, 0, 0, 0, 0, 1, 0, 0, 0, 1, 0, 0, 0, 0, 0, 0, 0, 0, 0, 0, 0, 0, 0, 0, 0, 0, 1, 0, 0, 0, 0, 0, 0, 0, 0, 0, 1, 1, 0, 0, 0, 0, 0, 0, 0, 0, 0, 0, 0, 0, 0, 0, 0, 0, 0, 0, 1, 0, 0, 1, 0, 0, 0, 0, 0, 0, 0, 0, 0, 0, 1, 0, 0, 0, 0, 0, 0, 0, 0, 0, 0, 0, 0, 1, 0, 0, 0, 1, 0, 0, 0, 0, 0, 0, 0, 0, 0, 0, 0, 1, 0, 0, 0, 0, 0, 0, 0, 0, 0, 0, 0, 0, 0, 0, 0, 1, 0, 1, 0, 0, 0, 0, 0, 0, 0, 0, 0, 0, 0, 0, 1, 0, 0, 0, 0, 0, 0, 0, 0, 0, 0, 0, 0, 1, 0, 0, 0, 0, 0, 0, 0, 0, 0, 0, 1, 0, 0, 0, 0, 1, 0, 0, 0, 0, 0, 0, 0, 0, 0, 0, 1, 0, 0, 0, 0, 0, 0, 0, 1, 0, 0, 0, 0, 0, 0, 0, 0, 1, 0, 0, 0, 0, 0, 0, 0, 0, 0, 0, 0, 0, 0, 0, 0, 0, 0, 0, 1, 0, 0, 0, 0, 1, 0, 0, 0, 0, 0, 0, 0, 0, 0, 0, 1, 0, 0, 0, 0, 0, 0, 0, 1, 0, 0, 0, 0, 0, 0, 0, 0, 1, 0, 0, 0, 0, 0, 0, 0, 0, 0, 0, 0, 0, 0, 0, 0, 0, 1, 0, 0, 1, 0, 0, 0, 0, 0, 0, 0, 0, 0, 0, 0, 0, 1, 0, 0, 0, 0, 0, 0, 0, 0, 0, 1, 0, 0, 0, 0, 1, 0, 0, 0, 0, 0, 0, 0, 0, 0, 0, 0, 0, 0, 0, 0, 0, 0, 1, 0, 0, 0, 1, 0, 0, 0, 0, 0, 0, 0, 0, 0, 0, 0, 0, 0, 0, 0, 0, 1, 0, 0, 0, 0, 0, 0, 0, 0, 0, 1, 1, 0, 0, 0, 0, 0, 0, 0, 0, 0, 0, 0, 0, 0, 0, 0, 0, 0, 0, 1
                       |0, 0, 0, 0, 0, 0, 0, 1, 0, 0, 0, 0, 0, 0, 0, 1, 0, 0, 0, 0, 0, 1, 0, 0, 0, 0, 0, 0, 0, 0, 0, 0, 0, 0, 0, 1, 0, 0, 0, 0, 0, 0, 0, 0, 0, 0, 0, 0, 1, 0, 0, 0, 0, 1, 0, 0, 0, 0, 0, 0, 0, 0, 0, 1, 0, 0, 0, 0, 0, 0, 0, 0, 0, 0, 0, 0, 0, 0, 0, 1, 0, 0, 0, 0, 0, 1, 0, 0, 0, 0, 0, 0, 0, 1, 0, 0, 0, 0, 0, 0, 0, 0, 0, 0, 0, 1, 0, 0, 0, 0, 0, 0, 0, 0, 0, 0, 0, 0, 1, 0, 0, 0, 0, 0, 0, 0, 0, 0, 1, 0, 0, 1, 0, 0, 0, 0, 0, 0, 0, 0, 0, 0, 0, 0, 0, 0, 0, 1, 0, 0, 0, 0, 0, 0, 0, 0, 0, 1, 0, 0, 0, 0, 0, 0, 0, 0, 1, 0, 0, 0, 0, 0, 1, 0, 0, 0, 0, 0, 0, 0, 0, 0, 0, 0, 1, 0, 0, 0, 0, 0, 0, 0, 0, 1, 0, 0, 0, 0, 0, 0, 0, 0, 0, 1, 0, 0, 0, 0, 0, 0, 0, 0, 0, 0, 0, 0, 0, 0, 1, 0, 0, 0, 1, 0, 0, 0, 0, 0, 0, 0, 0, 0, 0, 1, 0, 0, 0, 0, 0, 0, 0, 0, 0, 0, 0, 0, 0, 1, 0, 0, 0, 0, 0, 1, 0, 0, 0, 0, 0, 0, 0, 0, 0, 0, 0, 1, 0, 0, 0, 0, 0, 0, 0, 0, 0, 0, 0, 0, 1, 0, 0, 0, 1, 0, 0, 0, 0, 0, 0, 0, 0, 1, 0, 0, 0, 0, 0, 0, 0, 0, 0, 0, 0, 0, 0, 0, 0, 1, 0, 0, 0, 0, 0, 0, 0, 1, 0, 0, 0, 0, 0, 1, 0, 0, 0, 0, 0, 0, 0, 0, 0, 0, 0, 0, 0, 1, 0, 0, 0, 0, 0, 0, 0, 0, 0, 0, 0, 0, 1, 0, 0, 0, 0, 1, 0, 0, 0, 0, 0, 0, 0, 0, 0, 1, 0, 0, 0, 0, 0, 0, 0, 0, 0, 0, 0, 0, 0, 0, 0, 1, 0, 0, 0, 0, 0, 1, 0, 0, 0, 0, 0, 0, 0, 1, 0, 0, 0, 0, 0, 0, 0, 0, 0, 0, 0, 1, 0, 0, 0, 0, 0, 0, 0, 0, 0, 0, 0, 0, 1, 0, 0, 0, 0, 0, 0, 0, 0, 0, 1, 0, 0, 1, 0, 0, 0, 0, 0, 0, 0, 0, 0, 0, 0, 0, 0, 0, 0, 1, 0, 0, 0, 0, 0, 0, 0, 0, 0, 1, 0, 0, 0, 0, 0, 0, 0, 0, 1, 0, 0, 0, 0, 0, 1, 0, 0, 0, 0, 0, 0, 0, 0, 0, 0, 0, 1, 0, 0, 0, 0, 0, 0, 0, 0, 1, 0, 0, 0, 0, 0, 0, 0, 0, 0, 1, 0, 0, 0, 0, 0, 0, 0, 0, 0, 0, 0, 0, 0, 0, 1, 0, 0, 0, 1, 0, 0, 0, 0, 0, 0, 0, 0, 0, 0, 1, 0, 0, 0, 0, 0, 0, 0, 0, 0, 0, 0, 0, 0, 1, 0, 0, 0, 0, 0, 1, 0, 0, 0, 0, 0, 0, 0, 0, 0, 0, 0, 1, 0, 0, 0, 0, 0, 0, 0, 0, 0, 0, 0, 0, 1, 0, 0, 0, 1, 0, 0, 0, 0, 0, 0, 0, 0, 1, 0, 0, 0, 0, 0, 0, 0, 0, 0, 0, 0, 0, 0, 0, 0, 1, 0, 0, 0, 0, 0, 0, 0, 1, 0, 0, 0, 0, 0, 1, 0, 0, 0, 0, 0, 0, 0, 0, 0, 0, 0, 0, 0, 1, 0, 0, 0, 0, 0, 0, 0, 0, 0, 0, 0, 0, 1, 0, 0, 0, 0, 1, 0, 0, 0, 0, 0, 0, 0, 0, 0, 1, 0, 0, 0, 0, 0, 0, 0, 0, 0, 0, 0, 0, 0, 0, 0, 1, 0, 0, 0, 0, 0, 1, 0, 0, 0, 0, 0, 0, 0, 1, 0, 0, 0, 0, 0, 0, 0, 0, 0, 0, 0, 1, 0, 0, 0, 0, 0, 0, 0, 0, 0, 0, 0, 0, 1, 0, 0, 0, 0, 0, 0, 0, 0, 0, 1, 0, 0, 1, 0, 0, 0, 0, 0, 0, 0, 0, 0, 0, 0, 0, 0, 0, 0, 1, 0, 0, 0, 0, 0, 0, 0, 0, 0, 1, 0, 0, 0, 0, 0, 0, 0, 0, 1, 0, 0, 0, 0, 0, 1, 0, 0, 0, 0, 0, 0, 0, 0, 0, 0, 0, 1, 0, 0, 0, 0, 0, 0, 0, 0, 1, 0, 0, 0, 0, 0, 0, 0, 0, 0, 1, 0, 0, 0, 0, 0, 0, 0, 0, 0, 0, 0, 0, 0, 0, 1, 0, 0, 0, 1, 0, 0, 0, 0, 0, 0, 0, 0, 0, 0, 1, 0, 0, 0, 0, 0, 0, 0, 0, 0, 0, 0, 0, 0, 1, 0, 0, 0, 0, 0, 1, 0, 0, 0, 0, 0, 0, 0, 0, 0, 0, 0, 1, 0, 0, 0, 0, 0, 0, 0, 0, 0, 0, 0, 0, 1, 0, 0, 0, 1, 0, 0, 0, 0, 0, 0, 0, 0, 1, 0, 0, 0, 0, 0, 0, 0, 0
                       |1, 0, 0, 0, 0, 0, 0, 0, 0, 0, 0, 0, 0, 0, 0, 0, 0, 0, 0, 1, 0, 0, 0, 0, 0, 1, 0, 0, 0, 0, 0, 1, 0, 0, 0, 0, 0, 0, 0, 0, 0, 1, 0, 0, 0, 0, 0, 0, 0, 0, 0, 1, 0, 0, 0, 0, 0, 0, 0, 0, 0, 0, 0, 0, 1, 0, 0, 0, 0, 0, 0, 0, 0, 0, 1, 0, 0, 0, 0, 0, 0, 0, 0, 0, 0, 0, 0, 0, 0, 1, 0, 0, 0, 0, 1, 0, 0, 0, 0, 0, 0, 0, 0, 0, 0, 0, 0, 0, 0, 1, 0, 0, 0, 0, 0, 0, 0, 0, 0, 1, 0, 0, 0, 0, 0, 0, 0, 1, 0, 0, 0, 0, 0, 0, 1, 0, 0, 0, 0, 0, 1, 0, 0, 0, 0, 0, 0, 0, 0, 0, 0, 0, 0, 1, 0, 0, 0, 0, 0, 0, 1, 0, 0, 0, 0, 0, 0, 0, 0, 0, 0, 0, 0, 0, 0, 0, 1, 0, 0, 0, 0, 0, 0, 1, 0, 0, 0, 0, 0, 0, 0, 0, 0, 0, 0, 1, 0, 0, 0, 0, 0, 0, 0, 0, 0, 0, 0, 1, 0, 0, 1, 0, 0, 0, 0, 0, 0, 0, 0, 0, 0, 0, 0, 0, 0, 0, 0, 0, 0, 1, 0, 0, 0, 0, 0, 0, 0, 0, 1, 0, 0, 0, 0, 0, 0, 1, 0, 0, 0, 0, 0, 0, 0, 0, 0, 1, 0, 0, 0, 0, 0, 0, 0, 0, 0, 0, 0, 0, 1, 0, 0, 0, 0, 1, 0, 0, 0, 0, 0, 0, 0, 0, 0, 1, 0, 0, 0, 0, 0, 0, 0, 0, 0, 0, 0, 1, 0, 0, 0, 0, 1, 0, 0, 0, 0, 0, 0, 0, 0, 0, 0, 0, 0, 0, 0, 0, 0, 0, 0, 1, 0, 0, 0, 0, 0, 1, 0, 0, 0, 0, 0, 1, 0, 0, 0, 0, 0, 0, 0, 0, 0, 1, 0, 0, 0, 0, 0, 0, 0, 0, 0, 1, 0, 0, 0, 0, 0, 0, 0, 0, 0, 0, 0, 0, 1, 0, 0, 0, 0, 0, 0, 0, 0, 0, 1, 0, 0, 0, 0, 0, 0, 0, 0, 0, 0, 0, 0, 0, 0, 1, 0, 0, 0, 0, 1, 0, 0, 0, 0, 0, 0, 0, 0, 0, 0, 0, 0, 0, 0, 1, 0, 0, 0, 0, 0, 0, 0, 0, 0, 1, 0, 0, 0, 0, 0, 0, 0, 1, 0, 0, 0, 0, 0, 0, 1, 0, 0, 0, 0, 0, 1, 0, 0, 0, 0, 0, 0, 0, 0, 0, 0, 0, 0, 1, 0, 0, 0, 0, 0, 0, 1, 0, 0, 0, 0, 0, 0, 0, 0, 0, 0, 0, 0, 0, 0, 0, 1, 0, 0, 0, 0, 0, 0, 1, 0, 0, 0, 0, 0, 0, 0, 0, 0, 0, 0, 1, 0, 0, 0, 0, 0, 0, 0, 0, 0, 0, 0, 1, 0, 0, 1, 0, 0, 0, 0, 0, 0, 0, 0, 0, 0, 0, 0, 0, 0, 0, 0, 0, 0, 1, 0, 0, 0, 0, 0, 0, 0, 0, 1, 0, 0, 0, 0, 0, 0, 1, 0, 0, 0, 0, 0, 0, 0, 0, 0, 1, 0, 0, 0, 0, 0, 0, 0, 0, 0, 0, 0, 0, 1, 0, 0, 0, 0, 1, 0, 0, 0, 0, 0, 0, 0, 0, 0, 1, 0, 0, 0, 0, 0, 0, 0, 0, 0, 0, 0, 1, 0, 0, 0, 0, 1, 0, 0, 0, 0, 0, 0, 0, 0, 0, 0, 0, 0, 0, 0, 0, 0, 0, 0, 1, 0, 0, 0, 0, 0, 1, 0, 0, 0, 0, 0, 1, 0, 0, 0, 0, 0, 0, 0, 0, 0, 1, 0, 0, 0, 0, 0, 0, 0, 0, 0, 1, 0, 0, 0, 0, 0, 0, 0, 0, 0, 0, 0, 0, 1, 0, 0, 0, 0, 0, 0, 0, 0, 0, 1, 0, 0, 0, 0, 0, 0, 0, 0, 0, 0, 0, 0, 0, 0, 1, 0, 0, 0, 0, 1, 0, 0, 0, 0, 0, 0, 0, 0, 0, 0, 0, 0, 0, 0, 1, 0, 0, 0, 0, 0, 0, 0, 0, 0, 1, 0, 0, 0, 0, 0, 0, 0, 1, 0, 0, 0, 0, 0, 0, 1, 0, 0, 0, 0, 0, 1, 0, 0, 0, 0, 0, 0, 0, 0, 0, 0, 0, 0, 1, 0, 0, 0, 0, 0, 0, 1, 0, 0, 0, 0, 0, 0, 0, 0, 0, 0, 0, 0, 0, 0, 0, 1, 0, 0, 0, 0, 0, 0, 1, 0, 0, 0, 0, 0, 0, 0, 0, 0, 0, 0, 1, 0, 0, 0, 0, 0, 0, 0, 0, 0, 0, 0, 1, 0, 0, 1, 0, 0, 0, 0, 0, 0, 0, 0, 0, 0, 0, 0, 0, 0, 0, 0, 0, 0, 1, 0, 0, 0, 0, 0, 0, 0, 0, 1, 0, 0, 0, 0, 0, 0, 1, 0, 0, 0, 0, 0, 0, 0, 0, 0, 1, 0, 0, 0, 0, 0, 0, 0, 0, 0, 0, 0, 0, 1, 0, 0, 0, 0, 1, 0, 0, 0, 0, 0, 0, 0, 0, 0, 1, 0, 0, 0, 0, 0, 0, 0, 0, 0, 0, 0, 1, 0, 0, 0, 0
                       |0, 0, 0, 0, 0, 0, 0, 0, 0, 1, 1, 0, 0, 0, 0, 0, 0, 0, 0, 0, 0, 0, 0, 0, 0, 0, 0, 0, 1, 0, 0, 0, 1, 0, 0, 0, 0, 0, 0, 0, 0, 0, 0, 0, 0, 0, 0, 0, 0, 1, 0, 0, 0, 0, 0, 0, 0, 0, 0, 1, 0, 0, 0, 0, 0, 1, 0, 0, 0, 0, 0, 1, 0, 0, 0, 0, 0, 0, 0, 0, 0, 0, 0, 0, 0, 0, 0, 0, 1, 0, 0, 0, 0, 0, 0, 0, 0, 0, 1, 0, 0, 0, 0, 1, 0, 0, 0, 0, 0, 0, 0, 0, 1, 0, 0, 0, 0, 0, 0, 0, 1, 0, 0, 0, 0, 0, 0, 0, 0, 0, 0, 0, 0, 0, 0, 0, 0, 1, 0, 0, 0, 0, 0, 1, 0, 0, 0, 0, 0, 0, 1, 0, 0, 0, 0, 0, 0, 0, 0, 0, 0, 0, 0, 0, 0, 0, 0, 0, 0, 1, 0, 0, 0, 0, 0, 0, 0, 0, 0, 1, 0, 1, 0, 0, 0, 0, 0, 0, 0, 0, 1, 0, 0, 0, 0, 0, 0, 0, 0, 0, 0, 0, 0, 0, 0, 0, 1, 0, 0, 0, 0, 0, 0, 0, 0, 0, 1, 0, 0, 0, 0, 1, 0, 0, 0, 0, 0, 0, 0, 0, 0, 0, 0, 0, 1, 0, 0, 0, 0, 0, 0, 0, 0, 0, 0, 0, 0, 0, 0, 1, 1, 0, 0, 0, 0, 0, 0, 0, 0, 0, 0, 0, 0, 1, 0, 0, 0, 0, 0, 0, 0, 0, 0, 0, 0, 0, 1, 0, 0, 0, 0, 0, 0, 0, 0, 1, 0, 0, 0, 0, 0, 0, 0, 0, 0, 0, 0, 1, 0, 0, 0, 0, 0, 0, 0, 0, 0, 0, 0, 1, 1, 0, 0, 0, 0, 0, 0, 0, 0, 0, 0, 0, 0, 0, 0, 0, 0, 0, 1, 0, 0, 0, 1, 0, 0, 0, 0, 0, 0, 0, 0, 0, 0, 0, 0, 0, 0, 0, 0, 1, 0, 0, 0, 0, 0, 0, 0, 0, 0, 1, 0, 0, 0, 0, 0, 1, 0, 0, 0, 0, 0, 1, 0, 0, 0, 0, 0, 0, 0, 0, 0, 0, 0, 0, 0, 0, 0, 0, 1, 0, 0, 0, 0, 0, 0, 0, 0, 0, 1, 0, 0, 0, 0, 1, 0, 0, 0, 0, 0, 0, 0, 0, 1, 0, 0, 0, 0, 0, 0, 0, 1, 0, 0, 0, 0, 0, 0, 0, 0, 0, 0, 0, 0, 0, 0, 0, 0, 1, 0, 0, 0, 0, 0, 1, 0, 0, 0, 0, 0, 0, 1, 0, 0, 0, 0, 0, 0, 0, 0, 0, 0, 0, 0, 0, 0, 0, 0, 0, 0, 1, 0, 0, 0, 0, 0, 0, 0, 0, 0, 1, 0, 1, 0, 0, 0, 0, 0, 0, 0, 0, 1, 0, 0, 0, 0, 0, 0, 0, 0, 0, 0, 0, 0, 0, 0, 0, 1, 0, 0, 0, 0, 0, 0, 0, 0, 0, 1, 0, 0, 0, 0, 1, 0, 0, 0, 0, 0, 0, 0, 0, 0, 0, 0, 0, 1, 0, 0, 0, 0, 0, 0, 0, 0, 0, 0, 0, 0, 0, 0, 1, 1, 0, 0, 0, 0, 0, 0, 0, 0, 0, 0, 0, 0, 1, 0, 0, 0, 0, 0, 0, 0, 0, 0, 0, 0, 0, 1, 0, 0, 0, 0, 0, 0, 0, 0, 1, 0, 0, 0, 0, 0, 0, 0, 0, 0, 0, 0, 1, 0, 0, 0, 0, 0, 0, 0, 0, 0, 0, 0, 1, 1, 0, 0, 0, 0, 0, 0, 0, 0, 0, 0, 0, 0, 0, 0, 0, 0, 0, 1, 0, 0, 0, 1, 0, 0, 0, 0, 0, 0, 0, 0, 0, 0, 0, 0, 0, 0, 0, 0, 1, 0, 0, 0, 0, 0, 0, 0, 0, 0, 1, 0, 0, 0, 0, 0, 1, 0, 0, 0, 0, 0, 1, 0, 0, 0, 0, 0, 0, 0, 0, 0, 0, 0, 0, 0, 0, 0, 0, 1, 0, 0, 0, 0, 0, 0, 0, 0, 0, 1, 0, 0, 0, 0, 1, 0, 0, 0, 0, 0, 0, 0, 0, 1, 0, 0, 0, 0, 0, 0, 0, 1, 0, 0, 0, 0, 0, 0, 0, 0, 0, 0, 0, 0, 0, 0, 0, 0, 1, 0, 0, 0, 0, 0, 1, 0, 0, 0, 0, 0, 0, 1, 0, 0, 0, 0, 0, 0, 0, 0, 0, 0, 0, 0, 0, 0, 0, 0, 0, 0, 1, 0, 0, 0, 0, 0, 0, 0, 0, 0, 1, 0, 1, 0, 0, 0, 0, 0, 0, 0, 0, 1, 0, 0, 0, 0, 0, 0, 0, 0, 0, 0, 0, 0, 0, 0, 0, 1, 0, 0, 0, 0, 0, 0, 0, 0, 0, 1, 0, 0, 0, 0, 1, 0, 0, 0, 0, 0, 0, 0, 0, 0, 0, 0, 0, 1, 0, 0, 0, 0, 0, 0, 0, 0, 0, 0, 0, 0, 0, 0, 1, 1, 0, 0, 0, 0, 0, 0, 0, 0, 0, 0, 0, 0, 1, 0, 0, 0, 0, 0, 0, 0, 0, 0, 0, 0, 0, 1, 0, 0, 0, 0, 0, 0, 0, 0, 1, 0, 0, 0, 0, 0, 0, 0, 0, 0, 0, 0, 1, 0, 0
                       |0, 0, 0, 0, 1, 0, 0, 0, 0, 0, 0, 0, 0, 0, 0, 0, 1, 0, 0, 0, 0, 0, 0, 0, 0, 0, 0, 1, 0, 0, 0, 0, 0, 0, 0, 0, 0, 0, 0, 1, 0, 0, 0, 0, 0, 0, 0, 1, 0, 0, 0, 0, 0, 0, 0, 1, 0, 0, 0, 0, 0, 0, 0, 0, 0, 0, 1, 0, 0, 0, 0, 0, 0, 0, 0, 0, 1, 0, 0, 0, 0, 1, 0, 0, 0, 0, 0, 0, 0, 0, 0, 0, 0, 0, 0, 0, 1, 0, 0, 0, 1, 0, 0, 0, 0, 0, 0, 0, 0, 0, 0, 0, 0, 0, 0, 1, 0, 0, 0, 0, 0, 0, 0, 0, 0, 1, 0, 0, 0, 0, 0, 0, 0, 0, 0, 0, 0, 0, 0, 1, 0, 0, 0, 0, 0, 1, 0, 0, 0, 0, 0, 0, 0, 0, 0, 1, 0, 0, 0, 0, 0, 1, 0, 0, 0, 0, 0, 0, 0, 0, 0, 0, 0, 0, 0, 0, 0, 1, 0, 0, 0, 0, 0, 0, 0, 0, 1, 0, 0, 0, 0, 0, 1, 0, 0, 0, 0, 0, 0, 0, 1, 0, 0, 0, 0, 0, 0, 0, 0, 0, 0, 0, 1, 0, 0, 0, 0, 0, 0, 0, 1, 0, 0, 0, 0, 0, 0, 0, 0, 0, 0, 0, 0, 0, 0, 0, 0, 1, 0, 0, 0, 0, 0, 1, 0, 0, 0, 0, 0, 0, 0, 0, 0, 0, 0, 0, 0, 0, 0, 1, 0, 0, 0, 0, 1, 0, 0, 0, 0, 0, 0, 0, 0, 0, 0, 1, 0, 0, 0, 0, 0, 0, 0, 0, 1, 0, 0, 0, 0, 0, 0, 0, 0, 1, 0, 0, 0, 0, 0, 0, 0, 0, 0, 0, 1, 0, 0, 0, 0, 0, 0, 0, 0, 0, 0, 0, 1, 0, 0, 0, 0, 0, 0, 0, 0, 0, 0, 1, 0, 0, 0, 0, 0, 0, 0, 0, 0, 0, 0, 1, 0, 0, 0, 0, 0, 0, 0, 1, 0, 0, 0, 0, 0, 0, 0, 1, 0, 0, 0, 0, 0, 0, 0, 0, 0, 0, 1, 0, 0, 0, 0, 0, 0, 0, 0, 0, 1, 0, 0, 0, 0, 1, 0, 0, 0, 0, 0, 0, 0, 0, 0, 0, 0, 0, 0, 0, 1, 0, 0, 0, 1, 0, 0, 0, 0, 0, 0, 0, 0, 0, 0, 0, 0, 0, 0, 1, 0, 0, 0, 0, 0, 0, 0, 0, 0, 1, 0, 0, 0, 0, 0, 0, 0, 0, 0, 0, 0, 0, 0, 1, 0, 0, 0, 0, 0, 1, 0, 0, 0, 0, 0, 0, 0, 0, 0, 1, 0, 0, 0, 0, 0, 1, 0, 0, 0, 0, 0, 0, 0, 0, 0, 0, 0, 0, 0, 0, 0, 1, 0, 0, 0, 0, 0, 0, 0, 0, 1, 0, 0, 0, 0, 0, 1, 0, 0, 0, 0, 0, 0, 0, 1, 0, 0, 0, 0, 0, 0, 0, 0, 0, 0, 0, 1, 0, 0, 0, 0, 0, 0, 0, 1, 0, 0, 0, 0, 0, 0, 0, 0, 0, 0, 0, 0, 0, 0, 0, 0, 1, 0, 0, 0, 0, 0, 1, 0, 0, 0, 0, 0, 0, 0, 0, 0, 0, 0, 0, 0, 0, 0, 1, 0, 0, 0, 0, 1, 0, 0, 0, 0, 0, 0, 0, 0, 0, 0, 1, 0, 0, 0, 0, 0, 0, 0, 0, 1, 0, 0, 0, 0, 0, 0, 0, 0, 1, 0, 0, 0, 0, 0, 0, 0, 0, 0, 0, 1, 0, 0, 0, 0, 0, 0, 0, 0, 0, 0, 0, 1, 0, 0, 0, 0, 0, 0, 0, 0, 0, 0, 1, 0, 0, 0, 0, 0, 0, 0, 0, 0, 0, 0, 1, 0, 0, 0, 0, 0, 0, 0, 1, 0, 0, 0, 0, 0, 0, 0, 1, 0, 0, 0, 0, 0, 0, 0, 0, 0, 0, 1, 0, 0, 0, 0, 0, 0, 0, 0, 0, 1, 0, 0, 0, 0, 1, 0, 0, 0, 0, 0, 0, 0, 0, 0, 0, 0, 0, 0, 0, 1, 0, 0, 0, 1, 0, 0, 0, 0, 0, 0, 0, 0, 0, 0, 0, 0, 0, 0, 1, 0, 0, 0, 0, 0, 0, 0, 0, 0, 1, 0, 0, 0, 0, 0, 0, 0, 0, 0, 0, 0, 0, 0, 1, 0, 0, 0, 0, 0, 1, 0, 0, 0, 0, 0, 0, 0, 0, 0, 1, 0, 0, 0, 0, 0, 1, 0, 0, 0, 0, 0, 0, 0, 0, 0, 0, 0, 0, 0, 0, 0, 1, 0, 0, 0, 0, 0, 0, 0, 0, 1, 0, 0, 0, 0, 0, 1, 0, 0, 0, 0, 0, 0, 0, 1, 0, 0, 0, 0, 0, 0, 0, 0, 0, 0, 0, 1, 0, 0, 0, 0, 0, 0, 0, 1, 0, 0, 0, 0, 0, 0, 0, 0, 0, 0, 0, 0, 0, 0, 0, 0, 1, 0, 0, 0, 0, 0, 1, 0, 0, 0, 0, 0, 0, 0, 0, 0, 0, 0, 0, 0, 0, 0, 1, 0, 0, 0, 0, 1, 0, 0, 0, 0, 0, 0, 0, 0, 0, 0, 1, 0, 0, 0, 0, 0, 0, 0, 0, 1, 0, 0, 0, 0, 0, 0, 0, 0, 1, 0, 0, 0, 0, 0, 0
                       |0, 0, 0, 0, 0, 0, 0, 0, 1, 0, 0, 0, 1, 0, 0, 0, 0, 0, 0, 0, 0, 0, 0, 0, 0, 0, 0, 0, 0, 1, 0, 0, 0, 0, 0, 0, 0, 0, 1, 0, 0, 0, 0, 0, 0, 0, 1, 0, 0, 0, 0, 0, 0, 0, 0, 0, 0, 1, 0, 0, 0, 0, 0, 0, 0, 0, 0, 1, 0, 0, 0, 0, 0, 0, 0, 1, 0, 0, 0, 0, 0, 0, 0, 0, 0, 0, 0, 1, 0, 0, 0, 0, 0, 0, 0, 1, 0, 0, 0, 0, 0, 0, 0, 0, 0, 0, 1, 0, 0, 0, 0, 0, 0, 0, 0, 0, 1, 0, 0, 0, 0, 0, 0, 0, 0, 0, 1, 0, 0, 0, 0, 0, 0, 0, 0, 0, 0, 0, 1, 0, 0, 0, 0, 0, 1, 0, 0, 0, 0, 0, 0, 1, 0, 0, 0, 0, 0, 0, 0, 0, 0, 0, 0, 0, 0, 0, 0, 1, 0, 0, 0, 0, 0, 0, 0, 0, 0, 0, 1, 0, 0, 0, 0, 0, 0, 0, 0, 0, 1, 0, 0, 0, 0, 0, 0, 0, 0, 0, 1, 0, 0, 0, 0, 0, 1, 0, 0, 0, 0, 0, 0, 0, 0, 0, 1, 0, 0, 0, 0, 0, 0, 0, 0, 0, 0, 0, 1, 0, 0, 0, 0, 0, 1, 0, 0, 0, 0, 0, 0, 0, 1, 0, 0, 0, 0, 0, 0, 0, 0, 0, 0, 0, 0, 0, 0, 0, 0, 1, 0, 0, 0, 0, 0, 0, 0, 0, 1, 0, 0, 0, 1, 0, 0, 0, 0, 0, 0, 0, 0, 0, 0, 0, 0, 0, 0, 0, 0, 0, 0, 1, 0, 0, 1, 0, 0, 0, 0, 0, 0, 0, 0, 0, 0, 0, 0, 0, 0, 0, 1, 0, 0, 0, 1, 0, 0, 0, 0, 0, 0, 0, 0, 0, 0, 0, 0, 0, 0, 0, 0, 1, 0, 0, 0, 0, 0, 0, 0, 0, 1, 0, 0, 0, 0, 0, 0, 0, 1, 0, 0, 0, 0, 0, 0, 0, 0, 0, 0, 1, 0, 0, 0, 0, 0, 0, 0, 0, 0, 1, 0, 0, 0, 0, 0, 0, 0, 1, 0, 0, 0, 0, 0, 0, 0, 0, 0, 0, 0, 1, 0, 0, 0, 0, 0, 0, 0, 1, 0, 0, 0, 0, 0, 0, 0, 0, 0, 0, 1, 0, 0, 0, 0, 0, 0, 0, 0, 0, 1, 0, 0, 0, 0, 0, 0, 0, 0, 0, 1, 0, 0, 0, 0, 0, 0, 0, 0, 0, 0, 0, 1, 0, 0, 0, 0, 0, 1, 0, 0, 0, 0, 0, 0, 1, 0, 0, 0, 0, 0, 0, 0, 0, 0, 0, 0, 0, 0, 0, 0, 1, 0, 0, 0, 0, 0, 0, 0, 0, 0, 0, 1, 0, 0, 0, 0, 0, 0, 0, 0, 0, 1, 0, 0, 0, 0, 0, 0, 0, 0, 0, 1, 0, 0, 0, 0, 0, 1, 0, 0, 0, 0, 0, 0, 0, 0, 0, 1, 0, 0, 0, 0, 0, 0, 0, 0, 0, 0, 0, 1, 0, 0, 0, 0, 0, 1, 0, 0, 0, 0, 0, 0, 0, 1, 0, 0, 0, 0, 0, 0, 0, 0, 0, 0, 0, 0, 0, 0, 0, 0, 1, 0, 0, 0, 0, 0, 0, 0, 0, 1, 0, 0, 0, 1, 0, 0, 0, 0, 0, 0, 0, 0, 0, 0, 0, 0, 0, 0, 0, 0, 0, 0, 1, 0, 0, 1, 0, 0, 0, 0, 0, 0, 0, 0, 0, 0, 0, 0, 0, 0, 0, 1, 0, 0, 0, 1, 0, 0, 0, 0, 0, 0, 0, 0, 0, 0, 0, 0, 0, 0, 0, 0, 1, 0, 0, 0, 0, 0, 0, 0, 0, 1, 0, 0, 0, 0, 0, 0, 0, 1, 0, 0, 0, 0, 0, 0, 0, 0, 0, 0, 1, 0, 0, 0, 0, 0, 0, 0, 0, 0, 1, 0, 0, 0, 0, 0, 0, 0, 1, 0, 0, 0, 0, 0, 0, 0, 0, 0, 0, 0, 1, 0, 0, 0, 0, 0, 0, 0, 1, 0, 0, 0, 0, 0, 0, 0, 0, 0, 0, 1, 0, 0, 0, 0, 0, 0, 0, 0, 0, 1, 0, 0, 0, 0, 0, 0, 0, 0, 0, 1, 0, 0, 0, 0, 0, 0, 0, 0, 0, 0, 0, 1, 0, 0, 0, 0, 0, 1, 0, 0, 0, 0, 0, 0, 1, 0, 0, 0, 0, 0, 0, 0, 0, 0, 0, 0, 0, 0, 0, 0, 1, 0, 0, 0, 0, 0, 0, 0, 0, 0, 0, 1, 0, 0, 0, 0, 0, 0, 0, 0, 0, 1, 0, 0, 0, 0, 0, 0, 0, 0, 0, 1, 0, 0, 0, 0, 0, 1, 0, 0, 0, 0, 0, 0, 0, 0, 0, 1, 0, 0, 0, 0, 0, 0, 0, 0, 0, 0, 0, 1, 0, 0, 0, 0, 0, 1, 0, 0, 0, 0, 0, 0, 0, 1, 0, 0, 0, 0, 0, 0, 0, 0, 0, 0, 0, 0, 0, 0, 0, 0, 1, 0, 0, 0, 0, 0, 0, 0, 0, 1, 0, 0, 0, 1, 0, 0, 0, 0, 0, 0, 0, 0, 0, 0, 0, 0, 0, 0, 0, 0, 0, 0, 1, 0, 0, 1, 0, 0, 0, 0, 0, 0, 0|];
Successor = [{2, 3, 4, 5, 6, 7, 8, 9, 10},
             {3, 4, 5, 6, 7, 8, 9, 10},
             {4, 5, 6, 7, 8, 9, 10},
             {5, 6, 7, 8, 9, 10},
             {6, 7, 8, 9, 10},
             {7, 8, 9, 10},
             {8, 9, 10},
             {9, 10},
             {10},
             {},
             {12, 13, 14, 15, 16, 17, 18, 19, 20},
             {13, 14, 15, 16, 17, 18, 19, 20},
             {14, 15, 16, 17, 18, 19, 20},
             {15, 16, 17, 18, 19, 20},
             {16, 17, 18, 19, 20},
             {17, 18, 19, 20},
             {18, 19, 20},
             {19, 20},
             {20},
             {},
             {22, 23, 24, 25, 26, 27, 28, 29, 30},
             {23, 24, 25, 26, 27, 28, 29, 30},
             {24, 25, 26, 27, 28, 29, 30},
             {25, 26, 27, 28, 29, 30},
             {26, 27, 28, 29, 30},
             {27, 28, 29, 30},
             {28, 29, 30},
             {29, 30},
             {30},
             {},
             {32, 33, 34, 35, 36, 37, 38, 39, 40},
             {33, 34, 35, 36, 37, 38, 39, 40},
             {34, 35, 36, 37, 38, 39, 40},
             {35, 36, 37, 38, 39, 40},
             {36, 37, 38, 39, 40},
             {37, 38, 39, 40},
             {38, 39, 40},
             {39, 40},
             {40},
             {},
             {42, 43, 44, 45, 46, 47, 48, 49, 50},
             {43, 44, 45, 46, 47, 48, 49, 50},
             {44, 45, 46, 47, 48, 49, 50},
             {45, 46, 47, 48, 49, 50},
             {46, 47, 48, 49, 50},
             {47, 48, 49, 50},
             {48, 49, 50},
             {49, 50},
             {50},
             {},
             {52, 53, 54, 55, 56, 57, 58, 59, 60},
             {53, 54, 55, 56, 57, 58, 59, 60},
             {54, 55, 56, 57, 58, 59, 60},
             {55, 56, 57, 58, 59, 60},
             {56, 57, 58, 59, 60},
             {57, 58, 59, 60},
             {58, 59, 60},
             {59, 60},
             {60},
             {},
             {62, 63, 64, 65, 66, 67, 68, 69, 70},
             {63, 64, 65, 66, 67, 68, 69, 70},
             {64, 65, 66, 67, 68, 69, 70},
             {65, 66, 67, 68, 69, 70},
             {66, 67, 68, 69, 70},
             {67, 68, 69, 70},
             {68, 69, 70},
             {69, 70},
             {70},
             {},
             {72, 73, 74, 75, 76, 77, 78, 79, 80},
             {73, 74, 75, 76, 77, 78, 79, 80},
             {74, 75, 76, 77, 78, 79, 80},
             {75, 76, 77, 78, 79, 80},
             {76, 77, 78, 79, 80},
             {77, 78, 79, 80},
             {78, 79, 80},
             {79, 80},
             {80},
             {},
             {82, 83, 84, 85, 86, 87, 88, 89, 90},
             {83, 84, 85, 86, 87, 88, 89, 90},
             {84, 85, 86, 87, 88, 89, 90},
             {85, 86, 87, 88, 89, 90},
             {86, 87, 88, 89, 90},
             {87, 88, 89, 90},
             {88, 89, 90},
             {89, 90},
             {90},
             {},
             {92, 93, 94, 95, 96, 97, 98, 99, 100},
             {93, 94, 95, 96, 97, 98, 99, 100},
             {94, 95, 96, 97, 98, 99, 100},
             {95, 96, 97, 98, 99, 100},
             {96, 97, 98, 99, 100},
             {97, 98, 99, 100},
             {98, 99, 100},
             {99, 100},
             {100},
             {},
             {102, 103, 104, 105, 106, 107, 108, 109, 110},
             {103, 104, 105, 106, 107, 108, 109, 110},
             {104, 105, 106, 107, 108, 109, 110},
             {105, 106, 107, 108, 109, 110},
             {106, 107, 108, 109, 110},
             {107, 108, 109, 110},
             {108, 109, 110},
             {109, 110},
             {110},
             {},
             {112, 113, 114, 115, 116, 117, 118, 119, 120},
             {113, 114, 115, 116, 117, 118, 119, 120},
             {114, 115, 116, 117, 118, 119, 120},
             {115, 116, 117, 118, 119, 120},
             {116, 117, 118, 119, 120},
             {117, 118, 119, 120},
             {118, 119, 120},
             {119, 120},
             {120},
             {},
             {122, 123, 124, 125, 126, 127, 128, 129, 130},
             {123, 124, 125, 126, 127, 128, 129, 130},
             {124, 125, 126, 127, 128, 129, 130},
             {125, 126, 127, 128, 129, 130},
             {126, 127, 128, 129, 130},
             {127, 128, 129, 130},
             {128, 129, 130},
             {129, 130},
             {130},
             {},
             {132, 133, 134, 135, 136, 137, 138, 139, 140},
             {133, 134, 135, 136, 137, 138, 139, 140},
             {134, 135, 136, 137, 138, 139, 140},
             {135, 136, 137, 138, 139, 140},
             {136, 137, 138, 139, 140},
             {137, 138, 139, 140},
             {138, 139, 140},
             {139, 140},
             {140},
             {},
             {142, 143, 144, 145, 146, 147, 148, 149, 150},
             {143, 144, 145, 146, 147, 148, 149, 150},
             {144, 145, 146, 147, 148, 149, 150},
             {145, 146, 147, 148, 149, 150},
             {146, 147, 148, 149, 150},
             {147, 148, 149, 150},
             {148, 149, 150},
             {149, 150},
             {150},
             {},
             {152, 153, 154, 155, 156, 157, 158, 159, 160},
             {153, 154, 155, 156, 157, 158, 159, 160},
             {154, 155, 156, 157, 158, 159, 160},
             {155, 156, 157, 158, 159, 160},
             {156, 157, 158, 159, 160},
             {157, 158, 159, 160},
             {158, 159, 160},
             {159, 160},
             {160},
             {},
             {162, 163, 164, 165, 166, 167, 168, 169, 170},
             {163, 164, 165, 166, 167, 168, 169, 170},
             {164, 165, 166, 167, 168, 169, 170},
             {165, 166, 167, 168, 169, 170},
             {166, 167, 168, 169, 170},
             {167, 168, 169, 170},
             {168, 169, 170},
             {169, 170},
             {170},
             {},
             {172, 173, 174, 175, 176, 177, 178, 179, 180},
             {173, 174, 175, 176, 177, 178, 179, 180},
             {174, 175, 176, 177, 178, 179, 180},
             {175, 176, 177, 178, 179, 180},
             {176, 177, 178, 179, 180},
             {177, 178, 179, 180},
             {178, 179, 180},
             {179, 180},
             {180},
             {},
             {182, 183, 184, 185, 186, 187, 188, 189, 190},
             {183, 184, 185, 186, 187, 188, 189, 190},
             {184, 185, 186, 187, 188, 189, 190},
             {185, 186, 187, 188, 189, 190},
             {186, 187, 188, 189, 190},
             {187, 188, 189, 190},
             {188, 189, 190},
             {189, 190},
             {190},
             {},
             {192, 193, 194, 195, 196, 197, 198, 199, 200},
             {193, 194, 195, 196, 197, 198, 199, 200},
             {194, 195, 196, 197, 198, 199, 200},
             {195, 196, 197, 198, 199, 200},
             {196, 197, 198, 199, 200},
             {197, 198, 199, 200},
             {198, 199, 200},
             {199, 200},
             {200},
             {},
             {202, 203, 204, 205, 206, 207, 208, 209, 210},
             {203, 204, 205, 206, 207, 208, 209, 210},
             {204, 205, 206, 207, 208, 209, 210},
             {205, 206, 207, 208, 209, 210},
             {206, 207, 208, 209, 210},
             {207, 208, 209, 210},
             {208, 209, 210},
             {209, 210},
             {210},
             {},
             {212, 213, 214, 215, 216, 217, 218, 219, 220},
             {213, 214, 215, 216, 217, 218, 219, 220},
             {214, 215, 216, 217, 218, 219, 220},
             {215, 216, 217, 218, 219, 220},
             {216, 217, 218, 219, 220},
             {217, 218, 219, 220},
             {218, 219, 220},
             {219, 220},
             {220},
             {},
             {222, 223, 224, 225, 226, 227, 228, 229, 230},
             {223, 224, 225, 226, 227, 228, 229, 230},
             {224, 225, 226, 227, 228, 229, 230},
             {225, 226, 227, 228, 229, 230},
             {226, 227, 228, 229, 230},
             {227, 228, 229, 230},
             {228, 229, 230},
             {229, 230},
             {230},
             {},
             {232, 233, 234, 235, 236, 237, 238, 239, 240},
             {233, 234, 235, 236, 237, 238, 239, 240},
             {234, 235, 236, 237, 238, 239, 240},
             {235, 236, 237, 238, 239, 240},
             {236, 237, 238, 239, 240},
             {237, 238, 239, 240},
             {238, 239, 240},
             {239, 240},
             {240},
             {},
             {242, 243, 244, 245, 246, 247, 248, 249, 250},
             {243, 244, 245, 246, 247, 248, 249, 250},
             {244, 245, 246, 247, 248, 249, 250},
             {245, 246, 247, 248, 249, 250},
             {246, 247, 248, 249, 250},
             {247, 248, 249, 250},
             {248, 249, 250},
             {249, 250},
             {250},
             {},
             {252, 253, 254, 255, 256, 257, 258, 259, 260},
             {253, 254, 255, 256, 257, 258, 259, 260},
             {254, 255, 256, 257, 258, 259, 260},
             {255, 256, 257, 258, 259, 260},
             {256, 257, 258, 259, 260},
             {257, 258, 259, 260},
             {258, 259, 260},
             {259, 260},
             {260},
             {},
             {262, 263, 264, 265, 266, 267, 268, 269, 270},
             {263, 264, 265, 266, 267, 268, 269, 270},
             {264, 265, 266, 267, 268, 269, 270},
             {265, 266, 267, 268, 269, 270},
             {266, 267, 268, 269, 270},
             {267, 268, 269, 270},
             {268, 269, 270},
             {269, 270},
             {270},
             {},
             {272, 273, 274, 275, 276, 277, 278, 279, 280},
             {273, 274, 275, 276, 277, 278, 279, 280},
             {274, 275, 276, 277, 278, 279, 280},
             {275, 276, 277, 278, 279, 280},
             {276, 277, 278, 279, 280},
             {277, 278, 279, 280},
             {278, 279, 280},
             {279, 280},
             {280},
             {},
             {282, 283, 284, 285, 286, 287, 288, 289, 290},
             {283, 284, 285, 286, 287, 288, 289, 290},
             {284, 285, 286, 287, 288, 289, 290},
             {285, 286, 287, 288, 289, 290},
             {286, 287, 288, 289, 290},
             {287, 288, 289, 290},
             {288, 289, 290},
             {289, 290},
             {290},
             {},
             {292, 293, 294, 295, 296, 297, 298, 299, 300},
             {293, 294, 295, 296, 297, 298, 299, 300},
             {294, 295, 296, 297, 298, 299, 300},
             {295, 296, 297, 298, 299, 300},
             {296, 297, 298, 299, 300},
             {297, 298, 299, 300},
             {298, 299, 300},
             {299, 300},
             {300},
             {},
             {302, 303, 304, 305, 306, 307, 308, 309, 310},
             {303, 304, 305, 306, 307, 308, 309, 310},
             {304, 305, 306, 307, 308, 309, 310},
             {305, 306, 307, 308, 309, 310},
             {306, 307, 308, 309, 310},
             {307, 308, 309, 310},
             {308, 309, 310},
             {309, 310},
             {310},
             {},
             {312, 313, 314, 315, 316, 317, 318, 319, 320},
             {313, 314, 315, 316, 317, 318, 319, 320},
             {314, 315, 316, 317, 318, 319, 320},
             {315, 316, 317, 318, 319, 320},
             {316, 317, 318, 319, 320},
             {317, 318, 319, 320},
             {318, 319, 320},
             {319, 320},
             {320},
             {},
             {322, 323, 324, 325, 326, 327, 328, 329, 330},
             {323, 324, 325, 326, 327, 328, 329, 330},
             {324, 325, 326, 327, 328, 329, 330},
             {325, 326, 327, 328, 329, 330},
             {326, 327, 328, 329, 330},
             {327, 328, 329, 330},
             {328, 329, 330},
             {329, 330},
             {330},
             {},
             {332, 333, 334, 335, 336, 337, 338, 339, 340},
             {333, 334, 335, 336, 337, 338, 339, 340},
             {334, 335, 336, 337, 338, 339, 340},
             {335, 336, 337, 338, 339, 340},
             {336, 337, 338, 339, 340},
             {337, 338, 339, 340},
             {338, 339, 340},
             {339, 340},
             {340},
             {},
             {342, 343, 344, 345, 346, 347, 348, 349, 350},
             {343, 344, 345, 346, 347, 348, 349, 350},
             {344, 345, 346, 347, 348, 349, 350},
             {345, 346, 347, 348, 349, 350},
             {346, 347, 348, 349, 350},
             {347, 348, 349, 350},
             {348, 349, 350},
             {349, 350},
             {350},
             {},
             {352, 353, 354, 355, 356, 357, 358, 359, 360},
             {353, 354, 355, 356, 357, 358, 359, 360},
             {354, 355, 356, 357, 358, 359, 360},
             {355, 356, 357, 358, 359, 360},
             {356, 357, 358, 359, 360},
             {357, 358, 359, 360},
             {358, 359, 360},
             {359, 360},
             {360},
             {},
             {362, 363, 364, 365, 366, 367, 368, 369, 370},
             {363, 364, 365, 366, 367, 368, 369, 370},
             {364, 365, 366, 367, 368, 369, 370},
             {365, 366, 367, 368, 369, 370},
             {366, 367, 368, 369, 370},
             {367, 368, 369, 370},
             {368, 369, 370},
             {369, 370},
             {370},
             {},
             {372, 373, 374, 375, 376, 377, 378, 379, 380},
             {373, 374, 375, 376, 377, 378, 379, 380},
             {374, 375, 376, 377, 378, 379, 380},
             {375, 376, 377, 378, 379, 380},
             {376, 377, 378, 379, 380},
             {377, 378, 379, 380},
             {378, 379, 380},
             {379, 380},
             {380},
             {},
             {382, 383, 384, 385, 386, 387, 388, 389, 390},
             {383, 384, 385, 386, 387, 388, 389, 390},
             {384, 385, 386, 387, 388, 389, 390},
             {385, 386, 387, 388, 389, 390},
             {386, 387, 388, 389, 390},
             {387, 388, 389, 390},
             {388, 389, 390},
             {389, 390},
             {390},
             {},
             {392, 393, 394, 395, 396, 397, 398, 399, 400},
             {393, 394, 395, 396, 397, 398, 399, 400},
             {394, 395, 396, 397, 398, 399, 400},
             {395, 396, 397, 398, 399, 400},
             {396, 397, 398, 399, 400},
             {397, 398, 399, 400},
             {398, 399, 400},
             {399, 400},
             {400},
             {},
             {402, 403, 404, 405, 406, 407, 408, 409, 410},
             {403, 404, 405, 406, 407, 408, 409, 410},
             {404, 405, 406, 407, 408, 409, 410},
             {405, 406, 407, 408, 409, 410},
             {406, 407, 408, 409, 410},
             {407, 408, 409, 410},
             {408, 409, 410},
             {409, 410},
             {410},
             {},
             {412, 413, 414, 415, 416, 417, 418, 419, 420},
             {413, 414, 415, 416, 417, 418, 419, 420},
             {414, 415, 416, 417, 418, 419, 420},
             {415, 416, 417, 418, 419, 420},
             {416, 417, 418, 419, 420},
             {417, 418, 419, 420},
             {418, 419, 420},
             {419, 420},
             {420},
             {},
             {422, 423, 424, 425, 426, 427, 428, 429, 430},
             {423, 424, 425, 426, 427, 428, 429, 430},
             {424, 425, 426, 427, 428, 429, 430},
             {425, 426, 427, 428, 429, 430},
             {426, 427, 428, 429, 430},
             {427, 428, 429, 430},
             {428, 429, 430},
             {429, 430},
             {430},
             {},
             {432, 433, 434, 435, 436, 437, 438, 439, 440},
             {433, 434, 435, 436, 437, 438, 439, 440},
             {434, 435, 436, 437, 438, 439, 440},
             {435, 436, 437, 438, 439, 440},
             {436, 437, 438, 439, 440},
             {437, 438, 439, 440},
             {438, 439, 440},
             {439, 440},
             {440},
             {},
             {442, 443, 444, 445, 446, 447, 448, 449, 450},
             {443, 444, 445, 446, 447, 448, 449, 450},
             {444, 445, 446, 447, 448, 449, 450},
             {445, 446, 447, 448, 449, 450},
             {446, 447, 448, 449, 450},
             {447, 448, 449, 450},
             {448, 449, 450},
             {449, 450},
             {450},
             {},
             {452, 453, 454, 455, 456, 457, 458, 459, 460},
             {453, 454, 455, 456, 457, 458, 459, 460},
             {454, 455, 456, 457, 458, 459, 460},
             {455, 456, 457, 458, 459, 460},
             {456, 457, 458, 459, 460},
             {457, 458, 459, 460},
             {458, 459, 460},
             {459, 460},
             {460},
             {},
             {462, 463, 464, 465, 466, 467, 468, 469, 470},
             {463, 464, 465, 466, 467, 468, 469, 470},
             {464, 465, 466, 467, 468, 469, 470},
             {465, 466, 467, 468, 469, 470},
             {466, 467, 468, 469, 470},
             {467, 468, 469, 470},
             {468, 469, 470},
             {469, 470},
             {470},
             {},
             {472, 473, 474, 475, 476, 477, 478, 479, 480},
             {473, 474, 475, 476, 477, 478, 479, 480},
             {474, 475, 476, 477, 478, 479, 480},
             {475, 476, 477, 478, 479, 480},
             {476, 477, 478, 479, 480},
             {477, 478, 479, 480},
             {478, 479, 480},
             {479, 480},
             {480},
             {},
             {482, 483, 484, 485, 486, 487, 488, 489, 490},
             {483, 484, 485, 486, 487, 488, 489, 490},
             {484, 485, 486, 487, 488, 489, 490},
             {485, 486, 487, 488, 489, 490},
             {486, 487, 488, 489, 490},
             {487, 488, 489, 490},
             {488, 489, 490},
             {489, 490},
             {490},
             {},
             {492, 493, 494, 495, 496, 497, 498, 499, 500},
             {493, 494, 495, 496, 497, 498, 499, 500},
             {494, 495, 496, 497, 498, 499, 500},
             {495, 496, 497, 498, 499, 500},
             {496, 497, 498, 499, 500},
             {497, 498, 499, 500},
             {498, 499, 500},
             {499, 500},
             {500},
             {},
             {502, 503, 504, 505, 506, 507, 508, 509, 510},
             {503, 504, 505, 506, 507, 508, 509, 510},
             {504, 505, 506, 507, 508, 509, 510},
             {505, 506, 507, 508, 509, 510},
             {506, 507, 508, 509, 510},
             {507, 508, 509, 510},
             {508, 509, 510},
             {509, 510},
             {510},
             {},
             {512, 513, 514, 515, 516, 517, 518, 519, 520},
             {513, 514, 515, 516, 517, 518, 519, 520},
             {514, 515, 516, 517, 518, 519, 520},
             {515, 516, 517, 518, 519, 520},
             {516, 517, 518, 519, 520},
             {517, 518, 519, 520},
             {518, 519, 520},
             {519, 520},
             {520},
             {},
             {522, 523, 524, 525, 526, 527, 528, 529, 530},
             {523, 524, 525, 526, 527, 528, 529, 530},
             {524, 525, 526, 527, 528, 529, 530},
             {525, 526, 527, 528, 529, 530},
             {526, 527, 528, 529, 530},
             {527, 528, 529, 530},
             {528, 529, 530},
             {529, 530},
             {530},
             {},
             {532, 533, 534, 535, 536, 537, 538, 539, 540},
             {533, 534, 535, 536, 537, 538, 539, 540},
             {534, 535, 536, 537, 538, 539, 540},
             {535, 536, 537, 538, 539, 540},
             {536, 537, 538, 539, 540},
             {537, 538, 539, 540},
             {538, 539, 540},
             {539, 540},
             {540},
             {},
             {542, 543, 544, 545, 546, 547, 548, 549, 550},
             {543, 544, 545, 546, 547, 548, 549, 550},
             {544, 545, 546, 547, 548, 549, 550},
             {545, 546, 547, 548, 549, 550},
             {546, 547, 548, 549, 550},
             {547, 548, 549, 550},
             {548, 549, 550},
             {549, 550},
             {550},
             {},
             {552, 553, 554, 555, 556, 557, 558, 559, 560},
             {553, 554, 555, 556, 557, 558, 559, 560},
             {554, 555, 556, 557, 558, 559, 560},
             {555, 556, 557, 558, 559, 560},
             {556, 557, 558, 559, 560},
             {557, 558, 559, 560},
             {558, 559, 560},
             {559, 560},
             {560},
             {},
             {562, 563, 564, 565, 566, 567, 568, 569, 570},
             {563, 564, 565, 566, 567, 568, 569, 570},
             {564, 565, 566, 567, 568, 569, 570},
             {565, 566, 567, 568, 569, 570},
             {566, 567, 568, 569, 570},
             {567, 568, 569, 570},
             {568, 569, 570},
             {569, 570},
             {570},
             {},
             {572, 573, 574, 575, 576, 577, 578, 579, 580},
             {573, 574, 575, 576, 577, 578, 579, 580},
             {574, 575, 576, 577, 578, 579, 580},
             {575, 576, 577, 578, 579, 580},
             {576, 577, 578, 579, 580},
             {577, 578, 579, 580},
             {578, 579, 580},
             {579, 580},
             {580},
             {},
             {582, 583, 584, 585, 586, 587, 588, 589, 590},
             {583, 584, 585, 586, 587, 588, 589, 590},
             {584, 585, 586, 587, 588, 589, 590},
             {585, 586, 587, 588, 589, 590},
             {586, 587, 588, 589, 590},
             {587, 588, 589, 590},
             {588, 589, 590},
             {589, 590},
             {590},
             {},
             {592, 593, 594, 595, 596, 597, 598, 599, 600},
             {593, 594, 595, 596, 597, 598, 599, 600},
             {594, 595, 596, 597, 598, 599, 600},
             {595, 596, 597, 598, 599, 600},
             {596, 597, 598, 599, 600},
             {597, 598, 599, 600},
             {598, 599, 600},
             {599, 600},
             {600},
             {},
             {602, 603, 604, 605, 606, 607, 608, 609, 610},
             {603, 604, 605, 606, 607, 608, 609, 610},
             {604, 605, 606, 607, 608, 609, 610},
             {605, 606, 607, 608, 609, 610},
             {606, 607, 608, 609, 610},
             {607, 608, 609, 610},
             {608, 609, 610},
             {609, 610},
             {610},
             {},
             {612, 613, 614, 615, 616, 617, 618, 619, 620},
             {613, 614, 615, 616, 617, 618, 619, 620},
             {614, 615, 616, 617, 618, 619, 620},
             {615, 616, 617, 618, 619, 620},
             {616, 617, 618, 619, 620},
             {617, 618, 619, 620},
             {618, 619, 620},
             {619, 620},
             {620},
             {},
             {622, 623, 624, 625, 626, 627, 628, 629, 630},
             {623, 624, 625, 626, 627, 628, 629, 630},
             {624, 625, 626, 627, 628, 629, 630},
             {625, 626, 627, 628, 629, 630},
             {626, 627, 628, 629, 630},
             {627, 628, 629, 630},
             {628, 629, 630},
             {629, 630},
             {630},
             {},
             {632, 633, 634, 635, 636, 637, 638, 639, 640},
             {633, 634, 635, 636, 637, 638, 639, 640},
             {634, 635, 636, 637, 638, 639, 640},
             {635, 636, 637, 638, 639, 640},
             {636, 637, 638, 639, 640},
             {637, 638, 639, 640},
             {638, 639, 640},
             {639, 640},
             {640},
             {},
             {642, 643, 644, 645, 646, 647, 648, 649, 650},
             {643, 644, 645, 646, 647, 648, 649, 650},
             {644, 645, 646, 647, 648, 649, 650},
             {645, 646, 647, 648, 649, 650},
             {646, 647, 648, 649, 650},
             {647, 648, 649, 650},
             {648, 649, 650},
             {649, 650},
             {650},
             {},
             {652, 653, 654, 655, 656, 657, 658, 659, 660},
             {653, 654, 655, 656, 657, 658, 659, 660},
             {654, 655, 656, 657, 658, 659, 660},
             {655, 656, 657, 658, 659, 660},
             {656, 657, 658, 659, 660},
             {657, 658, 659, 660},
             {658, 659, 660},
             {659, 660},
             {660},
             {},
             {662, 663, 664, 665, 666, 667, 668, 669, 670},
             {663, 664, 665, 666, 667, 668, 669, 670},
             {664, 665, 666, 667, 668, 669, 670},
             {665, 666, 667, 668, 669, 670},
             {666, 667, 668, 669, 670},
             {667, 668, 669, 670},
             {668, 669, 670},
             {669, 670},
             {670},
             {},
             {672, 673, 674, 675, 676, 677, 678, 679, 680},
             {673, 674, 675, 676, 677, 678, 679, 680},
             {674, 675, 676, 677, 678, 679, 680},
             {675, 676, 677, 678, 679, 680},
             {676, 677, 678, 679, 680},
             {677, 678, 679, 680},
             {678, 679, 680},
             {679, 680},
             {680},
             {},
             {682, 683, 684, 685, 686, 687, 688, 689, 690},
             {683, 684, 685, 686, 687, 688, 689, 690},
             {684, 685, 686, 687, 688, 689, 690},
             {685, 686, 687, 688, 689, 690},
             {686, 687, 688, 689, 690},
             {687, 688, 689, 690},
             {688, 689, 690},
             {689, 690},
             {690},
             {},
             {692, 693, 694, 695, 696, 697, 698, 699, 700},
             {693, 694, 695, 696, 697, 698, 699, 700},
             {694, 695, 696, 697, 698, 699, 700},
             {695, 696, 697, 698, 699, 700},
             {696, 697, 698, 699, 700},
             {697, 698, 699, 700},
             {698, 699, 700},
             {699, 700},
             {700},
             {},
             {702, 703, 704, 705, 706, 707, 708, 709, 710},
             {703, 704, 705, 706, 707, 708, 709, 710},
             {704, 705, 706, 707, 708, 709, 710},
             {705, 706, 707, 708, 709, 710},
             {706, 707, 708, 709, 710},
             {707, 708, 709, 710},
             {708, 709, 710},
             {709, 710},
             {710},
             {},
             {712, 713, 714, 715, 716, 717, 718, 719, 720},
             {713, 714, 715, 716, 717, 718, 719, 720},
             {714, 715, 716, 717, 718, 719, 720},
             {715, 716, 717, 718, 719, 720},
             {716, 717, 718, 719, 720},
             {717, 718, 719, 720},
             {718, 719, 720},
             {719, 720},
             {720},
             {},
             {722, 723, 724, 725, 726, 727, 728, 729, 730},
             {723, 724, 725, 726, 727, 728, 729, 730},
             {724, 725, 726, 727, 728, 729, 730},
             {725, 726, 727, 728, 729, 730},
             {726, 727, 728, 729, 730},
             {727, 728, 729, 730},
             {728, 729, 730},
             {729, 730},
             {730},
             {},
             {732, 733, 734, 735, 736, 737, 738, 739, 740},
             {733, 734, 735, 736, 737, 738, 739, 740},
             {734, 735, 736, 737, 738, 739, 740},
             {735, 736, 737, 738, 739, 740},
             {736, 737, 738, 739, 740},
             {737, 738, 739, 740},
             {738, 739, 740},
             {739, 740},
             {740},
             {},
             {742, 743, 744, 745, 746, 747, 748, 749, 750},
             {743, 744, 745, 746, 747, 748, 749, 750},
             {744, 745, 746, 747, 748, 749, 750},
             {745, 746, 747, 748, 749, 750},
             {746, 747, 748, 749, 750},
             {747, 748, 749, 750},
             {748, 749, 750},
             {749, 750},
             {750},
             {},
             {752, 753, 754, 755, 756, 757, 758, 759, 760},
             {753, 754, 755, 756, 757, 758, 759, 760},
             {754, 755, 756, 757, 758, 759, 760},
             {755, 756, 757, 758, 759, 760},
             {756, 757, 758, 759, 760},
             {757, 758, 759, 760},
             {758, 759, 760},
             {759, 760},
             {760},
             {},
             {762, 763, 764, 765, 766, 767, 768, 769, 770},
             {763, 764, 765, 766, 767, 768, 769, 770},
             {764, 765, 766, 767, 768, 769, 770},
             {765, 766, 767, 768, 769, 770},
             {766, 767, 768, 769, 770},
             {767, 768, 769, 770},
             {768, 769, 770},
             {769, 770},
             {770},
             {},
             {772, 773, 774, 775, 776, 777, 778, 779, 780},
             {773, 774, 775, 776, 777, 778, 779, 780},
             {774, 775, 776, 777, 778, 779, 780},
             {775, 776, 777, 778, 779, 780},
             {776, 777, 778, 779, 780},
             {777, 778, 779, 780},
             {778, 779, 780},
             {779, 780},
             {780},
             {},
             {782, 783, 784, 785, 786, 787, 788, 789, 790},
             {783, 784, 785, 786, 787, 788, 789, 790},
             {784, 785, 786, 787, 788, 789, 790},
             {785, 786, 787, 788, 789, 790},
             {786, 787, 788, 789, 790},
             {787, 788, 789, 790},
             {788, 789, 790},
             {789, 790},
             {790},
             {},
             {792, 793, 794, 795, 796, 797, 798, 799, 800},
             {793, 794, 795, 796, 797, 798, 799, 800},
             {794, 795, 796, 797, 798, 799, 800},
             {795, 796, 797, 798, 799, 800},
             {796, 797, 798, 799, 800},
             {797, 798, 799, 800},
             {798, 799, 800},
             {799, 800},
             {800},
             {},
             {802, 803, 804, 805, 806, 807, 808, 809, 810},
             {803, 804, 805, 806, 807, 808, 809, 810},
             {804, 805, 806, 807, 808, 809, 810},
             {805, 806, 807, 808, 809, 810},
             {806, 807, 808, 809, 810},
             {807, 808, 809, 810},
             {808, 809, 810},
             {809, 810},
             {810},
             {},
             {812, 813, 814, 815, 816, 817, 818, 819, 820},
             {813, 814, 815, 816, 817, 818, 819, 820},
             {814, 815, 816, 817, 818, 819, 820},
             {815, 816, 817, 818, 819, 820},
             {816, 817, 818, 819, 820},
             {817, 818, 819, 820},
             {818, 819, 820},
             {819, 820},
             {820},
             {},
             {822, 823, 824, 825, 826, 827, 828, 829, 830},
             {823, 824, 825, 826, 827, 828, 829, 830},
             {824, 825, 826, 827, 828, 829, 830},
             {825, 826, 827, 828, 829, 830},
             {826, 827, 828, 829, 830},
             {827, 828, 829, 830},
             {828, 829, 830},
             {829, 830},
             {830},
             {},
             {832, 833, 834, 835, 836, 837, 838, 839, 840},
             {833, 834, 835, 836, 837, 838, 839, 840},
             {834, 835, 836, 837, 838, 839, 840},
             {835, 836, 837, 838, 839, 840},
             {836, 837, 838, 839, 840},
             {837, 838, 839, 840},
             {838, 839, 840},
             {839, 840},
             {840},
             {},
             {842, 843, 844, 845, 846, 847, 848, 849, 850},
             {843, 844, 845, 846, 847, 848, 849, 850},
             {844, 845, 846, 847, 848, 849, 850},
             {845, 846, 847, 848, 849, 850},
             {846, 847, 848, 849, 850},
             {847, 848, 849, 850},
             {848, 849, 850},
             {849, 850},
             {850},
             {},
             {852, 853, 854, 855, 856, 857, 858, 859, 860},
             {853, 854, 855, 856, 857, 858, 859, 860},
             {854, 855, 856, 857, 858, 859, 860},
             {855, 856, 857, 858, 859, 860},
             {856, 857, 858, 859, 860},
             {857, 858, 859, 860},
             {858, 859, 860},
             {859, 860},
             {860},
             {},
             {862, 863, 864, 865, 866, 867, 868, 869, 870},
             {863, 864, 865, 866, 867, 868, 869, 870},
             {864, 865, 866, 867, 868, 869, 870},
             {865, 866, 867, 868, 869, 870},
             {866, 867, 868, 869, 870},
             {867, 868, 869, 870},
             {868, 869, 870},
             {869, 870},
             {870},
             {},
             {872, 873, 874, 875, 876, 877, 878, 879, 880},
             {873, 874, 875, 876, 877, 878, 879, 880},
             {874, 875, 876, 877, 878, 879, 880},
             {875, 876, 877, 878, 879, 880},
             {876, 877, 878, 879, 880},
             {877, 878, 879, 880},
             {878, 879, 880},
             {879, 880},
             {880},
             {},
             {882, 883, 884, 885, 886, 887, 888, 889, 890},
             {883, 884, 885, 886, 887, 888, 889, 890},
             {884, 885, 886, 887, 888, 889, 890},
             {885, 886, 887, 888, 889, 890},
             {886, 887, 888, 889, 890},
             {887, 888, 889, 890},
             {888, 889, 890},
             {889, 890},
             {890},
             {},
             {892, 893, 894, 895, 896, 897, 898, 899, 900},
             {893, 894, 895, 896, 897, 898, 899, 900},
             {894, 895, 896, 897, 898, 899, 900},
             {895, 896, 897, 898, 899, 900},
             {896, 897, 898, 899, 900},
             {897, 898, 899, 900},
             {898, 899, 900},
             {899, 900},
             {900},
             {}];
InitialSolution = [1, 11, 21, 31, 41, 51, 61, 71, 81, 91, 101, 111, 121, 131, 141, 151, 161, 171, 181, 191, 201, 211, 221, 231, 241, 251, 261, 271, 281, 291, 301, 311, 321, 331, 341, 351, 361, 371, 381, 391, 401, 411, 421, 431, 441, 451, 461, 471, 481, 491, 501, 511, 521, 531, 541, 551, 561, 571, 581, 591, 601, 611, 621, 631, 641, 651, 661, 671, 681, 691, 701, 711, 721, 731, 741, 751, 761, 771, 781, 791, 801, 811, 821, 831, 841, 851, 861, 871, 881, 891, 2, 12, 22, 32, 42, 52, 62, 72, 82, 92, 102, 112, 122, 132, 142, 152, 162, 172, 182, 192, 202, 212, 222, 232, 242, 252, 262, 272, 282, 292, 302, 312, 322, 332, 342, 352, 362, 372, 382, 392, 402, 412, 422, 432, 442, 452, 462, 472, 482, 492, 502, 512, 522, 532, 542, 552, 562, 572, 582, 592, 602, 612, 622, 632, 642, 652, 662, 672, 682, 692, 702, 712, 722, 732, 742, 752, 762, 772, 782, 792, 802, 812, 822, 832, 842, 852, 862, 872, 882, 892, 3, 13, 23, 33, 43, 53, 63, 73, 83, 93, 103, 113, 123, 133, 143, 153, 163, 173, 183, 193, 203, 213, 223, 233, 243, 253, 263, 273, 283, 293, 303, 313, 323, 333, 343, 353, 363, 373, 383, 393, 403, 413, 423, 433, 443, 453, 463, 473, 483, 493, 503, 513, 523, 533, 543, 553, 563, 573, 583, 593, 603, 613, 623, 633, 643, 653, 663, 673, 683, 693, 703, 713, 723, 733, 743, 753, 763, 773, 783, 793, 803, 813, 823, 833, 843, 853, 863, 873, 883, 893, 4, 14, 24, 34, 44, 54, 64, 74, 84, 94, 104, 114, 124, 134, 144, 154, 164, 174, 184, 194, 204, 214, 224, 234, 244, 254, 264, 274, 284, 294, 304, 314, 324, 334, 344, 354, 364, 374, 384, 394, 404, 414, 424, 434, 444, 454, 464, 474, 484, 494, 504, 514, 524, 534, 544, 554, 564, 574, 584, 594, 604, 614, 624, 634, 644, 654, 664, 674, 684, 694, 704, 714, 724, 734, 744, 754, 764, 774, 784, 794, 804, 814, 824, 834, 844, 854, 864, 874, 884, 894, 5, 15, 25, 35, 45, 55, 65, 75, 85, 95, 105, 115, 125, 135, 145, 155, 165, 175, 185, 195, 205, 215, 225, 235, 245, 255, 265, 275, 285, 295, 305, 315, 325, 335, 345, 355, 365, 375, 385, 395, 405, 415, 425, 435, 445, 455, 465, 475, 485, 495, 505, 515, 525, 535, 545, 555, 565, 575, 585, 595, 605, 615, 625, 635, 645, 655, 665, 675, 685, 695, 705, 715, 725, 735, 745, 755, 765, 775, 785, 795, 805, 815, 825, 835, 845, 855, 865, 875, 885, 895, 6, 16, 26, 36, 46, 56, 66, 76, 86, 96, 106, 116, 126, 136, 146, 156, 166, 176, 186, 196, 206, 216, 226, 236, 246, 256, 266, 276, 286, 296, 306, 316, 326, 336, 346, 356, 366, 376, 386, 396, 406, 416, 426, 436, 446, 456, 466, 476, 486, 496, 506, 516, 526, 536, 546, 556, 566, 576, 586, 596, 606, 616, 626, 636, 646, 656, 666, 676, 686, 696, 706, 716, 726, 736, 746, 756, 766, 776, 786, 796, 806, 816, 826, 836, 846, 856, 866, 876, 886, 896, 7, 17, 27, 37, 47, 57, 67, 77, 87, 97, 107, 117, 127, 137, 147, 157, 167, 177, 187, 197, 207, 217, 227, 237, 247, 257, 267, 277, 287, 297, 307, 317, 327, 337, 347, 357, 367, 377, 387, 397, 407, 417, 427, 437, 447, 457, 467, 477, 487, 497, 507, 517, 527, 537, 547, 557, 567, 577, 587, 597, 607, 617, 627, 637, 647, 657, 667, 677, 687, 697, 707, 717, 727, 737, 747, 757, 767, 777, 787, 797, 807, 817, 827, 837, 847, 857, 867, 877, 887, 897, 8, 18, 28, 38, 48, 58, 68, 78, 88, 98, 108, 118, 128, 138, 148, 158, 168, 178, 188, 198, 208, 218, 228, 238, 248, 258, 268, 278, 288, 298, 308, 318, 328, 338, 348, 358, 368, 378, 388, 398, 408, 418, 428, 438, 448, 458, 468, 478, 488, 498, 508, 518, 528, 538, 548, 558, 568, 578, 588, 598, 608, 618, 628, 638, 648, 658, 668, 678, 688, 698, 708, 718, 728, 738, 748, 758, 768, 778, 788, 798, 808, 818, 828, 838, 848, 858, 868, 878, 888, 898, 9, 19, 29, 39, 49, 59, 69, 79, 89, 99, 109, 119, 129, 139, 149, 159, 169, 179, 189, 199, 209, 219, 229, 239, 249, 259, 269, 279, 289, 299, 309, 319, 329, 339, 349, 359, 369, 379, 389, 399, 409, 419, 429, 439, 449, 459, 469, 479, 489, 499, 509, 519, 529, 539, 549, 559, 569, 579, 589, 599, 609, 619, 629, 639, 649, 659, 669, 679, 689, 699, 709, 719, 729, 739, 749, 759, 769, 779, 789, 799, 809, 819, 829, 839, 849, 859, 869, 879, 889, 899, 10, 20, 30, 40, 50, 60, 70, 80, 90, 100, 110, 120, 130, 140, 150, 160, 170, 180, 190, 200, 210, 220, 230, 240, 250, 260, 270, 280, 290, 300, 310, 320, 330, 340, 350, 360, 370, 380, 390, 400, 410, 420, 430, 440, 450, 460, 470, 480, 490, 500, 510, 520, 530, 540, 550, 560, 570, 580, 590, 600, 610, 620, 630, 640, 650, 660, 670, 680, 690, 700, 710, 720, 730, 740, 750, 760, 770, 780, 790, 800, 810, 820, 830, 840, 850, 860, 870, 880, 890, 900];