numResources = 3;
numTasks = 22;
Duration = [2, 3, 2, 169, 3, 1, 226, 115, 166, 208, 113, 169, 156, 4, 5, 3, 166, 2, 150, 6, 208, 5];
ResourceCapability = [5, 7, 7];
ResourceRequirement = [|1, 1, 1, 1, 2, 2, 3, 2, 2, 2, 1, 3, 3, 3, 3, 3, 2, 3, 3, 3, 5, 4
                       |1, 1, 2, 2, 1, 1, 1, 2, 2, 1, 1, 2, 1, 2, 1, 2, 2, 1, 1, 2, 1, 2
                       |1, 1, 1, 2, 2, 1, 2, 2, 1, 2, 1, 2, 1, 1, 2, 2, 2, 1, 2, 2, 2, 2|];
Successor = [{},
             {5},
             {},
             {17},
             {},
             {14, 18},
             {},
             {20},
             {},
             {16},
             {},
             {},
             {},
             {18},
             {20},
             {},
             {},
             {},
             {},
             {},
             {},
             {}];
InitialSolution = [6, 2, 4, 8, 10, 14, 15, 1, 3, 5, 7, 9, 11, 12, 13, 16, 17, 18, 19, 20, 21, 22];