numResources = 2;
numTasks = 18;
Duration = [13, 692, 1075, 19, 14, 261, 10, 8, 766, 598, 16, 622, 943, 5, 11, 17, 943, 15];
ResourceCapability = [7, 9];
ResourceRequirement = [|2, 2, 2, 2, 2, 2, 2, 2, 2, 2, 2, 2, 2, 2, 2, 2, 2, 2
                       |2, 3, 3, 2, 2, 2, 2, 3, 2, 2, 2, 2, 3, 2, 3, 3, 2, 2|];
Successor = [{12, 16},
             {15},
             {8, 9, 10, 13, 14, 15, 16, 17},
             {12, 16},
             {17},
             {13},
             {},
             {9, 10, 15, 16, 17},
             {10, 16, 17},
             {16, 17},
             {},
             {16},
             {},
             {},
             {},
             {},
             {},
             {}];
InitialSolution = [3, 8, 9, 1, 4, 10, 2, 5, 6, 12, 7, 11, 13, 14, 15, 16, 17, 18];