numResources = 3;
numTasks = 18;
Duration = [11, 923, 792, 10, 10, 365, 7, 19, 459, 598, 8, 905, 444, 5, 8, 15, 666, 8];
ResourceCapability = [9, 5, 5];
ResourceRequirement = [|4, 2, 4, 3, 4, 2, 2, 2, 3, 4, 4, 2, 5, 5, 3, 5, 5, 2
                       |2, 2, 2, 2, 2, 2, 2, 2, 2, 2, 2, 2, 2, 2, 2, 2, 2, 2
                       |2, 2, 2, 2, 2, 2, 2, 2, 2, 2, 2, 2, 2, 2, 2, 2, 2, 2|];
Successor = [{7, 11, 12, 14, 16, 17},
             {16},
             {5, 13, 15, 17},
             {5, 13, 15, 17},
             {13, 15, 17},
             {17},
             {11, 12, 14, 16, 17},
             {},
             {12, 17},
             {},
             {16},
             {17},
             {15},
             {17},
             {},
             {},
             {},
             {}];
InitialSolution = [1, 7, 3, 4, 5, 9, 2, 6, 11, 12, 13, 14, 8, 10, 15, 16, 17, 18];