numResources = 2;
numTasks = 18;
Duration = [19, 1038, 1075, 15, 11, 835, 9, 7, 255, 299, 8, 792, 555, 15, 16, 6, 1054, 12];
ResourceCapability = [9, 8];
ResourceRequirement = [|2, 2, 3, 3, 3, 3, 3, 3, 2, 2, 3, 3, 3, 2, 3, 3, 2, 2
                       |3, 3, 3, 3, 2, 3, 3, 3, 2, 2, 3, 3, 3, 2, 3, 3, 2, 2|];
Successor = [{14, 15, 17},
             {5, 6, 15, 16, 17},
             {5, 16, 17},
             {9, 10, 12, 14},
             {},
             {15, 17},
             {},
             {16},
             {12},
             {},
             {},
             {},
             {},
             {},
             {17},
             {},
             {},
             {}];
InitialSolution = [2, 4, 1, 3, 6, 8, 9, 15, 5, 7, 10, 11, 12, 13, 14, 16, 17, 18];