numResources = 3;
numTasks = 29;
Duration = [4, 159, 166, 226, 4, 4, 104, 2, 2, 169, 117, 2, 239, 55, 2, 3, 102, 4, 55, 4, 2, 4, 179, 3, 2, 2, 2, 150, 57];
ResourceCapability = [7, 7, 9];
ResourceRequirement = [|1, 1, 2, 2, 3, 2, 5, 2, 2, 4, 3, 2, 3, 3, 5, 2, 3, 3, 1, 3, 3, 3, 2, 2, 2, 4, 4, 2, 2
                       |1, 2, 2, 2, 2, 2, 2, 1, 1, 2, 1, 2, 2, 1, 2, 2, 1, 1, 2, 1, 1, 1, 1, 1, 1, 2, 1, 2, 1
                       |3, 1, 2, 2, 1, 2, 2, 3, 2, 2, 1, 1, 1, 3, 2, 1, 3, 3, 3, 3, 2, 3, 2, 1, 3, 1, 2, 3, 3|];
Successor = [{},
             {4, 5, 11, 18, 19, 21},
             {23},
             {},
             {11, 18},
             {},
             {},
             {},
             {19, 21},
             {15, 28},
             {},
             {16},
             {},
             {},
             {},
             {},
             {},
             {},
             {21},
             {},
             {},
             {},
             {},
             {},
             {},
             {},
             {},
             {},
             {}];
InitialSolution = [2, 5, 9, 10, 3, 12, 19, 1, 4, 6, 7, 8, 11, 13, 14, 15, 16, 17, 18, 20, 21, 22, 23, 24, 25, 26, 27, 28, 29];