numResources = 3;
numTasks = 15;
Duration = [4, 106, 313, 4, 346, 3, 5, 5, 55, 283, 255, 4, 3, 6, 222];
ResourceCapability = [5, 8, 7];
ResourceRequirement = [|3, 3, 2, 2, 3, 2, 2, 3, 3, 5, 2, 2, 4, 5, 4
                       |3, 3, 1, 2, 1, 3, 1, 1, 3, 2, 3, 3, 3, 2, 1
                       |1, 2, 2, 2, 2, 1, 1, 2, 1, 1, 1, 2, 1, 2, 1|];
Successor = [{10, 13, 14},
             {},
             {},
             {},
             {},
             {13, 14},
             {},
             {},
             {},
             {13, 14},
             {14},
             {},
             {14},
             {},
             {}];
InitialSolution = [1, 6, 10, 11, 13, 2, 3, 4, 5, 7, 8, 9, 12, 14, 15];