numResources = 3;
numTasks = 21;
Duration = [156, 179, 3, 2, 4, 222, 159, 113, 2, 3, 169, 4, 4, 208, 169, 100, 53, 2, 2, 3, 1];
ResourceCapability = [7, 8, 8];
ResourceRequirement = [|1, 1, 3, 3, 2, 5, 2, 4, 2, 4, 3, 2, 3, 3, 2, 3, 2, 3, 2, 2, 5
                       |3, 2, 3, 2, 1, 2, 3, 2, 2, 1, 3, 1, 2, 2, 3, 2, 2, 2, 3, 3, 1
                       |2, 1, 1, 2, 3, 3, 3, 2, 2, 1, 2, 2, 2, 1, 3, 1, 2, 2, 1, 3, 2|];
Successor = [{5, 8, 14, 18},
             {},
             {},
             {11, 12},
             {8, 18},
             {},
             {},
             {},
             {},
             {18},
             {},
             {},
             {17, 19},
             {},
             {},
             {},
             {19},
             {},
             {},
             {},
             {}];
InitialSolution = [1, 4, 5, 13, 10, 17, 2, 3, 6, 7, 8, 9, 11, 12, 14, 15, 16, 18, 19, 20, 21];