numResources = 3;
numTasks = 32;
Duration = [4, 6, 283, 3, 208, 6, 4, 173, 222, 117, 306, 4, 4, 255, 166, 3, 156, 4, 213, 261, 115, 346, 57, 2, 2, 2, 283, 226, 3, 2, 2, 1];
ResourceCapability = [5, 9, 9];
ResourceRequirement = [|1, 5, 1, 2, 2, 5, 2, 2, 3, 2, 2, 2, 2, 4, 3, 1, 4, 3, 3, 4, 5, 3, 3, 2, 4, 2, 1, 1, 5, 2, 2, 5
                       |1, 1, 1, 3, 2, 3, 2, 3, 1, 2, 2, 2, 1, 2, 3, 2, 1, 1, 1, 2, 1, 1, 1, 1, 2, 3, 2, 2, 3, 1, 3, 2
                       |1, 1, 3, 2, 2, 3, 3, 3, 1, 1, 3, 1, 3, 2, 2, 2, 2, 3, 3, 3, 2, 3, 3, 1, 2, 2, 1, 3, 3, 2, 2, 3|];
Successor = [{19},
             {6},
             {},
             {10},
             {},
             {},
             {24, 27},
             {},
             {29},
             {},
             {30},
             {},
             {20},
             {},
             {31},
             {30},
             {22},
             {},
             {},
             {},
             {},
             {},
             {},
             {27},
             {},
             {},
             {},
             {},
             {},
             {},
             {},
             {}];
InitialSolution = [7, 1, 2, 4, 9, 11, 13, 15, 16, 17, 24, 3, 5, 6, 8, 10, 12, 14, 18, 19, 20, 21, 22, 23, 25, 26, 27, 28, 29, 30, 31, 32];