numResources = 3;
numTasks = 28;
Duration = [208, 115, 204, 3, 3, 3, 166, 2, 204, 3, 176, 235, 113, 2, 3, 208, 3, 4, 3, 179, 4, 226, 111, 3, 4, 2, 166, 1];
ResourceCapability = [7, 8, 9];
ResourceRequirement = [|1, 1, 2, 5, 2, 3, 2, 1, 2, 3, 2, 2, 2, 2, 2, 3, 3, 2, 4, 3, 3, 3, 3, 3, 4, 4, 2, 5
                       |3, 1, 3, 2, 3, 2, 2, 2, 1, 3, 2, 2, 1, 1, 2, 1, 1, 1, 3, 3, 2, 1, 3, 1, 3, 1, 1, 1
                       |3, 1, 3, 3, 1, 2, 3, 1, 3, 1, 2, 1, 2, 3, 1, 3, 2, 1, 1, 3, 1, 3, 2, 1, 1, 3, 3, 1|];
Successor = [{},
             {},
             {13, 25, 27},
             {},
             {},
             {22, 24},
             {14},
             {},
             {},
             {},
             {12, 22, 24},
             {},
             {25, 27},
             {},
             {},
             {},
             {},
             {},
             {21, 22, 24},
             {22, 24},
             {22, 24},
             {24},
             {},
             {},
             {27},
             {},
             {},
             {}];
InitialSolution = [3, 11, 19, 6, 13, 20, 21, 7, 22, 25, 1, 2, 4, 5, 8, 9, 10, 12, 14, 15, 16, 17, 18, 23, 24, 26, 27, 28];