numResources = 3;
numTasks = 29;
Duration = [6, 159, 166, 283, 2, 6, 313, 2, 5, 226, 235, 6, 179, 166, 5, 2, 102, 6, 111, 2, 6, 4, 239, 4, 4, 2, 2, 200, 346];
ResourceCapability = [5, 8, 7];
ResourceRequirement = [|3, 2, 2, 2, 4, 1, 2, 1, 2, 4, 1, 2, 3, 2, 4, 5, 2, 3, 3, 2, 1, 3, 1, 3, 2, 4, 3, 5, 5
                       |1, 2, 1, 3, 3, 3, 1, 3, 1, 1, 2, 1, 1, 1, 1, 3, 2, 3, 2, 1, 2, 3, 1, 1, 1, 2, 1, 2, 3
                       |1, 1, 2, 1, 1, 1, 2, 1, 1, 1, 2, 2, 2, 2, 1, 2, 1, 2, 1, 2, 2, 2, 1, 1, 1, 1, 2, 2, 1|];
Successor = [{9},
             {14, 23},
             {25},
             {26},
             {},
             {},
             {},
             {},
             {},
             {18},
             {},
             {15, 22},
             {},
             {23},
             {22},
             {19, 22},
             {},
             {},
             {22},
             {23},
             {},
             {},
             {},
             {},
             {},
             {},
             {},
             {},
             {}];
InitialSolution = [2, 12, 16, 1, 3, 4, 10, 14, 15, 19, 20, 5, 6, 7, 8, 9, 11, 13, 17, 18, 21, 22, 23, 24, 25, 26, 27, 28, 29];