numResources = 3;
numTasks = 19;
Duration = [5, 115, 2, 288, 2, 3, 200, 5, 359, 339, 5, 3, 4, 3, 261, 306, 3, 2, 266];
ResourceCapability = [5, 9, 8];
ResourceRequirement = [|3, 1, 2, 4, 2, 2, 2, 2, 3, 3, 3, 2, 4, 3, 2, 2, 5, 5, 3
                       |2, 2, 3, 3, 3, 1, 2, 1, 3, 2, 3, 2, 2, 2, 1, 1, 3, 1, 2
                       |3, 3, 1, 3, 3, 1, 1, 3, 2, 3, 2, 3, 2, 1, 1, 2, 2, 2, 3|];
Successor = [{},
             {},
             {5, 6},
             {},
             {6},
             {},
             {16},
             {18},
             {},
             {},
             {},
             {},
             {},
             {},
             {},
             {},
             {},
             {},
             {}];
InitialSolution = [3, 5, 7, 8, 1, 2, 4, 6, 9, 10, 11, 12, 13, 14, 15, 16, 17, 18, 19];