numResources = 3;
numTasks = 19;
Duration = [4, 115, 2, 230, 3, 1, 150, 3, 359, 169, 4, 5, 3, 3, 313, 255, 2, 6, 106];
ResourceCapability = [5, 9, 7];
ResourceRequirement = [|5, 1, 3, 2, 1, 2, 2, 3, 3, 5, 1, 2, 1, 4, 4, 4, 3, 2, 3
                       |1, 2, 3, 3, 2, 1, 1, 3, 2, 2, 1, 2, 1, 3, 2, 3, 1, 3, 1
                       |1, 2, 1, 1, 1, 1, 1, 1, 1, 1, 2, 1, 1, 2, 2, 1, 2, 2, 2|];
Successor = [{9, 15},
             {6, 13},
             {},
             {},
             {15},
             {13},
             {},
             {},
             {15},
             {},
             {},
             {16},
             {},
             {},
             {},
             {},
             {},
             {},
             {}];
InitialSolution = [1, 2, 5, 6, 9, 12, 3, 4, 7, 8, 10, 11, 13, 14, 15, 16, 17, 18, 19];