numResources = 3;
numTasks = 31;
Duration = [4, 2, 204, 226, 239, 5, 6, 288, 169, 5, 53, 5, 319, 6, 1, 3, 5, 6, 4, 2, 235, 102, 3, 3, 111, 100, 239, 113, 226, 5, 4];
ResourceCapability = [5, 9, 9];
ResourceRequirement = [|2, 4, 1, 3, 3, 2, 2, 1, 2, 3, 1, 2, 3, 2, 2, 2, 3, 1, 3, 2, 1, 3, 3, 3, 4, 4, 4, 3, 2, 5, 5
                       |2, 2, 3, 2, 1, 1, 2, 1, 3, 2, 2, 3, 3, 3, 1, 1, 3, 1, 1, 1, 3, 3, 2, 1, 3, 3, 2, 1, 1, 1, 1
                       |1, 3, 2, 2, 3, 1, 1, 3, 3, 2, 3, 2, 3, 3, 1, 2, 2, 1, 3, 2, 3, 2, 1, 2, 1, 1, 2, 3, 2, 3, 1|];
Successor = [{},
             {22},
             {18, 27},
             {6, 28, 30},
             {},
             {28, 30},
             {21},
             {21},
             {28, 30},
             {15},
             {},
             {25},
             {},
             {},
             {},
             {},
             {19},
             {27},
             {},
             {},
             {},
             {},
             {},
             {},
             {},
             {},
             {},
             {30},
             {},
             {},
             {}];
InitialSolution = [4, 3, 6, 9, 2, 7, 8, 10, 12, 17, 18, 28, 1, 5, 11, 13, 14, 15, 16, 19, 20, 21, 22, 23, 24, 25, 26, 27, 29, 30, 31];