numResources = 3;
numTasks = 18;
Duration = [17, 980, 962, 17, 19, 261, 14, 10, 306, 598, 15, 396, 388, 8, 12, 15, 943, 13];
ResourceCapability = [9, 5, 5];
ResourceRequirement = [|4, 4, 2, 2, 3, 4, 4, 4, 2, 2, 2, 2, 2, 4, 5, 2, 2, 2
                       |2, 2, 2, 2, 2, 2, 2, 2, 2, 2, 2, 2, 2, 2, 2, 2, 2, 2
                       |2, 2, 2, 2, 2, 2, 2, 2, 2, 2, 2, 2, 2, 2, 2, 2, 2, 2|];
Successor = [{16},
             {10, 16, 17},
             {},
             {},
             {8, 11},
             {13},
             {},
             {},
             {11, 14},
             {17},
             {},
             {16},
             {},
             {},
             {},
             {},
             {},
             {}];
InitialSolution = [2, 5, 9, 1, 6, 10, 12, 3, 4, 7, 8, 11, 13, 14, 15, 16, 17, 18];