numResources = 3;
numTasks = 28;
Duration = [156, 288, 255, 3, 4, 5, 166, 4, 102, 1, 176, 58, 113, 2, 2, 261, 5, 6, 3, 179, 3, 226, 277, 2, 5, 4, 222, 3];
ResourceCapability = [5, 8, 8];
ResourceRequirement = [|3, 2, 4, 5, 3, 2, 1, 2, 3, 3, 2, 4, 2, 1, 2, 3, 1, 1, 4, 4, 3, 4, 5, 4, 5, 2, 3, 5
                       |1, 1, 1, 1, 1, 2, 2, 2, 2, 3, 3, 3, 1, 2, 3, 3, 3, 1, 1, 3, 3, 1, 3, 1, 3, 2, 3, 1
                       |3, 3, 1, 2, 1, 3, 1, 1, 1, 1, 3, 1, 2, 2, 1, 3, 2, 2, 3, 3, 3, 3, 2, 3, 1, 2, 2, 2|];
Successor = [{2, 5, 7, 8, 9, 10, 11, 12, 13, 15, 18, 19, 20, 21, 22, 23, 24, 25, 26, 27},
             {5, 9, 10, 11, 12, 15, 19, 20, 21, 22, 24, 25, 26},
             {4, 6, 10, 14, 15, 17, 21, 23, 27},
             {15, 17, 21, 23, 27},
             {11, 19, 20, 22, 25, 26},
             {14, 15, 17, 21, 27},
             {8, 12, 13, 23, 24, 25, 27},
             {27},
             {10, 12, 19, 20, 22, 24, 25, 26},
             {},
             {19, 20, 22, 25, 26},
             {24},
             {23, 25},
             {15, 21},
             {21},
             {18, 20, 23, 26, 27},
             {27},
             {20, 26, 27},
             {22, 25},
             {26},
             {},
             {25},
             {},
             {},
             {},
             {},
             {},
             {}];
InitialSolution = [1, 2, 3, 9, 7, 5, 4, 6, 11, 16, 18, 13, 14, 19, 8, 12, 15, 17, 20, 22, 10, 21, 23, 24, 25, 26, 27, 28];