numResources = 3;
numTasks = 30;
Duration = [2, 4, 2, 5, 2, 3, 339, 230, 333, 156, 150, 4, 156, 106, 4, 2, 111, 359, 277, 169, 1, 250, 4, 2, 4, 261, 159, 169, 3, 5];
ResourceCapability = [5, 7, 9];
ResourceRequirement = [|4, 1, 4, 5, 1, 1, 4, 2, 3, 1, 2, 2, 3, 2, 2, 2, 2, 3, 1, 2, 4, 4, 3, 2, 2, 2, 5, 3, 1, 3
                       |1, 2, 1, 1, 2, 1, 2, 2, 2, 1, 1, 1, 2, 1, 1, 1, 1, 2, 1, 2, 1, 1, 2, 2, 2, 2, 1, 1, 1, 1
                       |1, 1, 1, 3, 3, 3, 1, 3, 2, 2, 3, 1, 1, 1, 1, 3, 1, 3, 1, 2, 3, 3, 3, 3, 1, 2, 1, 1, 3, 1|];
Successor = [{},
             {},
             {},
             {24},
             {21, 24},
             {},
             {22},
             {24},
             {12, 27},
             {27},
             {},
             {27},
             {22},
             {27},
             {22, 24},
             {29},
             {},
             {29},
             {24},
             {23, 26},
             {24},
             {},
             {26},
             {},
             {},
             {},
             {},
             {29},
             {},
             {}];
InitialSolution = [5, 9, 15, 20, 4, 7, 8, 10, 12, 13, 14, 16, 18, 19, 21, 23, 28, 1, 2, 3, 6, 11, 17, 22, 24, 25, 26, 27, 29, 30];