numResources = 3;
numTasks = 33;
Duration = [208, 333, 4, 213, 104, 3, 1, 283, 261, 113, 2, 250, 288, 6, 1, 153, 235, 5, 208, 6, 150, 3, 3, 115, 2, 3, 5, 173, 153, 3, 4, 2, 1];
ResourceCapability = [5, 7, 8];
ResourceRequirement = [|3, 1, 5, 4, 1, 1, 1, 2, 4, 2, 1, 2, 4, 5, 3, 2, 3, 3, 3, 2, 3, 3, 3, 2, 3, 2, 2, 1, 1, 5, 2, 2, 5
                       |2, 2, 1, 1, 1, 1, 1, 1, 1, 1, 1, 2, 2, 1, 2, 1, 2, 2, 2, 1, 1, 1, 1, 2, 1, 1, 1, 1, 1, 2, 1, 2, 2
                       |3, 3, 3, 2, 1, 1, 3, 2, 1, 3, 1, 2, 1, 3, 1, 1, 2, 3, 3, 1, 3, 2, 2, 2, 3, 1, 3, 2, 2, 1, 3, 1, 3|];
Successor = [{25},
             {},
             {},
             {23},
             {14},
             {22},
             {28},
             {},
             {},
             {},
             {},
             {},
             {},
             {},
             {},
             {},
             {21, 23},
             {},
             {},
             {21, 23},
             {23},
             {},
             {},
             {29, 32},
             {},
             {},
             {},
             {},
             {32},
             {},
             {},
             {},
             {}];
InitialSolution = [17, 20, 24, 1, 4, 5, 6, 7, 21, 29, 2, 3, 8, 9, 10, 11, 12, 13, 14, 15, 16, 18, 19, 22, 23, 25, 26, 27, 28, 30, 31, 32, 33];